     Program PWSCF v.7.0 starts on 21May2023 at  6:57:28

     Reading input from espresso_21674.pwi
Warning: card &CELL ignored
Warning: card / ignored

     Current dimensions of program PWSCF are:
     Max number of different atomic species (ntypx) = 10
     Max number of k-points (npk) =  40000
     Max angular momentum in pseudopotentials (lmaxx) =  4
     file K.pbe-spn-kjpaw_psl.1.0.0.UPF: wavefunction(s)  3S renormalized
     file In.pbe-dn-rrkjus_psl.0.2.2.UPF: wavefunction(s)  5S renormalized

     gamma-point specific algorithms are used
     Message from routine setup:
     using ibrav=0 with symmetry is DISCOURAGED, use correct ibrav instead

     Subspace diagonalization in iterative solution of the eigenvalue problem:
     a serial algorithm will be used

     Using Slab Decomposition

     bravais-lattice index     =            0
     lattice parameter (alat)  =      16.5755  a.u.
     unit-cell volume          =    3220.2417 (a.u.)^3
     number of atoms/cell      =           10
     number of atomic types    =            4
     number of electrons       =        84.00
     number of Kohn-Sham states=           50
     kinetic-energy cutoff     =      30.0000  Ry
     charge density cutoff     =     240.0000  Ry
     scf convergence threshold =      1.0E-06
     mixing beta               =       0.7000
     number of iterations used =            8  plain     mixing
     Exchange-correlation= SLA  PW   PBX  PBC
                           (   1   4   3   4   0   0   0)

     celldm(1)=  16.575545  celldm(2)=   0.000000  celldm(3)=   0.000000
     celldm(4)=   0.000000  celldm(5)=   0.000000  celldm(6)=   0.000000

     crystal axes: (cart. coord. in units of alat)
               a(1) = (   1.000000   0.000000   0.000000 )
               a(2) = (   0.500000   0.866025   0.000000 )
               a(3) = (   0.500000   0.288675   0.816497 )

     reciprocal axes: (cart. coord. in units 2 pi/alat)
               b(1) = (  1.000000 -0.577350 -0.408248 )
               b(2) = (  0.000000  1.154701 -0.408248 )
               b(3) = (  0.000000  0.000000  1.224745 )

     PseudoPot. # 1 for K  read from file:
     /home/pragov/projects/rrg-bengioy-ad/pragov/crystal_structure_design/SSSP/K.pbe-spn-kjpaw_psl.1.0.0.UPF
     MD5 check sum: 7d58810084cac21f60fbe77ea2b688fd
     Pseudo is Projector augmented-wave + core cor, Zval =  9.0
     Generated using "atomic" code by A. Dal Corso  v.5.1
     Shape of augmentation charge: PSQ
     Using radial grid of 1165 points,  6 beta functions with:
                l(1) =   0
                l(2) =   0
                l(3) =   1
                l(4) =   1
                l(5) =   2
                l(6) =   2
     Q(r) pseudized with 0 coefficients

     PseudoPot. # 2 for Sc read from file:
     /home/pragov/projects/rrg-bengioy-ad/pragov/crystal_structure_design/SSSP/Sc_ONCV_PBE-1.0.oncvpsp.upf
     MD5 check sum: e21af8023abb52e52cb7cd3133e4a229
     Pseudo is Norm-conserving, Zval = 11.0
     Generated using ONCVPSP code by D. R. Hamann
     Using radial grid of 1662 points,  6 beta functions with:
                l(1) =   0
                l(2) =   0
                l(3) =   1
                l(4) =   1
                l(5) =   2
                l(6) =   2

     PseudoPot. # 3 for In read from file:
     /home/pragov/projects/rrg-bengioy-ad/pragov/crystal_structure_design/SSSP/In.pbe-dn-rrkjus_psl.0.2.2.UPF
     MD5 check sum: 25e7c42c3b55b68f4bf926be2e7201a4
     Pseudo is Ultrasoft + core correction, Zval = 13.0
     Generated using "atomic" code by A. Dal Corso  v.5.0.99 svn rev. 10869
     Using radial grid of 1241 points,  6 beta functions with:
                l(1) =   0
                l(2) =   0
                l(3) =   1
                l(4) =   1
                l(5) =   2
                l(6) =   2
     Q(r) pseudized with 0 coefficients

     PseudoPot. # 4 for I  read from file:
     /home/pragov/projects/rrg-bengioy-ad/pragov/crystal_structure_design/SSSP/I.pbe-n-kjpaw_psl.0.2.UPF
     MD5 check sum: d4ef18d9c8f18dc85e5843bca1e50dc0
     Pseudo is Projector augmented-wave + core cor, Zval =  7.0
     Generated using "atomic" code by A. Dal Corso  v.5.0.99 svn rev. 10869
     Shape of augmentation charge: PSQ
     Using radial grid of 1247 points,  4 beta functions with:
                l(1) =   0
                l(2) =   0
                l(3) =   1
                l(4) =   1
     Q(r) pseudized with 0 coefficients

     atomic species   valence    mass     pseudopotential
        K              9.00    39.09830     K ( 1.00)
        Sc            11.00    44.95591     Sc( 1.00)
        In            13.00   114.81800     In( 1.00)
        I              7.00   126.90447     I ( 1.00)

     12 Sym. Ops., with inversion, found

                                    s                        frac. trans.

      isym =  1     identity

 cryst.   s( 1) = (     1          0          0      )
                  (     0          1          0      )
                  (     0          0          1      )

 cart.    s( 1) = (  1.0000000  0.0000000 -0.0000000 )
                  (  0.0000000  1.0000000 -0.0000000 )
                  (  0.0000000  0.0000000  1.0000000 )

      isym =  2     180 deg rotation - cart. axis [1,0,0]

[...]

      isym =  3     120 deg rotation - cryst. axis [0,0,1]

[...]

      isym =  6     180 deg rotation - cryst. axis [1,1,0]

[...]

      isym =  7     inversion

[...]

      isym =  8     inv. 180 deg rotation - cart. axis [1,0,0]

[...]

      isym =  9     inv. 120 deg rotation - cryst. axis [0,0,1]

 cryst.   s( 9) = (     1         -1          0      )
                  (     1          0          0      )
                  (     1          0         -1      )

 cart.    s( 9) = (  0.5000000  0.8660254 -0.0000000 )
                  ( -0.8660254  0.5000000  0.0000000 )
                  (  0.0000000  0.0000000 -1.0000000 )

[...]

 cryst.   s(10) = (     0          1          0      )
                  (    -1          1          0      )
                  (     0          1         -1      )

 cart.    s(10) = (  0.5000000 -0.8660254  0.0000000 )
                  (  0.8660254  0.5000000 -0.0000000 )
                  (  0.0000000  0.0000000 -1.0000000 )

[...]

      isym = 12     inv. 180 deg rotation - cryst. axis [1,1,0]

 cryst.   s(12) = (     1         -1          0      )
                  (     0         -1          0      )
                  (     0         -1          1      )

 cart.    s(12) = (  0.5000000 -0.8660254  0.0000000 )
                  ( -0.8660254 -0.5000000  0.0000000 )
                  (  0.0000000  0.0000000  1.0000000 )

   Cartesian axes

     site n.     atom                  positions (alat units)
         1           K   tau(   1) = (   1.5000000   0.8660254   0.6123724  )
         2           K   tau(   2) = (   0.5000000   0.2886751   0.2041241  )
         3           Sc  tau(   3) = (   0.0000000   0.0000000   0.0000000  )
         4           In  tau(   4) = (   1.0000000   0.5773503   0.4082483  )
         5           I   tau(   5) = (   1.0000000   0.2694886   0.1905572  )
         6           I   tau(   6) = (   0.7333840   0.4234194   0.6259393  )
         7           I   tau(   7) = (   1.0000000   0.8852119   0.6259393  )
         8           I   tau(   8) = (   0.7333840   0.7312811   0.1905572  )
         9           I   tau(   9) = (   1.2666160   0.4234194   0.6259393  )
        10           I   tau(  10) = (   1.2666160   0.7312811   0.1905572  )

   Crystallographic axes

     site n.     atom                  positions (cryst. coord.)
         1           K   tau(   1) = (  0.7500000  0.7500000  0.7500000  )
         2           K   tau(   2) = (  0.2500000  0.2500000  0.2500000  )
         3           Sc  tau(   3) = (  0.0000000  0.0000000  0.0000000  )
         4           In  tau(   4) = (  0.5000000  0.5000000  0.5000000  )
         5           I   tau(   5) = (  0.7666160  0.2333840  0.2333840  )
         6           I   tau(   6) = (  0.2333840  0.2333840  0.7666160  )
         7           I   tau(   7) = (  0.2333840  0.7666160  0.7666160  )
         8           I   tau(   8) = (  0.2333840  0.7666160  0.2333840  )
         9           I   tau(   9) = (  0.7666160  0.2333840  0.7666160  )
        10           I   tau(  10) = (  0.7666160  0.7666160  0.2333840  )

     number of k points=     1  Methfessel-Paxton smearing, width (Ry)=  0.0010
                       cart. coord. in units 2pi/alat
        k(    1) = (   0.0000000   0.0000000   0.0000000), wk =   2.0000000

                       cryst. coord.
        k(    1) = (   0.0000000   0.0000000   0.0000000), wk =   2.0000000

     Check: negative core charge=   -0.000002

     Initial potential from superposition of free atoms

     starting charge      83.9555, renormalised to      84.0000
     Starting wfcs are   59 randomized atomic wfcs
     Checking if some PAW data can be deallocated...

     Self-consistent Calculation

     iteration #  1     ecut=    30.00 Ry     beta= 0.70
     Davidson diagonalization with overlap

     ethr =  1.00E-02,  avg # of iterations =  3.0

     Threshold (ethr) on eigenvalues was too large:
     Diagonalizing with lowered threshold

     Davidson diagonalization with overlap

[...]

     total energy              =   -2736.77685546 Ry
     estimated scf accuracy    <       0.27486036 Ry

[...]

     negative rho (up, down):  2.581E-05 0.000E+00

[...]

     total energy              =   -2736.86417755 Ry
     estimated scf accuracy    <       0.00000161 Ry

     iteration #  8     ecut=    30.00 Ry     beta= 0.70
     Davidson diagonalization with overlap

     ethr =  1.91E-09,  avg # of iterations =  3.0

[...]

     End of self-consistent calculation

          k = 0.0000 0.0000 0.0000 (  4437 PWs)   bands (ev):

   -47.8240 -28.5358 -28.5358 -26.3638 -26.3638 -26.3638 -11.9817 -11.9817
   -11.9817 -11.9811 -11.9811 -11.9811 -11.1800 -11.1799 -11.1401 -11.1401
   -11.1401  -9.4892  -9.0684  -9.0679  -9.0678  -8.9169  -8.9165  -2.5630
    -0.4643  -0.4642  -0.4641  -0.0177  -0.0176  -0.0175   0.4547   0.4550
     1.1314   1.2815   1.2815   1.2817   1.5025   1.5025   1.5025   1.9376
     1.9377   1.9379   4.3044   4.3044   4.3045   5.0102   5.7115   5.7117
     5.7359   5.7365

     occupation numbers
     1.0000   1.0000   1.0000   1.0000   1.0000   1.0000   1.0000   1.0000
     1.0000   1.0000   1.0000   1.0000   1.0000   1.0000   1.0000   1.0000
     1.0000   1.0000   1.0000   1.0000   1.0000   1.0000   1.0000   1.0000
     1.0000   1.0000   1.0000   1.0000   1.0000   1.0000   1.0000   1.0000
     1.0000   1.0000   1.0000   1.0000   1.0000   1.0000   1.0000   1.0000
     1.0000   1.0000  -0.0000  -0.0000  -0.0000  -0.0000  -0.0000  -0.0000
    -0.0000  -0.0000

     the Fermi energy is     2.5080 ev

!    total energy              =   -2736.86417808 Ry
     estimated scf accuracy    <       0.00000020 Ry
     smearing contrib. (-TS)   =       0.00000000 Ry
     internal energy E=F+TS    =   -2736.86417808 Ry

     The total energy is F=E-TS. E is the sum of the following terms:
     one-electron contribution =    -234.72643304 Ry
     hartree contribution      =     148.16550941 Ry
     xc contribution           =    -332.68108681 Ry
     ewald contribution        =    -283.62138133 Ry
     one-center paw contrib.   =   -2034.00078630 Ry
      -> PAW hartree energy AE =     134.46127410 Ry
      -> PAW hartree energy PS =    -134.42066191 Ry
      -> PAW xc energy AE      =   -2298.40128397 Ry
      -> PAW xc energy PS      =     264.35988549 Ry
      -> total E_H with PAW    =     148.20612159 Ry
      -> total E_XC with PAW   =   -2366.72248529 Ry

     convergence has been achieved in   8 iterations

     negative rho (up, down):  2.219E-05 0.000E+00

     Forces acting on atoms (cartesian axes, Ry/au):

     atom    1 type  1   force =     0.00000000   -0.00000000    0.00001844
     atom    2 type  1   force =     0.00000000    0.00000000   -0.00001844
     atom    3 type  2   force =     0.00000000    0.00000000   -0.00000000
     atom    4 type  3   force =     0.00000000    0.00000000   -0.00000000
     atom    5 type  4   force =     0.00000000    0.00184389    0.00130149
     atom    6 type  4   force =     0.00159686    0.00092195   -0.00130149
     atom    7 type  4   force =     0.00000000   -0.00184389   -0.00130149
     atom    8 type  4   force =     0.00159686   -0.00092195    0.00130149
     atom    9 type  4   force =    -0.00159686    0.00092195   -0.00130149
     atom   10 type  4   force =    -0.00159686   -0.00092195    0.00130149
     The non-local contrib.  to forces
     atom    1 type  1   force =     0.00000000    0.00000000   -0.00001138
     atom    2 type  1   force =     0.00000000    0.00000000    0.00001138
     atom    3 type  2   force =     0.00000000    0.00000000    0.00000000
     atom    4 type  3   force =     0.00000000    0.00000000   -0.00000000
     atom    5 type  4   force =     0.00000000   -0.04625483   -0.03269640
     atom    6 type  4   force =    -0.04005786   -0.02312742    0.03269640
     atom    7 type  4   force =     0.00000000    0.04625483    0.03269640
     atom    8 type  4   force =    -0.04005786    0.02312742   -0.03269640
     atom    9 type  4   force =     0.04005786   -0.02312742    0.03269640
     atom   10 type  4   force =     0.04005786    0.02312742   -0.03269640
     The ionic contribution  to forces
     atom    1 type  1   force =     0.00000000   -0.00000000   -0.00000000
     atom    2 type  1   force =     0.00000000   -0.00000000   -0.00000000
     atom    3 type  2   force =    -0.00000000    0.00000000    0.00000000
     atom    4 type  3   force =     0.00000000    0.00000000    0.00000000
     atom    5 type  4   force =     0.00000000    1.49204836    1.05503751
     atom    6 type  4   force =     1.29215178    0.74602418   -1.05503751
     atom    7 type  4   force =    -0.00000000   -1.49204836   -1.05503751
     atom    8 type  4   force =     1.29215178   -0.74602418    1.05503751
     atom    9 type  4   force =    -1.29215178    0.74602418   -1.05503751
     atom   10 type  4   force =    -1.29215178   -0.74602418    1.05503751
     The local contribution  to forces
     atom    1 type  1   force =     0.00000499    0.00000418    0.00001095
     atom    2 type  1   force =    -0.00003906   -0.00002519    0.00000033
     atom    3 type  2   force =     0.00002181    0.00016286   -0.00004198
     atom    4 type  3   force =     0.00010020    0.00017192   -0.00002626
     atom    5 type  4   force =     0.00003457   -1.44506389   -1.02180964
     atom    6 type  4   force =    -1.25146923   -0.72251400    1.02182469
     atom    7 type  4   force =    -0.00002397    1.44502789    1.02173306
     atom    8 type  4   force =    -1.25144452    0.72259351   -1.02178929
     atom    9 type  4   force =     1.25149801   -0.72255760    1.02180350
     atom   10 type  4   force =     1.25140523    0.72250661   -1.02176100
     The core correction contribution to forces
     atom    1 type  1   force =    -0.00000062   -0.00000010    0.00000065
     atom    2 type  1   force =     0.00000050    0.00000088   -0.00000085
     atom    3 type  2   force =     0.00000000    0.00000000    0.00000000
     atom    4 type  3   force =     0.00000338    0.00000402    0.00000011
     atom    5 type  4   force =     0.00000143    0.00077001    0.00054575
     atom    6 type  4   force =     0.00066658    0.00038610   -0.00054371
     atom    7 type  4   force =    -0.00000327   -0.00077337   -0.00055084
     atom    8 type  4   force =     0.00066148   -0.00037660    0.00054144
     atom    9 type  4   force =    -0.00065790    0.00037752   -0.00053985
     atom   10 type  4   force =    -0.00067090   -0.00038823    0.00054914
     The Hubbard contrib.    to forces
     atom    1 type  1   force =     0.00000000    0.00000000    0.00000000
     atom    2 type  1   force =     0.00000000    0.00000000    0.00000000
     atom    3 type  2   force =     0.00000000    0.00000000    0.00000000
     atom    4 type  3   force =     0.00000000    0.00000000    0.00000000
     atom    5 type  4   force =     0.00000000    0.00000000    0.00000000
     atom    6 type  4   force =     0.00000000    0.00000000    0.00000000
     atom    7 type  4   force =     0.00000000    0.00000000    0.00000000
     atom    8 type  4   force =     0.00000000    0.00000000    0.00000000
     atom    9 type  4   force =     0.00000000    0.00000000    0.00000000
     atom   10 type  4   force =     0.00000000    0.00000000    0.00000000
     The SCF correction term to forces
     atom    1 type  1   force =    -0.00001415   -0.00002830    0.00000626
     atom    2 type  1   force =     0.00007843    0.00007077   -0.00004127
     atom    3 type  2   force =    -0.00002242   -0.00017584    0.00004461
     atom    4 type  3   force =    -0.00010098   -0.00020194    0.00004116
     atom    5 type  4   force =    -0.00005351    0.00035115    0.00022297
     atom    6 type  4   force =     0.00030086    0.00015203   -0.00025513
     atom    7 type  4   force =     0.00004398   -0.00031803   -0.00012652
     atom    8 type  4   force =     0.00026811   -0.00025881    0.00020218
     atom    9 type  4   force =    -0.00033027    0.00021686   -0.00022161
     atom   10 type  4   force =    -0.00022756   -0.00015430    0.00018430

     Total force =     0.005528     Total SCF correction =     0.001034
     SCF correction compared to forces is large: reduce conv_thr to get better values

     Computing stress (Cartesian axis) and pressure

     negative rho (up, down):  2.219E-05 0.000E+00
          total   stress  (Ry/bohr**3)                   (kbar)     P=       13.17
   0.00008954   0.00000000   0.00000000           13.17        0.00        0.00
   0.00000000   0.00008954  -0.00000000            0.00       13.17       -0.00
  -0.00000000   0.00000000   0.00008953           -0.00        0.00       13.17

     kinetic stress (kbar)   4368.46     -0.00     -0.00
                               -0.00   4368.46      0.00
                               -0.00      0.00   4368.46

     local   stress (kbar)   -640.49      0.01     -0.01
                                0.01   -640.48      0.00
                               -0.01      0.00   -640.49

     nonloc. stress (kbar)   -148.65     -0.00      0.00
                               -0.00   -148.65      0.00
                                0.00      0.00   -148.65

     hartree stress (kbar)   2256.14     -0.01      0.01
                               -0.01   2256.13     -0.00
                                0.01     -0.00   2256.14

     exc-cor stress (kbar)  10095.13      0.00     -0.00
                                0.00  10095.13      0.00
                               -0.00      0.00  10095.13

     corecor stress (kbar) -11598.69     -0.00      0.00
                               -0.00 -11598.69     -0.00
                                0.00     -0.00 -11598.69

     ewald   stress (kbar)  -4318.74     -0.00      0.00
                               -0.00  -4318.74      0.00
                                0.00      0.00  -4318.74

     hubbard stress (kbar)      0.00      0.00      0.00
                                0.00      0.00      0.00
                                0.00      0.00      0.00

     DFT-D   stress (kbar)      0.00      0.00      0.00
                                0.00      0.00      0.00
                                0.00      0.00      0.00

     XDM     stress (kbar)      0.00      0.00      0.00
                                0.00      0.00      0.00
                                0.00      0.00      0.00

     dft-nl  stress (kbar)      0.00      0.00      0.00
                                0.00      0.00      0.00
                                0.00      0.00      0.00

     TS-vdW  stress (kbar)      0.00      0.00      0.00
                                0.00      0.00      0.00
                                0.00      0.00      0.00

[...]

                                0.00      0.00      0.00

     Writing all to output data dir new_calculations/myprefix.save/

     General routines

     Parallel routines

     PAW routines

   This run was terminated on:   6:57:56  21May2023

   JOB DONE.