     Program PWSCF v.7.0 starts on 20May2023 at  9:59:22

     Reading input from espresso_18222.pwi
Warning: card &CELL ignored
Warning: card / ignored

     Current dimensions of program PWSCF are:
     Max number of different atomic species (ntypx) = 10
     Max number of k-points (npk) =  40000
     Max angular momentum in pseudopotentials (lmaxx) =  4
     file O.pbe-n-kjpaw_psl.0.1.UPF: wavefunction(s)  2P renormalized

     gamma-point specific algorithms are used
     Message from routine setup:
     using ibrav=0 with symmetry is DISCOURAGED, use correct ibrav instead

     Subspace diagonalization in iterative solution of the eigenvalue problem:
     a serial algorithm will be used

     Using Slab Decomposition

     bravais-lattice index     =            0
     lattice parameter (alat)  =       8.8423  a.u.
     unit-cell volume          =    1015.5502 (a.u.)^3
     number of atoms/cell      =           15
     number of atomic types    =            4
     number of electrons       =        89.00
     number of Kohn-Sham states=           54
     kinetic-energy cutoff     =      30.0000  Ry
     charge density cutoff     =     240.0000  Ry
     scf convergence threshold =      1.0E-06
     mixing beta               =       0.7000
     number of iterations used =            8  plain     mixing
     Exchange-correlation= SLA  PW   PBX  PBC
                           (   1   4   3   4   0   0   0)

     celldm(1)=   8.842346  celldm(2)=   0.000000  celldm(3)=   0.000000
     celldm(4)=   0.000000  celldm(5)=   0.000000  celldm(6)=   0.000000

     crystal axes: (cart. coord. in units of alat)
               a(1) = (   1.000000   0.000000   0.000000 )
               a(2) = (  -0.279452   1.131373   0.000000 )
               a(3) = (  -0.081005  -0.172855   1.298354 )

     reciprocal axes: (cart. coord. in units 2 pi/alat)
               b(1) = (  1.000000  0.247003  0.095275 )
               b(2) = (  0.000000  0.883882  0.117674 )
               b(3) = (  0.000000  0.000000  0.770206 )

     PseudoPot. # 1 for Li read from file:
     /home/pragov/projects/rrg-bengioy-ad/pragov/crystal_structure_design/SSSP/li_pbe_v1.4.uspp.F.UPF
     MD5 check sum: e912e257baa3777c20ea3d68f190483c
     Pseudo is Ultrasoft, Zval =  3.0
     Generated by new atomic code, or converted to UPF format
     Using radial grid of  751 points,  5 beta functions with:
                l(1) =   0
                l(2) =   0
                l(3) =   0
                l(4) =   1
                l(5) =   1
     Q(r) pseudized with 10 coefficients,  rinner =    1.150   1.150   1.150

     PseudoPot. # 2 for Cu read from file:
     /home/pragov/projects/rrg-bengioy-ad/pragov/crystal_structure_design/SSSP/Cu_pbe_v1.2.uspp.F.UPF
     MD5 check sum: 6e991ff952a84172a2a52a1c1e996048
     Pseudo is Ultrasoft + core correction, Zval = 19.0
     Generated by new atomic code, or converted to UPF format
     Using radial grid of  867 points,  6 beta functions with:
                l(1) =   0
                l(2) =   0
                l(3) =   1
                l(4) =   1
                l(5) =   2
                l(6) =   2
     Q(r) pseudized with  8 coefficients,  rinner =    1.150   1.150   1.150
                                                       1.150   1.150

     PseudoPot. # 3 for P  read from file:
     /home/pragov/projects/rrg-bengioy-ad/pragov/crystal_structure_design/SSSP/P.pbe-n-rrkjus_psl.1.0.0.UPF
     MD5 check sum: 8b930f418f0a4573dca56cd030ffe088
     Pseudo is Ultrasoft + core correction, Zval =  5.0
     Generated using "atomic" code by A. Dal Corso  v.5.1
     Using radial grid of 1147 points,  6 beta functions with:
                l(1) =   0
                l(2) =   0
                l(3) =   1
                l(4) =   1
                l(5) =   2
                l(6) =   2
     Q(r) pseudized with 0 coefficients

     PseudoPot. # 4 for O  read from file:
     /home/pragov/projects/rrg-bengioy-ad/pragov/crystal_structure_design/SSSP/O.pbe-n-kjpaw_psl.0.1.UPF
     MD5 check sum: 0234752ac141de4415c5fc33072bef88
     Pseudo is Projector augmented-wave + core cor, Zval =  6.0
     Generated using "atomic" code by A. Dal Corso  v.5.0.99 svn rev. 10869
     Shape of augmentation charge: BESSEL
     Using radial grid of 1095 points,  4 beta functions with:
                l(1) =   0
                l(2) =   0
                l(3) =   1
                l(4) =   1
     Q(r) pseudized with 0 coefficients

     atomic species   valence    mass     pseudopotential
        Li             3.00     6.94000     Li( 1.00)
        Cu            19.00    63.54600     Cu( 1.00)
        P              5.00    30.97376     P ( 1.00)
        O              6.00    15.99900     O ( 1.00)

      2 Sym. Ops., with inversion, found

                                    s                        frac. trans.

      isym =  1     identity

 cryst.   s( 1) = (     1          0          0      )
                  (     0          1          0      )
                  (     0          0          1      )

 cart.    s( 1) = (  1.0000000  0.0000000 -0.0000000 )
                  (  0.0000000  1.0000000  0.0000000 )
                  (  0.0000000  0.0000000  1.0000000 )

      isym =  2     inversion

 cryst.   s( 2) = (    -1          0          0      )
                  (     0         -1          0      )
                  (     0          0         -1      )

 cart.    s( 2) = ( -1.0000000 -0.0000000  0.0000000 )
                  (  0.0000000 -1.0000000 -0.0000000 )
                  (  0.0000000  0.0000000 -1.0000000 )

   Cartesian axes

     site n.     atom                  positions (alat units)
         1           Li  tau(   1) = (   0.0269550   0.2227433   0.7489243  )
         2           Li  tau(   2) = (   0.1159291   0.6238893   0.2210720  )
         3           Li  tau(   3) = (   0.5236137   0.3346289   1.0772819  )
         4           Li  tau(   4) = (   0.6125877   0.7357750   0.5494296  )
         5           Cu  tau(   5) = (   0.0000000   0.0000000   0.0000000  )
         6           P   tau(   6) = (   0.1068248   0.7667957   0.9332204  )
         7           P   tau(   7) = (   0.5327179   0.1917226   0.3651335  )
         8           O   tau(   8) = (   0.0096232   0.5015716   1.1088981  )
         9           O   tau(   9) = (   0.0343089   0.7094116   0.6174400  )
        10           O   tau(  10) = (   0.1994842   0.1599272   0.3406283  )
        11           O   tau(  11) = (   0.2376277  -0.0844364   1.0415239  )
        12           O   tau(  12) = (   0.4019150   1.0429546   0.2568300  )
        13           O   tau(  13) = (   0.4400586   0.7985911   0.9577256  )
        14           O   tau(  14) = (   0.6052339   0.2491066   0.6809139  )
        15           O   tau(  15) = (   0.6299196   0.4569467   0.1894558  )

   Crystallographic axes

     site n.     atom                  positions (cryst. coord.)
         1           Li  tau(   1) = (  0.1533270  0.2850080  0.5768260  )
         2           Li  tau(   2) = (  0.2910940  0.5774590  0.1702710  )
         3           Li  tau(   3) = (  0.7089060  0.4225410  0.8297290  )
         4           Li  tau(   4) = (  0.8466730  0.7149920  0.4231740  )
         5           Cu  tau(   5) = (  0.0000000  0.0000000  0.0000000  )
         6           P   tau(   6) = (  0.3851380  0.7875730  0.7187720  )
         7           P   tau(   7) = (  0.6148620  0.2124270  0.2812280  )
         8           O   tau(   8) = (  0.2391630  0.5738190  0.8540800  )
         9           O   tau(   9) = (  0.2683620  0.6996930  0.4755560  )
        10           O   tau(  10) = (  0.2714400  0.1814400  0.2623540  )
        11           O   tau(  11) = (  0.3160030  0.0479290  0.8021880  )
        12           O   tau(  12) = (  0.6839970  0.9520710  0.1978120  )
        13           O   tau(  13) = (  0.7285600  0.8185600  0.7376460  )
        14           O   tau(  14) = (  0.7316380  0.3003070  0.5244440  )
        15           O   tau(  15) = (  0.7608370  0.4261810  0.1459200  )

     number of k points=     1  Methfessel-Paxton smearing, width (Ry)=  0.0010
                       cart. coord. in units 2pi/alat
        k(    1) = (   0.0000000   0.0000000   0.0000000), wk =   2.0000000

                       cryst. coord.
        k(    1) = (   0.0000000   0.0000000   0.0000000), wk =   2.0000000

     Check: negative core charge=   -0.000014

     Initial potential from superposition of free atoms

     starting charge      86.1967, renormalised to      89.0000
     Starting wfcs are   73 randomized atomic wfcs
     Checking if some PAW data can be deallocated...

     Self-consistent Calculation

     iteration #  1     ecut=    30.00 Ry     beta= 0.70
     Davidson diagonalization with overlap

     ethr =  1.00E-02,  avg # of iterations =  3.0

     total energy              =    -822.38912858 Ry
     estimated scf accuracy    <       2.18976760 Ry

[...]

     total energy              =    -823.55390197 Ry
     estimated scf accuracy    <       0.00000435 Ry

     iteration # 10     ecut=    30.00 Ry     beta= 0.70
     Davidson diagonalization with overlap

     ethr =  4.89E-09,  avg # of iterations =  2.0

     End of self-consistent calculation

          k = 0.0000 0.0000 0.0000 (  1409 PWs)   bands (ev):

  -106.6072 -64.1722 -64.1053 -63.6622 -38.6596 -38.6548 -38.3998 -38.3957
   -15.8595 -15.4881 -13.2967 -13.2545 -13.1782 -13.1169 -12.8539 -12.7575
    -3.2800  -2.6332  -1.3054  -0.8801  -0.7471  -0.5460  -0.4136   0.3418
     0.9612   1.1724   1.3244   1.8095   1.9994   2.0881   2.4023   2.8355
     3.0482   3.0697   3.3973   3.4281   3.5716   3.5948   3.9395   3.9978
     4.0483   4.1937   4.3458   4.6855   5.8721   9.6062  11.7191  13.2594
    13.3878  13.7134  13.9065  14.1581  14.1661  14.5109

     occupation numbers
     1.0000   1.0000   1.0000   1.0000   1.0000   1.0000   1.0000   1.0000
     1.0000   1.0000   1.0000   1.0000   1.0000   1.0000   1.0000   1.0000
     1.0000   1.0000   1.0000   1.0000   1.0000   1.0000   1.0000   1.0000
     1.0000   1.0000   1.0000   1.0000   1.0000   1.0000   1.0000   1.0000
     1.0000   1.0000   1.0000   1.0000   1.0000   1.0000   1.0000   1.0000
     1.0000   1.0000   1.0000   1.0000   0.5000  -0.0000  -0.0000  -0.0000
    -0.0000  -0.0000  -0.0000  -0.0000  -0.0000  -0.0000

     the Fermi energy is     5.8721 ev

!    total energy              =    -823.55390207 Ry
     estimated scf accuracy    <       0.00000092 Ry
     smearing contrib. (-TS)   =      -0.00028209 Ry
     internal energy E=F+TS    =    -823.55361998 Ry

     The total energy is F=E-TS. E is the sum of the following terms:
     one-electron contribution =    -542.78940115 Ry
     hartree contribution      =     310.90774422 Ry
     xc contribution           =    -121.94295764 Ry
     ewald contribution        =    -393.60981515 Ry
     one-center paw contrib.   =     -76.11919026 Ry
      -> PAW hartree energy AE =     249.60378604 Ry
      -> PAW hartree energy PS =    -248.71503480 Ry
      -> PAW xc energy AE      =    -139.26098147 Ry
      -> PAW xc energy PS      =      62.25303997 Ry
      -> total E_H with PAW    =     311.79649546 Ry
      -> total E_XC with PAW   =    -198.95089914 Ry

     convergence has been achieved in  10 iterations

     Forces acting on atoms (cartesian axes, Ry/au):

     atom    1 type  1   force =     0.00393431    0.00252118    0.00067110
     atom    2 type  1   force =    -0.00106969   -0.00247478   -0.00525492
     atom    3 type  1   force =     0.00106969    0.00247478    0.00525492
     atom    4 type  1   force =    -0.00393431   -0.00252118   -0.00067110
     atom    5 type  2   force =     0.00000000    0.00000000    0.00000000
     atom    6 type  3   force =    -0.00641076   -0.00971854    0.00851308
     atom    7 type  3   force =     0.00641076    0.00971854   -0.00851308
     atom    8 type  4   force =    -0.00933321   -0.01237385    0.01360742
     atom    9 type  4   force =     0.00413486   -0.00506889   -0.01388736
     atom   10 type  4   force =    -0.00519503    0.01220580    0.00155670
     atom   11 type  4   force =     0.00477444    0.02181943   -0.01374061
     atom   12 type  4   force =    -0.00477444   -0.02181943    0.01374061
     atom   13 type  4   force =     0.00519503   -0.01220580   -0.00155670
     atom   14 type  4   force =    -0.00413486    0.00506889    0.01388736
     atom   15 type  4   force =     0.00933321    0.01237385   -0.01360742
     The non-local contrib.  to forces
     atom    1 type  1   force =     0.05080313   -0.02536852    0.01701114
     atom    2 type  1   force =     0.01363468   -0.00441655    0.01479039
     atom    3 type  1   force =    -0.01363468    0.00441655   -0.01479039
     atom    4 type  1   force =    -0.05080313    0.02536852   -0.01701114
     atom    5 type  2   force =     0.00000000    0.00000000    0.00000000
     atom    6 type  3   force =     0.02791456    0.04906626    0.03753233
     atom    7 type  3   force =    -0.02791456   -0.04906626   -0.03753233
     atom    8 type  4   force =     0.52534220    1.29804783   -0.83959462
     atom    9 type  4   force =     0.32006862    0.26701790    1.49816752
     atom   10 type  4   force =     1.44390975   -0.00248341   -0.34128618
     atom   11 type  4   force =     0.22749065   -1.61472074   -0.21600409
     atom   12 type  4   force =    -0.22749065    1.61472074    0.21600409
     atom   13 type  4   force =    -1.44390975    0.00248341    0.34128618
     atom   14 type  4   force =    -0.32006862   -0.26701790   -1.49816752
     atom   15 type  4   force =    -0.52534220   -1.29804783    0.83959462
     The ionic contribution  to forces
     atom    1 type  1   force =     0.36968927   -0.15710395   -0.14735690
     atom    2 type  1   force =     0.27627950    0.10541659    0.83629196
     atom    3 type  1   force =    -0.27627950   -0.10541659   -0.83629196
     atom    4 type  1   force =    -0.36968927    0.15710395    0.14735690
     atom    5 type  2   force =     0.00000000    0.00000000   -0.00000000
     atom    6 type  3   force =     0.52887812   -1.05777305   -2.94027236
     atom    7 type  3   force =    -0.52887812    1.05777305    2.94027236
     atom    8 type  4   force =    -0.75873431   -6.71350738    1.42751767
     atom    9 type  4   force =    -0.71222367   -1.10574177   -5.83399305
     atom   10 type  4   force =    -1.02185167    3.24745404    9.24366323
     atom   11 type  4   force =     4.57659298    8.20376705   -6.75140332
     atom   12 type  4   force =    -4.57659298   -8.20376705    6.75140332
     atom   13 type  4   force =     1.02185167   -3.24745404   -9.24366323
     atom   14 type  4   force =     0.71222367    1.10574177    5.83399305
     atom   15 type  4   force =     0.75873431    6.71350738   -1.42751767
     The local contribution  to forces
     atom    1 type  1   force =    -0.41649444    0.18499520    0.13093759
     atom    2 type  1   force =    -0.29090689   -0.10343861   -0.85623772
     atom    3 type  1   force =     0.29090703    0.10346757    0.85623615
     atom    4 type  1   force =     0.41647702   -0.18498690   -0.13092803
     atom    5 type  2   force =    -0.00022376   -0.00017894   -0.00008411
     atom    6 type  3   force =    -0.56114394    1.00354773    2.91486314
     atom    7 type  3   force =     0.56130050   -1.00355960   -2.91488963
     atom    8 type  4   force =     0.22922703    5.41564654   -0.58260139
     atom    9 type  4   force =     0.39957619    0.83647764    4.33580649
     atom   10 type  4   force =    -0.41325516   -3.23333245   -8.90469241
     atom   11 type  4   force =    -4.79752040   -6.58318127    6.95185966
     atom   12 type  4   force =     4.79749514    6.58321484   -6.95192436
     atom   13 type  4   force =     0.41329352    3.23337549    8.90480108
     atom   14 type  4   force =    -0.39958228   -0.83651416   -4.33583891
     atom   15 type  4   force =    -0.22926943   -5.41566704    0.58262440
     The core correction contribution to forces
     atom    1 type  1   force =     0.00000000    0.00000000    0.00000000
     atom    2 type  1   force =     0.00000000    0.00000000    0.00000000
     atom    3 type  1   force =     0.00000000    0.00000000    0.00000000
     atom    4 type  1   force =     0.00000000    0.00000000    0.00000000
     atom    5 type  2   force =    -0.00000005   -0.00000003   -0.00000005
     atom    6 type  3   force =    -0.00183593   -0.00445812   -0.00379722
     atom    7 type  3   force =     0.00183783    0.00446004    0.00379684
     atom    8 type  4   force =    -0.00475670   -0.01164298    0.00755857
     atom    9 type  4   force =    -0.00291563   -0.00248622   -0.01295539
     atom   10 type  4   force =    -0.01282523    0.00060869    0.00430193
     atom   11 type  4   force =    -0.00105363    0.01528799    0.00124357
     atom   12 type  4   force =     0.00105336   -0.01528725   -0.00124416
     atom   13 type  4   force =     0.01282524   -0.00060837   -0.00430050
     atom   14 type  4   force =     0.00291498    0.00248592    0.01295563
     atom   15 type  4   force =     0.00475626    0.01164319   -0.00755923
     The Hubbard contrib.    to forces
     atom    1 type  1   force =     0.00000000    0.00000000    0.00000000
     atom    2 type  1   force =     0.00000000    0.00000000    0.00000000
     atom    3 type  1   force =     0.00000000    0.00000000    0.00000000
     atom    4 type  1   force =     0.00000000    0.00000000    0.00000000
     atom    5 type  2   force =     0.00000000    0.00000000    0.00000000
     atom    6 type  3   force =     0.00000000    0.00000000    0.00000000
     atom    7 type  3   force =     0.00000000    0.00000000    0.00000000
     atom    8 type  4   force =     0.00000000    0.00000000    0.00000000
     atom    9 type  4   force =     0.00000000    0.00000000    0.00000000
     atom   10 type  4   force =     0.00000000    0.00000000    0.00000000
     atom   11 type  4   force =     0.00000000    0.00000000    0.00000000
     atom   12 type  4   force =     0.00000000    0.00000000    0.00000000
     atom   13 type  4   force =     0.00000000    0.00000000    0.00000000
     atom   14 type  4   force =     0.00000000    0.00000000    0.00000000
     atom   15 type  4   force =     0.00000000    0.00000000    0.00000000
     The SCF correction term to forces
     atom    1 type  1   force =    -0.00006061   -0.00000215    0.00008336
     atom    2 type  1   force =    -0.00007725   -0.00003585   -0.00010107
     atom    3 type  1   force =     0.00007656    0.00000759    0.00009960
     atom    4 type  1   force =     0.00008411   -0.00000736   -0.00008473
     atom    5 type  2   force =     0.00036019    0.00022885    0.00008109
     atom    6 type  3   force =    -0.00022042   -0.00008283    0.00018405
     atom    7 type  3   force =     0.00006827    0.00012984   -0.00016347
     atom    8 type  4   force =    -0.00041920   -0.00093570    0.00071618
     atom    9 type  4   force =    -0.00038748   -0.00035451   -0.00091464
     atom   10 type  4   force =    -0.00119873   -0.00001321   -0.00040582
     atom   11 type  4   force =    -0.00074007    0.00067924    0.00054814
     atom   12 type  4   force =     0.00075580   -0.00068790   -0.00051372
     atom   13 type  4   force =     0.00110834    0.00002556    0.00034383
     atom   14 type  4   force =     0.00036056    0.00035519    0.00094340
     atom   15 type  4   force =     0.00044648    0.00092031   -0.00076056

     Total force =     0.059872     Total SCF correction =     0.003376

     Computing stress (Cartesian axis) and pressure

          total   stress  (Ry/bohr**3)                   (kbar)     P=     -465.44
  -0.00326900   0.00004328   0.00001939         -480.89        6.37        2.85
   0.00004328  -0.00303485   0.00002725            6.37     -446.44        4.01
   0.00001939   0.00002725  -0.00318814            2.85        4.01     -468.99

     kinetic stress (kbar)  19749.06    -48.61     77.77
                              -48.61  20016.46    -92.58
                               77.77    -92.58  19690.38

     local   stress (kbar) -24212.28  -3843.44   2924.83
                            -3843.44  -4270.79  -6871.11
                             2924.83  -6871.11 -19077.53

     nonloc. stress (kbar)   5074.78    -18.16     14.25
                              -18.16   5104.89    -10.01
                               14.25    -10.01   5091.28

     hartree stress (kbar)  18770.17   1619.80  -1191.58
                             1619.80  10228.24   2865.08
                            -1191.58   2865.08  16037.39

     exc-cor stress (kbar)  -4688.80      2.10     -1.56
                                2.10  -4695.35      2.67
                               -1.56      2.67  -4683.95

     corecor stress (kbar)   -837.45     -0.02     -0.48
                               -0.02   -838.88      0.05
                               -0.48      0.05   -838.53

     ewald   stress (kbar) -14336.36   2294.69  -1820.38
                             2294.69 -25991.01   4109.91
                            -1820.38   4109.91 -16688.03

     hubbard stress (kbar)      0.00      0.00      0.00
                                0.00      0.00      0.00
                                0.00      0.00      0.00

     DFT-D   stress (kbar)      0.00      0.00      0.00
                                0.00      0.00      0.00
                                0.00      0.00      0.00

     XDM     stress (kbar)      0.00      0.00      0.00
                                0.00      0.00      0.00
                                0.00      0.00      0.00

     dft-nl  stress (kbar)      0.00      0.00      0.00
                                0.00      0.00      0.00
                                0.00      0.00      0.00

     TS-vdW  stress (kbar)      0.00      0.00      0.00
                                0.00      0.00      0.00
                                0.00      0.00      0.00

[...]

                                0.00      0.00      0.00

     Writing all to output data dir new_calculations/myprefix.save/

     General routines

     Parallel routines

     PAW routines

   This run was terminated on:   9:59:42  20May2023

   JOB DONE.