     Program PWSCF v.7.0 starts on 20May2023 at 16:42:27

     Reading input from espresso_2577.pwi
Warning: card &CELL ignored
Warning: card / ignored

     Current dimensions of program PWSCF are:
     Max number of different atomic species (ntypx) = 10
     Max number of k-points (npk) =  40000
     Max angular momentum in pseudopotentials (lmaxx) =  4

     gamma-point specific algorithms are used
     Message from routine setup:
     using ibrav=0 with symmetry is DISCOURAGED, use correct ibrav instead

     Subspace diagonalization in iterative solution of the eigenvalue problem:
     a serial algorithm will be used

     Using Slab Decomposition

     bravais-lattice index     =            0
     lattice parameter (alat)  =       9.9973  a.u.
     unit-cell volume          =    1657.3880 (a.u.)^3
     number of atoms/cell      =           16
     number of atomic types    =            3
     number of electrons       =       168.00
     number of Kohn-Sham states=          101
     kinetic-energy cutoff     =      30.0000  Ry
     charge density cutoff     =     240.0000  Ry
     scf convergence threshold =      1.0E-06
     mixing beta               =       0.7000
     number of iterations used =            8  plain     mixing
     Exchange-correlation=  SLA  PW   PBX  PBC
                           (   1   4   3   4   0   0   0)

     celldm(1)=   9.997279  celldm(2)=   0.000000  celldm(3)=   0.000000
     celldm(4)=   0.000000  celldm(5)=   0.000000  celldm(6)=   0.000000

     crystal axes: (cart. coord. in units of alat)
               a(1) = (   1.000000   0.000000   0.000000 )
               a(2) = (  -0.733247   0.679963   0.000000 )
               a(3) = (   0.000000   0.000000   2.439460 )

     reciprocal axes: (cart. coord. in units 2 pi/alat)
               b(1) = (  1.000000  1.078363  0.000000 )
               b(2) = (  0.000000  1.470669  0.000000 )
               b(3) = (  0.000000  0.000000  0.409927 )

     PseudoPot. # 1 for Hf read from file:
     /home/pragov/projects/rrg-bengioy-ad/pragov/crystal_structure_design/SSSP/Hf-sp.oncvpsp.upf
     MD5 check sum: 417ed15784afe83d2e06dacf143de3f8
     Pseudo is Norm-conserving + core correction, Zval = 12.0
     Generated using ONCVPSP code by D. R. Hamann
     Using radial grid of 1656 points,  8 beta functions with:
                l(1) =   0
                l(2) =   0
                l(3) =   1
                l(4) =   1
                l(5) =   2
                l(6) =   2
                l(7) =   3
                l(8) =   3

     PseudoPot. # 2 for Si read from file:
     /home/pragov/projects/rrg-bengioy-ad/pragov/crystal_structure_design/SSSP/Si.pbe-n-rrkjus_psl.1.0.0.UPF
     MD5 check sum: 0b0bb1205258b0d07b9f9672cf965d36
     Pseudo is Ultrasoft + core correction, Zval =  4.0
     Generated using "atomic" code by A. Dal Corso  v.5.1
     Using radial grid of 1141 points,  6 beta functions with:
                l(1) =   0
                l(2) =   0
                l(3) =   1
                l(4) =   1
                l(5) =   2
                l(6) =   2
     Q(r) pseudized with 0 coefficients

     PseudoPot. # 3 for Ni read from file:
     /home/pragov/projects/rrg-bengioy-ad/pragov/crystal_structure_design/SSSP/ni_pbe_v1.4.uspp.F.UPF
     MD5 check sum: 1ee80287db30b12d2bc1f57a5b5d6409
     Pseudo is Ultrasoft + core correction, Zval = 18.0
     Generated by new atomic code, or converted to UPF format
     Using radial grid of  865 points,  6 beta functions with:
                l(1) =   0
                l(2) =   0
                l(3) =   1
                l(4) =   1
                l(5) =   2
                l(6) =   2
     Q(r) pseudized with 10 coefficients,  rinner =    0.980   0.980   0.980
                                                       0.980   0.980

     atomic species   valence    mass     pseudopotential
        Hf            12.00   178.49000     Hf( 1.00)
        Si             4.00    28.08500     Si( 1.00)
        Ni            18.00    58.69340     Ni( 1.00)

      4 Sym. Ops., with inversion, found ( 2 have fractional translation)

                                    s                        frac. trans.

      isym =  1     identity

 cryst.   s( 1) = (     1          0          0      )
                  (     0          1          0      )
                  (     0          0          1      )

 cart.    s( 1) = (  1.0000000 -0.0000000  0.0000000 )
                  (  0.0000000  1.0000000  0.0000000 )
                  (  0.0000000  0.0000000  1.0000000 )

      isym =  2     180 deg rotation - cart. axis [0,0,1]

 cryst.   s( 2) = (    -1          0          0      )    f =( -0.0000000 )
                  (     0         -1          0      )       (  0.0000000 )
                  (     0          0          1      )       ( -0.5000000 )

 cart.    s( 2) = ( -1.0000000  0.0000000  0.0000000 )    f =( -0.0000000 )
                  (  0.0000000 -1.0000000  0.0000000 )       (  0.0000000 )
                  (  0.0000000  0.0000000  1.0000000 )       ( -1.2197300 )

      isym =  3     inversion

 cryst.   s( 3) = (    -1          0          0      )
                  (     0         -1          0      )
                  (     0          0         -1      )

 cart.    s( 3) = ( -1.0000000  0.0000000  0.0000000 )
                  (  0.0000000 -1.0000000  0.0000000 )
                  (  0.0000000  0.0000000 -1.0000000 )

      isym =  4     inv. 180 deg rotation - cart. axis [0,0,1]

 cryst.   s( 4) = (     1          0          0      )    f =(  0.0000000 )
                  (     0          1          0      )       (  0.0000000 )
                  (     0          0         -1      )       (  0.5000000 )

 cart.    s( 4) = (  1.0000000 -0.0000000  0.0000000 )    f =(  0.0000000 )
                  (  0.0000000  1.0000000  0.0000000 )       (  0.0000000 )
                  (  0.0000000  0.0000000 -1.0000000 )       (  1.2197300 )

   Cartesian axes

     site n.     atom                  positions (alat units)
         1           Hf  tau(   1) = (  -0.5002325   0.5885499   0.6098650  )
         2           Hf  tau(   2) = (   0.7669858   0.0914128   1.8295949  )
         3           Hf  tau(   3) = (   0.2602573   0.2902054   1.5065763  )
         4           Hf  tau(   4) = (   0.0064961   0.3897574   0.9328836  )
         5           Hf  tau(   5) = (   0.0064961   0.3897574   0.2868463  )
         6           Hf  tau(   6) = (   0.2602573   0.2902054   2.1526136  )
         7           Si  tau(   7) = (   0.7248159   0.1079563   0.6098650  )
         8           Si  tau(   8) = (  -0.4580626   0.5720064   1.8295949  )
         9           Si  tau(   9) = (   0.8059752   0.0761171   1.3190135  )
        10           Si  tau(  10) = (  -0.5392218   0.6038457   1.1204464  )
        11           Si  tau(  11) = (  -0.5392218   0.6038457   0.0992836  )
        12           Si  tau(  12) = (   0.8059752   0.0761171   2.3401763  )
        13           Ni  tau(  13) = (  -0.2448178   0.4883492   2.2217967  )
        14           Ni  tau(  14) = (   0.5115711   0.1916135   0.2176633  )
        15           Ni  tau(  15) = (   0.5115711   0.1916135   1.0020667  )
        16           Ni  tau(  16) = (  -0.2448178   0.4883492   1.4373932  )

   Crystallographic axes

     site n.     atom                  positions (cryst. coord.)
         1           Hf  tau(   1) = (  0.1344380  0.8655620  0.2500000  )
         2           Hf  tau(   2) = (  0.8655620  0.1344380  0.7500000  )
         3           Hf  tau(   3) = (  0.5732040  0.4267960  0.6175860  )
         4           Hf  tau(   4) = (  0.4267960  0.5732040  0.3824140  )
         5           Hf  tau(   5) = (  0.4267960  0.5732040  0.1175860  )
         6           Hf  tau(   6) = (  0.5732040  0.4267960  0.8824140  )
         7           Si  tau(   7) = (  0.8412320  0.1587680  0.2500000  )
         8           Si  tau(   8) = (  0.1587680  0.8412320  0.7500000  )
         9           Si  tau(   9) = (  0.8880570  0.1119430  0.5406990  )
        10           Si  tau(  10) = (  0.1119430  0.8880570  0.4593010  )
        11           Si  tau(  11) = (  0.1119430  0.8880570  0.0406990  )
        12           Si  tau(  12) = (  0.8880570  0.1119430  0.9593010  )
        13           Ni  tau(  13) = (  0.2818000  0.7182000  0.9107740  )
        14           Ni  tau(  14) = (  0.7182000  0.2818000  0.0892260  )
        15           Ni  tau(  15) = (  0.7182000  0.2818000  0.4107740  )
        16           Ni  tau(  16) = (  0.2818000  0.7182000  0.5892260  )

     number of k points=     1  Methfessel-Paxton smearing, width (Ry)=  0.0010
                       cart. coord. in units 2pi/alat
        k(    1) = (   0.0000000   0.0000000   0.0000000), wk =   2.0000000

                       cryst. coord.
        k(    1) = (   0.0000000   0.0000000   0.0000000), wk =   2.0000000

     Check: negative core charge=   -0.000003

     Initial potential from superposition of free atoms

     starting charge     159.9855, renormalised to     168.0000
     Starting wfcs are  136 randomized atomic wfcs

     Self-consistent Calculation

     iteration #  1     ecut=    30.00 Ry     beta= 0.70
     Davidson diagonalization with overlap

     ethr =  1.00E-02,  avg # of iterations =  4.0

     total energy              =   -2044.44525076 Ry
     estimated scf accuracy    <      99.65728647 Ry

[...]

     total energy              =   -2118.24383277 Ry
     estimated scf accuracy    <       0.00000516 Ry

     iteration # 30     ecut=    30.00 Ry     beta= 0.70
     Davidson diagonalization with overlap

     ethr =  2.47E-09,  avg # of iterations =  1.0

     End of self-consistent calculation

          k = 0.0000 0.0000 0.0000 (  2311 PWs)   bands (ev):

   -89.1747 -89.1745 -89.1730 -89.1711 -49.7806 -49.7782 -49.7723 -49.7681
   -49.5246 -49.5232 -49.5165 -49.5101 -49.2100 -49.2074 -49.1963 -49.1945
   -46.9083 -46.9065 -46.6702 -46.6568 -46.6553 -46.6508 -15.7264 -15.7262
   -15.7100 -15.7087 -15.6080 -15.6066 -15.5946 -15.5063 -15.4957 -15.4896
   -15.4594 -15.4099 -15.3803 -15.3365 -15.2946 -15.2878 -15.2795 -15.2696
     3.4229   3.9462   5.2274   6.4902   7.1851   7.2604   9.0872   9.2978
     9.5589  10.3020  11.1708  11.1799  11.2142  11.2189  11.2877  11.2966
    11.3947  11.4895  11.5811  11.7847  11.8268  11.8646  12.0938  12.1943
    12.2439  12.2821  12.3522  12.6611  12.6713  12.8826  12.8961  12.9090
    13.1393  13.1854  13.2234  13.4213  13.5614  13.6784  13.6987  13.7946
    13.8042  14.0184  14.3800  14.5905  14.6042  14.7497  15.6376  15.9278
    16.3543  16.4741  16.9095  17.3024  17.3437  17.4741  17.5083  17.6470
    17.8152  18.2635  18.5030  18.6505  18.8042

     occupation numbers
     1.0000   1.0000   1.0000   1.0000   1.0000   1.0000   1.0000   1.0000
     1.0000   1.0000   1.0000   1.0000   1.0000   1.0000   1.0000   1.0000
     1.0000   1.0000   1.0000   1.0000   1.0000   1.0000   1.0000   1.0000
     1.0000   1.0000   1.0000   1.0000   1.0000   1.0000   1.0000   1.0000
     1.0000   1.0000   1.0000   1.0000   1.0000   1.0000   1.0000   1.0000
     1.0000   1.0000   1.0000   1.0000   1.0000   1.0000   1.0000   1.0000
     1.0000   1.0000   1.0000   1.0000   1.0000   1.0000   1.0000   1.0000
     1.0000   1.0000   1.0000   1.0000   1.0000   1.0000   1.0000   1.0000
     1.0000   1.0000   1.0000   1.0000   1.0000   1.0000   1.0000   1.0000
     1.0000   1.0000   1.0000   1.0000   1.0000   1.0000   1.0000   1.0000
     1.0000   1.0000   1.0000   0.8708   0.1292  -0.0000  -0.0000  -0.0000
    -0.0000  -0.0000  -0.0000  -0.0000  -0.0000  -0.0000  -0.0000  -0.0000
    -0.0000  -0.0000  -0.0000  -0.0000  -0.0000

     the Fermi energy is    14.5974 ev

!    total energy              =   -2118.24383269 Ry
     estimated scf accuracy    <       0.00000027 Ry
     smearing contrib. (-TS)   =      -0.00021829 Ry
     internal energy E=F+TS    =   -2118.24361441 Ry

     The total energy is F=E-TS. E is the sum of the following terms:
     one-electron contribution =   -1255.58956160 Ry
     hartree contribution      =     708.01122783 Ry
     xc contribution           =    -351.13940294 Ry
     ewald contribution        =   -1219.52587770 Ry

     convergence has been achieved in  30 iterations

     Forces acting on atoms (cartesian axes, Ry/au):

     atom    1 type  1   force =     0.04022675   -0.01578151    0.00000000
     atom    2 type  1   force =    -0.04022675    0.01578151    0.00000000
     atom    3 type  1   force =    -0.02112120    0.00828601   -0.02004941
     atom    4 type  1   force =     0.02112120   -0.00828601    0.02004941
     atom    5 type  1   force =     0.02112120   -0.00828601   -0.02004941
     atom    6 type  1   force =    -0.02112120    0.00828601    0.02004941
     atom    7 type  2   force =    -0.01151391    0.00451752   -0.00000000
     atom    8 type  2   force =     0.01151391   -0.00451752    0.00000000
     atom    9 type  2   force =     0.02851774   -0.01118768   -0.03505156
     atom   10 type  2   force =    -0.02851774    0.01118768    0.03505156
     atom   11 type  2   force =    -0.02851774    0.01118768   -0.03505156
     atom   12 type  2   force =     0.02851774   -0.01118768    0.03505156
     atom   13 type  3   force =     0.00394057   -0.00154697    0.00797572
     atom   14 type  3   force =    -0.00394057    0.00154697   -0.00797572
     atom   15 type  3   force =    -0.00394057    0.00154697    0.00797572
     atom   16 type  3   force =     0.00394057   -0.00154697   -0.00797572
     The non-local contrib.  to forces
     atom    1 type  1   force =     0.11725265   -0.04599889    0.00000000
     atom    2 type  1   force =    -0.11725265    0.04599889    0.00000000
     atom    3 type  1   force =    -0.00059949    0.00023524   -0.01230053
     atom    4 type  1   force =     0.00059949   -0.00023524    0.01230053
     atom    5 type  1   force =     0.00059949   -0.00023524   -0.01230053
     atom    6 type  1   force =    -0.00059949    0.00023524    0.01230053
     atom    7 type  2   force =     0.04038741   -0.01584328   -0.00000000
     atom    8 type  2   force =    -0.04038741    0.01584328   -0.00000000
     atom    9 type  2   force =    -0.04644368    0.01821997   -0.00637965
     atom   10 type  2   force =     0.04644368   -0.01821997    0.00637965
     atom   11 type  2   force =     0.04644368   -0.01821997   -0.00637965
     atom   12 type  2   force =    -0.04644368    0.01821997    0.00637965
     atom   13 type  3   force =     0.33195173   -0.13022669    0.21257784
     atom   14 type  3   force =    -0.33195173    0.13022669   -0.21257784
     atom   15 type  3   force =    -0.33195173    0.13022669    0.21257784
     atom   16 type  3   force =     0.33195173   -0.13022669   -0.21257784
     The ionic contribution  to forces
     atom    1 type  1   force =    -5.54543603    2.17550675    0.00000000
     atom    2 type  1   force =     5.54543602   -2.17550675    0.00000000
     atom    3 type  1   force =    -4.80553028    1.88523743    7.67242400
     atom    4 type  1   force =     4.80553028   -1.88523743   -7.67242400
     atom    5 type  1   force =     4.80553028   -1.88523743    7.67242400
     atom    6 type  1   force =    -4.80553028    1.88523743   -7.67242400
     atom    7 type  2   force =     3.14759293   -1.23481898    0.00000000
     atom    8 type  2   force =    -3.14759293    1.23481898    0.00000000
     atom    9 type  2   force =     5.19773089   -2.03910000    0.55541711
     atom   10 type  2   force =    -5.19773089    2.03910000   -0.55541711
     atom   11 type  2   force =    -5.19773089    2.03910000    0.55541711
     atom   12 type  2   force =     5.19773089   -2.03910000   -0.55541711
     atom   13 type  3   force =     2.14445993   -0.84128408  -10.04789104
     atom   14 type  3   force =    -2.14445993    0.84128408   10.04789104
     atom   15 type  3   force =    -2.14445993    0.84128408  -10.04789104
     atom   16 type  3   force =     2.14445993   -0.84128408   10.04789104
     The local contribution  to forces
     atom    1 type  1   force =     5.47038382   -2.14606279    0.00080449
     atom    2 type  1   force =    -5.47041962    2.14607873    0.00018871
     atom    3 type  1   force =     4.78427543   -1.87690021   -7.67283269
     atom    4 type  1   force =    -4.78441077    1.87695399    7.67346387
     atom    5 type  1   force =    -4.78456312    1.87701150   -7.67309948
     atom    6 type  1   force =     4.78452050   -1.87699562    7.67232681
     atom    7 type  2   force =    -3.19466994    1.25328682    0.00023655
     atom    8 type  2   force =     3.19474931   -1.25331770    0.00013842
     atom    9 type  2   force =    -5.12775552    2.01164904   -0.58462187
     atom   10 type  2   force =     5.12773563   -2.01164089    0.58459721
     atom   11 type  2   force =     5.12787622   -2.01169585   -0.58491166
     atom   12 type  2   force =    -5.12789461    2.01170269    0.58427122
     atom   13 type  3   force =    -2.46816618    0.96827640    9.84111016
     atom   14 type  3   force =     2.46826860   -0.96831200   -9.84304195
     atom   15 type  3   force =     2.46823809   -0.96830892    9.84270238
     atom   16 type  3   force =    -2.46789563    0.96816850   -9.84217000
     The core correction contribution to forces
     atom    1 type  1   force =    -0.00194896    0.00076449    0.00000369
     atom    2 type  1   force =     0.00195039   -0.00076506   -0.00000311
     atom    3 type  1   force =     0.00060543   -0.00023758   -0.00674458
     atom    4 type  1   force =    -0.00060784    0.00023843    0.00674451
     atom    5 type  1   force =    -0.00060708    0.00023801   -0.00675086
     atom    6 type  1   force =     0.00060550   -0.00023753    0.00675109
     atom    7 type  2   force =    -0.00479133    0.00187965    0.00000058
     atom    8 type  2   force =     0.00479149   -0.00187965    0.00000013
     atom    9 type  2   force =     0.00503786   -0.00197630    0.00059049
     atom   10 type  2   force =    -0.00503847    0.00197660   -0.00059030
     atom   11 type  2   force =    -0.00503714    0.00197610    0.00058765
     atom   12 type  2   force =     0.00503726   -0.00197614   -0.00058841
     atom   13 type  3   force =    -0.00434059    0.00170284    0.00038149
     atom   14 type  3   force =     0.00434161   -0.00170329   -0.00038186
     atom   15 type  3   force =     0.00433996   -0.00170258    0.00038010
     atom   16 type  3   force =    -0.00434022    0.00170272   -0.00038034
     The Hubbard contrib.    to forces
     atom    1 type  1   force =     0.00000000    0.00000000    0.00000000
     atom    2 type  1   force =     0.00000000    0.00000000    0.00000000
     atom    3 type  1   force =     0.00000000    0.00000000    0.00000000
     atom    4 type  1   force =     0.00000000    0.00000000    0.00000000
     atom    5 type  1   force =     0.00000000    0.00000000    0.00000000
     atom    6 type  1   force =     0.00000000    0.00000000    0.00000000
     atom    7 type  2   force =     0.00000000    0.00000000    0.00000000
     atom    8 type  2   force =     0.00000000    0.00000000    0.00000000
     atom    9 type  2   force =     0.00000000    0.00000000    0.00000000
     atom   10 type  2   force =     0.00000000    0.00000000    0.00000000
     atom   11 type  2   force =     0.00000000    0.00000000    0.00000000
     atom   12 type  2   force =     0.00000000    0.00000000    0.00000000
     atom   13 type  3   force =     0.00000000    0.00000000    0.00000000
     atom   14 type  3   force =     0.00000000    0.00000000    0.00000000
     atom   15 type  3   force =     0.00000000    0.00000000    0.00000000
     atom   16 type  3   force =     0.00000000    0.00000000    0.00000000
     The SCF correction term to forces
     atom    1 type  1   force =    -0.00001691    0.00000606   -0.00079911
     atom    2 type  1   force =     0.00006695   -0.00002718   -0.00022040
     atom    3 type  1   force =     0.00011485   -0.00004525   -0.00056112
     atom    4 type  1   force =     0.00000486   -0.00000329   -0.00004198
     atom    5 type  1   force =     0.00015499   -0.00006177   -0.00034330
     atom    6 type  1   force =    -0.00011635    0.00004641    0.00111521
     atom    7 type  2   force =    -0.00002580    0.00001077   -0.00023210
     atom    8 type  2   force =    -0.00003935    0.00001503   -0.00012313
     atom    9 type  2   force =    -0.00003371    0.00001292   -0.00004996
     atom   10 type  2   force =     0.00004587   -0.00001794    0.00006040
     atom   11 type  2   force =    -0.00004510    0.00001803    0.00020091
     atom   12 type  2   force =     0.00006785   -0.00002671    0.00040150
     atom   13 type  3   force =    -0.00000184   -0.00000441    0.00173519
     atom   14 type  3   force =    -0.00015877    0.00005604    0.00004747
     atom   15 type  3   force =    -0.00012616    0.00005691    0.00025474
     atom   16 type  3   force =    -0.00023657    0.00009532   -0.00066497

     Total force =     0.129235     Total SCF correction =     0.002521

     Computing stress (Cartesian axis) and pressure

          total   stress  (Ry/bohr**3)                   (kbar)     P=     -538.05
  -0.00339892   0.00006993   0.00000000         -500.00       10.29        0.00
   0.00006993  -0.00324809   0.00000000           10.29     -477.81        0.00
   0.00000000   0.00000000  -0.00432576            0.00        0.00     -636.34

     kinetic stress (kbar)  22730.40    -49.99      0.00
                              -49.99  22622.59      0.00
                                0.00      0.00  22573.29

     local   stress (kbar)  -6644.78  -4022.59      0.17
                            -4022.59 -15320.42     -0.07
                                0.17     -0.07 -10477.98

     nonloc. stress (kbar)  10551.15    -38.50      0.00
                              -38.50  10468.12      0.00
                                0.00      0.00  10515.83

     hartree stress (kbar)  18870.72   1911.07     -0.05
                             1911.07  22992.38      0.02
                               -0.05      0.02  20977.98

     exc-cor stress (kbar)   3369.66      1.58     -0.00
                                1.58   3373.07      0.00
                               -0.00      0.00   3370.83

     corecor stress (kbar) -11116.29      1.06      0.00
                                1.06 -11113.99     -0.00
                                0.00     -0.00 -11115.02

     ewald   stress (kbar) -38260.85   2207.65      0.00
                             2207.65 -33499.56     -0.00
                                0.00     -0.00 -36481.27

     hubbard stress (kbar)      0.00      0.00      0.00
                                0.00      0.00      0.00
                                0.00      0.00      0.00

     DFT-D   stress (kbar)      0.00      0.00      0.00
                                0.00      0.00      0.00
                                0.00      0.00      0.00

     XDM     stress (kbar)      0.00      0.00      0.00
                                0.00      0.00      0.00
                                0.00      0.00      0.00

     dft-nl  stress (kbar)      0.00      0.00      0.00
                                0.00      0.00      0.00
                                0.00      0.00      0.00

     TS-vdW  stress (kbar)      0.00      0.00      0.00
                                0.00      0.00      0.00
                                0.00      0.00      0.00

[...]

                                0.00      0.00      0.00

     Writing all to output data dir new_calculations/myprefix.save/

     General routines

     Parallel routines

   This run was terminated on:  16:43:54  20May2023

   JOB DONE.