     Program PWSCF v.7.0 starts on 21May2023 at  6:44: 9

     Reading input from espresso_19816.pwi
Warning: card &CELL ignored
Warning: card / ignored

     Current dimensions of program PWSCF are:
     Max number of different atomic species (ntypx) = 10
     Max number of k-points (npk) =  40000
     Max angular momentum in pseudopotentials (lmaxx) =  4
     file Cd.pbe-dn-rrkjus_psl.0.3.1.UPF: wavefunction(s)  4D renormalized

     gamma-point specific algorithms are used
     Message from routine setup:
     using ibrav=0 with symmetry is DISCOURAGED, use correct ibrav instead

     Subspace diagonalization in iterative solution of the eigenvalue problem:
     a serial algorithm will be used

     Using Slab Decomposition

     bravais-lattice index     =            0
     lattice parameter (alat)  =       7.9743  a.u.
     unit-cell volume          =    4332.3148 (a.u.)^3
     number of atoms/cell      =           20
     number of atomic types    =            3
     number of electrons       =       184.00
     number of Kohn-Sham states=          110
     kinetic-energy cutoff     =      30.0000  Ry
     charge density cutoff     =     240.0000  Ry
     scf convergence threshold =      1.0E-06
     mixing beta               =       0.7000
     number of iterations used =            8  plain     mixing
     Exchange-correlation=  SLA  PW   PBX  PBC
                           (   1   4   3   4   0   0   0)

     celldm(1)=   7.974261  celldm(2)=   0.000000  celldm(3)=   0.000000
     celldm(4)=   0.000000  celldm(5)=   0.000000  celldm(6)=   0.000000

     crystal axes: (cart. coord. in units of alat)
               a(1) = (   1.000000   0.000000   0.000000 )
               a(2) = (   0.000000   2.284521   0.000000 )
               a(3) = (   0.000000   0.000000   3.739845 )

     reciprocal axes: (cart. coord. in units 2 pi/alat)
               b(1) = (  1.000000  0.000000  0.000000 )
               b(2) = (  0.000000  0.437729  0.000000 )
               b(3) = (  0.000000  0.000000  0.267391 )

     PseudoPot. # 1 for Tl read from file:
     /home/pragov/projects/rrg-bengioy-ad/pragov/crystal_structure_design/SSSP/Tl_pbe_v1.2.uspp.F.UPF
     MD5 check sum: b76cf1f7e72655a2b2c53cf6385d7059
     Pseudo is Ultrasoft + core correction, Zval = 13.0
     Generated by new atomic code, or converted to UPF format
     Using radial grid of  899 points,  6 beta functions with:
                l(1) =   0
                l(2) =   0
                l(3) =   1
                l(4) =   1
                l(5) =   2
                l(6) =   2
     Q(r) pseudized with  6 coefficients,  rinner =    1.100   1.100   1.100
                                                       1.100   1.100

     PseudoPot. # 2 for Cd read from file:
     /home/pragov/projects/rrg-bengioy-ad/pragov/crystal_structure_design/SSSP/Cd.pbe-dn-rrkjus_psl.0.3.1.UPF
     MD5 check sum: 558e9f355611b531a870a69ef6ace9e2
     Pseudo is Ultrasoft + core correction, Zval = 12.0
     Generated using "atomic" code by A. Dal Corso  v.5.0.99 svn rev. 10869
     Using radial grid of 1239 points,  6 beta functions with:
                l(1) =   0
                l(2) =   0
                l(3) =   1
                l(4) =   1
                l(5) =   2
                l(6) =   2
     Q(r) pseudized with 0 coefficients

     PseudoPot. # 3 for Br read from file:
     /home/pragov/projects/rrg-bengioy-ad/pragov/crystal_structure_design/SSSP/br_pbe_v1.4.uspp.F.UPF
     MD5 check sum: d3ffb7b29f6225aa16fe06858fb2a80b
     Pseudo is Ultrasoft + core correction, Zval =  7.0
     Generated by new atomic code, or converted to UPF format
     Using radial grid of  879 points,  6 beta functions with:
                l(1) =   0
                l(2) =   0
                l(3) =   1
                l(4) =   1
                l(5) =   2
                l(6) =   2
     Q(r) pseudized with  8 coefficients,  rinner =    1.100   1.100   1.100
                                                       1.100   1.100

     atomic species   valence    mass     pseudopotential
        Tl            13.00   204.38000     Tl( 1.00)
        Cd            12.00   112.41400     Cd( 1.00)
        Br             7.00    79.90400     Br( 1.00)

      8 Sym. Ops., with inversion, found ( 6 have fractional translation)

                                    s                        frac. trans.

      isym =  1     identity

 cryst.   s( 1) = (     1          0          0      )
                  (     0          1          0      )
                  (     0          0          1      )

 cart.    s( 1) = (  1.0000000  0.0000000  0.0000000 )
                  (  0.0000000  1.0000000  0.0000000 )
                  (  0.0000000  0.0000000  1.0000000 )

      isym =  2     180 deg rotation - cart. axis [0,0,1]

 cryst.   s( 2) = (    -1          0          0      )    f =(  0.0000000 )
                  (     0         -1          0      )       (  0.5000000 )
                  (     0          0          1      )       ( -0.5000000 )

 cart.    s( 2) = ( -1.0000000  0.0000000  0.0000000 )    f =(  0.0000000 )
                  (  0.0000000 -1.0000000  0.0000000 )       (  1.1422604 )
                  (  0.0000000  0.0000000  1.0000000 )       ( -1.8699225 )

[...]

      isym =  4     180 deg rotation - cart. axis [1,0,0]

[...]

      isym =  5     inversion

 cryst.   s( 5) = (    -1          0          0      )
                  (     0         -1          0      )
                  (     0          0         -1      )

 cart.    s( 5) = ( -1.0000000  0.0000000  0.0000000 )
                  (  0.0000000 -1.0000000  0.0000000 )
                  (  0.0000000  0.0000000 -1.0000000 )

      isym =  6     inv. 180 deg rotation - cart. axis [0,0,1]

[...]

      isym =  8     inv. 180 deg rotation - cart. axis [1,0,0]

 cryst.   s( 8) = (    -1          0          0      )    f =(  0.5000000 )
                  (     0          1          0      )       (  0.0000000 )
                  (     0          0          1      )       (  0.0000000 )

 cart.    s( 8) = ( -1.0000000  0.0000000  0.0000000 )    f =(  0.5000000 )
                  (  0.0000000  1.0000000  0.0000000 )       (  0.0000000 )
                  (  0.0000000  0.0000000  1.0000000 )       (  0.0000000 )

   Cartesian axes

     site n.     atom                  positions (alat units)
         1           Tl  tau(   1) = (   0.2500000   1.0017258   0.6631344  )
         2           Tl  tau(   2) = (   0.7500000   1.2827950   3.0767107  )
         3           Tl  tau(   3) = (   0.2500000   2.1439862   1.2067882  )
         4           Tl  tau(   4) = (   0.7500000   0.1405346   2.5330569  )
         5           Cd  tau(   5) = (   0.2500000   0.3830593   3.5329494  )
         6           Cd  tau(   6) = (   0.7500000   1.9014615   0.2068957  )
         7           Cd  tau(   7) = (   0.2500000   1.5253197   2.0768182  )
         8           Cd  tau(   8) = (   0.7500000   0.7592011   1.6630268  )
         9           Br  tau(   9) = (   0.2500000   0.0477442   0.3828330  )
        10           Br  tau(  10) = (   0.7500000   2.2367766   3.3570121  )
        11           Br  tau(  11) = (   0.2500000   1.1900046   1.4870896  )
        12           Br  tau(  12) = (   0.7500000   1.0945162   2.2527555  )
        13           Br  tau(  13) = (   0.2500000   0.3793767   1.8932554  )
        14           Br  tau(  14) = (   0.7500000   1.9051441   1.8465896  )
        15           Br  tau(  15) = (   0.2500000   1.5216371   3.7165122  )
        16           Br  tau(  16) = (   0.7500000   0.7628837   0.0233329  )
        17           Br  tau(  17) = (   0.7500000   0.4854904   1.0794090  )
        18           Br  tau(  18) = (   0.2500000   1.7990304   2.6604360  )
        19           Br  tau(  19) = (   0.7500000   1.6277508   0.7905135  )
        20           Br  tau(  20) = (   0.2500000   0.6567700   2.9493316  )

   Crystallographic axes

     site n.     atom                  positions (cryst. coord.)
         1           Tl  tau(   1) = (  0.2500000  0.4384840  0.1773160  )
         2           Tl  tau(   2) = (  0.7500000  0.5615160  0.8226840  )
         3           Tl  tau(   3) = (  0.2500000  0.9384840  0.3226840  )
         4           Tl  tau(   4) = (  0.7500000  0.0615160  0.6773160  )
         5           Cd  tau(   5) = (  0.2500000  0.1676760  0.9446780  )
         6           Cd  tau(   6) = (  0.7500000  0.8323240  0.0553220  )
         7           Cd  tau(   7) = (  0.2500000  0.6676760  0.5553220  )
         8           Cd  tau(   8) = (  0.7500000  0.3323240  0.4446780  )
         9           Br  tau(   9) = (  0.2500000  0.0208990  0.1023660  )
        10           Br  tau(  10) = (  0.7500000  0.9791010  0.8976340  )
        11           Br  tau(  11) = (  0.2500000  0.5208990  0.3976340  )
        12           Br  tau(  12) = (  0.7500000  0.4791010  0.6023660  )
        13           Br  tau(  13) = (  0.2500000  0.1660640  0.5062390  )
        14           Br  tau(  14) = (  0.7500000  0.8339360  0.4937610  )
        15           Br  tau(  15) = (  0.2500000  0.6660640  0.9937610  )
        16           Br  tau(  16) = (  0.7500000  0.3339360  0.0062390  )
        17           Br  tau(  17) = (  0.7500000  0.2125130  0.2886240  )
        18           Br  tau(  18) = (  0.2500000  0.7874870  0.7113760  )
        19           Br  tau(  19) = (  0.7500000  0.7125130  0.2113760  )
        20           Br  tau(  20) = (  0.2500000  0.2874870  0.7886240  )

     number of k points=     1  Methfessel-Paxton smearing, width (Ry)=  0.0010
                       cart. coord. in units 2pi/alat
        k(    1) = (   0.0000000   0.0000000   0.0000000), wk =   2.0000000

                       cryst. coord.
        k(    1) = (   0.0000000   0.0000000   0.0000000), wk =   2.0000000

     Check: negative core charge=   -0.000003

     Initial potential from superposition of free atoms

     starting charge     183.9608, renormalised to     184.0000

     negative rho (up, down):  1.964E-01 0.000E+00
     Starting wfcs are  120 randomized atomic wfcs

     Self-consistent Calculation

     iteration #  1     ecut=    30.00 Ry     beta= 0.70
     Davidson diagonalization with overlap

     ethr =  1.00E-02,  avg # of iterations =  2.0

     Threshold (ethr) on eigenvalues was too large:
     Diagonalizing with lowered threshold

     Davidson diagonalization with overlap

[...]

     negative rho (up, down):  1.974E-01 0.000E+00

     total energy              =   -1631.20004420 Ry
     estimated scf accuracy    <       0.72454800 Ry

[...]

     total energy              =   -1631.44055886 Ry
     estimated scf accuracy    <       0.00000284 Ry

     iteration #  9     ecut=    30.00 Ry     beta= 0.70
     Davidson diagonalization with overlap

     ethr =  1.54E-09,  avg # of iterations =  4.0

[...]

     End of self-consistent calculation

          k = 0.0000 0.0000 0.0000 (  5983 PWs)   bands (ev):

   -10.0382 -10.0031  -9.7527  -9.7193  -9.5296  -9.5172  -9.4796  -9.4522
    -9.3817  -9.3783  -9.3637  -9.3354  -6.4547  -6.4543  -6.4541  -6.4534
    -6.3768  -6.3768  -6.3761  -6.3757  -6.3709  -6.3702  -6.3669  -6.3666
    -6.3527  -6.3519  -6.3494  -6.3475  -6.3422  -6.3369  -6.3366  -6.3335
    -3.6575  -3.6543  -3.6409  -3.6398  -3.5906  -3.5877  -3.5479  -3.5444
    -3.5358  -3.5300  -3.4844  -3.4817  -3.4751  -3.4606  -3.4239  -3.4095
    -3.4056  -3.4025  -3.3688  -3.3672  -1.2567  -1.1273  -0.8128  -0.7466
     0.1095   0.1541   0.3560   0.6534   1.0690   1.0715   1.6581   1.7069
     1.9140   1.9257   1.9738   2.0550   2.0782   2.3000   2.4962   2.5934
     2.6855   2.7668   2.8668   2.8744   2.8955   2.9552   2.9878   3.0684
     3.1021   3.1309   3.1376   3.1515   3.1823   3.1981   3.2742   3.2893
     3.3401   3.4193   3.5657   3.6795   6.5411   6.5698   6.8571   6.8946
     7.2865   7.5590   7.7290   7.9228   8.6521   8.8224   8.8793   9.1998
     9.3618   9.3788   9.3810   9.4245   9.5455  10.0881

     occupation numbers
     1.0000   1.0000   1.0000   1.0000   1.0000   1.0000   1.0000   1.0000
     1.0000   1.0000   1.0000   1.0000   1.0000   1.0000   1.0000   1.0000
     1.0000   1.0000   1.0000   1.0000   1.0000   1.0000   1.0000   1.0000
     1.0000   1.0000   1.0000   1.0000   1.0000   1.0000   1.0000   1.0000
     1.0000   1.0000   1.0000   1.0000   1.0000   1.0000   1.0000   1.0000
     1.0000   1.0000   1.0000   1.0000   1.0000   1.0000   1.0000   1.0000
     1.0000   1.0000   1.0000   1.0000   1.0000   1.0000   1.0000   1.0000
     1.0000   1.0000   1.0000   1.0000   1.0000   1.0000   1.0000   1.0000
     1.0000   1.0000   1.0000   1.0000   1.0000   1.0000   1.0000   1.0000
     1.0000   1.0000   1.0000   1.0000   1.0000   1.0000   1.0000   1.0000
     1.0000   1.0000   1.0000   1.0000   1.0000   1.0000   1.0000   1.0000
     1.0000   1.0000   1.0000   1.0000  -0.0000  -0.0000  -0.0000  -0.0000
    -0.0000  -0.0000  -0.0000  -0.0000  -0.0000  -0.0000  -0.0000  -0.0000
    -0.0000  -0.0000  -0.0000  -0.0000  -0.0000  -0.0000

     the Fermi energy is     5.1246 ev

!    total energy              =   -1631.44055967 Ry
     estimated scf accuracy    <       0.00000024 Ry
     smearing contrib. (-TS)   =       0.00000000 Ry
     internal energy E=F+TS    =   -1631.44055967 Ry

     The total energy is F=E-TS. E is the sum of the following terms:
     one-electron contribution =    -403.23786196 Ry
     hartree contribution      =     321.24619575 Ry
     xc contribution           =    -733.86897339 Ry
     ewald contribution        =    -815.57992006 Ry

     convergence has been achieved in   9 iterations

     negative rho (up, down):  1.957E-01 0.000E+00

     Forces acting on atoms (cartesian axes, Ry/au):

     atom    1 type  1   force =     0.00000000   -0.00137592   -0.00617827
     atom    2 type  1   force =     0.00000000    0.00137592    0.00617827
     atom    3 type  1   force =     0.00000000   -0.00137592    0.00617827
     atom    4 type  1   force =     0.00000000    0.00137592   -0.00617827
     atom    5 type  2   force =     0.00000000    0.00034269   -0.00434715
     atom    6 type  2   force =     0.00000000   -0.00034269    0.00434715
     atom    7 type  2   force =    -0.00000000    0.00034269    0.00434715
     atom    8 type  2   force =    -0.00000000   -0.00034269   -0.00434715
     atom    9 type  3   force =    -0.00000000    0.02348762    0.00596070
     atom   10 type  3   force =     0.00000000   -0.02348762   -0.00596070
     atom   11 type  3   force =    -0.00000000    0.02348762   -0.00596070
     atom   12 type  3   force =     0.00000000   -0.02348762    0.00596070
     atom   13 type  3   force =     0.00000000   -0.01878587    0.00553680
     atom   14 type  3   force =     0.00000000    0.01878587   -0.00553680
     atom   15 type  3   force =     0.00000000   -0.01878587   -0.00553680
     atom   16 type  3   force =     0.00000000    0.01878587    0.00553680
     atom   17 type  3   force =     0.00000000    0.00713175    0.01137344
     atom   18 type  3   force =     0.00000000   -0.00713175   -0.01137344
     atom   19 type  3   force =    -0.00000000    0.00713175   -0.01137344
     atom   20 type  3   force =     0.00000000   -0.00713175    0.01137344
     The non-local contrib.  to forces
     atom    1 type  1   force =     0.00000000    0.03263333    0.02243345
     atom    2 type  1   force =     0.00000000   -0.03263333   -0.02243345
     atom    3 type  1   force =    -0.00000000    0.03263333   -0.02243345
     atom    4 type  1   force =     0.00000000   -0.03263333    0.02243345
     atom    5 type  2   force =     0.00000000   -0.06184852    0.06178880
     atom    6 type  2   force =     0.00000000    0.06184852   -0.06178880
     atom    7 type  2   force =     0.00000000   -0.06184852   -0.06178880
     atom    8 type  2   force =     0.00000000    0.06184852    0.06178880
     atom    9 type  3   force =     0.00000000    0.02318168    0.01669888
     atom   10 type  3   force =     0.00000000   -0.02318168   -0.01669888
     atom   11 type  3   force =     0.00000000    0.02318168   -0.01669888
     atom   12 type  3   force =    -0.00000000   -0.02318168    0.01669888
     atom   13 type  3   force =    -0.00000000   -0.03642822    0.02339517
     atom   14 type  3   force =    -0.00000000    0.03642822   -0.02339517
     atom   15 type  3   force =     0.00000000   -0.03642822   -0.02339517
     atom   16 type  3   force =    -0.00000000    0.03642822    0.02339517
     atom   17 type  3   force =     0.00000000   -0.01124915   -0.01413034
     atom   18 type  3   force =     0.00000000    0.01124915    0.01413034
     atom   19 type  3   force =     0.00000000   -0.01124915    0.01413034
     atom   20 type  3   force =    -0.00000000    0.01124915   -0.01413034
     The ionic contribution  to forces
     atom    1 type  1   force =    -0.00000000   -0.87237968    0.29767833
     atom    2 type  1   force =    -0.00000000    0.87237968   -0.29767833
     atom    3 type  1   force =     0.00000000   -0.87237968   -0.29767833
     atom    4 type  1   force =    -0.00000000    0.87237968    0.29767833
     atom    5 type  2   force =    -0.00000000    1.61274847   -0.95819977
     atom    6 type  2   force =    -0.00000000   -1.61274847    0.95819977
     atom    7 type  2   force =     0.00000000    1.61274847    0.95819977
     atom    8 type  2   force =    -0.00000000   -1.61274847   -0.95819977
     atom    9 type  3   force =     0.00000000    2.79944734    4.72903607
     atom   10 type  3   force =    -0.00000000   -2.79944734   -4.72903607
     atom   11 type  3   force =    -0.00000000    2.79944734   -4.72903607
     atom   12 type  3   force =    -0.00000000   -2.79944734    4.72903607
     atom   13 type  3   force =     0.00000000   -3.33821866    2.10067618
     atom   14 type  3   force =    -0.00000000    3.33821866   -2.10067618
     atom   15 type  3   force =    -0.00000000   -3.33821866   -2.10067618
     atom   16 type  3   force =    -0.00000000    3.33821866    2.10067618
     atom   17 type  3   force =    -0.00000000   -1.30489425   -3.58060621
     atom   18 type  3   force =    -0.00000000    1.30489425    3.58060621
     atom   19 type  3   force =    -0.00000000   -1.30489425    3.58060621
     atom   20 type  3   force =    -0.00000000    1.30489425   -3.58060621
     The local contribution  to forces
     atom    1 type  1   force =     0.00000057    0.84018729   -0.32390226
     atom    2 type  1   force =     0.00000039   -0.83991835    0.32375941
     atom    3 type  1   force =     0.00000161    0.84004370    0.32450520
     atom    4 type  1   force =     0.00001166   -0.84011457   -0.32445719
     atom    5 type  2   force =    -0.00001727   -1.55343025    0.89519631
     atom    6 type  2   force =    -0.00001415    1.55334066   -0.89549959
     atom    7 type  2   force =    -0.00000477   -1.55330010   -0.89531206
     atom    8 type  2   force =    -0.00002878    1.55326419    0.89561879
     atom    9 type  3   force =    -0.00000525   -2.81160707   -4.75216659
     atom   10 type  3   force =     0.00000480    2.81150348    4.75207193
     atom   11 type  3   force =     0.00001143   -2.81154768    4.75232943
     atom   12 type  3   force =     0.00000026    2.81155431   -4.75225662
     atom   13 type  3   force =     0.00000841    3.37399033   -2.12935707
     atom   14 type  3   force =     0.00000211   -3.37397362    2.12947241
     atom   15 type  3   force =     0.00000435    3.37410375    2.12934983
     atom   16 type  3   force =    -0.00000343   -3.37401691   -2.12944283
     atom   17 type  3   force =    -0.00000628    1.32964446    3.61798825
     atom   18 type  3   force =     0.00001267   -1.32966214   -3.61792214
     atom   19 type  3   force =     0.00000177    1.32967744   -3.61768511
     atom   20 type  3   force =     0.00000597   -1.32969618    3.61762892
     The core correction contribution to forces
     atom    1 type  1   force =     0.00000077   -0.00152176   -0.00172653
     atom    2 type  1   force =    -0.00000008    0.00152497    0.00173164
     atom    3 type  1   force =    -0.00000048   -0.00152430    0.00173187
     atom    4 type  1   force =     0.00000006    0.00152235   -0.00173871
     atom    5 type  2   force =    -0.00000122    0.00286469   -0.00367990
     atom    6 type  2   force =    -0.00000116   -0.00286316    0.00367109
     atom    7 type  2   force =    -0.00000018    0.00286425    0.00368155
     atom    8 type  2   force =    -0.00000083   -0.00286428   -0.00367118
     atom    9 type  3   force =    -0.00000244    0.01230777    0.01263668
     atom   10 type  3   force =     0.00000039   -0.01230538   -0.01264830
     atom   11 type  3   force =     0.00000111    0.01230615   -0.01263434
     atom   12 type  3   force =     0.00000133   -0.01230470    0.01264654
     atom   13 type  3   force =     0.00000120   -0.01814820    0.01081722
     atom   14 type  3   force =     0.00000022    0.01814754   -0.01080314
     atom   15 type  3   force =    -0.00000086   -0.01814767   -0.01081792
     atom   16 type  3   force =    -0.00000032    0.01814991    0.01080486
     atom   17 type  3   force =    -0.00000327   -0.00641694   -0.01168798
     atom   18 type  3   force =     0.00000150    0.00641808    0.01169177
     atom   19 type  3   force =     0.00000065   -0.00641747    0.01168799
     atom   20 type  3   force =     0.00000036    0.00641878   -0.01169354
     The Hubbard contrib.    to forces
     atom    1 type  1   force =     0.00000000    0.00000000    0.00000000
     atom    2 type  1   force =     0.00000000    0.00000000    0.00000000
     atom    3 type  1   force =     0.00000000    0.00000000    0.00000000
     atom    4 type  1   force =     0.00000000    0.00000000    0.00000000
     atom    5 type  2   force =     0.00000000    0.00000000    0.00000000
     atom    6 type  2   force =     0.00000000    0.00000000    0.00000000
     atom    7 type  2   force =     0.00000000    0.00000000    0.00000000
     atom    8 type  2   force =     0.00000000    0.00000000    0.00000000
     atom    9 type  3   force =     0.00000000    0.00000000    0.00000000
     atom   10 type  3   force =     0.00000000    0.00000000    0.00000000
     atom   11 type  3   force =     0.00000000    0.00000000    0.00000000
     atom   12 type  3   force =     0.00000000    0.00000000    0.00000000
     atom   13 type  3   force =     0.00000000    0.00000000    0.00000000
     atom   14 type  3   force =     0.00000000    0.00000000    0.00000000
     atom   15 type  3   force =     0.00000000    0.00000000    0.00000000
     atom   16 type  3   force =     0.00000000    0.00000000    0.00000000
     atom   17 type  3   force =     0.00000000    0.00000000    0.00000000
     atom   18 type  3   force =     0.00000000    0.00000000    0.00000000
     atom   19 type  3   force =     0.00000000    0.00000000    0.00000000
     atom   20 type  3   force =     0.00000000    0.00000000    0.00000000
     The SCF correction term to forces
     atom    1 type  1   force =     0.00000196   -0.00029930   -0.00061694
     atom    2 type  1   force =    -0.00000105    0.00001321    0.00087914
     atom    3 type  1   force =    -0.00000252   -0.00016140   -0.00000315
     atom    4 type  1   force =    -0.00001492    0.00021488   -0.00011450
     atom    5 type  2   force =     0.00003102    0.00002887    0.00064404
     atom    6 type  2   force =     0.00002521    0.00006886   -0.00017047
     atom    7 type  2   force =     0.00000342   -0.00014075   -0.00050690
     atom    8 type  2   force =     0.00003174    0.00016945    0.00001086
     atom    9 type  3   force =     0.00001060    0.00016929   -0.00023424
     atom   10 type  3   force =    -0.00000642   -0.00004314    0.00037529
     atom   11 type  3   force =    -0.00001152    0.00009906    0.00005087
     atom   12 type  3   force =    -0.00000569   -0.00011142   -0.00017789
     atom   13 type  3   force =    -0.00001430    0.00002445   -0.00003584
     atom   14 type  3   force =    -0.00000355   -0.00002693   -0.00018329
     atom   15 type  3   force =     0.00000082   -0.00009444    0.00003775
     atom   16 type  3   force =     0.00000079    0.00000422    0.00013111
     atom   17 type  3   force =     0.00002146    0.00005400   -0.00021323
     atom   18 type  3   force =    -0.00001925   -0.00002814    0.00012936
     atom   19 type  3   force =    -0.00000388    0.00001208   -0.00010876
     atom   20 type  3   force =    -0.00000663    0.00000256    0.00021063

     Total force =     0.069572     Total SCF correction =     0.001599

     Computing stress (Cartesian axis) and pressure

     negative rho (up, down):  1.957E-01 0.000E+00
          total   stress  (Ry/bohr**3)                   (kbar)     P=       -3.87
   0.00019148   0.00000000   0.00000000           28.17        0.00        0.00
   0.00000000  -0.00005135   0.00000000            0.00       -7.55        0.00
   0.00000000   0.00000000  -0.00021914            0.00        0.00      -32.24

     kinetic stress (kbar)   7309.81      0.00      0.00
                                0.00   7169.72      0.00
                                0.00      0.00   7146.31

     local   stress (kbar)    336.51     -0.00     -0.00
                               -0.00   2588.10     -0.00
                               -0.00     -0.00   3143.01

     nonloc. stress (kbar)   -614.27      0.00      0.00
                                0.00   -529.41      0.00
                                0.00      0.00   -525.91

     hartree stress (kbar)   4383.15      0.00      0.00
                                0.00   3416.81      0.00
                                0.00      0.00   3108.05

     exc-cor stress (kbar)  15361.86      0.00      0.00
                                0.00  15359.99     -0.00
                                0.00     -0.00  15361.25

     corecor stress (kbar) -18453.23     -0.00     -0.00
                               -0.00 -18439.73      0.00
                               -0.00      0.00 -18440.39

     ewald   stress (kbar)  -8295.67      0.00      0.00
                                0.00  -9573.05      0.00
                                0.00      0.00  -9824.55

     hubbard stress (kbar)      0.00      0.00      0.00
                                0.00      0.00      0.00
                                0.00      0.00      0.00

     DFT-D   stress (kbar)      0.00      0.00      0.00
                                0.00      0.00      0.00
                                0.00      0.00      0.00

     XDM     stress (kbar)      0.00      0.00      0.00
                                0.00      0.00      0.00
                                0.00      0.00      0.00

     dft-nl  stress (kbar)      0.00      0.00      0.00
                                0.00      0.00      0.00
                                0.00      0.00      0.00

     TS-vdW  stress (kbar)      0.00      0.00      0.00
                                0.00      0.00      0.00
                                0.00      0.00      0.00

[...]

                                0.00      0.00      0.00

     Writing all to output data dir new_calculations/myprefix.save/

     General routines

     Parallel routines

   This run was terminated on:   6:45:36  21May2023

   JOB DONE.