     Program PWSCF v.7.0 starts on 21May2023 at  5: 7:49

     Reading input from espresso_16866.pwi
Warning: card &CELL ignored
Warning: card / ignored

     Current dimensions of program PWSCF are:
     Max number of different atomic species (ntypx) = 10
     Max number of k-points (npk) =  40000
     Max angular momentum in pseudopotentials (lmaxx) =  4
     file Nb.pbe-spn-kjpaw_psl.0.3.0.UPF: wavefunction(s)  4S 4P renormalized

     gamma-point specific algorithms are used
     Message from routine setup:
     using ibrav=0 with symmetry is DISCOURAGED, use correct ibrav instead

     Subspace diagonalization in iterative solution of the eigenvalue problem:
     a serial algorithm will be used

     Using Slab Decomposition

     bravais-lattice index     =            0
     lattice parameter (alat)  =       8.4089  a.u.
     unit-cell volume          =     420.4444 (a.u.)^3
     number of atoms/cell      =            4
     number of atomic types    =            3
     number of electrons       =        56.00
     number of Kohn-Sham states=           34
     kinetic-energy cutoff     =      30.0000  Ry
     charge density cutoff     =     240.0000  Ry
     scf convergence threshold =      1.0E-06
     mixing beta               =       0.7000
     number of iterations used =            8  plain     mixing
     Exchange-correlation= PBE
                           (   1   4   3   4   0   0   0)

     celldm(1)=   8.408939  celldm(2)=   0.000000  celldm(3)=   0.000000
     celldm(4)=   0.000000  celldm(5)=   0.000000  celldm(6)=   0.000000

     crystal axes: (cart. coord. in units of alat)
               a(1) = (   1.000000   0.000000   0.000000 )
               a(2) = (   0.500000   0.866025   0.000000 )
               a(3) = (   0.500000   0.288675   0.816497 )

     reciprocal axes: (cart. coord. in units 2 pi/alat)
               b(1) = (  1.000000 -0.577350 -0.408248 )
               b(2) = (  0.000000  1.154701 -0.408248 )
               b(3) = (  0.000000  0.000000  1.224745 )

     PseudoPot. # 1 for Nb read from file:
     /home/pragov/projects/rrg-bengioy-ad/pragov/crystal_structure_design/SSSP/Nb.pbe-spn-kjpaw_psl.0.3.0.UPF
     MD5 check sum: 411d72ad547312f8017e2943ceca08cc
     Pseudo is Projector augmented-wave + core cor, Zval = 13.0
     Generated using "atomic" code by A. Dal Corso  v.5.0.99 svn rev. 10869
     Shape of augmentation charge: PSQ
     Using radial grid of 1227 points,  6 beta functions with:
                l(1) =   0
                l(2) =   0
                l(3) =   1
                l(4) =   1
                l(5) =   2
                l(6) =   2
     Q(r) pseudized with 0 coefficients

     PseudoPot. # 2 for Cr read from file:
     /home/pragov/projects/rrg-bengioy-ad/pragov/crystal_structure_design/SSSP/cr_pbe_v1.5.uspp.F.UPF
     MD5 check sum: 0d52af634a40206e4dee301ad30da4bf
     Pseudo is Ultrasoft + core correction, Zval = 14.0
     Generated by new atomic code, or converted to UPF format
     Using radial grid of  857 points,  6 beta functions with:
                l(1) =   0
                l(2) =   0
                l(3) =   1
                l(4) =   1
                l(5) =   2
                l(6) =   2
     Q(r) pseudized with  8 coefficients,  rinner =    0.950   0.950   0.950
                                                       0.950   0.950

     PseudoPot. # 3 for Ru read from file:
     /home/pragov/projects/rrg-bengioy-ad/pragov/crystal_structure_design/SSSP/Ru_ONCV_PBE-1.0.oncvpsp.upf
     MD5 check sum: be037bb81c227cfb9b1461a9f099f4bd
     Pseudo is Norm-conserving, Zval = 16.0
     Generated using ONCVPSP code by D. R. Hamann
     Using radial grid of 1458 points,  6 beta functions with:
                l(1) =   0
                l(2) =   0
                l(3) =   1
                l(4) =   1
                l(5) =   2
                l(6) =   2

     atomic species   valence    mass     pseudopotential
        Nb            13.00    92.90637     Nb( 1.00)
        Cr            14.00    51.99610     Cr( 1.00)
        Ru            16.00   101.07000     Ru( 1.00)

     12 Sym. Ops., with inversion, found

                                    s                        frac. trans.

      isym =  1     identity

 cryst.   s( 1) = (     1          0          0      )
                  (     0          1          0      )
                  (     0          0          1      )

 cart.    s( 1) = (  1.0000000  0.0000000  0.0000000 )
                  (  0.0000000  1.0000000  0.0000000 )
                  (  0.0000000  0.0000000  1.0000000 )

      isym =  2     180 deg rotation - cart. axis [1,0,0]

[...]

      isym =  3     120 deg rotation - cryst. axis [0,0,1]

[...]

      isym =  6     180 deg rotation - cryst. axis [1,1,0]

[...]

      isym =  7     inversion

[...]

      isym =  8     inv. 180 deg rotation - cart. axis [1,0,0]

[...]

      isym =  9     inv. 120 deg rotation - cryst. axis [0,0,1]

 cryst.   s( 9) = (     1         -1          0      )
                  (     1          0          0      )
                  (     1          0         -1      )

 cart.    s( 9) = (  0.5000000  0.8660254 -0.0000000 )
                  ( -0.8660254  0.5000000 -0.0000000 )
                  (  0.0000000  0.0000000 -1.0000000 )

[...]

 cryst.   s(10) = (     0          1          0      )
                  (    -1          1          0      )
                  (     0          1         -1      )

 cart.    s(10) = (  0.5000000 -0.8660254  0.0000000 )
                  (  0.8660254  0.5000000 -0.0000000 )
                  (  0.0000000  0.0000000 -1.0000000 )

[...]

      isym = 12     inv. 180 deg rotation - cryst. axis [1,1,0]

 cryst.   s(12) = (     1         -1          0      )
                  (     0         -1          0      )
                  (     0         -1          1      )

 cart.    s(12) = (  0.5000000 -0.8660254  0.0000000 )
                  ( -0.8660254 -0.5000000  0.0000000 )
                  (  0.0000000  0.0000000  1.0000000 )

   Cartesian axes

     site n.     atom                  positions (alat units)
         1           Nb  tau(   1) = (   0.5000000   0.2886751   0.2041241  )
         2           Nb  tau(   2) = (   1.5000000   0.8660254   0.6123724  )
         3           Cr  tau(   3) = (   1.0000000   0.5773503   0.4082483  )
         4           Ru  tau(   4) = (   0.0000000   0.0000000   0.0000000  )

   Crystallographic axes

     site n.     atom                  positions (cryst. coord.)
         1           Nb  tau(   1) = (  0.2500000  0.2500000  0.2500000  )
         2           Nb  tau(   2) = (  0.7500000  0.7500000  0.7500000  )
         3           Cr  tau(   3) = (  0.5000000  0.5000000  0.5000000  )
         4           Ru  tau(   4) = (  0.0000000  0.0000000  0.0000000  )

     number of k points=     1  Methfessel-Paxton smearing, width (Ry)=  0.0010
                       cart. coord. in units 2pi/alat
        k(    1) = (   0.0000000   0.0000000   0.0000000), wk =   2.0000000

                       cryst. coord.
        k(    1) = (   0.0000000   0.0000000   0.0000000), wk =   2.0000000

     Check: negative core charge=   -0.000021

     Initial potential from superposition of free atoms

     starting charge      54.9952, renormalised to      56.0000
     Starting wfcs are   40 randomized atomic wfcs
     Checking if some PAW data can be deallocated...

     Self-consistent Calculation

     iteration #  1     ecut=    30.00 Ry     beta= 0.70
     Davidson diagonalization with overlap

     ethr =  1.00E-02,  avg # of iterations =  2.0

     total energy              =   -1031.05128236 Ry
     estimated scf accuracy    <       3.04920898 Ry

[...]

     total energy              =   -1033.00125979 Ry
     estimated scf accuracy    <       0.00009915 Ry

     iteration # 11     ecut=    30.00 Ry     beta= 0.70
     Davidson diagonalization with overlap

     ethr =  1.77E-07,  avg # of iterations =  5.0

     End of self-consistent calculation

          k = 0.0000 0.0000 0.0000 (   606 PWs)   bands (ev):

   -53.9310 -50.8027 -35.0100 -34.9066 -23.9079 -23.9077 -23.9076 -22.1968
   -22.1961 -22.1956 -11.2684 -11.2683 -11.2682 -10.9164 -10.9163 -10.9162
    12.4490  14.7054  14.7055  16.5623  16.5624  16.5625  17.1160  17.1161
    17.1162  19.4166  19.4170  19.4171  20.1329  20.1330  21.7942  21.7943
    23.8575  23.8576

     occupation numbers
     1.0000   1.0000   1.0000   1.0000   1.0000   1.0000   1.0000   1.0000
     1.0000   1.0000   1.0000   1.0000   1.0000   1.0000   1.0000   1.0000
     1.0000   1.0000   1.0000   1.0000   1.0000   1.0000   1.0000   1.0000
     1.0000   1.0000   1.0000   1.0000  -0.0000  -0.0000  -0.0000  -0.0000
    -0.0000  -0.0000

     the Fermi energy is    19.7247 ev

!    total energy              =   -1033.00127141 Ry
     estimated scf accuracy    <       0.00000085 Ry
     smearing contrib. (-TS)   =       0.00000000 Ry
     internal energy E=F+TS    =   -1033.00127141 Ry

     The total energy is F=E-TS. E is the sum of the following terms:
     one-electron contribution =    -137.32235848 Ry
     hartree contribution      =     103.41507424 Ry
     xc contribution           =    -100.32387337 Ry
     ewald contribution        =    -481.80072816 Ry
     one-center paw contrib.   =    -416.96938563 Ry
      -> PAW hartree energy AE =     139.08026009 Ry
      -> PAW hartree energy PS =    -138.33987031 Ry
      -> PAW xc energy AE      =    -471.94354242 Ry
      -> PAW xc energy PS      =      54.23376700 Ry
      -> total E_H with PAW    =     104.15546402 Ry
      -> total E_XC with PAW   =    -518.03364880 Ry

     convergence has been achieved in  11 iterations

     Forces acting on atoms (cartesian axes, Ry/au):

     atom    1 type  1   force =     0.00000000    0.00000000   -0.00028176
     atom    2 type  1   force =     0.00000000    0.00000000    0.00028176
     atom    3 type  2   force =     0.00000000    0.00000000    0.00000000
     atom    4 type  3   force =     0.00000000    0.00000000    0.00000000
     The non-local contrib.  to forces
     atom    1 type  1   force =     0.00000000    0.00000000   -0.00025494
     atom    2 type  1   force =     0.00000000    0.00000000    0.00025494
     atom    3 type  2   force =    -0.00000000   -0.00000000    0.00000000
     atom    4 type  3   force =     0.00000000    0.00000000    0.00000000
     The ionic contribution  to forces
     atom    1 type  1   force =     0.00000000   -0.00000000    0.00000000
     atom    2 type  1   force =     0.00000000    0.00000000   -0.00000000
     atom    3 type  2   force =     0.00000000    0.00000000   -0.00000000
     atom    4 type  3   force =    -0.00000000   -0.00000000    0.00000000
     The local contribution  to forces
     atom    1 type  1   force =    -0.00040075   -0.00026627   -0.00087281
     atom    2 type  1   force =     0.00029656    0.00003108    0.00099127
     atom    3 type  2   force =    -0.00016697   -0.00030118    0.00001101
     atom    4 type  3   force =     0.00029057    0.00052110    0.00049126
     The core correction contribution to forces
     atom    1 type  1   force =    -0.00000120   -0.00000400    0.00001487
     atom    2 type  1   force =    -0.00000223   -0.00000421    0.00000669
     atom    3 type  2   force =     0.00000088    0.00000353    0.00002432
     atom    4 type  3   force =     0.00000000    0.00000000    0.00000000
     The Hubbard contrib.    to forces
     atom    1 type  1   force =     0.00000000    0.00000000    0.00000000
     atom    2 type  1   force =     0.00000000    0.00000000    0.00000000
     atom    3 type  2   force =     0.00000000    0.00000000    0.00000000
     atom    4 type  3   force =     0.00000000    0.00000000    0.00000000
     The SCF correction term to forces
     atom    1 type  1   force =     0.00036489    0.00019257    0.00090651
     atom    2 type  1   force =    -0.00027981   -0.00008300   -0.00089576
     atom    3 type  2   force =     0.00016036    0.00029109    0.00013847
     atom    4 type  3   force =    -0.00030669   -0.00053211   -0.00045405

     Total force =     0.000398     Total SCF correction =     0.001610
     SCF correction compared to forces is large: reduce conv_thr to get better values

     Computing stress (Cartesian axis) and pressure

          total   stress  (Ry/bohr**3)                   (kbar)     P=     -252.09
  -0.00171388  -0.00000000   0.00000000         -252.12       -0.00        0.00
  -0.00000000  -0.00171388   0.00000000           -0.00     -252.12        0.00
  -0.00000000   0.00000000  -0.00171317           -0.00        0.00     -252.02

     kinetic stress (kbar)  43388.45      0.00      0.00
                                0.00  43388.45     -0.00
                                0.00      0.00  43388.51

     local   stress (kbar)  -3709.67     -0.04     -0.01
                               -0.04  -3709.81      0.02
                               -0.01      0.02  -3709.85

     nonloc. stress (kbar)  13071.73     -0.00     -0.00
                               -0.00  13071.73     -0.00
                               -0.00      0.00  13071.71

     hartree stress (kbar)  12060.87     -0.01     -0.01
                               -0.01  12060.93      0.01
                               -0.01      0.01  12061.07

     exc-cor stress (kbar)   2664.29     -0.00      0.00
                               -0.00   2664.29     -0.00
                                0.00     -0.00   2664.30

     corecor stress (kbar) -11536.94     -0.00     -0.00
                               -0.00 -11536.94      0.00
                               -0.00      0.00 -11536.93

     ewald   stress (kbar) -56190.81     -0.00     -0.00
                               -0.00 -56190.81     -0.00
                               -0.00     -0.00 -56190.81

     hubbard stress (kbar)      0.00      0.00      0.00
                                0.00      0.00      0.00
                                0.00      0.00      0.00

     DFT-D   stress (kbar)      0.00      0.00      0.00
                                0.00      0.00      0.00
                                0.00      0.00      0.00

     XDM     stress (kbar)      0.00      0.00      0.00
                                0.00      0.00      0.00
                                0.00      0.00      0.00

     dft-nl  stress (kbar)      0.00      0.00      0.00
                                0.00      0.00      0.00
                                0.00      0.00      0.00

     TS-vdW  stress (kbar)      0.00      0.00      0.00
                                0.00      0.00      0.00
                                0.00      0.00      0.00

[...]

                                0.00      0.00      0.00

     Writing all to output data dir new_calculations/myprefix.save/

     General routines

     Parallel routines

     PAW routines

   This run was terminated on:   5: 8: 7  21May2023

   JOB DONE.