     Program PWSCF v.7.0 starts on 20May2023 at 16:10:41

     Reading input from espresso_12379.pwi
Warning: card &CELL ignored
Warning: card / ignored

     Current dimensions of program PWSCF are:
     Max number of different atomic species (ntypx) = 10
     Max number of k-points (npk) =  40000
     Max angular momentum in pseudopotentials (lmaxx) =  4

     gamma-point specific algorithms are used
     Message from routine setup:
     using ibrav=0 with symmetry is DISCOURAGED, use correct ibrav instead

     Subspace diagonalization in iterative solution of the eigenvalue problem:
     a serial algorithm will be used

     Using Slab Decomposition

     bravais-lattice index     =            0
     lattice parameter (alat)  =      40.4177  a.u.
     unit-cell volume          =    2909.6545 (a.u.)^3
     number of atoms/cell      =           18
     number of atomic types    =            3
     number of electrons       =       268.00
     number of Kohn-Sham states=          161
     kinetic-energy cutoff     =      30.0000  Ry
     charge density cutoff     =     240.0000  Ry
     scf convergence threshold =      1.0E-06
     mixing beta               =       0.7000
     number of iterations used =            8  plain     mixing
     Exchange-correlation= PBE
                           (   1   4   3   4   0   0   0)

     celldm(1)=  40.417716  celldm(2)=   0.000000  celldm(3)=   0.000000
     celldm(4)=   0.000000  celldm(5)=   0.000000  celldm(6)=   0.000000

     crystal axes: (cart. coord. in units of alat)
               a(1) = (   1.000000   0.000000   0.000000 )
               a(2) = (   0.955432   0.295210   0.000000 )
               a(3) = (  -0.977716  -0.147605   0.149278 )

     reciprocal axes: (cart. coord. in units 2 pi/alat)
               b(1) = (  1.000000 -3.236448  3.349463 )
               b(2) = (  0.000000  3.387418  3.349463 )
               b(3) = (  0.000000  0.000000  6.698925 )

     PseudoPot. # 1 for Ca read from file:
     /home/pragov/projects/rrg-bengioy-ad/pragov/crystal_structure_design/SSSP/Ca_pbe_v1.uspp.F.UPF
     MD5 check sum: 403a4c14b9e4d4dfdc3024c9a3812218
     Pseudo is Ultrasoft + core correction, Zval = 10.0
     Generated by new atomic code, or converted to UPF format
     Using radial grid of  845 points,  6 beta functions with:
                l(1) =   0
                l(2) =   0
                l(3) =   1
                l(4) =   1
                l(5) =   2
                l(6) =   2
     Q(r) pseudized with  8 coefficients,  rinner =    1.500   1.500   1.500
                                                       1.500   1.500

     PseudoPot. # 2 for Sb read from file:
     /home/pragov/projects/rrg-bengioy-ad/pragov/crystal_structure_design/SSSP/sb_pbe_v1.4.uspp.F.UPF
     MD5 check sum: 9bc50dfb53373b713f5709b9110fe27f
     Pseudo is Ultrasoft + core correction, Zval = 15.0
     Generated by new atomic code, or converted to UPF format
     Using radial grid of  891 points,  6 beta functions with:
                l(1) =   0
                l(2) =   0
                l(3) =   1
                l(4) =   1
                l(5) =   2
                l(6) =   2
     Q(r) pseudized with  8 coefficients,  rinner =    1.350   1.350   1.350
                                                       1.350   1.350

     PseudoPot. # 3 for Pd read from file:
     /home/pragov/projects/rrg-bengioy-ad/pragov/crystal_structure_design/SSSP/Pd_ONCV_PBE-1.0.oncvpsp.upf
     MD5 check sum: eb77f42b51d86fb18e25f68156a31cf1
     Pseudo is Norm-conserving, Zval = 18.0
     Generated using ONCVPSP code by D. R. Hamann
     Using radial grid of 1410 points,  6 beta functions with:
                l(1) =   0
                l(2) =   0
                l(3) =   1
                l(4) =   1
                l(5) =   2
                l(6) =   2

     atomic species   valence    mass     pseudopotential
        Ca            10.00    40.07800     Ca( 1.00)
        Sb            15.00   121.76000     Sb( 1.00)
        Pd            18.00   106.42000     Pd( 1.00)

      4 Sym. Ops., with inversion, found

                                    s                        frac. trans.

      isym =  1     identity

 cryst.   s( 1) = (     1          0          0      )
                  (     0          1          0      )
                  (     0          0          1      )

 cart.    s( 1) = (  1.0000000  0.0000000 -0.0000000 )
                  (  0.0000000  1.0000000 -0.0000000 )
                  (  0.0000000  0.0000000  1.0000000 )

      isym =  2     180 deg rotation - cart. axis [0,0,1]

[...]

      isym =  3     inversion

[...]

      isym =  4     inv. 180 deg rotation - cart. axis [0,0,1]

 cryst.   s( 4) = (     1          0          0      )
                  (     0          1          0      )
                  (    -1         -1         -1      )

 cart.    s( 4) = (  1.0000000  0.0000000  0.0000000 )
                  (  0.0000000  1.0000000  0.0000000 )
                  (  0.0000000  0.0000000 -1.0000000 )

   Cartesian axes

     site n.     atom                  positions (alat units)
         1           Ca  tau(   1) = (   1.5888357   0.2398653   0.0000000  )
         2           Ca  tau(   2) = (   0.3665966   0.0553448   0.0000000  )
         3           Ca  tau(   3) = (   1.8469352   0.2788304   0.0000000  )
         4           Ca  tau(   4) = (   0.1084972   0.0163797   0.0000000  )
         5           Sb  tau(   5) = (   0.2423170  -0.0389022   0.0746388  )
         6           Sb  tau(   6) = (   1.3992702   0.2112468   0.0000000  )
         7           Sb  tau(   7) = (   0.7576830   0.0389022   0.0746388  )
         8           Sb  tau(   8) = (   1.0505404   0.1585993   0.0000000  )
         9           Sb  tau(   9) = (   0.7353991   0.1865073   0.0746388  )
        10           Sb  tau(  10) = (   0.9048920   0.1366109   0.0000000  )
        11           Sb  tau(  11) = (   0.2200332   0.1087029   0.0746388  )
        12           Sb  tau(  12) = (   0.5561621   0.0839634   0.0000000  )
        13           Pd  tau(  13) = (   1.2786905   0.1930429   0.0000000  )
        14           Pd  tau(  14) = (   0.5000000   0.0000000   0.0746388  )
        15           Pd  tau(  15) = (   0.4777162   0.1476051   0.0746388  )
        16           Pd  tau(  16) = (   0.6767419   0.1021672   0.0000000  )
        17           Pd  tau(  17) = (   0.9665743   0.2214076   0.0746388  )
        18           Pd  tau(  18) = (   0.9888581   0.0738025   0.0746388  )

   Crystallographic axes

     site n.     atom                  positions (cryst. coord.)
         1           Ca  tau(   1) = (  0.8125240  0.8125240  0.0000000  )
         2           Ca  tau(   2) = (  0.1874760  0.1874760  0.0000000  )
         3           Ca  tau(   3) = (  0.9445150  0.9445150  0.0000000  )
         4           Ca  tau(   4) = (  0.0554850  0.0554850  0.0000000  )
         5           Sb  tau(   5) = (  0.6182220  0.1182220  0.5000000  )
         6           Sb  tau(   6) = (  0.7155810  0.7155810  0.0000000  )
         7           Sb  tau(   7) = (  0.8817780  0.3817780  0.5000000  )
         8           Sb  tau(   8) = (  0.5372420  0.5372420  0.0000000  )
         9           Sb  tau(   9) = (  0.3817780  0.8817780  0.5000000  )
        10           Sb  tau(  10) = (  0.4627580  0.4627580  0.0000000  )
        11           Sb  tau(  11) = (  0.1182220  0.6182220  0.5000000  )
        12           Sb  tau(  12) = (  0.2844190  0.2844190  0.0000000  )
        13           Pd  tau(  13) = (  0.6539170  0.6539170  0.0000000  )
        14           Pd  tau(  14) = (  0.7500000  0.2500000  0.5000000  )
        15           Pd  tau(  15) = (  0.2500000  0.7500000  0.5000000  )
        16           Pd  tau(  16) = (  0.3460830  0.3460830  0.0000000  )
        17           Pd  tau(  17) = (  0.5000000  1.0000000  0.5000000  )
        18           Pd  tau(  18) = (  1.0000000  0.5000000  0.5000000  )

     number of k points=     1  Methfessel-Paxton smearing, width (Ry)=  0.0010
                       cart. coord. in units 2pi/alat
        k(    1) = (   0.0000000   0.0000000   0.0000000), wk =   2.0000000

                       cryst. coord.
        k(    1) = (   0.0000000   0.0000000   0.0000000), wk =   2.0000000

     Check: negative core charge=   -0.000005

     Initial potential from superposition of free atoms

     starting charge     259.9759, renormalised to     268.0000
     Starting wfcs are  172 randomized atomic wfcs

     Self-consistent Calculation

     iteration #  1     ecut=    30.00 Ry     beta= 0.70
     Davidson diagonalization with overlap

     ethr =  1.00E-02,  avg # of iterations =  6.0

     total energy              =   -2660.81572179 Ry
     estimated scf accuracy    <     721.43591641 Ry

[...]

     c_bands:  1 eigenvalues not converged
     ethr =  1.01E-04,  avg # of iterations = 20.0

[...]

     c_bands:  2 eigenvalues not converged
     ethr =  8.55E-06,  avg # of iterations = 20.0

[...]

     total energy              =   -3296.79113007 Ry
     estimated scf accuracy    <       0.00000253 Ry

     iteration # 36     ecut=    30.00 Ry     beta= 0.70
     Davidson diagonalization with overlap

     ethr =  6.34E-10,  avg # of iterations =  2.0

     End of self-consistent calculation

          k = 0.0000 0.0000 0.0000 (  4067 PWs)   bands (ev):

   -74.1565 -74.1524 -73.4585 -73.4546 -73.3607 -73.3600 -39.6699 -39.6631
   -39.5469 -39.5469 -39.5088 -39.5087 -39.0132 -39.0128 -38.9505 -38.9497
   -38.9365 -38.9299 -38.7627 -38.7627 -38.7613 -38.7613 -38.6086 -38.6081
   -29.1022 -29.1022 -28.2837 -28.2829 -17.5418 -17.5366 -17.5190 -17.5177
   -17.5170 -17.5160 -17.5159 -17.5136 -17.5123 -17.5123 -16.9638 -16.9634
   -16.9486 -16.9446 -16.8687 -16.8678 -16.8678 -16.8658 -16.8623 -16.8623
   -16.8343 -16.8342 -16.7994 -16.7994 -16.7992 -16.7992 -16.7903 -16.7857
   -16.7687 -16.7678 -16.4447 -16.4408 -16.4388 -16.4358 -16.4254 -16.4043
   -16.4043 -16.3826 -16.3826 -16.3551 -10.1933 -10.1915 -10.1021 -10.1021
   -10.1021 -10.1021  -9.3642  -9.3555  -9.3237  -9.3236  -9.3227  -9.3227
     0.5531   0.6164   0.9592   1.4672   1.7895   3.4181   4.9804   4.9822
     6.3358   6.5169   6.8828   7.0478   7.0478   7.5443   7.5761   7.5761
     7.5973   7.6622   7.6622   7.8346   7.8348   7.9145   8.2585   8.2585
     8.3804   8.3897   8.7105   8.8569   9.1584   9.1776   9.1816   9.1900
     9.2971   9.4820   9.5223   9.6555   9.6557   9.9374   9.9374   9.9527
    10.0129  10.2281  10.2281  10.3066  10.4827  10.4828  10.6653  10.6653
    10.7297  11.1715  11.6994  13.0711  13.1003  13.1702  13.2558  13.2559
    13.4252  13.5058  13.7531  14.0232  14.0233  14.2453  14.3899  14.8189
    14.9322  14.9322  14.9642  14.9642  15.0289  15.1290  15.2132  15.5297
    15.5702  15.5702  15.5987  15.6176  15.6248  15.6248  15.8855  16.0081
    16.1966

     occupation numbers
     1.0000   1.0000   1.0000   1.0000   1.0000   1.0000   1.0000   1.0000
     1.0000   1.0000   1.0000   1.0000   1.0000   1.0000   1.0000   1.0000
     1.0000   1.0000   1.0000   1.0000   1.0000   1.0000   1.0000   1.0000
     1.0000   1.0000   1.0000   1.0000   1.0000   1.0000   1.0000   1.0000
     1.0000   1.0000   1.0000   1.0000   1.0000   1.0000   1.0000   1.0000
     1.0000   1.0000   1.0000   1.0000   1.0000   1.0000   1.0000   1.0000
     1.0000   1.0000   1.0000   1.0000   1.0000   1.0000   1.0000   1.0000
     1.0000   1.0000   1.0000   1.0000   1.0000   1.0000   1.0000   1.0000
     1.0000   1.0000   1.0000   1.0000   1.0000   1.0000   1.0000   1.0000
     1.0000   1.0000   1.0000   1.0000   1.0000   1.0000   1.0000   1.0000
     1.0000   1.0000   1.0000   1.0000   1.0000   1.0000   1.0000   1.0000
     1.0000   1.0000   1.0000   1.0000   1.0000   1.0000   1.0000   1.0000
     1.0000   1.0000   1.0000   1.0000   1.0000   1.0000   1.0000   1.0000
     1.0000   1.0000   1.0000   1.0000   1.0000   1.0000   1.0000   1.0000
     1.0000   1.0000   1.0000   1.0000   1.0000   1.0000   1.0000   1.0000
     1.0000   1.0000   1.0000   1.0000   1.0000   1.0000   1.0000   1.0000
     1.0000   1.0000   1.0000   1.0000   1.0000   1.0001  -0.0000  -0.0000
    -0.0000  -0.0000  -0.0000  -0.0000  -0.0000  -0.0000  -0.0000  -0.0000
    -0.0000  -0.0000  -0.0000  -0.0000  -0.0000  -0.0000  -0.0000  -0.0000
    -0.0000  -0.0000  -0.0000  -0.0000  -0.0000  -0.0000  -0.0000  -0.0000
    -0.0000

     the Fermi energy is    13.2122 ev

!    total energy              =   -3296.79112961 Ry
     estimated scf accuracy    <       0.00000073 Ry
     smearing contrib. (-TS)   =       0.00000075 Ry
     internal energy E=F+TS    =   -3296.79113035 Ry

     The total energy is F=E-TS. E is the sum of the following terms:
     one-electron contribution =   -1773.67192318 Ry
     hartree contribution      =    1009.47183686 Ry
     xc contribution           =    -549.52565081 Ry
     ewald contribution        =   -1983.06539322 Ry

     convergence has been achieved in  36 iterations

     Forces acting on atoms (cartesian axes, Ry/au):

     atom    1 type  1   force =     0.01916498    0.00289311    0.00000000
     atom    2 type  1   force =    -0.01916498   -0.00289311   -0.00000000
     atom    3 type  1   force =    -0.03998615   -0.00603647   -0.00000000
     atom    4 type  1   force =     0.03998615    0.00603647    0.00000000
     atom    5 type  2   force =    -0.05402649   -0.00815634   -0.00000007
     atom    6 type  2   force =    -0.01426977   -0.00215436   -0.00000000
     atom    7 type  2   force =     0.05402649    0.00815634   -0.00000007
     atom    8 type  2   force =     0.00395415    0.00059666    0.00000000
     atom    9 type  2   force =     0.05402649    0.00815634    0.00000007
     atom   10 type  2   force =    -0.00395415   -0.00059666   -0.00000000
     atom   11 type  2   force =    -0.05402649   -0.00815634    0.00000007
     atom   12 type  2   force =     0.01426977    0.00215436    0.00000000
     atom   13 type  3   force =     0.10445449    0.01576905    0.00000000
     atom   14 type  3   force =     0.00000000    0.00000000   -0.00000002
     atom   15 type  3   force =     0.00000000    0.00000000    0.00000002
     atom   16 type  3   force =    -0.10445449   -0.01576905   -0.00000000
     atom   17 type  3   force =     0.00000000    0.00000000    0.00000000
     atom   18 type  3   force =     0.00000000    0.00000000    0.00000000
     The non-local contrib.  to forces
     atom    1 type  1   force =    -0.07045163   -0.01063615   -0.00000000
     atom    2 type  1   force =     0.07045163    0.01063615    0.00000000
     atom    3 type  1   force =     0.05328396    0.00804439    0.00000000
     atom    4 type  1   force =    -0.05328396   -0.00804439   -0.00000000
     atom    5 type  2   force =     0.13342770    0.02014343   -0.00000011
     atom    6 type  2   force =     0.02300253    0.00347252    0.00000000
     atom    7 type  2   force =    -0.13342770   -0.02014343   -0.00000011
     atom    8 type  2   force =    -0.09273567   -0.01400031   -0.00000000
     atom    9 type  2   force =    -0.13342770   -0.02014343    0.00000011
     atom   10 type  2   force =     0.09273567    0.01400031    0.00000000
     atom   11 type  2   force =     0.13342770    0.02014343    0.00000011
     atom   12 type  2   force =    -0.02300253   -0.00347252   -0.00000000
     atom   13 type  3   force =    -0.21056089   -0.03178847   -0.00000000
     atom   14 type  3   force =     0.00000000    0.00000000   -0.00000005
     atom   15 type  3   force =     0.00000000    0.00000000    0.00000005
     atom   16 type  3   force =     0.21056089    0.03178847    0.00000000
     atom   17 type  3   force =     0.00000000    0.00000000    0.00000000
     atom   18 type  3   force =     0.00000000    0.00000000    0.00000000
     The ionic contribution  to forces
     atom    1 type  1   force =    14.58082304    2.20125574    0.00000000
     atom    2 type  1   force =   -14.58082304   -2.20125574   -0.00000000
     atom    3 type  1   force =   -12.36965646   -1.86743761   -0.00000000
     atom    4 type  1   force =    12.36965646    1.86743761    0.00000000
     atom    5 type  2   force =   -21.14515577   -3.19226805   -0.00000000
     atom    6 type  2   force =   -23.73445123   -3.58317201   -0.00000000
     atom    7 type  2   force =    21.14515577    3.19226805    0.00000000
     atom    8 type  2   force =    33.23447288    5.01738304    0.00000000
     atom    9 type  2   force =    21.14515577    3.19226805    0.00000000
     atom   10 type  2   force =   -33.23447288   -5.01738304   -0.00000000
     atom   11 type  2   force =   -21.14515577   -3.19226805   -0.00000000
     atom   12 type  2   force =    23.73445123    3.58317201    0.00000000
     atom   13 type  3   force =   -12.81634270   -1.93487349   -0.00000000
     atom   14 type  3   force =    -0.00000000    0.00000000    0.00000000
     atom   15 type  3   force =     0.00000000   -0.00000000    0.00000000
     atom   16 type  3   force =    12.81634270    1.93487349   -0.00000000
     atom   17 type  3   force =    -0.00000000    0.00000000    0.00000000
     atom   18 type  3   force =    -0.00000000   -0.00000000    0.00000000
     The local contribution  to forces
     atom    1 type  1   force =   -14.49510665   -2.18831614   -0.00000080
     atom    2 type  1   force =    14.49497915    2.18829576   -0.00000050
     atom    3 type  1   force =    12.28147594    1.85412428   -0.00000084
     atom    4 type  1   force =   -12.28105005   -1.85406276   -0.00000030
     atom    5 type  2   force =    20.95330716    3.16330461    0.00000084
     atom    6 type  2   force =    23.69385492    3.57704420    0.00000096
     atom    7 type  2   force =   -20.95590984   -3.16369708    0.00000001
     atom    8 type  2   force =   -33.13498562   -5.00235909    0.00000214
     atom    9 type  2   force =   -20.95591083   -3.16369895    0.00000038
     atom   10 type  2   force =    33.13732296    5.00272021    0.00000277
     atom   11 type  2   force =    20.95330501    3.16330468   -0.00000004
     atom   12 type  2   force =   -23.69300475   -3.57691446    0.00000187
     atom   13 type  3   force =    13.13001961    1.98222744    0.00000187
     atom   14 type  3   force =     0.00072008    0.00011136   -0.00000210
     atom   15 type  3   force =     0.00071850    0.00010649   -0.00000028
     atom   16 type  3   force =   -13.13165619   -1.98247518    0.00000052
     atom   17 type  3   force =     0.00301923    0.00044963   -0.00000811
     atom   18 type  3   force =     0.00299209    0.00045572    0.00000609
     The core correction contribution to forces
     atom    1 type  1   force =     0.00430286    0.00064958   -0.00000002
     atom    2 type  1   force =    -0.00430170   -0.00064944    0.00000000
     atom    3 type  1   force =    -0.00411419   -0.00062111    0.00000000
     atom    4 type  1   force =     0.00411410    0.00062107    0.00000003
     atom    5 type  2   force =     0.00327605    0.00049457    0.00000003
     atom    6 type  2   force =     0.00342356    0.00051687    0.00000002
     atom    7 type  2   force =    -0.00328045   -0.00049523   -0.00000001
     atom    8 type  2   force =    -0.00285734   -0.00043130    0.00000003
     atom    9 type  2   force =    -0.00328044   -0.00049526   -0.00000000
     atom   10 type  2   force =     0.00286013    0.00043186    0.00000004
     atom   11 type  2   force =     0.00327602    0.00049459    0.00000001
     atom   12 type  2   force =    -0.00342149   -0.00051654    0.00000003
     atom   13 type  3   force =     0.00000000    0.00000000    0.00000000
     atom   14 type  3   force =     0.00000000    0.00000000    0.00000000
     atom   15 type  3   force =     0.00000000    0.00000000    0.00000000
     atom   16 type  3   force =     0.00000000    0.00000000    0.00000000
     atom   17 type  3   force =     0.00000000    0.00000000    0.00000000
     atom   18 type  3   force =     0.00000000    0.00000000    0.00000000
     The Hubbard contrib.    to forces
     atom    1 type  1   force =     0.00000000    0.00000000    0.00000000
     atom    2 type  1   force =     0.00000000    0.00000000    0.00000000
     atom    3 type  1   force =     0.00000000    0.00000000    0.00000000
     atom    4 type  1   force =     0.00000000    0.00000000    0.00000000
     atom    5 type  2   force =     0.00000000    0.00000000    0.00000000
     atom    6 type  2   force =     0.00000000    0.00000000    0.00000000
     atom    7 type  2   force =     0.00000000    0.00000000    0.00000000
     atom    8 type  2   force =     0.00000000    0.00000000    0.00000000
     atom    9 type  2   force =     0.00000000    0.00000000    0.00000000
     atom   10 type  2   force =     0.00000000    0.00000000    0.00000000
     atom   11 type  2   force =     0.00000000    0.00000000    0.00000000
     atom   12 type  2   force =     0.00000000    0.00000000    0.00000000
     atom   13 type  3   force =     0.00000000    0.00000000    0.00000000
     atom   14 type  3   force =     0.00000000    0.00000000    0.00000000
     atom   15 type  3   force =     0.00000000    0.00000000    0.00000000
     atom   16 type  3   force =     0.00000000    0.00000000    0.00000000
     atom   17 type  3   force =     0.00000000    0.00000000    0.00000000
     atom   18 type  3   force =     0.00000000    0.00000000    0.00000000
     The SCF correction term to forces
     atom    1 type  1   force =    -0.00041074   -0.00006138    0.00000049
     atom    2 type  1   force =     0.00052087    0.00007870    0.00000042
     atom    3 type  1   force =    -0.00097268   -0.00014602    0.00000051
     atom    4 type  1   force =     0.00055230    0.00008535    0.00000047
     atom    5 type  2   force =     0.00108152    0.00016338   -0.00000080
     atom    6 type  2   force =    -0.00007194   -0.00001174   -0.00000081
     atom    7 type  2   force =     0.00145219    0.00021827    0.00000035
     atom    8 type  2   force =     0.00012150    0.00001289   -0.00000211
     atom    9 type  2   force =     0.00145313    0.00022047   -0.00000039
     atom   10 type  2   force =    -0.00233843   -0.00035744   -0.00000346
     atom   11 type  2   force =     0.00108428    0.00016351    0.00000032
     atom   12 type  2   force =    -0.00072510   -0.00010994   -0.00000238
     atom   13 type  3   force =     0.00133042    0.00020284   -0.00000148
     atom   14 type  3   force =    -0.00060718   -0.00009437    0.00000182
     atom   15 type  3   force =    -0.00059842   -0.00008806   -0.00000007
     atom   16 type  3   force =     0.00029006    0.00004344   -0.00000026
     atom   17 type  3   force =    -0.00291897   -0.00043450    0.00000924
     atom   18 type  3   force =    -0.00288572   -0.00043985   -0.00000761

     Total force =     0.196802     Total SCF correction =     0.005871

     Computing stress (Cartesian axis) and pressure

          total   stress  (Ry/bohr**3)                   (kbar)     P=     -414.25
  -0.00282946  -0.00000307  -0.00000000         -416.23       -0.45       -0.00
  -0.00000307  -0.00280957  -0.00000000           -0.45     -413.30       -0.00
  -0.00000000  -0.00000000  -0.00280910           -0.00       -0.00     -413.23

     kinetic stress (kbar)  29620.91     -6.23      0.00
                               -6.23  29661.21      0.00
                                0.00      0.00  29662.15

     local   stress (kbar)  11025.07   4971.18     -0.00
                             4971.18 -21152.89      0.02
                               -0.00      0.02 -21903.39

     nonloc. stress (kbar)   3522.03     -7.18      0.00
                               -7.18   3568.54      0.00
                                0.00      0.00   3569.62

     hartree stress (kbar)   6788.02  -2341.98      0.00
                            -2341.98  21947.43     -0.02
                                0.00     -0.02  22301.00

     exc-cor stress (kbar)   3109.43      0.45     -0.00
                                0.45   3106.54      0.00
                               -0.00      0.00   3106.47

     corecor stress (kbar)  -9639.73     -0.25      0.00
                               -0.25  -9638.12     -0.00
                                0.00     -0.00  -9638.08

     ewald   stress (kbar) -44841.96  -2616.44      0.00
                            -2616.44 -27906.01     -0.00
                                0.00     -0.00 -27511.01

     hubbard stress (kbar)      0.00      0.00      0.00
                                0.00      0.00      0.00
                                0.00      0.00      0.00

     DFT-D   stress (kbar)      0.00      0.00      0.00
                                0.00      0.00      0.00
                                0.00      0.00      0.00

     XDM     stress (kbar)      0.00      0.00      0.00
                                0.00      0.00      0.00
                                0.00      0.00      0.00

     dft-nl  stress (kbar)      0.00      0.00      0.00
                                0.00      0.00      0.00
                                0.00      0.00      0.00

     TS-vdW  stress (kbar)      0.00      0.00      0.00
                                0.00      0.00      0.00
                                0.00      0.00      0.00

[...]

                                0.00      0.00      0.00

     Writing all to output data dir new_calculations/myprefix.save/

     General routines

     Parallel routines

   This run was terminated on:  16:32:14  20May2023

   JOB DONE.