     Program PWSCF v.7.0 starts on 21May2023 at  3:27:54

     Reading input from espresso_8028.pwi
Warning: card &CELL ignored
Warning: card / ignored

     Current dimensions of program PWSCF are:
     Max number of different atomic species (ntypx) = 10
     Max number of k-points (npk) =  40000
     Max angular momentum in pseudopotentials (lmaxx) =  4

     gamma-point specific algorithms are used
     Message from routine setup:
     using ibrav=0 with symmetry is DISCOURAGED, use correct ibrav instead

     Subspace diagonalization in iterative solution of the eigenvalue problem:
     a serial algorithm will be used

     Using Slab Decomposition

     bravais-lattice index     =            0
     lattice parameter (alat)  =       7.9314  a.u.
     unit-cell volume          =     787.4950 (a.u.)^3
     number of atoms/cell      =            6
     number of atomic types    =            3
     number of electrons       =        84.00
     number of Kohn-Sham states=           50
     kinetic-energy cutoff     =      30.0000  Ry
     charge density cutoff     =     240.0000  Ry
     scf convergence threshold =      1.0E-06
     mixing beta               =       0.7000
     number of iterations used =            8  plain     mixing
     Exchange-correlation=  SLA  PW   PBX  PBC
                           (   1   4   3   4   0   0   0)

     celldm(1)=   7.931404  celldm(2)=   0.000000  celldm(3)=   0.000000
     celldm(4)=   0.000000  celldm(5)=   0.000000  celldm(6)=   0.000000

     crystal axes: (cart. coord. in units of alat)
               a(1) = (   1.000000   0.000000   0.000000 )
               a(2) = (   0.000000   1.000000   0.000000 )
               a(3) = (   0.000000   0.000000   1.578329 )

     reciprocal axes: (cart. coord. in units 2 pi/alat)
               b(1) = (  1.000000  0.000000  0.000000 )
               b(2) = (  0.000000  1.000000  0.000000 )
               b(3) = (  0.000000  0.000000  0.633581 )

     PseudoPot. # 1 for Ca read from file:
     /home/pragov/projects/rrg-bengioy-ad/pragov/crystal_structure_design/SSSP/Ca_pbe_v1.uspp.F.UPF
     MD5 check sum: 403a4c14b9e4d4dfdc3024c9a3812218
     Pseudo is Ultrasoft + core correction, Zval = 10.0
     Generated by new atomic code, or converted to UPF format
     Using radial grid of  845 points,  6 beta functions with:
                l(1) =   0
                l(2) =   0
                l(3) =   1
                l(4) =   1
                l(5) =   2
                l(6) =   2
     Q(r) pseudized with  8 coefficients,  rinner =    1.500   1.500   1.500
                                                       1.500   1.500

     PseudoPot. # 2 for Ni read from file:
     /home/pragov/projects/rrg-bengioy-ad/pragov/crystal_structure_design/SSSP/ni_pbe_v1.4.uspp.F.UPF
     MD5 check sum: 1ee80287db30b12d2bc1f57a5b5d6409
     Pseudo is Ultrasoft + core correction, Zval = 18.0
     Generated by new atomic code, or converted to UPF format
     Using radial grid of  865 points,  6 beta functions with:
                l(1) =   0
                l(2) =   0
                l(3) =   1
                l(4) =   1
                l(5) =   2
                l(6) =   2
     Q(r) pseudized with 10 coefficients,  rinner =    0.980   0.980   0.980
                                                       0.980   0.980

     PseudoPot. # 3 for Ge read from file:
     /home/pragov/projects/rrg-bengioy-ad/pragov/crystal_structure_design/SSSP/ge_pbe_v1.4.uspp.F.UPF
     MD5 check sum: 9c9eaa91e581c3f09632fb3098b2c6b2
     Pseudo is Ultrasoft + core correction, Zval = 14.0
     Generated by new atomic code, or converted to UPF format
     Using radial grid of  873 points,  6 beta functions with:
                l(1) =   0
                l(2) =   0
                l(3) =   1
                l(4) =   1
                l(5) =   2
                l(6) =   2
     Q(r) pseudized with  8 coefficients,  rinner =    1.400   1.400   1.400
                                                       1.400   1.400

     atomic species   valence    mass     pseudopotential
        Ca            10.00    40.07800     Ca( 1.00)
        Ni            18.00    58.69340     Ni( 1.00)
        Ge            14.00    72.63000     Ge( 1.00)

     16 Sym. Ops., with inversion, found ( 8 have fractional translation)

                                    s                        frac. trans.

      isym =  1     identity

 cryst.   s( 1) = (     1          0          0      )
                  (     0          1          0      )
                  (     0          0          1      )

 cart.    s( 1) = (  1.0000000  0.0000000  0.0000000 )
                  (  0.0000000  1.0000000  0.0000000 )
                  (  0.0000000  0.0000000  1.0000000 )

      isym =  2     180 deg rotation - cart. axis [0,0,1]

[...]

 cryst.   s( 3) = (    -1          0          0      )    f =(  0.5000000 )
                  (     0          1          0      )       (  0.5000000 )
                  (     0          0         -1      )       (  0.0000000 )

 cart.    s( 3) = ( -1.0000000  0.0000000  0.0000000 )    f =(  0.5000000 )
                  (  0.0000000  1.0000000  0.0000000 )       (  0.5000000 )
                  (  0.0000000  0.0000000 -1.0000000 )       (  0.0000000 )

[...]

 cryst.   s( 6) = (     0         -1          0      )
                  (    -1          0          0      )
                  (     0          0         -1      )

 cart.    s( 6) = (  0.0000000 -1.0000000  0.0000000 )
                  ( -1.0000000  0.0000000  0.0000000 )
                  (  0.0000000  0.0000000 -1.0000000 )

[...]

      isym =  8      90 deg rotation - cart. axis [0,0,1]

[...]

      isym =  9     inversion

 cryst.   s( 9) = (    -1          0          0      )    f =(  0.5000000 )
                  (     0         -1          0      )       (  0.5000000 )
                  (     0          0         -1      )       (  0.0000000 )

 cart.    s( 9) = ( -1.0000000  0.0000000  0.0000000 )    f =(  0.5000000 )
                  (  0.0000000 -1.0000000  0.0000000 )       (  0.5000000 )
                  (  0.0000000  0.0000000 -1.0000000 )       (  0.0000000 )

      isym = 10     inv. 180 deg rotation - cart. axis [0,0,1]

 cryst.   s(10) = (     1          0          0      )    f =( -0.5000000 )
                  (     0          1          0      )       (  0.5000000 )
                  (     0          0         -1      )       (  0.0000000 )

 cart.    s(10) = (  1.0000000  0.0000000  0.0000000 )    f =( -0.5000000 )
                  (  0.0000000  1.0000000  0.0000000 )       (  0.5000000 )
                  (  0.0000000  0.0000000 -1.0000000 )       (  0.0000000 )

[...]

 cryst.   s(11) = (     1          0          0      )
                  (     0         -1          0      )
                  (     0          0          1      )

 cart.    s(11) = (  1.0000000  0.0000000  0.0000000 )
                  (  0.0000000 -1.0000000  0.0000000 )
                  (  0.0000000  0.0000000  1.0000000 )

[...]

 cryst.   s(14) = (     0          1          0      )    f =( -0.5000000 )
                  (     1          0          0      )       (  0.5000000 )
                  (     0          0          1      )       (  0.0000000 )

 cart.    s(14) = (  0.0000000  1.0000000  0.0000000 )    f =( -0.5000000 )
                  (  1.0000000  0.0000000  0.0000000 )       (  0.5000000 )
                  (  0.0000000  0.0000000  1.0000000 )       (  0.0000000 )

[...]

      isym = 16     inv.  90 deg rotation - cart. axis [0,0,1]

 cryst.   s(16) = (     0         -1          0      )
                  (     1          0          0      )
                  (     0          0         -1      )

 cart.    s(16) = (  0.0000000  1.0000000  0.0000000 )
                  ( -1.0000000  0.0000000  0.0000000 )
                  (  0.0000000  0.0000000 -1.0000000 )

   Cartesian axes

     site n.     atom                  positions (alat units)
         1           Ca  tau(   1) = (   0.0000000   0.5000000   0.5094469  )
         2           Ca  tau(   2) = (   0.5000000   0.0000000   1.0688826  )
         3           Ni  tau(   3) = (   0.0000000   0.0000000   0.0000000  )
         4           Ni  tau(   4) = (   0.5000000   0.5000000   0.0000000  )
         5           Ge  tau(   5) = (   0.0000000   0.5000000   1.2834959  )
         6           Ge  tau(   6) = (   0.5000000   0.0000000   0.2948335  )

   Crystallographic axes

     site n.     atom                  positions (cryst. coord.)
         1           Ca  tau(   1) = (  0.0000000  0.5000000  0.3227760  )
         2           Ca  tau(   2) = (  0.5000000  0.0000000  0.6772240  )
         3           Ni  tau(   3) = (  0.0000000  0.0000000  0.0000000  )
         4           Ni  tau(   4) = (  0.5000000  0.5000000  0.0000000  )
         5           Ge  tau(   5) = (  0.0000000  0.5000000  0.8131990  )
         6           Ge  tau(   6) = (  0.5000000  0.0000000  0.1868010  )

     number of k points=     1  Methfessel-Paxton smearing, width (Ry)=  0.0010
                       cart. coord. in units 2pi/alat
        k(    1) = (   0.0000000   0.0000000   0.0000000), wk =   2.0000000

                       cryst. coord.
        k(    1) = (   0.0000000   0.0000000   0.0000000), wk =   2.0000000

     Check: negative core charge=   -0.000004

     Initial potential from superposition of free atoms

     starting charge      79.9873, renormalised to      84.0000
     Starting wfcs are   64 randomized atomic wfcs

     Self-consistent Calculation

     iteration #  1     ecut=    30.00 Ry     beta= 0.70
     Davidson diagonalization with overlap

     ethr =  1.00E-02,  avg # of iterations =  3.0

     total energy              =   -1243.86700711 Ry
     estimated scf accuracy    <      28.82472886 Ry

[...]

     total energy              =   -1263.19228390 Ry
     estimated scf accuracy    <       0.00000844 Ry

     iteration # 15     ecut=    30.00 Ry     beta= 0.70
     Davidson diagonalization with overlap

     ethr =  1.00E-08,  avg # of iterations =  3.0

     End of self-consistent calculation

          k = 0.0000 0.0000 0.0000 (  1083 PWs)   bands (ev):

   -92.4113 -92.4106 -52.7632 -52.7599 -52.7594 -52.7594 -52.7375 -52.7375
   -29.7844 -29.7680 -14.1922 -14.1915 -14.1759 -14.1759 -14.1696 -14.1696
   -14.1051 -14.1002 -14.0953 -14.0867 -11.0211 -10.9405 -10.8244 -10.8244
   -10.7680 -10.7680   0.2128   2.0009   6.3379   7.5081   7.9195   7.9195
     8.4968   8.5861   8.5861   8.9884   9.6462   9.6897   9.8527   9.8527
    10.1174  11.5946  12.0215  12.5430  12.8265  13.0782  13.0782  13.5229
    13.5229  14.0109

     occupation numbers
     1.0000   1.0000   1.0000   1.0000   1.0000   1.0000   1.0000   1.0000
     1.0000   1.0000   1.0000   1.0000   1.0000   1.0000   1.0000   1.0000
     1.0000   1.0000   1.0000   1.0000   1.0000   1.0000   1.0000   1.0000
     1.0000   1.0000   1.0000   1.0000   1.0000   1.0000   1.0000   1.0000
     1.0000   1.0000   1.0000   1.0000   1.0000   1.0000   1.0000   1.0000
     1.0000   1.0000  -0.0000  -0.0000  -0.0000  -0.0000  -0.0000  -0.0000
    -0.0000  -0.0000

     the Fermi energy is    11.8547 ev

!    total energy              =   -1263.19228424 Ry
     estimated scf accuracy    <       0.00000040 Ry
     smearing contrib. (-TS)   =       0.00000000 Ry
     internal energy E=F+TS    =   -1263.19228424 Ry

     The total energy is F=E-TS. E is the sum of the following terms:
     one-electron contribution =   -1061.96558198 Ry
     hartree contribution      =     579.35239394 Ry
     xc contribution           =    -211.69448484 Ry
     ewald contribution        =    -568.88461136 Ry

     convergence has been achieved in  15 iterations

     Forces acting on atoms (cartesian axes, Ry/au):

     atom    1 type  1   force =     0.00000000    0.00000000   -0.01114737
     atom    2 type  1   force =     0.00000000    0.00000000    0.01114737
     atom    3 type  2   force =     0.00000000    0.00000000    0.00000000
     atom    4 type  2   force =     0.00000000    0.00000000    0.00000000
     atom    5 type  3   force =     0.00000000    0.00000000    0.14263607
     atom    6 type  3   force =     0.00000000    0.00000000   -0.14263607
     The non-local contrib.  to forces
     atom    1 type  1   force =     0.00000000    0.00000000   -0.08736456
     atom    2 type  1   force =     0.00000000    0.00000000    0.08736456
     atom    3 type  2   force =     0.00000000    0.00000000   -0.00000000
     atom    4 type  2   force =     0.00000000    0.00000000    0.00000000
     atom    5 type  3   force =     0.00000000    0.00000000   -0.30485438
     atom    6 type  3   force =     0.00000000    0.00000000    0.30485438
     The ionic contribution  to forces
     atom    1 type  1   force =    -0.00000000    0.00000000   24.82813895
     atom    2 type  1   force =     0.00000000   -0.00000000  -24.82813895
     atom    3 type  2   force =    -0.00000000   -0.00000000   -0.00000000
     atom    4 type  2   force =     0.00000000    0.00000000   -0.00000000
     atom    5 type  3   force =    -0.00000000   -0.00000000  -43.40577338
     atom    6 type  3   force =     0.00000000   -0.00000000   43.40577338
     The local contribution  to forces
     atom    1 type  1   force =     0.00001566    0.00001089  -24.75881776
     atom    2 type  1   force =    -0.00001579   -0.00001539   24.75882178
     atom    3 type  2   force =     0.00002913   -0.00002267   -0.00011546
     atom    4 type  2   force =    -0.00003357    0.00001469   -0.00019497
     atom    5 type  3   force =     0.00001753    0.00001843   43.83937185
     atom    6 type  3   force =    -0.00002577   -0.00001130  -43.83927446
     The core correction contribution to forces
     atom    1 type  1   force =     0.00000024    0.00000036    0.00774771
     atom    2 type  1   force =     0.00000006   -0.00000027   -0.00775006
     atom    3 type  2   force =    -0.00000018   -0.00000009   -0.00000022
     atom    4 type  2   force =     0.00000012   -0.00000005    0.00000003
     atom    5 type  3   force =    -0.00000009    0.00000020    0.01237445
     atom    6 type  3   force =    -0.00000023   -0.00000031   -0.01237226
     The Hubbard contrib.    to forces
     atom    1 type  1   force =     0.00000000    0.00000000    0.00000000
     atom    2 type  1   force =     0.00000000    0.00000000    0.00000000
     atom    3 type  2   force =     0.00000000    0.00000000    0.00000000
     atom    4 type  2   force =     0.00000000    0.00000000    0.00000000
     atom    5 type  3   force =     0.00000000    0.00000000    0.00000000
     atom    6 type  3   force =     0.00000000    0.00000000    0.00000000
     The SCF correction term to forces
     atom    1 type  1   force =    -0.00001229   -0.00001143   -0.00085859
     atom    2 type  1   force =     0.00001128    0.00001423    0.00084316
     atom    3 type  2   force =    -0.00003534    0.00002782    0.00011892
     atom    4 type  2   force =     0.00005458   -0.00003022    0.00019313
     atom    5 type  3   force =    -0.00002571   -0.00002633    0.00145871
     atom    6 type  3   force =     0.00003068    0.00001335   -0.00167594

     Total force =     0.202333     Total SCF correction =     0.002539

     Computing stress (Cartesian axis) and pressure

          total   stress  (Ry/bohr**3)                   (kbar)     P=     -472.82
  -0.00286492   0.00000000   0.00000000         -421.44        0.00        0.00
   0.00000000  -0.00286492   0.00000000            0.00     -421.44        0.00
   0.00000000   0.00000000  -0.00391263            0.00        0.00     -575.57

     kinetic stress (kbar)  21077.63      0.00      0.00
                                0.00  21077.63      0.00
                                0.00      0.00  20808.86

     local   stress (kbar) -63107.12      0.00      0.00
                                0.00 -63107.12     -0.00
                                0.00     -0.00  65007.64

     nonloc. stress (kbar)   7753.16      0.00      0.00
                                0.00   7753.16      0.00
                                0.00      0.00   7585.03

     hartree stress (kbar)  56587.15     -0.00      0.00
                               -0.00  56587.15      0.00
                                0.00      0.00  -4950.53

     exc-cor stress (kbar)   3381.64     -0.00     -0.00
                               -0.00   3381.64     -0.00
                               -0.00     -0.00   3372.04

     corecor stress (kbar) -12787.23     -0.00      0.00
                               -0.00 -12787.23     -0.00
                                0.00     -0.00 -12783.57

     ewald   stress (kbar) -13326.67      0.00     -0.00
                                0.00 -13326.67     -0.00
                               -0.00     -0.00 -79615.03

     hubbard stress (kbar)      0.00      0.00      0.00
                                0.00      0.00      0.00
                                0.00      0.00      0.00

     DFT-D   stress (kbar)      0.00      0.00      0.00
                                0.00      0.00      0.00
                                0.00      0.00      0.00

     XDM     stress (kbar)      0.00      0.00      0.00
                                0.00      0.00      0.00
                                0.00      0.00      0.00

     dft-nl  stress (kbar)      0.00      0.00      0.00
                                0.00      0.00      0.00
                                0.00      0.00      0.00

     TS-vdW  stress (kbar)      0.00      0.00      0.00
                                0.00      0.00      0.00
                                0.00      0.00      0.00

[...]

                                0.00      0.00      0.00

     Writing all to output data dir new_calculations/myprefix.save/

     General routines

     Parallel routines

   This run was terminated on:   3:28:27  21May2023

   JOB DONE.