     Program PWSCF v.7.0 starts on 20May2023 at 10:17:43

     Reading input from espresso_8375.pwi
Warning: card &CELL ignored
Warning: card / ignored

     Current dimensions of program PWSCF are:
     Max number of different atomic species (ntypx) = 10
     Max number of k-points (npk) =  40000
     Max angular momentum in pseudopotentials (lmaxx) =  4
     file O.pbe-n-kjpaw_psl.0.1.UPF: wavefunction(s)  2P renormalized

     gamma-point specific algorithms are used

     Subspace diagonalization in iterative solution of the eigenvalue problem:
     a serial algorithm will be used

     Using Slab Decomposition

     bravais-lattice index     =            0
     lattice parameter (alat)  =      13.5417  a.u.
     unit-cell volume          =     854.1920 (a.u.)^3
     number of atoms/cell      =           11
     number of atomic types    =            5
     number of electrons       =       104.00
     number of Kohn-Sham states=           62
     kinetic-energy cutoff     =      30.0000  Ry
     charge density cutoff     =     240.0000  Ry
     scf convergence threshold =      1.0E-06
     mixing beta               =       0.7000
     number of iterations used =            8  plain     mixing
     Exchange-correlation= SLA  PW   PBX  PBC
                           (   1   4   3   4   0   0   0)

     celldm(1)=  13.541685  celldm(2)=   0.000000  celldm(3)=   0.000000
     celldm(4)=   0.000000  celldm(5)=   0.000000  celldm(6)=   0.000000

     crystal axes: (cart. coord. in units of alat)
               a(1) = (   1.000000   0.000000   0.000000 )
               a(2) = (   0.916918   0.399076   0.000000 )
               a(3) = (   0.332871   0.069299   0.861950 )

     reciprocal axes: (cart. coord. in units 2 pi/alat)
               b(1) = (  1.000000 -2.297603 -0.201461 )
               b(2) = (  0.000000  2.505789 -0.201461 )
               b(3) = (  0.000000  0.000000  1.160161 )

     PseudoPot. # 1 for Na read from file:
     /home/pragov/projects/rrg-bengioy-ad/pragov/crystal_structure_design/SSSP/na_pbe_v1.5.uspp.F.UPF
     MD5 check sum: 44600605ef58000f06b90626533354dc
     Pseudo is Ultrasoft, Zval =  9.0
     Generated by new atomic code, or converted to UPF format
     Using radial grid of  819 points,  5 beta functions with:
                l(1) =   0
                l(2) =   0
                l(3) =   1
                l(4) =   1
                l(5) =   2
     Q(r) pseudized with  8 coefficients,  rinner =    1.250   1.250   1.250
                                                       1.250   1.250

     PseudoPot. # 2 for Mn read from file:
     /home/pragov/projects/rrg-bengioy-ad/pragov/crystal_structure_design/SSSP/mn_pbe_v1.5.uspp.F.UPF
     MD5 check sum: 82ef2b46521d7a7d9e736dc3972e4928
     Pseudo is Ultrasoft + core correction, Zval = 15.0
     Generated by new atomic code, or converted to UPF format
     Using radial grid of  859 points,  6 beta functions with:
                l(1) =   0
                l(2) =   0
                l(3) =   1
                l(4) =   1
                l(5) =   2
                l(6) =   2
     Q(r) pseudized with  8 coefficients,  rinner =    0.950   0.950   0.950
                                                       0.950   0.950

     PseudoPot. # 3 for Co read from file:
     /home/pragov/projects/rrg-bengioy-ad/pragov/crystal_structure_design/SSSP/Co_pbe_v1.2.uspp.F.UPF
     MD5 check sum: 5f91765df6ddd3222702df6e7b74a16d
     Pseudo is Ultrasoft + core correction, Zval = 17.0
     Generated by new atomic code, or converted to UPF format
     Using radial grid of  863 points,  6 beta functions with:
                l(1) =   0
                l(2) =   0
                l(3) =   1
                l(4) =   1
                l(5) =   2
                l(6) =   2
     Q(r) pseudized with  8 coefficients,  rinner =    1.200   1.200   1.200
                                                       1.200   1.200

     PseudoPot. # 4 for Ni read from file:
     /home/pragov/projects/rrg-bengioy-ad/pragov/crystal_structure_design/SSSP/ni_pbe_v1.4.uspp.F.UPF
     MD5 check sum: 1ee80287db30b12d2bc1f57a5b5d6409
     Pseudo is Ultrasoft + core correction, Zval = 18.0
     Generated by new atomic code, or converted to UPF format
     Using radial grid of  865 points,  6 beta functions with:
                l(1) =   0
                l(2) =   0
                l(3) =   1
                l(4) =   1
                l(5) =   2
                l(6) =   2
     Q(r) pseudized with 10 coefficients,  rinner =    0.980   0.980   0.980
                                                       0.980   0.980

     PseudoPot. # 5 for O  read from file:
     /home/pragov/projects/rrg-bengioy-ad/pragov/crystal_structure_design/SSSP/O.pbe-n-kjpaw_psl.0.1.UPF
     MD5 check sum: 0234752ac141de4415c5fc33072bef88
     Pseudo is Projector augmented-wave + core cor, Zval =  6.0
     Generated using "atomic" code by A. Dal Corso  v.5.0.99 svn rev. 10869
     Shape of augmentation charge: BESSEL
     Using radial grid of 1095 points,  4 beta functions with:
                l(1) =   0
                l(2) =   0
                l(3) =   1
                l(4) =   1
     Q(r) pseudized with 0 coefficients

     atomic species   valence    mass     pseudopotential
        Na             9.00    22.98977     Na( 1.00)
        Mn            15.00    54.93804     Mn( 1.00)
        Co            17.00    58.93319     Co( 1.00)
        Ni            18.00    58.69340     Ni( 1.00)
        O              6.00    15.99900     O ( 1.00)

     No symmetry found

                                    s                        frac. trans.

      isym =  1     identity

 cryst.   s( 1) = (     1          0          0      )
                  (     0          1          0      )
                  (     0          0          1      )

 cart.    s( 1) = (  1.0000000  0.0000000  0.0000000 )
                  (  0.0000000  1.0000000  0.0000000 )
                  (  0.0000000  0.0000000  1.0000000 )

   Cartesian axes

     site n.     atom                  positions (alat units)
         1           Na  tau(   1) = (   1.0686852   0.2224855   0.5272287  )
         2           Na  tau(   2) = (   0.4226446   0.0879888   0.0522798  )
         3           Mn  tau(   3) = (   0.7509752   0.1563427   0.2899116  )
         4           Co  tau(   4) = (   1.4877360   0.3097261   0.5692048  )
         5           Ni  tau(   5) = (   1.9165892   0.3990074   0.0048769  )
         6           O   tau(   6) = (   0.7790857   0.1621949   0.0195137  )
         7           O   tau(   7) = (   0.3531715   0.0735254   0.5724207  )
         8           O   tau(   8) = (   1.5306158   0.3186531   0.2769944  )
         9           O   tau(   9) = (   0.7211865   0.1501411   0.5576668  )
        10           O   tau(  10) = (   1.8830231   0.3920194   0.2997861  )
        11           O   tau(  11) = (   1.4674123   0.3054950   0.8525492  )

   Crystallographic axes

     site n.     atom                  positions (cryst. coord.)
         1           Na  tau(   1) = (  0.4512860  0.4512860  0.6116700  )
         2           Na  tau(   2) = (  0.2099490  0.2099490  0.0606530  )
         3           Mn  tau(   3) = (  0.3333560  0.3333560  0.3363440  )
         4           Co  tau(   4) = (  0.6614360  0.6614360  0.6603690  )
         5           Ni  tau(   5) = (  0.9988460  0.9988460  0.0056580  )
         6           O   tau(   6) = (  0.4024950  0.4024950  0.0226390  )
         7           O   tau(   7) = (  0.0689190  0.0689190  0.6641000  )
         8           O   tau(   8) = (  0.7426740  0.7426740  0.3213580  )
         9           O   tau(   9) = (  0.2638740  0.2638740  0.6469830  )
        10           O   tau(  10) = (  0.9219230  0.9219230  0.3478000  )
        11           O   tau(  11) = (  0.5937510  0.5937510  0.9890940  )

     number of k points=     1  Methfessel-Paxton smearing, width (Ry)=  0.0010
                       cart. coord. in units 2pi/alat
        k(    1) = (   0.0000000   0.0000000   0.0000000), wk =   2.0000000

                       cryst. coord.
        k(    1) = (   0.0000000   0.0000000   0.0000000), wk =   2.0000000

     Check: negative core charge=   -0.000022

     Initial potential from superposition of free atoms

     starting charge     100.4873, renormalised to     104.0000
     Starting wfcs are   73 randomized atomic wfcs
     Checking if some PAW data can be deallocated...

     Self-consistent Calculation

     iteration #  1     ecut=    30.00 Ry     beta= 0.70
     Davidson diagonalization with overlap

     ethr =  1.00E-02,  avg # of iterations =  5.0

     total energy              =   -1266.60700050 Ry
     estimated scf accuracy    <      35.69585092 Ry

[...]

     total energy              =   -1292.88996764 Ry
     estimated scf accuracy    <       0.00000723 Ry

     iteration # 50     ecut=    30.00 Ry     beta= 0.70
     Davidson diagonalization with overlap

     ethr =  6.26E-09,  avg # of iterations =  1.0

     End of self-consistent calculation

          k = 0.0000 0.0000 0.0000 (  1182 PWs)   bands (ev):

   -96.4676 -87.5615 -71.6440 -57.1248 -56.6882 -56.4998 -51.0035 -50.8319
   -50.5202 -43.1718 -43.1136 -40.7328 -40.3140 -39.9939 -15.1326 -15.1020
   -15.0661 -15.0378 -15.0197 -14.9563 -11.4799 -10.6332 -10.5492 -10.1227
   -10.0018  -9.7537   1.6929   1.9097   2.3320   2.5692   2.8173   2.9292
     3.1978   3.3771   3.5217   3.5968   3.7928   4.7594   4.9834   5.2840
     5.4310   5.7151   5.9562   5.9930   6.1024   6.1865   6.6517   6.7862
     6.9327   7.3573   7.9336   7.9627   7.9769   8.3117   8.8985   9.0258
     9.6111  10.5483  11.1979  11.3455  14.0440  14.9259

     occupation numbers
     1.0000   1.0000   1.0000   1.0000   1.0000   1.0000   1.0000   1.0000
     1.0000   1.0000   1.0000   1.0000   1.0000   1.0000   1.0000   1.0000
     1.0000   1.0000   1.0000   1.0000   1.0000   1.0000   1.0000   1.0000
     1.0000   1.0000   1.0000   1.0000   1.0000   1.0000   1.0000   1.0000
     1.0000   1.0000   1.0000   1.0000   1.0000   1.0000   1.0000   1.0000
     1.0000   1.0000   1.0000   1.0000   1.0000   1.0000   1.0000   1.0000
     1.0000   1.0000   1.0005   0.8815   0.1180  -0.0000  -0.0000  -0.0000
    -0.0000  -0.0000  -0.0000  -0.0000  -0.0000  -0.0000

     the Fermi energy is     7.9698 ev

!    total energy              =   -1292.88996717 Ry
     estimated scf accuracy    <       0.00000088 Ry
     smearing contrib. (-TS)   =      -0.00019280 Ry
     internal energy E=F+TS    =   -1292.88977438 Ry

     The total energy is F=E-TS. E is the sum of the following terms:
     one-electron contribution =    -978.27681375 Ry
     hartree contribution      =     533.78330959 Ry
     xc contribution           =    -167.56987511 Ry
     ewald contribution        =    -623.70707061 Ry
     one-center paw contrib.   =     -57.11932450 Ry
      -> PAW hartree energy AE =     172.81417250 Ry
      -> PAW hartree energy PS =    -172.18310100 Ry
      -> PAW xc energy AE      =    -102.24421164 Ry
      -> PAW xc energy PS      =      44.49381563 Ry
      -> total E_H with PAW    =     534.41438109 Ry
      -> total E_XC with PAW   =    -225.32027111 Ry

     convergence has been achieved in  50 iterations

     Forces acting on atoms (cartesian axes, Ry/au):

     atom    1 type  1   force =    -0.00321300   -0.00068169   -0.00133380
     atom    2 type  1   force =     0.00246262    0.00050270    0.00109915
     atom    3 type  2   force =    -0.03188909   -0.00656471    0.00848038
     atom    4 type  3   force =     0.03446184    0.00717304   -0.04430121
     atom    5 type  4   force =    -0.02331097   -0.00474915   -0.00760146
     atom    6 type  5   force =     0.02053245    0.00431348    0.01775404
     atom    7 type  5   force =     0.06086609    0.01263055    0.03379236
     atom    8 type  5   force =     0.07357981    0.01532612    0.03259884
     atom    9 type  5   force =    -0.07248266   -0.01515839    0.00492410
     atom   10 type  5   force =    -0.05813450   -0.01214896   -0.00959023
     atom   11 type  5   force =    -0.00287260   -0.00064300   -0.03582217
     The non-local contrib.  to forces
     atom    1 type  1   force =    -0.06427360   -0.01338708    0.09425818
     atom    2 type  1   force =     0.07927770    0.01650161   -0.06442841
     atom    3 type  2   force =     0.06240555    0.01300137    0.01270367
     atom    4 type  3   force =    -0.08409220   -0.01749636    0.00894381
     atom    5 type  4   force =    -0.04081168   -0.00832573   -0.00789057
     atom    6 type  5   force =     0.44595910    0.09282998    0.33077019
     atom    7 type  5   force =     0.46713494    0.09697732    0.49770856
     atom    8 type  5   force =     0.28143842    0.05860002    0.40244204
     atom    9 type  5   force =    -0.48948289   -0.10193137   -0.41956789
     atom   10 type  5   force =    -0.44485309   -0.09263891   -0.25846815
     atom   11 type  5   force =    -0.37666305   -0.07862878   -0.53985949
     The ionic contribution  to forces
     atom    1 type  1   force =    -2.84586766   -0.59247040   -1.72122364
     atom    2 type  1   force =     2.49080088    0.51855039    1.71736192
     atom    3 type  2   force =    -1.12887649   -0.23501652    1.49543747
     atom    4 type  3   force =     1.84053129    0.38317323   -7.05456829
     atom    5 type  4   force =     0.11247760    0.02341629    5.00563390
     atom    6 type  5   force =   -17.18481681   -3.57764184  -10.35302862
     atom    7 type  5   force =   -14.54655402   -3.02839191  -12.92049165
     atom    8 type  5   force =   -15.38757132   -3.20348011   -9.79398303
     atom    9 type  5   force =    14.86044164    3.09373899   11.38857178
     atom   10 type  5   force =    15.64186757    3.25642109   10.24644658
     atom   11 type  5   force =    16.14756732    3.36170080   11.98984359
     The local contribution  to forces
     atom    1 type  1   force =     2.90676434    0.60516698    1.62568339
     atom    2 type  1   force =    -2.56714467   -0.53443537   -1.65142534
     atom    3 type  2   force =     1.03665804    0.21598312   -1.49879286
     atom    4 type  3   force =    -1.72404523   -0.35887253    7.00151615
     atom    5 type  4   force =    -0.09529449   -0.02009181   -5.00578441
     atom    6 type  5   force =    16.76295963    3.48986771   10.04324567
     atom    7 type  5   force =    14.14538251    2.94519665   12.46181784
     atom    8 type  5   force =    15.18172177    3.16073964    9.42870446
     atom    9 type  5   force =   -14.44870390   -3.00810299  -10.96823495
     atom   10 type  5   force =   -15.25961514   -3.17699242  -10.00013931
     atom   11 type  5   force =   -15.77692320   -3.28428944  -11.49193049
     The core correction contribution to forces
     atom    1 type  1   force =     0.00000000    0.00000000    0.00000000
     atom    2 type  1   force =     0.00000000    0.00000000    0.00000000
     atom    3 type  2   force =    -0.00378181   -0.00078503   -0.00120525
     atom    4 type  3   force =     0.00263310    0.00054665   -0.00127422
     atom    5 type  4   force =     0.00001154   -0.00000108    0.00064037
     atom    6 type  5   force =    -0.00434065   -0.00090318   -0.00258460
     atom    7 type  5   force =    -0.00479018   -0.00099320   -0.00570186
     atom    8 type  5   force =    -0.00157942   -0.00032898   -0.00459541
     atom    9 type  5   force =     0.00506380    0.00105436    0.00363646
     atom   10 type  5   force =     0.00363843    0.00075782    0.00285846
     atom   11 type  5   force =     0.00369543    0.00077236    0.00606339
     The Hubbard contrib.    to forces
     atom    1 type  1   force =     0.00000000    0.00000000    0.00000000
     atom    2 type  1   force =     0.00000000    0.00000000    0.00000000
     atom    3 type  2   force =     0.00000000    0.00000000    0.00000000
     atom    4 type  3   force =     0.00000000    0.00000000    0.00000000
     atom    5 type  4   force =     0.00000000    0.00000000    0.00000000
     atom    6 type  5   force =     0.00000000    0.00000000    0.00000000
     atom    7 type  5   force =     0.00000000    0.00000000    0.00000000
     atom    8 type  5   force =     0.00000000    0.00000000    0.00000000
     atom    9 type  5   force =     0.00000000    0.00000000    0.00000000
     atom   10 type  5   force =     0.00000000    0.00000000    0.00000000
     atom   11 type  5   force =     0.00000000    0.00000000    0.00000000
     The SCF correction term to forces
     atom    1 type  1   force =     0.00016368    0.00001497   -0.00003172
     atom    2 type  1   force =    -0.00047154   -0.00010777   -0.00038901
     atom    3 type  2   force =     0.00170538    0.00025851    0.00035736
     atom    4 type  3   force =    -0.00056536   -0.00017179    0.00110135
     atom    5 type  4   force =     0.00030581    0.00025935   -0.00018074
     atom    6 type  5   force =     0.00077095    0.00016696   -0.00062859
     atom    7 type  5   force =    -0.00030740   -0.00015214    0.00047949
     atom    8 type  5   force =    -0.00042988   -0.00019829    0.00005079
     atom    9 type  5   force =     0.00019845    0.00008879    0.00053871
     atom   10 type  5   force =     0.00082749    0.00030962   -0.00026779
     atom   11 type  5   force =    -0.00054935   -0.00019179    0.00008085

     Total force =     0.166941     Total SCF correction =     0.002898

     Computing stress (Cartesian axis) and pressure

          total   stress  (Ry/bohr**3)                   (kbar)     P=     -704.89
  -0.00509375  -0.00021008   0.00002558         -749.32      -30.90        3.76
  -0.00021008  -0.00413237   0.00000471          -30.90     -607.89        0.69
   0.00002558   0.00000471  -0.00514904            3.76        0.69     -757.45

     kinetic stress (kbar)  31107.90     66.76    149.16
                               66.76  30801.75     31.08
                              149.16     31.08  30565.15

     local   stress (kbar)  15920.96  14826.34  47894.27
                            14826.34 -52211.80   9970.67
                            47894.27   9970.67  -3186.37

     nonloc. stress (kbar)  -4118.99      7.33     -4.86
                                7.33  -4152.08     -0.88
                               -4.86     -0.88  -4151.28

     hartree stress (kbar)  17031.15  -6809.06 -22162.32
                            -6809.06  48321.06  -4613.88
                           -22162.32  -4613.88  26573.54

     exc-cor stress (kbar)  -7313.53      0.15     -2.61
                                0.15  -7314.22     -0.54
                               -2.61     -0.54  -7322.98

     corecor stress (kbar)  -1752.10     -0.02     -0.26
                               -0.02  -1752.02     -0.06
                               -0.26     -0.06  -1748.80

     ewald   stress (kbar) -51624.70  -8122.40 -25869.62
                            -8122.40 -14300.58  -5385.70
                           -25869.62  -5385.70 -41486.72

     hubbard stress (kbar)      0.00      0.00      0.00
                                0.00      0.00      0.00
                                0.00      0.00      0.00

     DFT-D   stress (kbar)      0.00      0.00      0.00
                                0.00      0.00      0.00
                                0.00      0.00      0.00

     XDM     stress (kbar)      0.00      0.00      0.00
                                0.00      0.00      0.00
                                0.00      0.00      0.00

     dft-nl  stress (kbar)      0.00      0.00      0.00
                                0.00      0.00      0.00
                                0.00      0.00      0.00

     TS-vdW  stress (kbar)      0.00      0.00      0.00
                                0.00      0.00      0.00
                                0.00      0.00      0.00

[...]

                                0.00      0.00      0.00

     Writing all to output data dir new_calculations/myprefix.save/

     General routines

     Parallel routines

     PAW routines

   This run was terminated on:  10:18:21  20May2023

   JOB DONE.