     Program PWSCF v.7.0 starts on 20May2023 at  0:46:26

     Reading input from espresso_5004.pwi
Warning: card &CELL ignored
Warning: card / ignored

     Current dimensions of program PWSCF are:
     Max number of different atomic species (ntypx) = 10
     Max number of k-points (npk) =  40000
     Max angular momentum in pseudopotentials (lmaxx) =  4

     gamma-point specific algorithms are used
     Message from routine setup:
     using ibrav=0 with symmetry is DISCOURAGED, use correct ibrav instead

     Subspace diagonalization in iterative solution of the eigenvalue problem:
     a serial algorithm will be used

     Using Slab Decomposition

     bravais-lattice index     =            0
     lattice parameter (alat)  =      17.7434  a.u.
     unit-cell volume          =     969.9846 (a.u.)^3
     number of atoms/cell      =            5
     number of atomic types    =            3
     number of electrons       =        48.00
     number of Kohn-Sham states=           29
     kinetic-energy cutoff     =      30.0000  Ry
     charge density cutoff     =     240.0000  Ry
     scf convergence threshold =      1.0E-06
     mixing beta               =       0.7000
     number of iterations used =            8  plain     mixing
     Exchange-correlation= PBE
                           (   1   4   3   4   0   0   0)

     celldm(1)=  17.743394  celldm(2)=   0.000000  celldm(3)=   0.000000
     celldm(4)=   0.000000  celldm(5)=   0.000000  celldm(6)=   0.000000

     crystal axes: (cart. coord. in units of alat)
               a(1) = (   1.000000   0.000000   0.000000 )
               a(2) = (   0.896084   0.443885   0.000000 )
               a(3) = (   0.896084   0.209779   0.391187 )

     reciprocal axes: (cart. coord. in units 2 pi/alat)
               b(1) = (  1.000000 -2.018728 -1.208112 )
               b(2) = (  0.000000  2.252834 -1.208112 )
               b(3) = (  0.000000  0.000000  2.556325 )

     PseudoPot. # 1 for Sr read from file:
     /home/pragov/projects/rrg-bengioy-ad/pragov/crystal_structure_design/SSSP/Sr_pbe_v1.uspp.F.UPF
     MD5 check sum: 6b418c05fbe9db5448babca5e47b7a5b
     Pseudo is Ultrasoft + core correction, Zval = 10.0
     Generated by new atomic code, or converted to UPF format
     Using radial grid of  883 points,  6 beta functions with:
                l(1) =   0
                l(2) =   0
                l(3) =   1
                l(4) =   1
                l(5) =   2
                l(6) =   2
     Q(r) pseudized with  6 coefficients,  rinner =    1.400   1.400   1.400
                                                       1.400   1.400

     PseudoPot. # 2 for Sn read from file:
     /home/pragov/projects/rrg-bengioy-ad/pragov/crystal_structure_design/SSSP/Sn_pbe_v1.uspp.F.UPF
     MD5 check sum: 4cf58ce39ec5d5d420df3dd08604eb00
     Pseudo is Ultrasoft + core correction, Zval = 14.0
     Generated by new atomic code, or converted to UPF format
     Using radial grid of  891 points,  6 beta functions with:
                l(1) =   0
                l(2) =   0
                l(3) =   1
                l(4) =   1
                l(5) =   2
                l(6) =   2
     Q(r) pseudized with  6 coefficients,  rinner =    1.200   1.200   1.200
                                                       1.200   1.200

     PseudoPot. # 3 for As read from file:
     /home/pragov/projects/rrg-bengioy-ad/pragov/crystal_structure_design/SSSP/As.pbe-n-rrkjus_psl.0.2.UPF
     MD5 check sum: 767315de957beeeb34f87d97bf945c8f
     Pseudo is Ultrasoft + core correction, Zval =  5.0
     Generated using "atomic" code by A. Dal Corso  v.5.0.99 svn rev. 10869
     Using radial grid of 1209 points,  4 beta functions with:
                l(1) =   0
                l(2) =   0
                l(3) =   1
                l(4) =   1
     Q(r) pseudized with 0 coefficients

     atomic species   valence    mass     pseudopotential
        Sr            10.00    87.62000     Sr( 1.00)
        Sn            14.00   118.71000     Sn( 1.00)
        As             5.00    74.92159     As( 1.00)

      2 Sym. Ops., with inversion, found

                                    s                        frac. trans.

      isym =  1     identity

 cryst.   s( 1) = (     1          0          0      )
                  (     0          1          0      )
                  (     0          0          1      )

 cart.    s( 1) = (  1.0000000 -0.0000000  0.0000000 )
                  (  0.0000000  1.0000000  0.0000000 )
                  (  0.0000000  0.0000000  1.0000000 )

      isym =  2     inversion

 cryst.   s( 2) = (    -1          0          0      )
                  (     0         -1          0      )
                  (     0          0         -1      )

 cart.    s( 2) = ( -1.0000000  0.0000000 -0.0000000 )
                  (  0.0000000 -1.0000000 -0.0000000 )
                  (  0.0000000  0.0000000 -1.0000000 )

   Cartesian axes

     site n.     atom                  positions (alat units)
         1           Sr  tau(   1) = (   0.0000000   0.0000000   0.0000000  )
         2           Sn  tau(   2) = (   0.5860228   0.1371917   0.0821026  )
         3           Sn  tau(   3) = (   2.2061443   0.5164726   0.3090839  )
         4           As  tau(   4) = (   1.6580503   0.3881602   0.2322952  )
         5           As  tau(   5) = (   1.1341169   0.2655040   0.1588914  )

   Crystallographic axes

     site n.     atom                  positions (cryst. coord.)
         1           Sr  tau(   1) = (  0.0000000  0.0000000  0.0000000  )
         2           Sn  tau(   2) = (  0.2098810  0.2098810  0.2098810  )
         3           Sn  tau(   3) = (  0.7901190  0.7901190  0.7901190  )
         4           As  tau(   4) = (  0.5938220  0.5938220  0.5938220  )
         5           As  tau(   5) = (  0.4061780  0.4061780  0.4061780  )

     number of k points=     1  Methfessel-Paxton smearing, width (Ry)=  0.0010
                       cart. coord. in units 2pi/alat
        k(    1) = (   0.0000000   0.0000000   0.0000000), wk =   2.0000000

                       cryst. coord.
        k(    1) = (   0.0000000   0.0000000   0.0000000), wk =   2.0000000

     Check: negative core charge=   -0.000001

     Initial potential from superposition of free atoms

     starting charge      45.9658, renormalised to      48.0000

     negative rho (up, down):  6.629E-02 0.000E+00
     Starting wfcs are   39 randomized atomic wfcs

     Self-consistent Calculation

     iteration #  1     ecut=    30.00 Ry     beta= 0.70
     Davidson diagonalization with overlap

     ethr =  1.00E-02,  avg # of iterations =  2.0

     negative rho (up, down):  6.356E-02 0.000E+00

     total energy              =    -431.22862689 Ry
     estimated scf accuracy    <       1.99150408 Ry

[...]

     total energy              =    -432.11608978 Ry
     estimated scf accuracy    <       0.00000478 Ry

     iteration # 15     ecut=    30.00 Ry     beta= 0.70
     Davidson diagonalization with overlap

     ethr =  9.95E-09,  avg # of iterations =  1.0

[...]

     End of self-consistent calculation

          k = 0.0000 0.0000 0.0000 (  1323 PWs)   bands (ev):

   -27.0701 -13.6708 -13.6708 -13.6569 -13.6569 -13.6068 -13.6024 -13.6023
   -13.5661 -13.5502 -13.5502  -9.3008  -8.9803  -8.9803  -3.3504  -2.5371
     0.3115   3.6519   6.2066   7.1590   7.1590   7.5671   7.5671   8.7523
     8.8816   9.2051   9.2051  10.6010  11.2631

     occupation numbers
     1.0000   1.0000   1.0000   1.0000   1.0000   1.0000   1.0000   1.0000
     1.0000   1.0000   1.0000   1.0000   1.0000   1.0000   1.0000   1.0000
     1.0000   1.0000   1.0000   1.0000   1.0000   1.0000   1.0000   1.0000
    -0.0000  -0.0000  -0.0000  -0.0000  -0.0000

     the Fermi energy is     8.8170 ev

!    total energy              =    -432.11608958 Ry
     estimated scf accuracy    <       0.00000045 Ry
     smearing contrib. (-TS)   =       0.00000000 Ry
     internal energy E=F+TS    =    -432.11608958 Ry

     The total energy is F=E-TS. E is the sum of the following terms:
     one-electron contribution =    -165.71914043 Ry
     hartree contribution      =     109.55022213 Ry
     xc contribution           =    -132.07225058 Ry
     ewald contribution        =    -243.87492071 Ry

     convergence has been achieved in  15 iterations

     negative rho (up, down):  6.627E-02 0.000E+00

     Forces acting on atoms (cartesian axes, Ry/au):

     atom    1 type  1   force =     0.00000000    0.00000000    0.00000000
     atom    2 type  2   force =     0.15175205    0.03551622    0.02127523
     atom    3 type  2   force =    -0.15175205   -0.03551622   -0.02127523
     atom    4 type  3   force =     0.00300535    0.00070309    0.00042250
     atom    5 type  3   force =    -0.00300535   -0.00070309   -0.00042250
     The non-local contrib.  to forces
     atom    1 type  1   force =     0.00000000    0.00000000    0.00000000
     atom    2 type  2   force =    -0.72033868   -0.16864924   -0.10090237
     atom    3 type  2   force =     0.72033868    0.16864924    0.10090237
     atom    4 type  3   force =    -0.00746798   -0.00175197   -0.00103765
     atom    5 type  3   force =     0.00746798    0.00175197    0.00103765
     The ionic contribution  to forces
     atom    1 type  1   force =    -0.00000000   -0.00000000   -0.00000000
     atom    2 type  2   force =     6.03924282    1.41382556    0.84610738
     atom    3 type  2   force =    -6.03924282   -1.41382556   -0.84610738
     atom    4 type  3   force =     3.99542306    0.93535422    0.55976435
     atom    5 type  3   force =    -3.99542306   -0.93535422   -0.55976435
     The local contribution  to forces
     atom    1 type  1   force =    -0.00117398   -0.00027649   -0.00016723
     atom    2 type  2   force =    -5.18652967   -1.21419053   -0.72664498
     atom    3 type  2   force =     5.19155017    1.21535352    0.72738163
     atom    4 type  3   force =    -3.98272348   -0.93237487   -0.55800087
     atom    5 type  3   force =     3.98088398    0.93194485    0.55773946
     The core correction contribution to forces
     atom    1 type  1   force =    -0.00000416   -0.00000099   -0.00000070
     atom    2 type  2   force =     0.02176983    0.00509692    0.00304936
     atom    3 type  2   force =    -0.02168294   -0.00507685   -0.00303633
     atom    4 type  3   force =    -0.00305674   -0.00071488   -0.00043035
     atom    5 type  3   force =     0.00286589    0.00066989    0.00040351
     The Hubbard contrib.    to forces
     atom    1 type  1   force =     0.00000000    0.00000000    0.00000000
     atom    2 type  2   force =     0.00000000    0.00000000    0.00000000
     atom    3 type  2   force =     0.00000000    0.00000000    0.00000000
     atom    4 type  3   force =     0.00000000    0.00000000    0.00000000
     atom    5 type  3   force =     0.00000000    0.00000000    0.00000000
     The SCF correction term to forces
     atom    1 type  1   force =     0.00113538    0.00026923    0.00015496
     atom    2 type  2   force =    -0.00184358   -0.00043586   -0.00025288
     atom    3 type  2   force =    -0.00216647   -0.00048594   -0.00033423
     atom    4 type  3   force =     0.00013119    0.00002539    0.00002878
     atom    5 type  3   force =     0.00050056    0.00011922    0.00006299

     Total force =     0.222497     Total SCF correction =     0.003220

     Computing stress (Cartesian axis) and pressure

     negative rho (up, down):  6.627E-02 0.000E+00
          total   stress  (Ry/bohr**3)                   (kbar)     P=      213.24
   0.00030341  -0.00041804  -0.00025018           44.63      -61.50      -36.80
  -0.00041804   0.00199123  -0.00005857          -61.50      292.92       -8.62
  -0.00025018  -0.00005857   0.00205402          -36.80       -8.62      302.16

     kinetic stress (kbar)   7219.64    -93.30    -55.83
                              -93.30   7596.34    -13.07
                              -55.83    -13.07   7610.36

     local   stress (kbar)   1334.84   1090.34    652.51
                             1090.34  -3067.36    152.76
                              652.51    152.76  -3231.19

     nonloc. stress (kbar)   4914.67     20.52     12.28
                               20.52   4831.84      2.87
                               12.28      2.87   4828.75

     hartree stress (kbar)   4128.99   -513.92   -307.56
                             -513.92   6203.93    -72.00
                             -307.56    -72.00   6281.15

     exc-cor stress (kbar)   8422.26     -0.48     -0.29
                               -0.48   8424.18     -0.07
                               -0.29     -0.07   8424.25

     corecor stress (kbar) -12090.59      3.14      1.88
                                3.14 -12103.25      0.44
                                1.88      0.44 -12103.72

     ewald   stress (kbar) -13885.17   -567.79   -339.79
                             -567.79 -11592.76    -79.55
                             -339.79    -79.55 -11507.44

     hubbard stress (kbar)      0.00      0.00      0.00
                                0.00      0.00      0.00
                                0.00      0.00      0.00

     DFT-D   stress (kbar)      0.00      0.00      0.00
                                0.00      0.00      0.00
                                0.00      0.00      0.00

     XDM     stress (kbar)      0.00      0.00      0.00
                                0.00      0.00      0.00
                                0.00      0.00      0.00

     dft-nl  stress (kbar)      0.00      0.00      0.00
                                0.00      0.00      0.00
                                0.00      0.00      0.00

     TS-vdW  stress (kbar)      0.00      0.00      0.00
                                0.00      0.00      0.00
                                0.00      0.00      0.00

[...]

                                0.00      0.00      0.00

     Writing all to output data dir new_calculations/myprefix.save/

     General routines

     Parallel routines

   This run was terminated on:   0:46:42  20May2023

   JOB DONE.