     Program PWSCF v.7.0 starts on 21May2023 at 17:52:51

     Reading input from espresso_23823.pwi
Warning: card &CELL ignored
Warning: card / ignored

     Current dimensions of program PWSCF are:
     Max number of different atomic species (ntypx) = 10
     Max number of k-points (npk) =  40000
     Max angular momentum in pseudopotentials (lmaxx) =  4
     file O.pbe-n-kjpaw_psl.0.1.UPF: wavefunction(s)  2P renormalized

     gamma-point specific algorithms are used
     Message from routine setup:
     using ibrav=0 with symmetry is DISCOURAGED, use correct ibrav instead

     Subspace diagonalization in iterative solution of the eigenvalue problem:
     a serial algorithm will be used

     Using Slab Decomposition

     bravais-lattice index     =            0
     lattice parameter (alat)  =      12.4070  a.u.
     unit-cell volume          =    1112.3353 (a.u.)^3
     number of atoms/cell      =           10
     number of atomic types    =            3
     number of electrons       =        84.00
     number of Kohn-Sham states=           50
     kinetic-energy cutoff     =      30.0000  Ry
     charge density cutoff     =     240.0000  Ry
     scf convergence threshold =      1.0E-06
     mixing beta               =       0.7000
     number of iterations used =            8  plain     mixing
     Exchange-correlation= SLA  PW   PBX  PBC
                           (   1   4   3   4   0   0   0)

     celldm(1)=  12.406952  celldm(2)=   0.000000  celldm(3)=   0.000000
     celldm(4)=   0.000000  celldm(5)=   0.000000  celldm(6)=   0.000000

     crystal axes: (cart. coord. in units of alat)
               a(1) = (   1.000000   0.000000   0.000000 )
               a(2) = (   0.000000   0.613899   0.000000 )
               a(3) = (   0.000000   0.098211   0.948732 )

     reciprocal axes: (cart. coord. in units 2 pi/alat)
               b(1) = (  1.000000  0.000000  0.000000 )
               b(2) = (  0.000000  1.628932 -0.168624 )
               b(3) = (  0.000000  0.000000  1.054039 )

     PseudoPot. # 1 for Pd read from file:
     /home/pragov/projects/rrg-bengioy-ad/pragov/crystal_structure_design/SSSP/Pd_ONCV_PBE-1.0.oncvpsp.upf
     MD5 check sum: eb77f42b51d86fb18e25f68156a31cf1
     Pseudo is Norm-conserving, Zval = 18.0
     Generated using ONCVPSP code by D. R. Hamann
     Using radial grid of 1410 points,  6 beta functions with:
                l(1) =   0
                l(2) =   0
                l(3) =   1
                l(4) =   1
                l(5) =   2
                l(6) =   2

     PseudoPot. # 2 for Se read from file:
     /home/pragov/projects/rrg-bengioy-ad/pragov/crystal_structure_design/SSSP/Se_pbe_v1.uspp.F.UPF
     MD5 check sum: 1b3568f3a8ae88f9a2a0ad0698632c85
     Pseudo is Ultrasoft + core correction, Zval =  6.0
     Generated by new atomic code, or converted to UPF format
     Using radial grid of  877 points,  6 beta functions with:
                l(1) =   0
                l(2) =   0
                l(3) =   1
                l(4) =   1
                l(5) =   2
                l(6) =   2
     Q(r) pseudized with  8 coefficients,  rinner =    1.300   1.300   1.300
                                                       1.300   1.300

     PseudoPot. # 3 for O  read from file:
     /home/pragov/projects/rrg-bengioy-ad/pragov/crystal_structure_design/SSSP/O.pbe-n-kjpaw_psl.0.1.UPF
     MD5 check sum: 0234752ac141de4415c5fc33072bef88
     Pseudo is Projector augmented-wave + core cor, Zval =  6.0
     Generated using "atomic" code by A. Dal Corso  v.5.0.99 svn rev. 10869
     Shape of augmentation charge: BESSEL
     Using radial grid of 1095 points,  4 beta functions with:
                l(1) =   0
                l(2) =   0
                l(3) =   1
                l(4) =   1
     Q(r) pseudized with 0 coefficients

     atomic species   valence    mass     pseudopotential
        Pd            18.00   106.42000     Pd( 1.00)
        Se             6.00    78.97100     Se( 1.00)
        O              6.00    15.99900     O ( 1.00)

      4 Sym. Ops., with inversion, found ( 2 have fractional translation)

                                    s                        frac. trans.

      isym =  1     identity

 cryst.   s( 1) = (     1          0          0      )
                  (     0          1          0      )
                  (     0          0          1      )

 cart.    s( 1) = (  1.0000000  0.0000000  0.0000000 )
                  (  0.0000000  1.0000000  0.0000000 )
                  (  0.0000000  0.0000000  1.0000000 )

      isym =  2     180 deg rotation - cart. axis [1,0,0]

 cryst.   s( 2) = (     1          0          0      )    f =( -0.5000000 )
                  (     0         -1          0      )       ( -0.0000000 )
                  (     0          0         -1      )       ( -0.0000000 )

 cart.    s( 2) = (  1.0000000  0.0000000  0.0000000 )    f =( -0.5000000 )
                  (  0.0000000 -1.0000000 -0.0000000 )       ( -0.0000000 )
                  (  0.0000000  0.0000000 -1.0000000 )       ( -0.0000000 )

      isym =  3     inversion

 cryst.   s( 3) = (    -1          0          0      )
                  (     0         -1          0      )
                  (     0          0         -1      )

 cart.    s( 3) = ( -1.0000000  0.0000000  0.0000000 )
                  (  0.0000000 -1.0000000 -0.0000000 )
                  (  0.0000000  0.0000000 -1.0000000 )

      isym =  4     inv. 180 deg rotation - cart. axis [1,0,0]

 cryst.   s( 4) = (    -1          0          0      )    f =(  0.5000000 )
                  (     0          1          0      )       (  0.0000000 )
                  (     0          0          1      )       (  0.0000000 )

 cart.    s( 4) = ( -1.0000000  0.0000000  0.0000000 )    f =(  0.5000000 )
                  (  0.0000000  1.0000000  0.0000000 )       (  0.0000000 )
                  (  0.0000000  0.0000000  1.0000000 )       (  0.0000000 )

   Cartesian axes

     site n.     atom                  positions (alat units)
         1           Pd  tau(   1) = (   0.0000000   0.3560550   0.4743658  )
         2           Pd  tau(   2) = (   0.5000000   0.3560550   0.4743658  )
         3           Se  tau(   3) = (   0.7500000   0.0506145   0.1688590  )
         4           Se  tau(   4) = (   0.2500000   0.6614954   0.7798725  )
         5           O   tau(   5) = (   0.0409540   0.2001261   0.7415143  )
         6           O   tau(   6) = (   0.7500000   0.1784131   0.4199275  )
         7           O   tau(   7) = (   0.9590460   0.5119838   0.2072172  )
         8           O   tau(   8) = (   0.5409540   0.5119838   0.2072172  )
         9           O   tau(   9) = (   0.2500000   0.5336969   0.5288040  )
        10           O   tau(  10) = (   0.4590460   0.2001261   0.7415143  )

   Crystallographic axes

     site n.     atom                  positions (cryst. coord.)
         1           Pd  tau(   1) = (  0.0000000  0.5000000  0.5000000  )
         2           Pd  tau(   2) = (  0.5000000  0.5000000  0.5000000  )
         3           Se  tau(   3) = (  0.7500000  0.0539740  0.1779840  )
         4           Se  tau(   4) = (  0.2500000  0.9460260  0.8220160  )
         5           O   tau(   5) = (  0.0409540  0.2009550  0.7815850  )
         6           O   tau(   6) = (  0.7500000  0.2198130  0.4426200  )
         7           O   tau(   7) = (  0.9590460  0.7990450  0.2184150  )
         8           O   tau(   8) = (  0.5409540  0.7990450  0.2184150  )
         9           O   tau(   9) = (  0.2500000  0.7801870  0.5573800  )
        10           O   tau(  10) = (  0.4590460  0.2009550  0.7815850  )

     number of k points=     1  Methfessel-Paxton smearing, width (Ry)=  0.0010
                       cart. coord. in units 2pi/alat
        k(    1) = (   0.0000000   0.0000000   0.0000000), wk =   2.0000000

                       cryst. coord.
        k(    1) = (   0.0000000   0.0000000   0.0000000), wk =   2.0000000

     Check: negative core charge=   -0.000010

     Initial potential from superposition of free atoms

     starting charge      83.9991, renormalised to      84.0000
     Starting wfcs are   52 randomized atomic wfcs
     Checking if some PAW data can be deallocated...

     Self-consistent Calculation

     iteration #  1     ecut=    30.00 Ry     beta= 0.70
     Davidson diagonalization with overlap

     ethr =  1.00E-02,  avg # of iterations =  2.0

     total energy              =    -841.31819547 Ry
     estimated scf accuracy    <       2.19726798 Ry

[...]

     total energy              =    -842.36919253 Ry
     estimated scf accuracy    <       0.00000134 Ry

     iteration # 10     ecut=    30.00 Ry     beta= 0.70
     Davidson diagonalization with overlap

     ethr =  1.60E-09,  avg # of iterations =  4.0

     End of self-consistent calculation

          k = 0.0000 0.0000 0.0000 (  1547 PWs)   bands (ev):

   -79.5911 -79.5887 -45.4267 -45.4028 -45.1488 -45.1463 -44.3499 -44.3382
   -15.6209 -15.3082 -13.4051 -13.1914 -13.1707 -12.8766  -6.2410  -5.9783
    -1.7219  -1.4489  -1.0475  -0.5513  -0.3967  -0.1539   0.3502   0.8627
     1.6931   1.8342   1.9290   2.2604   2.4867   2.6485   3.1054   3.3316
     3.4738   3.6970   3.7813   3.9284   4.0599   4.5508   4.6590   4.9326
     5.1438   5.3150   6.5628   6.6502   8.6643   9.5441   9.6663  10.3256
    10.3711  10.6075

     occupation numbers
     1.0000   1.0000   1.0000   1.0000   1.0000   1.0000   1.0000   1.0000
     1.0000   1.0000   1.0000   1.0000   1.0000   1.0000   1.0000   1.0000
     1.0000   1.0000   1.0000   1.0000   1.0000   1.0000   1.0000   1.0000
     1.0000   1.0000   1.0000   1.0000   1.0000   1.0000   1.0000   1.0000
     1.0000   1.0000   1.0000   1.0000   1.0000   1.0000   1.0000   1.0000
     1.0000   1.0000  -0.0000  -0.0000  -0.0000  -0.0000  -0.0000  -0.0000
    -0.0000  -0.0000

     the Fermi energy is     5.7960 ev

!    total energy              =    -842.36919343 Ry
     estimated scf accuracy    <       0.00000029 Ry
     smearing contrib. (-TS)   =       0.00000000 Ry
     internal energy E=F+TS    =    -842.36919343 Ry

     The total energy is F=E-TS. E is the sum of the following terms:
     one-electron contribution =    -551.94230361 Ry
     hartree contribution      =     308.19842140 Ry
     xc contribution           =    -152.91160376 Ry
     ewald contribution        =    -388.51304303 Ry
     one-center paw contrib.   =     -57.20066442 Ry
      -> PAW hartree energy AE =     173.63271264 Ry
      -> PAW hartree energy PS =    -173.05253239 Ry
      -> PAW xc energy AE      =    -102.42140859 Ry
      -> PAW xc energy PS      =      44.64056392 Ry
      -> total E_H with PAW    =     308.77860165 Ry
      -> total E_XC with PAW   =    -210.69244842 Ry

     convergence has been achieved in  10 iterations

     Forces acting on atoms (cartesian axes, Ry/au):

     atom    1 type  1   force =     0.00000000    0.00000000    0.00000000
     atom    2 type  1   force =     0.00000000    0.00000000    0.00000000
     atom    3 type  2   force =     0.00000000   -0.03516533    0.03633982
     atom    4 type  2   force =     0.00000000    0.03516533   -0.03633982
     atom    5 type  3   force =     0.05470386   -0.01084688    0.00533299
     atom    6 type  3   force =     0.00000000    0.02570424    0.00574297
     atom    7 type  3   force =    -0.05470386    0.01084688   -0.00533299
     atom    8 type  3   force =     0.05470386    0.01084688   -0.00533299
     atom    9 type  3   force =     0.00000000   -0.02570424   -0.00574297
     atom   10 type  3   force =    -0.05470386   -0.01084688    0.00533299
     The non-local contrib.  to forces
     atom    1 type  1   force =     0.00000000    0.00000000   -0.00000000
     atom    2 type  1   force =     0.00000000    0.00000000    0.00000000
     atom    3 type  2   force =     0.00000000   -0.39267973    0.54345314
     atom    4 type  2   force =     0.00000000    0.39267973   -0.54345314
     atom    5 type  3   force =     1.31343713   -0.70390693   -0.63475610
     atom    6 type  3   force =     0.00000000    0.77696480   -1.10786413
     atom    7 type  3   force =    -1.31343713    0.70390693    0.63475610
     atom    8 type  3   force =     1.31343713    0.70390693    0.63475610
     atom    9 type  3   force =     0.00000000   -0.77696480    1.10786413
     atom   10 type  3   force =    -1.31343713   -0.70390693   -0.63475610
     The ionic contribution  to forces
     atom    1 type  1   force =    -0.00000000    0.00000000   -0.00000000
     atom    2 type  1   force =     0.00000000    0.00000000   -0.00000000
     atom    3 type  2   force =    -0.00000000    3.65507263  -12.59045877
     atom    4 type  2   force =    -0.00000000   -3.65507263   12.59045877
     atom    5 type  3   force =    -4.89685619   -1.11351404   13.91228125
     atom    6 type  3   force =    -0.00000000   -6.92941082   -0.28372410
     atom    7 type  3   force =     4.89685619    1.11351404  -13.91228125
     atom    8 type  3   force =    -4.89685619    1.11351404  -13.91228125
     atom    9 type  3   force =     0.00000000    6.92941082    0.28372410
     atom   10 type  3   force =     4.89685619   -1.11351404   13.91228125
     The local contribution  to forces
     atom    1 type  1   force =     0.00069359   -0.00005931    0.00076963
     atom    2 type  1   force =    -0.00063352   -0.00000837    0.00061995
     atom    3 type  2   force =    -0.00000053   -3.34534027   12.15130104
     atom    4 type  2   force =    -0.00004765    3.34541974  -12.15156829
     atom    5 type  3   force =     3.65115486    1.79952293  -13.27998801
     atom    6 type  3   force =    -0.00026333    6.18814406    1.38548064
     atom    7 type  3   force =    -3.65101428   -1.79946690   13.27971387
     atom    8 type  3   force =     3.65074730   -1.79968466   13.27997366
     atom    9 type  3   force =     0.00023652   -6.18842764   -1.38523380
     atom   10 type  3   force =    -3.65089591    1.79973304  -13.28020610
     The core correction contribution to forces
     atom    1 type  1   force =     0.00000000    0.00000000    0.00000000
     atom    2 type  1   force =     0.00000000    0.00000000    0.00000000
     atom    3 type  2   force =     0.00001639    0.04785456   -0.06820359
     atom    4 type  2   force =    -0.00001508   -0.04786219    0.06820688
     atom    5 type  3   force =    -0.01294410    0.00701326    0.00790810
     atom    6 type  3   force =    -0.00000072   -0.01009963    0.01166391
     atom    7 type  3   force =     0.01294465   -0.00701385   -0.00791054
     atom    8 type  3   force =    -0.01294480   -0.00701431   -0.00790935
     atom    9 type  3   force =     0.00000074    0.01009638   -0.01166319
     atom   10 type  3   force =     0.01294471    0.00701393    0.00790751
     The Hubbard contrib.    to forces
     atom    1 type  1   force =     0.00000000    0.00000000    0.00000000
     atom    2 type  1   force =     0.00000000    0.00000000    0.00000000
     atom    3 type  2   force =     0.00000000    0.00000000    0.00000000
     atom    4 type  2   force =     0.00000000    0.00000000    0.00000000
     atom    5 type  3   force =     0.00000000    0.00000000    0.00000000
     atom    6 type  3   force =     0.00000000    0.00000000    0.00000000
     atom    7 type  3   force =     0.00000000    0.00000000    0.00000000
     atom    8 type  3   force =     0.00000000    0.00000000    0.00000000
     atom    9 type  3   force =     0.00000000    0.00000000    0.00000000
     atom   10 type  3   force =     0.00000000    0.00000000    0.00000000
     The SCF correction term to forces
     atom    1 type  1   force =    -0.00075644    0.00008137   -0.00079449
     atom    2 type  1   force =     0.00069074    0.00003532   -0.00064421
     atom    3 type  2   force =     0.00010016   -0.00010504    0.00026364
     atom    4 type  2   force =    -0.00003992   -0.00003183    0.00003161
     atom    5 type  3   force =    -0.00008838    0.00001902   -0.00015174
     atom    6 type  3   force =     0.00023175    0.00002176    0.00019893
     atom    7 type  3   force =    -0.00005200   -0.00009435    0.00029942
     atom    8 type  3   force =     0.00032924    0.00010752    0.00010429
     atom    9 type  3   force =    -0.00020582    0.00009693   -0.00042192
     atom   10 type  3   force =    -0.00016475   -0.00017234    0.00003295

     Total force =     0.138044     Total SCF correction =     0.001686

     Computing stress (Cartesian axis) and pressure

          total   stress  (Ry/bohr**3)                   (kbar)     P=     -565.54
  -0.00414314   0.00000000   0.00000000         -609.48        0.00        0.00
   0.00000000  -0.00350731  -0.00013755            0.00     -515.94      -20.23
   0.00000000  -0.00013755  -0.00388294            0.00      -20.23     -571.20

     kinetic stress (kbar)  24726.30      0.00      0.00
                                0.00  25121.31    222.52
                                0.00    222.52  25046.34

     local   stress (kbar) -41903.05      0.05      0.12
                                0.05 -33822.55   9023.80
                                0.12   9023.80   6927.98

     nonloc. stress (kbar)   5380.42      0.00      0.00
                                0.00   5380.91   -113.12
                                0.00   -113.12   5365.62

     hartree stress (kbar)  22031.94     -0.05     -0.10
                               -0.05  18997.77  -3706.55
                               -0.10  -3706.55   -270.83

     exc-cor stress (kbar)   2542.68     -0.00      0.00
                               -0.00   2534.47     -5.27
                                0.00     -5.27   2533.77

     corecor stress (kbar)  -6972.22      0.00     -0.00
                                0.00  -6970.63      6.66
                               -0.00      6.66  -6966.46

     ewald   stress (kbar)  -6415.56     -0.00      0.00
                               -0.00 -11757.24  -5448.28
                                0.00  -5448.28 -33207.62

     hubbard stress (kbar)      0.00      0.00      0.00
                                0.00      0.00      0.00
                                0.00      0.00      0.00

     DFT-D   stress (kbar)      0.00      0.00      0.00
                                0.00      0.00      0.00
                                0.00      0.00      0.00

     XDM     stress (kbar)      0.00      0.00      0.00
                                0.00      0.00      0.00
                                0.00      0.00      0.00

     dft-nl  stress (kbar)      0.00      0.00      0.00
                                0.00      0.00      0.00
                                0.00      0.00      0.00

     TS-vdW  stress (kbar)      0.00      0.00      0.00
                                0.00      0.00      0.00
                                0.00      0.00      0.00

[...]

                                0.00      0.00      0.00

     Writing all to output data dir new_calculations/myprefix.save/

     General routines

     Parallel routines

     PAW routines

   This run was terminated on:  17:53:14  21May2023

   JOB DONE.