     Program PWSCF v.7.0 starts on 20May2023 at  4:48:43

     Reading input from espresso_6114.pwi
Warning: card &CELL ignored
Warning: card / ignored

     Current dimensions of program PWSCF are:
     Max number of different atomic species (ntypx) = 10
     Max number of k-points (npk) =  40000
     Max angular momentum in pseudopotentials (lmaxx) =  4

     gamma-point specific algorithms are used
     Message from routine setup:
     using ibrav=0 with symmetry is DISCOURAGED, use correct ibrav instead

     Subspace diagonalization in iterative solution of the eigenvalue problem:
     a serial algorithm will be used

     Using Slab Decomposition

     bravais-lattice index     =            0
     lattice parameter (alat)  =      17.3832  a.u.
     unit-cell volume          =    3604.5707 (a.u.)^3
     number of atoms/cell      =           16
     number of atomic types    =            3
     number of electrons       =       168.00
     number of Kohn-Sham states=          101
     kinetic-energy cutoff     =      30.0000  Ry
     charge density cutoff     =     240.0000  Ry
     scf convergence threshold =      1.0E-06
     mixing beta               =       0.7000
     number of iterations used =            8  plain     mixing
     Exchange-correlation= SLA  PW   PBE  PBE
                           (   1   4   3   4   0   0   0)

     celldm(1)=  17.383158  celldm(2)=   0.000000  celldm(3)=   0.000000
     celldm(4)=   0.000000  celldm(5)=   0.000000  celldm(6)=   0.000000

     crystal axes: (cart. coord. in units of alat)
               a(1) = (   1.000000   0.000000   0.000000 )
               a(2) = (   0.055297   0.998470   0.000000 )
               a(3) = (  -0.527649  -0.499235   0.687278 )

     reciprocal axes: (cart. coord. in units 2 pi/alat)
               b(1) = (  1.000000 -0.055382  0.727507 )
               b(2) = (  0.000000  1.001532  0.727507 )
               b(3) = (  0.000000  0.000000  1.455015 )

     PseudoPot. # 1 for Tl read from file:
     /home/pragov/projects/rrg-bengioy-ad/pragov/crystal_structure_design/SSSP/Tl_pbe_v1.2.uspp.F.UPF
     MD5 check sum: b76cf1f7e72655a2b2c53cf6385d7059
     Pseudo is Ultrasoft + core correction, Zval = 13.0
     Generated by new atomic code, or converted to UPF format
     Using radial grid of  899 points,  6 beta functions with:
                l(1) =   0
                l(2) =   0
                l(3) =   1
                l(4) =   1
                l(5) =   2
                l(6) =   2
     Q(r) pseudized with  6 coefficients,  rinner =    1.100   1.100   1.100
                                                       1.100   1.100

     PseudoPot. # 2 for Sn read from file:
     /home/pragov/projects/rrg-bengioy-ad/pragov/crystal_structure_design/SSSP/Sn_pbe_v1.uspp.F.UPF
     MD5 check sum: 4cf58ce39ec5d5d420df3dd08604eb00
     Pseudo is Ultrasoft + core correction, Zval = 14.0
     Generated by new atomic code, or converted to UPF format
     Using radial grid of  891 points,  6 beta functions with:
                l(1) =   0
                l(2) =   0
                l(3) =   1
                l(4) =   1
                l(5) =   2
                l(6) =   2
     Q(r) pseudized with  6 coefficients,  rinner =    1.200   1.200   1.200
                                                       1.200   1.200

     PseudoPot. # 3 for Te read from file:
     /home/pragov/projects/rrg-bengioy-ad/pragov/crystal_structure_design/SSSP/Te_pbe_v1.uspp.F.UPF
     MD5 check sum: c319670d6894cc26e93307826a071b75
     Pseudo is Ultrasoft + core correction, Zval =  6.0
     Generated by new atomic code, or converted to UPF format
     Using radial grid of  891 points,  5 beta functions with:
                l(1) =   0
                l(2) =   0
                l(3) =   1
                l(4) =   1
                l(5) =   2
     Q(r) pseudized with  6 coefficients,  rinner =    1.800   1.800   1.800
                                                       1.800   1.800

     atomic species   valence    mass     pseudopotential
        Tl            13.00   204.38000     Tl( 1.00)
        Sn            14.00   118.71000     Sn( 1.00)
        Te             6.00   127.60000     Te( 1.00)

      4 Sym. Ops., with inversion, found ( 2 have fractional translation)

                                    s                        frac. trans.

      isym =  1     identity

 cryst.   s( 1) = (     1          0          0      )
                  (     0          1          0      )
                  (     0          0          1      )

 cart.    s( 1) = (  1.0000000  0.0000000 -0.0000000 )
                  (  0.0000000  1.0000000 -0.0000000 )
                  (  0.0000000  0.0000000  1.0000000 )

      isym =  2     180 deg rotation - cart. axis [0,0,1]

 cryst.   s( 2) = (    -1          0          0      )    f =(  0.4999990 )
                  (     0         -1          0      )       (  0.4999990 )
                  (     1          1          1      )       (  0.0000000 )

 cart.    s( 2) = ( -1.0000000 -0.0000000  0.0000000 )    f =(  0.5276477 )
                  (  0.0000000 -1.0000000  0.0000000 )       (  0.4992340 )
                  (  0.0000000  0.0000000  1.0000000 )       (  0.0000000 )

      isym =  3     inversion

 cryst.   s( 3) = (    -1          0          0      )
                  (     0         -1          0      )
                  (     0          0         -1      )

 cart.    s( 3) = ( -1.0000000 -0.0000000  0.0000000 )
                  (  0.0000000 -1.0000000  0.0000000 )
                  (  0.0000000  0.0000000 -1.0000000 )

      isym =  4     inv. 180 deg rotation - cart. axis [0,0,1]

 cryst.   s( 4) = (     1          0          0      )    f =(  0.4999990 )
                  (     0          1          0      )       (  0.4999990 )
                  (    -1         -1         -1      )       ( -0.0000000 )

 cart.    s( 4) = (  1.0000000  0.0000000 -0.0000000 )    f =(  0.5276477 )
                  (  0.0000000  1.0000000 -0.0000000 )       (  0.4992340 )
                  (  0.0000000  0.0000000 -1.0000000 )       ( -0.0000000 )

   Cartesian axes

     site n.     atom                  positions (alat units)
         1           Tl  tau(   1) = (   0.1243219   0.5907023   0.5437917  )
         2           Tl  tau(   2) = (   0.4033268  -0.0914673   0.1434865  )
         3           Tl  tau(   3) = (   0.7342336  -0.0539234   0.3436391  )
         4           Tl  tau(   4) = (   0.4591117   0.2368570   0.3436391  )
         5           Tl  tau(   5) = (  -0.2065849   0.5531583   0.3436391  )
         6           Tl  tau(   6) = (   0.0685371   0.2623779   0.3436391  )
         7           Tl  tau(   7) = (   0.4033279  -0.0914663   0.5437917  )
         8           Tl  tau(   8) = (   0.1243208   0.5907013   0.1434865  )
         9           Sn  tau(   9) = (   0.0000000   0.0000000   0.0000000  )
        10           Sn  tau(  10) = (   0.5276487   0.4992350   0.0000000  )
        11           Te  tau(  11) = (   0.7638249   0.2496180   0.1154799  )
        12           Te  tau(  12) = (   0.4482814   0.5831194   0.3436391  )
        13           Te  tau(  13) = (   0.0793673  -0.0838845   0.3436391  )
        14           Te  tau(  14) = (   0.7914731   0.7488524   0.0000000  )
        15           Te  tau(  15) = (   0.2638244   0.2496175   0.0000000  )
        16           Te  tau(  16) = (  -0.2361762   0.2496170   0.5717983  )

   Crystallographic axes

     site n.     atom                  positions (cryst. coord.)
         1           Tl  tau(   1) = (  0.4872200  0.9872200  0.7912250  )
         2           Tl  tau(   2) = (  0.5127800  0.0127800  0.2087750  )
         3           Tl  tau(   3) = (  0.9872200  0.1959940  0.5000000  )
         4           Tl  tau(   4) = (  0.6959940  0.4872200  0.5000000  )
         5           Tl  tau(   5) = (  0.0127800  0.8040060  0.5000000  )
         6           Tl  tau(   6) = (  0.3040060  0.5127800  0.5000000  )
         7           Tl  tau(   7) = (  0.8040060  0.3040060  0.7912250  )
         8           Tl  tau(   8) = (  0.1959940  0.6959940  0.2087750  )
         9           Sn  tau(   9) = (  0.0000000  0.0000000  0.0000000  )
        10           Sn  tau(  10) = (  0.5000000  0.5000000  0.0000000  )
        11           Te  tau(  11) = (  0.8340130  0.3340130  0.1680250  )
        12           Te  tau(  12) = (  0.6659870  0.8340130  0.5000000  )
        13           Te  tau(  13) = (  0.3340130  0.1659870  0.5000000  )
        14           Te  tau(  14) = (  0.7500000  0.7500000  0.0000000  )
        15           Te  tau(  15) = (  0.2500000  0.2500000  0.0000000  )
        16           Te  tau(  16) = (  0.1659870  0.6659870  0.8319750  )

     number of k points=     1  Methfessel-Paxton smearing, width (Ry)=  0.0010
                       cart. coord. in units 2pi/alat
        k(    1) = (   0.0000000   0.0000000   0.0000000), wk =   2.0000000

                       cryst. coord.
        k(    1) = (   0.0000000   0.0000000   0.0000000), wk =   2.0000000

     Check: negative core charge=   -0.000003

     Initial potential from superposition of free atoms

     starting charge     165.9597, renormalised to     168.0000

     negative rho (up, down):  4.060E-01 0.000E+00
     Starting wfcs are  114 randomized atomic wfcs

     Self-consistent Calculation

     iteration #  1     ecut=    30.00 Ry     beta= 0.70
     Davidson diagonalization with overlap

     ethr =  1.00E-02,  avg # of iterations =  2.0

     negative rho (up, down):  4.001E-01 0.000E+00

     total energy              =   -1643.89804716 Ry
     estimated scf accuracy    <       1.91805487 Ry

[...]

     total energy              =   -1645.05492934 Ry
     estimated scf accuracy    <       0.00000119 Ry

     iteration # 21     ecut=    30.00 Ry     beta= 0.70
     Davidson diagonalization with overlap

     ethr =  7.10E-10,  avg # of iterations =  7.0

[...]

     End of self-consistent calculation

          k = 0.0000 0.0000 0.0000 (  4994 PWs)   bands (ev):

   -14.5679 -14.5618 -14.5478 -14.5206 -14.4576 -14.4347 -14.3023 -14.2695
   -14.2537 -14.1320  -4.1245  -4.0370  -4.0226  -4.0180  -3.9690  -3.9152
    -3.9048  -3.8991  -3.8990  -3.8900  -3.8836  -3.8834  -3.8792  -3.8560
    -3.8367  -3.8059  -3.8052  -3.7947  -3.7914  -3.7760  -3.7743  -3.7693
    -3.7636  -3.7590  -3.7486  -3.7433  -3.7335  -3.7255  -3.7027  -3.6972
    -3.6930  -3.6906  -3.6876  -3.6748  -3.6643  -3.6589  -3.6527  -3.6434
    -3.6352  -3.6225  -3.6140  -2.5311  -2.5166  -2.5076  -2.3853  -2.3596
    -0.0748   0.8914   1.0480   1.1509   1.2743   1.2816   1.6235   1.6402
     1.8638   1.8690   5.0330   5.0659   5.0779   5.2292   5.3668   5.4937
     5.5479   5.7515   6.1596   6.1918   6.2419   6.4765   6.6093   6.6812
     6.7147   6.7270   7.1728   7.4252   7.4420   8.2800   8.3065   8.4837
     8.6905   9.0146   9.2778   9.3581   9.3707   9.5475   9.5771   9.7779
     9.8118  10.0778  10.4655  10.4897  10.6959

     occupation numbers
     1.0000   1.0000   1.0000   1.0000   1.0000   1.0000   1.0000   1.0000
     1.0000   1.0000   1.0000   1.0000   1.0000   1.0000   1.0000   1.0000
     1.0000   1.0000   1.0000   1.0000   1.0000   1.0000   1.0000   1.0000
     1.0000   1.0000   1.0000   1.0000   1.0000   1.0000   1.0000   1.0000
     1.0000   1.0000   1.0000   1.0000   1.0000   1.0000   1.0000   1.0000
     1.0000   1.0000   1.0000   1.0000   1.0000   1.0000   1.0000   1.0000
     1.0000   1.0000   1.0000   1.0000   1.0000   1.0000   1.0000   1.0000
     1.0000   1.0000   1.0000   1.0000   1.0000   1.0000   1.0000   1.0000
     1.0000   1.0000   1.0000   1.0000   1.0000   1.0000   1.0000   1.0000
     1.0000   1.0000   1.0000   1.0000   1.0000   1.0000   1.0000   1.0000
     1.0000   1.0000   1.0000   0.9270   0.0730  -0.0000  -0.0000  -0.0000
    -0.0000  -0.0000  -0.0000  -0.0000  -0.0000  -0.0000  -0.0000  -0.0000
    -0.0000  -0.0000  -0.0000  -0.0000  -0.0000

     the Fermi energy is     7.4336 ev

!    total energy              =   -1645.05493045 Ry
     estimated scf accuracy    <       0.00000021 Ry
     smearing contrib. (-TS)   =      -0.00009316 Ry
     internal energy E=F+TS    =   -1645.05483729 Ry

     The total energy is F=E-TS. E is the sum of the following terms:
     one-electron contribution =    -392.12143275 Ry
     hartree contribution      =     311.28378210 Ry
     xc contribution           =    -678.42160702 Ry
     ewald contribution        =    -885.79557962 Ry

     convergence has been achieved in  21 iterations

     negative rho (up, down):  3.935E-01 0.000E+00

     Forces acting on atoms (cartesian axes, Ry/au):

     atom    1 type  1   force =     0.00884138    0.00881472    0.02108741
     atom    2 type  1   force =    -0.00884138   -0.00881472   -0.02108741
     atom    3 type  1   force =     0.02880667   -0.01075627   -0.00000000
     atom    4 type  1   force =    -0.00664654    0.02872224   -0.00000000
     atom    5 type  1   force =    -0.02880667    0.01075627    0.00000000
     atom    6 type  1   force =     0.00664654   -0.02872224    0.00000000
     atom    7 type  1   force =    -0.00884138   -0.00881472    0.02108741
     atom    8 type  1   force =     0.00884138    0.00881472   -0.02108741
     atom    9 type  2   force =     0.00000000    0.00000000    0.00000000
     atom   10 type  2   force =     0.00000000   -0.00000000   -0.00000000
     atom   11 type  3   force =     0.00000000    0.00000000    0.04204449
     atom   12 type  3   force =    -0.01232855    0.03460158   -0.00000000
     atom   13 type  3   force =     0.01232855   -0.03460158    0.00000000
     atom   14 type  3   force =     0.00000000    0.00000000    0.01310968
     atom   15 type  3   force =     0.00000000    0.00000000   -0.01310968
     atom   16 type  3   force =     0.00000000    0.00000000   -0.04204449
     The non-local contrib.  to forces
     atom    1 type  1   force =     0.07795988    0.07338326    0.04187371
     atom    2 type  1   force =    -0.07795988   -0.07338326   -0.04187371
     atom    3 type  1   force =     0.10434650    0.04187372   -0.00000000
     atom    4 type  1   force =     0.04812436    0.10717136   -0.00000000
     atom    5 type  1   force =    -0.10434650   -0.04187372    0.00000000
     atom    6 type  1   force =    -0.04812436   -0.10717136    0.00000000
     atom    7 type  1   force =    -0.07795988   -0.07338326    0.04187371
     atom    8 type  1   force =     0.07795988    0.07338326   -0.04187371
     atom    9 type  2   force =    -0.00000000    0.00000000    0.00000000
     atom   10 type  2   force =     0.00000000   -0.00000000    0.00000000
     atom   11 type  3   force =     0.00000000    0.00000000    0.06711351
     atom   12 type  3   force =    -0.04454332    0.05083878   -0.00000000
     atom   13 type  3   force =     0.04454332   -0.05083878    0.00000000
     atom   14 type  3   force =     0.00000000    0.00000000    0.00581852
     atom   15 type  3   force =     0.00000000    0.00000000   -0.00581852
     atom   16 type  3   force =     0.00000000    0.00000000   -0.06711351
     The ionic contribution  to forces
     atom    1 type  1   force =     0.75354510    0.71296689    1.11752132
     atom    2 type  1   force =    -0.75354510   -0.71296689   -1.11752132
     atom    3 type  1   force =     1.52158683   -0.09861754   -0.00004337
     atom    4 type  1   force =    -0.01432680    1.52471199   -0.00004337
     atom    5 type  1   force =    -1.52158683    0.09861754    0.00004337
     atom    6 type  1   force =     0.01432680   -1.52471199    0.00004337
     atom    7 type  1   force =    -0.75361800   -0.71303586    1.11746704
     atom    8 type  1   force =     0.75361801    0.71303586   -1.11746704
     atom    9 type  2   force =     0.00000000   -0.00000000   -0.00000000
     atom   10 type  2   force =    -0.00000000   -0.00000000   -0.00000000
     atom   11 type  3   force =    -0.00001919   -0.00001816    0.82007108
     atom   12 type  3   force =    -0.56358540    0.59566163    0.00000000
     atom   13 type  3   force =     0.56358540   -0.59566163    0.00000000
     atom   14 type  3   force =    -0.00001888    0.00001995   -0.00000000
     atom   15 type  3   force =     0.00001888   -0.00001995   -0.00000000
     atom   16 type  3   force =     0.00001919    0.00001816   -0.82007108
     The local contribution  to forces
     atom    1 type  1   force =    -0.82153785   -0.77470347   -1.13858138
     atom    2 type  1   force =     0.82143066    0.77474447    1.13856921
     atom    3 type  1   force =    -1.59833302    0.04950428    0.00335993
     atom    4 type  1   force =    -0.03770478   -1.60264324   -0.00236939
     atom    5 type  1   force =     1.59831743   -0.04950884   -0.00328198
     atom    6 type  1   force =     0.03770112    1.60256174    0.00230147
     atom    7 type  1   force =     0.81952065    0.77653046   -1.14090661
     atom    8 type  1   force =    -0.81946118   -0.77651233    1.14091119
     atom    9 type  2   force =     0.00006322    0.00003509    0.00002921
     atom   10 type  2   force =    -0.00004465   -0.00004915   -0.00001258
     atom   11 type  3   force =    -0.00757443   -0.00408046   -0.85272372
     atom   12 type  3   force =     0.60262138   -0.61681738    0.01480897
     atom   13 type  3   force =    -0.60262191    0.61681700   -0.01481896
     atom   14 type  3   force =    -0.00129734   -0.00294783    0.00777282
     atom   15 type  3   force =     0.00129098    0.00294401   -0.00778363
     atom   16 type  3   force =     0.00758291    0.00409320    0.85272463
     The core correction contribution to forces
     atom    1 type  1   force =    -0.00205292   -0.00159363    0.00168111
     atom    2 type  1   force =     0.00205141    0.00159354   -0.00168149
     atom    3 type  1   force =     0.00140974   -0.00356205   -0.00058371
     atom    4 type  1   force =    -0.00282094   -0.00038031   -0.00016430
     atom    5 type  1   force =    -0.00141188    0.00356175    0.00058629
     atom    6 type  1   force =     0.00282084    0.00037664    0.00016618
     atom    7 type  1   force =     0.00217626    0.00220629    0.00152902
     atom    8 type  1   force =    -0.00217266   -0.00220574   -0.00152706
     atom    9 type  2   force =     0.00000050    0.00000038    0.00000060
     atom   10 type  2   force =    -0.00000070   -0.00000080   -0.00000056
     atom   11 type  3   force =     0.00086915    0.00040078    0.00750068
     atom   12 type  3   force =    -0.00677372    0.00486690   -0.00129655
     atom   13 type  3   force =     0.00677508   -0.00486590    0.00129737
     atom   14 type  3   force =     0.00015269    0.00025426   -0.00049371
     atom   15 type  3   force =    -0.00015199   -0.00025498    0.00049514
     atom   16 type  3   force =    -0.00087000   -0.00040104   -0.00750015
     The Hubbard contrib.    to forces
     atom    1 type  1   force =     0.00000000    0.00000000    0.00000000
     atom    2 type  1   force =     0.00000000    0.00000000    0.00000000
     atom    3 type  1   force =     0.00000000    0.00000000    0.00000000
     atom    4 type  1   force =     0.00000000    0.00000000    0.00000000
     atom    5 type  1   force =     0.00000000    0.00000000    0.00000000
     atom    6 type  1   force =     0.00000000    0.00000000    0.00000000
     atom    7 type  1   force =     0.00000000    0.00000000    0.00000000
     atom    8 type  1   force =     0.00000000    0.00000000    0.00000000
     atom    9 type  2   force =     0.00000000    0.00000000    0.00000000
     atom   10 type  2   force =     0.00000000    0.00000000    0.00000000
     atom   11 type  3   force =     0.00000000    0.00000000    0.00000000
     atom   12 type  3   force =     0.00000000    0.00000000    0.00000000
     atom   13 type  3   force =     0.00000000    0.00000000    0.00000000
     atom   14 type  3   force =     0.00000000    0.00000000    0.00000000
     atom   15 type  3   force =     0.00000000    0.00000000    0.00000000
     atom   16 type  3   force =     0.00000000    0.00000000    0.00000000
     The SCF correction term to forces
     atom    1 type  1   force =    -0.00005687   -0.00008214   -0.00012452
     atom    2 type  1   force =     0.00017180    0.00004279    0.00013689
     atom    3 type  1   force =    -0.00019573    0.00004993    0.00000319
     atom    4 type  1   force =     0.00007819   -0.00013513    0.00002255
     atom    5 type  1   force =     0.00022877   -0.00003585   -0.00007750
     atom    6 type  1   force =    -0.00008129    0.00022516    0.00004717
     atom    7 type  1   force =     0.00004892    0.00001784   -0.00015706
     atom    8 type  1   force =    -0.00011902   -0.00004695    0.00015372
     atom    9 type  2   force =    -0.00006213   -0.00003320   -0.00003299
     atom   10 type  2   force =     0.00003909    0.00004185    0.00001354
     atom   11 type  3   force =     0.00001205   -0.00000937    0.00008053
     atom   12 type  3   force =    -0.00005356    0.00004647    0.00001512
     atom   13 type  3   force =     0.00004059   -0.00005744   -0.00001224
     atom   14 type  3   force =     0.00000232    0.00001509    0.00000473
     atom   15 type  3   force =    -0.00000229   -0.00000356   -0.00000999
     atom   16 type  3   force =    -0.00001194   -0.00000045   -0.00008679

     Total force =     0.112291     Total SCF correction =     0.000602

     Computing stress (Cartesian axis) and pressure

     negative rho (up, down):  3.935E-01 0.000E+00
          total   stress  (Ry/bohr**3)                   (kbar)     P=       40.56
   0.00026997   0.00007297  -0.00000000           39.71       10.73       -0.00
   0.00007297   0.00033391  -0.00000000           10.73       49.12       -0.00
  -0.00000000  -0.00000000   0.00022327           -0.00       -0.00       32.84

     kinetic stress (kbar)   4768.55      6.23     -0.00
                                6.23   4791.22     -0.00
                               -0.00     -0.00   4784.98

     local   stress (kbar)   3741.55    -60.11     -0.05
                              -60.11   3771.75     -6.67
                               -0.05     -6.67   3824.67

     nonloc. stress (kbar)   3258.77    -18.68     -0.00
                              -18.68   3226.38     -0.00
                               -0.00     -0.00   3241.16

     hartree stress (kbar)   4242.13     19.28     -0.61
                               19.28   4239.07     -0.05
                               -0.61     -0.05   4222.51

     exc-cor stress (kbar)  16888.27     -0.12     -0.02
                               -0.12  16888.35     -0.04
                               -0.02     -0.04  16888.54

     corecor stress (kbar) -20835.10     -1.41      0.22
                               -1.41 -20835.94      0.57
                                0.22      0.57 -20835.25

     ewald   stress (kbar) -12024.47     65.55      0.00
                               65.55 -12031.73      0.00
                                0.00      0.00 -12093.75

     hubbard stress (kbar)      0.00      0.00      0.00
                                0.00      0.00      0.00
                                0.00      0.00      0.00

     DFT-D   stress (kbar)      0.00      0.00      0.00
                                0.00      0.00      0.00
                                0.00      0.00      0.00

     XDM     stress (kbar)      0.00      0.00      0.00
                                0.00      0.00      0.00
                                0.00      0.00      0.00

     dft-nl  stress (kbar)      0.00      0.00      0.00
                                0.00      0.00      0.00
                                0.00      0.00      0.00

     TS-vdW  stress (kbar)      0.00      0.00      0.00
                                0.00      0.00      0.00
                                0.00      0.00      0.00

[...]

                                0.00      0.00      0.00

     Writing all to output data dir new_calculations/myprefix.save/

     General routines

     Parallel routines

   This run was terminated on:   4:49:31  20May2023

   JOB DONE.