     Program PWSCF v.7.0 starts on 20May2023 at 22:45:29

     Reading input from espresso_21299.pwi
Warning: card &CELL ignored
Warning: card / ignored

     Current dimensions of program PWSCF are:
     Max number of different atomic species (ntypx) = 10
     Max number of k-points (npk) =  40000
     Max angular momentum in pseudopotentials (lmaxx) =  4
     file O.pbe-n-kjpaw_psl.0.1.UPF: wavefunction(s)  2P renormalized

     gamma-point specific algorithms are used
     Message from routine setup:
     using ibrav=0 with symmetry is DISCOURAGED, use correct ibrav instead

     Subspace diagonalization in iterative solution of the eigenvalue problem:
     a serial algorithm will be used

     Using Slab Decomposition

     bravais-lattice index     =            0
     lattice parameter (alat)  =      10.7859  a.u.
     unit-cell volume          =    1783.1628 (a.u.)^3
     number of atoms/cell      =           16
     number of atomic types    =            4
     number of electrons       =       128.00
     number of Kohn-Sham states=           77
     kinetic-energy cutoff     =      30.0000  Ry
     charge density cutoff     =     240.0000  Ry
     scf convergence threshold =      1.0E-06
     mixing beta               =       0.7000
     number of iterations used =            8  plain     mixing
     Exchange-correlation= SLA  PW   PBX  PBC
                           (   1   4   3   4   0   0   0)

     celldm(1)=  10.785869  celldm(2)=   0.000000  celldm(3)=   0.000000
     celldm(4)=   0.000000  celldm(5)=   0.000000  celldm(6)=   0.000000

     crystal axes: (cart. coord. in units of alat)
               a(1) = (   1.000000   0.000000   0.000000 )
               a(2) = (   0.000000   1.102709   0.000000 )
               a(3) = (   0.000000   0.000000   1.288738 )

     reciprocal axes: (cart. coord. in units 2 pi/alat)
               b(1) = (  1.000000  0.000000  0.000000 )
               b(2) = (  0.000000  0.906858  0.000000 )
               b(3) = (  0.000000  0.000000  0.775953 )

     PseudoPot. # 1 for Na read from file:
     /home/pragov/projects/rrg-bengioy-ad/pragov/crystal_structure_design/SSSP/na_pbe_v1.5.uspp.F.UPF
     MD5 check sum: 44600605ef58000f06b90626533354dc
     Pseudo is Ultrasoft, Zval =  9.0
     Generated by new atomic code, or converted to UPF format
     Using radial grid of  819 points,  5 beta functions with:
                l(1) =   0
                l(2) =   0
                l(3) =   1
                l(4) =   1
                l(5) =   2
     Q(r) pseudized with  8 coefficients,  rinner =    1.250   1.250   1.250
                                                       1.250   1.250

     PseudoPot. # 2 for Mo read from file:
     /home/pragov/projects/rrg-bengioy-ad/pragov/crystal_structure_design/SSSP/Mo_ONCV_PBE-1.0.oncvpsp.upf
     MD5 check sum: 1b5d28e075c9ccadda658a603575cd1f
     Pseudo is Norm-conserving, Zval = 14.0
     Generated using ONCVPSP code by D. R. Hamann
     Using radial grid of 1526 points,  6 beta functions with:
                l(1) =   0
                l(2) =   0
                l(3) =   1
                l(4) =   1
                l(5) =   2
                l(6) =   2

     PseudoPot. # 3 for N  read from file:
     /home/pragov/projects/rrg-bengioy-ad/pragov/crystal_structure_design/SSSP/N.pbe-n-radius_5.UPF
     MD5 check sum: 16739722b17309cd8fe442a2ace49922
     Pseudo is Ultrasoft + core correction, Zval =  5.0
     Generated using "atomic" code by A. Dal Corso  v.5.1
     Using radial grid of 1085 points,  4 beta functions with:
                l(1) =   0
                l(2) =   0
                l(3) =   1
                l(4) =   1
     Q(r) pseudized with 0 coefficients

     PseudoPot. # 4 for O  read from file:
     /home/pragov/projects/rrg-bengioy-ad/pragov/crystal_structure_design/SSSP/O.pbe-n-kjpaw_psl.0.1.UPF
     MD5 check sum: 0234752ac141de4415c5fc33072bef88
     Pseudo is Projector augmented-wave + core cor, Zval =  6.0
     Generated using "atomic" code by A. Dal Corso  v.5.0.99 svn rev. 10869
     Shape of augmentation charge: BESSEL
     Using radial grid of 1095 points,  4 beta functions with:
                l(1) =   0
                l(2) =   0
                l(3) =   1
                l(4) =   1
     Q(r) pseudized with 0 coefficients

     atomic species   valence    mass     pseudopotential
        Na             9.00    22.98977     Na( 1.00)
        Mo            14.00    95.95000     Mo( 1.00)
        N              5.00    14.00700     N ( 1.00)
        O              6.00    15.99900     O ( 1.00)

      4 Sym. Ops. (no inversion) found ( 2 have fractional translation)

                                    s                        frac. trans.

      isym =  1     identity

 cryst.   s( 1) = (     1          0          0      )
                  (     0          1          0      )
                  (     0          0          1      )

 cart.    s( 1) = (  1.0000000  0.0000000  0.0000000 )
                  (  0.0000000  1.0000000  0.0000000 )
                  (  0.0000000  0.0000000  1.0000000 )

      isym =  2     180 deg rotation - cart. axis [1,0,0]

 cryst.   s( 2) = (     1          0          0      )    f =(  0.5000000 )
                  (     0         -1          0      )       ( -0.0000000 )
                  (     0          0         -1      )       (  0.5000000 )

 cart.    s( 2) = (  1.0000000  0.0000000  0.0000000 )    f =(  0.5000000 )
                  (  0.0000000 -1.0000000  0.0000000 )       ( -0.0000000 )
                  (  0.0000000  0.0000000 -1.0000000 )       (  0.6443692 )

      isym =  3     inv. 180 deg rotation - cart. axis [0,0,1]

 cryst.   s( 3) = (     1          0          0      )
                  (     0          1          0      )
                  (     0          0         -1      )

 cart.    s( 3) = (  1.0000000  0.0000000  0.0000000 )
                  (  0.0000000  1.0000000  0.0000000 )
                  (  0.0000000  0.0000000 -1.0000000 )

      isym =  4     inv. 180 deg rotation - cart. axis [0,1,0]

 cryst.   s( 4) = (     1          0          0      )    f =(  0.5000000 )
                  (     0         -1          0      )       ( -0.0000000 )
                  (     0          0          1      )       ( -0.5000000 )

 cart.    s( 4) = (  1.0000000  0.0000000  0.0000000 )    f =(  0.5000000 )
                  (  0.0000000 -1.0000000  0.0000000 )       ( -0.0000000 )
                  (  0.0000000  0.0000000  1.0000000 )       ( -0.6443692 )

   Cartesian axes

     site n.     atom                  positions (alat units)
         1           Na  tau(   1) = (   0.5122130   0.9211312   0.0000000  )
         2           Na  tau(   2) = (   0.5101690   0.3620380   0.9595663  )
         3           Na  tau(   3) = (   0.5101690   0.3620380   0.3291722  )
         4           Na  tau(   4) = (   0.0101690   0.7406707   0.3151971  )
         5           Na  tau(   5) = (   0.0122130   0.1815775   0.6443692  )
         6           Na  tau(   6) = (   0.0101690   0.7406707   0.9735414  )
         7           Mo  tau(   7) = (   0.5025990   0.9121000   0.6443692  )
         8           Mo  tau(   8) = (   0.0025990   0.1906087   0.0000000  )
         9           N   tau(   9) = (   0.6957050   0.1943800   0.0000000  )
        10           N   tau(  10) = (   0.1957050   0.9083287   0.6443692  )
        11           O   tau(  11) = (   0.6034800   0.7569698   0.3747071  )
        12           O   tau(  12) = (   0.1034800   0.3457389   0.2696621  )
        13           O   tau(  13) = (   0.1034800   0.3457389   1.0190764  )
        14           O   tau(  14) = (   0.6034800   0.7569698   0.9140313  )
        15           O   tau(  15) = (   0.1012850   0.9819246   0.0000000  )
        16           O   tau(  16) = (   0.6012850   0.1207841   0.6443692  )

   Crystallographic axes

     site n.     atom                  positions (cryst. coord.)
         1           Na  tau(   1) = (  0.5122130  0.8353350  0.0000000  )
         2           Na  tau(   2) = (  0.5101690  0.3283170  0.7445780  )
         3           Na  tau(   3) = (  0.5101690  0.3283170  0.2554220  )
         4           Na  tau(   4) = (  0.0101690  0.6716830  0.2445780  )
         5           Na  tau(   5) = (  0.0122130  0.1646650  0.5000000  )
         6           Na  tau(   6) = (  0.0101690  0.6716830  0.7554220  )
         7           Mo  tau(   7) = (  0.5025990  0.8271450  0.5000000  )
         8           Mo  tau(   8) = (  0.0025990  0.1728550  0.0000000  )
         9           N   tau(   9) = (  0.6957050  0.1762750  0.0000000  )
        10           N   tau(  10) = (  0.1957050  0.8237250  0.5000000  )
        11           O   tau(  11) = (  0.6034800  0.6864640  0.2907550  )
        12           O   tau(  12) = (  0.1034800  0.3135360  0.2092450  )
        13           O   tau(  13) = (  0.1034800  0.3135360  0.7907550  )
        14           O   tau(  14) = (  0.6034800  0.6864640  0.7092450  )
        15           O   tau(  15) = (  0.1012850  0.8904660  0.0000000  )
        16           O   tau(  16) = (  0.6012850  0.1095340  0.5000000  )

     number of k points=     1  Methfessel-Paxton smearing, width (Ry)=  0.0010
                       cart. coord. in units 2pi/alat
        k(    1) = (   0.0000000   0.0000000   0.0000000), wk =   2.0000000

                       cryst. coord.
        k(    1) = (   0.0000000   0.0000000   0.0000000), wk =   2.0000000

     Check: negative core charge=   -0.000010

     Initial potential from superposition of free atoms

     starting charge     127.9603, renormalised to     128.0000
     Starting wfcs are   82 randomized atomic wfcs
     Checking if some PAW data can be deallocated...

     Self-consistent Calculation

     iteration #  1     ecut=    30.00 Ry     beta= 0.70
     Davidson diagonalization with overlap

     ethr =  1.00E-02,  avg # of iterations =  4.0

     total energy              =   -1134.21127792 Ry
     estimated scf accuracy    <       5.51737682 Ry

[...]

     total energy              =   -1137.27547513 Ry
     estimated scf accuracy    <       0.00001652 Ry

     iteration # 11     ecut=    30.00 Ry     beta= 0.70
     Davidson diagonalization with overlap

     ethr =  1.05E-08,  avg # of iterations =  2.0

     End of self-consistent calculation

          k = 0.0000 0.0000 0.0000 (  2478 PWs)   bands (ev):

   -57.1439 -57.1438 -46.4131 -46.4130 -46.1764 -46.1756 -46.1749 -46.1743
   -31.4502 -31.4501 -31.4401 -31.4395 -31.3657 -31.3654 -18.3549 -18.3544
   -18.3418 -18.3403 -18.3243 -18.3242 -18.1387 -18.1328 -18.1291 -18.1262
   -18.1101 -18.1060 -18.0982 -18.0968 -18.0949 -18.0929 -18.0884 -18.0881
   -13.2862 -13.1659 -12.9514 -12.9458 -12.9002 -12.8987  -7.7913  -7.7897
    -0.3110  -0.2038  -0.0359  -0.0184   0.0614   0.1141   0.1755   0.2534
     0.2977   0.3454   1.2089   1.2245   1.5416   1.6708   1.7143   1.8133
     2.0053   2.1266   2.3263   2.5429   2.9862   3.0118   3.0876   3.1153
     6.7893   7.1326   7.2162   7.2519   7.3025   8.1914   8.5330   8.5846
     8.5893   8.6607   8.8364   9.9834  10.8193

     occupation numbers
     1.0000   1.0000   1.0000   1.0000   1.0000   1.0000   1.0000   1.0000
     1.0000   1.0000   1.0000   1.0000   1.0000   1.0000   1.0000   1.0000
     1.0000   1.0000   1.0000   1.0000   1.0000   1.0000   1.0000   1.0000
     1.0000   1.0000   1.0000   1.0000   1.0000   1.0000   1.0000   1.0000
     1.0000   1.0000   1.0000   1.0000   1.0000   1.0000   1.0000   1.0000
     1.0000   1.0000   1.0000   1.0000   1.0000   1.0000   1.0000   1.0000
     1.0000   1.0000   1.0000   1.0000   1.0000   1.0000   1.0000   1.0000
     1.0000   1.0000   1.0000   1.0000   1.0000   1.0000   1.0000   1.0000
    -0.0000  -0.0000  -0.0000  -0.0000  -0.0000  -0.0000  -0.0000  -0.0000
    -0.0000  -0.0000  -0.0000  -0.0000  -0.0000

     the Fermi energy is     6.6906 ev

!    total energy              =   -1137.27547734 Ry
     estimated scf accuracy    <       0.00000013 Ry
     smearing contrib. (-TS)   =       0.00000000 Ry
     internal energy E=F+TS    =   -1137.27547734 Ry

     The total energy is F=E-TS. E is the sum of the following terms:
     one-electron contribution =    -721.92619916 Ry
     hartree contribution      =     400.87757073 Ry
     xc contribution           =    -172.80414867 Ry
     ewald contribution        =    -586.26993538 Ry
     one-center paw contrib.   =     -57.15276486 Ry
      -> PAW hartree energy AE =     175.24879907 Ry
      -> PAW hartree energy PS =    -174.64245739 Ry
      -> PAW xc energy AE      =    -102.62567673 Ry
      -> PAW xc energy PS      =      44.86657019 Ry
      -> total E_H with PAW    =     401.48391240 Ry
      -> total E_XC with PAW   =    -230.56325521 Ry

     convergence has been achieved in  11 iterations

     Forces acting on atoms (cartesian axes, Ry/au):

     atom    1 type  1   force =     0.00039425   -0.00164084   -0.00000000
     atom    2 type  1   force =     0.00062718    0.00076662   -0.00128066
     atom    3 type  1   force =     0.00062718    0.00076662    0.00128066
     atom    4 type  1   force =     0.00062718   -0.00076662   -0.00128066
     atom    5 type  1   force =     0.00039425    0.00164084    0.00000000
     atom    6 type  1   force =     0.00062718   -0.00076662    0.00128066
     atom    7 type  2   force =    -0.03680295    0.00061313    0.00000000
     atom    8 type  2   force =    -0.03680295   -0.00061313   -0.00000000
     atom    9 type  3   force =     0.03649157    0.00189405    0.00000000
     atom   10 type  3   force =     0.03649157   -0.00189405    0.00000000
     atom   11 type  4   force =     0.00088550    0.01627506    0.03096581
     atom   12 type  4   force =     0.00088550   -0.01627506   -0.03096581
     atom   13 type  4   force =     0.00088550   -0.01627506    0.03096581
     atom   14 type  4   force =     0.00088550    0.01627506   -0.03096581
     atom   15 type  4   force =    -0.00310822    0.03292901    0.00000000
     atom   16 type  4   force =    -0.00310822   -0.03292901   -0.00000000
     The non-local contrib.  to forces
     atom    1 type  1   force =     0.02755960   -0.20847043   -0.00000000
     atom    2 type  1   force =    -0.01005373    0.06695815   -0.09639757
     atom    3 type  1   force =    -0.01005373    0.06695815    0.09639757
     atom    4 type  1   force =    -0.01005373   -0.06695815   -0.09639757
     atom    5 type  1   force =     0.02755960    0.20847043    0.00000000
     atom    6 type  1   force =    -0.01005373   -0.06695815    0.09639757
     atom    7 type  2   force =    -0.25326418    0.00053994    0.00000000
     atom    8 type  2   force =    -0.25326418   -0.00053994   -0.00000000
     atom    9 type  3   force =     0.60630933    0.00039374    0.00000000
     atom   10 type  3   force =     0.60630933   -0.00039374    0.00000000
     atom   11 type  4   force =    -0.21560967    0.37887139    0.70770983
     atom   12 type  4   force =    -0.21560967   -0.37887139   -0.70770983
     atom   13 type  4   force =    -0.21560967   -0.37887139    0.70770983
     atom   14 type  4   force =    -0.21560967    0.37887139   -0.70770983
     atom   15 type  4   force =    -0.20043061    0.77620672    0.00000000
     atom   16 type  4   force =    -0.20043061   -0.77620672    0.00000000
     The ionic contribution  to forces
     atom    1 type  1   force =     0.14699267   -2.24183721   -0.00000000
     atom    2 type  1   force =     0.08055043    1.28651972    0.46552218
     atom    3 type  1   force =     0.08055043    1.28651972   -0.46552218
     atom    4 type  1   force =     0.08055043   -1.28651972    0.46552218
     atom    5 type  1   force =     0.14699267    2.24183721    0.00000000
     atom    6 type  1   force =     0.08055043   -1.28651972   -0.46552218
     atom    7 type  2   force =     0.96705099   -1.10663322   -0.00000000
     atom    8 type  2   force =     0.96705099    1.10663322   -0.00000000
     atom    9 type  3   force =    -8.32403407    0.76885283   -0.00000000
     atom   10 type  3   force =    -8.32403407   -0.76885283   -0.00000000
     atom   11 type  4   force =     2.29286549   -4.20019373   -6.58129361
     atom   12 type  4   force =     2.29286549    4.20019373    6.58129361
     atom   13 type  4   force =     2.29286549    4.20019373   -6.58129361
     atom   14 type  4   force =     2.29286549   -4.20019373    6.58129361
     atom   15 type  4   force =     2.46315856   -7.56361159   -0.00000000
     atom   16 type  4   force =     2.46315856    7.56361159    0.00000000
     The local contribution  to forces
     atom    1 type  1   force =    -0.17404718    2.44894472   -0.00001032
     atom    2 type  1   force =    -0.06987150   -1.35293905   -0.37029081
     atom    3 type  1   force =    -0.06985439   -1.35294010    0.37029192
     atom    4 type  1   force =    -0.06990101    1.35292901   -0.37033324
     atom    5 type  1   force =    -0.17407611   -2.44890249    0.00002919
     atom    6 type  1   force =    -0.06989482    1.35290707    0.37033122
     atom    7 type  2   force =    -0.75082729    1.10742331    0.00000919
     atom    8 type  2   force =    -0.75070843   -1.10745017   -0.00009134
     atom    9 type  3   force =     7.75688972   -0.76752440   -0.00001394
     atom   10 type  3   force =     7.75715898    0.76749531    0.00000401
     atom   11 type  4   force =    -2.07809901    3.84097160    5.91064077
     atom   12 type  4   force =    -2.07807829   -3.84096268   -5.91063072
     atom   13 type  4   force =    -2.07807495   -3.84095326    5.91060914
     atom   14 type  4   force =    -2.07809308    3.84096147   -5.91062858
     atom   15 type  4   force =    -2.26740733    6.82713967   -0.00001150
     atom   16 type  4   force =    -2.26740318   -6.82715173    0.00000628
     The core correction contribution to forces
     atom    1 type  1   force =     0.00000000    0.00000000    0.00000000
     atom    2 type  1   force =     0.00000000    0.00000000    0.00000000
     atom    3 type  1   force =     0.00000000    0.00000000    0.00000000
     atom    4 type  1   force =     0.00000000    0.00000000    0.00000000
     atom    5 type  1   force =     0.00000000    0.00000000    0.00000000
     atom    6 type  1   force =     0.00000000    0.00000000    0.00000000
     atom    7 type  2   force =     0.00000000    0.00000000    0.00000000
     atom    8 type  2   force =     0.00000000    0.00000000    0.00000000
     atom    9 type  3   force =    -0.00288093   -0.00002614   -0.00000003
     atom   10 type  3   force =    -0.00288025    0.00002596   -0.00000003
     atom   11 type  4   force =     0.00174918   -0.00322170   -0.00616486
     atom   12 type  4   force =     0.00174938    0.00322214    0.00616571
     atom   13 type  4   force =     0.00174932    0.00322206   -0.00616559
     atom   14 type  4   force =     0.00174921   -0.00322166    0.00616489
     atom   15 type  4   force =     0.00151852   -0.00662439   -0.00000002
     atom   16 type  4   force =     0.00151877    0.00662395   -0.00000003
     The Hubbard contrib.    to forces
     atom    1 type  1   force =     0.00000000    0.00000000    0.00000000
     atom    2 type  1   force =     0.00000000    0.00000000    0.00000000
     atom    3 type  1   force =     0.00000000    0.00000000    0.00000000
     atom    4 type  1   force =     0.00000000    0.00000000    0.00000000
     atom    5 type  1   force =     0.00000000    0.00000000    0.00000000
     atom    6 type  1   force =     0.00000000    0.00000000    0.00000000
     atom    7 type  2   force =     0.00000000    0.00000000    0.00000000
     atom    8 type  2   force =     0.00000000    0.00000000    0.00000000
     atom    9 type  3   force =     0.00000000    0.00000000    0.00000000
     atom   10 type  3   force =     0.00000000    0.00000000    0.00000000
     atom   11 type  4   force =     0.00000000    0.00000000    0.00000000
     atom   12 type  4   force =     0.00000000    0.00000000    0.00000000
     atom   13 type  4   force =     0.00000000    0.00000000    0.00000000
     atom   14 type  4   force =     0.00000000    0.00000000    0.00000000
     atom   15 type  4   force =     0.00000000    0.00000000    0.00000000
     atom   16 type  4   force =     0.00000000    0.00000000    0.00000000
     The SCF correction term to forces
     atom    1 type  1   force =    -0.00014745   -0.00030263    0.00001352
     atom    2 type  1   force =    -0.00001611    0.00022826   -0.00012647
     atom    3 type  1   force =    -0.00003682    0.00023577    0.00012506
     atom    4 type  1   force =     0.00002842   -0.00021730   -0.00006261
     atom    5 type  1   force =    -0.00006690    0.00021098   -0.00003388
     atom    6 type  1   force =     0.00002494   -0.00018889    0.00005975
     atom    7 type  2   force =     0.00016942   -0.00071152   -0.00000699
     atom    8 type  2   force =     0.00016518    0.00074913    0.00008300
     atom    9 type  3   force =     0.00015556    0.00019864    0.00001060
     atom   10 type  3   force =    -0.00003206   -0.00016812   -0.00000571
     atom   11 type  4   force =    -0.00003001   -0.00015651    0.00007268
     atom   12 type  4   force =    -0.00005348    0.00014051   -0.00008632
     atom   13 type  4   force =    -0.00005920    0.00013051    0.00010651
     atom   14 type  4   force =    -0.00003355   -0.00014431   -0.00008469
     atom   15 type  4   force =     0.00003623   -0.00017805    0.00001019
     atom   16 type  4   force =     0.00004305    0.00019724   -0.00000794

     Total force =     0.111725     Total SCF correction =     0.001347

     Computing stress (Cartesian axis) and pressure

          total   stress  (Ry/bohr**3)                   (kbar)     P=     -225.17
  -0.00137061   0.00000000   0.00000000         -201.62        0.00        0.00
   0.00000000  -0.00160248   0.00000000            0.00     -235.73        0.00
   0.00000000   0.00000000  -0.00161898            0.00        0.00     -238.16

     kinetic stress (kbar)  17300.94      0.00      0.00
                                0.00  17053.07      0.00
                                0.00      0.00  17061.74

     local   stress (kbar)   8005.48     -0.01      0.00
                               -0.01   9438.48      0.00
                                0.00      0.00   8877.50

     nonloc. stress (kbar) -16543.92      0.00      0.00
                                0.00 -16525.83      0.00
                                0.00      0.00 -16525.48

     hartree stress (kbar)  11319.98      0.00     -0.00
                                0.00  10744.15     -0.00
                               -0.00     -0.00  11006.95

     exc-cor stress (kbar)  -4235.92      0.00      0.00
                                0.00  -4238.62      0.00
                                0.00      0.00  -4238.72

     corecor stress (kbar)   -270.66      0.00     -0.00
                                0.00   -269.63     -0.00
                               -0.00     -0.00   -269.70

     ewald   stress (kbar) -15777.53     -0.00      0.00
                               -0.00 -16437.36     -0.00
                                0.00     -0.00 -16150.46

     hubbard stress (kbar)      0.00      0.00      0.00
                                0.00      0.00      0.00
                                0.00      0.00      0.00

     DFT-D   stress (kbar)      0.00      0.00      0.00
                                0.00      0.00      0.00
                                0.00      0.00      0.00

     XDM     stress (kbar)      0.00      0.00      0.00
                                0.00      0.00      0.00
                                0.00      0.00      0.00

     dft-nl  stress (kbar)      0.00      0.00      0.00
                                0.00      0.00      0.00
                                0.00      0.00      0.00

     TS-vdW  stress (kbar)      0.00      0.00      0.00
                                0.00      0.00      0.00
                                0.00      0.00      0.00

[...]

                                0.00      0.00      0.00

     Writing all to output data dir new_calculations/myprefix.save/

     General routines

     Parallel routines

     PAW routines

   This run was terminated on:  22:45:46  20May2023

   JOB DONE.