     Program PWSCF v.7.0 starts on 20May2023 at 18:23:58

     Reading input from espresso_6478.pwi
Warning: card &CELL ignored
Warning: card / ignored

     Current dimensions of program PWSCF are:
     Max number of different atomic species (ntypx) = 10
     Max number of k-points (npk) =  40000
     Max angular momentum in pseudopotentials (lmaxx) =  4
     file Ga.pbe-dn-kjpaw_psl.1.0.0.UPF: wavefunction(s)  4S renormalized

     gamma-point specific algorithms are used

     Subspace diagonalization in iterative solution of the eigenvalue problem:
     a serial algorithm will be used

     Using Slab Decomposition

     bravais-lattice index     =            0
     lattice parameter (alat)  =      12.3290  a.u.
     unit-cell volume          =     770.8806 (a.u.)^3
     number of atoms/cell      =            5
     number of atomic types    =            2
     number of electrons       =        44.00
     number of Kohn-Sham states=           26
     kinetic-energy cutoff     =      30.0000  Ry
     charge density cutoff     =     240.0000  Ry
     scf convergence threshold =      1.0E-06
     mixing beta               =       0.7000
     number of iterations used =            8  plain     mixing
     Exchange-correlation=  SLA  PW   PBX  PBC
                           (   1   4   3   4   0   0   0)

     celldm(1)=  12.328985  celldm(2)=   0.000000  celldm(3)=   0.000000
     celldm(4)=   0.000000  celldm(5)=   0.000000  celldm(6)=   0.000000

     crystal axes: (cart. coord. in units of alat)
               a(1) = (   1.000000   0.000000   0.000000 )
               a(2) = (   0.486614   0.873617   0.000000 )
               a(3) = (  -0.648533  -0.598083   0.470852 )

     reciprocal axes: (cart. coord. in units 2 pi/alat)
               b(1) = (  1.000000 -0.557011  0.669838 )
               b(2) = (  0.000000  1.144666  1.453974 )
               b(3) = (  0.000000  0.000000  2.123811 )

     PseudoPot. # 1 for Ga read from file:
     /home/pragov/projects/rrg-bengioy-ad/pragov/crystal_structure_design/SSSP/Ga.pbe-dn-kjpaw_psl.1.0.0.UPF
     MD5 check sum: a27b4342b1af7e5f338de752e9ed7044
     Pseudo is Projector augmented-wave + core cor, Zval = 13.0
     Generated using "atomic" code by A. Dal Corso  v.5.1
     Shape of augmentation charge: PSQ
     Using radial grid of 1205 points,  6 beta functions with:
                l(1) =   0
                l(2) =   0
                l(3) =   1
                l(4) =   1
                l(5) =   2
                l(6) =   2
     Q(r) pseudized with 0 coefficients

     PseudoPot. # 2 for S  read from file:
     /home/pragov/projects/rrg-bengioy-ad/pragov/crystal_structure_design/SSSP/s_pbe_v1.4.uspp.F.UPF
     MD5 check sum: 88d86576ff6df21479756cfb9bdac1df
     Pseudo is Ultrasoft + core correction, Zval =  6.0
     Generated by new atomic code, or converted to UPF format
     Using radial grid of  907 points,  6 beta functions with:
                l(1) =   0
                l(2) =   0
                l(3) =   1
                l(4) =   1
                l(5) =   2
                l(6) =   2
     Q(r) pseudized with  8 coefficients,  rinner =    1.300   1.300   1.300
                                                       1.300   1.300

     atomic species   valence    mass     pseudopotential
        Ga            13.00    69.72300     Ga( 1.00)
        S              6.00    32.06000     S ( 1.00)

     No symmetry found

                                    s                        frac. trans.

      isym =  1     identity

 cryst.   s( 1) = (     1          0          0      )
                  (     0          1          0      )
                  (     0          0          1      )

 cart.    s( 1) = (  1.0000000  0.0000000 -0.0000000 )
                  (  0.0000000  1.0000000  0.0000000 )
                  (  0.0000000  0.0000000  1.0000000 )

   Cartesian axes

     site n.     atom                  positions (alat units)
         1           Ga  tau(   1) = (   0.5972672   0.1402434   0.4672086  )
         2           Ga  tau(   2) = (  -0.4131576  -0.4535384   0.4672086  )
         3           S   tau(   3) = (  -0.2382278  -0.1603783   0.3558122  )
         4           S   tau(   4) = (   0.2560347   0.1300784   0.3558122  )
         5           S   tau(   5) = (   0.7516613   0.4225922   0.3550772  )

   Crystallographic axes

     site n.     atom                  positions (cryst. coord.)
         1           Ga  tau(   1) = (  0.8321040  0.8398410  0.9922630  )
         2           Ga  tau(   2) = (  0.1524220  0.1601590  0.9922630  )
         3           S   tau(   3) = (  0.0894410  0.3337620  0.7556780  )
         4           S   tau(   4) = (  0.4219160  0.6662380  0.7556780  )
         5           S   tau(   5) = (  0.7541170  1.0000000  0.7541170  )

     number of k points=     1  Methfessel-Paxton smearing, width (Ry)=  0.0010
                       cart. coord. in units 2pi/alat
        k(    1) = (   0.0000000   0.0000000   0.0000000), wk =   2.0000000

                       cryst. coord.
        k(    1) = (   0.0000000   0.0000000   0.0000000), wk =   2.0000000

     Check: negative core charge=   -0.000002

     Initial potential from superposition of free atoms

     starting charge      43.9940, renormalised to      44.0000
     Starting wfcs are   30 randomized atomic wfcs
     Checking if some PAW data can be deallocated...

     Self-consistent Calculation

     iteration #  1     ecut=    30.00 Ry     beta= 0.70
     Davidson diagonalization with overlap

     ethr =  1.00E-02,  avg # of iterations =  3.0

     total energy              =    -627.56595912 Ry
     estimated scf accuracy    <       0.49323822 Ry

[...]

     total energy              =    -627.80048610 Ry
     estimated scf accuracy    <       0.00000128 Ry

     iteration #  9     ecut=    30.00 Ry     beta= 0.70
     Davidson diagonalization with overlap

     ethr =  2.90E-09,  avg # of iterations =  2.0

     End of self-consistent calculation

          k = 0.0000 0.0000 0.0000 (  1067 PWs)   bands (ev):

   -10.2111 -10.1999 -10.0629 -10.0513 -10.0400 -10.0209 -10.0160 -10.0130
    -9.9171  -9.9154  -8.5496  -6.7217  -6.0464  -1.9029   0.9429   1.5031
     1.5566   2.6868   3.6269   4.7210   4.7289   5.5726   6.7441   8.1944
     9.6970  10.5545

     occupation numbers
     1.0000   1.0000   1.0000   1.0000   1.0000   1.0000   1.0000   1.0000
     1.0000   1.0000   1.0000   1.0000   1.0000   1.0000   1.0000   1.0000
     1.0000   1.0000   1.0000   1.0000   1.0000   1.0000  -0.0000  -0.0000
    -0.0000  -0.0000

     the Fermi energy is     6.0886 ev

!    total energy              =    -627.80048636 Ry
     estimated scf accuracy    <       0.00000011 Ry
     smearing contrib. (-TS)   =       0.00000000 Ry
     internal energy E=F+TS    =    -627.80048636 Ry

     The total energy is F=E-TS. E is the sum of the following terms:
     one-electron contribution =    -271.25812863 Ry
     hartree contribution      =     168.17675267 Ry
     xc contribution           =    -101.78858055 Ry
     ewald contribution        =    -201.00395937 Ry
     one-center paw contrib.   =    -221.92657049 Ry
      -> PAW hartree energy AE =     278.98276248 Ry
      -> PAW hartree energy PS =    -274.63019564 Ry
      -> PAW xc energy AE      =    -301.45447747 Ry
      -> PAW xc energy PS      =      75.17534014 Ry
      -> total E_H with PAW    =     172.52931951 Ry
      -> total E_XC with PAW   =    -328.06771787 Ry

     convergence has been achieved in   9 iterations

     Forces acting on atoms (cartesian axes, Ry/au):

     atom    1 type  1   force =    -0.01342273    0.02758764   -0.02087293
     atom    2 type  1   force =    -0.01752784    0.02534257   -0.02065916
     atom    3 type  2   force =     0.04714780   -0.02732337    0.03212249
     atom    4 type  2   force =     0.00068524   -0.05450102    0.03219937
     atom    5 type  2   force =    -0.01688247    0.02889418   -0.02278978
     The non-local contrib.  to forces
     atom    1 type  1   force =     0.05113197   -0.48312045    0.30040126
     atom    2 type  1   force =     0.39675649   -0.27944115    0.30032412
     atom    3 type  2   force =    -0.32806116    0.05988247   -0.14792034
     atom    4 type  2   force =     0.10739675    0.31608471   -0.14801889
     atom    5 type  2   force =     0.16448647   -0.28025378    0.22055787
     The ionic contribution  to forces
     atom    1 type  1   force =     1.03160142    0.37145354    0.13736869
     atom    2 type  1   force =    -0.82652991   -0.72044643    0.13736411
     atom    3 type  2   force =     5.52468690   -0.21609658    2.02632680
     atom    4 type  2   force =    -2.49959926   -4.93161031    2.02631159
     atom    5 type  2   force =    -3.23015915    5.49669978   -4.32737119
     The local contribution  to forces
     atom    1 type  1   force =    -1.09464593    0.12891960   -0.45195588
     atom    2 type  1   force =     0.42056008    1.01923440   -0.45196773
     atom    3 type  2   force =    -5.16702925    0.13218286   -1.85426025
     atom    4 type  2   force =     2.39862854    4.57785284   -1.85398581
     atom    5 type  2   force =     3.05766823   -5.20312516    4.09619828
     The core correction contribution to forces
     atom    1 type  1   force =    -0.00079238    0.01049459   -0.00643133
     atom    2 type  1   force =    -0.00878574    0.00579816   -0.00642297
     atom    3 type  2   force =     0.01755074   -0.00303975    0.00779015
     atom    4 type  2   force =    -0.00592882   -0.01684539    0.00786298
     atom    5 type  2   force =    -0.00879770    0.01523526   -0.01195096
     The Hubbard contrib.    to forces
     atom    1 type  1   force =     0.00000000    0.00000000    0.00000000
     atom    2 type  1   force =     0.00000000    0.00000000    0.00000000
     atom    3 type  2   force =     0.00000000    0.00000000    0.00000000
     atom    4 type  2   force =     0.00000000    0.00000000    0.00000000
     atom    5 type  2   force =     0.00000000    0.00000000    0.00000000
     The SCF correction term to forces
     atom    1 type  1   force =    -0.00074874   -0.00015238   -0.00025441
     atom    2 type  1   force =     0.00044030    0.00020485    0.00004457
     atom    3 type  2   force =    -0.00003036   -0.00024510    0.00018738
     atom    4 type  2   force =     0.00015709    0.00002438    0.00003077
     atom    5 type  2   force =    -0.00011125    0.00034535   -0.00022252

     Total force =     0.111362     Total SCF correction =     0.001091

     Computing stress (Cartesian axis) and pressure

          total   stress  (Ry/bohr**3)                   (kbar)     P=      125.64
   0.00044054  -0.00035694  -0.00015074           64.81      -52.51      -22.18
  -0.00035694   0.00083988   0.00026196          -52.51      123.55       38.54
  -0.00015074   0.00026196   0.00128185          -22.18       38.54      188.57

     kinetic stress (kbar)   6783.69    -68.47    -95.91
                              -68.47   6864.50    162.15
                              -95.91    162.15   7050.77

     local   stress (kbar)  -3235.64    147.82   1529.09
                              147.82  -3400.04  -2601.46
                             1529.09  -2601.46  -5884.50

     nonloc. stress (kbar)   3458.44     -2.85    -36.63
                               -2.85   3457.13     63.82
                              -36.63     63.82   3519.52

     hartree stress (kbar)  10251.25    -87.90   -696.12
                              -87.90  10349.11   1184.28
                             -696.12   1184.28  11492.35

     exc-cor stress (kbar)   3782.49      1.96      0.22
                                1.96   3780.29     -0.39
                                0.22     -0.39   3778.79

     corecor stress (kbar)  -7768.57      1.14      3.51
                                1.14  -7769.78     -5.90
                                3.51     -5.90  -7775.84

     ewald   stress (kbar) -13206.86    -44.21   -726.35
                              -44.21 -13157.66   1236.03
                             -726.35   1236.03 -11992.52

     hubbard stress (kbar)      0.00      0.00      0.00
                                0.00      0.00      0.00
                                0.00      0.00      0.00

     DFT-D   stress (kbar)      0.00      0.00      0.00
                                0.00      0.00      0.00
                                0.00      0.00      0.00

     XDM     stress (kbar)      0.00      0.00      0.00
                                0.00      0.00      0.00
                                0.00      0.00      0.00

     dft-nl  stress (kbar)      0.00      0.00      0.00
                                0.00      0.00      0.00
                                0.00      0.00      0.00

     TS-vdW  stress (kbar)      0.00      0.00      0.00
                                0.00      0.00      0.00
                                0.00      0.00      0.00

[...]

                                0.00      0.00      0.00

     Writing all to output data dir new_calculations/myprefix.save/

     General routines

     Parallel routines

     PAW routines

   This run was terminated on:  18:24:16  20May2023

   JOB DONE.