     Program PWSCF v.7.0 starts on 21May2023 at  4:56:52

     Reading input from espresso_2956.pwi
Warning: card &CELL ignored
Warning: card / ignored

     Current dimensions of program PWSCF are:
     Max number of different atomic species (ntypx) = 10
     Max number of k-points (npk) =  40000
     Max angular momentum in pseudopotentials (lmaxx) =  4

     gamma-point specific algorithms are used
     Message from routine setup:
     using ibrav=0 with symmetry is DISCOURAGED, use correct ibrav instead

     Subspace diagonalization in iterative solution of the eigenvalue problem:
     a serial algorithm will be used

     Using Slab Decomposition

     bravais-lattice index     =            0
     lattice parameter (alat)  =       6.7444  a.u.
     unit-cell volume          =     406.5840 (a.u.)^3
     number of atoms/cell      =            3
     number of atomic types    =            3
     number of electrons       =        41.00
     number of Kohn-Sham states=           25
     kinetic-energy cutoff     =      30.0000  Ry
     charge density cutoff     =     240.0000  Ry
     scf convergence threshold =      1.0E-06
     mixing beta               =       0.7000
     number of iterations used =            8  plain     mixing
     Exchange-correlation=  SLA  PW   PBX  PBC
                           (   1   4   3   4   0   0   0)

     celldm(1)=   6.744359  celldm(2)=   0.000000  celldm(3)=   0.000000
     celldm(4)=   0.000000  celldm(5)=   0.000000  celldm(6)=   0.000000

     crystal axes: (cart. coord. in units of alat)
               a(1) = (   1.000000   0.000000   0.000000 )
               a(2) = (   0.000000   1.237038   0.000000 )
               a(3) = (   0.000000   0.621482   1.071384 )

     reciprocal axes: (cart. coord. in units 2 pi/alat)
               b(1) = (  1.000000  0.000000  0.000000 )
               b(2) = (  0.000000  0.808383 -0.468922 )
               b(3) = (  0.000000  0.000000  0.933372 )

     PseudoPot. # 1 for Y  read from file:
     /home/pragov/projects/rrg-bengioy-ad/pragov/crystal_structure_design/SSSP/Y_pbe_v1.uspp.F.UPF
     MD5 check sum: 2cf71db95cafeb975fc457bd7f14888e
     Pseudo is Ultrasoft + core correction, Zval = 11.0
     Generated by new atomic code, or converted to UPF format
     Using radial grid of  885 points,  6 beta functions with:
                l(1) =   0
                l(2) =   0
                l(3) =   1
                l(4) =   1
                l(5) =   2
                l(6) =   2
     Q(r) pseudized with  6 coefficients,  rinner =    1.200   1.200   1.200
                                                       1.200   1.200

     PseudoPot. # 2 for Ge read from file:
     /home/pragov/projects/rrg-bengioy-ad/pragov/crystal_structure_design/SSSP/ge_pbe_v1.4.uspp.F.UPF
     MD5 check sum: 9c9eaa91e581c3f09632fb3098b2c6b2
     Pseudo is Ultrasoft + core correction, Zval = 14.0
     Generated by new atomic code, or converted to UPF format
     Using radial grid of  873 points,  6 beta functions with:
                l(1) =   0
                l(2) =   0
                l(3) =   1
                l(4) =   1
                l(5) =   2
                l(6) =   2
     Q(r) pseudized with  8 coefficients,  rinner =    1.400   1.400   1.400
                                                       1.400   1.400

     PseudoPot. # 3 for Pt read from file:
     /home/pragov/projects/rrg-bengioy-ad/pragov/crystal_structure_design/SSSP/pt_pbe_v1.4.uspp.F.UPF
     MD5 check sum: f09d6de1a584b5a045c4fc126da2d0c4
     Pseudo is Ultrasoft + core correction, Zval = 16.0
     Generated by new atomic code, or converted to UPF format
     Using radial grid of  985 points,  6 beta functions with:
                l(1) =   0
                l(2) =   0
                l(3) =   1
                l(4) =   1
                l(5) =   2
                l(6) =   2
     Q(r) pseudized with  8 coefficients,  rinner =    1.300   1.300   1.300
                                                       1.300   1.300

     atomic species   valence    mass     pseudopotential
        Y             11.00    88.90584     Y ( 1.00)
        Ge            14.00    72.63000     Ge( 1.00)
        Pt            16.00   195.08400     Pt( 1.00)

      2 Sym. Ops. (no inversion) found

                                    s                        frac. trans.

      isym =  1     identity

 cryst.   s( 1) = (     1          0          0      )
                  (     0          1          0      )
                  (     0          0          1      )

 cart.    s( 1) = (  1.0000000  0.0000000  0.0000000 )
                  (  0.0000000  1.0000000  0.0000000 )
                  (  0.0000000  0.0000000  1.0000000 )

      isym =  2     inv. 180 deg rotation - cart. axis [1,0,0]

 cryst.   s( 2) = (    -1          0          0      )
                  (     0          1          0      )
                  (     0          0          1      )

 cart.    s( 2) = ( -1.0000000  0.0000000  0.0000000 )
                  (  0.0000000  1.0000000  0.0000000 )
                  (  0.0000000  0.0000000  1.0000000 )

   Cartesian axes

     site n.     atom                  positions (alat units)
         1           Y   tau(   1) = (   0.0000000   0.6222222   1.0709160  )
         2           Ge  tau(   2) = (   0.5000000   1.2381678   0.7144976  )
         3           Pt  tau(   3) = (   0.5000000   0.6195490   0.3574620  )

   Crystallographic axes

     site n.     atom                  positions (cryst. coord.)
         1           Y   tau(   1) = (  0.0000000  0.0008180  0.9995630  )
         2           Ge  tau(   2) = (  0.5000000  0.6658700  0.6668920  )
         3           Pt  tau(   3) = (  0.5000000  0.3332110  0.3336450  )

     number of k points=     1  Methfessel-Paxton smearing, width (Ry)=  0.0010
                       cart. coord. in units 2pi/alat
        k(    1) = (   0.0000000   0.0000000   0.0000000), wk =   2.0000000

                       cryst. coord.
        k(    1) = (   0.0000000   0.0000000   0.0000000), wk =   2.0000000

     Check: negative core charge=   -0.000003

     Initial potential from superposition of free atoms

     starting charge      40.4946, renormalised to      41.0000

     negative rho (up, down):  2.266E-01 0.000E+00
     Starting wfcs are   34 randomized atomic wfcs

     Self-consistent Calculation

     iteration #  1     ecut=    30.00 Ry     beta= 0.70
     Davidson diagonalization with overlap

     ethr =  1.00E-02,  avg # of iterations =  2.0

     negative rho (up, down):  2.038E-01 0.000E+00

     total energy              =    -510.50874589 Ry
     estimated scf accuracy    <       2.01415135 Ry

[...]

     total energy              =    -511.69816949 Ry
     estimated scf accuracy    <       0.00000209 Ry

     iteration # 15     ecut=    30.00 Ry     beta= 0.70
     Davidson diagonalization with overlap

     ethr =  5.11E-09,  avg # of iterations =  1.0

[...]

     End of self-consistent calculation

          k = 0.0000 0.0000 0.0000 (   567 PWs)   bands (ev):

   -38.7914 -38.7696 -38.4107 -26.9799 -11.4473 -11.4246 -11.4111 -11.3622
   -11.3613  -7.0375  -7.0361  -6.9565   3.1506   9.1476   9.1528  10.3273
    11.4208  11.4437  14.0014  14.1183  14.1210  15.3900  16.8151  18.7534
    18.7663

     occupation numbers
     1.0000   1.0000   1.0000   1.0000   1.0000   1.0000   1.0000   1.0000
     1.0000   1.0000   1.0000   1.0000   1.0000   1.0000   1.0000   1.0000
     1.0000   1.0000   1.0000   0.8193   0.6807  -0.0000  -0.0000  -0.0000
    -0.0000

     the Fermi energy is    14.1239 ev

!    total energy              =    -511.69816953 Ry
     estimated scf accuracy    <       0.00000004 Ry
     smearing contrib. (-TS)   =      -0.00039918 Ry
     internal energy E=F+TS    =    -511.69777035 Ry

     The total energy is F=E-TS. E is the sum of the following terms:
     one-electron contribution =    -184.50857206 Ry
     hartree contribution      =     122.55413758 Ry
     xc contribution           =    -137.26349782 Ry
     ewald contribution        =    -312.47983804 Ry

     convergence has been achieved in  15 iterations

     negative rho (up, down):  2.097E-01 0.000E+00

     Forces acting on atoms (cartesian axes, Ry/au):

     atom    1 type  1   force =     0.00000000   -0.00851359   -0.00253835
     atom    2 type  2   force =     0.00000000   -0.01101658   -0.00357496
     atom    3 type  3   force =     0.00000000    0.01953017    0.00611331
     The non-local contrib.  to forces
     atom    1 type  1   force =     0.00000000    0.01366327    0.00185730
     atom    2 type  2   force =     0.00000000   -0.00389822   -0.00678618
     atom    3 type  3   force =     0.00000000    0.00523009   -0.00271318
     The ionic contribution  to forces
     atom    1 type  1   force =     0.00000000   -0.04591965    0.03564717
     atom    2 type  2   force =    -0.00000000    0.02584345   -0.00795628
     atom    3 type  3   force =    -0.00000000    0.02007620   -0.02769089
     The local contribution  to forces
     atom    1 type  1   force =     0.00003735    0.02490655   -0.04005911
     atom    2 type  2   force =    -0.00008956   -0.03294798    0.01128659
     atom    3 type  3   force =    -0.00000956   -0.01891452    0.03294341
     The core correction contribution to forces
     atom    1 type  1   force =     0.00000187   -0.00118548   -0.00014163
     atom    2 type  2   force =    -0.00000189   -0.00001975    0.00010896
     atom    3 type  3   force =     0.00000025    0.01333341    0.00328460
     The Hubbard contrib.    to forces
     atom    1 type  1   force =     0.00000000    0.00000000    0.00000000
     atom    2 type  2   force =     0.00000000    0.00000000    0.00000000
     atom    3 type  3   force =     0.00000000    0.00000000    0.00000000
     The SCF correction term to forces
     atom    1 type  1   force =    -0.00002146    0.00001958    0.00004323
     atom    2 type  2   force =     0.00009773    0.00000378   -0.00034274
     atom    3 type  3   force =     0.00000829   -0.00019717    0.00017468

     Total force =     0.025137     Total SCF correction =     0.000446

     Computing stress (Cartesian axis) and pressure

     negative rho (up, down):  2.097E-01 0.000E+00
          total   stress  (Ry/bohr**3)                   (kbar)     P=      -36.43
  -0.00377014   0.00000000   0.00000000         -554.61        0.00        0.00
   0.00000000   0.00154912   0.00011397            0.00      227.88       16.77
   0.00000000   0.00011397   0.00147807            0.00       16.77      217.43

     kinetic stress (kbar)  22679.62      0.00      0.00
                                0.00  23031.34     30.76
                                0.00     30.76  23013.43

     local   stress (kbar)  20575.22     -0.00      0.01
                               -0.00  -5490.58    -67.99
                                0.01    -67.99  -5463.64

     nonloc. stress (kbar)   5969.34      0.00      0.00
                                0.00   6037.79      5.67
                                0.00      5.67   6035.71

     hartree stress (kbar)   8073.03      0.00     -0.00
                                0.00  18140.91     36.48
                               -0.00     36.48  18127.04

     exc-cor stress (kbar)  20232.95      0.00     -0.00
                                0.00  20242.95      0.37
                               -0.00      0.37  20242.82

     corecor stress (kbar) -29483.93     -0.00      0.00
                               -0.00 -29508.36     -1.02
                                0.00     -1.02 -29507.44

     ewald   stress (kbar) -48600.86     -0.00      0.00
                               -0.00 -32226.17     12.49
                                0.00     12.49 -32230.47

     hubbard stress (kbar)      0.00      0.00      0.00
                                0.00      0.00      0.00
                                0.00      0.00      0.00

     DFT-D   stress (kbar)      0.00      0.00      0.00
                                0.00      0.00      0.00
                                0.00      0.00      0.00

     XDM     stress (kbar)      0.00      0.00      0.00
                                0.00      0.00      0.00
                                0.00      0.00      0.00

     dft-nl  stress (kbar)      0.00      0.00      0.00
                                0.00      0.00      0.00
                                0.00      0.00      0.00

     TS-vdW  stress (kbar)      0.00      0.00      0.00
                                0.00      0.00      0.00
                                0.00      0.00      0.00

[...]

                                0.00      0.00      0.00

     Writing all to output data dir new_calculations/myprefix.save/

     General routines

     Parallel routines

   This run was terminated on:   4:57:15  21May2023

   JOB DONE.