     Program PWSCF v.7.0 starts on 20May2023 at 11:57:42

     Reading input from espresso_12269.pwi
Warning: card &CELL ignored
Warning: card / ignored

     Current dimensions of program PWSCF are:
     Max number of different atomic species (ntypx) = 10
     Max number of k-points (npk) =  40000
     Max angular momentum in pseudopotentials (lmaxx) =  4
     file Ba.pbe-spn-kjpaw_psl.1.0.0.UPF: wavefunction(s)  5S 6S renormalized
     file O.pbe-n-kjpaw_psl.0.1.UPF: wavefunction(s)  2P renormalized

     gamma-point specific algorithms are used
     Message from routine setup:
     using ibrav=0 with symmetry is DISCOURAGED, use correct ibrav instead

     Subspace diagonalization in iterative solution of the eigenvalue problem:
     a serial algorithm will be used

     Using Slab Decomposition

     bravais-lattice index     =            0
     lattice parameter (alat)  =      11.5200  a.u.
     unit-cell volume          =    1081.0328 (a.u.)^3
     number of atoms/cell      =           10
     number of atomic types    =            4
     number of electrons       =        88.00
     number of Kohn-Sham states=           53
     kinetic-energy cutoff     =      30.0000  Ry
     charge density cutoff     =     240.0000  Ry
     scf convergence threshold =      1.0E-06
     mixing beta               =       0.7000
     number of iterations used =            8  plain     mixing
     Exchange-correlation= SLA  PW   PBX  PBC
                           (   1   4   3   4   0   0   0)

     celldm(1)=  11.519968  celldm(2)=   0.000000  celldm(3)=   0.000000
     celldm(4)=   0.000000  celldm(5)=   0.000000  celldm(6)=   0.000000

     crystal axes: (cart. coord. in units of alat)
               a(1) = (   1.000000   0.000000   0.000000 )
               a(2) = (   0.500000   0.866025   0.000000 )
               a(3) = (   0.500000   0.288675   0.816497 )

     reciprocal axes: (cart. coord. in units 2 pi/alat)
               b(1) = (  1.000000 -0.577350 -0.408248 )
               b(2) = (  0.000000  1.154701 -0.408248 )
               b(3) = (  0.000000  0.000000  1.224745 )

     PseudoPot. # 1 for Ba read from file:
     /home/pragov/projects/rrg-bengioy-ad/pragov/crystal_structure_design/SSSP/Ba.pbe-spn-kjpaw_psl.1.0.0.UPF
     MD5 check sum: c432291d3e53af55f19d5e8866385beb
     Pseudo is Projector augmented-wave + core cor, Zval = 10.0
     Generated using "atomic" code by A. Dal Corso  v.5.1
     Shape of augmentation charge: PSQ
     Using radial grid of 1251 points,  7 beta functions with:
                l(1) =   0
                l(2) =   0
                l(3) =   0
                l(4) =   1
                l(5) =   1
                l(6) =   2
                l(7) =   2
     Q(r) pseudized with 0 coefficients

     PseudoPot. # 2 for Eu read from file:
     /home/pragov/projects/rrg-bengioy-ad/pragov/crystal_structure_design/SSSP/Eu.GGA-PBE-paw-v1.0.UPF
     MD5 check sum: acec5fd9176fb57ec8e299eae1ecaf48
     Pseudo is Projector augmented-wave + core cor, Zval = 17.0
     Generated using ATOMPAW code
     Shape of augmentation charge: BESSEL
     Using radial grid of 1109 points,  8 beta functions with:
                l(1) =   0
                l(2) =   0
                l(3) =   1
                l(4) =   1
                l(5) =   2
                l(6) =   2
                l(7) =   3
                l(8) =   3
     Q(r) pseudized with 0 coefficients

     PseudoPot. # 3 for Sb read from file:
     /home/pragov/projects/rrg-bengioy-ad/pragov/crystal_structure_design/SSSP/sb_pbe_v1.4.uspp.F.UPF
     MD5 check sum: 9bc50dfb53373b713f5709b9110fe27f
     Pseudo is Ultrasoft + core correction, Zval = 15.0
     Generated by new atomic code, or converted to UPF format
     Using radial grid of  891 points,  6 beta functions with:
                l(1) =   0
                l(2) =   0
                l(3) =   1
                l(4) =   1
                l(5) =   2
                l(6) =   2
     Q(r) pseudized with  8 coefficients,  rinner =    1.350   1.350   1.350
                                                       1.350   1.350

     PseudoPot. # 4 for O  read from file:
     /home/pragov/projects/rrg-bengioy-ad/pragov/crystal_structure_design/SSSP/O.pbe-n-kjpaw_psl.0.1.UPF
     MD5 check sum: 0234752ac141de4415c5fc33072bef88
     Pseudo is Projector augmented-wave + core cor, Zval =  6.0
     Generated using "atomic" code by A. Dal Corso  v.5.0.99 svn rev. 10869
     Shape of augmentation charge: BESSEL
     Using radial grid of 1095 points,  4 beta functions with:
                l(1) =   0
                l(2) =   0
                l(3) =   1
                l(4) =   1
     Q(r) pseudized with 0 coefficients

     atomic species   valence    mass     pseudopotential
        Ba            10.00   137.32700     Ba( 1.00)
        Eu            17.00   151.96400     Eu( 1.00)
        Sb            15.00   121.76000     Sb( 1.00)
        O              6.00    15.99900     O ( 1.00)

     12 Sym. Ops., with inversion, found

                                    s                        frac. trans.

      isym =  1     identity

 cryst.   s( 1) = (     1          0          0      )
                  (     0          1          0      )
                  (     0          0          1      )

 cart.    s( 1) = (  1.0000000  0.0000000  0.0000000 )
                  (  0.0000000  1.0000000 -0.0000000 )
                  (  0.0000000  0.0000000  1.0000000 )

      isym =  2     180 deg rotation - cart. axis [1,0,0]

[...]

      isym =  3     120 deg rotation - cryst. axis [0,0,1]

[...]

      isym =  6     180 deg rotation - cryst. axis [1,1,0]

[...]

      isym =  7     inversion

[...]

      isym =  8     inv. 180 deg rotation - cart. axis [1,0,0]

[...]

      isym =  9     inv. 120 deg rotation - cryst. axis [0,0,1]

 cryst.   s( 9) = (     1         -1          0      )
                  (     1          0          0      )
                  (     1          0         -1      )

 cart.    s( 9) = (  0.5000000  0.8660254 -0.0000000 )
                  ( -0.8660254  0.5000000 -0.0000000 )
                  (  0.0000000  0.0000000 -1.0000000 )

[...]

 cryst.   s(10) = (     0          1          0      )
                  (    -1          1          0      )
                  (     0          1         -1      )

 cart.    s(10) = (  0.5000000 -0.8660254  0.0000000 )
                  (  0.8660254  0.5000000 -0.0000000 )
                  (  0.0000000  0.0000000 -1.0000000 )

[...]

      isym = 12     inv. 180 deg rotation - cryst. axis [1,1,0]

 cryst.   s(12) = (     1         -1          0      )
                  (     0         -1          0      )
                  (     0         -1          1      )

 cart.    s(12) = (  0.5000000 -0.8660254  0.0000000 )
                  ( -0.8660254 -0.5000000  0.0000000 )
                  (  0.0000000  0.0000000  1.0000000 )

   Cartesian axes

     site n.     atom                  positions (alat units)
         1           Ba  tau(   1) = (   1.5000000   0.8660254   0.6123724  )
         2           Ba  tau(   2) = (   0.5000000   0.2886751   0.2041241  )
         3           Eu  tau(   3) = (   1.0000000   0.5773503   0.4082483  )
         4           Sb  tau(   4) = (   0.0000000   0.0000000   0.0000000  )
         5           O   tau(   5) = (   1.2659360   0.4238120   0.6253841  )
         6           O   tau(   6) = (   0.7340640   0.4238120   0.6253841  )
         7           O   tau(   7) = (   1.2659360   0.7308885   0.1911125  )
         8           O   tau(   8) = (   1.0000000   0.2702738   0.1911125  )
         9           O   tau(   9) = (   0.7340640   0.7308885   0.1911125  )
        10           O   tau(  10) = (   1.0000000   0.8844267   0.6253841  )

   Crystallographic axes

     site n.     atom                  positions (cryst. coord.)
         1           Ba  tau(   1) = (  0.7500000  0.7500000  0.7500000  )
         2           Ba  tau(   2) = (  0.2500000  0.2500000  0.2500000  )
         3           Eu  tau(   3) = (  0.5000000  0.5000000  0.5000000  )
         4           Sb  tau(   4) = (  0.0000000  0.0000000  0.0000000  )
         5           O   tau(   5) = (  0.7659360  0.2340640  0.7659360  )
         6           O   tau(   6) = (  0.2340640  0.2340640  0.7659360  )
         7           O   tau(   7) = (  0.7659360  0.7659360  0.2340640  )
         8           O   tau(   8) = (  0.7659360  0.2340640  0.2340640  )
         9           O   tau(   9) = (  0.2340640  0.7659360  0.2340640  )
        10           O   tau(  10) = (  0.2340640  0.7659360  0.7659360  )

     number of k points=     1  Methfessel-Paxton smearing, width (Ry)=  0.0010
                       cart. coord. in units 2pi/alat
        k(    1) = (   0.0000000   0.0000000   0.0000000), wk =   2.0000000

                       cryst. coord.
        k(    1) = (   0.0000000   0.0000000   0.0000000), wk =   2.0000000

     Check: negative core charge=   -0.000010

     Initial potential from superposition of free atoms

     starting charge      86.9612, renormalised to      88.0000
     Starting wfcs are   75 randomized atomic wfcs
     Checking if some PAW data can be deallocated...

     Self-consistent Calculation

     iteration #  1     ecut=    30.00 Ry     beta= 0.70
     Davidson diagonalization with overlap

     ethr =  1.00E-02,  avg # of iterations =  4.0

     WARNING: integrated charge=    88.00176472, expected=    88.00000000

     total energy              =   -1947.71120828 Ry
     estimated scf accuracy    <       2.79316318 Ry

[...]

     WARNING: integrated charge=    87.99997399, expected=    88.00000000

[...]

     total energy              =   -1949.38744478 Ry
     estimated scf accuracy    <       0.00000350 Ry

     iteration # 41     ecut=    30.00 Ry     beta= 0.70
     Davidson diagonalization with overlap

     ethr =  3.98E-09,  avg # of iterations =  3.0

     End of self-consistent calculation

          k = 0.0000 0.0000 0.0000 (  1488 PWs)   bands (ev):

   -28.5448 -18.3168 -18.3168 -18.1620 -18.1620 -18.1620 -16.7613 -16.6826
    -8.3277  -8.3275  -8.3263  -7.5485  -5.6343  -5.6342  -5.4133  -5.4131
    -5.4126  -2.1303  -2.1303  -2.1303  -1.8049  -1.8049  -1.8049   2.4520
     6.6712   6.6713   6.6715   7.8916   7.8916   7.8917   8.0740   8.0742
     9.0343   9.0344   9.0344   9.3530   9.3530   9.3531  10.0870  10.0870
    10.0871  12.1649  12.1673  12.1674  12.4305  12.4306  12.4325  12.6450
    13.4340  13.7389  13.7390  14.8344  14.8344

     occupation numbers
     1.0000   1.0000   1.0000   1.0000   1.0000   1.0000   1.0000   1.0000
     1.0000   1.0000   1.0000   1.0000   1.0000   1.0000   1.0000   1.0000
     1.0000   1.0000   1.0000   1.0000   1.0000   1.0000   1.0000   1.0000
     1.0000   1.0000   1.0000   1.0000   1.0000   1.0000   1.0000   1.0000
     1.0000   1.0000   1.0000   1.0000   1.0000   1.0000   1.0000   1.0000
     1.0000   1.0000   1.0000   1.0000  -0.0000  -0.0000  -0.0000  -0.0000
    -0.0000  -0.0000  -0.0000  -0.0000  -0.0000

     the Fermi energy is    12.2423 ev

!    total energy              =   -1949.38744499 Ry
     estimated scf accuracy    <       0.00000094 Ry
     smearing contrib. (-TS)   =       0.00000000 Ry
     internal energy E=F+TS    =   -1949.38744499 Ry

     The total energy is F=E-TS. E is the sum of the following terms:
     one-electron contribution =    -238.36708745 Ry
     hartree contribution      =     184.42064591 Ry
     xc contribution           =    -150.42116405 Ry
     ewald contribution        =    -480.74482838 Ry
     one-center paw contrib.   =   -1264.27501102 Ry
      -> PAW hartree energy AE =     397.12860150 Ry
      -> PAW hartree energy PS =    -389.34370290 Ry
      -> PAW xc energy AE      =   -1375.37585356 Ry
      -> PAW xc energy PS      =     103.31594394 Ry
      -> total E_H with PAW    =     192.20554451 Ry
      -> total E_XC with PAW   =   -1422.48107368 Ry

     convergence has been achieved in  41 iterations

     Forces acting on atoms (cartesian axes, Ry/au):

     atom    1 type  1   force =     0.00000000   -0.00000000   -0.00005389
     atom    2 type  1   force =    -0.00000000    0.00000000    0.00005389
     atom    3 type  2   force =    -0.00000000   -0.00000000    0.00000000
     atom    4 type  3   force =    -0.00000000   -0.00000000   -0.00000000
     atom    5 type  4   force =     0.00492934   -0.00284595    0.00401764
     atom    6 type  4   force =    -0.00492934   -0.00284595    0.00401764
     atom    7 type  4   force =     0.00492934    0.00284595   -0.00401764
     atom    8 type  4   force =     0.00000000   -0.00569191   -0.00401764
     atom    9 type  4   force =    -0.00492934    0.00284595   -0.00401764
     atom   10 type  4   force =     0.00000000    0.00569191    0.00401764
     The non-local contrib.  to forces
     atom    1 type  1   force =    -0.00000000    0.00000000   -0.00009102
     atom    2 type  1   force =    -0.00000000    0.00000000    0.00009102
     atom    3 type  2   force =     0.00000000    0.00000000    0.00000000
     atom    4 type  3   force =     0.00000000    0.00000000    0.00000000
     atom    5 type  4   force =     0.43760984   -0.25265416    0.35729463
     atom    6 type  4   force =    -0.43760984   -0.25265416    0.35729463
     atom    7 type  4   force =     0.43760984    0.25265416   -0.35729463
     atom    8 type  4   force =     0.00000000   -0.50530832   -0.35729463
     atom    9 type  4   force =    -0.43760984    0.25265416   -0.35729463
     atom   10 type  4   force =     0.00000000    0.50530832    0.35729463
     The ionic contribution  to forces
     atom    1 type  1   force =    -0.00000000   -0.00000000    0.00000000
     atom    2 type  1   force =    -0.00000000    0.00000000    0.00000000
     atom    3 type  2   force =    -0.00000000    0.00000000   -0.00000000
     atom    4 type  3   force =    -0.00000000   -0.00000000   -0.00000000
     atom    5 type  4   force =    -2.50320503    1.44522610   -2.04385835
     atom    6 type  4   force =     2.50320503    1.44522610   -2.04385835
     atom    7 type  4   force =    -2.50320503   -1.44522610    2.04385835
     atom    8 type  4   force =     0.00000000    2.89045219    2.04385835
     atom    9 type  4   force =     2.50320503   -1.44522610    2.04385835
     atom   10 type  4   force =     0.00000000   -2.89045219   -2.04385835
     The local contribution  to forces
     atom    1 type  1   force =    -0.00067063    0.00010897   -0.00045238
     atom    2 type  1   force =    -0.00045502    0.00105726   -0.00037658
     atom    3 type  2   force =    -0.00001760   -0.00016043   -0.00003593
     atom    4 type  3   force =    -0.00002638    0.00002580    0.00001212
     atom    5 type  4   force =     2.07530897   -1.19820025    1.69439469
     atom    6 type  4   force =    -2.07529981   -1.19818868    1.69439446
     atom    7 type  4   force =     2.07533299    1.19818361   -1.69441296
     atom    8 type  4   force =    -0.00000118   -2.39641963   -1.69443488
     atom    9 type  4   force =    -2.07533114    1.19818694   -1.69441569
     atom   10 type  4   force =     0.00000466    2.39643010    1.69444835
     The core correction contribution to forces
     atom    1 type  1   force =    -0.00001462    0.00000496   -0.00000984
     atom    2 type  1   force =    -0.00001153    0.00002390   -0.00000986
     atom    3 type  2   force =    -0.00000000   -0.00000000   -0.00000000
     atom    4 type  3   force =     0.00000036   -0.00000062    0.00000041
     atom    5 type  4   force =    -0.00481301    0.00277875   -0.00392989
     atom    6 type  4   force =     0.00481268    0.00277855   -0.00392955
     atom    7 type  4   force =    -0.00481242   -0.00277869    0.00392957
     atom    8 type  4   force =    -0.00000002    0.00555765    0.00392971
     atom    9 type  4   force =     0.00481277   -0.00277877    0.00392956
     atom   10 type  4   force =     0.00000013   -0.00555768   -0.00392972
     The Hubbard contrib.    to forces
     atom    1 type  1   force =     0.00000000    0.00000000    0.00000000
     atom    2 type  1   force =     0.00000000    0.00000000    0.00000000
     atom    3 type  2   force =     0.00000000    0.00000000    0.00000000
     atom    4 type  3   force =     0.00000000    0.00000000    0.00000000
     atom    5 type  4   force =     0.00000000    0.00000000    0.00000000
     atom    6 type  4   force =     0.00000000    0.00000000    0.00000000
     atom    7 type  4   force =     0.00000000    0.00000000    0.00000000
     atom    8 type  4   force =     0.00000000    0.00000000    0.00000000
     atom    9 type  4   force =     0.00000000    0.00000000    0.00000000
     atom   10 type  4   force =     0.00000000    0.00000000    0.00000000
     The SCF correction term to forces
     atom    1 type  1   force =     0.00008004   -0.00002397    0.00012739
     atom    2 type  1   force =     0.00006128   -0.00013939   -0.00002265
     atom    3 type  2   force =     0.00003044    0.00017636    0.00003669
     atom    4 type  3   force =     0.00003197   -0.00003579   -0.00001585
     atom    5 type  4   force =     0.00002988    0.00000469    0.00011406
     atom    6 type  4   force =    -0.00005456   -0.00001905    0.00012647
     atom    7 type  4   force =     0.00003468    0.00001822   -0.00010521
     atom    8 type  4   force =    -0.00000030    0.00005165   -0.00006614
     atom    9 type  4   force =    -0.00001516    0.00000545   -0.00010469
     atom   10 type  4   force =     0.00000738   -0.00006721    0.00004850

     Total force =     0.017066     Total SCF correction =     0.000392

     Computing stress (Cartesian axis) and pressure

          total   stress  (Ry/bohr**3)                   (kbar)     P=     -225.40
  -0.00153196   0.00000000  -0.00000000         -225.36        0.00       -0.00
   0.00000000  -0.00153196   0.00000000            0.00     -225.36        0.00
   0.00000000   0.00000000  -0.00153282            0.00        0.00     -225.49

     kinetic stress (kbar)  17654.35      0.00      0.00
                                0.00  17654.35     -0.00
                                0.00     -0.00  17654.44

     local   stress (kbar)  -4963.64     -0.08      0.11
                               -0.08  -4963.09      0.39
                                0.11      0.39  -4963.37

     nonloc. stress (kbar)   5488.72      0.00      0.00
                                0.00   5488.72     -0.00
                                0.00     -0.00   5488.51

     hartree stress (kbar)   8365.33      0.04     -0.06
                                0.04   8365.10     -0.17
                               -0.06     -0.17   8365.22

     exc-cor stress (kbar)   2027.02      0.00     -0.00
                                0.00   2027.02     -0.00
                               -0.00     -0.00   2027.02

     corecor stress (kbar)  -6990.99      0.00     -0.00
                                0.00  -6990.99      0.00
                               -0.00      0.00  -6990.99

     ewald   stress (kbar) -21806.31     -0.00      0.00
                               -0.00 -21806.31      0.00
                                0.00      0.00 -21806.31

     hubbard stress (kbar)      0.00      0.00      0.00
                                0.00      0.00      0.00
                                0.00      0.00      0.00

     DFT-D   stress (kbar)      0.00      0.00      0.00
                                0.00      0.00      0.00
                                0.00      0.00      0.00

     XDM     stress (kbar)      0.00      0.00      0.00
                                0.00      0.00      0.00
                                0.00      0.00      0.00

     dft-nl  stress (kbar)      0.00      0.00      0.00
                                0.00      0.00      0.00
                                0.00      0.00      0.00

     TS-vdW  stress (kbar)      0.00      0.00      0.00
                                0.00      0.00      0.00
                                0.00      0.00      0.00

[...]

                                0.00      0.00      0.00

     Writing all to output data dir new_calculations/myprefix.save/

     General routines

     Parallel routines

     PAW routines

   This run was terminated on:  11:59:49  20May2023

   JOB DONE.