     Program PWSCF v.7.0 starts on 21May2023 at  6:36:43

     Reading input from espresso_11910.pwi
Warning: card &CELL ignored
Warning: card / ignored

     Current dimensions of program PWSCF are:
     Max number of different atomic species (ntypx) = 10
     Max number of k-points (npk) =  40000
     Max angular momentum in pseudopotentials (lmaxx) =  4
     file O.pbe-n-kjpaw_psl.0.1.UPF: wavefunction(s)  2P renormalized

     gamma-point specific algorithms are used
     Message from routine setup:
     using ibrav=0 with symmetry is DISCOURAGED, use correct ibrav instead

     Subspace diagonalization in iterative solution of the eigenvalue problem:
     a serial algorithm will be used

     Using Slab Decomposition

     bravais-lattice index     =            0
     lattice parameter (alat)  =      12.7188  a.u.
     unit-cell volume          =    2049.9265 (a.u.)^3
     number of atoms/cell      =           13
     number of atomic types    =            3
     number of electrons       =       120.00
     number of Kohn-Sham states=           72
     kinetic-energy cutoff     =      30.0000  Ry
     charge density cutoff     =     240.0000  Ry
     scf convergence threshold =      1.0E-06
     mixing beta               =       0.7000
     number of iterations used =            8  plain     mixing
     Exchange-correlation= SLA  PW   PBX  PBC
                           (   1   4   3   4   0   0   0)

     celldm(1)=  12.718786  celldm(2)=   0.000000  celldm(3)=   0.000000
     celldm(4)=   0.000000  celldm(5)=   0.000000  celldm(6)=   0.000000

     crystal axes: (cart. coord. in units of alat)
               a(1) = (   1.000000   0.000000   0.000000 )
               a(2) = (  -0.048666   0.998815   0.000000 )
               a(3) = (  -0.048666  -0.051095   0.997507 )

     reciprocal axes: (cart. coord. in units 2 pi/alat)
               b(1) = (  1.000000  0.048723  0.051283 )
               b(2) = (  0.000000  1.001186  0.051283 )
               b(3) = (  0.000000  0.000000  1.002499 )

     PseudoPot. # 1 for Tl read from file:
     /home/pragov/projects/rrg-bengioy-ad/pragov/crystal_structure_design/SSSP/Tl_pbe_v1.2.uspp.F.UPF
     MD5 check sum: b76cf1f7e72655a2b2c53cf6385d7059
     Pseudo is Ultrasoft + core correction, Zval = 13.0
     Generated by new atomic code, or converted to UPF format
     Using radial grid of  899 points,  6 beta functions with:
                l(1) =   0
                l(2) =   0
                l(3) =   1
                l(4) =   1
                l(5) =   2
                l(6) =   2
     Q(r) pseudized with  6 coefficients,  rinner =    1.100   1.100   1.100
                                                       1.100   1.100

     PseudoPot. # 2 for Te read from file:
     /home/pragov/projects/rrg-bengioy-ad/pragov/crystal_structure_design/SSSP/Te_pbe_v1.uspp.F.UPF
     MD5 check sum: c319670d6894cc26e93307826a071b75
     Pseudo is Ultrasoft + core correction, Zval =  6.0
     Generated by new atomic code, or converted to UPF format
     Using radial grid of  891 points,  5 beta functions with:
                l(1) =   0
                l(2) =   0
                l(3) =   1
                l(4) =   1
                l(5) =   2
     Q(r) pseudized with  6 coefficients,  rinner =    1.800   1.800   1.800
                                                       1.800   1.800

     PseudoPot. # 3 for O  read from file:
     /home/pragov/projects/rrg-bengioy-ad/pragov/crystal_structure_design/SSSP/O.pbe-n-kjpaw_psl.0.1.UPF
     MD5 check sum: 0234752ac141de4415c5fc33072bef88
     Pseudo is Projector augmented-wave + core cor, Zval =  6.0
     Generated using "atomic" code by A. Dal Corso  v.5.0.99 svn rev. 10869
     Shape of augmentation charge: BESSEL
     Using radial grid of 1095 points,  4 beta functions with:
                l(1) =   0
                l(2) =   0
                l(3) =   1
                l(4) =   1
     Q(r) pseudized with 0 coefficients

     atomic species   valence    mass     pseudopotential
        Tl            13.00   204.38000     Tl( 1.00)
        Te             6.00   127.60000     Te( 1.00)
        O              6.00    15.99900     O ( 1.00)

      2 Sym. Ops., with inversion, found

                                    s                        frac. trans.

      isym =  1     identity

 cryst.   s( 1) = (     1          0          0      )
                  (     0          1          0      )
                  (     0          0          1      )

 cart.    s( 1) = (  1.0000000  0.0000000 -0.0000000 )
                  (  0.0000000  1.0000000 -0.0000000 )
                  (  0.0000000  0.0000000  1.0000000 )

      isym =  2     inversion

 cryst.   s( 2) = (    -1          0          0      )
                  (     0         -1          0      )
                  (     0          0         -1      )

 cart.    s( 2) = ( -1.0000000 -0.0000000  0.0000000 )
                  (  0.0000000 -1.0000000  0.0000000 )
                  (  0.0000000  0.0000000 -1.0000000 )

   Cartesian axes

     site n.     atom                  positions (alat units)
         1           Tl  tau(   1) = (   0.3655943   0.6914655   0.8684011  )
         2           Tl  tau(   2) = (   0.8131144   0.4056457   0.7349835  )
         3           Tl  tau(   3) = (   0.6728544   0.8468628   0.4427128  )
         4           Tl  tau(   4) = (   0.5370744   0.2562551   0.1291064  )
         5           Tl  tau(   5) = (   0.0895543   0.5420749   0.2625240  )
         6           Tl  tau(   6) = (   0.2298143   0.1008578   0.5547947  )
         7           Te  tau(   7) = (   0.0000000   0.0000000   0.0000000  )
         8           O   tau(   8) = (   0.9224276  -0.0013747   0.7096577  )
         9           O   tau(   9) = (   0.6630685   0.9558288   0.0349297  )
        10           O   tau(  10) = (  -0.0462636   0.6616010   0.9563643  )
        11           O   tau(  11) = (  -0.0197589   0.9490953   0.2878497  )
        12           O   tau(  12) = (   0.2396002  -0.0081082   0.9625778  )
        13           O   tau(  13) = (   0.9489323   0.2861196   0.0411432  )

   Crystallographic axes

     site n.     atom                  positions (cryst. coord.)
         1           Tl  tau(   1) = (  0.4438190  0.7368200  0.8705710  )
         2           Tl  tau(   2) = (  0.8705710  0.4438190  0.7368200  )
         3           Tl  tau(   3) = (  0.7368200  0.8705710  0.4438190  )
         4           Tl  tau(   4) = (  0.5561810  0.2631800  0.1294290  )
         5           Tl  tau(   5) = (  0.1294290  0.5561810  0.2631800  )
         6           Tl  tau(   6) = (  0.2631800  0.1294290  0.5561810  )
         7           Te  tau(   7) = (  0.0000000  0.0000000  0.0000000  )
         8           O   tau(   8) = (  0.9587540  0.0350170  0.7114310  )
         9           O   tau(   9) = (  0.7114310  0.9587540  0.0350170  )
        10           O   tau(  10) = (  0.0350170  0.7114310  0.9587540  )
        11           O   tau(  11) = (  0.0412460  0.9649830  0.2885690  )
        12           O   tau(  12) = (  0.2885690  0.0412460  0.9649830  )
        13           O   tau(  13) = (  0.9649830  0.2885690  0.0412460  )

     number of k points=     1  Methfessel-Paxton smearing, width (Ry)=  0.0010
                       cart. coord. in units 2pi/alat
        k(    1) = (   0.0000000   0.0000000   0.0000000), wk =   2.0000000

                       cryst. coord.
        k(    1) = (   0.0000000   0.0000000   0.0000000), wk =   2.0000000

     Check: negative core charge=   -0.000007

     Initial potential from superposition of free atoms

     starting charge     119.9706, renormalised to     120.0000

     negative rho (up, down):  2.980E-01 0.000E+00
     Starting wfcs are   82 randomized atomic wfcs
     Checking if some PAW data can be deallocated...

     Self-consistent Calculation

     iteration #  1     ecut=    30.00 Ry     beta= 0.70
     Davidson diagonalization with overlap

     ethr =  1.00E-02,  avg # of iterations =  2.0

     negative rho (up, down):  2.983E-01 0.000E+00

     total energy              =   -1143.75830327 Ry
     estimated scf accuracy    <       3.35780798 Ry

[...]

     total energy              =   -1145.66109607 Ry
     estimated scf accuracy    <       0.00000342 Ry

     iteration # 13     ecut=    30.00 Ry     beta= 0.70
     Davidson diagonalization with overlap

     ethr =  2.85E-09,  avg # of iterations =  4.0

[...]

     End of self-consistent calculation

          k = 0.0000 0.0000 0.0000 (  2821 PWs)   bands (ev):

   -13.4002 -11.5241 -11.5235 -11.2965 -10.9320 -10.9314  -4.6265  -4.2684
    -4.2682  -4.2479  -4.2107  -4.2106  -4.1929  -4.1494  -4.1492  -4.1385
    -4.1334  -4.1334  -4.0861  -4.0616  -4.0550  -4.0549  -4.0287  -4.0285
    -4.0204  -4.0065  -4.0063  -3.9622  -3.9453  -3.9384  -3.9383  -3.8948
    -3.8934  -3.8932  -3.8525  -3.8524  -3.5588   0.6384   0.6386   0.7167
     0.9477   1.2367   1.2370   1.4481   1.7909   1.7912   2.8691   3.0949
     3.0952   4.0592   4.0596   4.0655   4.2905   4.2908   5.0673   5.3446
     5.3449   5.3884   5.7022   5.7025   7.9310   8.2995   8.2996   8.7441
     9.6064   9.6065   9.7366  10.9164  11.0306  11.0307  11.3942  11.8945

     occupation numbers
     1.0000   1.0000   1.0000   1.0000   1.0000   1.0000   1.0000   1.0000
     1.0000   1.0000   1.0000   1.0000   1.0000   1.0000   1.0000   1.0000
     1.0000   1.0000   1.0000   1.0000   1.0000   1.0000   1.0000   1.0000
     1.0000   1.0000   1.0000   1.0000   1.0000   1.0000   1.0000   1.0000
     1.0000   1.0000   1.0000   1.0000   1.0000   1.0000   1.0000   1.0000
     1.0000   1.0000   1.0000   1.0000   1.0000   1.0000   1.0000   1.0000
     1.0000   1.0000   1.0000   1.0000   1.0000   1.0000   1.0000   1.0000
     1.0000   1.0000   1.0000   1.0000  -0.0000  -0.0000  -0.0000  -0.0000
    -0.0000  -0.0000  -0.0000  -0.0000  -0.0000  -0.0000  -0.0000  -0.0000

     the Fermi energy is     7.2368 ev

!    total energy              =   -1145.66109680 Ry
     estimated scf accuracy    <       0.00000099 Ry
     smearing contrib. (-TS)   =       0.00000000 Ry
     internal energy E=F+TS    =   -1145.66109680 Ry

     The total energy is F=E-TS. E is the sum of the following terms:
     one-electron contribution =    -327.44049106 Ry
     hartree contribution      =     250.48430174 Ry
     xc contribution           =    -431.48103098 Ry
     ewald contribution        =    -580.01584602 Ry
     one-center paw contrib.   =     -57.20803047 Ry
      -> PAW hartree energy AE =     173.42098427 Ry
      -> PAW hartree energy PS =    -172.85060852 Ry
      -> PAW xc energy AE      =    -102.37719417 Ry
      -> PAW xc energy PS      =      44.59878795 Ry
      -> total E_H with PAW    =     251.05467749 Ry
      -> total E_XC with PAW   =    -489.25943720 Ry

     convergence has been achieved in  13 iterations

     negative rho (up, down):  3.025E-01 0.000E+00

     Forces acting on atoms (cartesian axes, Ry/au):

     atom    1 type  1   force =    -0.00070736   -0.00044612    0.00441668
     atom    2 type  1   force =     0.00423112   -0.00042426   -0.00041876
     atom    3 type  1   force =    -0.00073246    0.00433698   -0.00063996
     atom    4 type  1   force =     0.00070736    0.00044612   -0.00441668
     atom    5 type  1   force =    -0.00423112    0.00042426    0.00041876
     atom    6 type  1   force =     0.00073246   -0.00433698    0.00063996
     atom    7 type  2   force =     0.00000000    0.00000000    0.00000000
     atom    8 type  3   force =    -0.01163849    0.00232859   -0.04251779
     atom    9 type  3   force =    -0.04194389   -0.01370425    0.00016146
     atom   10 type  3   force =     0.00288128   -0.04186475   -0.01367418
     atom   11 type  3   force =     0.01163849   -0.00232859    0.04251779
     atom   12 type  3   force =     0.04194389    0.01370425   -0.00016146
     atom   13 type  3   force =    -0.00288128    0.04186475    0.01367418
     The non-local contrib.  to forces
     atom    1 type  1   force =    -0.02571525    0.26041464    0.13886006
     atom    2 type  1   force =     0.12625839   -0.01953928    0.26699712
     atom    3 type  1   force =     0.26107532    0.13924082   -0.00604680
     atom    4 type  1   force =     0.02571525   -0.26041464   -0.13886006
     atom    5 type  1   force =    -0.12625839    0.01953928   -0.26699712
     atom    6 type  1   force =    -0.26107532   -0.13924082    0.00604680
     atom    7 type  2   force =     0.00000000    0.00000000    0.00000000
     atom    8 type  3   force =     0.26365965   -0.15745274    0.80992105
     atom    9 type  3   force =     0.80322450    0.30312869   -0.11584002
     atom   10 type  3   force =    -0.17017622    0.79579885    0.29678736
     atom   11 type  3   force =    -0.26365965    0.15745274   -0.80992105
     atom   12 type  3   force =    -0.80322450   -0.30312869    0.11584002
     atom   13 type  3   force =     0.17017622   -0.79579885   -0.29678736
     The ionic contribution  to forces
     atom    1 type  1   force =     2.15761763   -9.42076382   -5.90895566
     atom    2 type  1   force =    -5.51787783    1.89132732   -9.71070333
     atom    3 type  1   force =    -9.51460308   -5.98800724    1.39209886
     atom    4 type  1   force =    -2.15761763    9.42076382    5.90895566
     atom    5 type  1   force =     5.51787783   -1.89132733    9.71070333
     atom    6 type  1   force =     9.51460308    5.98800723   -1.39209886
     atom    7 type  2   force =    -0.00000000    0.00000000   -0.00000000
     atom    8 type  3   force =    -2.26937206    0.08088142   -2.92422147
     atom    9 type  3   force =    -2.81062478   -2.40900764   -0.06881247
     atom   10 type  3   force =     0.19122646   -2.80464242   -2.40937296
     atom   11 type  3   force =     2.26937206   -0.08088142    2.92422147
     atom   12 type  3   force =     2.81062478    2.40900764    0.06881247
     atom   13 type  3   force =    -0.19122646    2.80464242    2.40937296
     The local contribution  to forces
     atom    1 type  1   force =    -2.13359505    9.16080145    5.77625912
     atom    2 type  1   force =     5.39777275   -1.87244354    9.44442151
     atom    3 type  1   force =     9.25442571    5.85468064   -1.38776447
     atom    4 type  1   force =     2.13366104   -9.16088230   -5.77584610
     atom    5 type  1   force =    -5.39773831    1.87402274   -9.44467558
     atom    6 type  1   force =    -9.25416546   -5.85514733    1.38703822
     atom    7 type  2   force =    -0.00018060   -0.00079191    0.00025636
     atom    8 type  3   force =     1.99716198    0.07693320    2.08023982
     atom    9 type  3   force =     1.97408951    2.09549920    0.18362710
     atom   10 type  3   force =    -0.02012189    1.97555599    2.10232061
     atom   11 type  3   force =    -1.99710284   -0.07722535   -2.08040393
     atom   12 type  3   force =    -1.97411604   -2.09569297   -0.18333757
     atom   13 type  3   force =     0.02009561   -1.97539195   -2.10217233
     The core correction contribution to forces
     atom    1 type  1   force =     0.00063125   -0.00038340   -0.00125686
     atom    2 type  1   force =    -0.00126808    0.00057670   -0.00044489
     atom    3 type  1   force =    -0.00040876   -0.00129808    0.00054945
     atom    4 type  1   force =    -0.00063336    0.00038663    0.00126724
     atom    5 type  1   force =     0.00127432   -0.00056736    0.00044749
     atom    6 type  1   force =     0.00041417    0.00129109   -0.00055413
     atom    7 type  2   force =     0.00000823    0.00002265   -0.00000862
     atom    8 type  3   force =    -0.00287061    0.00167240   -0.00797511
     atom    9 type  3   force =    -0.00790215   -0.00325855    0.00126141
     atom   10 type  3   force =     0.00181037   -0.00782110   -0.00319219
     atom   11 type  3   force =     0.00287287   -0.00166924    0.00797414
     atom   12 type  3   force =     0.00790176    0.00326204   -0.00126060
     atom   13 type  3   force =    -0.00180964    0.00782236    0.00319115
     The Hubbard contrib.    to forces
     atom    1 type  1   force =     0.00000000    0.00000000    0.00000000
     atom    2 type  1   force =     0.00000000    0.00000000    0.00000000
     atom    3 type  1   force =     0.00000000    0.00000000    0.00000000
     atom    4 type  1   force =     0.00000000    0.00000000    0.00000000
     atom    5 type  1   force =     0.00000000    0.00000000    0.00000000
     atom    6 type  1   force =     0.00000000    0.00000000    0.00000000
     atom    7 type  2   force =     0.00000000    0.00000000    0.00000000
     atom    8 type  3   force =     0.00000000    0.00000000    0.00000000
     atom    9 type  3   force =     0.00000000    0.00000000    0.00000000
     atom   10 type  3   force =     0.00000000    0.00000000    0.00000000
     atom   11 type  3   force =     0.00000000    0.00000000    0.00000000
     atom   12 type  3   force =     0.00000000    0.00000000    0.00000000
     atom   13 type  3   force =     0.00000000    0.00000000    0.00000000
     The SCF correction term to forces
     atom    1 type  1   force =     0.00036434   -0.00050024   -0.00047807
     atom    2 type  1   force =    -0.00063124   -0.00036640   -0.00067460
     atom    3 type  1   force =    -0.00124192   -0.00030314    0.00052306
     atom    4 type  1   force =    -0.00040764    0.00060738    0.00007851
     atom    5 type  1   force =     0.00063633   -0.00126401    0.00095521
     atom    6 type  1   force =     0.00093573    0.00072888    0.00020799
     atom    7 type  2   force =     0.00010972    0.00059616   -0.00018658
     atom    8 type  3   force =    -0.00015571    0.00042169   -0.00050448
     atom    9 type  3   force =    -0.00074834    0.00005669   -0.00005663
     atom   10 type  3   force =     0.00015166   -0.00072947   -0.00025605
     atom   11 type  3   force =     0.00021778    0.00012206    0.00062477
     atom   12 type  3   force =     0.00074051    0.00037888   -0.00019785
     atom   13 type  3   force =    -0.00010792    0.00061734    0.00003072

     Total force =     0.108646     Total SCF correction =     0.003469

     Computing stress (Cartesian axis) and pressure

     negative rho (up, down):  3.025E-01 0.000E+00
          total   stress  (Ry/bohr**3)                   (kbar)     P=     -121.29
  -0.00082946   0.00005103   0.00005364         -122.02        7.51        7.89
   0.00005103  -0.00082478   0.00005636            7.51     -121.33        8.29
   0.00005364   0.00005636  -0.00081927            7.89        8.29     -120.52

     kinetic stress (kbar)   8796.69     33.08     34.82
                               33.08   8799.93     36.55
                               34.82     36.55   8803.66

     local   stress (kbar)  -2688.11     22.91     24.13
                               22.91  -2685.99     25.34
                               24.13     25.34  -2683.54

     nonloc. stress (kbar)   6421.30     24.90     26.21
                               24.90   6423.70     27.52
                               26.21     27.52   6426.54

     hartree stress (kbar)   5991.93     -3.24     -3.44
                               -3.24   5991.69     -3.60
                               -3.44     -3.60   5991.42

     exc-cor stress (kbar)  17019.63      0.66      0.70
                                0.66  17019.69      0.73
                                0.70      0.73  17019.77

     corecor stress (kbar) -21796.48     -0.44     -0.47
                               -0.44 -21796.52     -0.49
                               -0.47     -0.49 -21796.57

     ewald   stress (kbar) -13866.97    -70.37    -74.07
                              -70.37 -13873.83    -77.76
                              -74.07    -77.76 -13881.80

     hubbard stress (kbar)      0.00      0.00      0.00
                                0.00      0.00      0.00
                                0.00      0.00      0.00

     DFT-D   stress (kbar)      0.00      0.00      0.00
                                0.00      0.00      0.00
                                0.00      0.00      0.00

     XDM     stress (kbar)      0.00      0.00      0.00
                                0.00      0.00      0.00
                                0.00      0.00      0.00

     dft-nl  stress (kbar)      0.00      0.00      0.00
                                0.00      0.00      0.00
                                0.00      0.00      0.00

     TS-vdW  stress (kbar)      0.00      0.00      0.00
                                0.00      0.00      0.00
                                0.00      0.00      0.00

[...]

                                0.00      0.00      0.00

     Writing all to output data dir new_calculations/myprefix.save/

     General routines

     Parallel routines

     PAW routines

   This run was terminated on:   6:37:15  21May2023

   JOB DONE.