     Program PWSCF v.7.0 starts on 20May2023 at 11:31:16

     Reading input from espresso_2383.pwi
Warning: card &CELL ignored
Warning: card / ignored

     Current dimensions of program PWSCF are:
     Max number of different atomic species (ntypx) = 10
     Max number of k-points (npk) =  40000
     Max angular momentum in pseudopotentials (lmaxx) =  4
     file Al.pbe-n-kjpaw_psl.1.0.0.UPF: wavefunction(s)  3S 3P renormalized
     file In.pbe-dn-rrkjus_psl.0.2.2.UPF: wavefunction(s)  5S renormalized

     gamma-point specific algorithms are used

     Subspace diagonalization in iterative solution of the eigenvalue problem:
     a serial algorithm will be used

     Using Slab Decomposition

     bravais-lattice index     =            0
     lattice parameter (alat)  =      13.2683  a.u.
     unit-cell volume          =    1280.9612 (a.u.)^3
     number of atoms/cell      =            8
     number of atomic types    =            4
     number of electrons       =        78.00
     number of Kohn-Sham states=           47
     kinetic-energy cutoff     =      30.0000  Ry
     charge density cutoff     =     240.0000  Ry
     scf convergence threshold =      1.0E-06
     mixing beta               =       0.7000
     number of iterations used =            8  plain     mixing
     Exchange-correlation= SLA  PW   PBE  PBE
                           (   1   4   3   4   0   0   0)

     celldm(1)=  13.268257  celldm(2)=   0.000000  celldm(3)=   0.000000
     celldm(4)=   0.000000  celldm(5)=   0.000000  celldm(6)=   0.000000

     crystal axes: (cart. coord. in units of alat)
               a(1) = (   1.000000   0.000000   0.000000 )
               a(2) = (   0.326670   0.945138   0.000000 )
               a(3) = (  -0.663335  -0.472569   0.580228 )

     reciprocal axes: (cart. coord. in units 2 pi/alat)
               b(1) = (  1.000000 -0.345632  0.861730 )
               b(2) = (  0.000000  1.058046  0.861730 )
               b(3) = (  0.000000  0.000000  1.723460 )

     PseudoPot. # 1 for Al read from file:
     /home/pragov/projects/rrg-bengioy-ad/pragov/crystal_structure_design/SSSP/Al.pbe-n-kjpaw_psl.1.0.0.UPF
     MD5 check sum: cfc449ca30b5f3223ec38ddd88ac046d
     Pseudo is Projector augmented-wave + core cor, Zval =  3.0
     Generated using "atomic" code by A. Dal Corso  v.5.1
     Shape of augmentation charge: PSQ
     Using radial grid of 1135 points,  6 beta functions with:
                l(1) =   0
                l(2) =   0
                l(3) =   1
                l(4) =   1
                l(5) =   2
                l(6) =   2
     Q(r) pseudized with 0 coefficients

     PseudoPot. # 2 for In read from file:
     /home/pragov/projects/rrg-bengioy-ad/pragov/crystal_structure_design/SSSP/In.pbe-dn-rrkjus_psl.0.2.2.UPF
     MD5 check sum: 25e7c42c3b55b68f4bf926be2e7201a4
     Pseudo is Ultrasoft + core correction, Zval = 13.0
     Generated using "atomic" code by A. Dal Corso  v.5.0.99 svn rev. 10869
     Using radial grid of 1241 points,  6 beta functions with:
                l(1) =   0
                l(2) =   0
                l(3) =   1
                l(4) =   1
                l(5) =   2
                l(6) =   2
     Q(r) pseudized with 0 coefficients

     PseudoPot. # 3 for Cu read from file:
     /home/pragov/projects/rrg-bengioy-ad/pragov/crystal_structure_design/SSSP/Cu_pbe_v1.2.uspp.F.UPF
     MD5 check sum: 6e991ff952a84172a2a52a1c1e996048
     Pseudo is Ultrasoft + core correction, Zval = 19.0
     Generated by new atomic code, or converted to UPF format
     Using radial grid of  867 points,  6 beta functions with:
                l(1) =   0
                l(2) =   0
                l(3) =   1
                l(4) =   1
                l(5) =   2
                l(6) =   2
     Q(r) pseudized with  8 coefficients,  rinner =    1.150   1.150   1.150
                                                       1.150   1.150

     PseudoPot. # 4 for Se read from file:
     /home/pragov/projects/rrg-bengioy-ad/pragov/crystal_structure_design/SSSP/Se_pbe_v1.uspp.F.UPF
     MD5 check sum: 1b3568f3a8ae88f9a2a0ad0698632c85
     Pseudo is Ultrasoft + core correction, Zval =  6.0
     Generated by new atomic code, or converted to UPF format
     Using radial grid of  877 points,  6 beta functions with:
                l(1) =   0
                l(2) =   0
                l(3) =   1
                l(4) =   1
                l(5) =   2
                l(6) =   2
     Q(r) pseudized with  8 coefficients,  rinner =    1.300   1.300   1.300
                                                       1.300   1.300

     atomic species   valence    mass     pseudopotential
        Al             3.00    26.98154     Al( 1.00)
        In            13.00   114.81800     In( 1.00)
        Cu            19.00    63.54600     Cu( 1.00)
        Se             6.00    78.97100     Se( 1.00)

     No symmetry found

                                    s                        frac. trans.

      isym =  1     identity

 cryst.   s( 1) = (     1          0          0      )
                  (     0          1          0      )
                  (     0          0          1      )

 cart.    s( 1) = (  1.0000000  0.0000000  0.0000000 )
                  (  0.0000000  1.0000000 -0.0000000 )
                  (  0.0000000  0.0000000  1.0000000 )

   Cartesian axes

     site n.     atom                  positions (alat units)
         1           Al  tau(   1) = (   0.5000000   0.0000000   0.2901142  )
         2           In  tau(   2) = (   0.6633351   0.4725692   0.0000000  )
         3           Cu  tau(   3) = (   0.1633351   0.4725692   0.2901142  )
         4           Cu  tau(   4) = (   0.0000000   0.0000000   0.0000000  )
         5           Se  tau(   5) = (  -0.1763739  -0.1232753   0.2727050  )
         6           Se  tau(   6) = (   0.4892067   0.3461418   0.3075233  )
         7           Se  tau(   7) = (   0.6601525   0.8478841   0.0019351  )
         8           Se  tau(   8) = (   0.3536849  -0.1256122   0.5782932  )

   Crystallographic axes

     site n.     atom                  positions (cryst. coord.)
         1           Al  tau(   1) = (  0.7500000  0.2500000  0.5000000  )
         2           In  tau(   2) = (  0.5000000  0.5000000  0.0000000  )
         3           Cu  tau(   3) = (  0.2500000  0.7500000  0.5000000  )
         4           Cu  tau(   4) = (  0.0000000  0.0000000  0.0000000  )
         5           Se  tau(   5) = (  0.1012320  0.1045670  0.4699960  )
         6           Se  tau(   6) = (  0.6345710  0.6312360  0.5300040  )
         7           Se  tau(   7) = (  0.3687640  0.8987680  0.0033350  )
         8           Se  tau(   8) = (  0.8954330  0.3654290  0.9966650  )

     number of k points=     1  Methfessel-Paxton smearing, width (Ry)=  0.0010
                       cart. coord. in units 2pi/alat
        k(    1) = (   0.0000000   0.0000000   0.0000000), wk =   2.0000000

                       cryst. coord.
        k(    1) = (   0.0000000   0.0000000   0.0000000), wk =   2.0000000

     Initial potential from superposition of free atoms

     starting charge      75.9937, renormalised to      78.0000
     Starting wfcs are   55 randomized atomic wfcs
     Checking if some PAW data can be deallocated...

     Self-consistent Calculation

     iteration #  1     ecut=    30.00 Ry     beta= 0.70
     Davidson diagonalization with overlap

     ethr =  1.00E-02,  avg # of iterations =  3.0

     total energy              =   -1165.55307470 Ry
     estimated scf accuracy    <       1.47514913 Ry

[...]

     total energy              =   -1166.34234562 Ry
     estimated scf accuracy    <       0.00000336 Ry

     iteration # 13     ecut=    30.00 Ry     beta= 0.70
     Davidson diagonalization with overlap

     ethr =  4.31E-09,  avg # of iterations =  5.0

     End of self-consistent calculation

          k = 0.0000 0.0000 0.0000 (  1778 PWs)   bands (ev):

  -105.2407-104.7213 -62.6679 -62.6214 -62.6214 -62.2245 -62.0799 -62.0798
    -8.5785  -8.5753  -8.5753  -8.3945  -8.3942  -7.3642  -6.0974  -6.0946
    -6.0945   0.0770   0.9954   1.8771   2.3514   2.4832   2.7570   2.7570
     3.3842   3.3842   3.6180   3.6181   3.6603   4.5513   4.7158   5.0030
     5.0273   5.1486   5.1486   5.3772   6.5347   6.5347   6.6118   6.7553
     8.5593   9.0233  10.5609  10.5609  11.1547  11.3546  11.3546

     occupation numbers
     1.0000   1.0000   1.0000   1.0000   1.0000   1.0000   1.0000   1.0000
     1.0000   1.0000   1.0000   1.0000   1.0000   1.0000   1.0000   1.0000
     1.0000   1.0000   1.0000   1.0000   1.0000   1.0000   1.0000   1.0000
     1.0000   1.0000   1.0000   1.0000   1.0000   1.0000   1.0000   1.0000
     1.0000   1.0000   1.0000   1.0000   1.0000   1.0000   1.0000  -0.0000
    -0.0000  -0.0000  -0.0000  -0.0000  -0.0000  -0.0000  -0.0000

     the Fermi energy is     6.6830 ev

!    total energy              =   -1166.34234717 Ry
     estimated scf accuracy    <       0.00000031 Ry
     smearing contrib. (-TS)   =       0.00000000 Ry
     internal energy E=F+TS    =   -1166.34234717 Ry

     The total energy is F=E-TS. E is the sum of the following terms:
     one-electron contribution =    -935.08814568 Ry
     hartree contribution      =     502.83450282 Ry
     xc contribution           =    -246.89584736 Ry
     ewald contribution        =    -452.53646471 Ry
     one-center paw contrib.   =     -34.65639224 Ry
      -> PAW hartree energy AE =       1.26212520 Ry
      -> PAW hartree energy PS =      -1.25848327 Ry
      -> PAW xc energy AE      =     -36.50209659 Ry
      -> PAW xc energy PS      =       1.84206242 Ry
      -> total E_H with PAW    =     502.83814475 Ry
      -> total E_XC with PAW   =    -281.55588153 Ry

     convergence has been achieved in  13 iterations

     Forces acting on atoms (cartesian axes, Ry/au):

     atom    1 type  1   force =     0.00002998   -0.00003338   -0.00000761
     atom    2 type  2   force =     0.00010317   -0.00000028   -0.00004428
     atom    3 type  3   force =    -0.00016561    0.00013613   -0.00015635
     atom    4 type  3   force =    -0.00011513    0.00007033    0.00025699
     atom    5 type  4   force =    -0.03032747   -0.00745025    0.00295020
     atom    6 type  4   force =    -0.01686801   -0.02632348   -0.00296747
     atom    7 type  4   force =     0.02538958    0.01439372    0.01158030
     atom    8 type  4   force =     0.02195349    0.01920721   -0.01161177
     The non-local contrib.  to forces
     atom    1 type  1   force =    -0.00001216    0.00001552    0.00000207
     atom    2 type  2   force =     0.00003077    0.00007272    0.00004621
     atom    3 type  3   force =    -0.00013862    0.00012205   -0.00003292
     atom    4 type  3   force =    -0.00010963    0.00015375    0.00018795
     atom    5 type  4   force =    -0.01137169    0.15118056    0.18002475
     atom    6 type  4   force =     0.13896926   -0.05979707   -0.17975765
     atom    7 type  4   force =     0.04036981   -0.19186008    0.12964228
     atom    8 type  4   force =    -0.16840504    0.10121097   -0.12935360
     The ionic contribution  to forces
     atom    1 type  1   force =    -0.00000000    0.00000000   -0.00000000
     atom    2 type  2   force =     0.00000000    0.00000000   -0.00000000
     atom    3 type  3   force =    -0.00000000   -0.00000000   -0.00000000
     atom    4 type  3   force =    -0.00000000    0.00000000    0.00000000
     atom    5 type  4   force =    -4.76936637    2.98450937    2.53088589
     atom    6 type  4   force =     1.26276436   -5.48266157   -2.53088589
     atom    7 type  4   force =     3.22179263   -0.81221372    5.19806658
     atom    8 type  4   force =     0.28480938    3.31036592   -5.19806658
     The local contribution  to forces
     atom    1 type  1   force =    -0.00001613    0.00002376   -0.00000670
     atom    2 type  2   force =    -0.00012345    0.00001937    0.00000052
     atom    3 type  3   force =     0.00025300   -0.00022158    0.00010636
     atom    4 type  3   force =     0.00021712   -0.00022096   -0.00039207
     atom    5 type  4   force =     4.75074363   -3.12612931   -2.68712693
     atom    6 type  4   force =    -1.40246619    5.51094032    2.68689247
     atom    7 type  4   force =    -3.23301364    0.99567912   -5.30249901
     atom    8 type  4   force =    -0.11476682   -3.38131548    5.30215546
     The core correction contribution to forces
     atom    1 type  1   force =     0.00000113   -0.00000151   -0.00000024
     atom    2 type  2   force =    -0.00000086   -0.00000326   -0.00000253
     atom    3 type  3   force =     0.00000006    0.00000003    0.00000003
     atom    4 type  3   force =    -0.00000004   -0.00000003    0.00000011
     atom    5 type  4   force =    -0.00037521   -0.01717601   -0.02095701
     atom    6 type  4   force =    -0.01632752    0.00521029    0.02091868
     atom    7 type  4   force =    -0.00377018    0.02298892   -0.01375904
     atom    8 type  4   force =     0.02053155   -0.01112340    0.01372140
     The Hubbard contrib.    to forces
     atom    1 type  1   force =     0.00000000    0.00000000    0.00000000
     atom    2 type  2   force =     0.00000000    0.00000000    0.00000000
     atom    3 type  3   force =     0.00000000    0.00000000    0.00000000
     atom    4 type  3   force =     0.00000000    0.00000000    0.00000000
     atom    5 type  4   force =     0.00000000    0.00000000    0.00000000
     atom    6 type  4   force =     0.00000000    0.00000000    0.00000000
     atom    7 type  4   force =     0.00000000    0.00000000    0.00000000
     atom    8 type  4   force =     0.00000000    0.00000000    0.00000000
     The SCF correction term to forces
     atom    1 type  1   force =     0.00002324   -0.00003342    0.00001487
     atom    2 type  2   force =     0.00016280   -0.00005138   -0.00007088
     atom    3 type  3   force =    -0.00031395    0.00027336   -0.00021221
     atom    4 type  3   force =    -0.00025649    0.00017531    0.00047861
     atom    5 type  4   force =     0.00000826    0.00020287    0.00014111
     atom    6 type  4   force =     0.00015818    0.00002229   -0.00011747
     atom    7 type  4   force =    -0.00002295   -0.00016279    0.00014711
     atom    8 type  4   force =    -0.00024947    0.00010692   -0.00005084

     Total force =     0.062785     Total SCF correction =     0.000897

     Computing stress (Cartesian axis) and pressure

          total   stress  (Ry/bohr**3)                   (kbar)     P=     -139.31
  -0.00121575  -0.00038475  -0.00000005         -178.84      -56.60       -0.01
  -0.00038475  -0.00094972  -0.00000004          -56.60     -139.71       -0.01
  -0.00000005  -0.00000004  -0.00067564           -0.01       -0.01      -99.39

     kinetic stress (kbar)  10669.58    -59.08     -0.02
                              -59.08  10710.46     -0.01
                               -0.02     -0.01  10752.52

     local   stress (kbar) -16588.56  -1084.10      0.05
                            -1084.10 -15839.15      0.03
                                0.05      0.03 -15066.81

     nonloc. stress (kbar)   7781.58    -32.24      0.00
                              -32.24   7803.85     -0.00
                                0.00     -0.00   7826.83

     hartree stress (kbar)  19633.34    551.17     -0.05
                              551.17  19252.32     -0.02
                               -0.05     -0.02  18859.65

     exc-cor stress (kbar)  10338.87     -0.33     -0.00
                               -0.33  10339.10     -0.00
                               -0.00     -0.00  10339.33

     corecor stress (kbar) -15086.20      1.50      0.00
                                1.50 -15087.24      0.00
                                0.00      0.00 -15088.31

     ewald   stress (kbar) -16927.45    566.48     -0.00
                              566.48 -17319.04     -0.00
                               -0.00     -0.00 -17722.61

     hubbard stress (kbar)      0.00      0.00      0.00
                                0.00      0.00      0.00
                                0.00      0.00      0.00

     DFT-D   stress (kbar)      0.00      0.00      0.00
                                0.00      0.00      0.00
                                0.00      0.00      0.00

     XDM     stress (kbar)      0.00      0.00      0.00
                                0.00      0.00      0.00
                                0.00      0.00      0.00

     dft-nl  stress (kbar)      0.00      0.00      0.00
                                0.00      0.00      0.00
                                0.00      0.00      0.00

     TS-vdW  stress (kbar)      0.00      0.00      0.00
                                0.00      0.00      0.00
                                0.00      0.00      0.00

[...]

                                0.00      0.00      0.00

     Writing all to output data dir new_calculations/myprefix.save/

     General routines

     Parallel routines

     PAW routines

   This run was terminated on:  11:31:44  20May2023

   JOB DONE.