     Program PWSCF v.7.0 starts on 20May2023 at 15:11:11

     Reading input from espresso_14482.pwi
Warning: card &CELL ignored
Warning: card / ignored

     Current dimensions of program PWSCF are:
     Max number of different atomic species (ntypx) = 10
     Max number of k-points (npk) =  40000
     Max angular momentum in pseudopotentials (lmaxx) =  4
     file O.pbe-n-kjpaw_psl.0.1.UPF: wavefunction(s)  2P renormalized

     gamma-point specific algorithms are used
     Message from routine setup:
     using ibrav=0 with symmetry is DISCOURAGED, use correct ibrav instead

     Subspace diagonalization in iterative solution of the eigenvalue problem:
     a serial algorithm will be used

     Using Slab Decomposition

     bravais-lattice index     =            0
     lattice parameter (alat)  =       6.2333  a.u.
     unit-cell volume          =     411.1219 (a.u.)^3
     number of atoms/cell      =            4
     number of atomic types    =            2
     number of electrons       =        50.00
     number of Kohn-Sham states=           30
     kinetic-energy cutoff     =      30.0000  Ry
     charge density cutoff     =     240.0000  Ry
     scf convergence threshold =      1.0E-06
     mixing beta               =       0.7000
     number of iterations used =            8  plain     mixing
     Exchange-correlation= SLA  PW   PBX  PBC
                           (   1   4   3   4   0   0   0)

     celldm(1)=   6.233285  celldm(2)=   0.000000  celldm(3)=   0.000000
     celldm(4)=   0.000000  celldm(5)=   0.000000  celldm(6)=   0.000000

     crystal axes: (cart. coord. in units of alat)
               a(1) = (   1.000000   0.000000   0.000000 )
               a(2) = (  -0.058931   0.998262   0.000000 )
               a(3) = (   0.000000   0.000000   1.700493 )

     reciprocal axes: (cart. coord. in units 2 pi/alat)
               b(1) = (  1.000000  0.059033  0.000000 )
               b(2) = (  0.000000  1.001741  0.000000 )
               b(3) = (  0.000000  0.000000  0.588065 )

     PseudoPot. # 1 for Ag read from file:
     /home/pragov/projects/rrg-bengioy-ad/pragov/crystal_structure_design/SSSP/Ag_ONCV_PBE-1.0.oncvpsp.upf
     MD5 check sum: 94f47bd0669c641108e45594df92fabc
     Pseudo is Norm-conserving, Zval = 19.0
     Generated using ONCVPSP code by D. R. Hamann
     Using radial grid of 1398 points,  6 beta functions with:
                l(1) =   0
                l(2) =   0
                l(3) =   1
                l(4) =   1
                l(5) =   2
                l(6) =   2

     PseudoPot. # 2 for O  read from file:
     /home/pragov/projects/rrg-bengioy-ad/pragov/crystal_structure_design/SSSP/O.pbe-n-kjpaw_psl.0.1.UPF
     MD5 check sum: 0234752ac141de4415c5fc33072bef88
     Pseudo is Projector augmented-wave + core cor, Zval =  6.0
     Generated using "atomic" code by A. Dal Corso  v.5.0.99 svn rev. 10869
     Shape of augmentation charge: BESSEL
     Using radial grid of 1095 points,  4 beta functions with:
                l(1) =   0
                l(2) =   0
                l(3) =   1
                l(4) =   1
     Q(r) pseudized with 0 coefficients

     atomic species   valence    mass     pseudopotential
        Ag            19.00   107.86820     Ag( 1.00)
        O              6.00    15.99900     O ( 1.00)

      4 Sym. Ops., with inversion, found

                                    s                        frac. trans.

      isym =  1     identity

 cryst.   s( 1) = (     1          0          0      )
                  (     0          1          0      )
                  (     0          0          1      )

 cart.    s( 1) = (  1.0000000 -0.0000000  0.0000000 )
                  (  0.0000000  1.0000000  0.0000000 )
                  (  0.0000000  0.0000000  1.0000000 )

      isym =  2     180 deg rotation - cart. axis [0,0,1]

[...]

      isym =  3     inversion

[...]

      isym =  4     inv. 180 deg rotation - cart. axis [0,0,1]

 cryst.   s( 4) = (     1          0          0      )
                  (     0          1          0      )
                  (     0          0         -1      )

 cart.    s( 4) = (  1.0000000 -0.0000000  0.0000000 )
                  (  0.0000000  1.0000000  0.0000000 )
                  (  0.0000000  0.0000000 -1.0000000 )

   Cartesian axes

     site n.     atom                  positions (alat units)
         1           Ag  tau(   1) = (   0.5000000   0.0000000   0.0000000  )
         2           Ag  tau(   2) = (  -0.0294654   0.4991310   0.8502467  )
         3           O   tau(   3) = (   0.0000000   0.0000000   1.2753701  )
         4           O   tau(   4) = (   0.0000000   0.0000000   0.4251234  )

   Crystallographic axes

     site n.     atom                  positions (cryst. coord.)
         1           Ag  tau(   1) = (  0.5000000  0.0000000  0.0000000  )
         2           Ag  tau(   2) = ( -0.0000000  0.5000000  0.5000000  )
         3           O   tau(   3) = (  0.0000000  0.0000000  0.7500000  )
         4           O   tau(   4) = (  0.0000000  0.0000000  0.2500000  )

     number of k points=     1  Methfessel-Paxton smearing, width (Ry)=  0.0010
                       cart. coord. in units 2pi/alat
        k(    1) = (   0.0000000   0.0000000   0.0000000), wk =   2.0000000

                       cryst. coord.
        k(    1) = (   0.0000000   0.0000000   0.0000000), wk =   2.0000000

     Check: negative core charge=   -0.000012

     Initial potential from superposition of free atoms

     starting charge      49.9994, renormalised to      50.0000
     Starting wfcs are   28 randomized atomic wfcs +    2 random wfcs
     Checking if some PAW data can be deallocated...

     Self-consistent Calculation

     iteration #  1     ecut=    30.00 Ry     beta= 0.70
     Davidson diagonalization with overlap

     ethr =  1.00E-02,  avg # of iterations =  4.0

     total energy              =    -656.66617567 Ry
     estimated scf accuracy    <       0.65743156 Ry

[...]

     total energy              =    -656.99155971 Ry
     estimated scf accuracy    <       0.00000674 Ry

     iteration # 19     ecut=    30.00 Ry     beta= 0.70
     Davidson diagonalization with overlap

     ethr =  1.35E-08,  avg # of iterations =  1.0

     End of self-consistent calculation

          k = 0.0000 0.0000 0.0000 (   574 PWs)   bands (ev):

   -82.8889 -82.8884 -45.9867 -45.9778 -45.9752 -45.9725 -45.6302 -45.6268
    -8.0220  -7.1687   3.2312   4.1949   4.3839   5.6882   5.8548   6.1579
     6.6486   6.7793   6.8321   6.8713   7.4988   7.6414   8.1760   8.5602
    11.0552  11.0563  11.0586  15.7086  17.0539  22.9474

     occupation numbers
     1.0000   1.0000   1.0000   1.0000   1.0000   1.0000   1.0000   1.0000
     1.0000   1.0000   1.0000   1.0000   1.0000   1.0000   1.0000   1.0000
     1.0000   1.0000   1.0000   1.0000   1.0000   1.0000   1.0000   1.0000
     0.4188   0.3558   0.2254  -0.0000  -0.0000  -0.0000

     the Fermi energy is    11.0539 ev

!    total energy              =    -656.99155975 Ry
     estimated scf accuracy    <       0.00000003 Ry
     smearing contrib. (-TS)   =      -0.00072173 Ry
     internal energy E=F+TS    =    -656.99083801 Ry

     The total energy is F=E-TS. E is the sum of the following terms:
     one-electron contribution =    -319.36432707 Ry
     hartree contribution      =     177.85255343 Ry
     xc contribution           =     -68.44779524 Ry
     ewald contribution        =    -427.97223546 Ry
     one-center paw contrib.   =     -19.05903367 Ry
      -> PAW hartree energy AE =      55.88995685 Ry
      -> PAW hartree energy PS =     -55.69246210 Ry
      -> PAW xc energy AE      =     -33.82774696 Ry
      -> PAW xc energy PS      =      14.57121854 Ry
      -> total E_H with PAW    =     178.05004818 Ry
      -> total E_XC with PAW   =     -87.70432367 Ry

     convergence has been achieved in  19 iterations

     Forces acting on atoms (cartesian axes, Ry/au):

     atom    1 type  1   force =     0.00000000    0.00000000    0.00000000
     atom    2 type  1   force =     0.00000000    0.00000000    0.00000000
     atom    3 type  2   force =     0.00000000    0.00000000   -0.00006657
     atom    4 type  2   force =     0.00000000    0.00000000    0.00006657
     The non-local contrib.  to forces
     atom    1 type  1   force =     0.00000000    0.00000000    0.00000000
     atom    2 type  1   force =     0.00000000    0.00000000    0.00000000
     atom    3 type  2   force =     0.00000000    0.00000000   -0.00001790
     atom    4 type  2   force =     0.00000000    0.00000000    0.00001790
     The ionic contribution  to forces
     atom    1 type  1   force =    -0.00000000    0.00000000    0.00000000
     atom    2 type  1   force =    -0.00000000   -0.00000000    0.00000000
     atom    3 type  2   force =     0.00000000    0.00000000   -0.00000000
     atom    4 type  2   force =     0.00000000    0.00000000    0.00000000
     The local contribution  to forces
     atom    1 type  1   force =    -0.00000029   -0.00000015   -0.00021239
     atom    2 type  1   force =     0.00000005    0.00000020    0.00021199
     atom    3 type  2   force =     0.00028554   -0.00048912    0.00007352
     atom    4 type  2   force =    -0.00028523    0.00048890   -0.00007386
     The core correction contribution to forces
     atom    1 type  1   force =     0.00000000    0.00000000    0.00000000
     atom    2 type  1   force =     0.00000000    0.00000000    0.00000000
     atom    3 type  2   force =     0.00000352   -0.00000599   -0.00000016
     atom    4 type  2   force =    -0.00000351    0.00000599    0.00000017
     The Hubbard contrib.    to forces
     atom    1 type  1   force =     0.00000000    0.00000000    0.00000000
     atom    2 type  1   force =     0.00000000    0.00000000    0.00000000
     atom    3 type  2   force =     0.00000000    0.00000000    0.00000000
     atom    4 type  2   force =     0.00000000    0.00000000    0.00000000
     The SCF correction term to forces
     atom    1 type  1   force =     0.00000011    0.00000054    0.00021985
     atom    2 type  1   force =    -0.00000006   -0.00000041   -0.00021841
     atom    3 type  2   force =    -0.00007310    0.00012496   -0.00012222
     atom    4 type  2   force =     0.00007309   -0.00012485    0.00012216

     Total force =     0.000094     Total SCF correction =     0.000410
     SCF correction compared to forces is large: reduce conv_thr to get better values

     Computing stress (Cartesian axis) and pressure

          total   stress  (Ry/bohr**3)                   (kbar)     P=    -1253.80
  -0.00897970  -0.00082851   0.00000000        -1320.96     -121.88        0.00
  -0.00082851  -0.00907625   0.00000000         -121.88    -1335.16        0.00
   0.00000000   0.00000000  -0.00751347            0.00        0.00    -1105.27

     kinetic stress (kbar)  53258.27     23.52      0.00
                               23.52  53260.14      0.00
                                0.00      0.00  53344.96

     local   stress (kbar) -11500.42   2198.26     -0.11
                             2198.26 -11239.35     -0.22
                               -0.11     -0.22 -24609.54

     nonloc. stress (kbar)  -1181.67    -40.18      0.00
                              -40.18  -1186.33      0.00
                                0.00      0.00  -1234.32

     hartree stress (kbar)  19548.38   -898.27      0.05
                             -898.27  19441.80      0.11
                                0.05      0.11  24647.92

     exc-cor stress (kbar)  -7427.59     -1.30      0.00
                               -1.30  -7427.75      0.00
                                0.00      0.00  -7416.94

     corecor stress (kbar)   -301.03     -0.65      0.00
                               -0.65   -301.10      0.00
                                0.00      0.00   -302.45

     ewald   stress (kbar) -53716.90  -1403.25     -0.00
                            -1403.25 -53882.57     -0.00
                               -0.00     -0.00 -45534.91

     hubbard stress (kbar)      0.00      0.00      0.00
                                0.00      0.00      0.00
                                0.00      0.00      0.00

     DFT-D   stress (kbar)      0.00      0.00      0.00
                                0.00      0.00      0.00
                                0.00      0.00      0.00

     XDM     stress (kbar)      0.00      0.00      0.00
                                0.00      0.00      0.00
                                0.00      0.00      0.00

     dft-nl  stress (kbar)      0.00      0.00      0.00
                                0.00      0.00      0.00
                                0.00      0.00      0.00

     TS-vdW  stress (kbar)      0.00      0.00      0.00
                                0.00      0.00      0.00
                                0.00      0.00      0.00

[...]

                                0.00      0.00      0.00

     Writing all to output data dir new_calculations/myprefix.save/

     General routines

     Parallel routines

     PAW routines

   This run was terminated on:  15:11:16  20May2023

   JOB DONE.