     Program PWSCF v.7.0 starts on 21May2023 at  0: 2:26

     Reading input from espresso_2788.pwi
Warning: card &CELL ignored
Warning: card / ignored

     Current dimensions of program PWSCF are:
     Max number of different atomic species (ntypx) = 10
     Max number of k-points (npk) =  40000
     Max angular momentum in pseudopotentials (lmaxx) =  4
     file Nb.pbe-spn-kjpaw_psl.0.3.0.UPF: wavefunction(s)  4S 4P renormalized

     gamma-point specific algorithms are used
     Message from routine setup:
     using ibrav=0 with symmetry is DISCOURAGED, use correct ibrav instead

     Subspace diagonalization in iterative solution of the eigenvalue problem:
     a serial algorithm will be used

     Using Slab Decomposition

     bravais-lattice index     =            0
     lattice parameter (alat)  =      10.6762  a.u.
     unit-cell volume          =    2432.3183 (a.u.)^3
     number of atoms/cell      =           16
     number of atomic types    =            4
     number of electrons       =       188.00
     number of Kohn-Sham states=          113
     kinetic-energy cutoff     =      30.0000  Ry
     charge density cutoff     =     240.0000  Ry
     scf convergence threshold =      1.0E-06
     mixing beta               =       0.7000
     number of iterations used =            8  plain     mixing
     Exchange-correlation= SLA  PW   PBE  PBE
                           (   1   4   3   4   0   0   0)

     celldm(1)=  10.676157  celldm(2)=   0.000000  celldm(3)=   0.000000
     celldm(4)=   0.000000  celldm(5)=   0.000000  celldm(6)=   0.000000

     crystal axes: (cart. coord. in units of alat)
               a(1) = (   1.000000   0.000000   0.000000 )
               a(2) = (   0.000000   1.000000   0.000000 )
               a(3) = (   0.000000   0.000000   1.998829 )

     reciprocal axes: (cart. coord. in units 2 pi/alat)
               b(1) = (  1.000000  0.000000  0.000000 )
               b(2) = (  0.000000  1.000000  0.000000 )
               b(3) = (  0.000000  0.000000  0.500293 )

     PseudoPot. # 1 for Nb read from file:
     /home/pragov/projects/rrg-bengioy-ad/pragov/crystal_structure_design/SSSP/Nb.pbe-spn-kjpaw_psl.0.3.0.UPF
     MD5 check sum: 411d72ad547312f8017e2943ceca08cc
     Pseudo is Projector augmented-wave + core cor, Zval = 13.0
     Generated using "atomic" code by A. Dal Corso  v.5.0.99 svn rev. 10869
     Shape of augmentation charge: PSQ
     Using radial grid of 1227 points,  6 beta functions with:
                l(1) =   0
                l(2) =   0
                l(3) =   1
                l(4) =   1
                l(5) =   2
                l(6) =   2
     Q(r) pseudized with 0 coefficients

     PseudoPot. # 2 for V  read from file:
     /home/pragov/projects/rrg-bengioy-ad/pragov/crystal_structure_design/SSSP/v_pbe_v1.4.uspp.F.UPF
     MD5 check sum: 22b79981416ebb76fdaf5b1b8640f6fb
     Pseudo is Ultrasoft + core correction, Zval = 13.0
     Generated by new atomic code, or converted to UPF format
     Using radial grid of  853 points,  6 beta functions with:
                l(1) =   0
                l(2) =   0
                l(3) =   1
                l(4) =   1
                l(5) =   2
                l(6) =   2
     Q(r) pseudized with  8 coefficients,  rinner =    1.100   1.100   1.100
                                                       1.100   1.100

     PseudoPot. # 3 for Cu read from file:
     /home/pragov/projects/rrg-bengioy-ad/pragov/crystal_structure_design/SSSP/Cu_pbe_v1.2.uspp.F.UPF
     MD5 check sum: 6e991ff952a84172a2a52a1c1e996048
     Pseudo is Ultrasoft + core correction, Zval = 19.0
     Generated by new atomic code, or converted to UPF format
     Using radial grid of  867 points,  6 beta functions with:
                l(1) =   0
                l(2) =   0
                l(3) =   1
                l(4) =   1
                l(5) =   2
                l(6) =   2
     Q(r) pseudized with  8 coefficients,  rinner =    1.150   1.150   1.150
                                                       1.150   1.150

     PseudoPot. # 4 for Se read from file:
     /home/pragov/projects/rrg-bengioy-ad/pragov/crystal_structure_design/SSSP/Se_pbe_v1.uspp.F.UPF
     MD5 check sum: 1b3568f3a8ae88f9a2a0ad0698632c85
     Pseudo is Ultrasoft + core correction, Zval =  6.0
     Generated by new atomic code, or converted to UPF format
     Using radial grid of  877 points,  6 beta functions with:
                l(1) =   0
                l(2) =   0
                l(3) =   1
                l(4) =   1
                l(5) =   2
                l(6) =   2
     Q(r) pseudized with  8 coefficients,  rinner =    1.300   1.300   1.300
                                                       1.300   1.300

     atomic species   valence    mass     pseudopotential
        Nb            13.00    92.90637     Nb( 1.00)
        V             13.00    50.94150     V ( 1.00)
        Cu            19.00    63.54600     Cu( 1.00)
        Se             6.00    78.97100     Se( 1.00)

      8 Sym. Ops. (no inversion) found

                                    s                        frac. trans.

      isym =  1     identity

 cryst.   s( 1) = (     1          0          0      )
                  (     0          1          0      )
                  (     0          0          1      )

 cart.    s( 1) = (  1.0000000  0.0000000  0.0000000 )
                  (  0.0000000  1.0000000  0.0000000 )
                  (  0.0000000  0.0000000  1.0000000 )

      isym =  2     180 deg rotation - cart. axis [0,0,1]

[...]

      isym =  4     180 deg rotation - cart. axis [1,0,0]

[...]

      isym =  5     inv. 180 deg rotation - cart. axis [1,1,0]

[...]

      isym =  8     inv.  90 deg rotation - cart. axis [0,0,1]

 cryst.   s( 8) = (     0         -1          0      )
                  (     1          0          0      )
                  (     0          0         -1      )

 cart.    s( 8) = (  0.0000000  1.0000000  0.0000000 )
                  ( -1.0000000  0.0000000  0.0000000 )
                  (  0.0000000  0.0000000 -1.0000000 )

   Cartesian axes

     site n.     atom                  positions (alat units)
         1           Nb  tau(   1) = (   0.0000000   0.0000000   0.0000000  )
         2           V   tau(   2) = (   0.0000000   0.0000000   0.9994143  )
         3           Cu  tau(   3) = (   0.0000000   0.0000000   0.5033890  )
         4           Cu  tau(   4) = (   0.0000000   0.0000000   1.4954396  )
         5           Cu  tau(   5) = (   0.0000000   0.5000000   0.0000000  )
         6           Cu  tau(   6) = (   0.0000000   0.5000000   0.9994143  )
         7           Cu  tau(   7) = (   0.5000000   0.0000000   0.0000000  )
         8           Cu  tau(   8) = (   0.5000000   0.0000000   0.9994143  )
         9           Se  tau(   9) = (   0.7482470   0.7482470   0.2522282  )
        10           Se  tau(  10) = (   0.7582720   0.7582720   1.2403651  )
        11           Se  tau(  11) = (   0.7582720   0.2417280   0.7584635  )
        12           Se  tau(  12) = (   0.7482470   0.2517530   1.7466004  )
        13           Se  tau(  13) = (   0.2417280   0.7582720   0.7584635  )
        14           Se  tau(  14) = (   0.2517530   0.7482470   1.7466004  )
        15           Se  tau(  15) = (   0.2517530   0.2517530   0.2522282  )
        16           Se  tau(  16) = (   0.2417280   0.2417280   1.2403651  )

   Crystallographic axes

     site n.     atom                  positions (cryst. coord.)
         1           Nb  tau(   1) = (  0.0000000  0.0000000  0.0000000  )
         2           V   tau(   2) = (  0.0000000  0.0000000  0.5000000  )
         3           Cu  tau(   3) = (  0.0000000  0.0000000  0.2518420  )
         4           Cu  tau(   4) = (  0.0000000  0.0000000  0.7481580  )
         5           Cu  tau(   5) = (  0.0000000  0.5000000  0.0000000  )
         6           Cu  tau(   6) = (  0.0000000  0.5000000  0.5000000  )
         7           Cu  tau(   7) = (  0.5000000  0.0000000  0.0000000  )
         8           Cu  tau(   8) = (  0.5000000  0.0000000  0.5000000  )
         9           Se  tau(   9) = (  0.7482470  0.7482470  0.1261880  )
        10           Se  tau(  10) = (  0.7582720  0.7582720  0.6205460  )
        11           Se  tau(  11) = (  0.7582720  0.2417280  0.3794540  )
        12           Se  tau(  12) = (  0.7482470  0.2517530  0.8738120  )
        13           Se  tau(  13) = (  0.2417280  0.7582720  0.3794540  )
        14           Se  tau(  14) = (  0.2517530  0.7482470  0.8738120  )
        15           Se  tau(  15) = (  0.2517530  0.2517530  0.1261880  )
        16           Se  tau(  16) = (  0.2417280  0.2417280  0.6205460  )

     number of k points=     1  Methfessel-Paxton smearing, width (Ry)=  0.0010
                       cart. coord. in units 2pi/alat
        k(    1) = (   0.0000000   0.0000000   0.0000000), wk =   2.0000000

                       cryst. coord.
        k(    1) = (   0.0000000   0.0000000   0.0000000), wk =   2.0000000

     Check: negative core charge=   -0.000003

     Initial potential from superposition of free atoms

     starting charge     181.9961, renormalised to     188.0000

     negative rho (up, down):  1.783E-03 0.000E+00
     Starting wfcs are  130 randomized atomic wfcs
     Checking if some PAW data can be deallocated...

     Self-consistent Calculation

     iteration #  1     ecut=    30.00 Ry     beta= 0.70
     Davidson diagonalization with overlap

     ethr =  1.00E-02,  avg # of iterations =  3.0

     negative rho (up, down):  3.023E-03 0.000E+00

     total energy              =   -3247.62238903 Ry
     estimated scf accuracy    <       5.48632762 Ry

[...]

     total energy              =   -3250.84385988 Ry
     estimated scf accuracy    <       0.00000131 Ry

     iteration # 16     ecut=    30.00 Ry     beta= 0.70
     Davidson diagonalization with overlap

     ethr =  6.95E-10,  avg # of iterations =  2.0

[...]

     End of self-consistent calculation

          k = 0.0000 0.0000 0.0000 (  3401 PWs)   bands (ev):

  -105.3925-105.3922-105.3803-105.3780-105.3682-105.3669 -62.8166 -62.8157
   -62.8014 -62.8011 -62.7776 -62.7773 -62.7704 -62.7684 -62.7553 -62.7533
   -62.7485 -62.7461 -62.7339 -62.7336 -62.7179 -62.7170 -62.7118 -62.7103
   -57.6422 -48.4224 -31.5393 -31.5392 -31.4193 -24.5920 -24.5920 -24.4881
    -6.7037  -6.3575  -6.0680  -5.7028  -5.7026  -5.6762  -5.6518  -5.6517
     1.4202   1.4260   1.7796   2.1249   2.1579   2.3624   2.6898   2.9972
     3.0814   3.0815   3.0891   3.2037   3.2037   3.2538   3.5343   3.5345
     3.6632   3.6632   3.6721   4.0370   4.0980   4.1323   4.1543   4.1544
     4.1659   4.1660   4.2461   4.4910   4.5433   4.6110   4.6854   4.6856
     4.6863   4.7054   4.7075   4.7410   4.8250   4.8747   4.8749   4.9139
     5.2753   5.2977   5.2979   5.3813   5.4295   5.4295   5.4683   5.5087
     5.6186   6.3863   6.3864   6.4142   6.4477   6.4477   7.8861   7.9515
     8.3957   8.4615   8.6372   8.6373   8.7270   8.7399   8.8638   8.8638
     9.0247  11.2171  11.5365  11.9454  11.9678  11.9765  11.9765  12.1790
    12.2736

     occupation numbers
     1.0000   1.0000   1.0000   1.0000   1.0000   1.0000   1.0000   1.0000
     1.0000   1.0000   1.0000   1.0000   1.0000   1.0000   1.0000   1.0000
     1.0000   1.0000   1.0000   1.0000   1.0000   1.0000   1.0000   1.0000
     1.0000   1.0000   1.0000   1.0000   1.0000   1.0000   1.0000   1.0000
     1.0000   1.0000   1.0000   1.0000   1.0000   1.0000   1.0000   1.0000
     1.0000   1.0000   1.0000   1.0000   1.0000   1.0000   1.0000   1.0000
     1.0000   1.0000   1.0000   1.0000   1.0000   1.0000   1.0000   1.0000
     1.0000   1.0000   1.0000   1.0000   1.0000   1.0000   1.0000   1.0000
     1.0000   1.0000   1.0000   1.0000   1.0000   1.0000   1.0000   1.0000
     1.0000   1.0000   1.0000   1.0000   1.0000   1.0000   1.0000   1.0000
     1.0000   1.0000   1.0000   1.0000   1.0000   1.0000   1.0000   1.0000
     1.0000   1.0000   1.0000   1.0000   1.0000   1.0000  -0.0000  -0.0000
    -0.0000  -0.0000  -0.0000  -0.0000  -0.0000  -0.0000  -0.0000  -0.0000
    -0.0000  -0.0000  -0.0000  -0.0000  -0.0000  -0.0000  -0.0000  -0.0000
    -0.0000

     the Fermi energy is     6.8813 ev

!    total energy              =   -3250.84385969 Ry
     estimated scf accuracy    <       0.00000054 Ry
     smearing contrib. (-TS)   =       0.00000000 Ry
     internal energy E=F+TS    =   -3250.84385969 Ry

     The total energy is F=E-TS. E is the sum of the following terms:
     one-electron contribution =   -2827.28203162 Ry
     hartree contribution      =    1475.57431050 Ry
     xc contribution           =    -519.06037299 Ry
     ewald contribution        =   -1171.58699104 Ry
     one-center paw contrib.   =    -208.48877455 Ry
      -> PAW hartree energy AE =      68.60783565 Ry
      -> PAW hartree energy PS =     -68.23751929 Ry
      -> PAW xc energy AE      =    -235.88232194 Ry
      -> PAW xc energy PS      =      27.02323103 Ry
      -> total E_H with PAW    =    1475.94462686 Ry
      -> total E_XC with PAW   =    -727.91946390 Ry

     convergence has been achieved in  16 iterations

     negative rho (up, down):  2.126E-03 0.000E+00

     Forces acting on atoms (cartesian axes, Ry/au):

     atom    1 type  1   force =     0.00000000    0.00000000    0.00000000
     atom    2 type  2   force =     0.00000000    0.00000000    0.00000000
     atom    3 type  3   force =     0.00000000    0.00000000    0.00047762
     atom    4 type  3   force =     0.00000000    0.00000000   -0.00047762
     atom    5 type  3   force =     0.00000000    0.00000000    0.00000000
     atom    6 type  3   force =     0.00000000    0.00000000    0.00000000
     atom    7 type  3   force =     0.00000000    0.00000000    0.00000000
     atom    8 type  3   force =     0.00000000    0.00000000    0.00000000
     atom    9 type  4   force =     0.01075148    0.01075148   -0.00616498
     atom   10 type  4   force =     0.01000017    0.01000017   -0.01445213
     atom   11 type  4   force =     0.01000017   -0.01000017    0.01445213
     atom   12 type  4   force =     0.01075148   -0.01075148    0.00616498
     atom   13 type  4   force =    -0.01000017    0.01000017    0.01445213
     atom   14 type  4   force =    -0.01075148    0.01075148    0.00616498
     atom   15 type  4   force =    -0.01075148   -0.01075148   -0.00616498
     atom   16 type  4   force =    -0.01000017   -0.01000017   -0.01445213
     The non-local contrib.  to forces
     atom    1 type  1   force =     0.00000000    0.00000000    0.00000000
     atom    2 type  2   force =     0.00000000    0.00000000    0.00000000
     atom    3 type  3   force =     0.00000000    0.00000000   -0.06629843
     atom    4 type  3   force =     0.00000000    0.00000000    0.06629843
     atom    5 type  3   force =     0.00000000    0.00000000    0.00000000
     atom    6 type  3   force =     0.00000000    0.00000000    0.00000000
     atom    7 type  3   force =     0.00000000    0.00000000    0.00000000
     atom    8 type  3   force =     0.00000000    0.00000000    0.00000000
     atom    9 type  4   force =     0.13088215    0.13088215   -0.12092440
     atom   10 type  4   force =     0.12366105    0.12366105   -0.12656467
     atom   11 type  4   force =     0.12366105   -0.12366105    0.12656467
     atom   12 type  4   force =     0.13088215   -0.13088215    0.12092440
     atom   13 type  4   force =    -0.12366105    0.12366105    0.12656467
     atom   14 type  4   force =    -0.13088215    0.13088215    0.12092440
     atom   15 type  4   force =    -0.13088215   -0.13088215   -0.12092440
     atom   16 type  4   force =    -0.12366105   -0.12366105   -0.12656467
     The ionic contribution  to forces
     atom    1 type  1   force =    -0.00000000   -0.00000000   -0.00000000
     atom    2 type  2   force =    -0.00000000   -0.00000000   -0.00000000
     atom    3 type  3   force =     0.00000000    0.00000000   -2.74694374
     atom    4 type  3   force =     0.00000000    0.00000000    2.74694374
     atom    5 type  3   force =     0.00000000    0.00000000   -0.00000000
     atom    6 type  3   force =     0.00000000    0.00000000    0.00000000
     atom    7 type  3   force =     0.00000000    0.00000000   -0.00000000
     atom    8 type  3   force =     0.00000000    0.00000000    0.00000000
     atom    9 type  4   force =    -7.84578393   -7.84578393    7.74914304
     atom   10 type  4   force =    -8.32025112   -8.32025112    8.37715023
     atom   11 type  4   force =    -8.32025112    8.32025112   -8.37715023
     atom   12 type  4   force =    -7.84578393    7.84578393   -7.74914304
     atom   13 type  4   force =     8.32025112   -8.32025112   -8.37715023
     atom   14 type  4   force =     7.84578393   -7.84578393   -7.74914304
     atom   15 type  4   force =     7.84578393    7.84578393    7.74914304
     atom   16 type  4   force =     8.32025112    8.32025112    8.37715023
     The local contribution  to forces
     atom    1 type  1   force =     0.00000073   -0.00002792   -0.00004097
     atom    2 type  2   force =    -0.00000196   -0.00000933    0.00016362
     atom    3 type  3   force =     0.00000074   -0.00000442    2.81216954
     atom    4 type  3   force =    -0.00000446   -0.00003225   -2.81230977
     atom    5 type  3   force =    -0.00000056    0.00001589   -0.00011931
     atom    6 type  3   force =    -0.00000701    0.00001480    0.00019622
     atom    7 type  3   force =    -0.00000969   -0.00001559   -0.00011560
     atom    8 type  3   force =     0.00000303   -0.00001424    0.00020978
     atom    9 type  4   force =     7.73920109    7.73910024   -7.64654631
     atom   10 type  4   force =     8.21889648    8.21914735   -8.27759236
     atom   11 type  4   force =     8.21894648   -8.21918669    8.27767507
     atom   12 type  4   force =     7.73916856   -7.73906691    7.64648635
     atom   13 type  4   force =    -8.21894309    8.21918793    8.27766853
     atom   14 type  4   force =    -7.73916903    7.73906811    7.64648774
     atom   15 type  4   force =    -7.73920163   -7.73910073   -7.64654466
     atom   16 type  4   force =    -8.21889985   -8.21915041   -8.27759959
     The core correction contribution to forces
     atom    1 type  1   force =    -0.00000017   -0.00000040    0.00000080
     atom    2 type  2   force =    -0.00000009   -0.00000001    0.00000214
     atom    3 type  3   force =     0.00000001   -0.00000001    0.00015645
     atom    4 type  3   force =     0.00000000    0.00000000   -0.00015636
     atom    5 type  3   force =    -0.00000002   -0.00000003   -0.00000007
     atom    6 type  3   force =     0.00000002   -0.00000000    0.00000005
     atom    7 type  3   force =    -0.00000002    0.00000001   -0.00000008
     atom    8 type  3   force =    -0.00000001    0.00000000    0.00000007
     atom    9 type  4   force =    -0.01339681   -0.01339830    0.01197057
     atom   10 type  4   force =    -0.01256345   -0.01256151    0.01290965
     atom   11 type  4   force =    -0.01256029    0.01255909   -0.01290901
     atom   12 type  4   force =    -0.01339732    0.01339890   -0.01196988
     atom   13 type  4   force =     0.01256150   -0.01255868   -0.01290982
     atom   14 type  4   force =     0.01339724   -0.01339929   -0.01197010
     atom   15 type  4   force =     0.01339618    0.01339884    0.01197100
     atom   16 type  4   force =     0.01256248    0.01256106    0.01290917
     The Hubbard contrib.    to forces
     atom    1 type  1   force =     0.00000000    0.00000000    0.00000000
     atom    2 type  2   force =     0.00000000    0.00000000    0.00000000
     atom    3 type  3   force =     0.00000000    0.00000000    0.00000000
     atom    4 type  3   force =     0.00000000    0.00000000    0.00000000
     atom    5 type  3   force =     0.00000000    0.00000000    0.00000000
     atom    6 type  3   force =     0.00000000    0.00000000    0.00000000
     atom    7 type  3   force =     0.00000000    0.00000000    0.00000000
     atom    8 type  3   force =     0.00000000    0.00000000    0.00000000
     atom    9 type  4   force =     0.00000000    0.00000000    0.00000000
     atom   10 type  4   force =     0.00000000    0.00000000    0.00000000
     atom   11 type  4   force =     0.00000000    0.00000000    0.00000000
     atom   12 type  4   force =     0.00000000    0.00000000    0.00000000
     atom   13 type  4   force =     0.00000000    0.00000000    0.00000000
     atom   14 type  4   force =     0.00000000    0.00000000    0.00000000
     atom   15 type  4   force =     0.00000000    0.00000000    0.00000000
     atom   16 type  4   force =     0.00000000    0.00000000    0.00000000
     The SCF correction term to forces
     atom    1 type  1   force =    -0.00000088    0.00002666    0.00006148
     atom    2 type  2   force =     0.00000014    0.00000838   -0.00017266
     atom    3 type  3   force =    -0.00000339    0.00000387    0.00139621
     atom    4 type  3   force =     0.00000591    0.00004955   -0.00125126
     atom    5 type  3   force =     0.00000427   -0.00001354    0.00012073
     atom    6 type  3   force =     0.00001308   -0.00002871   -0.00020051
     atom    7 type  3   force =     0.00002439    0.00002431    0.00008918
     atom    8 type  3   force =    -0.00000792    0.00001601   -0.00022434
     atom    9 type  4   force =    -0.00014425   -0.00004777    0.00019915
     atom   10 type  4   force =     0.00024772   -0.00000793   -0.00035476
     atom   11 type  4   force =     0.00021917    0.00003259    0.00027243
     atom   12 type  4   force =    -0.00011954    0.00002088   -0.00012481
     atom   13 type  4   force =    -0.00022056   -0.00003283    0.00027508
     atom   14 type  4   force =     0.00012079   -0.00002205   -0.00012787
     atom   15 type  4   force =     0.00014359    0.00004852    0.00019719
     atom   16 type  4   force =    -0.00024704    0.00000944   -0.00035062

     Total force =     0.052084     Total SCF correction =     0.002115

     Computing stress (Cartesian axis) and pressure

     negative rho (up, down):  2.126E-03 0.000E+00
          total   stress  (Ry/bohr**3)                   (kbar)     P=     -203.99
  -0.00124827   0.00000000   0.00000000         -183.63        0.00        0.00
   0.00000000  -0.00124827   0.00000000            0.00     -183.63        0.00
   0.00000000   0.00000000  -0.00166353            0.00        0.00     -244.71

     kinetic stress (kbar)  15378.60      0.00      0.00
                                0.00  15378.60      0.00
                                0.00      0.00  15371.23

     local   stress (kbar) -26209.60      0.00     -0.00
                                0.00 -26209.37     -0.00
                               -0.00     -0.00 -26329.85

     nonloc. stress (kbar)  10782.29      0.00      0.00
                                0.00  10782.29      0.00
                                0.00      0.00  10755.04

     hartree stress (kbar)  29719.51     -0.00      0.00
                               -0.00  29719.29      0.00
                                0.00      0.00  29803.01

     exc-cor stress (kbar)   7124.01     -0.00      0.00
                               -0.00   7124.01      0.00
                                0.00      0.00   7124.64

     corecor stress (kbar) -13357.08      0.00      0.00
                                0.00 -13357.08     -0.00
                                0.00     -0.00 -13354.67

     ewald   stress (kbar) -23621.37     -0.00     -0.00
                               -0.00 -23621.37     -0.00
                               -0.00     -0.00 -23614.11

     hubbard stress (kbar)      0.00      0.00      0.00
                                0.00      0.00      0.00
                                0.00      0.00      0.00

     DFT-D   stress (kbar)      0.00      0.00      0.00
                                0.00      0.00      0.00
                                0.00      0.00      0.00

     XDM     stress (kbar)      0.00      0.00      0.00
                                0.00      0.00      0.00
                                0.00      0.00      0.00

     dft-nl  stress (kbar)      0.00      0.00      0.00
                                0.00      0.00      0.00
                                0.00      0.00      0.00

     TS-vdW  stress (kbar)      0.00      0.00      0.00
                                0.00      0.00      0.00
                                0.00      0.00      0.00

[...]

                                0.00      0.00      0.00

     Writing all to output data dir new_calculations/myprefix.save/

     General routines

     Parallel routines

     PAW routines

   This run was terminated on:   0: 3:21  21May2023

   JOB DONE.