     Program PWSCF v.7.0 starts on 21May2023 at  5:27:46

     Reading input from espresso_13958.pwi
Warning: card &CELL ignored
Warning: card / ignored

     Current dimensions of program PWSCF are:
     Max number of different atomic species (ntypx) = 10
     Max number of k-points (npk) =  40000
     Max angular momentum in pseudopotentials (lmaxx) =  4

     gamma-point specific algorithms are used
     Message from routine setup:
     using ibrav=0 with symmetry is DISCOURAGED, use correct ibrav instead

     Subspace diagonalization in iterative solution of the eigenvalue problem:
     a serial algorithm will be used

     Using Slab Decomposition

     bravais-lattice index     =            0
     lattice parameter (alat)  =      11.1573  a.u.
     unit-cell volume          =    2130.2755 (a.u.)^3
     number of atoms/cell      =           18
     number of atomic types    =            3
     number of electrons       =       144.00
     number of Kohn-Sham states=           86
     kinetic-energy cutoff     =      30.0000  Ry
     charge density cutoff     =     240.0000  Ry
     scf convergence threshold =      1.0E-06
     mixing beta               =       0.7000
     number of iterations used =            8  plain     mixing
     Exchange-correlation=  SLA  PW   PBX  PBC
                           (   1   4   3   4   0   0   0)

     celldm(1)=  11.157270  celldm(2)=   0.000000  celldm(3)=   0.000000
     celldm(4)=   0.000000  celldm(5)=   0.000000  celldm(6)=   0.000000

     crystal axes: (cart. coord. in units of alat)
               a(1) = (   1.000000   0.000000   0.000000 )
               a(2) = (   0.000000   1.079053   0.000000 )
               a(3) = (   0.000000   0.298306   1.421410 )

     reciprocal axes: (cart. coord. in units 2 pi/alat)
               b(1) = (  1.000000  0.000000  0.000000 )
               b(2) = (  0.000000  0.926739 -0.194491 )
               b(3) = (  0.000000  0.000000  0.703527 )

     PseudoPot. # 1 for La read from file:
     /home/pragov/projects/rrg-bengioy-ad/pragov/crystal_structure_design/SSSP/La.GGA-PBE-paw-v1.0.UPF
     MD5 check sum: 436541e95c1ad8901025bd0b0ed42ae2
     Pseudo is Projector augmented-wave + core cor, Zval = 11.0
     Generated using ATOMPAW code
     Shape of augmentation charge: BESSEL
     Using radial grid of 1101 points,  8 beta functions with:
                l(1) =   0
                l(2) =   0
                l(3) =   1
                l(4) =   1
                l(5) =   2
                l(6) =   2
                l(7) =   3
                l(8) =   3
     Q(r) pseudized with 0 coefficients

     PseudoPot. # 2 for Hf read from file:
     /home/pragov/projects/rrg-bengioy-ad/pragov/crystal_structure_design/SSSP/Hf-sp.oncvpsp.upf
     MD5 check sum: 417ed15784afe83d2e06dacf143de3f8
     Pseudo is Norm-conserving + core correction, Zval = 12.0
     Generated using ONCVPSP code by D. R. Hamann
     Using radial grid of 1656 points,  8 beta functions with:
                l(1) =   0
                l(2) =   0
                l(3) =   1
                l(4) =   1
                l(5) =   2
                l(6) =   2
                l(7) =   3
                l(8) =   3

     PseudoPot. # 3 for F  read from file:
     /home/pragov/projects/rrg-bengioy-ad/pragov/crystal_structure_design/SSSP/f_pbe_v1.4.uspp.F.UPF
     MD5 check sum: 4c38b6a325caf53ec0e86aed9459de46
     Pseudo is Ultrasoft, Zval =  7.0
     Generated by new atomic code, or converted to UPF format
     Using radial grid of  799 points,  4 beta functions with:
                l(1) =   0
                l(2) =   0
                l(3) =   1
                l(4) =   1
     Q(r) pseudized with  8 coefficients,  rinner =    0.950   0.950   0.950

     atomic species   valence    mass     pseudopotential
        La            11.00   138.90547     La( 1.00)
        Hf            12.00   178.49000     Hf( 1.00)
        F              7.00    18.99840     F ( 1.00)

      2 Sym. Ops. (no inversion) found ( 1 have fractional translation)

                                    s                        frac. trans.

      isym =  1     identity

 cryst.   s( 1) = (     1          0          0      )
                  (     0          1          0      )
                  (     0          0          1      )

 cart.    s( 1) = (  1.0000000  0.0000000  0.0000000 )
                  (  0.0000000  1.0000000 -0.0000000 )
                  (  0.0000000  0.0000000  1.0000000 )

      isym =  2     180 deg rotation - cart. axis [1,0,0]

 cryst.   s( 2) = (     1          0          0      )    f =(  0.5000000 )
                  (     0         -1          0      )       ( -0.0000000 )
                  (     0          0         -1      )       ( -0.0000000 )

 cart.    s( 2) = (  1.0000000  0.0000000  0.0000000 )    f =(  0.5000000 )
                  (  0.0000000 -1.0000000  0.0000000 )       ( -0.0000000 )
                  (  0.0000000  0.0000000 -1.0000000 )       ( -0.0000000 )

   Cartesian axes

     site n.     atom                  positions (alat units)
         1           La  tau(   1) = (   0.2018460   0.8021465   0.4432255  )
         2           La  tau(   2) = (   0.7018460   0.5752117   0.9781844  )
         3           Hf  tau(   3) = (   0.2106310   1.1085112   1.1017860  )
         4           Hf  tau(   4) = (   0.7106310   0.2688470   0.3196239  )
         5           F   tau(   5) = (   0.3808310   0.6371677   0.7502201  )
         6           F   tau(   6) = (   0.8808310   0.7401905   0.6711898  )
         7           F   tau(   7) = (   0.9170330   1.0765322   0.3314614  )
         8           F   tau(   8) = (   0.4170330   0.3008260   1.0899485  )
         9           F   tau(   9) = (   0.4502160   1.1256744   0.3361507  )
        10           F   tau(  10) = (   0.9502160   0.2516838   1.0852593  )
        11           F   tau(  11) = (   0.5047290   0.5404551   0.3031441  )
        12           F   tau(  12) = (   0.0047290   0.8369031   1.1182658  )
        13           F   tau(  13) = (   0.2057430   0.8236625   0.0212558  )
        14           F   tau(  14) = (   0.7057430   0.5536957   1.4001541  )
        15           F   tau(  15) = (   0.2135620   1.0855966   0.7621671  )
        16           F   tau(  16) = (   0.7135620   0.2917616   0.6592428  )
        17           F   tau(  17) = (   0.9917690   0.4647718   0.3080920  )
        18           F   tau(  18) = (   0.4917690   0.9125864   1.1133179  )

   Crystallographic axes

     site n.     atom                  positions (cryst. coord.)
         1           La  tau(   1) = (  0.2018460  0.6571770  0.3118210  )
         2           La  tau(   2) = (  0.7018460  0.3428230  0.6881790  )
         3           Hf  tau(   3) = (  0.2106310  0.8130130  0.7751360  )
         4           Hf  tau(   4) = (  0.7106310  0.1869870  0.2248640  )
         5           F   tau(   5) = (  0.3808310  0.4445770  0.5278000  )
         6           F   tau(   6) = (  0.8808310  0.5554230  0.4722000  )
         7           F   tau(   7) = (  0.9170330  0.9331980  0.2331920  )
         8           F   tau(   8) = (  0.4170330  0.0668020  0.7668080  )
         9           F   tau(   9) = (  0.4502160  0.9778280  0.2364910  )
        10           F   tau(  10) = (  0.9502160  0.0221720  0.7635090  )
        11           F   tau(  11) = (  0.5047290  0.4419020  0.2132700  )
        12           F   tau(  12) = (  0.0047290  0.5580980  0.7867300  )
        13           F   tau(  13) = (  0.2057430  0.7591860  0.0149540  )
        14           F   tau(  14) = (  0.7057430  0.2408140  0.9850460  )
        15           F   tau(  15) = (  0.2135620  0.8578300  0.5362050  )
        16           F   tau(  16) = (  0.7135620  0.1421700  0.4637950  )
        17           F   tau(  17) = (  0.9917690  0.3708010  0.2167510  )
        18           F   tau(  18) = (  0.4917690  0.6291990  0.7832490  )

     number of k points=     1  Methfessel-Paxton smearing, width (Ry)=  0.0010
                       cart. coord. in units 2pi/alat
        k(    1) = (   0.0000000   0.0000000   0.0000000), wk =   2.0000000

                       cryst. coord.
        k(    1) = (   0.0000000   0.0000000   0.0000000), wk =   2.0000000

     Initial potential from superposition of free atoms

     starting charge     143.9792, renormalised to     144.0000
     Starting wfcs are  140 randomized atomic wfcs
     Checking if some PAW data can be deallocated...

     Self-consistent Calculation

     iteration #  1     ecut=    30.00 Ry     beta= 0.70
     Davidson diagonalization with overlap

     ethr =  1.00E-02,  avg # of iterations =  1.0

     total energy              =   -1823.82189816 Ry
     estimated scf accuracy    <       3.04643424 Ry

[...]

     total energy              =   -1825.33855174 Ry
     estimated scf accuracy    <       0.00000426 Ry

     iteration # 11     ecut=    30.00 Ry     beta= 0.70
     Davidson diagonalization with overlap

     ethr =  2.96E-09,  avg # of iterations =  5.0

     End of self-consistent calculation

          k = 0.0000 0.0000 0.0000 (  2953 PWs)   bands (ev):

   -58.2189 -58.2087 -27.4052 -27.3639 -27.1913 -27.1904 -27.1687 -27.1674
   -27.1659 -27.1658 -19.1951 -19.1457 -19.0407 -19.0382 -19.0088 -18.9696
   -18.6590 -18.6298 -18.5973 -18.5750 -18.5527 -18.4568 -18.2489 -18.2386
   -11.0913 -11.0633 -10.8718 -10.8524 -10.5753 -10.4393  -2.1862  -2.1837
    -2.1330  -1.9756  -1.9166  -1.8521  -1.3679  -1.3143  -1.2625  -1.2566
    -1.0256  -0.9164  -0.8966  -0.6811  -0.6436  -0.5196  -0.4325  -0.3504
    -0.2557  -0.1910  -0.1087  -0.0988  -0.0262   0.0584   0.0662   0.0984
     0.1690   0.2362   0.2499   0.2626   0.3027   0.3236   0.4048   0.5236
     0.5589   0.5827   0.7113   0.7263   0.7501   0.9652   0.9777   1.0840
     7.5025   7.5173   7.5215   7.5447   7.5721   7.5780   7.5842   7.5848
     7.6228   7.6302   7.6386   7.6986   7.6999   7.7241

     occupation numbers
     1.0000   1.0000   1.0000   1.0000   1.0000   1.0000   1.0000   1.0000
     1.0000   1.0000   1.0000   1.0000   1.0000   1.0000   1.0000   1.0000
     1.0000   1.0000   1.0000   1.0000   1.0000   1.0000   1.0000   1.0000
     1.0000   1.0000   1.0000   1.0000   1.0000   1.0000   1.0000   1.0000
     1.0000   1.0000   1.0000   1.0000   1.0000   1.0000   1.0000   1.0000
     1.0000   1.0000   1.0000   1.0000   1.0000   1.0000   1.0000   1.0000
     1.0000   1.0000   1.0000   1.0000   1.0000   1.0000   1.0000   1.0000
     1.0000   1.0000   1.0000   1.0000   1.0000   1.0000   1.0000   1.0000
     1.0000   1.0000   1.0000   1.0000   1.0000   1.0000   1.0000   1.0000
    -0.0000  -0.0000  -0.0000  -0.0000  -0.0000  -0.0000  -0.0000  -0.0000
    -0.0000  -0.0000  -0.0000  -0.0000  -0.0000  -0.0000

     the Fermi energy is     3.7217 ev

!    total energy              =   -1825.33855521 Ry
     estimated scf accuracy    <       0.00000035 Ry
     smearing contrib. (-TS)   =       0.00000000 Ry
     internal energy E=F+TS    =   -1825.33855521 Ry

     The total energy is F=E-TS. E is the sum of the following terms:
     one-electron contribution =    -596.07917233 Ry
     hartree contribution      =     366.73942030 Ry
     xc contribution           =    -205.92635900 Ry
     ewald contribution        =    -593.91788522 Ry
     one-center paw contrib.   =    -796.15455896 Ry
      -> PAW hartree energy AE =      68.14866946 Ry
      -> PAW hartree energy PS =     -68.26414911 Ry
      -> PAW xc energy AE      =    -810.45444320 Ry
      -> PAW xc energy PS      =      14.41536389 Ry
      -> total E_H with PAW    =     366.62394066 Ry
      -> total E_XC with PAW   =   -1001.96543831 Ry

     convergence has been achieved in  11 iterations

     Forces acting on atoms (cartesian axes, Ry/au):

     atom    1 type  1   force =    -0.00482278   -0.00048405    0.00704999
     atom    2 type  1   force =    -0.00482278    0.00048405   -0.00704999
     atom    3 type  2   force =    -0.00370310   -0.00854828   -0.00352974
     atom    4 type  2   force =    -0.00370310    0.00854828    0.00352974
     atom    5 type  3   force =     0.00257664   -0.00056314    0.00004317
     atom    6 type  3   force =     0.00257664    0.00056314   -0.00004317
     atom    7 type  3   force =     0.00053903    0.00313864   -0.00654943
     atom    8 type  3   force =     0.00053903   -0.00313864    0.00654943
     atom    9 type  3   force =     0.00518106    0.00167647   -0.00132861
     atom   10 type  3   force =     0.00518106   -0.00167647    0.00132861
     atom   11 type  3   force =     0.00169819   -0.00302788   -0.00547814
     atom   12 type  3   force =     0.00169819    0.00302788    0.00547814
     atom   13 type  3   force =    -0.00046412    0.00304043   -0.00395064
     atom   14 type  3   force =    -0.00046412   -0.00304043    0.00395064
     atom   15 type  3   force =    -0.00060470    0.00363090    0.00086400
     atom   16 type  3   force =    -0.00060470   -0.00363090   -0.00086400
     atom   17 type  3   force =    -0.00040021   -0.00660033   -0.00441173
     atom   18 type  3   force =    -0.00040021    0.00660033    0.00441173
     The non-local contrib.  to forces
     atom    1 type  1   force =     0.01881563    0.02239280   -0.06075965
     atom    2 type  1   force =     0.01881563   -0.02239280    0.06075965
     atom    3 type  2   force =    -0.00247236   -0.00115867    0.00668657
     atom    4 type  2   force =    -0.00247236    0.00115867   -0.00668657
     atom    5 type  3   force =     0.17593262    0.19431572   -0.14350276
     atom    6 type  3   force =     0.17593262   -0.19431572    0.14350276
     atom    7 type  3   force =    -0.30054578    0.51954570    0.10630287
     atom    8 type  3   force =    -0.30054578   -0.51954570   -0.10630287
     atom    9 type  3   force =     0.55175758    0.31827417    0.09466760
     atom   10 type  3   force =     0.55175758   -0.31827417   -0.09466760
     atom   11 type  3   force =     0.34032846   -0.57394101    0.23170877
     atom   12 type  3   force =     0.34032846    0.57394101   -0.23170877
     atom   13 type  3   force =     0.00579974   -0.07706071   -0.62004187
     atom   14 type  3   force =     0.00579974    0.07706071    0.62004187
     atom   15 type  3   force =    -0.01236903   -0.22764280    0.76181265
     atom   16 type  3   force =    -0.01236903    0.22764280   -0.76181265
     atom   17 type  3   force =    -0.65413133   -0.20333800    0.21268811
     atom   18 type  3   force =    -0.65413133    0.20333800   -0.21268811
     The ionic contribution  to forces
     atom    1 type  1   force =     1.39610883    0.12003638   -3.87586946
     atom    2 type  1   force =     1.39610883   -0.12003638    3.87586946
     atom    3 type  2   force =    -0.59547140    0.81845900    3.77867385
     atom    4 type  2   force =    -0.59547140   -0.81845900   -3.77867385
     atom    5 type  3   force =    -1.99193713   -2.12405147    0.86102307
     atom    6 type  3   force =    -1.99193713    2.12405147   -0.86102307
     atom    7 type  3   force =     2.86283873   -5.32345940   -3.28919371
     atom    8 type  3   force =     2.86283873    5.32345940    3.28919371
     atom    9 type  3   force =    -5.24741885   -3.63926465   -2.61179525
     atom   10 type  3   force =    -5.24741885    3.63926465    2.61179525
     atom   11 type  3   force =    -3.51889460    5.99010378   -4.63629363
     atom   12 type  3   force =    -3.51889460   -5.99010378    4.63629363
     atom   13 type  3   force =    -0.19182643    0.92184239    5.78236362
     atom   14 type  3   force =    -0.19182643   -0.92184239   -5.78236362
     atom   15 type  3   force =     0.35635879    3.35164712   -7.17782614
     atom   16 type  3   force =     0.35635878   -3.35164712    7.17782614
     atom   17 type  3   force =     6.93024206    2.05381060   -4.18731692
     atom   18 type  3   force =     6.93024206   -2.05381060    4.18731692
     The local contribution  to forces
     atom    1 type  1   force =    -1.41975465   -0.14283256    3.94338607
     atom    2 type  1   force =    -1.41966665    0.14286595   -3.94338347
     atom    3 type  2   force =     0.59592656   -0.82450764   -3.78845354
     atom    4 type  2   force =     0.59602737    0.82445968    3.78846043
     atom    5 type  3   force =     1.81862966    1.92922273   -0.71752679
     atom    6 type  3   force =     1.81863352   -1.92920784    0.71751281
     atom    7 type  3   force =    -2.56194811    4.80740833    3.17626376
     atom    8 type  3   force =    -2.56193754   -4.80735542   -3.17626353
     atom    9 type  3   force =     4.70107715    3.32283965    2.51574429
     atom   10 type  3   force =     4.70105368   -3.32283354   -2.51574458
     atom   11 type  3   force =     3.18039396   -5.41943227    4.39903818
     atom   12 type  3   force =     3.18036893    5.41935205   -4.39904213
     atom   13 type  3   force =     0.18556908   -0.84173966   -5.16654182
     atom   14 type  3   force =     0.18558246    0.84174195    5.16658312
     atom   15 type  3   force =    -0.34456119   -3.12033335    6.41718417
     atom   16 type  3   force =    -0.34455288    3.12032157   -6.41723050
     atom   17 type  3   force =    -6.27670860   -1.85729629    3.97016166
     atom   18 type  3   force =    -6.27668776    1.85725832   -3.97016498
     The core correction contribution to forces
     atom    1 type  1   force =     0.00003097   -0.00003005    0.00004454
     atom    2 type  1   force =     0.00003099    0.00003007   -0.00004454
     atom    3 type  2   force =    -0.00168624   -0.00130290   -0.00030674
     atom    4 type  2   force =    -0.00168324    0.00130030    0.00030638
     atom    5 type  3   force =     0.00000000    0.00000000    0.00000000
     atom    6 type  3   force =     0.00000000    0.00000000    0.00000000
     atom    7 type  3   force =     0.00000000    0.00000000    0.00000000
     atom    8 type  3   force =     0.00000000    0.00000000    0.00000000
     atom    9 type  3   force =     0.00000000    0.00000000    0.00000000
     atom   10 type  3   force =     0.00000000    0.00000000    0.00000000
     atom   11 type  3   force =     0.00000000    0.00000000    0.00000000
     atom   12 type  3   force =     0.00000000    0.00000000    0.00000000
     atom   13 type  3   force =     0.00000000    0.00000000    0.00000000
     atom   14 type  3   force =     0.00000000    0.00000000    0.00000000
     atom   15 type  3   force =     0.00000000    0.00000000    0.00000000
     atom   16 type  3   force =     0.00000000    0.00000000    0.00000000
     atom   17 type  3   force =     0.00000000    0.00000000    0.00000000
     atom   18 type  3   force =     0.00000000    0.00000000    0.00000000
     The Hubbard contrib.    to forces
     atom    1 type  1   force =     0.00000000    0.00000000    0.00000000
     atom    2 type  1   force =     0.00000000    0.00000000    0.00000000
     atom    3 type  2   force =     0.00000000    0.00000000    0.00000000
     atom    4 type  2   force =     0.00000000    0.00000000    0.00000000
     atom    5 type  3   force =     0.00000000    0.00000000    0.00000000
     atom    6 type  3   force =     0.00000000    0.00000000    0.00000000
     atom    7 type  3   force =     0.00000000    0.00000000    0.00000000
     atom    8 type  3   force =     0.00000000    0.00000000    0.00000000
     atom    9 type  3   force =     0.00000000    0.00000000    0.00000000
     atom   10 type  3   force =     0.00000000    0.00000000    0.00000000
     atom   11 type  3   force =     0.00000000    0.00000000    0.00000000
     atom   12 type  3   force =     0.00000000    0.00000000    0.00000000
     atom   13 type  3   force =     0.00000000    0.00000000    0.00000000
     atom   14 type  3   force =     0.00000000    0.00000000    0.00000000
     atom   15 type  3   force =     0.00000000    0.00000000    0.00000000
     atom   16 type  3   force =     0.00000000    0.00000000    0.00000000
     atom   17 type  3   force =     0.00000000    0.00000000    0.00000000
     atom   18 type  3   force =     0.00000000    0.00000000    0.00000000
     The SCF correction term to forces
     atom    1 type  1   force =    -0.00001604   -0.00004851    0.00025067
     atom    2 type  1   force =    -0.00011580    0.00001933   -0.00024889
     atom    3 type  2   force =     0.00000303   -0.00003428   -0.00013322
     atom    4 type  2   force =    -0.00010289    0.00009242    0.00012002
     atom    5 type  3   force =    -0.00004424   -0.00004730    0.00005020
     atom    6 type  3   force =    -0.00005333    0.00003804   -0.00003511
     atom    7 type  3   force =     0.00020260   -0.00036733    0.00006910
     atom    8 type  3   force =     0.00017848    0.00029174   -0.00008643
     atom    9 type  3   force =    -0.00023777   -0.00018334    0.00006104
     atom   10 type  3   force =    -0.00020514    0.00015596   -0.00004816
     atom   11 type  3   force =    -0.00013475    0.00025104    0.00006820
     atom   12 type  3   force =    -0.00009620   -0.00015200   -0.00006492
     atom   13 type  3   force =    -0.00000841    0.00000318    0.00026394
     atom   14 type  3   force =    -0.00001472    0.00000405   -0.00031622
     atom   15 type  3   force =    -0.00002882   -0.00003978   -0.00029495
     atom   16 type  3   force =    -0.00004274    0.00005214    0.00036475
     atom   17 type  3   force =     0.00019880    0.00022932    0.00005326
     atom   18 type  3   force =     0.00017897   -0.00017944   -0.00005426

     Total force =     0.028582     Total SCF correction =     0.001164

     Computing stress (Cartesian axis) and pressure

          total   stress  (Ry/bohr**3)                   (kbar)     P=     -136.33
  -0.00091599   0.00000000   0.00000000         -134.75        0.00        0.00
   0.00000000  -0.00092618   0.00000742            0.00     -136.25        1.09
   0.00000000   0.00000742  -0.00093805            0.00        1.09     -137.99

     kinetic stress (kbar)  15845.15      0.00      0.00
                                0.00  15824.01     -4.17
                                0.00     -4.17  15844.97

     local   stress (kbar)  -9165.54     -0.01     -0.00
                               -0.01 -10252.39  -1609.65
                               -0.00  -1609.65 -11797.28

     nonloc. stress (kbar)   3749.29      0.00      0.00
                                0.00   3756.23      8.82
                                0.00      8.82   3744.06

     hartree stress (kbar)   7970.46      0.01     -0.00
                                0.01   8384.89    719.67
                               -0.00    719.67   8969.65

     exc-cor stress (kbar)  -1870.30     -0.00      0.00
                               -0.00  -1869.74     -0.23
                                0.00     -0.23  -1867.43

     corecor stress (kbar)  -2220.66      0.00     -0.00
                                0.00  -2220.71     -0.04
                               -0.00     -0.04  -2220.96

     ewald   stress (kbar) -14443.15      0.00      0.00
                                0.00 -13758.55    886.69
                                0.00    886.69 -12811.00

     hubbard stress (kbar)      0.00      0.00      0.00
                                0.00      0.00      0.00
                                0.00      0.00      0.00

     DFT-D   stress (kbar)      0.00      0.00      0.00
                                0.00      0.00      0.00
                                0.00      0.00      0.00

     XDM     stress (kbar)      0.00      0.00      0.00
                                0.00      0.00      0.00
                                0.00      0.00      0.00

     dft-nl  stress (kbar)      0.00      0.00      0.00
                                0.00      0.00      0.00
                                0.00      0.00      0.00

     TS-vdW  stress (kbar)      0.00      0.00      0.00
                                0.00      0.00      0.00
                                0.00      0.00      0.00

[...]

                                0.00      0.00      0.00

     Writing all to output data dir new_calculations/myprefix.save/

     General routines

     Parallel routines

     PAW routines

   This run was terminated on:   5:28:18  21May2023

   JOB DONE.