     Program PWSCF v.7.0 starts on 21May2023 at  3: 3:20

     Reading input from espresso_12742.pwi
Warning: card &CELL ignored
Warning: card / ignored

     Current dimensions of program PWSCF are:
     Max number of different atomic species (ntypx) = 10
     Max number of k-points (npk) =  40000
     Max angular momentum in pseudopotentials (lmaxx) =  4
     file Ba.pbe-spn-kjpaw_psl.1.0.0.UPF: wavefunction(s)  5S 6S renormalized
     file O.pbe-n-kjpaw_psl.0.1.UPF: wavefunction(s)  2P renormalized

     gamma-point specific algorithms are used
     Message from routine setup:
     using ibrav=0 with symmetry is DISCOURAGED, use correct ibrav instead

     Subspace diagonalization in iterative solution of the eigenvalue problem:
     a serial algorithm will be used

     Using Slab Decomposition

     bravais-lattice index     =            0
     lattice parameter (alat)  =      11.6727  a.u.
     unit-cell volume          =    1124.6141 (a.u.)^3
     number of atoms/cell      =           10
     number of atomic types    =            4
     number of electrons       =        82.00
     number of Kohn-Sham states=           49
     kinetic-energy cutoff     =      30.0000  Ry
     charge density cutoff     =     240.0000  Ry
     scf convergence threshold =      1.0E-06
     mixing beta               =       0.7000
     number of iterations used =            8  plain     mixing
     Exchange-correlation= SLA  PW   PBX  PBC
                           (   1   4   3   4   0   0   0)

     celldm(1)=  11.672741  celldm(2)=   0.000000  celldm(3)=   0.000000
     celldm(4)=   0.000000  celldm(5)=   0.000000  celldm(6)=   0.000000

     crystal axes: (cart. coord. in units of alat)
               a(1) = (   1.000000   0.000000   0.000000 )
               a(2) = (   0.500000   0.866025   0.000000 )
               a(3) = (   0.500000   0.288675   0.816497 )

     reciprocal axes: (cart. coord. in units 2 pi/alat)
               b(1) = (  1.000000 -0.577350 -0.408248 )
               b(2) = (  0.000000  1.154701 -0.408248 )
               b(3) = (  0.000000  0.000000  1.224745 )

     PseudoPot. # 1 for Ba read from file:
     /home/pragov/projects/rrg-bengioy-ad/pragov/crystal_structure_design/SSSP/Ba.pbe-spn-kjpaw_psl.1.0.0.UPF
     MD5 check sum: c432291d3e53af55f19d5e8866385beb
     Pseudo is Projector augmented-wave + core cor, Zval = 10.0
     Generated using "atomic" code by A. Dal Corso  v.5.1
     Shape of augmentation charge: PSQ
     Using radial grid of 1251 points,  7 beta functions with:
                l(1) =   0
                l(2) =   0
                l(3) =   0
                l(4) =   1
                l(5) =   1
                l(6) =   2
                l(7) =   2
     Q(r) pseudized with 0 coefficients

     PseudoPot. # 2 for La read from file:
     /home/pragov/projects/rrg-bengioy-ad/pragov/crystal_structure_design/SSSP/La.GGA-PBE-paw-v1.0.UPF
     MD5 check sum: 436541e95c1ad8901025bd0b0ed42ae2
     Pseudo is Projector augmented-wave + core cor, Zval = 11.0
     Generated using ATOMPAW code
     Shape of augmentation charge: BESSEL
     Using radial grid of 1101 points,  8 beta functions with:
                l(1) =   0
                l(2) =   0
                l(3) =   1
                l(4) =   1
                l(5) =   2
                l(6) =   2
                l(7) =   3
                l(8) =   3
     Q(r) pseudized with 0 coefficients

     PseudoPot. # 3 for Sb read from file:
     /home/pragov/projects/rrg-bengioy-ad/pragov/crystal_structure_design/SSSP/sb_pbe_v1.4.uspp.F.UPF
     MD5 check sum: 9bc50dfb53373b713f5709b9110fe27f
     Pseudo is Ultrasoft + core correction, Zval = 15.0
     Generated by new atomic code, or converted to UPF format
     Using radial grid of  891 points,  6 beta functions with:
                l(1) =   0
                l(2) =   0
                l(3) =   1
                l(4) =   1
                l(5) =   2
                l(6) =   2
     Q(r) pseudized with  8 coefficients,  rinner =    1.350   1.350   1.350
                                                       1.350   1.350

     PseudoPot. # 4 for O  read from file:
     /home/pragov/projects/rrg-bengioy-ad/pragov/crystal_structure_design/SSSP/O.pbe-n-kjpaw_psl.0.1.UPF
     MD5 check sum: 0234752ac141de4415c5fc33072bef88
     Pseudo is Projector augmented-wave + core cor, Zval =  6.0
     Generated using "atomic" code by A. Dal Corso  v.5.0.99 svn rev. 10869
     Shape of augmentation charge: BESSEL
     Using radial grid of 1095 points,  4 beta functions with:
                l(1) =   0
                l(2) =   0
                l(3) =   1
                l(4) =   1
     Q(r) pseudized with 0 coefficients

     atomic species   valence    mass     pseudopotential
        Ba            10.00   137.32700     Ba( 1.00)
        La            11.00   138.90547     La( 1.00)
        Sb            15.00   121.76000     Sb( 1.00)
        O              6.00    15.99900     O ( 1.00)

     12 Sym. Ops., with inversion, found

                                    s                        frac. trans.

      isym =  1     identity

 cryst.   s( 1) = (     1          0          0      )
                  (     0          1          0      )
                  (     0          0          1      )

 cart.    s( 1) = (  1.0000000  0.0000000  0.0000000 )
                  (  0.0000000  1.0000000  0.0000000 )
                  (  0.0000000  0.0000000  1.0000000 )

      isym =  2     180 deg rotation - cart. axis [1,0,0]

[...]

      isym =  3     120 deg rotation - cryst. axis [0,0,1]

[...]

      isym =  6     180 deg rotation - cryst. axis [1,1,0]

[...]

      isym =  7     inversion

[...]

      isym =  8     inv. 180 deg rotation - cart. axis [1,0,0]

[...]

      isym =  9     inv. 120 deg rotation - cryst. axis [0,0,1]

 cryst.   s( 9) = (     1         -1          0      )
                  (     1          0          0      )
                  (     1          0         -1      )

 cart.    s( 9) = (  0.5000000  0.8660254 -0.0000000 )
                  ( -0.8660254  0.5000000 -0.0000000 )
                  (  0.0000000  0.0000000 -1.0000000 )

[...]

 cryst.   s(10) = (     0          1          0      )
                  (    -1          1          0      )
                  (     0          1         -1      )

 cart.    s(10) = (  0.5000000 -0.8660254  0.0000000 )
                  (  0.8660254  0.5000000 -0.0000000 )
                  (  0.0000000  0.0000000 -1.0000000 )

[...]

      isym = 12     inv. 180 deg rotation - cryst. axis [1,1,0]

 cryst.   s(12) = (     1         -1          0      )
                  (     0         -1          0      )
                  (     0         -1          1      )

 cart.    s(12) = (  0.5000000 -0.8660254  0.0000000 )
                  ( -0.8660254 -0.5000000  0.0000000 )
                  (  0.0000000  0.0000000  1.0000000 )

   Cartesian axes

     site n.     atom                  positions (alat units)
         1           Ba  tau(   1) = (   0.5000000   0.2886751   0.2041241  )
         2           Ba  tau(   2) = (   1.5000000   0.8660254   0.6123724  )
         3           La  tau(   3) = (   0.0000000   0.0000000   0.0000000  )
         4           Sb  tau(   4) = (   1.0000000   0.5773503   0.4082483  )
         5           O   tau(   5) = (   1.0000000   0.3108046   0.2197721  )
         6           O   tau(   6) = (   1.0000000   0.8438959   0.5967245  )
         7           O   tau(   7) = (   1.2308353   0.4440775   0.5967245  )
         8           O   tau(   8) = (   0.7691647   0.7106231   0.2197721  )
         9           O   tau(   9) = (   1.2308353   0.7106231   0.2197721  )
        10           O   tau(  10) = (   0.7691647   0.4440775   0.5967245  )

   Crystallographic axes

     site n.     atom                  positions (cryst. coord.)
         1           Ba  tau(   1) = (  0.2500000  0.2500000  0.2500000  )
         2           Ba  tau(   2) = (  0.7500000  0.7500000  0.7500000  )
         3           La  tau(   3) = (  0.0000000  0.0000000  0.0000000  )
         4           Sb  tau(   4) = (  0.5000000  0.5000000  0.5000000  )
         5           O   tau(   5) = (  0.7308353  0.2691647  0.2691647  )
         6           O   tau(   6) = (  0.2691647  0.7308353  0.7308353  )
         7           O   tau(   7) = (  0.7308353  0.2691647  0.7308353  )
         8           O   tau(   8) = (  0.2691647  0.7308353  0.2691647  )
         9           O   tau(   9) = (  0.7308353  0.7308353  0.2691647  )
        10           O   tau(  10) = (  0.2691647  0.2691647  0.7308353  )

     number of k points=     1  Methfessel-Paxton smearing, width (Ry)=  0.0010
                       cart. coord. in units 2pi/alat
        k(    1) = (   0.0000000   0.0000000   0.0000000), wk =   2.0000000

                       cryst. coord.
        k(    1) = (   0.0000000   0.0000000   0.0000000), wk =   2.0000000

     Check: negative core charge=   -0.000009

     Initial potential from superposition of free atoms

     starting charge      80.9574, renormalised to      82.0000
     Starting wfcs are   75 randomized atomic wfcs
     Checking if some PAW data can be deallocated...

     Self-consistent Calculation

     iteration #  1     ecut=    30.00 Ry     beta= 0.70
     Davidson diagonalization with overlap

     ethr =  1.00E-02,  avg # of iterations =  2.0

     total energy              =   -1764.38775724 Ry
     estimated scf accuracy    <       2.69198025 Ry

[...]

     total energy              =   -1765.70850348 Ry
     estimated scf accuracy    <       0.00000197 Ry

     iteration # 21     ecut=    30.00 Ry     beta= 0.70
     Davidson diagonalization with overlap

     ethr =  2.40E-09,  avg # of iterations =  2.0

     End of self-consistent calculation

          k = 0.0000 0.0000 0.0000 (  1560 PWs)   bands (ev):

   -20.0221 -18.4598 -18.4598 -18.2941 -18.2941 -18.2941 -17.4030 -17.3465
    -7.8004  -7.2722  -7.2721  -7.2721  -6.0066  -6.0065  -3.4818  -3.4818
    -3.4817  -2.7346  -2.7346  -2.7346  -2.3153  -2.3153  -2.3153   2.4003
     6.6594   6.6594   6.6594   7.4283   7.4283   7.4283   7.6311   7.6311
     8.6676   8.6676   8.6677   8.9201   8.9201   8.9201   9.6544   9.6544
     9.6545  13.1592  13.1593  13.1980  14.0847  14.0847  14.0854  14.1986
    14.1986

     occupation numbers
     1.0000   1.0000   1.0000   1.0000   1.0000   1.0000   1.0000   1.0000
     1.0000   1.0000   1.0000   1.0000   1.0000   1.0000   1.0000   1.0000
     1.0000   1.0000   1.0000   1.0000   1.0000   1.0000   1.0000   1.0000
     1.0000   1.0000   1.0000   1.0000   1.0000   1.0000   1.0000   1.0000
     1.0000   1.0000   1.0000   1.0000   1.0000   1.0000   1.0000   1.0000
     1.0000  -0.0000  -0.0000  -0.0000  -0.0000  -0.0000  -0.0000  -0.0000
    -0.0000

     the Fermi energy is    10.0231 ev

!    total energy              =   -1765.70850333 Ry
     estimated scf accuracy    <       0.00000065 Ry
     smearing contrib. (-TS)   =       0.00000000 Ry
     internal energy E=F+TS    =   -1765.70850333 Ry

     The total energy is F=E-TS. E is the sum of the following terms:
     one-electron contribution =    -169.14347636 Ry
     hartree contribution      =     142.53452333 Ry
     xc contribution           =    -139.05316267 Ry
     ewald contribution        =    -394.88290268 Ry
     one-center paw contrib.   =   -1205.16348495 Ry
      -> PAW hartree energy AE =     274.05957297 Ry
      -> PAW hartree energy PS =    -273.20036052 Ry
      -> PAW xc energy AE      =   -1297.45842924 Ry
      -> PAW xc energy PS      =      91.43573185 Ry
      -> total E_H with PAW    =     143.39373577 Ry
      -> total E_XC with PAW   =   -1345.07586006 Ry

     convergence has been achieved in  21 iterations

     Forces acting on atoms (cartesian axes, Ry/au):

     atom    1 type  1   force =     0.00000000    0.00000000    0.00001194
     atom    2 type  1   force =     0.00000000    0.00000000   -0.00001194
     atom    3 type  2   force =     0.00000000    0.00000000    0.00000000
     atom    4 type  3   force =     0.00000000    0.00000000    0.00000000
     atom    5 type  4   force =     0.00000000   -0.00738482   -0.00522146
     atom    6 type  4   force =     0.00000000    0.00738482    0.00522146
     atom    7 type  4   force =     0.00639545   -0.00369241    0.00522146
     atom    8 type  4   force =    -0.00639545    0.00369241   -0.00522146
     atom    9 type  4   force =     0.00639545    0.00369241   -0.00522146
     atom   10 type  4   force =    -0.00639545   -0.00369241    0.00522146
     The non-local contrib.  to forces
     atom    1 type  1   force =     0.00000000   -0.00000000   -0.00015885
     atom    2 type  1   force =    -0.00000000    0.00000000    0.00015885
     atom    3 type  2   force =    -0.00000000   -0.00000000    0.00000000
     atom    4 type  3   force =     0.00000000    0.00000000    0.00000000
     atom    5 type  4   force =     0.00000000    0.50928227    0.36012856
     atom    6 type  4   force =    -0.00000000   -0.50928227   -0.36012856
     atom    7 type  4   force =    -0.44105138    0.25464114   -0.36012856
     atom    8 type  4   force =     0.44105138   -0.25464114    0.36012856
     atom    9 type  4   force =    -0.44105138   -0.25464114    0.36012856
     atom   10 type  4   force =     0.44105138    0.25464114   -0.36012856
     The ionic contribution  to forces
     atom    1 type  1   force =     0.00000000    0.00000000    0.00000000
     atom    2 type  1   force =     0.00000000   -0.00000000   -0.00000000
     atom    3 type  2   force =     0.00000000    0.00000000    0.00000000
     atom    4 type  3   force =    -0.00000000    0.00000000    0.00000000
     atom    5 type  4   force =    -0.00000000   -5.74697955   -4.06372821
     atom    6 type  4   force =     0.00000000    5.74697955    4.06372821
     atom    7 type  4   force =     4.97703028   -2.87348977    4.06372821
     atom    8 type  4   force =    -4.97703029    2.87348977   -4.06372821
     atom    9 type  4   force =     4.97703029    2.87348977   -4.06372821
     atom   10 type  4   force =    -4.97703028   -2.87348977    4.06372821
     The local contribution  to forces
     atom    1 type  1   force =     0.00098970   -0.00052936    0.00070375
     atom    2 type  1   force =    -0.00002813   -0.00011516    0.00041900
     atom    3 type  2   force =     0.00000760    0.00003297   -0.00000080
     atom    4 type  3   force =    -0.00002252    0.00002720    0.00000949
     atom    5 type  4   force =    -0.00001853    5.23593895    3.70235141
     atom    6 type  4   force =     0.00001905   -5.23596655   -3.70238006
     atom    7 type  4   force =    -4.53445291    2.61799544   -3.70234793
     atom    8 type  4   force =     4.53447160   -2.61799362    3.70236269
     atom    9 type  4   force =    -4.53448874   -2.61797869    3.70240440
     atom   10 type  4   force =     4.53448526    2.61799000   -3.70240473
     The core correction contribution to forces
     atom    1 type  1   force =     0.00003179   -0.00000702    0.00002331
     atom    2 type  1   force =     0.00001045    0.00000866    0.00001530
     atom    3 type  2   force =    -0.00000000    0.00000001    0.00000000
     atom    4 type  3   force =    -0.00000001    0.00000126    0.00000027
     atom    5 type  4   force =     0.00000006   -0.00565641   -0.00399993
     atom    6 type  4   force =     0.00000011    0.00565638    0.00399988
     atom    7 type  4   force =     0.00489874   -0.00282808    0.00399997
     atom    8 type  4   force =    -0.00489863    0.00282822   -0.00399999
     atom    9 type  4   force =     0.00489851    0.00282804   -0.00399951
     atom   10 type  4   force =    -0.00489820   -0.00282792    0.00399953
     The Hubbard contrib.    to forces
     atom    1 type  1   force =     0.00000000    0.00000000    0.00000000
     atom    2 type  1   force =     0.00000000    0.00000000    0.00000000
     atom    3 type  2   force =     0.00000000    0.00000000    0.00000000
     atom    4 type  3   force =     0.00000000    0.00000000    0.00000000
     atom    5 type  4   force =     0.00000000    0.00000000    0.00000000
     atom    6 type  4   force =     0.00000000    0.00000000    0.00000000
     atom    7 type  4   force =     0.00000000    0.00000000    0.00000000
     atom    8 type  4   force =     0.00000000    0.00000000    0.00000000
     atom    9 type  4   force =     0.00000000    0.00000000    0.00000000
     atom   10 type  4   force =     0.00000000    0.00000000    0.00000000
     The SCF correction term to forces
     atom    1 type  1   force =    -0.00016141    0.00006948   -0.00005245
     atom    2 type  1   force =     0.00003378    0.00001856   -0.00010129
     atom    3 type  2   force =    -0.00000898   -0.00002405    0.00000408
     atom    4 type  3   force =     0.00003076   -0.00003710   -0.00000880
     atom    5 type  4   force =     0.00002502    0.00002518    0.00002089
     atom    6 type  4   force =    -0.00001643    0.00000066    0.00000541
     atom    7 type  4   force =    -0.00001641   -0.00001224   -0.00002244
     atom    8 type  4   force =     0.00000489    0.00001465    0.00000804
     atom    9 type  4   force =     0.00000398   -0.00001195   -0.00001257
     atom   10 type  4   force =     0.00001191    0.00001000    0.00001664

     Total force =     0.022154     Total SCF correction =     0.000229

     Computing stress (Cartesian axis) and pressure

          total   stress  (Ry/bohr**3)                   (kbar)     P=     -202.23
  -0.00137472  -0.00000000  -0.00000000         -202.23       -0.00       -0.00
   0.00000000  -0.00137472   0.00000000            0.00     -202.23        0.00
  -0.00000000   0.00000000  -0.00137471           -0.00        0.00     -202.23

     kinetic stress (kbar)  16910.92     -0.00      0.00
                                0.00  16910.92     -0.00
                                0.00     -0.00  16910.92

     local   stress (kbar)  -6588.26     -0.02      0.02
                               -0.02  -6588.24      0.01
                                0.02      0.01  -6588.25

     nonloc. stress (kbar)   4775.84      0.00      0.00
                                0.00   4775.84     -0.00
                                0.00     -0.00   4775.84

     hartree stress (kbar)   6214.75      0.01     -0.01
                                0.01   6214.73     -0.01
                               -0.01     -0.01   6214.74

     exc-cor stress (kbar)   2429.70     -0.00      0.00
                               -0.00   2429.70      0.00
                                0.00      0.00   2429.70

     corecor stress (kbar)  -6727.63     -0.00      0.00
                               -0.00  -6727.63     -0.00
                                0.00     -0.00  -6727.63

     ewald   stress (kbar) -17217.54     -0.00     -0.00
                               -0.00 -17217.54     -0.00
                               -0.00     -0.00 -17217.54

     hubbard stress (kbar)      0.00      0.00      0.00
                                0.00      0.00      0.00
                                0.00      0.00      0.00

     DFT-D   stress (kbar)      0.00      0.00      0.00
                                0.00      0.00      0.00
                                0.00      0.00      0.00

     XDM     stress (kbar)      0.00      0.00      0.00
                                0.00      0.00      0.00
                                0.00      0.00      0.00

     dft-nl  stress (kbar)      0.00      0.00      0.00
                                0.00      0.00      0.00
                                0.00      0.00      0.00

     TS-vdW  stress (kbar)      0.00      0.00      0.00
                                0.00      0.00      0.00
                                0.00      0.00      0.00

[...]

                                0.00      0.00      0.00

     Writing all to output data dir new_calculations/myprefix.save/

     General routines

     Parallel routines

     PAW routines

   This run was terminated on:   3: 4:54  21May2023

   JOB DONE.