     Program PWSCF v.7.0 starts on 20May2023 at  4:50:17

     Reading input from espresso_17042.pwi
Warning: card &CELL ignored
Warning: card / ignored

     Current dimensions of program PWSCF are:
     Max number of different atomic species (ntypx) = 10
     Max number of k-points (npk) =  40000
     Max angular momentum in pseudopotentials (lmaxx) =  4
     file O.pbe-n-kjpaw_psl.0.1.UPF: wavefunction(s)  2P renormalized

     gamma-point specific algorithms are used
     Message from routine setup:
     using ibrav=0 with symmetry is DISCOURAGED, use correct ibrav instead

     Subspace diagonalization in iterative solution of the eigenvalue problem:
     a serial algorithm will be used

     Using Slab Decomposition

     bravais-lattice index     =            0
     lattice parameter (alat)  =      12.7182  a.u.
     unit-cell volume          =    1541.4896 (a.u.)^3
     number of atoms/cell      =           20
     number of atomic types    =            4
     number of electrons       =       116.00
     number of Kohn-Sham states=           70
     kinetic-energy cutoff     =      30.0000  Ry
     charge density cutoff     =     240.0000  Ry
     scf convergence threshold =      1.0E-06
     mixing beta               =       0.7000
     number of iterations used =            8  plain     mixing
     Exchange-correlation= SLA  PW   PBX  PBC
                           (   1   4   3   4   0   0   0)

     celldm(1)=  12.718183  celldm(2)=   0.000000  celldm(3)=   0.000000
     celldm(4)=   0.000000  celldm(5)=   0.000000  celldm(6)=   0.000000

     crystal axes: (cart. coord. in units of alat)
               a(1) = (   1.000000   0.000000   0.000000 )
               a(2) = (   0.092616   0.995702   0.000000 )
               a(3) = (   0.209987   0.191361   0.752551 )

     reciprocal axes: (cart. coord. in units 2 pi/alat)
               b(1) = (  1.000000 -0.093015 -0.255381 )
               b(2) = (  0.000000  1.004317 -0.255381 )
               b(3) = (  0.000000  0.000000  1.328813 )

     PseudoPot. # 1 for Li read from file:
     /home/pragov/projects/rrg-bengioy-ad/pragov/crystal_structure_design/SSSP/li_pbe_v1.4.uspp.F.UPF
     MD5 check sum: e912e257baa3777c20ea3d68f190483c
     Pseudo is Ultrasoft, Zval =  3.0
     Generated by new atomic code, or converted to UPF format
     Using radial grid of  751 points,  5 beta functions with:
                l(1) =   0
                l(2) =   0
                l(3) =   0
                l(4) =   1
                l(5) =   1
     Q(r) pseudized with 10 coefficients,  rinner =    1.150   1.150   1.150

     PseudoPot. # 2 for Sc read from file:
     /home/pragov/projects/rrg-bengioy-ad/pragov/crystal_structure_design/SSSP/Sc_ONCV_PBE-1.0.oncvpsp.upf
     MD5 check sum: e21af8023abb52e52cb7cd3133e4a229
     Pseudo is Norm-conserving, Zval = 11.0
     Generated using ONCVPSP code by D. R. Hamann
     Using radial grid of 1662 points,  6 beta functions with:
                l(1) =   0
                l(2) =   0
                l(3) =   1
                l(4) =   1
                l(5) =   2
                l(6) =   2

     PseudoPot. # 3 for Si read from file:
     /home/pragov/projects/rrg-bengioy-ad/pragov/crystal_structure_design/SSSP/Si.pbe-n-rrkjus_psl.1.0.0.UPF
     MD5 check sum: 0b0bb1205258b0d07b9f9672cf965d36
     Pseudo is Ultrasoft + core correction, Zval =  4.0
     Generated using "atomic" code by A. Dal Corso  v.5.1
     Using radial grid of 1141 points,  6 beta functions with:
                l(1) =   0
                l(2) =   0
                l(3) =   1
                l(4) =   1
                l(5) =   2
                l(6) =   2
     Q(r) pseudized with 0 coefficients

     PseudoPot. # 4 for O  read from file:
     /home/pragov/projects/rrg-bengioy-ad/pragov/crystal_structure_design/SSSP/O.pbe-n-kjpaw_psl.0.1.UPF
     MD5 check sum: 0234752ac141de4415c5fc33072bef88
     Pseudo is Projector augmented-wave + core cor, Zval =  6.0
     Generated using "atomic" code by A. Dal Corso  v.5.0.99 svn rev. 10869
     Shape of augmentation charge: BESSEL
     Using radial grid of 1095 points,  4 beta functions with:
                l(1) =   0
                l(2) =   0
                l(3) =   1
                l(4) =   1
     Q(r) pseudized with 0 coefficients

     atomic species   valence    mass     pseudopotential
        Li             3.00     6.94000     Li( 1.00)
        Sc            11.00    44.95591     Sc( 1.00)
        Si             4.00    28.08500     Si( 1.00)
        O              6.00    15.99900     O ( 1.00)

      2 Sym. Ops., with inversion, found

                                    s                        frac. trans.

      isym =  1     identity

 cryst.   s( 1) = (     1          0          0      )
                  (     0          1          0      )
                  (     0          0          1      )

 cart.    s( 1) = (  1.0000000  0.0000000 -0.0000000 )
                  (  0.0000000  1.0000000 -0.0000000 )
                  (  0.0000000  0.0000000  1.0000000 )

      isym =  2     inversion

 cryst.   s( 2) = (    -1          0          0      )
                  (     0         -1          0      )
                  (     0          0         -1      )

 cart.    s( 2) = ( -1.0000000 -0.0000000  0.0000000 )
                  (  0.0000000 -1.0000000  0.0000000 )
                  (  0.0000000  0.0000000 -1.0000000 )

   Cartesian axes

     site n.     atom                  positions (alat units)
         1           Li  tau(   1) = (   0.8278528   0.2943493   0.1881378  )
         2           Li  tau(   2) = (   0.4747497   0.8927141   0.5644133  )
         3           Sc  tau(   3) = (   0.2429301   0.9362036   0.1881378  )
         4           Sc  tau(   4) = (   1.0596724   0.2508597   0.5644133  )
         5           Si  tau(   5) = (   0.2936761   0.4254192   0.1667217  )
         6           Si  tau(   6) = (   1.0089264   0.7616441   0.5858294  )
         7           Si  tau(   7) = (   0.5557832   0.3486941   0.5429972  )
         8           Si  tau(   8) = (   0.7468193   0.8383692   0.2095539  )
         9           O   tau(   9) = (   0.7160285   0.6596660   0.0451696  )
        10           O   tau(  10) = (   0.8281395   0.7475364   0.4214452  )
        11           O   tau(  11) = (   0.5865740   0.5273974   0.7073815  )
        12           O   tau(  12) = (   0.4744630   0.4395270   0.3311059  )
        13           O   tau(  13) = (   0.3854059   0.1965411   0.6335999  )
        14           O   tau(  14) = (   1.0879337   0.5399703   0.6357913  )
        15           O   tau(  15) = (   0.9171966   0.9905222   0.1189512  )
        16           O   tau(  16) = (   0.1263975   0.2698659   0.2573243  )
        17           O   tau(  17) = (   1.1762050   0.9171975   0.4952268  )
        18           O   tau(  18) = (   0.2146688   0.6470930   0.1167598  )
        19           O   tau(  19) = (   0.5334156   0.9375674   0.2595157  )
        20           O   tau(  20) = (   0.7691869   0.2494960   0.4930354  )

   Crystallographic axes

     site n.     atom                  positions (cryst. coord.)
         1           Li  tau(   1) = (  0.7524270  0.2475730  0.2500000  )
         2           Li  tau(   2) = (  0.2475730  0.7524270  0.7500000  )
         3           Sc  tau(   3) = (  0.1078020  0.8921980  0.2500000  )
         4           Sc  tau(   4) = (  0.8921980  0.1078020  0.7500000  )
         5           Si  tau(   5) = (  0.2115280  0.3846780  0.2215420  )
         6           Si  tau(   6) = (  0.7884720  0.6153220  0.7784580  )
         7           Si  tau(   7) = (  0.3846780  0.2115280  0.7215420  )
         8           Si  tau(   8) = (  0.6153220  0.7884720  0.2784580  )
         9           O   tau(   9) = (  0.6431340  0.6509780  0.0600220  )
        10           O   tau(  10) = (  0.6509780  0.6431340  0.5600220  )
        11           O   tau(  11) = (  0.3568660  0.3490220  0.9399780  )
        12           O   tau(  12) = (  0.3490220  0.3568660  0.4399780  )
        13           O   tau(  13) = (  0.2053150  0.0355800  0.8419360  )
        14           O   tau(  14) = (  0.8753390  0.3799320  0.8448480  )
        15           O   tau(  15) = (  0.7946850  0.9644200  0.1580640  )
        16           O   tau(  16) = (  0.0355800  0.2053150  0.3419360  )
        17           O   tau(  17) = (  0.9644200  0.7946850  0.6580640  )
        18           O   tau(  18) = (  0.1246610  0.6200680  0.1551520  )
        19           O   tau(  19) = (  0.3799320  0.8753390  0.3448480  )
        20           O   tau(  20) = (  0.6200680  0.1246610  0.6551520  )

     number of k points=     1  Methfessel-Paxton smearing, width (Ry)=  0.0010
                       cart. coord. in units 2pi/alat
        k(    1) = (   0.0000000   0.0000000   0.0000000), wk =   2.0000000

                       cryst. coord.
        k(    1) = (   0.0000000   0.0000000   0.0000000), wk =   2.0000000

     Check: negative core charge=   -0.000012

     Initial potential from superposition of free atoms

     starting charge     115.0910, renormalised to     116.0000
     Starting wfcs are   94 randomized atomic wfcs
     Checking if some PAW data can be deallocated...

     Self-consistent Calculation

     iteration #  1     ecut=    30.00 Ry     beta= 0.70
     Davidson diagonalization with overlap

     ethr =  1.00E-02,  avg # of iterations =  2.0

     total energy              =    -758.18551562 Ry
     estimated scf accuracy    <       4.10332865 Ry

[...]

     total energy              =    -760.02363391 Ry
     estimated scf accuracy    <       0.00000375 Ry

     iteration # 10     ecut=    30.00 Ry     beta= 0.70
     Davidson diagonalization with overlap

     ethr =  3.23E-09,  avg # of iterations =  2.0

     End of self-consistent calculation

          k = 0.0000 0.0000 0.0000 (  2137 PWs)   bands (ev):

   -42.6985 -42.6799 -38.1729 -38.1728 -21.5113 -21.3959 -21.3782 -21.3352
   -21.3330 -21.3126 -14.2631 -13.9823 -12.7775 -12.7315 -12.6449 -12.5662
   -12.4826 -12.0950 -11.8314 -11.7110 -11.6596 -11.6533  -3.2155  -3.1559
    -0.9620  -0.4537  -0.2239  -0.0371   0.2490   0.4092   0.6566   0.6725
     1.1750   1.2315   1.5081   1.8794   2.1105   2.3368   2.5245   2.5609
     2.6197   2.6942   2.8642   3.0754   3.0876   3.2590   3.4481   3.5792
     3.6338   3.7975   3.8224   3.8885   4.0711   4.1830   4.1961   4.4518
     4.6383   4.7258   9.8761   9.9564  10.0467  10.2640  10.2910  10.4260
    10.4315  11.5903  11.8893  11.9196  12.3517  13.1867

     occupation numbers
     1.0000   1.0000   1.0000   1.0000   1.0000   1.0000   1.0000   1.0000
     1.0000   1.0000   1.0000   1.0000   1.0000   1.0000   1.0000   1.0000
     1.0000   1.0000   1.0000   1.0000   1.0000   1.0000   1.0000   1.0000
     1.0000   1.0000   1.0000   1.0000   1.0000   1.0000   1.0000   1.0000
     1.0000   1.0000   1.0000   1.0000   1.0000   1.0000   1.0000   1.0000
     1.0000   1.0000   1.0000   1.0000   1.0000   1.0000   1.0000   1.0000
     1.0000   1.0000   1.0000   1.0000   1.0000   1.0000   1.0000   1.0000
     1.0000   1.0000  -0.0000  -0.0000  -0.0000  -0.0000  -0.0000  -0.0000
    -0.0000  -0.0000  -0.0000  -0.0000  -0.0000  -0.0000

     the Fermi energy is     6.3030 ev

!    total energy              =    -760.02363444 Ry
     estimated scf accuracy    <       0.00000034 Ry
     smearing contrib. (-TS)   =       0.00000000 Ry
     internal energy E=F+TS    =    -760.02363444 Ry

     The total energy is F=E-TS. E is the sum of the following terms:
     one-electron contribution =    -263.67327285 Ry
     hartree contribution      =     189.30223145 Ry
     xc contribution           =    -146.55327799 Ry
     ewald contribution        =    -424.99930328 Ry
     one-center paw contrib.   =    -114.10001177 Ry
      -> PAW hartree energy AE =     379.27885980 Ry
      -> PAW hartree energy PS =    -377.88136798 Ry
      -> PAW xc energy AE      =    -209.59366872 Ry
      -> PAW xc energy PS      =      94.09616512 Ry
      -> total E_H with PAW    =     190.69972327 Ry
      -> total E_XC with PAW   =    -262.05078159 Ry

     convergence has been achieved in  10 iterations

     Forces acting on atoms (cartesian axes, Ry/au):

     atom    1 type  1   force =    -0.00010492    0.00011560   -0.00000147
     atom    2 type  1   force =     0.00010492   -0.00011560    0.00000147
     atom    3 type  2   force =    -0.00123956    0.00136337    0.00000241
     atom    4 type  2   force =     0.00123956   -0.00136337   -0.00000241
     atom    5 type  3   force =     0.00727038    0.00284970   -0.00217578
     atom    6 type  3   force =    -0.00727038   -0.00284970    0.00217578
     atom    7 type  3   force =     0.00349886    0.00696771   -0.00216965
     atom    8 type  3   force =    -0.00349886   -0.00696771    0.00216965
     atom    9 type  4   force =    -0.00010792    0.00358982    0.00079168
     atom   10 type  4   force =     0.00355288   -0.00043846    0.00077995
     atom   11 type  4   force =     0.00010792   -0.00358982   -0.00079168
     atom   12 type  4   force =    -0.00355288    0.00043846   -0.00077995
     atom   13 type  4   force =    -0.00060603   -0.00328921    0.01214028
     atom   14 type  4   force =    -0.00271726    0.00547473    0.00632279
     atom   15 type  4   force =     0.00060603    0.00328921   -0.01214028
     atom   16 type  4   force =    -0.00332053   -0.00028579    0.01212719
     atom   17 type  4   force =     0.00332053    0.00028579   -0.01212719
     atom   18 type  4   force =     0.00271726   -0.00547473   -0.00632279
     atom   19 type  4   force =     0.00520384   -0.00321633    0.00631814
     atom   20 type  4   force =    -0.00520384    0.00321633   -0.00631814
     The non-local contrib.  to forces
     atom    1 type  1   force =    -0.05572723    0.06115325   -0.00000352
     atom    2 type  1   force =     0.05572723   -0.06115325    0.00000352
     atom    3 type  2   force =    -0.04103605    0.04502568   -0.00000287
     atom    4 type  2   force =     0.04103605   -0.04502568    0.00000287
     atom    5 type  3   force =     0.07408995   -0.05070363   -0.00412207
     atom    6 type  3   force =    -0.07408995    0.05070363    0.00412207
     atom    7 type  3   force =    -0.04365002    0.07844472   -0.00411000
     atom    8 type  3   force =     0.04365002   -0.07844472    0.00411000
     atom    9 type  4   force =     0.70108566    0.52861566   -0.29575926
     atom   10 type  4   force =     0.59127427    0.64911060   -0.29574496
     atom   11 type  4   force =    -0.70108566   -0.52861566    0.29575926
     atom   12 type  4   force =    -0.59127427   -0.64911060    0.29574496
     atom   13 type  4   force =     0.56912455    0.64277185   -0.18519224
     atom   14 type  4   force =    -0.51228787    0.78789002   -0.33231928
     atom   15 type  4   force =    -0.56912455   -0.64277185    0.18519224
     atom   16 type  4   force =     0.69274439    0.50718708   -0.18520454
     atom   17 type  4   force =    -0.69274439   -0.50718708    0.18520454
     atom   18 type  4   force =     0.51228787   -0.78789002    0.33231928
     atom   19 type  4   force =     0.73707135   -0.58304422   -0.33233190
     atom   20 type  4   force =    -0.73707135    0.58304422    0.33233190
     The ionic contribution  to forces
     atom    1 type  1   force =    -2.09230864    2.29595701   -0.00000000
     atom    2 type  1   force =     2.09230864   -2.29595701    0.00000000
     atom    3 type  2   force =     2.38542429   -2.61760216    0.00000000
     atom    4 type  2   force =    -2.38542429    2.61760216    0.00000000
     atom    5 type  3   force =     0.78145239    0.90769329   -0.56793518
     atom    6 type  3   force =    -0.78145239   -0.90769329    0.56793519
     atom    7 type  3   force =     0.97616659    0.69402719   -0.56793518
     atom    8 type  3   force =    -0.97616659   -0.69402719    0.56793518
     atom    9 type  4   force =    -3.35958540   -3.01976632    1.54002310
     atom   10 type  4   force =    -3.31793690   -3.06546854    1.54002311
     atom   11 type  4   force =     3.35958540    3.01976631   -1.54002311
     atom   12 type  4   force =     3.31793690    3.06546854   -1.54002310
     atom   13 type  4   force =     3.45258025   -1.59537672   -2.60659570
     atom   14 type  4   force =     1.37325884    3.04630987    1.39861710
     atom   15 type  4   force =    -3.45258025    1.59537672    2.60659570
     atom   16 type  4   force =    -1.26875724    3.58549750   -2.60659570
     atom   17 type  4   force =     1.26875724   -3.58549751    2.60659570
     atom   18 type  4   force =    -1.37325884   -3.04630987   -1.39861710
     atom   19 type  4   force =     3.16040173    1.08522097    1.39861710
     atom   20 type  4   force =    -3.16040173   -1.08522097   -1.39861710
     The local contribution  to forces
     atom    1 type  1   force =     2.14790397   -2.35694763   -0.00001030
     atom    2 type  1   force =    -2.14789076    2.35697769    0.00001754
     atom    3 type  2   force =    -2.34554414    2.57388256   -0.00023194
     atom    4 type  2   force =     2.34581150   -2.57381168    0.00001000
     atom    5 type  3   force =    -0.84011660   -0.86111011    0.57014179
     atom    6 type  3   force =     0.84006983    0.86110406   -0.57012866
     atom    7 type  3   force =    -0.93530310   -0.75676369    0.57016944
     atom    8 type  3   force =     0.93522881    0.75669635   -0.57012588
     atom    9 type  4   force =     2.66484965    2.49958877   -1.24623818
     atom   10 type  4   force =     2.73568881    2.42187863   -1.24622033
     atom   11 type  4   force =    -2.66486703   -2.49959368    1.24623060
     atom   12 type  4   force =    -2.73570723   -2.42188995    1.24624096
     atom   13 type  4   force =    -4.01707163    0.95525028    2.80189231
     atom   14 type  4   force =    -0.86807532   -3.82122267   -1.06308207
     atom   15 type  4   force =     4.01705282   -0.95524017   -2.80193404
     atom   16 type  4   force =     0.57913730   -4.08818975    2.80187977
     atom   17 type  4   force =    -0.57909570    4.08824732   -2.80187967
     atom   18 type  4   force =     0.86811000    3.82116452    1.06307864
     atom   19 type  4   force =    -3.88521022   -0.51048047   -1.06306644
     atom   20 type  4   force =     3.88520298    0.51048545    1.06307750
     The core correction contribution to forces
     atom    1 type  1   force =     0.00000000    0.00000000    0.00000000
     atom    2 type  1   force =     0.00000000    0.00000000    0.00000000
     atom    3 type  2   force =     0.00000000    0.00000000    0.00000000
     atom    4 type  2   force =     0.00000000    0.00000000    0.00000000
     atom    5 type  3   force =    -0.00816578    0.00700747   -0.00026730
     atom    6 type  3   force =     0.00816736   -0.00700874    0.00026716
     atom    7 type  3   force =     0.00622495   -0.00877685   -0.00026854
     atom    8 type  3   force =    -0.00622302    0.00877934    0.00026794
     atom    9 type  4   force =    -0.00636224   -0.00482263    0.00270469
     atom   10 type  4   force =    -0.00539104   -0.00588831    0.00270459
     atom   11 type  4   force =     0.00636274    0.00482307   -0.00270497
     atom   12 type  4   force =     0.00539154    0.00588860   -0.00270473
     atom   13 type  4   force =    -0.00506742   -0.00577814    0.00192899
     atom   14 type  4   force =     0.00435865   -0.00724962    0.00305601
     atom   15 type  4   force =     0.00506726    0.00577827   -0.00192880
     atom   16 type  4   force =    -0.00622295   -0.00451078    0.00192891
     atom   17 type  4   force =     0.00622279    0.00451077   -0.00192915
     atom   18 type  4   force =    -0.00435875    0.00724971   -0.00305558
     atom   19 type  4   force =    -0.00681518    0.00501123    0.00305597
     atom   20 type  4   force =     0.00681507   -0.00501117   -0.00305610
     The Hubbard contrib.    to forces
     atom    1 type  1   force =     0.00000000    0.00000000    0.00000000
     atom    2 type  1   force =     0.00000000    0.00000000    0.00000000
     atom    3 type  2   force =     0.00000000    0.00000000    0.00000000
     atom    4 type  2   force =     0.00000000    0.00000000    0.00000000
     atom    5 type  3   force =     0.00000000    0.00000000    0.00000000
     atom    6 type  3   force =     0.00000000    0.00000000    0.00000000
     atom    7 type  3   force =     0.00000000    0.00000000    0.00000000
     atom    8 type  3   force =     0.00000000    0.00000000    0.00000000
     atom    9 type  4   force =     0.00000000    0.00000000    0.00000000
     atom   10 type  4   force =     0.00000000    0.00000000    0.00000000
     atom   11 type  4   force =     0.00000000    0.00000000    0.00000000
     atom   12 type  4   force =     0.00000000    0.00000000    0.00000000
     atom   13 type  4   force =     0.00000000    0.00000000    0.00000000
     atom   14 type  4   force =     0.00000000    0.00000000    0.00000000
     atom   15 type  4   force =     0.00000000    0.00000000    0.00000000
     atom   16 type  4   force =     0.00000000    0.00000000    0.00000000
     atom   17 type  4   force =     0.00000000    0.00000000    0.00000000
     atom   18 type  4   force =     0.00000000    0.00000000    0.00000000
     atom   19 type  4   force =     0.00000000    0.00000000    0.00000000
     atom   20 type  4   force =     0.00000000    0.00000000    0.00000000
     The SCF correction term to forces
     atom    1 type  1   force =     0.00002642   -0.00005252    0.00001274
     atom    2 type  1   force =    -0.00004077    0.00001147   -0.00001921
     atom    3 type  2   force =    -0.00010167    0.00005546    0.00024498
     atom    4 type  2   force =    -0.00020172   -0.00012998   -0.00000751
     atom    5 type  3   force =     0.00001817   -0.00003957    0.00000543
     atom    6 type  3   force =     0.00004253    0.00004240   -0.00002152
     atom    7 type  3   force =     0.00007077    0.00005087   -0.00002811
     atom    8 type  3   force =     0.00002225    0.00004304   -0.00002035
     atom    9 type  4   force =    -0.00007112   -0.00001162    0.00004367
     atom   10 type  4   force =    -0.00006369   -0.00005548    0.00001197
     atom   11 type  4   force =     0.00013693    0.00004418   -0.00007112
     atom   12 type  4   force =     0.00011873    0.00009723   -0.00004361
     atom   13 type  4   force =    -0.00018196   -0.00015397    0.00012411
     atom   14 type  4   force =     0.00002410   -0.00024297    0.00006185
     atom   15 type  4   force =     0.00018058    0.00014874   -0.00004820
     atom   16 type  4   force =    -0.00023274   -0.00027067    0.00010443
     atom   17 type  4   force =     0.00016987    0.00021146   -0.00013293
     atom   18 type  4   force =    -0.00006735    0.00032083   -0.00003723
     atom   19 type  4   force =    -0.00023869    0.00007523    0.00003686
     atom   20 type  4   force =     0.00025635   -0.00008215   -0.00006089

     Total force =     0.035581     Total SCF correction =     0.000944

     Computing stress (Cartesian axis) and pressure

          total   stress  (Ry/bohr**3)                   (kbar)     P=     -375.07
  -0.00258633   0.00004196  -0.00002115         -380.46        6.17       -3.11
   0.00004196  -0.00259421  -0.00001918            6.17     -381.62       -2.82
  -0.00002115  -0.00001918  -0.00246839           -3.11       -2.82     -363.11

     kinetic stress (kbar)  18586.13      7.52     13.16
                                7.52  18584.72     12.00
                               13.16     12.00  18507.48

     local   stress (kbar)  -6854.25  -1049.47  -1224.52
                            -1049.47  -6659.03  -1115.88
                            -1224.52  -1115.88 -12465.21

     nonloc. stress (kbar)   1213.52     -1.28     -0.87
                               -1.28   1213.75     -0.79
                               -0.87     -0.79   1229.34

     hartree stress (kbar)   5312.91    425.39    548.41
                              425.39   5233.79    499.75
                              548.41    499.75   7518.50

     exc-cor stress (kbar)  -2129.29      0.69     -0.06
                                0.69  -2129.42     -0.05
                               -0.06     -0.05  -2125.48

     corecor stress (kbar)  -1867.89      0.32      0.29
                                0.32  -1867.95      0.26
                                0.29      0.26  -1868.92

     ewald   stress (kbar) -14641.58    623.00    660.48
                              623.00 -14757.48    601.89
                              660.48    601.89 -11158.83

     hubbard stress (kbar)      0.00      0.00      0.00
                                0.00      0.00      0.00
                                0.00      0.00      0.00

     DFT-D   stress (kbar)      0.00      0.00      0.00
                                0.00      0.00      0.00
                                0.00      0.00      0.00

     XDM     stress (kbar)      0.00      0.00      0.00
                                0.00      0.00      0.00
                                0.00      0.00      0.00

     dft-nl  stress (kbar)      0.00      0.00      0.00
                                0.00      0.00      0.00
                                0.00      0.00      0.00

     TS-vdW  stress (kbar)      0.00      0.00      0.00
                                0.00      0.00      0.00
                                0.00      0.00      0.00

[...]

                                0.00      0.00      0.00

     Writing all to output data dir new_calculations/myprefix.save/

     General routines

     Parallel routines

     PAW routines

   This run was terminated on:   4:50:40  20May2023

   JOB DONE.