     Program PWSCF v.7.0 starts on 20May2023 at  8:32:52

     Reading input from espresso_9253.pwi
Warning: card &CELL ignored
Warning: card / ignored

     Current dimensions of program PWSCF are:
     Max number of different atomic species (ntypx) = 10
     Max number of k-points (npk) =  40000
     Max angular momentum in pseudopotentials (lmaxx) =  4
     file O.pbe-n-kjpaw_psl.0.1.UPF: wavefunction(s)  2P renormalized

     gamma-point specific algorithms are used

     Subspace diagonalization in iterative solution of the eigenvalue problem:
     a serial algorithm will be used

     Using Slab Decomposition

     bravais-lattice index     =            0
     lattice parameter (alat)  =      11.2545  a.u.
     unit-cell volume          =     994.7351 (a.u.)^3
     number of atoms/cell      =           14
     number of atomic types    =            4
     number of electrons       =       132.00
     number of Kohn-Sham states=           79
     kinetic-energy cutoff     =      30.0000  Ry
     charge density cutoff     =     240.0000  Ry
     scf convergence threshold =      1.0E-06
     mixing beta               =       0.7000
     number of iterations used =            8  plain     mixing
     Exchange-correlation= SLA  PW   PBX  PBC
                           (   1   4   3   4   0   0   0)

     celldm(1)=  11.254466  celldm(2)=   0.000000  celldm(3)=   0.000000
     celldm(4)=   0.000000  celldm(5)=   0.000000  celldm(6)=   0.000000

     crystal axes: (cart. coord. in units of alat)
               a(1) = (   1.000000   0.000000   0.000000 )
               a(2) = (   0.025387   0.999678   0.000000 )
               a(3) = (  -0.507133  -0.505543   0.698028 )

     reciprocal axes: (cart. coord. in units 2 pi/alat)
               b(1) = (  1.000000 -0.025395  0.708130 )
               b(2) = (  0.000000  1.000322  0.724478 )
               b(3) = (  0.000000  0.000000  1.432608 )

     PseudoPot. # 1 for Li read from file:
     /home/pragov/projects/rrg-bengioy-ad/pragov/crystal_structure_design/SSSP/li_pbe_v1.4.uspp.F.UPF
     MD5 check sum: e912e257baa3777c20ea3d68f190483c
     Pseudo is Ultrasoft, Zval =  3.0
     Generated by new atomic code, or converted to UPF format
     Using radial grid of  751 points,  5 beta functions with:
                l(1) =   0
                l(2) =   0
                l(3) =   0
                l(4) =   1
                l(5) =   1
     Q(r) pseudized with 10 coefficients,  rinner =    1.150   1.150   1.150

     PseudoPot. # 2 for Mn read from file:
     /home/pragov/projects/rrg-bengioy-ad/pragov/crystal_structure_design/SSSP/mn_pbe_v1.5.uspp.F.UPF
     MD5 check sum: 82ef2b46521d7a7d9e736dc3972e4928
     Pseudo is Ultrasoft + core correction, Zval = 15.0
     Generated by new atomic code, or converted to UPF format
     Using radial grid of  859 points,  6 beta functions with:
                l(1) =   0
                l(2) =   0
                l(3) =   1
                l(4) =   1
                l(5) =   2
                l(6) =   2
     Q(r) pseudized with  8 coefficients,  rinner =    0.950   0.950   0.950
                                                       0.950   0.950

     PseudoPot. # 3 for Ni read from file:
     /home/pragov/projects/rrg-bengioy-ad/pragov/crystal_structure_design/SSSP/ni_pbe_v1.4.uspp.F.UPF
     MD5 check sum: 1ee80287db30b12d2bc1f57a5b5d6409
     Pseudo is Ultrasoft + core correction, Zval = 18.0
     Generated by new atomic code, or converted to UPF format
     Using radial grid of  865 points,  6 beta functions with:
                l(1) =   0
                l(2) =   0
                l(3) =   1
                l(4) =   1
                l(5) =   2
                l(6) =   2
     Q(r) pseudized with 10 coefficients,  rinner =    0.980   0.980   0.980
                                                       0.980   0.980

     PseudoPot. # 4 for O  read from file:
     /home/pragov/projects/rrg-bengioy-ad/pragov/crystal_structure_design/SSSP/O.pbe-n-kjpaw_psl.0.1.UPF
     MD5 check sum: 0234752ac141de4415c5fc33072bef88
     Pseudo is Projector augmented-wave + core cor, Zval =  6.0
     Generated using "atomic" code by A. Dal Corso  v.5.0.99 svn rev. 10869
     Shape of augmentation charge: BESSEL
     Using radial grid of 1095 points,  4 beta functions with:
                l(1) =   0
                l(2) =   0
                l(3) =   1
                l(4) =   1
     Q(r) pseudized with 0 coefficients

     atomic species   valence    mass     pseudopotential
        Li             3.00     6.94000     Li( 1.00)
        Mn            15.00    54.93804     Mn( 1.00)
        Ni            18.00    58.69340     Ni( 1.00)
        O              6.00    15.99900     O ( 1.00)

     No symmetry found

                                    s                        frac. trans.

      isym =  1     identity

 cryst.   s( 1) = (     1          0          0      )
                  (     0          1          0      )
                  (     0          0          1      )

 cart.    s( 1) = (  1.0000000 -0.0000000 -0.0000000 )
                  (  0.0000000  1.0000000 -0.0000000 )
                  (  0.0000000  0.0000000  1.0000000 )

   Cartesian axes

     site n.     atom                  positions (alat units)
         1           Li  tau(   1) = (   0.3949576   0.3850549   0.0000000  )
         2           Mn  tau(   2) = (  -0.1226754   0.3623014   0.3490139  )
         3           Mn  tau(   3) = (   0.6176551  -0.1281338   0.1771679  )
         4           Mn  tau(   4) = (   0.3804552   0.1151664   0.5208600  )
         5           Ni  tau(   5) = (   0.1255238  -0.1264093   0.1761159  )
         6           Ni  tau(   6) = (   0.3696853  -0.3768501   0.5219120  )
         7           O   tau(   7) = (   0.8659540   0.0893277   0.1593430  )
         8           O   tau(   8) = (   0.6041503   0.3578644   0.5386849  )
         9           O   tau(   9) = (   0.8802442   0.6420766   0.1529756  )
        10           O   tau(  10) = (   0.1570838   0.3581173   0.5450523  )
        11           O   tau(  11) = (   0.6087776  -0.1144994   0.5012043  )
        12           O   tau(  12) = (   0.3938599   0.1059465   0.1968236  )
        13           O   tau(  13) = (   0.4076341   0.6569557   0.1879719  )
        14           O   tau(  14) = (   0.1599599  -0.1147182   0.5100560  )

   Crystallographic axes

     site n.     atom                  positions (cryst. coord.)
         1           Li  tau(   1) = (  0.3851790  0.3851790  0.0000000  )
         2           Mn  tau(   2) = (  0.1152710  0.6152710  0.5000000  )
         3           Mn  tau(   3) = (  0.7463670  0.0001790  0.2538120  )
         4           Mn  tau(   4) = (  0.7463670  0.4925550  0.7461880  )
         5           Ni  tau(   5) = (  0.2534470  0.0011420  0.2523050  )
         6           Ni  tau(   6) = (  0.7488370  0.0011420  0.7476950  )
         7           O   tau(   7) = (  0.9765210  0.2047970  0.2282760  )
         8           O   tau(   8) = (  0.9765210  0.7482450  0.7717240  )
         9           O   tau(   9) = (  0.9722650  0.7531110  0.2191540  )
        10           O   tau(  10) = (  0.5339570  0.7531110  0.7808460  )
        11           O   tau(  11) = (  0.9666030  0.2485750  0.7180290  )
        12           O   tau(  12) = (  0.5305460  0.2485750  0.2819710  )
        13           O   tau(  13) = (  0.5240590  0.7933490  0.2692900  )
        14           O   tau(  14) = (  0.5240590  0.2547690  0.7307100  )

     number of k points=     1  Methfessel-Paxton smearing, width (Ry)=  0.0010
                       cart. coord. in units 2pi/alat
        k(    1) = (   0.0000000   0.0000000   0.0000000), wk =   2.0000000

                       cryst. coord.
        k(    1) = (   0.0000000   0.0000000   0.0000000), wk =   2.0000000

     Check: negative core charge=   -0.000028

     Initial potential from superposition of free atoms

     starting charge     126.0490, renormalised to     132.0000
     Starting wfcs are  102 randomized atomic wfcs
     Checking if some PAW data can be deallocated...

     Self-consistent Calculation

     iteration #  1     ecut=    30.00 Ry     beta= 0.70
     Davidson diagonalization with overlap

     ethr =  1.00E-02,  avg # of iterations =  3.0

     total energy              =   -1638.50892310 Ry
     estimated scf accuracy    <      41.85966924 Ry

[...]

     total energy              =   -1667.07530240 Ry
     estimated scf accuracy    <       0.00061953 Ry

     iteration # 41     ecut=    30.00 Ry     beta= 0.70
     Davidson diagonalization with overlap

     ethr =  1.45E-07,  avg # of iterations =  1.0

     End of self-consistent calculation

          k = 0.0000 0.0000 0.0000 (  1376 PWs)   bands (ev):

   -93.9906 -93.9885 -70.0403 -69.9392 -69.9314 -54.3626 -54.3609 -54.3461
   -54.3255 -54.2654 -54.2516 -38.8798 -38.7877 -38.7627 -38.7182 -38.7007
   -38.6749 -38.6691 -38.5900 -38.5708 -34.7765 -10.4117  -9.3571  -9.3266
    -9.2072  -8.9947  -8.5694  -8.5293  -8.5042   2.1115   2.6879   2.8407
     3.0816   3.7281   3.7653   3.9988   4.4456   4.5860   4.6152   4.8531
     4.8829   4.9413   4.9596   5.4107   5.9524   6.0117   6.0564   6.3066
     6.3399   6.5253   6.9333   6.9575   7.0421   7.8767   7.9240   8.3531
     8.5008   8.5509   8.5928   9.0825   9.1700   9.2448   9.3497   9.3828
     9.6937   9.8365   9.8446   9.8987   9.9327  10.0088  10.4856  10.7067
    11.0031  11.0612  12.2502  12.5206  12.5671  12.6233  13.1703

     occupation numbers
     1.0000   1.0000   1.0000   1.0000   1.0000   1.0000   1.0000   1.0000
     1.0000   1.0000   1.0000   1.0000   1.0000   1.0000   1.0000   1.0000
     1.0000   1.0000   1.0000   1.0000   1.0000   1.0000   1.0000   1.0000
     1.0000   1.0000   1.0000   1.0000   1.0000   1.0000   1.0000   1.0000
     1.0000   1.0000   1.0000   1.0000   1.0000   1.0000   1.0000   1.0000
     1.0000   1.0000   1.0000   1.0000   1.0000   1.0000   1.0000   1.0000
     1.0000   1.0000   1.0000   1.0000   1.0000   1.0000   1.0000   1.0000
     1.0000   1.0000   1.0000   1.0000   1.0000   1.0000   1.0000   1.0000
     1.0000   0.7394   0.2606  -0.0000  -0.0000  -0.0000  -0.0000  -0.0000
    -0.0000  -0.0000  -0.0000  -0.0000  -0.0000  -0.0000  -0.0000

     the Fermi energy is     9.8406 ev

!    total energy              =   -1667.07531316 Ry
     estimated scf accuracy    <       0.00000079 Ry
     smearing contrib. (-TS)   =      -0.00042555 Ry
     internal energy E=F+TS    =   -1667.07488762 Ry

     The total energy is F=E-TS. E is the sum of the following terms:
     one-electron contribution =   -1076.52366815 Ry
     hartree contribution      =     598.83919802 Ry
     xc contribution           =    -212.57095103 Ry
     ewald contribution        =    -900.62672776 Ry
     one-center paw contrib.   =     -76.19273869 Ry
      -> PAW hartree energy AE =     230.25054901 Ry
      -> PAW hartree energy PS =    -229.44162039 Ry
      -> PAW xc energy AE      =    -136.29170315 Ry
      -> PAW xc energy PS      =      59.29003584 Ry
      -> total E_H with PAW    =     599.64812664 Ry
      -> total E_XC with PAW   =    -289.57261834 Ry

     convergence has been achieved in  41 iterations

     Forces acting on atoms (cartesian axes, Ry/au):

     atom    1 type  1   force =    -0.00517443   -0.00504622   -0.00001368
     atom    2 type  2   force =    -0.01355927   -0.01322506   -0.00008079
     atom    3 type  2   force =    -0.05081852    0.03838426    0.06368341
     atom    4 type  2   force =     0.03700489   -0.05183034   -0.06373969
     atom    5 type  3   force =     0.01505974    0.00126449    0.00966731
     atom    6 type  3   force =     0.00144346    0.01502616   -0.00948857
     atom    7 type  4   force =     0.02427220    0.05719618    0.02424523
     atom    8 type  4   force =     0.05778675    0.02280913   -0.02429314
     atom    9 type  4   force =     0.01548276   -0.04939219    0.04565364
     atom   10 type  4   force =    -0.04891882    0.01675187   -0.04564322
     atom   11 type  4   force =    -0.04054679   -0.01679390   -0.01613863
     atom   12 type  4   force =    -0.01774570   -0.04013496    0.01613400
     atom   13 type  4   force =    -0.00407459    0.02985315    0.02454640
     atom   14 type  4   force =     0.02978832   -0.00486257   -0.02453228
     The non-local contrib.  to forces
     atom    1 type  1   force =    -0.01524131   -0.01486715    0.00001039
     atom    2 type  2   force =    -0.05382489   -0.05251536   -0.00000680
     atom    3 type  2   force =     0.00087572   -0.04486619   -0.03312449
     atom    4 type  2   force =    -0.04489016    0.00196819    0.03310363
     atom    5 type  3   force =    -0.09700904    0.02377906   -0.08363590
     atom    6 type  3   force =     0.02110373   -0.09762942    0.08383339
     atom    7 type  4   force =     0.04905111    0.03194184   -0.01160128
     atom    8 type  4   force =     0.03311235    0.04827130    0.01152909
     atom    9 type  4   force =    -0.06470417    0.06671387   -0.09182022
     atom   10 type  4   force =     0.06511626   -0.06621910    0.09179117
     atom   11 type  4   force =    -0.63553380    0.04907410   -0.47332978
     atom   12 type  4   force =     0.03304645   -0.63650741    0.47334569
     atom   13 type  4   force =    -0.00710353    0.65545701    0.47985838
     atom   14 type  4   force =     0.65517551   -0.02378928   -0.47977405
     The ionic contribution  to forces
     atom    1 type  1   force =    -0.63174416   -0.61589556   -0.00001002
     atom    2 type  2   force =     2.52781839    2.46443826    0.00000854
     atom    3 type  2   force =     1.10733130    0.00972819   -0.77479925
     atom    4 type  2   force =     0.03780802    1.10675599    0.77480845
     atom    5 type  3   force =    -0.37741181   -0.77956906    0.29139296
     atom    6 type  3   force =    -0.78892047   -0.35753840   -0.29139085
     atom    7 type  4   force =    -0.84185951    7.36532298    5.92872790
     atom    8 type  4   force =     7.34158654   -1.02857194   -5.92871928
     atom    9 type  4   force =     0.69475820   -7.77815386    5.98566998
     atom   10 type  4   force =    -7.75801762    0.89200213   -5.98566113
     atom   11 type  4   force =    14.20329265   -1.07956468   10.56660126
     atom   12 type  4   force =    -0.71863141   14.22606039  -10.56661989
     atom   13 type  4   force =    -0.28287489  -14.51061693  -10.30950246
     atom   14 type  4   force =   -14.51313523    0.08560249   10.30949377
     The local contribution  to forces
     atom    1 type  1   force =     0.64171811    0.62574685   -0.00004854
     atom    2 type  2   force =    -2.49126058   -2.42879893    0.00006762
     atom    3 type  2   force =    -1.16238154    0.07023746    0.87214248
     atom    4 type  2   force =     0.04123755   -1.16403717   -0.87161602
     atom    5 type  3   force =     0.48914266    0.75696342   -0.19853108
     atom    6 type  3   force =     0.76970726    0.47001453    0.19833375
     atom    7 type  4   force =     0.81857145   -7.33957257   -5.89277701
     atom    8 type  4   force =    -7.31585475    1.00400751    5.89359020
     atom    9 type  4   force =    -0.61433257    7.66273166   -5.84856089
     atom   10 type  4   force =     7.64421316   -0.80935538    5.84857542
     atom   11 type  4   force =   -13.61490577    1.01366752  -10.11385561
     atom   12 type  4   force =     0.66711209  -13.63674889   10.11397412
     atom   13 type  4   force =     0.28459113   13.89227426    9.85958876
     atom   14 type  4   force =    13.89446572   -0.06760490   -9.86039172
     The core correction contribution to forces
     atom    1 type  1   force =     0.00000000    0.00000000    0.00000000
     atom    2 type  2   force =     0.00367100    0.00358405   -0.00000233
     atom    3 type  2   force =     0.00332297    0.00324586    0.00000626
     atom    4 type  2   force =     0.00333200    0.00324060   -0.00000446
     atom    5 type  3   force =     0.00034346   -0.00000891    0.00024217
     atom    6 type  3   force =     0.00000053    0.00034228   -0.00024328
     atom    7 type  4   force =    -0.00097818   -0.00071294    0.00017535
     atom    8 type  4   force =    -0.00073685   -0.00096019   -0.00017472
     atom    9 type  4   force =     0.00022991   -0.00048443    0.00050070
     atom   10 type  4   force =    -0.00047912    0.00024022   -0.00050028
     atom   11 type  4   force =     0.00684512    0.00012813    0.00463297
     atom   12 type  4   force =     0.00030069    0.00683854   -0.00463290
     atom   13 type  4   force =     0.00080376   -0.00700201   -0.00564021
     atom   14 type  4   force =    -0.00698079    0.00098160    0.00563950
     The Hubbard contrib.    to forces
     atom    1 type  1   force =     0.00000000    0.00000000    0.00000000
     atom    2 type  2   force =     0.00000000    0.00000000    0.00000000
     atom    3 type  2   force =     0.00000000    0.00000000    0.00000000
     atom    4 type  2   force =     0.00000000    0.00000000    0.00000000
     atom    5 type  3   force =     0.00000000    0.00000000    0.00000000
     atom    6 type  3   force =     0.00000000    0.00000000    0.00000000
     atom    7 type  4   force =     0.00000000    0.00000000    0.00000000
     atom    8 type  4   force =     0.00000000    0.00000000    0.00000000
     atom    9 type  4   force =     0.00000000    0.00000000    0.00000000
     atom   10 type  4   force =     0.00000000    0.00000000    0.00000000
     atom   11 type  4   force =     0.00000000    0.00000000    0.00000000
     atom   12 type  4   force =     0.00000000    0.00000000    0.00000000
     atom   13 type  4   force =     0.00000000    0.00000000    0.00000000
     atom   14 type  4   force =     0.00000000    0.00000000    0.00000000
     The SCF correction term to forces
     atom    1 type  1   force =     0.00008691   -0.00002449    0.00004758
     atom    2 type  2   force =     0.00003080    0.00007278   -0.00013474
     atom    3 type  2   force =     0.00002702    0.00004482   -0.00052851
     atom    4 type  2   force =    -0.00048853    0.00024791   -0.00001820
     atom    5 type  3   force =    -0.00001153    0.00010585    0.00021224
     atom    6 type  3   force =    -0.00045360   -0.00015697   -0.00000850
     atom    7 type  4   force =    -0.00051869    0.00022273   -0.00026664
     atom    8 type  4   force =    -0.00032654    0.00006832   -0.00050536
     atom    9 type  4   force =    -0.00047460   -0.00019356   -0.00012286
     atom   10 type  4   force =     0.00024250    0.00008988    0.00016469
     atom   11 type  4   force =    -0.00025099   -0.00009311   -0.00017439
     atom   12 type  4   force =     0.00042047    0.00022828    0.00008007
     atom   13 type  4   force =     0.00050292   -0.00025331    0.00025501
     atom   14 type  4   force =     0.00025711   -0.00004661    0.00051330

     Total force =     0.207593     Total SCF correction =     0.001756

     Computing stress (Cartesian axis) and pressure

          total   stress  (Ry/bohr**3)                   (kbar)     P=     -928.39
  -0.00634646  -0.00010179   0.00015020         -933.60      -14.97       22.10
  -0.00010179  -0.00634043  -0.00015478          -14.97     -932.71      -22.77
   0.00015020  -0.00015478  -0.00624632           22.10      -22.77     -918.86

     kinetic stress (kbar)  35490.44     59.80     81.45
                               59.80  35487.36    -83.45
                               81.45    -83.45  35426.33

     local   stress (kbar) -24216.36   1648.71    213.52
                             1648.71 -24299.05   -220.05
                              213.52   -220.05 -25913.63

     nonloc. stress (kbar)  13135.49     -3.00     -5.05
                               -3.00  13135.62      5.26
                               -5.05      5.26  13138.65

     hartree stress (kbar)  29289.33   -645.32     82.25
                             -645.32  29321.20    -83.58
                               82.25    -83.58  29948.01

     exc-cor stress (kbar)  -7221.81     -0.47     -0.70
                               -0.47  -7221.79      0.72
                               -0.70      0.72  -7221.31

     corecor stress (kbar)  -2625.32     -0.27      0.16
                               -0.27  -2625.31     -0.16
                                0.16     -0.16  -2625.05

     ewald   stress (kbar) -44785.37  -1074.44   -349.53
                            -1074.44 -44730.75    358.50
                             -349.53    358.50 -43671.87

     hubbard stress (kbar)      0.00      0.00      0.00
                                0.00      0.00      0.00
                                0.00      0.00      0.00

     DFT-D   stress (kbar)      0.00      0.00      0.00
                                0.00      0.00      0.00
                                0.00      0.00      0.00

     XDM     stress (kbar)      0.00      0.00      0.00
                                0.00      0.00      0.00
                                0.00      0.00      0.00

     dft-nl  stress (kbar)      0.00      0.00      0.00
                                0.00      0.00      0.00
                                0.00      0.00      0.00

     TS-vdW  stress (kbar)      0.00      0.00      0.00
                                0.00      0.00      0.00
                                0.00      0.00      0.00

[...]

                                0.00      0.00      0.00

     Writing all to output data dir new_calculations/myprefix.save/

     General routines

     Parallel routines

     PAW routines

   This run was terminated on:   8:33:35  20May2023

   JOB DONE.