     Program PWSCF v.7.0 starts on 20May2023 at 15: 8: 4

     Reading input from espresso_16433.pwi
Warning: card &CELL ignored
Warning: card / ignored

     Current dimensions of program PWSCF are:
     Max number of different atomic species (ntypx) = 10
     Max number of k-points (npk) =  40000
     Max angular momentum in pseudopotentials (lmaxx) =  4

     gamma-point specific algorithms are used
     Message from routine setup:
     using ibrav=0 with symmetry is DISCOURAGED, use correct ibrav instead

     Subspace diagonalization in iterative solution of the eigenvalue problem:
     a serial algorithm will be used

     Using Slab Decomposition

     bravais-lattice index     =            0
     lattice parameter (alat)  =       9.8352  a.u.
     unit-cell volume          =     672.7120 (a.u.)^3
     number of atoms/cell      =            6
     number of atomic types    =            2
     number of electrons       =        76.00
     number of Kohn-Sham states=           46
     kinetic-energy cutoff     =      30.0000  Ry
     charge density cutoff     =     240.0000  Ry
     scf convergence threshold =      1.0E-06
     mixing beta               =       0.7000
     number of iterations used =            8  plain     mixing
     Exchange-correlation=  SLA  PW   PBX  PBC
                           (   1   4   3   4   0   0   0)

     celldm(1)=   9.835159  celldm(2)=   0.000000  celldm(3)=   0.000000
     celldm(4)=   0.000000  celldm(5)=   0.000000  celldm(6)=   0.000000

     crystal axes: (cart. coord. in units of alat)
               a(1) = (   1.000000   0.000000   0.000000 )
               a(2) = (   0.500000   0.866025   0.000000 )
               a(3) = (   0.500000   0.288675   0.816497 )

     reciprocal axes: (cart. coord. in units 2 pi/alat)
               b(1) = (  1.000000 -0.577350 -0.408248 )
               b(2) = (  0.000000  1.154701 -0.408248 )
               b(3) = (  0.000000  0.000000  1.224745 )

     PseudoPot. # 1 for Zr read from file:
     /home/pragov/projects/rrg-bengioy-ad/pragov/crystal_structure_design/SSSP/Zr_pbe_v1.uspp.F.UPF
     MD5 check sum: 5db81b1e868ab7776c4564c113de050b
     Pseudo is Ultrasoft + core correction, Zval = 12.0
     Generated by new atomic code, or converted to UPF format
     Using radial grid of  887 points,  6 beta functions with:
                l(1) =   0
                l(2) =   0
                l(3) =   1
                l(4) =   1
                l(5) =   2
                l(6) =   2
     Q(r) pseudized with  6 coefficients,  rinner =    1.200   1.200   1.200
                                                       1.200   1.200

     PseudoPot. # 2 for V  read from file:
     /home/pragov/projects/rrg-bengioy-ad/pragov/crystal_structure_design/SSSP/v_pbe_v1.4.uspp.F.UPF
     MD5 check sum: 22b79981416ebb76fdaf5b1b8640f6fb
     Pseudo is Ultrasoft + core correction, Zval = 13.0
     Generated by new atomic code, or converted to UPF format
     Using radial grid of  853 points,  6 beta functions with:
                l(1) =   0
                l(2) =   0
                l(3) =   1
                l(4) =   1
                l(5) =   2
                l(6) =   2
     Q(r) pseudized with  8 coefficients,  rinner =    1.100   1.100   1.100
                                                       1.100   1.100

     atomic species   valence    mass     pseudopotential
        Zr            12.00    91.22400     Zr( 1.00)
        V             13.00    50.94150     V ( 1.00)

     12 Sym. Ops., with inversion, found ( 6 have fractional translation)

                                    s                        frac. trans.

      isym =  1     identity

 cryst.   s( 1) = (     1          0          0      )
                  (     0          1          0      )
                  (     0          0          1      )

 cart.    s( 1) = (  1.0000000  0.0000000 -0.0000000 )
                  (  0.0000000  1.0000000  0.0000000 )
                  (  0.0000000  0.0000000  1.0000000 )

      isym =  2     180 deg rotation - cart. axis [1,0,0]

 cryst.   s( 2) = (     1          0          0      )    f =( -0.2500000 )
                  (     1         -1          0      )       ( -0.2500000 )
                  (     1          0         -1      )       ( -0.2500000 )

 cart.    s( 2) = (  1.0000000  0.0000000 -0.0000000 )    f =( -0.5000000 )
                  (  0.0000000 -1.0000000 -0.0000000 )       ( -0.2886751 )
                  (  0.0000000  0.0000000 -1.0000000 )       ( -0.2041241 )

      isym =  3     120 deg rotation - cryst. axis [0,0,1]

[...]

      isym =  6     180 deg rotation - cryst. axis [1,1,0]

[...]

      isym =  7     inversion

[...]

      isym =  8     inv. 180 deg rotation - cart. axis [1,0,0]

 cryst.   s( 8) = (    -1          0          0      )
                  (    -1          1          0      )
                  (    -1          0          1      )

 cart.    s( 8) = ( -1.0000000  0.0000000  0.0000000 )
                  (  0.0000000  1.0000000  0.0000000 )
                  (  0.0000000  0.0000000  1.0000000 )

      isym =  9     inv. 120 deg rotation - cryst. axis [0,0,1]

 cryst.   s( 9) = (     1         -1          0      )    f =( -0.2500000 )
                  (     1          0          0      )       ( -0.2500000 )
                  (     1          0         -1      )       ( -0.2500000 )

 cart.    s( 9) = (  0.5000000  0.8660254 -0.0000000 )    f =( -0.5000000 )
                  ( -0.8660254  0.5000000 -0.0000000 )       ( -0.2886751 )
                  (  0.0000000  0.0000000 -1.0000000 )       ( -0.2041241 )

[...]

 cryst.   s(10) = (     0          1          0      )    f =( -0.2500000 )
                  (    -1          1          0      )       ( -0.2500000 )
                  (     0          1         -1      )       ( -0.2500000 )

 cart.    s(10) = (  0.5000000 -0.8660254  0.0000000 )    f =( -0.5000000 )
                  (  0.8660254  0.5000000 -0.0000000 )       ( -0.2886751 )
                  (  0.0000000  0.0000000 -1.0000000 )       ( -0.2041241 )

[...]

 cryst.   s(11) = (     0          1          0      )
                  (     1          0          0      )
                  (     0          0          1      )

 cart.    s(11) = (  0.5000000  0.8660254 -0.0000000 )
                  (  0.8660254 -0.5000000  0.0000000 )
                  (  0.0000000  0.0000000  1.0000000 )

      isym = 12     inv. 180 deg rotation - cryst. axis [1,1,0]

 cryst.   s(12) = (     1         -1          0      )
                  (     0         -1          0      )
                  (     0         -1          1      )

 cart.    s(12) = (  0.5000000 -0.8660254  0.0000000 )
                  ( -0.8660254 -0.5000000  0.0000000 )
                  (  0.0000000  0.0000000  1.0000000 )

   Cartesian axes

     site n.     atom                  positions (alat units)
         1           Zr  tau(   1) = (   0.5000000   0.2886751   0.2041241  )
         2           Zr  tau(   2) = (   0.0000000   0.0000000   0.0000000  )
         3           V   tau(   3) = (   1.0000000   0.5773503   0.1020621  )
         4           V   tau(   4) = (   1.0000000   0.2886751   0.5103104  )
         5           V   tau(   5) = (   0.7500000   0.7216878   0.5103104  )
         6           V   tau(   6) = (   1.2500000   0.7216878   0.5103104  )

   Crystallographic axes

     site n.     atom                  positions (cryst. coord.)
         1           Zr  tau(   1) = (  0.2500000  0.2500000  0.2500000  )
         2           Zr  tau(   2) = (  0.0000000  0.0000000  0.0000000  )
         3           V   tau(   3) = (  0.6250000  0.6250000  0.1250000  )
         4           V   tau(   4) = (  0.6250000  0.1250000  0.6250000  )
         5           V   tau(   5) = (  0.1250000  0.6250000  0.6250000  )
         6           V   tau(   6) = (  0.6250000  0.6250000  0.6250000  )

     number of k points=     1  Methfessel-Paxton smearing, width (Ry)=  0.0010
                       cart. coord. in units 2pi/alat
        k(    1) = (   0.0000000   0.0000000   0.0000000), wk =   2.0000000

                       cryst. coord.
        k(    1) = (   0.0000000   0.0000000   0.0000000), wk =   2.0000000

     Check: negative core charge=   -0.000008

     Initial potential from superposition of free atoms

     starting charge      75.9908, renormalised to      76.0000

     negative rho (up, down):  1.217E-01 0.000E+00
     Starting wfcs are   66 randomized atomic wfcs

     Self-consistent Calculation

     iteration #  1     ecut=    30.00 Ry     beta= 0.70
     Davidson diagonalization with overlap

     ethr =  1.00E-02,  avg # of iterations =  2.0

     Threshold (ethr) on eigenvalues was too large:
     Diagonalizing with lowered threshold

     Davidson diagonalization with overlap

[...]

     negative rho (up, down):  1.281E-01 0.000E+00

     total energy              =    -778.54159168 Ry
     estimated scf accuracy    <       0.37344270 Ry

[...]

     total energy              =    -778.70051910 Ry
     estimated scf accuracy    <       0.00000794 Ry

     iteration # 24     ecut=    30.00 Ry     beta= 0.70
     Davidson diagonalization with overlap

     ethr =  2.37E-09,  avg # of iterations =  1.0

[...]

     End of self-consistent calculation

          k = 0.0000 0.0000 0.0000 (   947 PWs)   bands (ev):

   -49.0666 -48.9026 -48.9023 -48.9020 -31.8327 -31.7296 -23.6197 -23.0261
   -23.0260 -23.0259 -22.7941 -22.7940 -22.5410 -22.5409 -22.5409 -22.4707
   -22.4706 -22.4704 -10.0597 -10.0597 -10.0596  -9.7655  -9.7654  -9.7654
     9.1677  11.6490  12.6310  12.6311  12.6312  13.8694  13.8694  13.8695
    14.0987  14.0988  15.1301  15.1302  15.8622  15.8623  15.8623  16.3552
    16.3553  16.3554  16.7095  16.7095  16.8958  16.8960

     occupation numbers
     1.0000   1.0000   1.0000   1.0000   1.0000   1.0000   1.0000   1.0000
     1.0000   1.0000   1.0000   1.0000   1.0000   1.0000   1.0000   1.0000
     1.0000   1.0000   1.0000   1.0000   1.0000   1.0000   1.0000   1.0000
     1.0000   1.0000   1.0000   1.0000   1.0000   1.0000   1.0000   1.0000
     1.0000   1.0000   1.0000   1.0000   0.6687   0.6666   0.6647  -0.0000
    -0.0000  -0.0000  -0.0000  -0.0000  -0.0000  -0.0000

     the Fermi energy is    15.8650 ev

!    total energy              =    -778.70051873 Ry
     estimated scf accuracy    <       0.00000080 Ry
     smearing contrib. (-TS)   =      -0.00074671 Ry
     internal energy E=F+TS    =    -778.69977202 Ry

     The total energy is F=E-TS. E is the sum of the following terms:
     one-electron contribution =    -256.57201500 Ry
     hartree contribution      =     160.87176891 Ry
     xc contribution           =    -114.05442941 Ry
     ewald contribution        =    -568.94509653 Ry

     convergence has been achieved in  24 iterations

     negative rho (up, down):  1.284E-01 0.000E+00

     Forces acting on atoms (cartesian axes, Ry/au):

     atom    1 type  1   force =     0.00000000   -0.00000000    0.00005659
     atom    2 type  1   force =     0.00000000    0.00000000   -0.00005659
     atom    3 type  2   force =     0.00000000    0.00000000    0.00000000
     atom    4 type  2   force =     0.00000000   -0.00000000    0.00000000
     atom    5 type  2   force =     0.00000000    0.00000000   -0.00000000
     atom    6 type  2   force =    -0.00000000   -0.00000000    0.00000000
     The non-local contrib.  to forces
     atom    1 type  1   force =     0.00000000   -0.00000000   -0.00011936
     atom    2 type  1   force =     0.00000000    0.00000000    0.00011936
     atom    3 type  2   force =    -0.00000000    0.00000000    0.00000000
     atom    4 type  2   force =     0.00000000   -0.00000000   -0.00000000
     atom    5 type  2   force =     0.00000000    0.00000000   -0.00000000
     atom    6 type  2   force =    -0.00000000    0.00000000    0.00000000
     The ionic contribution  to forces
     atom    1 type  1   force =     0.00000000    0.00000000   -0.00000000
     atom    2 type  1   force =    -0.00000000   -0.00000000   -0.00000000
     atom    3 type  2   force =    -0.00000000   -0.00000000    0.00000000
     atom    4 type  2   force =    -0.00000000    0.00000000   -0.00000000
     atom    5 type  2   force =     0.00000000   -0.00000000    0.00000000
     atom    6 type  2   force =    -0.00000000   -0.00000000    0.00000000
     The local contribution  to forces
     atom    1 type  1   force =     0.00016853    0.00014388    0.00011333
     atom    2 type  1   force =    -0.00018411   -0.00013327   -0.00012431
     atom    3 type  2   force =    -0.00000200   -0.00000536    0.00015150
     atom    4 type  2   force =     0.00002329    0.00013348   -0.00004921
     atom    5 type  2   force =     0.00012793   -0.00003067   -0.00003836
     atom    6 type  2   force =    -0.00010827   -0.00008446   -0.00004043
     The core correction contribution to forces
     atom    1 type  1   force =     0.00002885    0.00004534    0.00001056
     atom    2 type  1   force =    -0.00002869   -0.00004539   -0.00001066
     atom    3 type  2   force =    -0.00000043   -0.00000038    0.00000170
     atom    4 type  2   force =    -0.00000161    0.00000252   -0.00000075
     atom    5 type  2   force =     0.00000183    0.00000308    0.00000059
     atom    6 type  2   force =    -0.00000065   -0.00000183   -0.00000187
     The Hubbard contrib.    to forces
     atom    1 type  1   force =     0.00000000    0.00000000    0.00000000
     atom    2 type  1   force =     0.00000000    0.00000000    0.00000000
     atom    3 type  2   force =     0.00000000    0.00000000    0.00000000
     atom    4 type  2   force =     0.00000000    0.00000000    0.00000000
     atom    5 type  2   force =     0.00000000    0.00000000    0.00000000
     atom    6 type  2   force =     0.00000000    0.00000000    0.00000000
     The SCF correction term to forces
     atom    1 type  1   force =     0.00029455    0.00060251    0.00004714
     atom    2 type  1   force =    -0.00028149   -0.00059645   -0.00004590
     atom    3 type  2   force =     0.00000367    0.00000167   -0.00014241
     atom    4 type  2   force =    -0.00003345   -0.00012996    0.00005220
     atom    5 type  2   force =    -0.00011689    0.00006926    0.00004779
     atom    6 type  2   force =     0.00010842    0.00006970    0.00001499

     Total force =     0.000080     Total SCF correction =     0.000984
     SCF correction compared to forces is large: reduce conv_thr to get better values

     Computing stress (Cartesian axis) and pressure

     negative rho (up, down):  1.284E-01 0.000E+00
          total   stress  (Ry/bohr**3)                   (kbar)     P=     -172.42
  -0.00117214   0.00000000   0.00000000         -172.43        0.00        0.00
   0.00000000  -0.00117214   0.00000000            0.00     -172.43        0.00
   0.00000000   0.00000000  -0.00117191            0.00        0.00     -172.39

     kinetic stress (kbar)  29559.34      0.00     -0.00
                                0.00  29559.34     -0.00
                               -0.00     -0.00  29559.72

     local   stress (kbar)   1794.61      0.77      0.10
                                0.77   1792.18      0.48
                                0.10      0.48   1793.02

     nonloc. stress (kbar)   5754.30      0.00     -0.00
                                0.00   5754.30     -0.00
                                0.00     -0.00   5754.39

     hartree stress (kbar)  11725.80     -0.16      0.00
                               -0.16  11726.63     -0.19
                                0.00     -0.19  11726.15

     exc-cor stress (kbar)  -2509.54     -0.01      0.00
                               -0.01  -2509.53     -0.00
                                0.00     -0.00  -2509.53

     corecor stress (kbar)  -5024.84      0.01      0.00
                                0.01  -5024.86      0.00
                                0.00      0.00  -5024.86

     ewald   stress (kbar) -41471.29     -0.00     -0.00
                               -0.00 -41471.29     -0.00
                               -0.00     -0.00 -41471.29

     hubbard stress (kbar)      0.00      0.00      0.00
                                0.00      0.00      0.00
                                0.00      0.00      0.00

     DFT-D   stress (kbar)      0.00      0.00      0.00
                                0.00      0.00      0.00
                                0.00      0.00      0.00

     XDM     stress (kbar)      0.00      0.00      0.00
                                0.00      0.00      0.00
                                0.00      0.00      0.00

     dft-nl  stress (kbar)      0.00      0.00      0.00
                                0.00      0.00      0.00
                                0.00      0.00      0.00

     TS-vdW  stress (kbar)      0.00      0.00      0.00
                                0.00      0.00      0.00
                                0.00      0.00      0.00

[...]

                                0.00      0.00      0.00

     Writing all to output data dir new_calculations/myprefix.save/

     General routines

     Parallel routines

   This run was terminated on:  15: 8:35  20May2023

   JOB DONE.