     Program PWSCF v.7.0 starts on 21May2023 at  3:30:34

     Reading input from espresso_25286.pwi
Warning: card &CELL ignored
Warning: card / ignored

     Current dimensions of program PWSCF are:
     Max number of different atomic species (ntypx) = 10
     Max number of k-points (npk) =  40000
     Max angular momentum in pseudopotentials (lmaxx) =  4
     file O.pbe-n-kjpaw_psl.0.1.UPF: wavefunction(s)  2P renormalized

     gamma-point specific algorithms are used
     Message from routine setup:
     using ibrav=0 with symmetry is DISCOURAGED, use correct ibrav instead

     Subspace diagonalization in iterative solution of the eigenvalue problem:
     a serial algorithm will be used

     Using Slab Decomposition

     bravais-lattice index     =            0
     lattice parameter (alat)  =      10.0317  a.u.
     unit-cell volume          =    2105.1904 (a.u.)^3
     number of atoms/cell      =           16
     number of atomic types    =            4
     number of electrons       =       112.00
     number of Kohn-Sham states=           67
     kinetic-energy cutoff     =      30.0000  Ry
     charge density cutoff     =     240.0000  Ry
     scf convergence threshold =      1.0E-06
     mixing beta               =       0.7000
     number of iterations used =            8  plain     mixing
     Exchange-correlation= SLA  PW   PBX  PBC
                           (   1   4   3   4   0   0   0)

     celldm(1)=  10.031690  celldm(2)=   0.000000  celldm(3)=   0.000000
     celldm(4)=   0.000000  celldm(5)=   0.000000  celldm(6)=   0.000000

     crystal axes: (cart. coord. in units of alat)
               a(1) = (   1.000000   0.000000   0.000000 )
               a(2) = (  -0.500000   0.866025   0.000000 )
               a(3) = (   0.000000   0.000000   2.407900 )

     reciprocal axes: (cart. coord. in units 2 pi/alat)
               b(1) = (  1.000000  0.577350  0.000000 )
               b(2) = (  0.000000  1.154701  0.000000 )
               b(3) = (  0.000000  0.000000  0.415300 )

     PseudoPot. # 1 for Sr read from file:
     /home/pragov/projects/rrg-bengioy-ad/pragov/crystal_structure_design/SSSP/Sr_pbe_v1.uspp.F.UPF
     MD5 check sum: 6b418c05fbe9db5448babca5e47b7a5b
     Pseudo is Ultrasoft + core correction, Zval = 10.0
     Generated by new atomic code, or converted to UPF format
     Using radial grid of  883 points,  6 beta functions with:
                l(1) =   0
                l(2) =   0
                l(3) =   1
                l(4) =   1
                l(5) =   2
                l(6) =   2
     Q(r) pseudized with  6 coefficients,  rinner =    1.400   1.400   1.400
                                                       1.400   1.400

     PseudoPot. # 2 for B  read from file:
     /home/pragov/projects/rrg-bengioy-ad/pragov/crystal_structure_design/SSSP/b_pbe_v1.4.uspp.F.UPF
     MD5 check sum: cc6de2960df11db49a60e589f9ebb39b
     Pseudo is Ultrasoft + core correction, Zval =  3.0
     Generated by new atomic code, or converted to UPF format
     Using radial grid of  781 points,  4 beta functions with:
                l(1) =   0
                l(2) =   0
                l(3) =   1
                l(4) =   1
     Q(r) pseudized with  8 coefficients,  rinner =    1.100   1.100   1.100

     PseudoPot. # 3 for P  read from file:
     /home/pragov/projects/rrg-bengioy-ad/pragov/crystal_structure_design/SSSP/P.pbe-n-rrkjus_psl.1.0.0.UPF
     MD5 check sum: 8b930f418f0a4573dca56cd030ffe088
     Pseudo is Ultrasoft + core correction, Zval =  5.0
     Generated using "atomic" code by A. Dal Corso  v.5.1
     Using radial grid of 1147 points,  6 beta functions with:
                l(1) =   0
                l(2) =   0
                l(3) =   1
                l(4) =   1
                l(5) =   2
                l(6) =   2
     Q(r) pseudized with 0 coefficients

     PseudoPot. # 4 for O  read from file:
     /home/pragov/projects/rrg-bengioy-ad/pragov/crystal_structure_design/SSSP/O.pbe-n-kjpaw_psl.0.1.UPF
     MD5 check sum: 0234752ac141de4415c5fc33072bef88
     Pseudo is Projector augmented-wave + core cor, Zval =  6.0
     Generated using "atomic" code by A. Dal Corso  v.5.0.99 svn rev. 10869
     Shape of augmentation charge: BESSEL
     Using radial grid of 1095 points,  4 beta functions with:
                l(1) =   0
                l(2) =   0
                l(3) =   1
                l(4) =   1
     Q(r) pseudized with 0 coefficients

     atomic species   valence    mass     pseudopotential
        Sr            10.00    87.62000     Sr( 1.00)
        B              3.00    10.81000     B ( 1.00)
        P              5.00    30.97376     P ( 1.00)
        O              6.00    15.99900     O ( 1.00)

     24 Sym. Ops., with inversion, found (12 have fractional translation)

                                    s                        frac. trans.

      isym =  1     identity

 cryst.   s( 1) = (     1          0          0      )
                  (     0          1          0      )
                  (     0          0          1      )

 cart.    s( 1) = (  1.0000000 -0.0000000  0.0000000 )
                  (  0.0000000  1.0000000  0.0000000 )
                  (  0.0000000  0.0000000  1.0000000 )

      isym =  2     180 deg rotation - cart. axis [0,0,1]

 cryst.   s( 2) = (    -1          0          0      )    f =( -0.0000000 )
                  (     0         -1          0      )       ( -0.0000000 )
                  (     0          0          1      )       (  0.5000000 )

 cart.    s( 2) = ( -1.0000000  0.0000000  0.0000000 )    f =( -0.0000000 )
                  (  0.0000000 -1.0000000  0.0000000 )       ( -0.0000000 )
                  (  0.0000000  0.0000000  1.0000000 )       (  1.2039499 )

[...]

      isym =  4     180 deg rotation - cart. axis [1,0,0]

[...]

      isym =  5      60 deg rotation - cryst. axis [0,0,1]

[...]

 cryst.   s( 8) = (    -1         -1          0      )
                  (     1          0          0      )
                  (     0          0          1      )

 cart.    s( 8) = ( -0.5000000  0.8660254  0.0000000 )
                  ( -0.8660254 -0.5000000  0.0000000 )
                  (  0.0000000  0.0000000  1.0000000 )

[...]

 cryst.   s( 9) = (     0         -1          0      )    f =( -0.0000000 )
                  (    -1          0          0      )       ( -0.0000000 )
                  (     0          0         -1      )       (  0.5000000 )

 cart.    s( 9) = (  0.5000000 -0.8660254  0.0000000 )    f =( -0.0000000 )
                  ( -0.8660254 -0.5000000  0.0000000 )       ( -0.0000000 )
                  (  0.0000000  0.0000000 -1.0000000 )       (  1.2039499 )

[...]

 cryst.   s(10) = (     1          1          0      )    f =(  0.0000000 )
                  (     0         -1          0      )       ( -0.0000010 )
                  (     0          0         -1      )       (  0.5000000 )

 cart.    s(10) = (  0.5000000  0.8660253  0.0000000 )    f =(  0.0000005 )
                  (  0.8660254 -0.5000000  0.0000000 )       ( -0.0000009 )
                  (  0.0000000  0.0000000 -1.0000000 )       (  1.2039499 )

[...]

 cryst.   s(11) = (    -1         -1          0      )
                  (     0          1          0      )
                  (     0          0         -1      )

 cart.    s(11) = ( -0.5000000 -0.8660253  0.0000000 )
                  ( -0.8660254  0.5000000  0.0000000 )
                  (  0.0000000  0.0000000 -1.0000000 )

      isym = 12     180 deg rotation - cryst. axis [1,1,0]

[...]

      isym = 13     inversion

[...]

      isym = 14     inv. 180 deg rotation - cart. axis [0,0,1]

[...]

      isym = 16     inv. 180 deg rotation - cart. axis [1,0,0]

[...]

      isym = 17     inv.  60 deg rotation - cryst. axis [0,0,1]

[...]

 cryst.   s(22) = (    -1         -1          0      )    f =( -0.0000000 )
                  (     0          1          0      )       ( -0.0000010 )
                  (     0          0          1      )       (  0.5000000 )

 cart.    s(22) = ( -0.5000000 -0.8660253  0.0000000 )    f =(  0.0000005 )
                  ( -0.8660254  0.5000000  0.0000000 )       ( -0.0000009 )
                  (  0.0000000  0.0000000  1.0000000 )       (  1.2039499 )

[...]

      isym = 24     inv. 180 deg rotation - cryst. axis [1,1,0]

 cryst.   s(24) = (     0         -1          0      )
                  (    -1          0          0      )
                  (     0          0          1      )

 cart.    s(24) = (  0.5000000 -0.8660254  0.0000000 )
                  ( -0.8660254 -0.5000000  0.0000000 )
                  (  0.0000000  0.0000000  1.0000000 )

   Cartesian axes

     site n.     atom                  positions (alat units)
         1           Sr  tau(   1) = (  -0.0000005   0.5773506   0.9624015  )
         2           Sr  tau(   2) = (   0.0000000   0.0000000   0.6019750  )
         3           Sr  tau(   3) = (   0.0000000   0.0000000   1.8059249  )
         4           Sr  tau(   4) = (   0.5000005   0.2886749   2.1663514  )
         5           Sr  tau(   5) = (   0.5000005   0.2886749   1.4454984  )
         6           Sr  tau(   6) = (  -0.0000005   0.5773506   0.2415485  )
         7           B   tau(   7) = (  -0.0000005   0.5773506   1.8059249  )
         8           B   tau(   8) = (   0.5000005   0.2886749   0.6019750  )
         9           P   tau(   9) = (   0.0000000   0.0000000   0.0000000  )
        10           P   tau(  10) = (   0.0000000   0.0000000   1.2039499  )
        11           O   tau(  11) = (   0.2734480   0.4194750   0.6019750  )
        12           O   tau(  12) = (   0.7265520   0.4194750   0.6019750  )
        13           O   tau(  13) = (   0.0000000   0.8389500   1.8059249  )
        14           O   tau(  14) = (   0.5000000   0.0270754   0.6019750  )
        15           O   tau(  15) = (  -0.2265520   0.4465504   1.8059249  )
        16           O   tau(  16) = (   0.2265520   0.4465504   1.8059249  )

   Crystallographic axes

     site n.     atom                  positions (cryst. coord.)
         1           Sr  tau(   1) = (  0.3333330  0.6666670  0.3996850  )
         2           Sr  tau(   2) = (  0.0000000  0.0000000  0.2500000  )
         3           Sr  tau(   3) = (  0.0000000  0.0000000  0.7500000  )
         4           Sr  tau(   4) = (  0.6666670  0.3333330  0.8996850  )
         5           Sr  tau(   5) = (  0.6666670  0.3333330  0.6003150  )
         6           Sr  tau(   6) = (  0.3333330  0.6666670  0.1003150  )
         7           B   tau(   7) = (  0.3333330  0.6666670  0.7500000  )
         8           B   tau(   8) = (  0.6666670  0.3333330  0.2500000  )
         9           P   tau(   9) = (  0.0000000  0.0000000  0.0000000  )
        10           P   tau(  10) = (  0.0000000  0.0000000  0.5000000  )
        11           O   tau(  11) = (  0.5156320  0.4843680  0.2500000  )
        12           O   tau(  12) = (  0.9687360  0.4843680  0.2500000  )
        13           O   tau(  13) = (  0.4843680  0.9687360  0.7500000  )
        14           O   tau(  14) = (  0.5156320  0.0312640  0.2500000  )
        15           O   tau(  15) = (  0.0312640  0.5156320  0.7500000  )
        16           O   tau(  16) = (  0.4843680  0.5156320  0.7500000  )

     number of k points=     1  Methfessel-Paxton smearing, width (Ry)=  0.0010
                       cart. coord. in units 2pi/alat
        k(    1) = (   0.0000000   0.0000000   0.0000000), wk =   2.0000000

                       cryst. coord.
        k(    1) = (   0.0000000   0.0000000   0.0000000), wk =   2.0000000

     Check: negative core charge=   -0.000008

     Initial potential from superposition of free atoms

     starting charge     111.7972, renormalised to     112.0000

     negative rho (up, down):  3.759E-01 0.000E+00
     Starting wfcs are  118 randomized atomic wfcs
     Checking if some PAW data can be deallocated...

     Self-consistent Calculation

     iteration #  1     ecut=    30.00 Ry     beta= 0.70
     Davidson diagonalization with overlap

     ethr =  1.00E-02,  avg # of iterations =  2.0

     negative rho (up, down):  3.827E-01 0.000E+00

     total energy              =    -711.20226103 Ry
     estimated scf accuracy    <       3.67203527 Ry

[...]

     total energy              =    -712.78754423 Ry
     estimated scf accuracy    <       0.00000159 Ry

     iteration # 10     ecut=    30.00 Ry     beta= 0.70
     Davidson diagonalization with overlap

     ethr =  1.42E-09,  avg # of iterations =  5.0

[...]

     End of self-consistent calculation

          k = 0.0000 0.0000 0.0000 (  2923 PWs)   bands (ev):

   -27.5765 -27.5596 -27.5532 -27.5355 -27.3412 -27.3394 -12.6670 -12.6653
   -11.2001 -11.1995 -11.1937 -11.1931  -9.6863  -9.6470  -9.6470  -9.6296
    -9.6296  -9.6204  -9.6037  -9.6037  -9.6010  -9.5422  -9.5422  -9.4861
    -9.4192  -9.3689  -9.2227  -9.2226  -9.1854  -9.1853  -0.8281  -0.7057
     0.1435   0.1582   1.8670   1.8671   1.8819   1.8821   2.2013   2.2763
     4.4517   4.4522   4.5462   4.5468   4.9929   4.9930   5.0447   5.0449
     5.6171   6.0316   6.0434   6.6392   6.6393   6.7188   6.7189   6.7483
     9.1485   9.5128   9.5128  10.1965  10.4733  10.4734  11.0170  11.2254
    11.2893  11.3688  11.3688

     occupation numbers
     1.0000   1.0000   1.0000   1.0000   1.0000   1.0000   1.0000   1.0000
     1.0000   1.0000   1.0000   1.0000   1.0000   1.0000   1.0000   1.0000
     1.0000   1.0000   1.0000   1.0000   1.0000   1.0000   1.0000   1.0000
     1.0000   1.0000   1.0000   1.0000   1.0000   1.0000   1.0000   1.0000
     1.0000   1.0000   1.0000   1.0000   1.0000   1.0000   1.0000   1.0000
     1.0000   1.0000   1.0000   1.0000   1.0000   1.0000   1.0000   1.0000
     1.0000   1.0000   1.0000   1.0000   1.0000   1.0000   1.0000   1.0000
    -0.0000  -0.0000  -0.0000  -0.0000  -0.0000  -0.0000  -0.0000  -0.0000
    -0.0000  -0.0000  -0.0000

     the Fermi energy is     9.0538 ev

!    total energy              =    -712.78754459 Ry
     estimated scf accuracy    <       0.00000064 Ry
     smearing contrib. (-TS)   =       0.00000000 Ry
     internal energy E=F+TS    =    -712.78754459 Ry

     The total energy is F=E-TS. E is the sum of the following terms:
     one-electron contribution =    -257.25055851 Ry
     hartree contribution      =     178.94362337 Ry
     xc contribution           =    -170.08127014 Ry
     ewald contribution        =    -407.38182581 Ry
     one-center paw contrib.   =     -57.01751350 Ry
      -> PAW hartree energy AE =     190.06390612 Ry
      -> PAW hartree energy PS =    -189.34272041 Ry
      -> PAW xc energy AE      =    -104.85130820 Ry
      -> PAW xc energy PS      =      47.11260898 Ry
      -> total E_H with PAW    =     179.66480909 Ry
      -> total E_XC with PAW   =    -227.81996936 Ry

     convergence has been achieved in  10 iterations

     negative rho (up, down):  3.944E-01 0.000E+00

     Forces acting on atoms (cartesian axes, Ry/au):

     atom    1 type  1   force =     0.00000000   -0.00000000    0.02509417
     atom    2 type  1   force =     0.00000000   -0.00000000    0.00000000
     atom    3 type  1   force =    -0.00000000   -0.00000000    0.00000000
     atom    4 type  1   force =     0.00000000    0.00000000    0.02509417
     atom    5 type  1   force =     0.00000000   -0.00000000   -0.02509417
     atom    6 type  1   force =     0.00000000   -0.00000000   -0.02509417
     atom    7 type  2   force =    -0.00000000   -0.00000000    0.00000000
     atom    8 type  2   force =     0.00000000    0.00000000    0.00000000
     atom    9 type  3   force =     0.00000000    0.00000000    0.00000000
     atom   10 type  3   force =     0.00000000    0.00000000    0.00000000
     atom   11 type  4   force =     0.03323622   -0.01918894   -0.00000000
     atom   12 type  4   force =    -0.03323622   -0.01918894   -0.00000000
     atom   13 type  4   force =    -0.00000000   -0.03837788   -0.00000000
     atom   14 type  4   force =     0.00000000    0.03837788    0.00000000
     atom   15 type  4   force =     0.03323622    0.01918894    0.00000000
     atom   16 type  4   force =    -0.03323622    0.01918894    0.00000000
     The non-local contrib.  to forces
     atom    1 type  1   force =    -0.00000000   -0.00000000    0.07765556
     atom    2 type  1   force =     0.00000000   -0.00000000    0.00000000
     atom    3 type  1   force =     0.00000000    0.00000000    0.00000000
     atom    4 type  1   force =     0.00000000   -0.00000000    0.07765556
     atom    5 type  1   force =     0.00000000    0.00000000   -0.07765556
     atom    6 type  1   force =    -0.00000000   -0.00000000   -0.07765556
     atom    7 type  2   force =     0.00000000   -0.00000000    0.00000000
     atom    8 type  2   force =     0.00000000    0.00000000    0.00000000
     atom    9 type  3   force =     0.00000000    0.00000000    0.00000000
     atom   10 type  3   force =     0.00000000    0.00000000    0.00000000
     atom   11 type  4   force =     0.93712821   -0.54105125    0.00000000
     atom   12 type  4   force =    -0.93712821   -0.54105117    0.00000000
     atom   13 type  4   force =    -0.00000000   -1.08210242    0.00000000
     atom   14 type  4   force =    -0.00000000    1.08210242   -0.00000000
     atom   15 type  4   force =     0.93712821    0.54105117    0.00000000
     atom   16 type  4   force =    -0.93712821    0.54105125   -0.00000000
     The ionic contribution  to forces
     atom    1 type  1   force =     0.00001487   -0.00000858   11.37803983
     atom    2 type  1   force =    -0.00000400    0.00000231   -0.00000000
     atom    3 type  1   force =     0.00000400   -0.00000231   -0.00000000
     atom    4 type  1   force =    -0.00001487    0.00000858   11.37803983
     atom    5 type  1   force =    -0.00001487    0.00000858  -11.37803983
     atom    6 type  1   force =     0.00001487   -0.00000858  -11.37803983
     atom    7 type  2   force =     0.00002614   -0.00001509   -0.00000000
     atom    8 type  2   force =    -0.00002614    0.00001509    0.00000000
     atom    9 type  3   force =     0.00000000    0.00000000   -0.00000000
     atom   10 type  3   force =     0.00000000    0.00000000    0.00000000
     atom   11 type  4   force =    -2.25684077    1.30298769   -0.00000000
     atom   12 type  4   force =     2.25685901    1.30300202   -0.00000000
     atom   13 type  4   force =     0.00000345    2.60599825   -0.00000000
     atom   14 type  4   force =    -0.00000345   -2.60599825   -0.00000000
     atom   15 type  4   force =    -2.25685901   -1.30300202   -0.00000000
     atom   16 type  4   force =     2.25684077   -1.30298769   -0.00000000
     The local contribution  to forces
     atom    1 type  1   force =     0.00001009   -0.00002445  -11.42744038
     atom    2 type  1   force =    -0.00001600    0.00003595   -0.00014778
     atom    3 type  1   force =     0.00000591   -0.00002125    0.00020503
     atom    4 type  1   force =    -0.00002416    0.00000559  -11.42584015
     atom    5 type  1   force =    -0.00004404   -0.00002046   11.42599837
     atom    6 type  1   force =     0.00001677    0.00000442   11.42719134
     atom    7 type  2   force =    -0.00002238    0.00007005    0.00007251
     atom    8 type  2   force =     0.00004657   -0.00009568   -0.00004826
     atom    9 type  3   force =    -0.00003253   -0.00001277    0.00065204
     atom   10 type  3   force =    -0.00000334    0.00003957   -0.00070749
     atom   11 type  4   force =     1.36075112   -0.78564136   -0.00006319
     atom   12 type  4   force =    -1.36077136   -0.78565616   -0.00007320
     atom   13 type  4   force =    -0.00000032   -1.57128209    0.00009946
     atom   14 type  4   force =     0.00001379    1.57121277   -0.00006296
     atom   15 type  4   force =     1.36081894    0.78567049    0.00011819
     atom   16 type  4   force =    -1.36080002    0.78566016    0.00011895
     The core correction contribution to forces
     atom    1 type  1   force =     0.00000097   -0.00000110   -0.00456219
     atom    2 type  1   force =     0.00000020    0.00000082   -0.00000086
     atom    3 type  1   force =     0.00000053   -0.00000071   -0.00000081
     atom    4 type  1   force =    -0.00000135    0.00000249   -0.00454424
     atom    5 type  1   force =    -0.00000208    0.00000146    0.00454499
     atom    6 type  1   force =     0.00000093   -0.00000147    0.00455934
     atom    7 type  2   force =    -0.00000046   -0.00000130    0.00000044
     atom    8 type  2   force =    -0.00000008    0.00000175   -0.00000031
     atom    9 type  3   force =    -0.00000085   -0.00000052    0.00000324
     atom   10 type  3   force =     0.00000001    0.00000080   -0.00000380
     atom   11 type  4   force =    -0.00785904    0.00453762    0.00000044
     atom   12 type  4   force =     0.00785868    0.00453769    0.00000042
     atom   13 type  4   force =     0.00000010    0.00907539   -0.00000058
     atom   14 type  4   force =    -0.00000009   -0.00907488    0.00000039
     atom   15 type  4   force =    -0.00785944   -0.00453798   -0.00000051
     atom   16 type  4   force =     0.00785943   -0.00453786   -0.00000038
     The Hubbard contrib.    to forces
     atom    1 type  1   force =     0.00000000    0.00000000    0.00000000
     atom    2 type  1   force =     0.00000000    0.00000000    0.00000000
     atom    3 type  1   force =     0.00000000    0.00000000    0.00000000
     atom    4 type  1   force =     0.00000000    0.00000000    0.00000000
     atom    5 type  1   force =     0.00000000    0.00000000    0.00000000
     atom    6 type  1   force =     0.00000000    0.00000000    0.00000000
     atom    7 type  2   force =     0.00000000    0.00000000    0.00000000
     atom    8 type  2   force =     0.00000000    0.00000000    0.00000000
     atom    9 type  3   force =     0.00000000    0.00000000    0.00000000
     atom   10 type  3   force =     0.00000000    0.00000000    0.00000000
     atom   11 type  4   force =     0.00000000    0.00000000    0.00000000
     atom   12 type  4   force =     0.00000000    0.00000000    0.00000000
     atom   13 type  4   force =     0.00000000    0.00000000    0.00000000
     atom   14 type  4   force =     0.00000000    0.00000000    0.00000000
     atom   15 type  4   force =     0.00000000    0.00000000    0.00000000
     atom   16 type  4   force =     0.00000000    0.00000000    0.00000000
     The SCF correction term to forces
     atom    1 type  1   force =    -0.00001782   -0.00000159    0.00131858
     atom    2 type  1   force =     0.00001658   -0.00002888    0.00015058
     atom    3 type  1   force =    -0.00000683    0.00001133   -0.00021054
     atom    4 type  1   force =     0.00001722    0.00000765   -0.00013789
     atom    5 type  1   force =     0.00004025    0.00002209   -0.00001162
     atom    6 type  1   force =    -0.00002099   -0.00001571   -0.00108379
     atom    7 type  2   force =    -0.00000724   -0.00008395   -0.00006701
     atom    8 type  2   force =    -0.00002783    0.00011311    0.00004403
     atom    9 type  3   force =     0.00002009    0.00000518   -0.00056439
     atom   10 type  3   force =     0.00000283   -0.00002501    0.00060530
     atom   11 type  4   force =     0.00008574   -0.00002850    0.00009217
     atom   12 type  4   force =    -0.00008992   -0.00001416    0.00010399
     atom   13 type  4   force =     0.00000157   -0.00003735   -0.00014716
     atom   14 type  4   force =    -0.00001625    0.00013424    0.00008911
     atom   15 type  4   force =    -0.00000135   -0.00001407   -0.00016068
     atom   16 type  4   force =    -0.00000715   -0.00000763   -0.00015893

     Total force =     0.106565     Total SCF correction =     0.001963

     Computing stress (Cartesian axis) and pressure

     negative rho (up, down):  3.944E-01 0.000E+00
          total   stress  (Ry/bohr**3)                   (kbar)     P=     -127.00
  -0.00068117   0.00000000   0.00000000         -100.20        0.00        0.00
   0.00000000  -0.00068117   0.00000000            0.00     -100.20        0.00
   0.00000000   0.00000000  -0.00122771            0.00        0.00     -180.60

     kinetic stress (kbar)  11552.06     -0.00      0.00
                               -0.00  11552.06      0.00
                                0.00      0.00  11461.59

     local   stress (kbar) -16970.09     -0.01      0.00
                               -0.01 -16970.14      0.00
                                0.00      0.00   5402.18

     nonloc. stress (kbar)   6181.94     -0.00      0.00
                               -0.00   6181.94      0.00
                                0.00      0.00   6167.93

     hartree stress (kbar)   7412.61      0.00     -0.00
                                0.00   7412.64     -0.00
                               -0.00     -0.00  -2321.14

     exc-cor stress (kbar)   1635.99      0.00     -0.00
                                0.00   1635.99     -0.00
                               -0.00     -0.00   1622.96

     corecor stress (kbar)  -4626.74      0.00      0.00
                                0.00  -4626.74      0.00
                                0.00      0.00  -4619.27

     ewald   stress (kbar)  -5285.96      0.01     -0.00
                                0.01  -5285.95      0.00
                               -0.00      0.00 -17894.84

     hubbard stress (kbar)      0.00      0.00      0.00
                                0.00      0.00      0.00
                                0.00      0.00      0.00

     DFT-D   stress (kbar)      0.00      0.00      0.00
                                0.00      0.00      0.00
                                0.00      0.00      0.00

     XDM     stress (kbar)      0.00      0.00      0.00
                                0.00      0.00      0.00
                                0.00      0.00      0.00

     dft-nl  stress (kbar)      0.00      0.00      0.00
                                0.00      0.00      0.00
                                0.00      0.00      0.00

     TS-vdW  stress (kbar)      0.00      0.00      0.00
                                0.00      0.00      0.00
                                0.00      0.00      0.00

[...]

                                0.00      0.00      0.00

     Writing all to output data dir new_calculations/myprefix.save/

     General routines

     Parallel routines

     PAW routines

   This run was terminated on:   3:31: 8  21May2023

   JOB DONE.