     Program PWSCF v.7.0 starts on 20May2023 at 10:15:15

     Reading input from espresso_4336.pwi
Warning: card &CELL ignored
Warning: card / ignored

     Current dimensions of program PWSCF are:
     Max number of different atomic species (ntypx) = 10
     Max number of k-points (npk) =  40000
     Max angular momentum in pseudopotentials (lmaxx) =  4
     file Pb.pbe-dn-kjpaw_psl.0.2.2.UPF: wavefunction(s)  6S renormalized

     gamma-point specific algorithms are used
     Message from routine setup:
     using ibrav=0 with symmetry is DISCOURAGED, use correct ibrav instead

     Subspace diagonalization in iterative solution of the eigenvalue problem:
     a serial algorithm will be used

     Using Slab Decomposition

     bravais-lattice index     =            0
     lattice parameter (alat)  =      11.3231  a.u.
     unit-cell volume          =    1008.2913 (a.u.)^3
     number of atoms/cell      =            8
     number of atomic types    =            2
     number of electrons       =       100.00
     number of Kohn-Sham states=           60
     kinetic-energy cutoff     =      30.0000  Ry
     charge density cutoff     =     240.0000  Ry
     scf convergence threshold =      1.0E-06
     mixing beta               =       0.7000
     number of iterations used =            8  plain     mixing
     Exchange-correlation= SLA  PW   PBX  PBC
                           (   1   4   3   4   0   0   0)

     celldm(1)=  11.323092  celldm(2)=   0.000000  celldm(3)=   0.000000
     celldm(4)=   0.000000  celldm(5)=   0.000000  celldm(6)=   0.000000

     crystal axes: (cart. coord. in units of alat)
               a(1) = (   1.000000   0.000000   0.000000 )
               a(2) = (  -0.500000   0.866025   0.000000 )
               a(3) = (   0.000000   0.000000   0.801974 )

     reciprocal axes: (cart. coord. in units 2 pi/alat)
               b(1) = (  1.000000  0.577350  0.000000 )
               b(2) = (  0.000000  1.154701  0.000000 )
               b(3) = (  0.000000  0.000000  1.246923 )

     PseudoPot. # 1 for Ti read from file:
     /home/pragov/projects/rrg-bengioy-ad/pragov/crystal_structure_design/SSSP/ti_pbe_v1.4.uspp.F.UPF
     MD5 check sum: 88a00a6731bd790ddea75d31a80cb452
     Pseudo is Ultrasoft + core correction, Zval = 12.0
     Generated by new atomic code, or converted to UPF format
     Using radial grid of  851 points,  6 beta functions with:
                l(1) =   0
                l(2) =   0
                l(3) =   1
                l(4) =   1
                l(5) =   2
                l(6) =   2
     Q(r) pseudized with  6 coefficients,  rinner =    1.000   1.000   1.000
                                                       1.000   1.000

     PseudoPot. # 2 for Pb read from file:
     /home/pragov/projects/rrg-bengioy-ad/pragov/crystal_structure_design/SSSP/Pb.pbe-dn-kjpaw_psl.0.2.2.UPF
     MD5 check sum: 9d431e6316058b74ade52399a6cf67da
     Pseudo is Projector augmented-wave + core cor, Zval = 14.0
     Generated using "atomic" code by A. Dal Corso  v.5.0.99 svn rev. 10869
     Shape of augmentation charge: PSQ
     Using radial grid of 1281 points,  6 beta functions with:
                l(1) =   0
                l(2) =   0
                l(3) =   1
                l(4) =   1
                l(5) =   2
                l(6) =   2
     Q(r) pseudized with 0 coefficients

     atomic species   valence    mass     pseudopotential
        Ti            12.00    47.86700     Ti( 1.00)
        Pb            14.00   207.20000     Pb( 1.00)

     24 Sym. Ops., with inversion, found (12 have fractional translation)

                                    s                        frac. trans.

      isym =  1     identity

 cryst.   s( 1) = (     1          0          0      )
                  (     0          1          0      )
                  (     0          0          1      )

 cart.    s( 1) = (  1.0000000  0.0000000  0.0000000 )
                  (  0.0000000  1.0000000  0.0000000 )
                  (  0.0000000  0.0000000  1.0000000 )

      isym =  2     180 deg rotation - cart. axis [0,0,1]

 cryst.   s( 2) = (    -1          0          0      )    f =(  0.0000000 )
                  (     0         -1          0      )       (  0.0000000 )
                  (     0          0          1      )       ( -0.5000000 )

 cart.    s( 2) = ( -1.0000000 -0.0000000  0.0000000 )    f =(  0.0000000 )
                  (  0.0000000 -1.0000000  0.0000000 )       (  0.0000000 )
                  (  0.0000000  0.0000000  1.0000000 )       ( -0.4009870 )

[...]

      isym =  4     180 deg rotation - cart. axis [1,0,0]

[...]

      isym =  5      60 deg rotation - cryst. axis [0,0,1]

[...]

 cryst.   s( 8) = (    -1         -1          0      )
                  (     1          0          0      )
                  (     0          0          1      )

 cart.    s( 8) = ( -0.5000000  0.8660254  0.0000000 )
                  ( -0.8660254 -0.5000000  0.0000000 )
                  (  0.0000000  0.0000000  1.0000000 )

[...]

 cryst.   s( 9) = (     0         -1          0      )    f =(  0.0000000 )
                  (    -1          0          0      )       (  0.0000000 )
                  (     0          0         -1      )       (  0.5000000 )

 cart.    s( 9) = (  0.5000000 -0.8660254  0.0000000 )    f =(  0.0000000 )
                  ( -0.8660254 -0.5000000  0.0000000 )       (  0.0000000 )
                  (  0.0000000  0.0000000 -1.0000000 )       (  0.4009870 )

[...]

 cryst.   s(10) = (     1          1          0      )    f =(  0.0000000 )
                  (     0         -1          0      )       ( -0.0000010 )
                  (     0          0         -1      )       (  0.5000000 )

 cart.    s(10) = (  0.5000000  0.8660255  0.0000000 )    f =(  0.0000005 )
                  (  0.8660254 -0.5000000  0.0000000 )       ( -0.0000009 )
                  (  0.0000000  0.0000000 -1.0000000 )       (  0.4009870 )

[...]

 cryst.   s(11) = (    -1         -1          0      )
                  (     0          1          0      )
                  (     0          0         -1      )

 cart.    s(11) = ( -0.5000000 -0.8660255  0.0000000 )
                  ( -0.8660254  0.5000000  0.0000000 )
                  (  0.0000000  0.0000000 -1.0000000 )

      isym = 12     180 deg rotation - cryst. axis [1,1,0]

[...]

      isym = 13     inversion

[...]

      isym = 14     inv. 180 deg rotation - cart. axis [0,0,1]

[...]

      isym = 16     inv. 180 deg rotation - cart. axis [1,0,0]

[...]

      isym = 17     inv.  60 deg rotation - cryst. axis [0,0,1]

[...]

 cryst.   s(22) = (    -1         -1          0      )    f =(  0.0000000 )
                  (     0          1          0      )       ( -0.0000010 )
                  (     0          0          1      )       ( -0.5000000 )

 cart.    s(22) = ( -0.5000000 -0.8660255  0.0000000 )    f =(  0.0000005 )
                  ( -0.8660254  0.5000000  0.0000000 )       ( -0.0000009 )
                  (  0.0000000  0.0000000  1.0000000 )       ( -0.4009870 )

[...]

      isym = 24     inv. 180 deg rotation - cryst. axis [1,1,0]

 cryst.   s(24) = (     0         -1          0      )
                  (    -1          0          0      )
                  (     0          0          1      )

 cart.    s(24) = (  0.5000000 -0.8660254  0.0000000 )
                  ( -0.8660254 -0.5000000  0.0000000 )
                  (  0.0000000  0.0000000  1.0000000 )

   Cartesian axes

     site n.     atom                  positions (alat units)
         1           Ti  tau(   1) = (  -0.0000005   0.2779413   0.2004935  )
         2           Ti  tau(   2) = (   0.2592955   0.7270552   0.2004935  )
         3           Ti  tau(   3) = (  -0.2592965   0.7270552   0.2004935  )
         4           Ti  tau(   4) = (   0.5000005   0.5880841   0.6014805  )
         5           Ti  tau(   5) = (   0.2407045   0.1389702   0.6014805  )
         6           Ti  tau(   6) = (   0.7592965   0.1389702   0.6014805  )
         7           Pb  tau(   7) = (  -0.0000005   0.5773505   0.6014805  )
         8           Pb  tau(   8) = (   0.5000005   0.2886748   0.2004935  )

   Crystallographic axes

     site n.     atom                  positions (cryst. coord.)
         1           Ti  tau(   1) = (  0.1604690  0.3209390  0.2500000  )
         2           Ti  tau(   2) = (  0.6790610  0.8395310  0.2500000  )
         3           Ti  tau(   3) = (  0.1604690  0.8395310  0.2500000  )
         4           Ti  tau(   4) = (  0.8395310  0.6790610  0.7500000  )
         5           Ti  tau(   5) = (  0.3209390  0.1604690  0.7500000  )
         6           Ti  tau(   6) = (  0.8395310  0.1604690  0.7500000  )
         7           Pb  tau(   7) = (  0.3333330  0.6666670  0.7500000  )
         8           Pb  tau(   8) = (  0.6666670  0.3333330  0.2500000  )

     number of k points=     1  Methfessel-Paxton smearing, width (Ry)=  0.0010
                       cart. coord. in units 2pi/alat
        k(    1) = (   0.0000000   0.0000000   0.0000000), wk =   2.0000000

                       cryst. coord.
        k(    1) = (   0.0000000   0.0000000   0.0000000), wk =   2.0000000

     Check: negative core charge=   -0.000007

     Initial potential from superposition of free atoms

     starting charge      93.9950, renormalised to     100.0000

     negative rho (up, down):  1.226E-02 0.000E+00
     Starting wfcs are   78 randomized atomic wfcs
     Checking if some PAW data can be deallocated...

     Self-consistent Calculation

     iteration #  1     ecut=    30.00 Ry     beta= 0.70
     Davidson diagonalization with overlap

     ethr =  1.00E-02,  avg # of iterations =  3.0

     negative rho (up, down):  1.111E-02 0.000E+00

     total energy              =   -2455.23971183 Ry
     estimated scf accuracy    <       3.50228884 Ry

[...]

     total energy              =   -2456.62824486 Ry
     estimated scf accuracy    <       0.00000142 Ry

     iteration # 25     ecut=    30.00 Ry     beta= 0.70
     Davidson diagonalization with overlap

     ethr =  1.42E-09,  avg # of iterations =  3.0

[...]

     End of self-consistent calculation

          k = 0.0000 0.0000 0.0000 (  1400 PWs)   bands (ev):

   -42.9159 -42.8509 -42.8504 -42.8409 -42.8141 -42.8136 -19.3910 -19.3907
   -19.3354 -19.3352 -19.3183 -19.2671 -19.2182 -19.2124 -19.1307 -19.0567
   -19.0562 -18.9323 -18.9320 -18.9116 -18.9112 -18.8509 -18.8505 -18.7844
    -2.4035  -2.4035  -2.3863  -2.3863  -2.2344  -2.2343  -2.2250  -2.1972
    -2.1755  -2.1755   3.8436   5.5849  11.1250  11.1250  11.3963  11.6281
    11.6282  11.6510  12.4293  12.9337  12.9337  13.2659  13.2935  13.3827
    13.3829  13.5859  14.4051  14.4495  14.4496  14.5774  14.5774  15.6878
    15.6882  15.8553  15.8556  15.9592

     occupation numbers
     1.0000   1.0000   1.0000   1.0000   1.0000   1.0000   1.0000   1.0000
     1.0000   1.0000   1.0000   1.0000   1.0000   1.0000   1.0000   1.0000
     1.0000   1.0000   1.0000   1.0000   1.0000   1.0000   1.0000   1.0000
     1.0000   1.0000   1.0000   1.0000   1.0000   1.0000   1.0000   1.0000
     1.0000   1.0000   1.0000   1.0000   1.0000   1.0000   1.0000   1.0000
     1.0000   1.0000   1.0000   1.0000   1.0000   1.0000   1.0000   1.0000
     1.0000   1.0000  -0.0000  -0.0000  -0.0000  -0.0000  -0.0000  -0.0000
    -0.0000  -0.0000  -0.0000  -0.0000

     the Fermi energy is    14.2469 ev

!    total energy              =   -2456.62824454 Ry
     estimated scf accuracy    <       0.00000044 Ry
     smearing contrib. (-TS)   =       0.00000000 Ry
     internal energy E=F+TS    =   -2456.62824454 Ry

     The total energy is F=E-TS. E is the sum of the following terms:
     one-electron contribution =    -269.36579719 Ry
     hartree contribution      =     188.47870904 Ry
     xc contribution           =    -197.36414430 Ry
     ewald contribution        =    -721.35538454 Ry
     one-center paw contrib.   =   -1457.02162756 Ry
      -> PAW hartree energy AE =     210.14793335 Ry
      -> PAW hartree energy PS =    -209.79840168 Ry
      -> PAW xc energy AE      =   -1545.81605309 Ry
      -> PAW xc energy PS      =      88.44489386 Ry
      -> total E_H with PAW    =     188.82824071 Ry
      -> total E_XC with PAW   =   -1654.73530352 Ry

     convergence has been achieved in  25 iterations

     negative rho (up, down):  6.838E-03 0.000E+00

     Forces acting on atoms (cartesian axes, Ry/au):

     atom    1 type  1   force =    -0.00000000    0.04300330    0.00000000
     atom    2 type  1   force =    -0.03724195   -0.02150165   -0.00000000
     atom    3 type  1   force =     0.03724195   -0.02150165    0.00000000
     atom    4 type  1   force =     0.00000000   -0.04300330   -0.00000000
     atom    5 type  1   force =     0.03724195    0.02150165    0.00000000
     atom    6 type  1   force =    -0.03724195    0.02150165   -0.00000000
     atom    7 type  2   force =     0.00000000    0.00000000    0.00000000
     atom    8 type  2   force =     0.00000000    0.00000000    0.00000000
     The non-local contrib.  to forces
     atom    1 type  1   force =    -0.00000000    0.16508878    0.00000000
     atom    2 type  1   force =    -0.14297107   -0.08254440    0.00000000
     atom    3 type  1   force =     0.14297107   -0.08254438    0.00000000
     atom    4 type  1   force =     0.00000000   -0.16508878   -0.00000000
     atom    5 type  1   force =     0.14297107    0.08254440   -0.00000000
     atom    6 type  1   force =    -0.14297107    0.08254438   -0.00000000
     atom    7 type  2   force =     0.00000000   -0.00000000    0.00000000
     atom    8 type  2   force =    -0.00000000    0.00000000    0.00000000
     The ionic contribution  to forces
     atom    1 type  1   force =     0.00011124    1.92796297    0.00000000
     atom    2 type  1   force =    -1.66960924   -0.96407791    0.00000000
     atom    3 type  1   force =     1.66962225   -0.96395680    0.00000000
     atom    4 type  1   force =    -0.00011124   -1.92796297    0.00000000
     atom    5 type  1   force =     1.66960924    0.96407791   -0.00000000
     atom    6 type  1   force =    -1.66962225    0.96395680   -0.00000000
     atom    7 type  2   force =     0.00012239   -0.00007066    0.00000000
     atom    8 type  2   force =    -0.00012239    0.00007066    0.00000000
     The local contribution  to forces
     atom    1 type  1   force =    -0.00038994   -2.04828523   -0.00002216
     atom    2 type  1   force =     1.77356859    1.02460085   -0.00001520
     atom    3 type  1   force =    -1.77346659    1.02412075   -0.00001230
     atom    4 type  1   force =     0.00046921    2.04819762    0.00001083
     atom    5 type  1   force =    -1.77370461   -1.02436143    0.00001650
     atom    6 type  1   force =     1.77365398   -1.02377310    0.00000770
     atom    7 type  2   force =    -0.00053809    0.00005241    0.00001132
     atom    8 type  2   force =     0.00044178   -0.00049096   -0.00000504
     The core correction contribution to forces
     atom    1 type  1   force =    -0.00000331   -0.00173428   -0.00000009
     atom    2 type  1   force =     0.00150122    0.00086897   -0.00000055
     atom    3 type  1   force =    -0.00150130    0.00086743    0.00000013
     atom    4 type  1   force =     0.00000229    0.00173231   -0.00000032
     atom    5 type  1   force =    -0.00149945   -0.00086963    0.00000037
     atom    6 type  1   force =     0.00150224   -0.00086691   -0.00000010
     atom    7 type  2   force =    -0.00000055   -0.00000096    0.00000022
     atom    8 type  2   force =     0.00000059    0.00000032    0.00000100
     The Hubbard contrib.    to forces
     atom    1 type  1   force =     0.00000000    0.00000000    0.00000000
     atom    2 type  1   force =     0.00000000    0.00000000    0.00000000
     atom    3 type  1   force =     0.00000000    0.00000000    0.00000000
     atom    4 type  1   force =     0.00000000    0.00000000    0.00000000
     atom    5 type  1   force =     0.00000000    0.00000000    0.00000000
     atom    6 type  1   force =     0.00000000    0.00000000    0.00000000
     atom    7 type  2   force =     0.00000000    0.00000000    0.00000000
     atom    8 type  2   force =     0.00000000    0.00000000    0.00000000
     The SCF correction term to forces
     atom    1 type  1   force =     0.00024673   -0.00005595    0.00002314
     atom    2 type  1   force =     0.00025320   -0.00029552    0.00001279
     atom    3 type  1   force =    -0.00035783    0.00002653    0.00001277
     atom    4 type  1   force =    -0.00032692    0.00012270   -0.00001051
     atom    5 type  1   force =    -0.00011076    0.00008422   -0.00001827
     atom    6 type  1   force =     0.00017787   -0.00034390   -0.00000987
     atom    7 type  2   force =     0.00042365    0.00003304   -0.00001929
     atom    8 type  2   force =    -0.00032746    0.00040120    0.00001308

     Total force =     0.105336     Total SCF correction =     0.001042

     Computing stress (Cartesian axis) and pressure

     negative rho (up, down):  6.838E-03 0.000E+00
          total   stress  (Ry/bohr**3)                   (kbar)     P=       -3.10
   0.00000883   0.00000000   0.00000000            1.30        0.00        0.00
   0.00000000   0.00000883   0.00000000            0.00        1.30        0.00
   0.00000000  -0.00000000  -0.00008088            0.00       -0.00      -11.90

     kinetic stress (kbar)  20779.23      0.00      0.00
                                0.00  20779.23     -0.00
                                0.00     -0.00  21243.84

     local   stress (kbar)   6924.07      0.05      0.01
                                0.05   6923.97      0.00
                                0.01      0.00   4870.58

     nonloc. stress (kbar)   5792.78      0.00      0.00
                                0.00   5792.78     -0.00
                                0.00     -0.00   5920.04

     hartree stress (kbar)   8884.38     -0.04     -0.00
                               -0.04   8884.39     -0.00
                               -0.00     -0.00   9729.40

     exc-cor stress (kbar)   4464.71     -0.00     -0.00
                               -0.00   4464.71      0.00
                               -0.00      0.00   4475.26

     corecor stress (kbar) -11563.03      0.00      0.00
                                0.00 -11563.03      0.00
                                0.00      0.00 -11570.19

     ewald   stress (kbar) -35280.80      0.00      0.00
                                0.00 -35280.80     -0.00
                                0.00     -0.00 -34680.84

     hubbard stress (kbar)      0.00      0.00      0.00
                                0.00      0.00      0.00
                                0.00      0.00      0.00

     DFT-D   stress (kbar)      0.00      0.00      0.00
                                0.00      0.00      0.00
                                0.00      0.00      0.00

     XDM     stress (kbar)      0.00      0.00      0.00
                                0.00      0.00      0.00
                                0.00      0.00      0.00

     dft-nl  stress (kbar)      0.00      0.00      0.00
                                0.00      0.00      0.00
                                0.00      0.00      0.00

     TS-vdW  stress (kbar)      0.00      0.00      0.00
                                0.00      0.00      0.00
                                0.00      0.00      0.00

[...]

                                0.00      0.00      0.00

     Writing all to output data dir new_calculations/myprefix.save/

     General routines

     Parallel routines

     PAW routines

   This run was terminated on:  10:15:38  20May2023

   JOB DONE.