     Program PWSCF v.7.0 starts on 20May2023 at  5:18:48

     Reading input from espresso_3163.pwi
Warning: card &CELL ignored
Warning: card / ignored

     Current dimensions of program PWSCF are:
     Max number of different atomic species (ntypx) = 10
     Max number of k-points (npk) =  40000
     Max angular momentum in pseudopotentials (lmaxx) =  4
     file O.pbe-n-kjpaw_psl.0.1.UPF: wavefunction(s)  2P renormalized

     gamma-point specific algorithms are used
     Message from routine setup:
     using ibrav=0 with symmetry is DISCOURAGED, use correct ibrav instead

     Subspace diagonalization in iterative solution of the eigenvalue problem:
     a serial algorithm will be used

     Using Slab Decomposition

     bravais-lattice index     =            0
     lattice parameter (alat)  =      11.1218  a.u.
     unit-cell volume          =    1906.9756 (a.u.)^3
     number of atoms/cell      =           20
     number of atomic types    =            4
     number of electrons       =       166.00
     number of Kohn-Sham states=          100
     kinetic-energy cutoff     =      30.0000  Ry
     charge density cutoff     =     240.0000  Ry
     scf convergence threshold =      1.0E-06
     mixing beta               =       0.7000
     number of iterations used =            8  plain     mixing
     Exchange-correlation= SLA  PW   PBX  PBC
                           (   1   4   3   4   0   0   0)

     celldm(1)=  11.121783  celldm(2)=   0.000000  celldm(3)=   0.000000
     celldm(4)=   0.000000  celldm(5)=   0.000000  celldm(6)=   0.000000

     crystal axes: (cart. coord. in units of alat)
               a(1) = (   1.000000   0.000000   0.000000 )
               a(2) = (   0.000000   0.988321   0.000000 )
               a(3) = (   0.000000   0.978636   1.402568 )

     reciprocal axes: (cart. coord. in units 2 pi/alat)
               b(1) = (  1.000000  0.000000  0.000000 )
               b(2) = (  0.000000  1.011817 -0.705991 )
               b(3) = (  0.000000  0.000000  0.712978 )

     PseudoPot. # 1 for Sr read from file:
     /home/pragov/projects/rrg-bengioy-ad/pragov/crystal_structure_design/SSSP/Sr_pbe_v1.uspp.F.UPF
     MD5 check sum: 6b418c05fbe9db5448babca5e47b7a5b
     Pseudo is Ultrasoft + core correction, Zval = 10.0
     Generated by new atomic code, or converted to UPF format
     Using radial grid of  883 points,  6 beta functions with:
                l(1) =   0
                l(2) =   0
                l(3) =   1
                l(4) =   1
                l(5) =   2
                l(6) =   2
     Q(r) pseudized with  6 coefficients,  rinner =    1.400   1.400   1.400
                                                       1.400   1.400

     PseudoPot. # 2 for Y  read from file:
     /home/pragov/projects/rrg-bengioy-ad/pragov/crystal_structure_design/SSSP/Y_pbe_v1.uspp.F.UPF
     MD5 check sum: 2cf71db95cafeb975fc457bd7f14888e
     Pseudo is Ultrasoft + core correction, Zval = 11.0
     Generated by new atomic code, or converted to UPF format
     Using radial grid of  885 points,  6 beta functions with:
                l(1) =   0
                l(2) =   0
                l(3) =   1
                l(4) =   1
                l(5) =   2
                l(6) =   2
     Q(r) pseudized with  6 coefficients,  rinner =    1.200   1.200   1.200
                                                       1.200   1.200

     PseudoPot. # 3 for Ru read from file:
     /home/pragov/projects/rrg-bengioy-ad/pragov/crystal_structure_design/SSSP/Ru_ONCV_PBE-1.0.oncvpsp.upf
     MD5 check sum: be037bb81c227cfb9b1461a9f099f4bd
     Pseudo is Norm-conserving, Zval = 16.0
     Generated using ONCVPSP code by D. R. Hamann
     Using radial grid of 1458 points,  6 beta functions with:
                l(1) =   0
                l(2) =   0
                l(3) =   1
                l(4) =   1
                l(5) =   2
                l(6) =   2

     PseudoPot. # 4 for O  read from file:
     /home/pragov/projects/rrg-bengioy-ad/pragov/crystal_structure_design/SSSP/O.pbe-n-kjpaw_psl.0.1.UPF
     MD5 check sum: 0234752ac141de4415c5fc33072bef88
     Pseudo is Projector augmented-wave + core cor, Zval =  6.0
     Generated using "atomic" code by A. Dal Corso  v.5.0.99 svn rev. 10869
     Shape of augmentation charge: BESSEL
     Using radial grid of 1095 points,  4 beta functions with:
                l(1) =   0
                l(2) =   0
                l(3) =   1
                l(4) =   1
     Q(r) pseudized with 0 coefficients

     atomic species   valence    mass     pseudopotential
        Sr            10.00    87.62000     Sr( 1.00)
        Y             11.00    88.90584     Y ( 1.00)
        Ru            16.00   101.07000     Ru( 1.00)
        O              6.00    15.99900     O ( 1.00)

      4 Sym. Ops., with inversion, found ( 2 have fractional translation)

                                    s                        frac. trans.

      isym =  1     identity

 cryst.   s( 1) = (     1          0          0      )
                  (     0          1          0      )
                  (     0          0          1      )

 cart.    s( 1) = (  1.0000000  0.0000000  0.0000000 )
                  (  0.0000000  1.0000000 -0.0000000 )
                  (  0.0000000  0.0000000  1.0000000 )

      isym =  2     180 deg rotation - cart. axis [1,0,0]

 cryst.   s( 2) = (     1          0          0      )    f =( -0.5000000 )
                  (     0         -1          0      )       ( -0.0000000 )
                  (     0          0         -1      )       (  0.5000000 )

 cart.    s( 2) = (  1.0000000  0.0000000  0.0000000 )    f =( -0.5000000 )
                  (  0.0000000 -1.0000000  0.0000000 )       (  0.4893180 )
                  (  0.0000000  0.0000000 -1.0000000 )       (  0.7012840 )

      isym =  3     inversion

 cryst.   s( 3) = (    -1          0          0      )
                  (     0         -1          0      )
                  (     0          0         -1      )

 cart.    s( 3) = ( -1.0000000  0.0000000  0.0000000 )
                  (  0.0000000 -1.0000000  0.0000000 )
                  (  0.0000000  0.0000000 -1.0000000 )

      isym =  4     inv. 180 deg rotation - cart. axis [1,0,0]

 cryst.   s( 4) = (    -1          0          0      )    f =(  0.5000000 )
                  (     0          1          0      )       (  0.0000000 )
                  (     0          0          1      )       (  0.5000000 )

 cart.    s( 4) = ( -1.0000000  0.0000000  0.0000000 )    f =(  0.5000000 )
                  (  0.0000000  1.0000000 -0.0000000 )       (  0.4893180 )
                  (  0.0000000  0.0000000  1.0000000 )       (  0.7012840 )

   Cartesian axes

     site n.     atom                  positions (alat units)
         1           Sr  tau(   1) = (   0.5374070   1.4665677   1.0526833  )
         2           Sr  tau(   2) = (   0.0374070   0.9897074   1.0511686  )
         3           Sr  tau(   3) = (   0.9625930   0.9772496   0.3513994  )
         4           Sr  tau(   4) = (   0.4625930   0.5003893   0.3498846  )
         5           Y   tau(   5) = (   0.0000000   0.4893180   0.7012840  )
         6           Y   tau(   6) = (   0.5000000   0.0000000   0.0000000  )
         7           Ru  tau(   7) = (   0.0000000   0.4941605   0.0000000  )
         8           Ru  tau(   8) = (   0.5000000   0.9834785   0.7012840  )
         9           O   tau(   9) = (   0.5206920   1.0611911   0.3735235  )
        10           O   tau(  10) = (   0.0206920   0.4164478   0.3277605  )
        11           O   tau(  11) = (   0.4793080   0.9057659   1.0290445  )
        12           O   tau(  12) = (   0.9793080   1.5505092   1.0748075  )
        13           O   tau(  13) = (   0.7720100   1.1762913   0.7600754  )
        14           O   tau(  14) = (   0.2720100   1.2799838   1.3437765  )
        15           O   tau(  15) = (   0.2279900   0.7906657   0.6424925  )
        16           O   tau(  16) = (   0.7279900   0.6869732   0.0587914  )
        17           O   tau(  17) = (   0.1985190   0.7614215   0.0550704  )
        18           O   tau(  18) = (   0.6985190   0.7162175   0.6462135  )
        19           O   tau(  19) = (   0.8014810   1.2055356   1.3474975  )
        20           O   tau(  20) = (   0.3014810   1.2507395   0.7563544  )

   Crystallographic axes

     site n.     atom                  positions (cryst. coord.)
         1           Sr  tau(   1) = (  0.5374070  0.7407130  0.7505400  )
         2           Sr  tau(   2) = (  0.0374070  0.2592870  0.7494600  )
         3           Sr  tau(   3) = (  0.9625930  0.7407130  0.2505400  )
         4           Sr  tau(   4) = (  0.4625930  0.2592870  0.2494600  )
         5           Y   tau(   5) = (  0.0000000 -0.0000000  0.5000000  )
         6           Y   tau(   6) = (  0.5000000  0.0000000  0.0000000  )
         7           Ru  tau(   7) = (  0.0000000  0.5000000  0.0000000  )
         8           Ru  tau(   8) = (  0.5000000  0.5000000  0.5000000  )
         9           O   tau(   9) = (  0.5206920  0.8100270  0.2663140  )
        10           O   tau(  10) = (  0.0206920  0.1899730  0.2336860  )
        11           O   tau(  11) = (  0.4793080  0.1899730  0.7336860  )
        12           O   tau(  12) = (  0.9793080  0.8100270  0.7663140  )
        13           O   tau(  13) = (  0.7720100  0.6535850  0.5419170  )
        14           O   tau(  14) = (  0.2720100  0.3464150  0.9580830  )
        15           O   tau(  15) = (  0.2279900  0.3464150  0.4580830  )
        16           O   tau(  16) = (  0.7279900  0.6535850  0.0419170  )
        17           O   tau(  17) = (  0.1985190  0.7315400  0.0392640  )
        18           O   tau(  18) = (  0.6985190  0.2684600  0.4607360  )
        19           O   tau(  19) = (  0.8014810  0.2684600  0.9607360  )
        20           O   tau(  20) = (  0.3014810  0.7315400  0.5392640  )

     number of k points=     1  Methfessel-Paxton smearing, width (Ry)=  0.0010
                       cart. coord. in units 2pi/alat
        k(    1) = (   0.0000000   0.0000000   0.0000000), wk =   2.0000000

                       cryst. coord.
        k(    1) = (   0.0000000   0.0000000   0.0000000), wk =   2.0000000

     Check: negative core charge=   -0.000013

     Initial potential from superposition of free atoms

     starting charge     165.8553, renormalised to     166.0000

     negative rho (up, down):  3.383E-01 0.000E+00
     Starting wfcs are  146 randomized atomic wfcs
     Checking if some PAW data can be deallocated...

     Self-consistent Calculation

     iteration #  1     ecut=    30.00 Ry     beta= 0.70
     Davidson diagonalization with overlap

     ethr =  1.00E-02,  avg # of iterations =  2.0

     negative rho (up, down):  3.456E-01 0.000E+00

     total energy              =   -1329.51308547 Ry
     estimated scf accuracy    <       6.91762172 Ry

[...]

     total energy              =   -1333.45604299 Ry
     estimated scf accuracy    <       0.00000320 Ry

     iteration # 20     ecut=    30.00 Ry     beta= 0.70
     Davidson diagonalization with overlap

[...]

[...]

     End of self-consistent calculation

          k = 0.0000 0.0000 0.0000 (  2666 PWs)   bands (ev):

   -64.3000 -64.3000 -34.2490 -34.2487 -34.1825 -34.1823 -34.1508 -34.1504
   -30.8645 -30.8641 -23.6914 -23.6819 -23.6698 -23.6611 -11.3797 -11.3619
   -11.3563 -11.3412 -11.3084 -11.3050  -8.1764  -7.9423  -7.7240  -7.6720
    -7.4345  -7.4114  -7.2053  -7.1129  -6.8122  -6.7636  -6.6753  -6.5956
    -5.7548  -5.7377  -5.7239  -5.7053  -5.6817  -5.5448  -5.5365  -5.5098
    -5.4820  -5.2441  -5.2112  -5.0771   4.2154   4.3055   4.3852   4.3887
     4.7067   5.0290   5.0371   5.1225   5.1717   5.2533   5.4551   5.5098
     6.6062   6.7524   6.8475   6.8801   6.8947   6.9505   7.4446   7.5406
     7.5935   7.6258   7.6997   7.8755   8.0444   8.0456   8.1448   8.3718
     8.3901   8.4326   8.4476   8.4946   8.5091   8.5641   8.5762   8.7227
     9.4132   9.5816   9.6673   9.6801  10.2420  10.3786  12.7101  12.8085
    12.8177  13.0632  14.0756  14.8333  14.8892  15.0409  15.2173  15.3501
    15.3612  15.5595  15.6243  15.6962

     occupation numbers
     1.0000   1.0000   1.0000   1.0000   1.0000   1.0000   1.0000   1.0000
     1.0000   1.0000   1.0000   1.0000   1.0000   1.0000   1.0000   1.0000
     1.0000   1.0000   1.0000   1.0000   1.0000   1.0000   1.0000   1.0000
     1.0000   1.0000   1.0000   1.0000   1.0000   1.0000   1.0000   1.0000
     1.0000   1.0000   1.0000   1.0000   1.0000   1.0000   1.0000   1.0000
     1.0000   1.0000   1.0000   1.0000   1.0000   1.0000   1.0000   1.0000
     1.0000   1.0000   1.0000   1.0000   1.0000   1.0000   1.0000   1.0000
     1.0000   1.0000   1.0000   1.0000   1.0000   1.0000   1.0000   1.0000
     1.0000   1.0000   1.0000   1.0000   1.0000   1.0000   1.0000   1.0000
     1.0000   1.0000   1.0000   1.0000   1.0000   1.0000   1.0000   1.0000
     1.0000   1.0000   0.8531   0.1469  -0.0000  -0.0000  -0.0000  -0.0000
    -0.0000  -0.0000  -0.0000  -0.0000  -0.0000  -0.0000  -0.0000  -0.0000
    -0.0000  -0.0000  -0.0000  -0.0000

     the Fermi energy is     9.6737 ev

!    total energy              =   -1333.45604296 Ry
     estimated scf accuracy    <       0.00000017 Ry
     smearing contrib. (-TS)   =      -0.00025272 Ry
     internal energy E=F+TS    =   -1333.45579024 Ry

     The total energy is F=E-TS. E is the sum of the following terms:
     one-electron contribution =    -377.04622031 Ry
     hartree contribution      =     277.40825784 Ry
     xc contribution           =    -246.17068710 Ry
     ewald contribution        =    -873.40978582 Ry
     one-center paw contrib.   =    -114.23735485 Ry
      -> PAW hartree energy AE =     351.23247362 Ry
      -> PAW hartree energy PS =    -349.96065672 Ry
      -> PAW xc energy AE      =    -205.35739508 Ry
      -> PAW xc energy PS      =      89.84822333 Ry
      -> total E_H with PAW    =     278.68007474 Ry
      -> total E_XC with PAW   =    -361.67985885 Ry

     convergence has been achieved in  20 iterations

     negative rho (up, down):  3.565E-01 0.000E+00

     Forces acting on atoms (cartesian axes, Ry/au):

     atom    1 type  1   force =     0.00995224   -0.01527513    0.00146459
     atom    2 type  1   force =     0.00995224    0.01527513   -0.00146459
     atom    3 type  1   force =    -0.00995224   -0.01527513    0.00146459
     atom    4 type  1   force =    -0.00995224    0.01527513   -0.00146459
     atom    5 type  2   force =     0.00000000    0.00000000    0.00000000
     atom    6 type  2   force =     0.00000000    0.00000000   -0.00000000
     atom    7 type  3   force =     0.00000000    0.00000000   -0.00000000
     atom    8 type  3   force =     0.00000000    0.00000000    0.00000000
     atom    9 type  4   force =     0.00297900    0.00259607    0.02953821
     atom   10 type  4   force =     0.00297900   -0.00259607   -0.02953821
     atom   11 type  4   force =    -0.00297900   -0.00259607   -0.02953821
     atom   12 type  4   force =    -0.00297900    0.00259607    0.02953821
     atom   13 type  4   force =    -0.01555549   -0.02647589    0.01867641
     atom   14 type  4   force =    -0.01555549    0.02647589   -0.01867641
     atom   15 type  4   force =     0.01555549    0.02647589   -0.01867641
     atom   16 type  4   force =     0.01555549   -0.02647589    0.01867641
     atom   17 type  4   force =    -0.01462572   -0.01217394    0.01389002
     atom   18 type  4   force =    -0.01462572    0.01217394   -0.01389002
     atom   19 type  4   force =     0.01462572    0.01217394   -0.01389002
     atom   20 type  4   force =     0.01462572   -0.01217394    0.01389002
     The non-local contrib.  to forces
     atom    1 type  1   force =    -0.00573899    0.00932751   -0.00523898
     atom    2 type  1   force =    -0.00573899   -0.00932751    0.00523898
     atom    3 type  1   force =     0.00573899    0.00932751   -0.00523898
     atom    4 type  1   force =     0.00573899   -0.00932751    0.00523898
     atom    5 type  2   force =     0.00000000    0.00000000   -0.00000000
     atom    6 type  2   force =     0.00000000    0.00000000    0.00000000
     atom    7 type  3   force =     0.00000000    0.00000000    0.00000000
     atom    8 type  3   force =     0.00000000    0.00000000    0.00000000
     atom    9 type  4   force =    -0.01005450   -0.14470224    0.45002337
     atom   10 type  4   force =    -0.01005450    0.14470224   -0.45002337
     atom   11 type  4   force =     0.01005450    0.14470224   -0.45002337
     atom   12 type  4   force =     0.01005450   -0.14470224    0.45002337
     atom   13 type  4   force =    -0.40269326   -0.21991753   -0.06637722
     atom   14 type  4   force =    -0.40269326    0.21991753    0.06637722
     atom   15 type  4   force =     0.40269326    0.21991753    0.06637722
     atom   16 type  4   force =     0.40269326   -0.21991753   -0.06637722
     atom   17 type  4   force =    -0.26400182   -0.40335607   -0.06620971
     atom   18 type  4   force =    -0.26400182    0.40335607    0.06620971
     atom   19 type  4   force =     0.26400182    0.40335607    0.06620971
     atom   20 type  4   force =     0.26400182   -0.40335607   -0.06620971
     The ionic contribution  to forces
     atom    1 type  1   force =    -1.43811187    0.70806010   -0.06664628
     atom    2 type  1   force =    -1.43811187   -0.70806010    0.06664628
     atom    3 type  1   force =     1.43811187    0.70806010   -0.06664628
     atom    4 type  1   force =     1.43811187   -0.70806010    0.06664628
     atom    5 type  2   force =     0.00000000    0.00000000   -0.00000000
     atom    6 type  2   force =     0.00000000    0.00000000    0.00000000
     atom    7 type  3   force =    -0.00000000   -0.00000000    0.00000000
     atom    8 type  3   force =     0.00000000   -0.00000000   -0.00000000
     atom    9 type  4   force =    -0.16410034    2.42484203   -6.62335832
     atom   10 type  4   force =    -0.16410034   -2.42484203    6.62335833
     atom   11 type  4   force =     0.16410034   -2.42484203    6.62335833
     atom   12 type  4   force =     0.16410034    2.42484203   -6.62335833
     atom   13 type  4   force =     5.68917573    3.37576815    1.40055339
     atom   14 type  4   force =     5.68917573   -3.37576815   -1.40055339
     atom   15 type  4   force =    -5.68917573   -3.37576815   -1.40055339
     atom   16 type  4   force =    -5.68917573    3.37576815    1.40055339
     atom   17 type  4   force =     3.79670403    5.92608547    1.18008083
     atom   18 type  4   force =     3.79670403   -5.92608547   -1.18008083
     atom   19 type  4   force =    -3.79670403   -5.92608547   -1.18008083
     atom   20 type  4   force =    -3.79670403    5.92608547    1.18008083
     The local contribution  to forces
     atom    1 type  1   force =     1.45330064   -0.73206485    0.07286632
     atom    2 type  1   force =     1.45318609    0.73200532   -0.07315282
     atom    3 type  1   force =    -1.45319690   -0.73200561    0.07315629
     atom    4 type  1   force =    -1.45328713    0.73206531   -0.07286253
     atom    5 type  2   force =    -0.00000439    0.00000677    0.00001208
     atom    6 type  2   force =     0.00001528    0.00000700   -0.00000965
     atom    7 type  3   force =    -0.00002230   -0.00001244   -0.00002310
     atom    8 type  3   force =     0.00000609   -0.00001286    0.00000993
     atom    9 type  4   force =     0.17686697   -2.27916841    6.20834261
     atom   10 type  4   force =     0.17689008    2.27910844   -6.20802693
     atom   11 type  4   force =    -0.17686165    2.27916883   -6.20834143
     atom   12 type  4   force =    -0.17689582   -2.27911026    6.20802714
     atom   13 type  4   force =    -5.30682699   -3.18515434   -1.31618422
     atom   14 type  4   force =    -5.30677820    3.18497295    1.31614731
     atom   15 type  4   force =     5.30682879    3.18515302    1.31619646
     atom   16 type  4   force =     5.30677755   -3.18497587   -1.31615647
     atom   17 type  4   force =    -3.55047501   -5.53952162   -1.10067783
     atom   18 type  4   force =    -3.55058285    5.53976665    1.10079281
     atom   19 type  4   force =     3.55047405    5.53952646    1.10066948
     atom   20 type  4   force =     3.55058215   -5.53976560   -1.10078545
     The core correction contribution to forces
     atom    1 type  1   force =     0.00054701   -0.00067655    0.00039464
     atom    2 type  1   force =     0.00054818    0.00067606   -0.00039466
     atom    3 type  1   force =    -0.00054815   -0.00067611    0.00039472
     atom    4 type  1   force =    -0.00054700    0.00067653   -0.00039461
     atom    5 type  2   force =     0.00000007   -0.00000000    0.00000004
     atom    6 type  2   force =     0.00000006   -0.00000004   -0.00000007
     atom    7 type  3   force =     0.00000000    0.00000000    0.00000000
     atom    8 type  3   force =     0.00000000    0.00000000    0.00000000
     atom    9 type  4   force =     0.00026316    0.00157677   -0.00525153
     atom   10 type  4   force =     0.00026307   -0.00157657    0.00525146
     atom   11 type  4   force =    -0.00026317   -0.00157676    0.00525155
     atom   12 type  4   force =    -0.00026305    0.00157655   -0.00525141
     atom   13 type  4   force =     0.00471992    0.00267574    0.00067264
     atom   14 type  4   force =     0.00471963   -0.00267613   -0.00067268
     atom   15 type  4   force =    -0.00471991   -0.00267573   -0.00067264
     atom   16 type  4   force =    -0.00471963    0.00267613    0.00067270
     atom   17 type  4   force =     0.00314755    0.00465965    0.00075984
     atom   18 type  4   force =     0.00314789   -0.00465977   -0.00075988
     atom   19 type  4   force =    -0.00314746   -0.00465956   -0.00075981
     atom   20 type  4   force =    -0.00314791    0.00465980    0.00075986
     The Hubbard contrib.    to forces
     atom    1 type  1   force =     0.00000000    0.00000000    0.00000000
     atom    2 type  1   force =     0.00000000    0.00000000    0.00000000
     atom    3 type  1   force =     0.00000000    0.00000000    0.00000000
     atom    4 type  1   force =     0.00000000    0.00000000    0.00000000
     atom    5 type  2   force =     0.00000000    0.00000000    0.00000000
     atom    6 type  2   force =     0.00000000    0.00000000    0.00000000
     atom    7 type  3   force =     0.00000000    0.00000000    0.00000000
     atom    8 type  3   force =     0.00000000    0.00000000    0.00000000
     atom    9 type  4   force =     0.00000000    0.00000000    0.00000000
     atom   10 type  4   force =     0.00000000    0.00000000    0.00000000
     atom   11 type  4   force =     0.00000000    0.00000000    0.00000000
     atom   12 type  4   force =     0.00000000    0.00000000    0.00000000
     atom   13 type  4   force =     0.00000000    0.00000000    0.00000000
     atom   14 type  4   force =     0.00000000    0.00000000    0.00000000
     atom   15 type  4   force =     0.00000000    0.00000000    0.00000000
     atom   16 type  4   force =     0.00000000    0.00000000    0.00000000
     atom   17 type  4   force =     0.00000000    0.00000000    0.00000000
     atom   18 type  4   force =     0.00000000    0.00000000    0.00000000
     atom   19 type  4   force =     0.00000000    0.00000000    0.00000000
     atom   20 type  4   force =     0.00000000    0.00000000    0.00000000
     The SCF correction term to forces
     atom    1 type  1   force =    -0.00004691    0.00007408    0.00008446
     atom    2 type  1   force =     0.00007189   -0.00002331    0.00019360
     atom    3 type  1   force =    -0.00006011    0.00002342   -0.00019645
     atom    4 type  1   force =     0.00003378   -0.00007459   -0.00008839
     atom    5 type  2   force =     0.00000478   -0.00000646   -0.00001147
     atom    6 type  2   force =    -0.00001443   -0.00000673    0.00000916
     atom    7 type  3   force =     0.00002352    0.00001419    0.00002395
     atom    8 type  3   force =    -0.00000762    0.00001386   -0.00000939
     atom    9 type  4   force =     0.00000909    0.00005447   -0.00021622
     atom   10 type  4   force =    -0.00002449    0.00001791   -0.00009506
     atom   11 type  4   force =    -0.00001532   -0.00005388    0.00021606
     atom   12 type  4   force =     0.00003150   -0.00001601    0.00009775
     atom   13 type  4   force =     0.00009728    0.00014753    0.00000830
     atom   14 type  4   force =    -0.00000716    0.00002474    0.00002263
     atom   15 type  4   force =    -0.00009792   -0.00014613   -0.00002078
     atom   16 type  4   force =     0.00000745   -0.00002248   -0.00001168
     atom   17 type  4   force =    -0.00000480   -0.00002910   -0.00005964
     atom   18 type  4   force =     0.00011262   -0.00019320   -0.00004950
     atom   19 type  4   force =     0.00000849    0.00002840    0.00006974
     atom   20 type  4   force =    -0.00011217    0.00019251    0.00004162

     Total force =     0.110805     Total SCF correction =     0.000645

     Computing stress (Cartesian axis) and pressure

     negative rho (up, down):  3.565E-01 0.000E+00
          total   stress  (Ry/bohr**3)                   (kbar)     P=     -296.16
  -0.00180048   0.00000000   0.00000000         -264.86        0.00        0.00
   0.00000000  -0.00176416  -0.00000752            0.00     -259.52       -1.11
   0.00000000  -0.00000752  -0.00247506            0.00       -1.11     -364.09

     kinetic stress (kbar)  23303.69      0.00      0.00
                                0.00  23307.15     19.17
                                0.00     19.17  23094.39

     local   stress (kbar) -11737.26     -0.16     -0.31
                               -0.16 -12171.50   -547.06
                               -0.31   -547.06 -12164.73

     nonloc. stress (kbar)   8929.89      0.00      0.00
                                0.00   8933.73     -1.73
                                0.00     -1.73   8930.66

     hartree stress (kbar)   7028.54      0.14      0.08
                                0.14   7138.44    240.25
                                0.08    240.25   7232.44

     exc-cor stress (kbar)    263.58     -0.00      0.00
                               -0.00    264.64      0.14
                                0.00      0.14    264.60

     corecor stress (kbar)  -5377.48      0.00     -0.00
                                0.00  -5377.65     -0.02
                               -0.00     -0.02  -5376.30

     ewald   stress (kbar) -22675.81     -0.00     -0.00
                               -0.00 -22354.34    288.14
                               -0.00    288.14 -22345.14

     hubbard stress (kbar)      0.00      0.00      0.00
                                0.00      0.00      0.00
                                0.00      0.00      0.00

     DFT-D   stress (kbar)      0.00      0.00      0.00
                                0.00      0.00      0.00
                                0.00      0.00      0.00

     XDM     stress (kbar)      0.00      0.00      0.00
                                0.00      0.00      0.00
                                0.00      0.00      0.00

     dft-nl  stress (kbar)      0.00      0.00      0.00
                                0.00      0.00      0.00
                                0.00      0.00      0.00

     TS-vdW  stress (kbar)      0.00      0.00      0.00
                                0.00      0.00      0.00
                                0.00      0.00      0.00

[...]

                                0.00      0.00      0.00

     Writing all to output data dir new_calculations/myprefix.save/

     General routines

     Parallel routines

     PAW routines

   This run was terminated on:   5:20:22  20May2023

   JOB DONE.