     Program PWSCF v.7.0 starts on 21May2023 at 21:30:47

     Reading input from espresso_24076.pwi
Warning: card &CELL ignored
Warning: card / ignored

     Current dimensions of program PWSCF are:
     Max number of different atomic species (ntypx) = 10
     Max number of k-points (npk) =  40000
     Max angular momentum in pseudopotentials (lmaxx) =  4

     gamma-point specific algorithms are used
     Message from routine setup:
     using ibrav=0 with symmetry is DISCOURAGED, use correct ibrav instead

     Subspace diagonalization in iterative solution of the eigenvalue problem:
     a serial algorithm will be used

     Using Slab Decomposition

     bravais-lattice index     =            0
     lattice parameter (alat)  =       6.6759  a.u.
     unit-cell volume          =     969.3603 (a.u.)^3
     number of atoms/cell      =            6
     number of atomic types    =            2
     number of electrons       =        52.00
     number of Kohn-Sham states=           31
     kinetic-energy cutoff     =      30.0000  Ry
     charge density cutoff     =     240.0000  Ry
     scf convergence threshold =      1.0E-06
     mixing beta               =       0.7000
     number of iterations used =            8  plain     mixing
     Exchange-correlation=  SLA  PW   PBX  PBC
                           (   1   4   3   4   0   0   0)

     celldm(1)=   6.675930  celldm(2)=   0.000000  celldm(3)=   0.000000
     celldm(4)=   0.000000  celldm(5)=   0.000000  celldm(6)=   0.000000

     crystal axes: (cart. coord. in units of alat)
               a(1) = (   1.000000   0.000000   0.000000 )
               a(2) = (   0.000000   1.000000   0.000000 )
               a(3) = (   0.000000   0.000000   3.257991 )

     reciprocal axes: (cart. coord. in units 2 pi/alat)
               b(1) = (  1.000000  0.000000  0.000000 )
               b(2) = (  0.000000  1.000000  0.000000 )
               b(3) = (  0.000000  0.000000  0.306938 )

     PseudoPot. # 1 for Ge read from file:
     /home/pragov/projects/rrg-bengioy-ad/pragov/crystal_structure_design/SSSP/ge_pbe_v1.4.uspp.F.UPF
     MD5 check sum: 9c9eaa91e581c3f09632fb3098b2c6b2
     Pseudo is Ultrasoft + core correction, Zval = 14.0
     Generated by new atomic code, or converted to UPF format
     Using radial grid of  873 points,  6 beta functions with:
                l(1) =   0
                l(2) =   0
                l(3) =   1
                l(4) =   1
                l(5) =   2
                l(6) =   2
     Q(r) pseudized with  8 coefficients,  rinner =    1.400   1.400   1.400
                                                       1.400   1.400

     PseudoPot. # 2 for S  read from file:
     /home/pragov/projects/rrg-bengioy-ad/pragov/crystal_structure_design/SSSP/s_pbe_v1.4.uspp.F.UPF
     MD5 check sum: 88d86576ff6df21479756cfb9bdac1df
     Pseudo is Ultrasoft + core correction, Zval =  6.0
     Generated by new atomic code, or converted to UPF format
     Using radial grid of  907 points,  6 beta functions with:
                l(1) =   0
                l(2) =   0
                l(3) =   1
                l(4) =   1
                l(5) =   2
                l(6) =   2
     Q(r) pseudized with  8 coefficients,  rinner =    1.300   1.300   1.300
                                                       1.300   1.300

     atomic species   valence    mass     pseudopotential
        Ge            14.00    72.63000     Ge( 1.00)
        S              6.00    32.06000     S ( 1.00)

     16 Sym. Ops., with inversion, found ( 8 have fractional translation)

                                    s                        frac. trans.

      isym =  1     identity

 cryst.   s( 1) = (     1          0          0      )
                  (     0          1          0      )
                  (     0          0          1      )

 cart.    s( 1) = (  1.0000000  0.0000000  0.0000000 )
                  (  0.0000000  1.0000000  0.0000000 )
                  (  0.0000000  0.0000000  1.0000000 )

      isym =  2     180 deg rotation - cart. axis [0,0,1]

[...]

 cryst.   s( 3) = (    -1          0          0      )    f =(  0.5000000 )
                  (     0          1          0      )       ( -0.5000000 )
                  (     0          0         -1      )       (  0.5000000 )

 cart.    s( 3) = ( -1.0000000  0.0000000  0.0000000 )    f =(  0.5000000 )
                  (  0.0000000  1.0000000  0.0000000 )       ( -0.5000000 )
                  (  0.0000000  0.0000000 -1.0000000 )       (  1.6289955 )

[...]

 cryst.   s( 6) = (     0         -1          0      )
                  (    -1          0          0      )
                  (     0          0         -1      )

 cart.    s( 6) = (  0.0000000 -1.0000000  0.0000000 )
                  ( -1.0000000  0.0000000  0.0000000 )
                  (  0.0000000  0.0000000 -1.0000000 )

[...]

      isym =  8      90 deg rotation - cart. axis [0,0,1]

[...]

      isym =  9     inversion

 cryst.   s( 9) = (    -1          0          0      )    f =(  0.5000000 )
                  (     0         -1          0      )       (  0.5000000 )
                  (     0          0         -1      )       (  0.5000000 )

 cart.    s( 9) = ( -1.0000000  0.0000000  0.0000000 )    f =(  0.5000000 )
                  (  0.0000000 -1.0000000  0.0000000 )       (  0.5000000 )
                  (  0.0000000  0.0000000 -1.0000000 )       (  1.6289955 )

      isym = 10     inv. 180 deg rotation - cart. axis [0,0,1]

 cryst.   s(10) = (     1          0          0      )    f =( -0.5000000 )
                  (     0          1          0      )       ( -0.5000000 )
                  (     0          0         -1      )       (  0.5000000 )

 cart.    s(10) = (  1.0000000  0.0000000  0.0000000 )    f =( -0.5000000 )
                  (  0.0000000  1.0000000  0.0000000 )       ( -0.5000000 )
                  (  0.0000000  0.0000000 -1.0000000 )       (  1.6289955 )

[...]

 cryst.   s(11) = (     1          0          0      )
                  (     0         -1          0      )
                  (     0          0          1      )

 cart.    s(11) = (  1.0000000  0.0000000  0.0000000 )
                  (  0.0000000 -1.0000000  0.0000000 )
                  (  0.0000000  0.0000000  1.0000000 )

[...]

 cryst.   s(14) = (     0          1          0      )    f =( -0.5000000 )
                  (     1          0          0      )       ( -0.5000000 )
                  (     0          0          1      )       (  0.5000000 )

 cart.    s(14) = (  0.0000000  1.0000000  0.0000000 )    f =( -0.5000000 )
                  (  1.0000000  0.0000000  0.0000000 )       ( -0.5000000 )
                  (  0.0000000  0.0000000  1.0000000 )       (  1.6289955 )

[...]

      isym = 16     inv.  90 deg rotation - cart. axis [0,0,1]

 cryst.   s(16) = (     0         -1          0      )
                  (     1          0          0      )
                  (     0          0         -1      )

 cart.    s(16) = (  0.0000000  1.0000000  0.0000000 )
                  ( -1.0000000  0.0000000  0.0000000 )
                  (  0.0000000  0.0000000 -1.0000000 )

   Cartesian axes

     site n.     atom                  positions (alat units)
         1           Ge  tau(   1) = (   0.0000000   0.0000000   1.6289955  )
         2           Ge  tau(   2) = (   0.5000000   0.5000000   0.0000000  )
         3           S   tau(   3) = (   0.0000000   0.5000000   2.8538503  )
         4           S   tau(   4) = (   0.0000000   0.5000000   1.2248548  )
         5           S   tau(   5) = (   0.5000000   0.0000000   2.0331363  )
         6           S   tau(   6) = (   0.5000000   0.0000000   0.4041408  )

   Crystallographic axes

     site n.     atom                  positions (cryst. coord.)
         1           Ge  tau(   1) = (  0.0000000  0.0000000  0.5000000  )
         2           Ge  tau(   2) = (  0.5000000  0.5000000  0.0000000  )
         3           S   tau(   3) = (  0.0000000  0.5000000  0.8759540  )
         4           S   tau(   4) = (  0.0000000  0.5000000  0.3759540  )
         5           S   tau(   5) = (  0.5000000  0.0000000  0.6240460  )
         6           S   tau(   6) = (  0.5000000  0.0000000  0.1240460  )

     number of k points=     1  Methfessel-Paxton smearing, width (Ry)=  0.0010
                       cart. coord. in units 2pi/alat
        k(    1) = (   0.0000000   0.0000000   0.0000000), wk =   2.0000000

                       cryst. coord.
        k(    1) = (   0.0000000   0.0000000   0.0000000), wk =   2.0000000

     Check: negative core charge=   -0.000001

     Initial potential from superposition of free atoms

     starting charge      51.9981, renormalised to      52.0000
     Starting wfcs are   34 randomized atomic wfcs

     Self-consistent Calculation

     iteration #  1     ecut=    30.00 Ry     beta= 0.70
     Davidson diagonalization with overlap

     ethr =  1.00E-02,  avg # of iterations =  3.0

     total energy              =    -522.26155351 Ry
     estimated scf accuracy    <       0.67484205 Ry

[...]

     total energy              =    -522.52498458 Ry
     estimated scf accuracy    <       0.00000467 Ry

     iteration # 10     ecut=    30.00 Ry     beta= 0.70
     Davidson diagonalization with overlap

     ethr =  8.98E-09,  avg # of iterations =  3.0

     End of self-consistent calculation

          k = 0.0000 0.0000 0.0000 (  1329 PWs)   bands (ev):

   -20.3579 -20.3563 -20.3303 -20.3303 -20.3286 -20.3286 -20.2517 -20.2505
   -20.1764 -20.1698  -9.3714  -9.2437  -7.3416  -7.0259  -1.3917  -0.5211
     2.1175   2.1180   2.2355   2.2360   2.4006   4.0061   4.6735   4.6741
     4.9912   4.9918   6.0521   6.9456   7.0649   7.1766  10.4730

     occupation numbers
     1.0000   1.0000   1.0000   1.0000   1.0000   1.0000   1.0000   1.0000
     1.0000   1.0000   1.0000   1.0000   1.0000   1.0000   1.0000   1.0000
     1.0000   1.0000   1.0000   1.0000   1.0000   1.0000   1.0000   1.0000
     1.0000   1.0000  -0.0000  -0.0000  -0.0000  -0.0000  -0.0000

     the Fermi energy is     5.7492 ev

!    total energy              =    -522.52498559 Ry
     estimated scf accuracy    <       0.00000018 Ry
     smearing contrib. (-TS)   =       0.00000000 Ry
     internal energy E=F+TS    =    -522.52498559 Ry

     The total energy is F=E-TS. E is the sum of the following terms:
     one-electron contribution =    -367.63150239 Ry
     hartree contribution      =     218.47787911 Ry
     xc contribution           =    -150.78846429 Ry
     ewald contribution        =    -222.58289801 Ry

     convergence has been achieved in  10 iterations

     Forces acting on atoms (cartesian axes, Ry/au):

     atom    1 type  1   force =     0.00000000    0.00000000    0.00000000
     atom    2 type  1   force =     0.00000000    0.00000000    0.00000000
     atom    3 type  2   force =     0.00000000    0.00000000   -0.00236008
     atom    4 type  2   force =     0.00000000    0.00000000   -0.00236008
     atom    5 type  2   force =     0.00000000    0.00000000    0.00236008
     atom    6 type  2   force =     0.00000000    0.00000000    0.00236008
     The non-local contrib.  to forces
     atom    1 type  1   force =     0.00000000    0.00000000    0.00000000
     atom    2 type  1   force =     0.00000000    0.00000000   -0.00000000
     atom    3 type  2   force =     0.00000000    0.00000000    0.28572472
     atom    4 type  2   force =     0.00000000    0.00000000    0.28572472
     atom    5 type  2   force =     0.00000000    0.00000000   -0.28572472
     atom    6 type  2   force =     0.00000000    0.00000000   -0.28572472
     The ionic contribution  to forces
     atom    1 type  1   force =     0.00000000    0.00000000    0.00000000
     atom    2 type  1   force =     0.00000000    0.00000000    0.00000000
     atom    3 type  2   force =     0.00000000    0.00000000   -9.98834560
     atom    4 type  2   force =     0.00000000   -0.00000000   -9.98834560
     atom    5 type  2   force =    -0.00000000    0.00000000    9.98834560
     atom    6 type  2   force =    -0.00000000    0.00000000    9.98834560
     The local contribution  to forces
     atom    1 type  1   force =     0.00000360    0.00000360    0.00054166
     atom    2 type  1   force =    -0.00000011   -0.00001207   -0.00095249
     atom    3 type  2   force =    -0.00000019   -0.00000493    9.71470583
     atom    4 type  2   force =     0.00000266    0.00000049    9.71501739
     atom    5 type  2   force =    -0.00000337    0.00000115   -9.71450441
     atom    6 type  2   force =     0.00000488    0.00000264   -9.71506434
     The core correction contribution to forces
     atom    1 type  1   force =     0.00000035   -0.00000028   -0.00000221
     atom    2 type  1   force =    -0.00000041   -0.00000016    0.00001420
     atom    3 type  2   force =     0.00000018   -0.00000043   -0.01436459
     atom    4 type  2   force =     0.00000011    0.00000013   -0.01437622
     atom    5 type  2   force =    -0.00000019    0.00000033    0.01437524
     atom    6 type  2   force =     0.00000010   -0.00000002    0.01438155
     The Hubbard contrib.    to forces
     atom    1 type  1   force =     0.00000000    0.00000000    0.00000000
     atom    2 type  1   force =     0.00000000    0.00000000    0.00000000
     atom    3 type  2   force =     0.00000000    0.00000000    0.00000000
     atom    4 type  2   force =     0.00000000    0.00000000    0.00000000
     atom    5 type  2   force =     0.00000000    0.00000000    0.00000000
     atom    6 type  2   force =     0.00000000    0.00000000    0.00000000
     The SCF correction term to forces
     atom    1 type  1   force =    -0.00000493    0.00000061   -0.00037978
     atom    2 type  1   force =    -0.00000711    0.00001170    0.00104930
     atom    3 type  2   force =     0.00000129    0.00000067    0.00010014
     atom    4 type  2   force =    -0.00000151    0.00000128   -0.00046329
     atom    5 type  2   force =     0.00000025   -0.00000024   -0.00017337
     atom    6 type  2   force =    -0.00000182   -0.00000095    0.00056140

     Total force =     0.004720     Total SCF correction =     0.001347
     SCF correction compared to forces is large: reduce conv_thr to get better values

     Computing stress (Cartesian axis) and pressure

          total   stress  (Ry/bohr**3)                   (kbar)     P=      164.05
   0.00162994   0.00000000   0.00000000          239.77        0.00        0.00
   0.00000000   0.00162994   0.00000000            0.00      239.77        0.00
   0.00000000   0.00000000   0.00008568            0.00        0.00       12.60

     kinetic stress (kbar)   6727.48      0.00      0.00
                                0.00   6727.48      0.00
                                0.00      0.00   6083.94

     local   stress (kbar) -12893.69      0.00      0.00
                                0.00 -12893.42     -0.00
                                0.00     -0.00   9645.02

     nonloc. stress (kbar)   3513.44      0.00      0.00
                                0.00   3513.44      0.00
                                0.00      0.00   3237.03

     hartree stress (kbar)  14518.20     -0.00     -0.00
                               -0.00  14517.97      0.00
                               -0.00      0.00   4118.90

     exc-cor stress (kbar)   7515.43     -0.00     -0.00
                               -0.00   7515.43      0.00
                               -0.00      0.00   7512.48

     corecor stress (kbar) -11703.85      0.00      0.00
                                0.00 -11703.85     -0.00
                                0.00     -0.00 -11681.24

     ewald   stress (kbar)  -7437.25     -0.00     -0.00
                               -0.00  -7437.25      0.00
                               -0.00      0.00 -18903.52

     hubbard stress (kbar)      0.00      0.00      0.00
                                0.00      0.00      0.00
                                0.00      0.00      0.00

     DFT-D   stress (kbar)      0.00      0.00      0.00
                                0.00      0.00      0.00
                                0.00      0.00      0.00

     XDM     stress (kbar)      0.00      0.00      0.00
                                0.00      0.00      0.00
                                0.00      0.00      0.00

     dft-nl  stress (kbar)      0.00      0.00      0.00
                                0.00      0.00      0.00
                                0.00      0.00      0.00

     TS-vdW  stress (kbar)      0.00      0.00      0.00
                                0.00      0.00      0.00
                                0.00      0.00      0.00

[...]

                                0.00      0.00      0.00

     Writing all to output data dir new_calculations/myprefix.save/

     General routines

     Parallel routines

   This run was terminated on:  21:31: 0  21May2023

   JOB DONE.