     Program PWSCF v.7.0 starts on 20May2023 at 16:46:37

     Reading input from espresso_17509.pwi
Warning: card &CELL ignored
Warning: card / ignored

     Current dimensions of program PWSCF are:
     Max number of different atomic species (ntypx) = 10
     Max number of k-points (npk) =  40000
     Max angular momentum in pseudopotentials (lmaxx) =  4
     file Al.pbe-n-kjpaw_psl.1.0.0.UPF: wavefunction(s)  3S 3P renormalized

     gamma-point specific algorithms are used
     Message from routine setup:
     using ibrav=0 with symmetry is DISCOURAGED, use correct ibrav instead

     Subspace diagonalization in iterative solution of the eigenvalue problem:
     a serial algorithm will be used

     Using Slab Decomposition

     bravais-lattice index     =            0
     lattice parameter (alat)  =      11.9335  a.u.
     unit-cell volume          =    1278.8807 (a.u.)^3
     number of atoms/cell      =            8
     number of atomic types    =            3
     number of electrons       =        48.00
     number of Kohn-Sham states=           29
     kinetic-energy cutoff     =      30.0000  Ry
     charge density cutoff     =     240.0000  Ry
     scf convergence threshold =      1.0E-06
     mixing beta               =       0.7000
     number of iterations used =            8  plain     mixing
     Exchange-correlation= SLA  PW   PBE  PBE
                           (   1   4   3   4   0   0   0)

     celldm(1)=  11.933459  celldm(2)=   0.000000  celldm(3)=   0.000000
     celldm(4)=   0.000000  celldm(5)=   0.000000  celldm(6)=   0.000000

     crystal axes: (cart. coord. in units of alat)
               a(1) = (   1.000000   0.000000   0.000000 )
               a(2) = (  -0.489443   0.872035   0.000000 )
               a(3) = (  -0.255279  -0.436018   0.862972 )

     reciprocal axes: (cart. coord. in units 2 pi/alat)
               b(1) = (  1.000000  0.561265  0.579393 )
               b(2) = (  0.000000  1.146742  0.579393 )
               b(3) = (  0.000000  0.000000  1.158786 )

     PseudoPot. # 1 for Na read from file:
     /home/pragov/projects/rrg-bengioy-ad/pragov/crystal_structure_design/SSSP/na_pbe_v1.5.uspp.F.UPF
     MD5 check sum: 44600605ef58000f06b90626533354dc
     Pseudo is Ultrasoft, Zval =  9.0
     Generated by new atomic code, or converted to UPF format
     Using radial grid of  819 points,  5 beta functions with:
                l(1) =   0
                l(2) =   0
                l(3) =   1
                l(4) =   1
                l(5) =   2
     Q(r) pseudized with  8 coefficients,  rinner =    1.250   1.250   1.250
                                                       1.250   1.250

     PseudoPot. # 2 for Al read from file:
     /home/pragov/projects/rrg-bengioy-ad/pragov/crystal_structure_design/SSSP/Al.pbe-n-kjpaw_psl.1.0.0.UPF
     MD5 check sum: cfc449ca30b5f3223ec38ddd88ac046d
     Pseudo is Projector augmented-wave + core cor, Zval =  3.0
     Generated using "atomic" code by A. Dal Corso  v.5.1
     Shape of augmentation charge: PSQ
     Using radial grid of 1135 points,  6 beta functions with:
                l(1) =   0
                l(2) =   0
                l(3) =   1
                l(4) =   1
                l(5) =   2
                l(6) =   2
     Q(r) pseudized with 0 coefficients

     PseudoPot. # 3 for Se read from file:
     /home/pragov/projects/rrg-bengioy-ad/pragov/crystal_structure_design/SSSP/Se_pbe_v1.uspp.F.UPF
     MD5 check sum: 1b3568f3a8ae88f9a2a0ad0698632c85
     Pseudo is Ultrasoft + core correction, Zval =  6.0
     Generated by new atomic code, or converted to UPF format
     Using radial grid of  877 points,  6 beta functions with:
                l(1) =   0
                l(2) =   0
                l(3) =   1
                l(4) =   1
                l(5) =   2
                l(6) =   2
     Q(r) pseudized with  8 coefficients,  rinner =    1.300   1.300   1.300
                                                       1.300   1.300

     atomic species   valence    mass     pseudopotential
        Na             9.00    22.98977     Na( 1.00)
        Al             3.00    26.98154     Al( 1.00)
        Se             6.00    78.97100     Se( 1.00)

      4 Sym. Ops., with inversion, found ( 2 have fractional translation)

                                    s                        frac. trans.

      isym =  1     identity

 cryst.   s( 1) = (     1          0          0      )
                  (     0          1          0      )
                  (     0          0          1      )

 cart.    s( 1) = (  1.0000000  0.0000000 -0.0000000 )
                  (  0.0000000  1.0000000  0.0000000 )
                  (  0.0000000  0.0000000  1.0000000 )

      isym =  2     180 deg rotation - cart. axis [0,0,1]

 cryst.   s( 2) = (    -1          0          0      )    f =( -0.5000000 )
                  (     0         -1          0      )       (  0.5000000 )
                  (     1          1          1      )       (  0.0000000 )

 cart.    s( 2) = ( -1.0000000 -0.0000000  0.0000000 )    f =( -0.7447214 )
                  (  0.0000000 -1.0000000  0.0000000 )       (  0.4360177 )
                  (  0.0000000  0.0000000  1.0000000 )       (  0.0000000 )

      isym =  3     inversion

 cryst.   s( 3) = (    -1          0          0      )
                  (     0         -1          0      )
                  (     0          0         -1      )

 cart.    s( 3) = ( -1.0000000 -0.0000000  0.0000000 )
                  (  0.0000000 -1.0000000 -0.0000000 )
                  (  0.0000000  0.0000000 -1.0000000 )

      isym =  4     inv. 180 deg rotation - cart. axis [0,0,1]

 cryst.   s( 4) = (     1          0          0      )    f =(  0.5000000 )
                  (     0          1          0      )       (  0.5000000 )
                  (    -1         -1         -1      )       (  0.0000000 )

 cart.    s( 4) = (  1.0000000  0.0000000 -0.0000000 )    f =(  0.2552786 )
                  (  0.0000000  1.0000000 -0.0000000 )       (  0.4360177 )
                  (  0.0000000  0.0000000 -1.0000000 )       (  0.0000000 )

   Cartesian axes

     site n.     atom                  positions (alat units)
         1           Na  tau(   1) = (   0.3829179   0.6540266   0.0000000  )
         2           Na  tau(   2) = (   0.1276393   0.2180089   0.0000000  )
         3           Al  tau(   3) = (  -0.2447214   0.4360177   0.4314862  )
         4           Al  tau(   4) = (   0.5000000   0.0000000   0.4314862  )
         5           Se  tau(   5) = (  -0.1213241   0.0710325   0.4314862  )
         6           Se  tau(   6) = (   0.3723607  -0.2180089   0.7223839  )
         7           Se  tau(   7) = (  -0.1170821   0.6540266   0.1405886  )
         8           Se  tau(   8) = (   0.3766027   0.3649852   0.4314862  )

   Crystallographic axes

     site n.     atom                  positions (cryst. coord.)
         1           Na  tau(   1) = (  0.7500000  0.7500000  0.0000000  )
         2           Na  tau(   2) = (  0.2500000  0.2500000  0.0000000  )
         3           Al  tau(   3) = (  0.2500000  0.7500000  0.5000000  )
         4           Al  tau(   4) = (  0.7500000  0.2500000  0.5000000  )
         5           Se  tau(   5) = (  0.1685440  0.3314560  0.5000000  )
         6           Se  tau(   6) = (  0.6685440  0.1685440  0.8370880  )
         7           Se  tau(   7) = (  0.3314560  0.8314560  0.1629120  )
         8           Se  tau(   8) = (  0.8314560  0.6685440  0.5000000  )

     number of k points=     1  Methfessel-Paxton smearing, width (Ry)=  0.0010
                       cart. coord. in units 2pi/alat
        k(    1) = (   0.0000000   0.0000000   0.0000000), wk =   2.0000000

                       cryst. coord.
        k(    1) = (   0.0000000   0.0000000   0.0000000), wk =   2.0000000

     Initial potential from superposition of free atoms

     starting charge      47.9826, renormalised to      48.0000
     Starting wfcs are   34 randomized atomic wfcs
     Checking if some PAW data can be deallocated...

     Self-consistent Calculation

     iteration #  1     ecut=    30.00 Ry     beta= 0.70
     Davidson diagonalization with overlap

     ethr =  1.00E-02,  avg # of iterations =  4.0

     Threshold (ethr) on eigenvalues was too large:
     Diagonalizing with lowered threshold

     Davidson diagonalization with overlap

[...]

     total energy              =    -444.91146551 Ry
     estimated scf accuracy    <       0.22031688 Ry

[...]

     total energy              =    -444.96521614 Ry
     estimated scf accuracy    <       0.00001990 Ry

     iteration #  6     ecut=    30.00 Ry     beta= 0.70
     Davidson diagonalization with overlap

     ethr =  4.15E-08,  avg # of iterations =  6.0

     End of self-consistent calculation

          k = 0.0000 0.0000 0.0000 (  1782 PWs)   bands (ev):

   -47.8094 -47.8022 -20.5279 -19.9816 -19.9317 -19.7850 -19.7706 -19.7193
    -8.7800  -7.7102  -7.3368  -7.3356  -0.3293  -0.1346   0.1150   0.9706
     0.9786   1.3341   1.3404   2.6993   3.4997   3.5917   3.7572   3.7599
     6.1653   7.8506   8.5965   9.0116   9.1339

     occupation numbers
     1.0000   1.0000   1.0000   1.0000   1.0000   1.0000   1.0000   1.0000
     1.0000   1.0000   1.0000   1.0000   1.0000   1.0000   1.0000   1.0000
     1.0000   1.0000   1.0000   1.0000   1.0000   1.0000   1.0000   1.0000
    -0.0000  -0.0000  -0.0000  -0.0000  -0.0000

     the Fermi energy is     5.6940 ev

!    total energy              =    -444.96522417 Ry
     estimated scf accuracy    <       0.00000058 Ry
     smearing contrib. (-TS)   =       0.00000000 Ry
     internal energy E=F+TS    =    -444.96522417 Ry

     The total energy is F=E-TS. E is the sum of the following terms:
     one-electron contribution =    -158.22830168 Ry
     hartree contribution      =      96.28391141 Ry
     xc contribution           =    -152.90405671 Ry
     ewald contribution        =    -160.77671637 Ry
     one-center paw contrib.   =     -69.34006083 Ry
      -> PAW hartree energy AE =       2.72817557 Ry
      -> PAW hartree energy PS =      -2.71977297 Ry
      -> PAW xc energy AE      =     -73.12798542 Ry
      -> PAW xc energy PS      =       3.77952199 Ry
      -> total E_H with PAW    =      96.29231401 Ry
      -> total E_XC with PAW   =    -222.25252013 Ry

     convergence has been achieved in   6 iterations

     Forces acting on atoms (cartesian axes, Ry/au):

     atom    1 type  1   force =     0.00000000    0.00000000    0.00176059
     atom    2 type  1   force =     0.00000000    0.00000000   -0.00176059
     atom    3 type  2   force =    -0.00009213    0.00011557   -0.00000000
     atom    4 type  2   force =     0.00009213   -0.00011557    0.00000000
     atom    5 type  3   force =     0.01976983   -0.01185462    0.00000000
     atom    6 type  3   force =     0.00000000    0.00000000    0.02181988
     atom    7 type  3   force =     0.00000000    0.00000000   -0.02181988
     atom    8 type  3   force =    -0.01976983    0.01185462   -0.00000000
     The non-local contrib.  to forces
     atom    1 type  1   force =     0.00000000    0.00000000    0.00259150
     atom    2 type  1   force =     0.00000000    0.00000000   -0.00259150
     atom    3 type  2   force =     0.00042863   -0.00013513   -0.00000000
     atom    4 type  2   force =    -0.00042863    0.00013513    0.00000000
     atom    5 type  3   force =    -0.20101480    0.12673332   -0.00000000
     atom    6 type  3   force =     0.00000000    0.00000000   -0.23418595
     atom    7 type  3   force =     0.00000000    0.00000000    0.23418595
     atom    8 type  3   force =     0.20101480   -0.12673332    0.00000000
     The ionic contribution  to forces
     atom    1 type  1   force =     0.00000000   -0.00000000   -0.00000000
     atom    2 type  1   force =     0.00000000    0.00000000   -0.00000000
     atom    3 type  2   force =     0.00000000    0.00000000    0.00000000
     atom    4 type  2   force =    -0.00000000   -0.00000000   -0.00000000
     atom    5 type  3   force =     0.27119077   -0.15877612    0.00000000
     atom    6 type  3   force =    -0.00000000    0.00000000    0.31425195
     atom    7 type  3   force =    -0.00000000    0.00000000   -0.31425195
     atom    8 type  3   force =    -0.27119077    0.15877612    0.00000000
     The local contribution  to forces
     atom    1 type  1   force =    -0.00027873    0.00019266   -0.00081056
     atom    2 type  1   force =     0.00034439   -0.00014132    0.00077828
     atom    3 type  2   force =    -0.00056063    0.00033161   -0.00068200
     atom    4 type  2   force =     0.00053861   -0.00031611    0.00067735
     atom    5 type  3   force =    -0.07118042    0.03489294   -0.00166267
     atom    6 type  3   force =    -0.00187748   -0.00432831   -0.08213712
     atom    7 type  3   force =     0.00189597    0.00444482    0.08215460
     atom    8 type  3   force =     0.07107190   -0.03497158    0.00168910
     The core correction contribution to forces
     atom    1 type  1   force =     0.00000000    0.00000000    0.00000000
     atom    2 type  1   force =     0.00000000    0.00000000    0.00000000
     atom    3 type  2   force =     0.00002601   -0.00006554    0.00000430
     atom    4 type  2   force =    -0.00002755    0.00006715   -0.00000202
     atom    5 type  3   force =     0.02090990   -0.01488321   -0.00060205
     atom    6 type  3   force =    -0.00098935   -0.00207678    0.02432898
     atom    7 type  3   force =     0.00099526    0.00208277   -0.02433276
     atom    8 type  3   force =    -0.02092161    0.01487783    0.00061223
     The Hubbard contrib.    to forces
     atom    1 type  1   force =     0.00000000    0.00000000    0.00000000
     atom    2 type  1   force =     0.00000000    0.00000000    0.00000000
     atom    3 type  2   force =     0.00000000    0.00000000    0.00000000
     atom    4 type  2   force =     0.00000000    0.00000000    0.00000000
     atom    5 type  3   force =     0.00000000    0.00000000    0.00000000
     atom    6 type  3   force =     0.00000000    0.00000000    0.00000000
     atom    7 type  3   force =     0.00000000    0.00000000    0.00000000
     atom    8 type  3   force =     0.00000000    0.00000000    0.00000000
     The SCF correction term to forces
     atom    1 type  1   force =    -0.00012674   -0.00013635   -0.00002831
     atom    2 type  1   force =     0.00007262   -0.00004762    0.00004468
     atom    3 type  2   force =     0.00000173   -0.00000661    0.00001271
     atom    4 type  2   force =    -0.00000243    0.00000702    0.00000267
     atom    5 type  3   force =    -0.00016873    0.00017431    0.00001730
     atom    6 type  3   force =     0.00002171   -0.00006163   -0.00043885
     atom    7 type  3   force =    -0.00004010   -0.00002941    0.00042341
     atom    8 type  3   force =     0.00022273   -0.00009855    0.00000718

     Total force =     0.044958     Total SCF correction =     0.000736

     Computing stress (Cartesian axis) and pressure

          total   stress  (Ry/bohr**3)                   (kbar)     P=       41.30
   0.00007226   0.00010004  -0.00000000           10.63       14.72       -0.00
   0.00010004   0.00046598  -0.00000000           14.72       68.55       -0.00
  -0.00000000  -0.00000000   0.00030403           -0.00       -0.00       44.72

     kinetic stress (kbar)   4821.04    -50.01     -0.00
                              -50.01   4778.87     -0.00
                               -0.00     -0.00   4853.94

     local   stress (kbar)   6378.83   -878.82      1.93
                             -878.82   5393.98      2.79
                                1.93      2.79   6893.91

     nonloc. stress (kbar)  -6388.75    -10.28      0.00
                              -10.28  -6374.10      0.00
                                0.00      0.00  -6341.61

     hartree stress (kbar)   3625.58    375.79     -0.43
                              375.79   4046.66      1.29
                               -0.43      1.29   3402.96

     exc-cor stress (kbar)   9619.84      0.90     -0.02
                                0.90   9620.78      0.02
                               -0.02      0.02   9619.27

     corecor stress (kbar) -11778.29      1.24      0.18
                                1.24 -11776.48      0.16
                                0.18      0.16 -11778.95

     ewald   stress (kbar)  -6267.62    575.90     -0.00
                              575.90  -5621.16     -0.00
                               -0.00     -0.00  -6604.80

     hubbard stress (kbar)      0.00      0.00      0.00
                                0.00      0.00      0.00
                                0.00      0.00      0.00

     DFT-D   stress (kbar)      0.00      0.00      0.00
                                0.00      0.00      0.00
                                0.00      0.00      0.00

     XDM     stress (kbar)      0.00      0.00      0.00
                                0.00      0.00      0.00
                                0.00      0.00      0.00

     dft-nl  stress (kbar)      0.00      0.00      0.00
                                0.00      0.00      0.00
                                0.00      0.00      0.00

     TS-vdW  stress (kbar)      0.00      0.00      0.00
                                0.00      0.00      0.00
                                0.00      0.00      0.00

[...]

                                0.00      0.00      0.00

     Writing all to output data dir new_calculations/myprefix.save/

     General routines

     Parallel routines

     PAW routines

   This run was terminated on:  16:46:50  20May2023

   JOB DONE.