     Program PWSCF v.7.0 starts on 20May2023 at 17:37:38

     Reading input from espresso_11493.pwi
Warning: card &CELL ignored
Warning: card / ignored

     Current dimensions of program PWSCF are:
     Max number of different atomic species (ntypx) = 10
     Max number of k-points (npk) =  40000
     Max angular momentum in pseudopotentials (lmaxx) =  4

     gamma-point specific algorithms are used
     Message from routine setup:
     using ibrav=0 with symmetry is DISCOURAGED, use correct ibrav instead

     Subspace diagonalization in iterative solution of the eigenvalue problem:
     a serial algorithm will be used

     Using Slab Decomposition

     bravais-lattice index     =            0
     lattice parameter (alat)  =       8.8274  a.u.
     unit-cell volume          =    5869.2872 (a.u.)^3
     number of atoms/cell      =           20
     number of atomic types    =            3
     number of electrons       =       216.00
     number of Kohn-Sham states=          130
     kinetic-energy cutoff     =      30.0000  Ry
     charge density cutoff     =     240.0000  Ry
     scf convergence threshold =      1.0E-06
     mixing beta               =       0.7000
     number of iterations used =            8  plain     mixing
     Exchange-correlation= SLA  PW   PBX  PBC
                           (   1   4   3   4   0   0   0)

     celldm(1)=   8.827419  celldm(2)=   0.000000  celldm(3)=   0.000000
     celldm(4)=   0.000000  celldm(5)=   0.000000  celldm(6)=   0.000000

     crystal axes: (cart. coord. in units of alat)
               a(1) = (   1.000000   0.000000   0.000000 )
               a(2) = (   0.000000   2.276533   0.000000 )
               a(3) = (   0.000000   0.000000   3.748091 )

     reciprocal axes: (cart. coord. in units 2 pi/alat)
               b(1) = (  1.000000  0.000000  0.000000 )
               b(2) = (  0.000000  0.439264  0.000000 )
               b(3) = (  0.000000  0.000000  0.266803 )

     PseudoPot. # 1 for Rb read from file:
     /home/pragov/projects/rrg-bengioy-ad/pragov/crystal_structure_design/SSSP/Rb_ONCV_PBE-1.0.oncvpsp.upf
     MD5 check sum: 55a5172d6bfbce6759a58e35d43f6aa9
     Pseudo is Norm-conserving, Zval =  9.0
     Generated using ONCVPSP code by D. R. Hamann
     Using radial grid of 2308 points,  6 beta functions with:
                l(1) =   0
                l(2) =   0
                l(3) =   1
                l(4) =   1
                l(5) =   2
                l(6) =   2

     PseudoPot. # 2 for Yb read from file:
     /home/pragov/projects/rrg-bengioy-ad/pragov/crystal_structure_design/SSSP/Yb.GGA-PBE-paw-v1.0.UPF
     MD5 check sum: 43b6465ad8021f06e3edb42ae292e187
     Pseudo is Projector augmented-wave + core cor, Zval = 24.0
     Generated using ATOMPAW code
     Shape of augmentation charge: BESSEL
     Using radial grid of 1117 points,  8 beta functions with:
                l(1) =   0
                l(2) =   0
                l(3) =   1
                l(4) =   1
                l(5) =   2
                l(6) =   2
                l(7) =   3
                l(8) =   3
     Q(r) pseudized with 0 coefficients

     PseudoPot. # 3 for I  read from file:
     /home/pragov/projects/rrg-bengioy-ad/pragov/crystal_structure_design/SSSP/I.pbe-n-kjpaw_psl.0.2.UPF
     MD5 check sum: d4ef18d9c8f18dc85e5843bca1e50dc0
     Pseudo is Projector augmented-wave + core cor, Zval =  7.0
     Generated using "atomic" code by A. Dal Corso  v.5.0.99 svn rev. 10869
     Shape of augmentation charge: PSQ
     Using radial grid of 1247 points,  4 beta functions with:
                l(1) =   0
                l(2) =   0
                l(3) =   1
                l(4) =   1
     Q(r) pseudized with 0 coefficients

     atomic species   valence    mass     pseudopotential
        Rb             9.00    85.46780     Rb( 1.00)
        Yb            24.00   173.05400     Yb( 1.00)
        I              7.00   126.90447     I ( 1.00)

      8 Sym. Ops., with inversion, found ( 6 have fractional translation)

                                    s                        frac. trans.

      isym =  1     identity

 cryst.   s( 1) = (     1          0          0      )
                  (     0          1          0      )
                  (     0          0          1      )

 cart.    s( 1) = (  1.0000000  0.0000000  0.0000000 )
                  (  0.0000000  1.0000000  0.0000000 )
                  (  0.0000000  0.0000000  1.0000000 )

      isym =  2     180 deg rotation - cart. axis [0,0,1]

 cryst.   s( 2) = (    -1          0          0      )    f =(  0.0000000 )
                  (     0         -1          0      )       (  0.5000000 )
                  (     0          0          1      )       (  0.5000000 )

 cart.    s( 2) = ( -1.0000000  0.0000000  0.0000000 )    f =(  0.0000000 )
                  (  0.0000000 -1.0000000  0.0000000 )       (  1.1382667 )
                  (  0.0000000  0.0000000  1.0000000 )       (  1.8740454 )

[...]

      isym =  4     180 deg rotation - cart. axis [1,0,0]

[...]

      isym =  5     inversion

 cryst.   s( 5) = (    -1          0          0      )
                  (     0         -1          0      )
                  (     0          0         -1      )

 cart.    s( 5) = ( -1.0000000  0.0000000  0.0000000 )
                  (  0.0000000 -1.0000000  0.0000000 )
                  (  0.0000000  0.0000000 -1.0000000 )

      isym =  6     inv. 180 deg rotation - cart. axis [0,0,1]

[...]

      isym =  8     inv. 180 deg rotation - cart. axis [1,0,0]

 cryst.   s( 8) = (    -1          0          0      )    f =(  0.5000000 )
                  (     0          1          0      )       (  0.0000000 )
                  (     0          0          1      )       (  0.0000000 )

 cart.    s( 8) = ( -1.0000000  0.0000000  0.0000000 )    f =(  0.5000000 )
                  (  0.0000000  1.0000000  0.0000000 )       (  0.0000000 )
                  (  0.0000000  0.0000000  1.0000000 )       (  0.0000000 )

   Cartesian axes

     site n.     atom                  positions (alat units)
         1           Rb  tau(   1) = (   0.7500000   1.3048179   0.6706834  )
         2           Rb  tau(   2) = (   0.2500000   0.9717155   3.0774074  )
         3           Rb  tau(   3) = (   0.2500000   2.1099822   2.5447287  )
         4           Rb  tau(   4) = (   0.7500000   0.1665512   1.2033620  )
         5           Yb  tau(   5) = (   0.7500000   0.7554221   2.0781514  )
         6           Yb  tau(   6) = (   0.7500000   1.8936888   3.5439847  )
         7           Yb  tau(   7) = (   0.2500000   0.3828446   0.2041060  )
         8           Yb  tau(   8) = (   0.2500000   1.5211113   1.6699393  )
         9           I   tau(   9) = (   0.2500000   0.0416036   3.3608380  )
        10           I   tau(  10) = (   0.7500000   0.4664344   2.6671226  )
        11           I   tau(  11) = (   0.7500000   1.6047011   2.9550135  )
        12           I   tau(  12) = (   0.2500000   1.5167518   0.0413527  )
        13           I   tau(  13) = (   0.2500000   0.6718323   0.7930773  )
        14           I   tau(  14) = (   0.7500000   0.7597816   3.7067380  )
        15           I   tau(  15) = (   0.2500000   1.1798704   2.2612981  )
        16           I   tau(  16) = (   0.7500000   1.8980484   1.9153980  )
        17           I   tau(  17) = (   0.7500000   2.2349298   0.3872527  )
        18           I   tau(  18) = (   0.7500000   1.0966631   1.4867926  )
        19           I   tau(  19) = (   0.2500000   0.3784851   1.8326927  )
        20           I   tau(  20) = (   0.2500000   1.8100990   1.0809681  )

   Crystallographic axes

     site n.     atom                  positions (cryst. coord.)
         1           Rb  tau(   1) = (  0.7500000  0.5731600  0.1789400  )
         2           Rb  tau(   2) = (  0.2500000  0.4268400  0.8210600  )
         3           Rb  tau(   3) = (  0.2500000  0.9268400  0.6789400  )
         4           Rb  tau(   4) = (  0.7500000  0.0731600  0.3210600  )
         5           Yb  tau(   5) = (  0.7500000  0.3318300  0.5544560  )
         6           Yb  tau(   6) = (  0.7500000  0.8318300  0.9455440  )
         7           Yb  tau(   7) = (  0.2500000  0.1681700  0.0544560  )
         8           Yb  tau(   8) = (  0.2500000  0.6681700  0.4455440  )
         9           I   tau(   9) = (  0.2500000  0.0182750  0.8966800  )
        10           I   tau(  10) = (  0.7500000  0.2048880  0.7115950  )
        11           I   tau(  11) = (  0.7500000  0.7048880  0.7884050  )
        12           I   tau(  12) = (  0.2500000  0.6662550  0.0110330  )
        13           I   tau(  13) = (  0.2500000  0.2951120  0.2115950  )
        14           I   tau(  14) = (  0.7500000  0.3337450  0.9889670  )
        15           I   tau(  15) = (  0.2500000  0.5182750  0.6033200  )
        16           I   tau(  16) = (  0.7500000  0.8337450  0.5110330  )
        17           I   tau(  17) = (  0.7500000  0.9817250  0.1033200  )
        18           I   tau(  18) = (  0.7500000  0.4817250  0.3966800  )
        19           I   tau(  19) = (  0.2500000  0.1662550  0.4889670  )
        20           I   tau(  20) = (  0.2500000  0.7951120  0.2884050  )

     number of k points=     1  Methfessel-Paxton smearing, width (Ry)=  0.0010
                       cart. coord. in units 2pi/alat
        k(    1) = (   0.0000000   0.0000000   0.0000000), wk =   2.0000000

                       cryst. coord.
        k(    1) = (   0.0000000   0.0000000   0.0000000), wk =   2.0000000

     Check: negative core charge=   -0.000001

     Initial potential from superposition of free atoms

     starting charge     215.8840, renormalised to     216.0000
     Starting wfcs are  196 randomized atomic wfcs
     Checking if some PAW data can be deallocated...

     Self-consistent Calculation

     iteration #  1     ecut=    30.00 Ry     beta= 0.70
     Davidson diagonalization with overlap

     ethr =  1.00E-02,  avg # of iterations =  3.0

     Threshold (ethr) on eigenvalues was too large:
     Diagonalizing with lowered threshold

     Davidson diagonalization with overlap

[...]

     total energy              =   -8787.01510771 Ry
     estimated scf accuracy    <       1.66729254 Ry

[...]

     negative rho (up, down):  3.632E-06 0.000E+00

[...]

     c_bands:  1 eigenvalues not converged
     ethr =  2.60E-06,  avg # of iterations = 20.0

[...]

     total energy              =   -8788.64275852 Ry
     estimated scf accuracy    <       0.00001104 Ry

     iteration # 27     ecut=    30.00 Ry     beta= 0.70
     Davidson diagonalization with overlap

     ethr =  5.11E-09,  avg # of iterations =  3.0

[...]

     End of self-consistent calculation

          k = 0.0000 0.0000 0.0000 (  8137 PWs)   bands (ev):

   -45.9818 -45.9802 -45.9791 -45.9777 -22.4154 -22.4151 -22.4148 -22.4145
   -18.5395 -18.5381 -18.5355 -18.5343 -18.4513 -18.4499 -18.4412 -18.4399
   -18.3681 -18.3667 -18.3639 -18.3626  -8.0281  -8.0261  -7.7756  -7.7561
    -7.6579  -7.6359  -7.5882  -7.5661  -7.3614  -7.3430  -7.2622  -7.2604
[...]
     1.4017   1.4787   1.5645   1.7642   1.8613   1.8828   1.9196   2.0986
     2.1133   2.1283   2.1957   2.1965   2.2425   2.2465   2.3219   2.4449
     2.4468   2.4508   2.6011   2.7077   2.7175   2.7528   2.7813   2.7894
     2.9910   3.1074   3.1686   3.1886   3.2437   3.2498   3.3294   3.3401
     6.2118   6.2153   6.2216   6.2233   6.2235   6.2256   6.2268   6.2269
     6.2279   6.2289   6.2369   6.2377   6.2386   6.2396   6.2404   6.2426
     6.2652   6.2679   6.2724   6.2857   6.3014   6.3036   6.3081   6.3097
     6.3206   6.3215   6.3225   6.3238   6.8926   6.9928   7.0743   7.5356
     7.7449   7.8184   8.0198   8.3400   8.3860   8.4094   8.4099   8.4520
     8.5283   8.6449   8.7110   8.8828   8.8838   9.0042   9.0313   9.0991
     9.1087   9.3882

     occupation numbers
     1.0000   1.0000   1.0000   1.0000   1.0000   1.0000   1.0000   1.0000
     1.0000   1.0000   1.0000   1.0000   1.0000   1.0000   1.0000   1.0000
     1.0000   1.0000   1.0000   1.0000   1.0000   1.0000   1.0000   1.0000
     1.0000   1.0000   1.0000   1.0000   1.0000   1.0000   1.0000   1.0000
     1.0000   1.0000   1.0000   1.0000   1.0000   1.0000   1.0000   1.0000
     1.0000   1.0000   1.0000   1.0000   1.0000   1.0000   1.0000   1.0000
     1.0000   1.0000   1.0000   1.0000   1.0000   1.0000   1.0000   1.0000
     1.0000   1.0000   1.0000   1.0000   1.0000   1.0000   1.0000   1.0000
     1.0000   1.0000   1.0000   1.0000   1.0000   1.0000   1.0000   1.0000
     1.0000   1.0000   1.0000   1.0000   1.0000   1.0000   1.0000   1.0000
     1.0000   1.0000   1.0000   1.0000   1.0000   1.0000   1.0000   1.0000
     1.0000   1.0000   1.0000   1.0000   1.0000   1.0000   1.0000   1.0000
     1.0000   1.0000   1.0000   1.0000   1.0000   1.0000   1.0000   1.0000
     1.0000   1.0000   1.0000   1.0000  -0.0000  -0.0000  -0.0000  -0.0000
    -0.0000  -0.0000  -0.0000  -0.0000  -0.0000  -0.0000  -0.0000  -0.0000
    -0.0000  -0.0000  -0.0000  -0.0000  -0.0000  -0.0000  -0.0000  -0.0000
    -0.0000  -0.0000

     the Fermi energy is     6.4813 ev

!    total energy              =   -8788.64276145 Ry
     estimated scf accuracy    <       0.00000073 Ry
     smearing contrib. (-TS)   =       0.00000000 Ry
     internal energy E=F+TS    =   -8788.64276145 Ry

     The total energy is F=E-TS. E is the sum of the following terms:
     one-electron contribution =   -2405.76777218 Ry
     hartree contribution      =    1140.01028156 Ry
     xc contribution           =    -684.89197092 Ry
     ewald contribution        =   -1056.54787581 Ry
     one-center paw contrib.   =   -5781.44542410 Ry
      -> PAW hartree energy AE =    1933.46685888 Ry
      -> PAW hartree energy PS =   -1678.31826338 Ry
      -> PAW xc energy AE      =   -6672.73800907 Ry
      -> PAW xc energy PS      =     636.14398947 Ry
      -> total E_H with PAW    =    1395.15887707 Ry
      -> total E_XC with PAW   =   -6721.48599053 Ry

     convergence has been achieved in  27 iterations

     negative rho (up, down):  1.234E-04 0.000E+00

     Forces acting on atoms (cartesian axes, Ry/au):

     atom    1 type  1   force =     0.00000000   -0.00104180    0.00132378
     atom    2 type  1   force =     0.00000000    0.00104180   -0.00132378
     atom    3 type  1   force =    -0.00000000    0.00104180    0.00132378
     atom    4 type  1   force =    -0.00000000   -0.00104180   -0.00132378
     atom    5 type  2   force =     0.00000000   -0.00145461   -0.00245354
     atom    6 type  2   force =     0.00000000   -0.00145461    0.00245354
     atom    7 type  2   force =     0.00000000    0.00145461   -0.00245354
     atom    8 type  2   force =     0.00000000    0.00145461    0.00245354
     atom    9 type  3   force =     0.00000000   -0.00679377    0.00190787
     atom   10 type  3   force =     0.00000000    0.00099325   -0.00148666
     atom   11 type  3   force =     0.00000000    0.00099325    0.00148666
     atom   12 type  3   force =     0.00000000    0.01051686   -0.00525950
     atom   13 type  3   force =     0.00000000   -0.00099325   -0.00148666
     atom   14 type  3   force =     0.00000000   -0.01051686    0.00525950
     atom   15 type  3   force =     0.00000000   -0.00679377   -0.00190787
     atom   16 type  3   force =     0.00000000   -0.01051686   -0.00525950
     atom   17 type  3   force =     0.00000000    0.00679377   -0.00190787
     atom   18 type  3   force =     0.00000000    0.00679377    0.00190787
     atom   19 type  3   force =     0.00000000    0.01051686    0.00525950
     atom   20 type  3   force =     0.00000000   -0.00099325    0.00148666
     The non-local contrib.  to forces
     atom    1 type  1   force =     0.00000000    0.00434899   -0.00778461
     atom    2 type  1   force =     0.00000000   -0.00434899    0.00778461
     atom    3 type  1   force =     0.00000000   -0.00434899   -0.00778461
     atom    4 type  1   force =     0.00000000    0.00434899    0.00778461
     atom    5 type  2   force =    -0.00000000   -0.03221495    0.02036031
     atom    6 type  2   force =    -0.00000000   -0.03221495   -0.02036031
     atom    7 type  2   force =    -0.00000000    0.03221495    0.02036031
     atom    8 type  2   force =     0.00000000    0.03221495   -0.02036031
     atom    9 type  3   force =     0.00000000   -0.04698380    0.07072463
     atom   10 type  3   force =    -0.00000000    0.02805036   -0.05790882
     atom   11 type  3   force =     0.00000000    0.02805036    0.05790882
     atom   12 type  3   force =     0.00000000    0.06192645   -0.02347491
     atom   13 type  3   force =     0.00000000   -0.02805036   -0.05790882
     atom   14 type  3   force =     0.00000000   -0.06192645    0.02347491
     atom   15 type  3   force =     0.00000000   -0.04698380   -0.07072463
     atom   16 type  3   force =    -0.00000000   -0.06192645   -0.02347491
     atom   17 type  3   force =     0.00000000    0.04698380   -0.07072463
     atom   18 type  3   force =    -0.00000000    0.04698380    0.07072463
     atom   19 type  3   force =     0.00000000    0.06192645    0.02347491
     atom   20 type  3   force =     0.00000000   -0.02805036    0.05790882
     The ionic contribution  to forces
     atom    1 type  1   force =    -0.00000000   -0.05756902    0.49817178
     atom    2 type  1   force =    -0.00000000    0.05756902   -0.49817178
     atom    3 type  1   force =    -0.00000000    0.05756902    0.49817178
     atom    4 type  1   force =    -0.00000000   -0.05756902   -0.49817178
     atom    5 type  2   force =    -0.00000000  -12.06036704    7.27768872
     atom    6 type  2   force =    -0.00000000  -12.06036704   -7.27768872
     atom    7 type  2   force =     0.00000000   12.06036704    7.27768872
     atom    8 type  2   force =    -0.00000000   12.06036704   -7.27768872
     atom    9 type  3   force =     0.00000000    4.85333518  -10.91089156
     atom   10 type  3   force =     0.00000000   -3.28589562    6.52102754
     atom   11 type  3   force =    -0.00000000   -3.28589562   -6.52102754
     atom   12 type  3   force =     0.00000000   -8.38136231    4.51307800
     atom   13 type  3   force =     0.00000000    3.28589562    6.52102754
     atom   14 type  3   force =     0.00000000    8.38136231   -4.51307800
     atom   15 type  3   force =     0.00000000    4.85333518   10.91089156
     atom   16 type  3   force =    -0.00000000    8.38136231    4.51307800
     atom   17 type  3   force =    -0.00000000   -4.85333518   10.91089156
     atom   18 type  3   force =     0.00000000   -4.85333518  -10.91089156
     atom   19 type  3   force =     0.00000000   -8.38136231   -4.51307800
     atom   20 type  3   force =    -0.00000000    3.28589562   -6.52102754
     The local contribution  to forces
     atom    1 type  1   force =    -0.00000153    0.05225917   -0.48919391
     atom    2 type  1   force =     0.00000238   -0.05215853    0.48913396
     atom    3 type  1   force =     0.00000307   -0.05213991   -0.48882722
     atom    4 type  1   force =     0.00000199    0.05209627    0.48909392
     atom    5 type  2   force =     0.00039975   12.09116245   -7.30171147
     atom    6 type  2   force =    -0.00050075   12.09085515    7.30027436
     atom    7 type  2   force =    -0.00027318  -12.09193340   -7.30139689
     atom    8 type  2   force =    -0.00013746  -12.08967072    7.30014553
     atom    9 type  3   force =     0.00001102   -4.81803462   10.84814721
     atom   10 type  3   force =     0.00000072    3.26078325   -6.46855368
     atom   11 type  3   force =    -0.00000285    3.26119145    6.46888227
     atom   12 type  3   force =     0.00001171    8.33667672   -4.49507971
     atom   13 type  3   force =    -0.00000138   -3.26103117   -6.46875405
     atom   14 type  3   force =     0.00000461   -8.33641083    4.49452271
     atom   15 type  3   force =    -0.00001015   -4.81779674  -10.84802844
     atom   16 type  3   force =     0.00000158   -8.33610221   -4.49455337
     atom   17 type  3   force =    -0.00000211    4.81767747  -10.84855536
     atom   18 type  3   force =     0.00000589    4.81775693   10.84834146
     atom   19 type  3   force =    -0.00000704    8.33620911    4.49492173
     atom   20 type  3   force =    -0.00000146   -3.26085648    6.46871190
     The core correction contribution to forces
     atom    1 type  1   force =     0.00000000    0.00000000    0.00000000
     atom    2 type  1   force =     0.00000000    0.00000000    0.00000000
     atom    3 type  1   force =     0.00000000    0.00000000    0.00000000
     atom    4 type  1   force =     0.00000000    0.00000000    0.00000000
     atom    5 type  2   force =     0.00000000    0.00000031   -0.00000055
     atom    6 type  2   force =    -0.00000000    0.00000031    0.00000055
     atom    7 type  2   force =    -0.00000000   -0.00000031   -0.00000055
     atom    8 type  2   force =    -0.00000000   -0.00000030    0.00000055
     atom    9 type  3   force =     0.00000065    0.00473862   -0.00623411
     atom   10 type  3   force =    -0.00000023   -0.00216340    0.00419305
     atom   11 type  3   force =    -0.00000019   -0.00215056   -0.00418988
     atom   12 type  3   force =     0.00000052   -0.00642459   -0.00004393
     atom   13 type  3   force =     0.00000011    0.00215680    0.00418853
     atom   14 type  3   force =    -0.00000014    0.00643332    0.00003864
     atom   15 type  3   force =    -0.00000065    0.00474666    0.00623482
     atom   16 type  3   force =    -0.00000043    0.00644709   -0.00003937
     atom   17 type  3   force =    -0.00000060   -0.00474025    0.00622432
     atom   18 type  3   force =     0.00000031   -0.00473457   -0.00622681
     atom   19 type  3   force =    -0.00000012   -0.00644190    0.00004558
     atom   20 type  3   force =    -0.00000023    0.00215906   -0.00418150
     The Hubbard contrib.    to forces
     atom    1 type  1   force =     0.00000000    0.00000000    0.00000000
     atom    2 type  1   force =     0.00000000    0.00000000    0.00000000
     atom    3 type  1   force =     0.00000000    0.00000000    0.00000000
     atom    4 type  1   force =     0.00000000    0.00000000    0.00000000
     atom    5 type  2   force =     0.00000000    0.00000000    0.00000000
     atom    6 type  2   force =     0.00000000    0.00000000    0.00000000
     atom    7 type  2   force =     0.00000000    0.00000000    0.00000000
     atom    8 type  2   force =     0.00000000    0.00000000    0.00000000
     atom    9 type  3   force =     0.00000000    0.00000000    0.00000000
     atom   10 type  3   force =     0.00000000    0.00000000    0.00000000
     atom   11 type  3   force =     0.00000000    0.00000000    0.00000000
     atom   12 type  3   force =     0.00000000    0.00000000    0.00000000
     atom   13 type  3   force =     0.00000000    0.00000000    0.00000000
     atom   14 type  3   force =     0.00000000    0.00000000    0.00000000
     atom   15 type  3   force =     0.00000000    0.00000000    0.00000000
     atom   16 type  3   force =     0.00000000    0.00000000    0.00000000
     atom   17 type  3   force =     0.00000000    0.00000000    0.00000000
     atom   18 type  3   force =     0.00000000    0.00000000    0.00000000
     atom   19 type  3   force =     0.00000000    0.00000000    0.00000000
     atom   20 type  3   force =     0.00000000    0.00000000    0.00000000
     The SCF correction term to forces
     atom    1 type  1   force =     0.00000048   -0.00010684    0.00012638
     atom    2 type  1   force =    -0.00000082   -0.00000492   -0.00006255
     atom    3 type  1   force =    -0.00000276   -0.00005166   -0.00022625
     atom    4 type  1   force =    -0.00000284    0.00010928   -0.00003279
     atom    5 type  2   force =    -0.00043727   -0.00043726    0.00121416
     atom    6 type  2   force =     0.00053929    0.00058074    0.00031471
     atom    7 type  2   force =     0.00030241    0.00070106    0.00107265
     atom    8 type  2   force =     0.00016468   -0.00144417    0.00045189
     atom    9 type  3   force =    -0.00001069    0.00015933    0.00016146
     atom   10 type  3   force =    -0.00000126    0.00023639   -0.00028141
     atom   11 type  3   force =     0.00000334   -0.00022157   -0.00011814
     atom   12 type  3   force =    -0.00001090   -0.00032578    0.00029278
     atom   13 type  3   force =     0.00000127    0.00004223   -0.00001523
     atom   14 type  3   force =    -0.00000509    0.00005281    0.00031401
     atom   15 type  3   force =     0.00001139   -0.00010361   -0.00029460
     atom   16 type  3   force =    -0.00000137   -0.00031253   -0.00028772
     atom   17 type  3   force =     0.00000252    0.00020976    0.00027359
     atom   18 type  3   force =    -0.00000660    0.00012089   -0.00003569
     atom   19 type  3   force =     0.00000662    0.00022497   -0.00010362
     atom   20 type  3   force =     0.00000196   -0.00014890    0.00009409

     Total force =     0.028442     Total SCF correction =     0.002790

     Computing stress (Cartesian axis) and pressure

     negative rho (up, down):  1.234E-04 0.000E+00
          total   stress  (Ry/bohr**3)                   (kbar)     P=       26.02
   0.00055405   0.00000000   0.00000000           81.50        0.00        0.00
   0.00000000  -0.00002313   0.00000000            0.00       -3.40        0.00
   0.00000000   0.00000000  -0.00000036            0.00        0.00       -0.05

     kinetic stress (kbar)   3658.79      0.00      0.00
                                0.00   3551.40      0.00
                                0.00      0.00   3551.83

     local   stress (kbar) -12266.37     -0.00     -0.00
                               -0.00  -2488.36     -0.04
                               -0.00     -0.04   3392.40

     nonloc. stress (kbar)   1738.98      0.00      0.00
                                0.00   1732.15      0.00
                                0.00      0.00   1742.19

     hartree stress (kbar)  13557.90      0.00     -0.00
                                0.00   8940.13      0.03
                               -0.00      0.03   6074.66

     exc-cor stress (kbar)   8781.41     -0.00     -0.00
                               -0.00   8780.63      0.00
                               -0.00      0.00   8781.16

     corecor stress (kbar) -10996.01      0.00     -0.00
                                0.00 -10987.18      0.00
                               -0.00      0.00 -10986.83

     ewald   stress (kbar)  -4393.20     -0.00     -0.00
                               -0.00  -9532.17     -0.00
                               -0.00     -0.00 -12555.46

     hubbard stress (kbar)      0.00      0.00      0.00
                                0.00      0.00      0.00
                                0.00      0.00      0.00

     DFT-D   stress (kbar)      0.00      0.00      0.00
                                0.00      0.00      0.00
                                0.00      0.00      0.00

     XDM     stress (kbar)      0.00      0.00      0.00
                                0.00      0.00      0.00
                                0.00      0.00      0.00

     dft-nl  stress (kbar)      0.00      0.00      0.00
                                0.00      0.00      0.00
                                0.00      0.00      0.00

     TS-vdW  stress (kbar)      0.00      0.00      0.00
                                0.00      0.00      0.00
                                0.00      0.00      0.00

[...]

                                0.00      0.00      0.00

     Writing all to output data dir new_calculations/myprefix.save/

     General routines

     Parallel routines

     PAW routines

   This run was terminated on:  17:40:42  20May2023

   JOB DONE.