     Program PWSCF v.7.0 starts on 21May2023 at  7:44:17

     Reading input from espresso_26539.pwi
Warning: card &CELL ignored
Warning: card / ignored

     Current dimensions of program PWSCF are:
     Max number of different atomic species (ntypx) = 10
     Max number of k-points (npk) =  40000
     Max angular momentum in pseudopotentials (lmaxx) =  4
     file O.pbe-n-kjpaw_psl.0.1.UPF: wavefunction(s)  2P renormalized

     gamma-point specific algorithms are used
     Message from routine setup:
     using ibrav=0 with symmetry is DISCOURAGED, use correct ibrav instead

     Subspace diagonalization in iterative solution of the eigenvalue problem:
     a serial algorithm will be used

     Using Slab Decomposition

     bravais-lattice index     =            0
     lattice parameter (alat)  =      12.1341  a.u.
     unit-cell volume          =     932.4451 (a.u.)^3
     number of atoms/cell      =           12
     number of atomic types    =            3
     number of electrons       =        96.00
     number of Kohn-Sham states=           58
     kinetic-energy cutoff     =      30.0000  Ry
     charge density cutoff     =     240.0000  Ry
     scf convergence threshold =      1.0E-06
     mixing beta               =       0.7000
     number of iterations used =            8  plain     mixing
     Exchange-correlation= SLA  PW   PBX  PBC
                           (   1   4   3   4   0   0   0)

     celldm(1)=  12.134078  celldm(2)=   0.000000  celldm(3)=   0.000000
     celldm(4)=   0.000000  celldm(5)=   0.000000  celldm(6)=   0.000000

     crystal axes: (cart. coord. in units of alat)
               a(1) = (   1.000000   0.000000   0.000000 )
               a(2) = (   0.369214   0.929345   0.000000 )
               a(3) = (  -0.684607  -0.464672   0.561599 )

     reciprocal axes: (cart. coord. in units 2 pi/alat)
               b(1) = (  1.000000 -0.397284  0.890315 )
               b(2) = (  0.000000  1.076027  0.890315 )
               b(3) = (  0.000000  0.000000  1.780631 )

     PseudoPot. # 1 for Zr read from file:
     /home/pragov/projects/rrg-bengioy-ad/pragov/crystal_structure_design/SSSP/Zr_pbe_v1.uspp.F.UPF
     MD5 check sum: 5db81b1e868ab7776c4564c113de050b
     Pseudo is Ultrasoft + core correction, Zval = 12.0
     Generated by new atomic code, or converted to UPF format
     Using radial grid of  887 points,  6 beta functions with:
                l(1) =   0
                l(2) =   0
                l(3) =   1
                l(4) =   1
                l(5) =   2
                l(6) =   2
     Q(r) pseudized with  6 coefficients,  rinner =    1.200   1.200   1.200
                                                       1.200   1.200

     PseudoPot. # 2 for Ti read from file:
     /home/pragov/projects/rrg-bengioy-ad/pragov/crystal_structure_design/SSSP/ti_pbe_v1.4.uspp.F.UPF
     MD5 check sum: 88a00a6731bd790ddea75d31a80cb452
     Pseudo is Ultrasoft + core correction, Zval = 12.0
     Generated by new atomic code, or converted to UPF format
     Using radial grid of  851 points,  6 beta functions with:
                l(1) =   0
                l(2) =   0
                l(3) =   1
                l(4) =   1
                l(5) =   2
                l(6) =   2
     Q(r) pseudized with  6 coefficients,  rinner =    1.000   1.000   1.000
                                                       1.000   1.000

     PseudoPot. # 3 for O  read from file:
     /home/pragov/projects/rrg-bengioy-ad/pragov/crystal_structure_design/SSSP/O.pbe-n-kjpaw_psl.0.1.UPF
     MD5 check sum: 0234752ac141de4415c5fc33072bef88
     Pseudo is Projector augmented-wave + core cor, Zval =  6.0
     Generated using "atomic" code by A. Dal Corso  v.5.0.99 svn rev. 10869
     Shape of augmentation charge: BESSEL
     Using radial grid of 1095 points,  4 beta functions with:
                l(1) =   0
                l(2) =   0
                l(3) =   1
                l(4) =   1
     Q(r) pseudized with 0 coefficients

     atomic species   valence    mass     pseudopotential
        Zr            12.00    91.22400     Zr( 1.00)
        Ti            12.00    47.86700     Ti( 1.00)
        O              6.00    15.99900     O ( 1.00)

      2 Sym. Ops. (no inversion) found

                                    s                        frac. trans.

      isym =  1     identity

 cryst.   s( 1) = (     1          0          0      )
                  (     0          1          0      )
                  (     0          0          1      )

 cart.    s( 1) = (  1.0000000  0.0000000 -0.0000000 )
                  (  0.0000000  1.0000000  0.0000000 )
                  (  0.0000000  0.0000000  1.0000000 )

      isym =  2     inv. 180 deg rotation - cart. axis [0,0,1]

 cryst.   s( 2) = (     1          0          0      )
                  (     0          1          0      )
                  (    -1         -1         -1      )

 cart.    s( 2) = (  1.0000000  0.0000000  0.0000000 )
                  (  0.0000000  1.0000000  0.0000000 )
                  (  0.0000000  0.0000000 -1.0000000 )

   Cartesian axes

     site n.     atom                  positions (alat units)
         1           Zr  tau(   1) = (   0.1846068   0.4646723   0.2807994  )
         2           Zr  tau(   2) = (   0.5000000  -0.0000000   0.2807994  )
         3           Zr  tau(   3) = (   0.6846068   0.4646723   0.0000000  )
         4           Ti  tau(   4) = (   0.0000000   0.0000000   0.0000000  )
         5           O   tau(   5) = (   0.5997754   0.1246372   0.0000000  )
         6           O   tau(   6) = (   0.3372758   0.5113793   0.0000000  )
         7           O   tau(   7) = (   0.9006879   0.6113358   0.2337071  )
         8           O   tau(   8) = (   0.2160825   0.1466645   0.3278917  )
         9           O   tau(   9) = (   0.6330185   0.8058960   0.0000000  )
        10           O   tau(  10) = (   0.9826741   0.2907445   0.0000000  )
        11           O   tau(  11) = (  -0.1232395  -0.0836480   0.2502950  )
        12           O   tau(  12) = (   0.5613673   0.3810243   0.3113037  )

   Crystallographic axes

     site n.     atom                  positions (cryst. coord.)
         1           Zr  tau(   1) = (  0.2500000  0.7500000  0.5000000  )
         2           Zr  tau(   2) = (  0.7500000  0.2500000  0.5000000  )
         3           Zr  tau(   3) = (  0.5000000  0.5000000  0.0000000  )
         4           Ti  tau(   4) = (  0.0000000  0.0000000  0.0000000  )
         5           O   tau(   5) = (  0.5502590  0.1341130  0.0000000  )
         6           O   tau(   6) = (  0.1341130  0.5502580  0.0000000  )
         7           O   tau(   7) = (  0.8658870  0.8658870  0.4161460  )
         8           O   tau(   8) = (  0.4497420  0.4497420  0.5838540  )
         9           O   tau(   9) = (  0.3128490  0.8671660  0.0000000  )
        10           O   tau(  10) = (  0.8671660  0.3128490  0.0000000  )
        11           O   tau(  11) = (  0.1328340  0.1328340  0.4456830  )
        12           O   tau(  12) = (  0.6871510  0.6871510  0.5543170  )

     number of k points=     1  Methfessel-Paxton smearing, width (Ry)=  0.0010
                       cart. coord. in units 2pi/alat
        k(    1) = (   0.0000000   0.0000000   0.0000000), wk =   2.0000000

                       cryst. coord.
        k(    1) = (   0.0000000   0.0000000   0.0000000), wk =   2.0000000

     Check: negative core charge=   -0.000016

     Initial potential from superposition of free atoms

     starting charge      94.9935, renormalised to      96.0000

     negative rho (up, down):  1.884E-01 0.000E+00
     Starting wfcs are   81 randomized atomic wfcs
     Checking if some PAW data can be deallocated...

     Self-consistent Calculation

     iteration #  1     ecut=    30.00 Ry     beta= 0.70
     Davidson diagonalization with overlap

     ethr =  1.00E-02,  avg # of iterations =  2.0

     negative rho (up, down):  1.913E-01 0.000E+00

     total energy              =    -750.19827721 Ry
     estimated scf accuracy    <       2.96929808 Ry

[...]

     total energy              =    -751.55655922 Ry
     estimated scf accuracy    <       0.00000172 Ry

     iteration # 11     ecut=    30.00 Ry     beta= 0.70
     Davidson diagonalization with overlap

     ethr =  1.79E-09,  avg # of iterations =  3.0

[...]

     End of self-consistent calculation

          k = 0.0000 0.0000 0.0000 (  1283 PWs)   bands (ev):

   -45.8278 -37.4589 -37.3037 -37.2721 -22.1723 -22.1570 -22.1400 -16.2478
   -16.2101 -15.8128 -15.7811 -15.6892 -15.5863 -15.4041 -15.3758 -15.3314
    -7.6040  -6.3871  -6.3548  -6.2754  -6.1309  -6.0853  -5.9699  -5.8101
     5.5855   5.6933   5.8652   5.9345   5.9666   6.1391   6.4777   6.5957
     7.7080   7.7574   8.1997   8.2441   8.2693   8.3595   8.4840   8.5251
     8.7020   8.7506   8.7767   9.3783   9.7735   9.7953  10.0862  10.1616
    13.5947  13.8104  14.8503  15.0320  15.0713  15.1498  15.1560  15.3009
    15.6831  15.7895

     occupation numbers
     1.0000   1.0000   1.0000   1.0000   1.0000   1.0000   1.0000   1.0000
     1.0000   1.0000   1.0000   1.0000   1.0000   1.0000   1.0000   1.0000
     1.0000   1.0000   1.0000   1.0000   1.0000   1.0000   1.0000   1.0000
     1.0000   1.0000   1.0000   1.0000   1.0000   1.0000   1.0000   1.0000
     1.0000   1.0000   1.0000   1.0000   1.0000   1.0000   1.0000   1.0000
     1.0000   1.0000   1.0000   1.0000   1.0000   1.0000   1.0000   1.0000
    -0.0000  -0.0000  -0.0000  -0.0000  -0.0000  -0.0000  -0.0000  -0.0000
    -0.0000  -0.0000

     the Fermi energy is    12.0574 ev

!    total energy              =    -751.55655894 Ry
     estimated scf accuracy    <       0.00000091 Ry
     smearing contrib. (-TS)   =       0.00000000 Ry
     internal energy E=F+TS    =    -751.55655894 Ry

     The total energy is F=E-TS. E is the sum of the following terms:
     one-electron contribution =    -145.35859165 Ry
     hartree contribution      =     128.14452143 Ry
     xc contribution           =    -131.24432593 Ry
     ewald contribution        =    -526.93612566 Ry
     one-center paw contrib.   =     -76.16203713 Ry
      -> PAW hartree energy AE =     244.19239691 Ry
      -> PAW hartree energy PS =    -243.38216010 Ry
      -> PAW xc energy AE      =    -138.35249831 Ry
      -> PAW xc energy PS      =      61.38022437 Ry
      -> total E_H with PAW    =     128.95475824 Ry
      -> total E_XC with PAW   =    -208.21659988 Ry

     convergence has been achieved in  11 iterations

     negative rho (up, down):  1.952E-01 0.000E+00

     Forces acting on atoms (cartesian axes, Ry/au):

     atom    1 type  1   force =    -0.00858921   -0.00123706   -0.00057972
     atom    2 type  1   force =    -0.00858921   -0.00123706    0.00057972
     atom    3 type  1   force =    -0.01021109    0.00969685   -0.00000000
     atom    4 type  2   force =     0.00694054   -0.00301602    0.00000000
     atom    5 type  3   force =    -0.02705912   -0.01706158   -0.00000000
     atom    6 type  3   force =    -0.02295084   -0.02429534   -0.00000000
     atom    7 type  3   force =     0.03309539    0.02423430   -0.00617728
     atom    8 type  3   force =     0.03309539    0.02423430    0.00617728
     atom    9 type  3   force =     0.01125187   -0.04002140   -0.00000000
     atom   10 type  3   force =    -0.02569209    0.00233991   -0.00000000
     atom   11 type  3   force =     0.00935418    0.01318155    0.01809768
     atom   12 type  3   force =     0.00935418    0.01318155   -0.01809768
     The non-local contrib.  to forces
     atom    1 type  1   force =    -0.00200622   -0.00410534    0.00095388
     atom    2 type  1   force =    -0.00200622   -0.00410534   -0.00095388
     atom    3 type  1   force =    -0.00315447    0.00178907   -0.00000000
     atom    4 type  2   force =     0.00350265   -0.00855105   -0.00000000
     atom    5 type  3   force =    -0.01448416   -0.06940947   -0.00000000
     atom    6 type  3   force =    -0.03823068    0.01343859   -0.00000000
     atom    7 type  3   force =     0.03063809    0.02127265    0.07583336
     atom    8 type  3   force =     0.03063809    0.02127265   -0.07583336
     atom    9 type  3   force =    -0.06963266    0.03915035   -0.00000000
     atom   10 type  3   force =     0.03194806   -0.10477976   -0.00000000
     atom   11 type  3   force =     0.02179920    0.02875642   -0.03991210
     atom   12 type  3   force =     0.02179920    0.02875642    0.03991210
     The ionic contribution  to forces
     atom    1 type  1   force =    -0.00003897    0.00005637    0.00001336
     atom    2 type  1   force =     0.00002451   -0.00003716   -0.00002927
     atom    3 type  1   force =     0.00002048    0.00003813   -0.00005502
     atom    4 type  2   force =     0.00001299   -0.00001938    0.00003061
     atom    5 type  3   force =     0.58623037    0.37604315   -0.00000250
     atom    6 type  3   force =     0.56594904    0.40597822   -0.00000250
     atom    7 type  3   force =    -0.57607205   -0.39100527    0.01807732
     atom    8 type  3   force =    -0.57614473   -0.39105459   -0.01803788
     atom    9 type  3   force =     2.93740122   -0.59360918    0.00000029
     atom   10 type  3   force =     0.53286344    2.94902756    0.00000029
     atom   11 type  3   force =    -1.73512341   -1.17770910    2.14079267
     atom   12 type  3   force =    -1.73512289   -1.17770875   -2.14078737
     The local contribution  to forces
     atom    1 type  1   force =    -0.01176698   -0.00511503   -0.00114864
     atom    2 type  1   force =     0.00168303    0.00517120    0.00120901
     atom    3 type  1   force =    -0.00505223    0.00445509    0.01135388
     atom    4 type  2   force =     0.00484809    0.00297345   -0.00120397
     atom    5 type  3   force =    -0.59641262   -0.32694422   -0.01145015
     atom    6 type  3   force =    -0.54839203   -0.44581013    0.01704518
     atom    7 type  3   force =     0.59171477    0.39816936   -0.09614219
     atom    8 type  3   force =     0.56673783    0.38249210    0.10052047
     atom    9 type  3   force =    -2.85507570    0.51236832   -0.01731954
     atom   10 type  3   force =    -0.58743324   -2.84575203    0.03198723
     atom   11 type  3   force =     1.71812145    1.18244461   -2.08621711
     atom   12 type  3   force =     1.72916455    1.13562369    2.07895120
     The core correction contribution to forces
     atom    1 type  1   force =    -0.00043318   -0.00037598   -0.00061395
     atom    2 type  1   force =     0.00033799   -0.00009718    0.00011901
     atom    3 type  1   force =    -0.00019370    0.00030439    0.00029648
     atom    4 type  2   force =     0.00005023   -0.00021143   -0.00027193
     atom    5 type  3   force =    -0.00043762    0.00023609   -0.00078305
     atom    6 type  3   force =    -0.00063715   -0.00061294    0.00123505
     atom    7 type  3   force =     0.00117151    0.00077713   -0.00151388
     atom    8 type  3   force =     0.00011430    0.00010221    0.00168402
     atom    9 type  3   force =    -0.00029579   -0.00082075   -0.00065445
     atom   10 type  3   force =    -0.00161683    0.00040244    0.00097460
     atom   11 type  3   force =     0.00110670    0.00083111   -0.00061266
     atom   12 type  3   force =     0.00056364   -0.00030448    0.00051205
     The Hubbard contrib.    to forces
     atom    1 type  1   force =     0.00000000    0.00000000    0.00000000
     atom    2 type  1   force =     0.00000000    0.00000000    0.00000000
     atom    3 type  1   force =     0.00000000    0.00000000    0.00000000
     atom    4 type  2   force =     0.00000000    0.00000000    0.00000000
     atom    5 type  3   force =     0.00000000    0.00000000    0.00000000
     atom    6 type  3   force =     0.00000000    0.00000000    0.00000000
     atom    7 type  3   force =     0.00000000    0.00000000    0.00000000
     atom    8 type  3   force =     0.00000000    0.00000000    0.00000000
     atom    9 type  3   force =     0.00000000    0.00000000    0.00000000
     atom   10 type  3   force =     0.00000000    0.00000000    0.00000000
     atom   11 type  3   force =     0.00000000    0.00000000    0.00000000
     atom   12 type  3   force =     0.00000000    0.00000000    0.00000000
     The SCF correction term to forces
     atom    1 type  1   force =     0.00007570    0.00004665   -0.00000242
     atom    2 type  1   force =     0.00006774    0.00004553    0.00001680
     atom    3 type  1   force =    -0.00027327    0.00008908   -0.00002523
     atom    4 type  2   force =     0.00008449   -0.00022869    0.00003689
     atom    5 type  3   force =    -0.00039719   -0.00000821    0.00001281
     atom    6 type  3   force =    -0.00008213   -0.00031016   -0.00001879
     atom    7 type  3   force =     0.00025917    0.00020371   -0.00013845
     atom    8 type  3   force =     0.00024960    0.00019649    0.00013746
     atom    9 type  3   force =     0.00041269   -0.00013122   -0.00000815
     atom   10 type  3   force =     0.00010439    0.00042062   -0.00001101
     atom   11 type  3   force =    -0.00023988   -0.00017826    0.00036958
     atom   12 type  3   force =    -0.00024440   -0.00019072   -0.00036298

     Total force =     0.097776     Total SCF correction =     0.001224

     Computing stress (Cartesian axis) and pressure

     negative rho (up, down):  1.952E-01 0.000E+00
          total   stress  (Ry/bohr**3)                   (kbar)     P=     -387.33
  -0.00259826  -0.00000883  -0.00000000         -382.22       -1.30       -0.00
  -0.00000883  -0.00302633  -0.00000000           -1.30     -445.19       -0.00
  -0.00000000  -0.00000000  -0.00227443           -0.00       -0.00     -334.58

     kinetic stress (kbar)  25947.21    -15.47      0.00
                              -15.47  25941.51      0.00
                                0.00      0.00  26018.28

     local   stress (kbar)  -8613.50    891.02     -1.43
                              891.02  -9386.94     41.84
                               -1.43     41.84  -9957.95

     nonloc. stress (kbar)  10105.71     30.06      0.00
                               30.06  10098.62      0.00
                                0.00      0.00  10096.81

     hartree stress (kbar)   6566.80   -226.43      0.39
                             -226.43   6751.23     -3.71
                                0.39     -3.71   6898.41

     exc-cor stress (kbar)  -2066.26     -2.04      0.14
                               -2.04  -2064.95     -0.09
                                0.14     -0.09  -2063.78

     corecor stress (kbar)  -4098.52      0.67      1.29
                                0.67  -4100.60     -0.84
                                1.29     -0.84  -4103.19

     ewald   stress (kbar) -28223.65   -679.12      0.00
                             -679.12 -27684.07      0.00
                                0.00      0.00 -27223.16

     hubbard stress (kbar)      0.00      0.00      0.00
                                0.00      0.00      0.00
                                0.00      0.00      0.00

     DFT-D   stress (kbar)      0.00      0.00      0.00
                                0.00      0.00      0.00
                                0.00      0.00      0.00

     XDM     stress (kbar)      0.00      0.00      0.00
                                0.00      0.00      0.00
                                0.00      0.00      0.00

     dft-nl  stress (kbar)      0.00      0.00      0.00
                                0.00      0.00      0.00
                                0.00      0.00      0.00

     TS-vdW  stress (kbar)      0.00      0.00      0.00
                                0.00      0.00      0.00
                                0.00      0.00      0.00

[...]

                                0.00      0.00      0.00

     Writing all to output data dir new_calculations/myprefix.save/

     General routines

     Parallel routines

     PAW routines

   This run was terminated on:   7:44:31  21May2023

   JOB DONE.