     Program PWSCF v.7.0 starts on 21May2023 at 19:37:56

     Reading input from espresso_27067.pwi
Warning: card &CELL ignored
Warning: card / ignored

     Current dimensions of program PWSCF are:
     Max number of different atomic species (ntypx) = 10
     Max number of k-points (npk) =  40000
     Max angular momentum in pseudopotentials (lmaxx) =  4
     file Ga.pbe-dn-kjpaw_psl.1.0.0.UPF: wavefunction(s)  4S renormalized

     gamma-point specific algorithms are used
     Message from routine setup:
     using ibrav=0 with symmetry is DISCOURAGED, use correct ibrav instead

     Subspace diagonalization in iterative solution of the eigenvalue problem:
     a serial algorithm will be used

     Using Slab Decomposition

     bravais-lattice index     =            0
     lattice parameter (alat)  =      14.4742  a.u.
     unit-cell volume          =    1713.3997 (a.u.)^3
     number of atoms/cell      =            8
     number of atomic types    =            3
     number of electrons       =        88.00
     number of Kohn-Sham states=           53
     kinetic-energy cutoff     =      30.0000  Ry
     charge density cutoff     =     240.0000  Ry
     scf convergence threshold =      1.0E-06
     mixing beta               =       0.7000
     number of iterations used =            8  plain     mixing
     Exchange-correlation= SLA  PW   PBE  PBE
                           (   1   4   3   4   0   0   0)

     celldm(1)=  14.474189  celldm(2)=   0.000000  celldm(3)=   0.000000
     celldm(4)=   0.000000  celldm(5)=   0.000000  celldm(6)=   0.000000

     crystal axes: (cart. coord. in units of alat)
               a(1) = (   1.000000   0.000000   0.000000 )
               a(2) = (   0.298849   0.954300   0.000000 )
               a(3) = (  -0.649424  -0.477150   0.592094 )

     reciprocal axes: (cart. coord. in units 2 pi/alat)
               b(1) = (  1.000000 -0.313160  0.844460 )
               b(2) = (  0.000000  1.047888  0.844460 )
               b(3) = (  0.000000  0.000000  1.688920 )

     PseudoPot. # 1 for Ga read from file:
     /home/pragov/projects/rrg-bengioy-ad/pragov/crystal_structure_design/SSSP/Ga.pbe-dn-kjpaw_psl.1.0.0.UPF
     MD5 check sum: a27b4342b1af7e5f338de752e9ed7044
     Pseudo is Projector augmented-wave + core cor, Zval = 13.0
     Generated using "atomic" code by A. Dal Corso  v.5.1
     Shape of augmentation charge: PSQ
     Using radial grid of 1205 points,  6 beta functions with:
                l(1) =   0
                l(2) =   0
                l(3) =   1
                l(4) =   1
                l(5) =   2
                l(6) =   2
     Q(r) pseudized with 0 coefficients

     PseudoPot. # 2 for Ag read from file:
     /home/pragov/projects/rrg-bengioy-ad/pragov/crystal_structure_design/SSSP/Ag_ONCV_PBE-1.0.oncvpsp.upf
     MD5 check sum: 94f47bd0669c641108e45594df92fabc
     Pseudo is Norm-conserving, Zval = 19.0
     Generated using ONCVPSP code by D. R. Hamann
     Using radial grid of 1398 points,  6 beta functions with:
                l(1) =   0
                l(2) =   0
                l(3) =   1
                l(4) =   1
                l(5) =   2
                l(6) =   2

     PseudoPot. # 3 for Te read from file:
     /home/pragov/projects/rrg-bengioy-ad/pragov/crystal_structure_design/SSSP/Te_pbe_v1.uspp.F.UPF
     MD5 check sum: c319670d6894cc26e93307826a071b75
     Pseudo is Ultrasoft + core correction, Zval =  6.0
     Generated by new atomic code, or converted to UPF format
     Using radial grid of  891 points,  5 beta functions with:
                l(1) =   0
                l(2) =   0
                l(3) =   1
                l(4) =   1
                l(5) =   2
     Q(r) pseudized with  6 coefficients,  rinner =    1.800   1.800   1.800
                                                       1.800   1.800

     atomic species   valence    mass     pseudopotential
        Ga            13.00    69.72300     Ga( 1.00)
        Ag            19.00   107.86820     Ag( 1.00)
        Te             6.00   127.60000     Te( 1.00)

      2 Sym. Ops. (no inversion) found ( 1 have fractional translation)

                                    s                        frac. trans.

      isym =  1     identity

 cryst.   s( 1) = (     1          0          0      )
                  (     0          1          0      )
                  (     0          0          1      )

 cart.    s( 1) = (  1.0000000  0.0000000  0.0000000 )
                  (  0.0000000  1.0000000  0.0000000 )
                  (  0.0000000  0.0000000  1.0000000 )

      isym =  2     inv. 180 deg rotation - cart. axis [0,0,1]

 cryst.   s( 2) = (     1          0          0      )    f =(  0.2500000 )
                  (     0          1          0      )       ( -0.2500000 )
                  (    -1         -1         -1      )       ( -0.5000000 )

 cart.    s( 2) = (  1.0000000  0.0000000 -0.0000000 )    f =(  0.5000000 )
                  (  0.0000000  1.0000000 -0.0000000 )       ( -0.0000000 )
                  (  0.0000000  0.0000000 -1.0000000 )       ( -0.2960471 )

   Cartesian axes

     site n.     atom                  positions (alat units)
         1           Ga  tau(   1) = (   0.6494244   0.4771502   0.0000000  )
         2           Ga  tau(   2) = (   0.1494244   0.4771502   0.2960471  )
         3           Ag  tau(   3) = (   0.0000000   0.0000000   0.0000000  )
         4           Ag  tau(   4) = (   0.5000000   0.0000000   0.2960471  )
         5           Te  tau(   5) = (  -0.1564643  -0.1273065   0.3059978  )
         6           Te  tau(   6) = (   0.9811766   0.3658817   0.0099507  )
         7           Te  tau(   7) = (  -0.0070399   0.3498437   0.5821435  )
         8           Te  tau(   8) = (   0.4811766   0.3658817   0.2860964  )

   Crystallographic axes

     site n.     atom                  positions (cryst. coord.)
         1           Ga  tau(   1) = (  0.5000000  0.5000000  0.0000000  )
         2           Ga  tau(   2) = (  0.2500000  0.7500000  0.5000000  )
         3           Ag  tau(   3) = (  0.0000000  0.0000000  0.0000000  )
         4           Ag  tau(   4) = (  0.7500000  0.2500000  0.5000000  )
         5           Te  tau(   5) = (  0.1418060  0.1250000  0.5168060  )
         6           Te  tau(   6) = (  0.8750000  0.3918060  0.0168060  )
         7           Te  tau(   7) = (  0.3750000  0.8581940  0.9831940  )
         8           Te  tau(   8) = (  0.6081940  0.6250000  0.4831940  )

     number of k points=     1  Methfessel-Paxton smearing, width (Ry)=  0.0010
                       cart. coord. in units 2pi/alat
        k(    1) = (   0.0000000   0.0000000   0.0000000), wk =   2.0000000

                       cryst. coord.
        k(    1) = (   0.0000000   0.0000000   0.0000000), wk =   2.0000000

     Initial potential from superposition of free atoms

     starting charge      87.9926, renormalised to      88.0000
     Starting wfcs are   54 randomized atomic wfcs
     Checking if some PAW data can be deallocated...

     Self-consistent Calculation

     iteration #  1     ecut=    30.00 Ry     beta= 0.70
     Davidson diagonalization with overlap

     ethr =  1.00E-02,  avg # of iterations =  5.0

     Threshold (ethr) on eigenvalues was too large:
     Diagonalizing with lowered threshold

     Davidson diagonalization with overlap

[...]

     total energy              =   -1235.02455260 Ry
     estimated scf accuracy    <       0.32596335 Ry

[...]

     total energy              =   -1235.16736294 Ry
     estimated scf accuracy    <       0.00000506 Ry

     iteration # 12     ecut=    30.00 Ry     beta= 0.70
     Davidson diagonalization with overlap

     ethr =  5.75E-09,  avg # of iterations =  5.0

     End of self-consistent calculation

          k = 0.0000 0.0000 0.0000 (  2407 PWs)   bands (ev):

   -87.8443 -87.6538 -50.6552 -50.5825 -50.5671 -50.4573 -50.4235 -50.3993
    -9.7637  -9.7285  -9.7223  -9.7136  -9.7050  -9.6638  -9.6136  -9.5970
    -9.5248  -9.4263  -5.9561  -4.7381  -4.7212  -4.6971  -1.0207   0.5852
     1.2667   1.3266   1.4577   1.6025   1.6462   1.7303   1.7842   2.0023
     2.1549   2.2816   2.4773   2.7093   2.7447   3.2171   3.6837   4.0500
     4.0954   5.6908   5.8383   6.0527   6.0664   7.8127   8.0824   9.2175
     9.2331   9.6413   9.6644  10.0434  10.7049

     occupation numbers
     1.0000   1.0000   1.0000   1.0000   1.0000   1.0000   1.0000   1.0000
     1.0000   1.0000   1.0000   1.0000   1.0000   1.0000   1.0000   1.0000
     1.0000   1.0000   1.0000   1.0000   1.0000   1.0000   1.0000   1.0000
     1.0000   1.0000   1.0000   1.0000   1.0000   1.0000   1.0000   1.0000
     1.0000   1.0000   1.0000   1.0000   1.0000   1.0000   1.0000   1.0000
     1.0000   1.0000   1.0000   0.8704   0.1296  -0.0000  -0.0000  -0.0000
    -0.0000  -0.0000  -0.0000  -0.0000  -0.0000

     the Fermi energy is     6.0596 ev

!    total energy              =   -1235.16736604 Ry
     estimated scf accuracy    <       0.00000036 Ry
     smearing contrib. (-TS)   =      -0.00021909 Ry
     internal energy E=F+TS    =   -1235.16714695 Ry

     The total energy is F=E-TS. E is the sum of the following terms:
     one-electron contribution =    -709.56965762 Ry
     hartree contribution      =     391.15586032 Ry
     xc contribution           =    -187.49519750 Ry
     ewald contribution        =    -507.49592544 Ry
     one-center paw contrib.   =    -221.76222671 Ry
      -> PAW hartree energy AE =     280.43268086 Ry
      -> PAW hartree energy PS =    -275.91380705 Ry
      -> PAW xc energy AE      =    -301.36917064 Ry
      -> PAW xc energy PS      =      75.08807011 Ry
      -> total E_H with PAW    =     395.67473414 Ry
      -> total E_XC with PAW   =    -413.77629803 Ry

     convergence has been achieved in  12 iterations

     Forces acting on atoms (cartesian axes, Ry/au):

     atom    1 type  1   force =     0.00715718   -0.00519676   -0.00222975
     atom    2 type  1   force =     0.00715718   -0.00519676    0.00222975
     atom    3 type  2   force =    -0.00764935    0.00737547   -0.02063765
     atom    4 type  2   force =    -0.00764935    0.00737547    0.02063765
     atom    5 type  3   force =    -0.01470907    0.03578966   -0.06078760
     atom    6 type  3   force =     0.01520124   -0.03796837   -0.05970193
     atom    7 type  3   force =    -0.01470907    0.03578966    0.06078760
     atom    8 type  3   force =     0.01520124   -0.03796837    0.05970193
     The non-local contrib.  to forces
     atom    1 type  1   force =    -0.01538644    0.02465016   -0.00199315
     atom    2 type  1   force =    -0.01538644    0.02465016    0.00199315
     atom    3 type  2   force =    -0.01488308    0.02499952   -0.00656097
     atom    4 type  2   force =    -0.01488308    0.02499952    0.00656097
     atom    5 type  3   force =     0.01637225   -0.07038210    0.04250272
     atom    6 type  3   force =    -0.04583999    0.02501050    0.04234704
     atom    7 type  3   force =     0.01637225   -0.07038210   -0.04250272
     atom    8 type  3   force =    -0.04583999    0.02501050   -0.04234704
     The ionic contribution  to forces
     atom    1 type  1   force =    -0.00000000   -0.00000000   -0.00000000
     atom    2 type  1   force =    -0.00000000   -0.00000000   -0.00000000
     atom    3 type  2   force =    -0.00000000   -0.00000000   -0.00000000
     atom    4 type  2   force =    -0.00000000   -0.00000000   -0.00000000
     atom    5 type  3   force =     0.66488687   -0.90494305    1.12294099
     atom    6 type  3   force =    -0.66488686    0.90494305    1.12294099
     atom    7 type  3   force =     0.66488687   -0.90494305   -1.12294099
     atom    8 type  3   force =    -0.66488687    0.90494305   -1.12294099
     The local contribution  to forces
     atom    1 type  1   force =     0.02257645   -0.02952170    0.00926590
     atom    2 type  1   force =     0.02276765   -0.03380003    0.00940928
     atom    3 type  2   force =     0.01177536   -0.00179094   -0.03446750
     atom    4 type  2   force =     0.00210967   -0.03563605   -0.00658812
     atom    5 type  3   force =    -0.70021527    1.01020399   -1.23511081
     atom    6 type  3   force =     0.72509766   -0.96825856   -1.22383372
     atom    7 type  3   force =    -0.69363436    1.02277438    1.22997636
     atom    8 type  3   force =     0.73367864   -0.97812306    1.23807331
     The core correction contribution to forces
     atom    1 type  1   force =    -0.00063002    0.00014260   -0.00014212
     atom    2 type  1   force =    -0.00061743   -0.00018403    0.00019684
     atom    3 type  2   force =     0.00000000    0.00000000    0.00000000
     atom    4 type  2   force =     0.00000000    0.00000000    0.00000000
     atom    5 type  3   force =     0.00067616   -0.00688431    0.00650104
     atom    6 type  3   force =    -0.00360673    0.00269407    0.00510910
     atom    7 type  3   force =     0.00004100   -0.00816034   -0.00608837
     atom    8 type  3   force =    -0.00456237    0.00359742   -0.00686477
     The Hubbard contrib.    to forces
     atom    1 type  1   force =     0.00000000    0.00000000    0.00000000
     atom    2 type  1   force =     0.00000000    0.00000000    0.00000000
     atom    3 type  2   force =     0.00000000    0.00000000    0.00000000
     atom    4 type  2   force =     0.00000000    0.00000000    0.00000000
     atom    5 type  3   force =     0.00000000    0.00000000    0.00000000
     atom    6 type  3   force =     0.00000000    0.00000000    0.00000000
     atom    7 type  3   force =     0.00000000    0.00000000    0.00000000
     atom    8 type  3   force =     0.00000000    0.00000000    0.00000000
     The SCF correction term to forces
     atom    1 type  1   force =     0.00003019   -0.00028356   -0.00004188
     atom    2 type  1   force =    -0.00039718   -0.00042071   -0.00005099
     atom    3 type  2   force =     0.00012552   -0.00089274   -0.00015228
     atom    4 type  2   force =    -0.00090065   -0.00130196    0.00012169
     atom    5 type  3   force =    -0.00010867   -0.00003381    0.00005274
     atom    6 type  3   force =    -0.00004772   -0.00002408   -0.00006835
     atom    7 type  3   force =    -0.00005282   -0.00004388    0.00001762
     atom    8 type  3   force =    -0.00006086   -0.00010323   -0.00002159

     Total force =     0.148670     Total SCF correction =     0.001955

     Computing stress (Cartesian axis) and pressure

          total   stress  (Ry/bohr**3)                   (kbar)     P=     -271.58
  -0.00153630  -0.00041918   0.00000000         -226.00      -61.66        0.00
  -0.00041918  -0.00214275   0.00000000          -61.66     -315.21        0.00
   0.00000000   0.00000000  -0.00185946            0.00        0.00     -273.54

     kinetic stress (kbar)  13657.38    -38.93     -0.00
                              -38.93  13494.04     -0.00
                               -0.00     -0.00  13561.35

     local   stress (kbar)  -4082.62    131.95     15.94
                              131.95  -4090.09      3.41
                               15.94      3.41  -4186.80

     nonloc. stress (kbar)  -2837.32     56.79      0.00
                               56.79  -2874.38      0.00
                                0.00      0.00  -2967.99

     hartree stress (kbar)  11183.58    -28.56     -4.40
                              -28.56  11182.57     -3.16
                               -4.40     -3.16  11216.80

     exc-cor stress (kbar)   2760.81     -2.24      0.01
                               -2.24   2762.22     -0.13
                                0.01     -0.13   2764.49

     corecor stress (kbar)  -6258.32      9.08      0.56
                                9.08  -6258.91      0.41
                                0.56      0.41  -6270.15

     ewald   stress (kbar) -14649.51   -189.76     -0.00
                             -189.76 -14530.66     -0.00
                               -0.00     -0.00 -14391.24

     hubbard stress (kbar)      0.00      0.00      0.00
                                0.00      0.00      0.00
                                0.00      0.00      0.00

     DFT-D   stress (kbar)      0.00      0.00      0.00
                                0.00      0.00      0.00
                                0.00      0.00      0.00

     XDM     stress (kbar)      0.00      0.00      0.00
                                0.00      0.00      0.00
                                0.00      0.00      0.00

     dft-nl  stress (kbar)      0.00      0.00      0.00
                                0.00      0.00      0.00
                                0.00      0.00      0.00

     TS-vdW  stress (kbar)      0.00      0.00      0.00
                                0.00      0.00      0.00
                                0.00      0.00      0.00

[...]

                                0.00      0.00      0.00

     Writing all to output data dir new_calculations/myprefix.save/

     General routines

     Parallel routines

     PAW routines

   This run was terminated on:  19:38:19  21May2023

   JOB DONE.