     Program PWSCF v.7.0 starts on 20May2023 at  8:34:23

     Reading input from espresso_18167.pwi
Warning: card &CELL ignored
Warning: card / ignored

     Current dimensions of program PWSCF are:
     Max number of different atomic species (ntypx) = 10
     Max number of k-points (npk) =  40000
     Max angular momentum in pseudopotentials (lmaxx) =  4

     gamma-point specific algorithms are used
     Message from routine setup:
     using ibrav=0 with symmetry is DISCOURAGED, use correct ibrav instead

     Subspace diagonalization in iterative solution of the eigenvalue problem:
     a serial algorithm will be used

     Using Slab Decomposition

     bravais-lattice index     =            0
     lattice parameter (alat)  =      15.8608  a.u.
     unit-cell volume          =    1347.2764 (a.u.)^3
     number of atoms/cell      =            9
     number of atomic types    =            3
     number of electrons       =        96.00
     number of Kohn-Sham states=           58
     kinetic-energy cutoff     =      30.0000  Ry
     charge density cutoff     =     240.0000  Ry
     scf convergence threshold =      1.0E-06
     mixing beta               =       0.7000
     number of iterations used =            8  plain     mixing
     Exchange-correlation=  SLA  PW   PBX  PBC
                           (   1   4   3   4   0   0   0)

     celldm(1)=  15.860806  celldm(2)=   0.000000  celldm(3)=   0.000000
     celldm(4)=   0.000000  celldm(5)=   0.000000  celldm(6)=   0.000000

     crystal axes: (cart. coord. in units of alat)
               a(1) = (   1.000000   0.000000   0.000000 )
               a(2) = (   0.640523   0.595018   0.000000 )
               a(3) = (   0.359477  -0.178919   0.567481 )

     reciprocal axes: (cart. coord. in units 2 pi/alat)
               b(1) = (  1.000000 -1.076477 -0.972861 )
               b(2) = (  0.000000  1.680622  0.529879 )
               b(3) = (  0.000000  0.000000  1.762175 )

     PseudoPot. # 1 for Rb read from file:
     /home/pragov/projects/rrg-bengioy-ad/pragov/crystal_structure_design/SSSP/Rb_ONCV_PBE-1.0.oncvpsp.upf
     MD5 check sum: 55a5172d6bfbce6759a58e35d43f6aa9
     Pseudo is Norm-conserving, Zval =  9.0
     Generated using ONCVPSP code by D. R. Hamann
     Using radial grid of 2308 points,  6 beta functions with:
                l(1) =   0
                l(2) =   0
                l(3) =   1
                l(4) =   1
                l(5) =   2
                l(6) =   2

     PseudoPot. # 2 for Ni read from file:
     /home/pragov/projects/rrg-bengioy-ad/pragov/crystal_structure_design/SSSP/ni_pbe_v1.4.uspp.F.UPF
     MD5 check sum: 1ee80287db30b12d2bc1f57a5b5d6409
     Pseudo is Ultrasoft + core correction, Zval = 18.0
     Generated by new atomic code, or converted to UPF format
     Using radial grid of  865 points,  6 beta functions with:
                l(1) =   0
                l(2) =   0
                l(3) =   1
                l(4) =   1
                l(5) =   2
                l(6) =   2
     Q(r) pseudized with 10 coefficients,  rinner =    0.980   0.980   0.980
                                                       0.980   0.980

     PseudoPot. # 3 for S  read from file:
     /home/pragov/projects/rrg-bengioy-ad/pragov/crystal_structure_design/SSSP/s_pbe_v1.4.uspp.F.UPF
     MD5 check sum: 88d86576ff6df21479756cfb9bdac1df
     Pseudo is Ultrasoft + core correction, Zval =  6.0
     Generated by new atomic code, or converted to UPF format
     Using radial grid of  907 points,  6 beta functions with:
                l(1) =   0
                l(2) =   0
                l(3) =   1
                l(4) =   1
                l(5) =   2
                l(6) =   2
     Q(r) pseudized with  8 coefficients,  rinner =    1.300   1.300   1.300
                                                       1.300   1.300

     atomic species   valence    mass     pseudopotential
        Rb             9.00    85.46780     Rb( 1.00)
        Ni            18.00    58.69340     Ni( 1.00)
        S              6.00    32.06000     S ( 1.00)

      2 Sym. Ops., with inversion, found

                                    s                        frac. trans.

      isym =  1     identity

 cryst.   s( 1) = (     1          0          0      )
                  (     0          1          0      )
                  (     0          0          1      )

 cart.    s( 1) = (  1.0000000 -0.0000000  0.0000000 )
                  (  0.0000000  1.0000000 -0.0000000 )
                  (  0.0000000  0.0000000  1.0000000 )

      isym =  2     inversion

 cryst.   s( 2) = (    -1          0          0      )
                  (     0         -1          0      )
                  (     0          0         -1      )

 cart.    s( 2) = ( -1.0000000  0.0000000 -0.0000000 )
                  (  0.0000000 -1.0000000  0.0000000 )
                  (  0.0000000  0.0000000 -1.0000000 )

   Cartesian axes

     site n.     atom                  positions (alat units)
         1           Rb  tau(   1) = (   1.2030292   0.3307083   0.1938020  )
         2           Rb  tau(   2) = (   0.7969708   0.0853903   0.3736786  )
         3           Ni  tau(   3) = (   0.0000000   0.0000000   0.0000000  )
         4           Ni  tau(   4) = (   0.1797384  -0.0894597   0.2837403  )
         5           Ni  tau(   5) = (   0.8202616   0.2975089   0.0000000  )
         6           S   tau(   6) = (   0.6243668   0.3830976   0.1553881  )
         7           S   tau(   7) = (   0.8972565   0.5479625   0.0345028  )
         8           S   tau(   8) = (   1.1027435  -0.1318640   0.5329777  )
         9           S   tau(   9) = (   1.3756332   0.0330009   0.4120924  )

   Crystallographic axes

     site n.     atom                  positions (cryst. coord.)
         1           Rb  tau(   1) = (  0.6584870  0.6584870  0.3415130  )
         2           Rb  tau(   2) = (  0.3415130  0.3415130  0.6584870  )
         3           Ni  tau(   3) = (  0.0000000  0.0000000  0.0000000  )
         4           Ni  tau(   4) = (  0.0000000 -0.0000000  0.5000000  )
         5           Ni  tau(   5) = (  0.5000000  0.5000000  0.0000000  )
         6           S   tau(   6) = (  0.0608000  0.7261790  0.2738210  )
         7           S   tau(   7) = (  0.2738210  0.9392000  0.0608000  )
         8           S   tau(   8) = (  0.7261790  0.0608000  0.9392000  )
         9           S   tau(   9) = (  0.9392000  0.2738210  0.7261790  )

     number of k points=     1  Methfessel-Paxton smearing, width (Ry)=  0.0010
                       cart. coord. in units 2pi/alat
        k(    1) = (   0.0000000   0.0000000   0.0000000), wk =   2.0000000

                       cryst. coord.
        k(    1) = (   0.0000000   0.0000000   0.0000000), wk =   2.0000000

     Check: negative core charge=   -0.000003

     Initial potential from superposition of free atoms

     starting charge      89.9503, renormalised to      96.0000
     Starting wfcs are   65 randomized atomic wfcs

     Self-consistent Calculation

     iteration #  1     ecut=    30.00 Ry     beta= 0.70
     Davidson diagonalization with overlap

     ethr =  1.00E-02,  avg # of iterations =  7.0

     total energy              =   -1148.95016057 Ry
     estimated scf accuracy    <     102.60070609 Ry

[...]

     total energy              =   -1224.21679507 Ry
     estimated scf accuracy    <       0.00000342 Ry

     iteration # 17     ecut=    30.00 Ry     beta= 0.70
     Davidson diagonalization with overlap

     ethr =  3.57E-09,  avg # of iterations =  2.0

     End of self-consistent calculation

          k = 0.0000 0.0000 0.0000 (  1868 PWs)   bands (ev):

   -96.2760 -96.0816 -95.8843 -56.8959 -56.8020 -56.5336 -56.4697 -56.3847
   -56.0203 -55.8756 -55.7559 -55.0883 -19.6761 -19.6253  -7.0346  -6.9006
    -6.7276  -5.3010  -3.9851  -3.9589  -3.7588  -3.7237  -3.5525  -3.3829
     1.3171   1.6115   1.8335   3.0612   3.1342   3.2671   3.4600   3.5173
     3.7350   4.4931   4.6594   5.1368   5.4525   5.4599   5.7419   5.8528
     6.0607   6.0785   6.1221   6.2527   6.6444   6.7627   7.0148   7.5054
     8.5168   8.6072   9.3305  10.0649  11.0176  11.3085  11.9135  12.7750
    12.8214  12.8515

     occupation numbers
     1.0000   1.0000   1.0000   1.0000   1.0000   1.0000   1.0000   1.0000
     1.0000   1.0000   1.0000   1.0000   1.0000   1.0000   1.0000   1.0000
     1.0000   1.0000   1.0000   1.0000   1.0000   1.0000   1.0000   1.0000
     1.0000   1.0000   1.0000   1.0000   1.0000   1.0000   1.0000   1.0000
     1.0000   1.0000   1.0000   1.0000   1.0000   1.0000   1.0000   1.0000
     1.0000   1.0000   1.0000   1.0000   1.0000   1.0000   1.0000   1.0000
    -0.0000  -0.0000  -0.0000  -0.0000  -0.0000  -0.0000  -0.0000  -0.0000
    -0.0000  -0.0000

     the Fermi energy is     7.8595 ev

!    total energy              =   -1224.21679477 Ry
     estimated scf accuracy    <       0.00000088 Ry
     smearing contrib. (-TS)   =       0.00000000 Ry
     internal energy E=F+TS    =   -1224.21679477 Ry

     The total energy is F=E-TS. E is the sum of the following terms:
     one-electron contribution =   -1256.84270117 Ry
     hartree contribution      =     661.00524075 Ry
     xc contribution           =    -155.69175283 Ry
     ewald contribution        =    -472.68758151 Ry

     convergence has been achieved in  17 iterations

     Forces acting on atoms (cartesian axes, Ry/au):

     atom    1 type  1   force =     0.00423139    0.00338687   -0.00738844
     atom    2 type  1   force =    -0.00423139   -0.00338687    0.00738844
     atom    3 type  2   force =     0.00000000    0.00000000    0.00000000
     atom    4 type  2   force =     0.00000000    0.00000000    0.00000000
     atom    5 type  2   force =     0.00000000    0.00000000    0.00000000
     atom    6 type  3   force =    -0.09161098    0.03304705   -0.11160840
     atom    7 type  3   force =    -0.05885340    0.02691511   -0.17261400
     atom    8 type  3   force =     0.05885340   -0.02691511    0.17261400
     atom    9 type  3   force =     0.09161098   -0.03304705    0.11160840
     The non-local contrib.  to forces
     atom    1 type  1   force =     0.02325762    0.01220058   -0.00909008
     atom    2 type  1   force =    -0.02325762   -0.01220058    0.00909008
     atom    3 type  2   force =     0.00000000    0.00000000    0.00000000
     atom    4 type  2   force =     0.00000000    0.00000000    0.00000000
     atom    5 type  2   force =     0.00000000    0.00000000    0.00000000
     atom    6 type  3   force =     0.10058435    0.12416779   -0.00492972
     atom    7 type  3   force =    -0.15694535   -0.06158727    0.07519472
     atom    8 type  3   force =     0.15694535    0.06158727   -0.07519472
     atom    9 type  3   force =    -0.10058435   -0.12416779    0.00492972
     The ionic contribution  to forces
     atom    1 type  1   force =     9.80052775    5.92093669   -4.34145827
     atom    2 type  1   force =    -9.80052775   -5.92093669    4.34145827
     atom    3 type  2   force =     0.00000000   -0.00000000   -0.00000000
     atom    4 type  2   force =     0.00000000    0.00000000    0.00000000
     atom    5 type  2   force =    -0.00000000    0.00000000   -0.00000000
     atom    6 type  3   force =   -17.81392334  -11.20586295    8.21656924
     atom    7 type  3   force =    18.34191360   10.63749355   -7.79981897
     atom    8 type  3   force =   -18.34191360  -10.63749355    7.79981897
     atom    9 type  3   force =    17.81392334   11.20586295   -8.21656924
     The local contribution  to forces
     atom    1 type  1   force =    -9.81926272   -5.92951951    4.34300186
     atom    2 type  1   force =     9.81940717    5.92969582   -4.34313344
     atom    3 type  2   force =    -0.00192396    0.00076862   -0.00056695
     atom    4 type  2   force =    -0.00031686   -0.00008159    0.00210327
     atom    5 type  2   force =    -0.00025714   -0.00202599   -0.00056588
     atom    6 type  3   force =    17.64500485   11.12064969   -8.30821885
     atom    7 type  3   force =   -18.24712491  -10.55761718    7.58248524
     atom    8 type  3   force =    18.24733662   10.55769821   -7.58262298
     atom    9 type  3   force =   -17.64534172  -11.12083608    8.30835368
     The core correction contribution to forces
     atom    1 type  1   force =     0.00000000    0.00000000    0.00000000
     atom    2 type  1   force =     0.00000000    0.00000000    0.00000000
     atom    3 type  2   force =    -0.00000127    0.00000041   -0.00000007
     atom    4 type  2   force =    -0.00000049   -0.00000050    0.00000166
     atom    5 type  2   force =    -0.00000078   -0.00000123   -0.00000007
     atom    6 type  3   force =    -0.02374215   -0.00629710   -0.01461817
     atom    7 type  3   force =     0.00390507    0.00884285   -0.03055471
     atom    8 type  3   force =    -0.00389640   -0.00883873    0.03055066
     atom    9 type  3   force =     0.02373677    0.00629560    0.01461927
     The Hubbard contrib.    to forces
     atom    1 type  1   force =     0.00000000    0.00000000    0.00000000
     atom    2 type  1   force =     0.00000000    0.00000000    0.00000000
     atom    3 type  2   force =     0.00000000    0.00000000    0.00000000
     atom    4 type  2   force =     0.00000000    0.00000000    0.00000000
     atom    5 type  2   force =     0.00000000    0.00000000    0.00000000
     atom    6 type  3   force =     0.00000000    0.00000000    0.00000000
     atom    7 type  3   force =     0.00000000    0.00000000    0.00000000
     atom    8 type  3   force =     0.00000000    0.00000000    0.00000000
     atom    9 type  3   force =     0.00000000    0.00000000    0.00000000
     The SCF correction term to forces
     atom    1 type  1   force =    -0.00029542   -0.00023940    0.00016205
     atom    2 type  1   force =     0.00014266    0.00004607   -0.00002248
     atom    3 type  2   force =     0.00220148   -0.00091970    0.00069459
     atom    4 type  2   force =     0.00036460    0.00007494   -0.00242584
     atom    5 type  2   force =     0.00025099    0.00231512    0.00068396
     atom    6 type  3   force =     0.00045141    0.00038912   -0.00041724
     atom    7 type  3   force =    -0.00056549   -0.00020317    0.00004729
     atom    8 type  3   force =     0.00041774    0.00014538    0.00002963
     atom    9 type  3   force =    -0.00013695   -0.00020223    0.00026862

     Total force =     0.334690     Total SCF correction =     0.004416

     Computing stress (Cartesian axis) and pressure

          total   stress  (Ry/bohr**3)                   (kbar)     P=     -344.73
  -0.00258981  -0.00011260  -0.00038797         -380.97      -16.56      -57.07
  -0.00011260  -0.00273351  -0.00003825          -16.56     -402.11       -5.63
  -0.00038797  -0.00003825  -0.00170692          -57.07       -5.63     -251.10

     kinetic stress (kbar)  14706.77   -108.71     -7.92
                             -108.71  14768.96     15.30
                               -7.92     15.30  14839.05

     local   stress (kbar)    547.18  29970.56 -21921.99
                            29970.56 -30838.37 -13057.16
                           -21921.99 -13057.16 -38948.51

     nonloc. stress (kbar)   5989.32    -88.91     35.99
                              -88.91   6107.02     24.96
                               35.99     24.96   6132.69

     hartree stress (kbar)  12609.94 -14524.86  10642.91
                           -14524.86  27805.73   6326.79
                            10642.91   6326.79  31757.50

     exc-cor stress (kbar)  -2661.84     -0.89      0.05
                               -0.89  -2661.17     -0.11
                                0.05     -0.11  -2661.87

     corecor stress (kbar)  -2305.82     -0.49      2.28
                               -0.49  -2304.38      0.20
                                2.28      0.20  -2305.05

     ewald   stress (kbar) -29266.52 -15263.26  11191.61
                           -15263.26 -13279.92   6684.39
                            11191.61   6684.39  -9064.91

     hubbard stress (kbar)      0.00      0.00      0.00
                                0.00      0.00      0.00
                                0.00      0.00      0.00

     DFT-D   stress (kbar)      0.00      0.00      0.00
                                0.00      0.00      0.00
                                0.00      0.00      0.00

     XDM     stress (kbar)      0.00      0.00      0.00
                                0.00      0.00      0.00
                                0.00      0.00      0.00

     dft-nl  stress (kbar)      0.00      0.00      0.00
                                0.00      0.00      0.00
                                0.00      0.00      0.00

     TS-vdW  stress (kbar)      0.00      0.00      0.00
                                0.00      0.00      0.00
                                0.00      0.00      0.00

[...]

                                0.00      0.00      0.00

     Writing all to output data dir new_calculations/myprefix.save/

     General routines

     Parallel routines

   This run was terminated on:   8:34:57  20May2023

   JOB DONE.