     Program PWSCF v.7.0 starts on 21May2023 at  5:43:35

     Reading input from espresso_24438.pwi
Warning: card &CELL ignored
Warning: card / ignored

     Current dimensions of program PWSCF are:
     Max number of different atomic species (ntypx) = 10
     Max number of k-points (npk) =  40000
     Max angular momentum in pseudopotentials (lmaxx) =  4
     file O.pbe-n-kjpaw_psl.0.1.UPF: wavefunction(s)  2P renormalized

     gamma-point specific algorithms are used

     Subspace diagonalization in iterative solution of the eigenvalue problem:
     a serial algorithm will be used

     Using Slab Decomposition

     bravais-lattice index     =            0
     lattice parameter (alat)  =       7.3277  a.u.
     unit-cell volume          =    1571.9320 (a.u.)^3
     number of atoms/cell      =           16
     number of atomic types    =            5
     number of electrons       =       128.00
     number of Kohn-Sham states=           77
     kinetic-energy cutoff     =      30.0000  Ry
     charge density cutoff     =     240.0000  Ry
     scf convergence threshold =      1.0E-06
     mixing beta               =       0.7000
     number of iterations used =            8  plain     mixing
     Exchange-correlation= SLA  PW   PBX  PBC
                           (   1   4   3   4   0   0   0)

     celldm(1)=   7.327716  celldm(2)=   0.000000  celldm(3)=   0.000000
     celldm(4)=   0.000000  celldm(5)=   0.000000  celldm(6)=   0.000000

     crystal axes: (cart. coord. in units of alat)
               a(1) = (   1.000000   0.000000   0.000000 )
               a(2) = (  -0.001086   0.999999   0.000000 )
               a(3) = (   0.026969   0.026998   3.995104 )

     reciprocal axes: (cart. coord. in units 2 pi/alat)
               b(1) = (  1.000000  0.001086 -0.006758 )
               b(2) = (  0.000000  1.000001 -0.006758 )
               b(3) = (  0.000000  0.000000  0.250306 )

     PseudoPot. # 1 for Rb read from file:
     /home/pragov/projects/rrg-bengioy-ad/pragov/crystal_structure_design/SSSP/Rb_ONCV_PBE-1.0.oncvpsp.upf
     MD5 check sum: 55a5172d6bfbce6759a58e35d43f6aa9
     Pseudo is Norm-conserving, Zval =  9.0
     Generated using ONCVPSP code by D. R. Hamann
     Using radial grid of 2308 points,  6 beta functions with:
                l(1) =   0
                l(2) =   0
                l(3) =   1
                l(4) =   1
                l(5) =   2
                l(6) =   2

     PseudoPot. # 2 for La read from file:
     /home/pragov/projects/rrg-bengioy-ad/pragov/crystal_structure_design/SSSP/La.GGA-PBE-paw-v1.0.UPF
     MD5 check sum: 436541e95c1ad8901025bd0b0ed42ae2
     Pseudo is Projector augmented-wave + core cor, Zval = 11.0
     Generated using ATOMPAW code
     Shape of augmentation charge: BESSEL
     Using radial grid of 1101 points,  8 beta functions with:
                l(1) =   0
                l(2) =   0
                l(3) =   1
                l(4) =   1
                l(5) =   2
                l(6) =   2
                l(7) =   3
                l(8) =   3
     Q(r) pseudized with 0 coefficients

     PseudoPot. # 3 for Ta read from file:
     /home/pragov/projects/rrg-bengioy-ad/pragov/crystal_structure_design/SSSP/Ta_pbe_v1.uspp.F.UPF
     MD5 check sum: f8bbe9446314a3b8ea5d9f3e3836c939
     Pseudo is Ultrasoft + core correction, Zval = 13.0
     Generated by new atomic code, or converted to UPF format
     Using radial grid of  921 points,  7 beta functions with:
                l(1) =   0
                l(2) =   0
                l(3) =   1
                l(4) =   1
                l(5) =   2
                l(6) =   2
                l(7) =   3
     Q(r) pseudized with  6 coefficients,  rinner =    1.300   1.300   1.300
                                                       1.300   1.300   1.300
                                                       1.300

     PseudoPot. # 4 for Ti read from file:
     /home/pragov/projects/rrg-bengioy-ad/pragov/crystal_structure_design/SSSP/ti_pbe_v1.4.uspp.F.UPF
     MD5 check sum: 88a00a6731bd790ddea75d31a80cb452
     Pseudo is Ultrasoft + core correction, Zval = 12.0
     Generated by new atomic code, or converted to UPF format
     Using radial grid of  851 points,  6 beta functions with:
                l(1) =   0
                l(2) =   0
                l(3) =   1
                l(4) =   1
                l(5) =   2
                l(6) =   2
     Q(r) pseudized with  6 coefficients,  rinner =    1.000   1.000   1.000
                                                       1.000   1.000

     PseudoPot. # 5 for O  read from file:
     /home/pragov/projects/rrg-bengioy-ad/pragov/crystal_structure_design/SSSP/O.pbe-n-kjpaw_psl.0.1.UPF
     MD5 check sum: 0234752ac141de4415c5fc33072bef88
     Pseudo is Projector augmented-wave + core cor, Zval =  6.0
     Generated using "atomic" code by A. Dal Corso  v.5.0.99 svn rev. 10869
     Shape of augmentation charge: BESSEL
     Using radial grid of 1095 points,  4 beta functions with:
                l(1) =   0
                l(2) =   0
                l(3) =   1
                l(4) =   1
     Q(r) pseudized with 0 coefficients

     atomic species   valence    mass     pseudopotential
        Rb             9.00    85.46780     Rb( 1.00)
        La            11.00   138.90547     La( 1.00)
        Ta            13.00   180.94788     Ta( 1.00)
        Ti            12.00    47.86700     Ti( 1.00)
        O              6.00    15.99900     O ( 1.00)

     No symmetry found

                                    s                        frac. trans.

      isym =  1     identity

 cryst.   s( 1) = (     1          0          0      )
                  (     0          1          0      )
                  (     0          0          1      )

 cart.    s( 1) = (  1.0000000 -0.0000000  0.0000000 )
                  (  0.0000000  1.0000000  0.0000000 )
                  (  0.0000000  0.0000000  1.0000000 )

   Cartesian axes

     site n.     atom                  positions (alat units)
         1           Rb  tau(   1) = (   0.5131250   0.5136828   2.0277151  )
         2           La  tau(   2) = (   0.5154309   0.5159912   3.3659152  )
         3           La  tau(   3) = (   0.5024021   0.5029482   0.5218405  )
         4           Ta  tau(   4) = (   0.0079731   0.0079818   1.1358241  )
         5           Ti  tau(   5) = (   0.0421984   0.0422443   3.9870860  )
         6           Ti  tau(   6) = (   1.0177350   1.0188414   2.8337194  )
         7           O   tau(   7) = (   0.0338196   0.0338564   3.5060315  )
         8           O   tau(   8) = (   0.0153915   0.0154082   0.5256399  )
         9           O   tau(   9) = (   0.5197255   1.0199160   2.9837036  )
        10           O   tau(  10) = (   1.0193507   0.5208333   2.9837036  )
        11           O   tau(  11) = (   0.5091265   0.0100144   1.0144289  )
        12           O   tau(  12) = (   0.0094612   0.5091371   1.0144289  )
        13           O   tau(  13) = (   0.0171729   0.0171916   2.3962435  )
        14           O   tau(  14) = (   1.0077953   1.0088908   1.5990764  )
        15           O   tau(  15) = (   0.5265941   0.0518955   0.0339624  )
        16           O   tau(  16) = (   0.0513233   0.5266502   0.0339624  )

   Crystallographic axes

     site n.     atom                  positions (cryst. coord.)
         1           Rb  tau(   1) = (  0.4999800  0.4999800  0.5075500  )
         2           La  tau(   2) = (  0.4932450  0.4932450  0.8425100  )
         3           La  tau(   3) = (  0.4994220  0.4994220  0.1306200  )
         4           Ta  tau(   4) = (  0.0003060  0.0003060  0.2843040  )
         5           Ti  tau(   5) = (  0.0153000  0.0153000  0.9979930  )
         6           Ti  tau(   6) = (  0.9996920  0.9996920  0.7092980  )
         7           O   tau(   7) = (  0.0101630  0.0101630  0.8775820  )
         8           O   tau(   8) = (  0.0118560  0.0118560  0.1315710  )
         9           O   tau(   9) = (  0.5006700  0.9997530  0.7468400  )
        10           O   tau(  10) = (  0.9997530  0.5006700  0.7468400  )
        11           O   tau(  11) = (  0.5022820  0.0031590  0.2539180  )
        12           O   tau(  12) = (  0.0031590  0.5022820  0.2539180  )
        13           O   tau(  13) = (  0.0009980  0.0009980  0.5997950  )
        14           O   tau(  14) = (  0.9980850  0.9980850  0.4002590  )
        15           O   tau(  15) = (  0.5264210  0.0516660  0.0085010  )
        16           O   tau(  16) = (  0.0516660  0.5264210  0.0085010  )

     number of k points=     1  Methfessel-Paxton smearing, width (Ry)=  0.0010
                       cart. coord. in units 2pi/alat
        k(    1) = (   0.0000000   0.0000000   0.0000000), wk =   2.0000000

                       cryst. coord.
        k(    1) = (   0.0000000   0.0000000   0.0000000), wk =   2.0000000

     Check: negative core charge=   -0.000011

     Initial potential from superposition of free atoms

     starting charge     125.9570, renormalised to     128.0000

     negative rho (up, down):  9.669E-02 0.000E+00
     Starting wfcs are  142 randomized atomic wfcs
     Checking if some PAW data can be deallocated...

     Self-consistent Calculation

     iteration #  1     ecut=    30.00 Ry     beta= 0.70
     Davidson diagonalization with overlap

     ethr =  1.00E-02,  avg # of iterations =  2.0

     negative rho (up, down):  9.082E-02 0.000E+00

     total energy              =   -1290.53393830 Ry
     estimated scf accuracy    <     538.02349766 Ry

[...]

     c_bands:  5 eigenvalues not converged
     ethr =  6.25E-05,  avg # of iterations = 20.0

[...]

     c_bands:  1 eigenvalues not converged
     ethr =  6.25E-05,  avg # of iterations = 20.0

[...]

     total energy              =   -1762.73843699 Ry
     estimated scf accuracy    <       0.00000136 Ry

     iteration # 38     ecut=    30.00 Ry     beta= 0.70
     Davidson diagonalization with overlap

     ethr =  1.07E-09,  avg # of iterations =  6.0

[...]

     End of self-consistent calculation

          k = 0.0000 0.0000 0.0000 (  2178 PWs)   bands (ev):

   -60.0591 -48.4769 -47.9003 -26.7211 -26.7195 -26.3190 -24.8557 -24.8545
   -24.6330 -24.2072 -24.1911 -24.0666 -22.1734 -21.3800 -16.8344  -9.7919
    -9.7455  -9.0102  -8.6057  -8.3912  -7.8397  -7.7261  -7.5366  -7.2237
    -6.6002  -5.7347  -5.7295  -5.0501  -4.8986  -4.8753  -4.5621  -0.9963
    -0.7120  -0.7119   4.3407   4.5206   4.5236   4.6205   4.6250   4.7078
     5.2981   5.8261   5.8510   6.0798   6.0863   6.2841   6.2978   6.3316
     6.4407   6.5743   6.5825   6.6853   6.7171   6.7498   7.2814   7.2831
     7.4083   7.4442   7.5208   8.0317   8.1384   8.6245   8.7073   9.0471
     9.9207   9.9315  10.9721  11.7013  11.7254  11.9954  12.5260  12.6277
    12.6329  12.7049  12.8783  12.9003  12.9813

     occupation numbers
     1.0000   1.0000   1.0000   1.0000   1.0000   1.0000   1.0000   1.0000
     1.0000   1.0000   1.0000   1.0000   1.0000   1.0000   1.0000   1.0000
     1.0000   1.0000   1.0000   1.0000   1.0000   1.0000   1.0000   1.0000
     1.0000   1.0000   1.0000   1.0000   1.0000   1.0000   1.0000   1.0000
     1.0000   1.0000   1.0000   1.0000   1.0000   1.0000   1.0000   1.0000
     1.0000   1.0000   1.0000   1.0000   1.0000   1.0000   1.0000   1.0000
     1.0000   1.0000   1.0000   1.0000   1.0000   1.0000   1.0000   1.0000
     1.0000   1.0000   1.0000   1.0000   1.0000   1.0000   1.0000   1.0000
    -0.0000  -0.0000  -0.0000  -0.0000  -0.0000  -0.0000  -0.0000  -0.0000
    -0.0000  -0.0000  -0.0000  -0.0000  -0.0000

     the Fermi energy is     9.6809 ev

!    total energy              =   -1762.73843703 Ry
     estimated scf accuracy    <       0.00000076 Ry
     smearing contrib. (-TS)   =       0.00000000 Ry
     internal energy E=F+TS    =   -1762.73843703 Ry

     The total energy is F=E-TS. E is the sum of the following terms:
     one-electron contribution =    -586.01828907 Ry
     hartree contribution      =     363.31947475 Ry
     xc contribution           =    -178.43497154 Ry
     ewald contribution        =    -470.26073599 Ry
     one-center paw contrib.   =    -891.34391519 Ry
      -> PAW hartree energy AE =     373.47724774 Ry
      -> PAW hartree energy PS =    -372.45459751 Ry
      -> PAW xc energy AE      =    -983.53340523 Ry
      -> PAW xc energy PS      =      91.16683981 Ry
      -> total E_H with PAW    =     364.34212498 Ry
      -> total E_XC with PAW   =   -1070.80153696 Ry

     convergence has been achieved in  38 iterations

     negative rho (up, down):  9.792E-02 0.000E+00

     Forces acting on atoms (cartesian axes, Ry/au):

     atom    1 type  1   force =     0.00000717    0.00000994   -0.00377189
     atom    2 type  2   force =    -0.01765778   -0.01768052   -0.11880466
     atom    3 type  2   force =    -0.01813526   -0.01815737   -0.04925096
     atom    4 type  3   force =    -0.02074836   -0.02077627    0.50237011
     atom    5 type  4   force =    -0.27976290   -0.28015402   -0.23437109
     atom    6 type  4   force =    -0.00744226   -0.00744710   -0.29643446
     atom    7 type  5   force =     0.02109828    0.02112097    0.10264309
     atom    8 type  5   force =     0.00582893    0.00584221   -0.03685717
     atom    9 type  5   force =     0.00413602    0.00288307    0.18442979
     atom   10 type  5   force =     0.00287314    0.00413969    0.18448605
     atom   11 type  5   force =     0.01172715    0.01217822   -0.27856699
     atom   12 type  5   force =     0.01216263    0.01174754   -0.27858406
     atom   13 type  5   force =     0.00179112    0.00179468    0.05616782
     atom   14 type  5   force =     0.00099199    0.00099436   -0.03296274
     atom   15 type  5   force =     0.10237722    0.18097565    0.14978409
     atom   16 type  5   force =     0.18075290    0.10252895    0.14972307
     The non-local contrib.  to forces
     atom    1 type  1   force =     0.00008759    0.00008798   -0.00008661
     atom    2 type  2   force =     0.02112710    0.02115575    0.18248385
     atom    3 type  2   force =     0.03577489    0.03582400    0.03675913
     atom    4 type  3   force =    -0.00825324   -0.00826381    0.34172470
     atom    5 type  4   force =     0.01534381    0.01554350    0.05735669
     atom    6 type  4   force =     0.00340010    0.00339939    0.09857932
     atom    7 type  5   force =     0.01980690    0.01981745    0.31776584
     atom    8 type  5   force =     0.01270325    0.01272592   -0.02038822
     atom    9 type  5   force =     0.02636392   -0.00553659   -0.45359354
     atom   10 type  5   force =    -0.00557232    0.02635184   -0.45365359
     atom   11 type  5   force =     0.02785754   -0.00457006    1.09109302
     atom   12 type  5   force =    -0.00459355    0.02787293    1.09107528
     atom   13 type  5   force =     0.00757045    0.00757962    0.76258988
     atom   14 type  5   force =    -0.00147018   -0.00146317   -0.97527595
     atom   15 type  5   force =     0.23753914   -0.30834533   -0.33101962
     atom   16 type  5   force =    -0.30850364    0.23715748   -0.33093247
     The ionic contribution  to forces
     atom    1 type  1   force =     0.00138352    0.00138502   -2.56892011
     atom    2 type  2   force =     0.66549464    0.66621807  -13.46925162
     atom    3 type  2   force =     0.84639901    0.84731909   16.46688323
     atom    4 type  3   force =    -0.06278702   -0.06285528   38.80097661
     atom    5 type  4   force =    -0.12671591   -0.12685366   -3.14376650
     atom    6 type  4   force =     0.05316934    0.05322713  -32.77095664
     atom    7 type  5   force =    -0.45437279   -0.45486672  -12.45978038
     atom    8 type  5   force =    -0.26977136   -0.27006462   10.50359210
     atom    9 type  5   force =    -0.03872206   -0.09598949  -14.96684100
     atom   10 type  5   force =    -0.09594736   -0.03882632  -14.96684100
     atom   11 type  5   force =    -0.00848665   -0.05404271   15.62545260
     atom   12 type  5   force =    -0.05403345   -0.00854536   15.62545260
     atom   13 type  5   force =    -0.05438657   -0.05444569  -23.19721725
     atom   14 type  5   force =     0.03558358    0.03562226   22.43912152
     atom   15 type  5   force =    -0.65863991    0.22111755   -0.95895208
     atom   16 type  5   force =     0.22183301   -0.65839928   -0.95895208
     The local contribution  to forces
     atom    1 type  1   force =    -0.00145987   -0.00146066    2.56569198
     atom    2 type  2   force =    -0.70430037   -0.70508262   13.16675212
     atom    3 type  2   force =    -0.90033146   -0.90131007  -16.55306531
     atom    4 type  3   force =     0.05161154    0.05166163  -38.70705293
     atom    5 type  4   force =    -0.16070864   -0.16149953    2.86630455
     atom    6 type  4   force =    -0.06426437   -0.06432176   32.38019921
     atom    7 type  5   force =     0.45572894    0.45620683   12.24526752
     atom    8 type  5   force =     0.26302563    0.26329721  -10.51986088
     atom    9 type  5   force =     0.01676015    0.10427725   15.59826765
     atom   10 type  5   force =     0.10427363    0.01688192   15.59849374
     atom   11 type  5   force =    -0.00737324    0.07071983  -16.98117607
     atom   12 type  5   force =     0.07070421   -0.00730785  -16.98115413
     atom   13 type  5   force =     0.04868688    0.04873846   22.49570227
     atom   14 type  5   force =    -0.03312227   -0.03317636  -21.50272052
     atom   15 type  5   force =     0.52587226    0.26423054    1.43477980
     atom   16 type  5   force =     0.26315514    0.52608298    1.43448308
     The core correction contribution to forces
     atom    1 type  1   force =     0.00000000    0.00000000    0.00000000
     atom    2 type  2   force =     0.00001216    0.00001216   -0.00015238
     atom    3 type  2   force =     0.00001768    0.00001768    0.00003963
     atom    4 type  3   force =    -0.00131210   -0.00131385    0.06833124
     atom    5 type  4   force =    -0.00747394   -0.00751429   -0.01530505
     atom    6 type  4   force =     0.00024720    0.00024773   -0.00390579
     atom    7 type  5   force =    -0.00004549   -0.00004544   -0.00149438
     atom    8 type  5   force =    -0.00009221   -0.00009255   -0.00034937
     atom    9 type  5   force =    -0.00026849    0.00013539    0.00630166
     atom   10 type  5   force =     0.00013581   -0.00026822    0.00630292
     atom   11 type  5   force =    -0.00027436    0.00008563   -0.01351550
     atom   12 type  5   force =     0.00008575   -0.00027452   -0.01351512
     atom   13 type  5   force =    -0.00007620   -0.00007629   -0.00460660
     atom   14 type  5   force =     0.00001599    0.00001584    0.00674792
     atom   15 type  5   force =    -0.00237364    0.00412791    0.00450191
     atom   16 type  5   force =     0.00412822   -0.00236891    0.00450018
     The Hubbard contrib.    to forces
     atom    1 type  1   force =     0.00000000    0.00000000    0.00000000
     atom    2 type  2   force =     0.00000000    0.00000000    0.00000000
     atom    3 type  2   force =     0.00000000    0.00000000    0.00000000
     atom    4 type  3   force =     0.00000000    0.00000000    0.00000000
     atom    5 type  4   force =     0.00000000    0.00000000    0.00000000
     atom    6 type  4   force =     0.00000000    0.00000000    0.00000000
     atom    7 type  5   force =     0.00000000    0.00000000    0.00000000
     atom    8 type  5   force =     0.00000000    0.00000000    0.00000000
     atom    9 type  5   force =     0.00000000    0.00000000    0.00000000
     atom   10 type  5   force =     0.00000000    0.00000000    0.00000000
     atom   11 type  5   force =     0.00000000    0.00000000    0.00000000
     atom   12 type  5   force =     0.00000000    0.00000000    0.00000000
     atom   13 type  5   force =     0.00000000    0.00000000    0.00000000
     atom   14 type  5   force =     0.00000000    0.00000000    0.00000000
     atom   15 type  5   force =     0.00000000    0.00000000    0.00000000
     atom   16 type  5   force =     0.00000000    0.00000000    0.00000000
     The SCF correction term to forces
     atom    1 type  1   force =    -0.00000038   -0.00000159   -0.00045406
     atom    2 type  2   force =     0.00001238    0.00001692    0.00136645
     atom    3 type  2   force =     0.00000831   -0.00000727    0.00013545
     atom    4 type  3   force =    -0.00000384   -0.00000417   -0.00160642
     atom    5 type  4   force =    -0.00020453    0.00017077    0.00104231
     atom    6 type  4   force =     0.00000918    0.00000122   -0.00034747
     atom    7 type  5   force =    -0.00001558    0.00000966    0.00088758
     atom    8 type  5   force =    -0.00003268   -0.00002294    0.00015230
     atom    9 type  5   force =     0.00000619   -0.00000268    0.00029811
     atom   10 type  5   force =    -0.00001293    0.00000128    0.00018707
     atom   11 type  5   force =     0.00000755   -0.00001368   -0.00041795
     atom   12 type  5   force =     0.00000335    0.00000315   -0.00043960
     atom   13 type  5   force =     0.00000025   -0.00000061   -0.00029740
     atom   14 type  5   force =    -0.00001146   -0.00000340   -0.00083261
     atom   15 type  5   force =    -0.00001693   -0.00015422    0.00047717
     atom   16 type  5   force =     0.00014387    0.00005750    0.00062745

     Total force =     0.971080     Total SCF correction =     0.002951

     Computing stress (Cartesian axis) and pressure

     negative rho (up, down):  9.792E-02 0.000E+00
          total   stress  (Ry/bohr**3)                   (kbar)     P=     -196.50
  -0.00058680   0.00003526   0.00003831          -86.32        5.19        5.64
   0.00003526  -0.00058706   0.00003834            5.19      -86.36        5.64
   0.00003831   0.00003834  -0.00283352            5.64        5.64     -416.83

     kinetic stress (kbar)  19646.91    -26.43      7.83
                              -26.43  19646.88      7.85
                                7.83      7.85  19456.93

     local   stress (kbar) -35474.99    157.84    -68.81
                              157.84 -35474.88    -68.90
                              -68.81    -68.90  25335.11

     nonloc. stress (kbar)   3454.83      1.76     -1.00
                                1.76   3454.84     -1.00
                               -1.00     -1.00   3331.47

     hartree stress (kbar)  21234.82    -53.60     19.22
                              -53.60  21234.84     19.25
                               19.22     19.25  -8469.37

     exc-cor stress (kbar)   -862.81     -0.43      0.14
                               -0.43   -862.81      0.14
                                0.14      0.14   -850.31

     corecor stress (kbar)  -3792.86      0.22     -0.09
                                0.22  -3792.86     -0.09
                               -0.09     -0.09  -3797.15

     ewald   stress (kbar)  -4292.22    -74.17     48.35
                              -74.17  -4292.38     48.40
                               48.35     48.40 -35423.51

     hubbard stress (kbar)      0.00      0.00      0.00
                                0.00      0.00      0.00
                                0.00      0.00      0.00

     DFT-D   stress (kbar)      0.00      0.00      0.00
                                0.00      0.00      0.00
                                0.00      0.00      0.00

     XDM     stress (kbar)      0.00      0.00      0.00
                                0.00      0.00      0.00
                                0.00      0.00      0.00

     dft-nl  stress (kbar)      0.00      0.00      0.00
                                0.00      0.00      0.00
                                0.00      0.00      0.00

     TS-vdW  stress (kbar)      0.00      0.00      0.00
                                0.00      0.00      0.00
                                0.00      0.00      0.00

[...]

                                0.00      0.00      0.00

     Writing all to output data dir new_calculations/myprefix.save/

     General routines

     Parallel routines

     PAW routines

   This run was terminated on:   5:45: 1  21May2023

   JOB DONE.