     Program PWSCF v.7.0 starts on 21May2023 at  1:47:19

     Reading input from espresso_22379.pwi
Warning: card &CELL ignored
Warning: card / ignored

     Current dimensions of program PWSCF are:
     Max number of different atomic species (ntypx) = 10
     Max number of k-points (npk) =  40000
     Max angular momentum in pseudopotentials (lmaxx) =  4

     gamma-point specific algorithms are used
     Message from routine setup:
     using ibrav=0 with symmetry is DISCOURAGED, use correct ibrav instead

     Subspace diagonalization in iterative solution of the eigenvalue problem:
     a serial algorithm will be used

     Using Slab Decomposition

     bravais-lattice index     =            0
     lattice parameter (alat)  =      13.1455  a.u.
     unit-cell volume          =     592.2470 (a.u.)^3
     number of atoms/cell      =            4
     number of atomic types    =            3
     number of electrons       =        36.00
     number of Kohn-Sham states=           22
     kinetic-energy cutoff     =      30.0000  Ry
     charge density cutoff     =     240.0000  Ry
     scf convergence threshold =      1.0E-06
     mixing beta               =       0.7000
     number of iterations used =            8  plain     mixing
     Exchange-correlation= SLA  PW   PBE  PBE
                           (   1   4   3   4   0   0   0)

     celldm(1)=  13.145525  celldm(2)=   0.000000  celldm(3)=   0.000000
     celldm(4)=   0.000000  celldm(5)=   0.000000  celldm(6)=   0.000000

     crystal axes: (cart. coord. in units of alat)
               a(1) = (   1.000000   0.000000   0.000000 )
               a(2) = (   0.840789   0.541363   0.000000 )
               a(3) = (   0.840789   0.247270   0.481593 )

     reciprocal axes: (cart. coord. in units 2 pi/alat)
               b(1) = (  1.000000 -1.553095 -0.948425 )
               b(2) = (  0.000000  1.847188 -0.948425 )
               b(3) = (  0.000000  0.000000  2.076442 )

     PseudoPot. # 1 for Ag read from file:
     /home/pragov/projects/rrg-bengioy-ad/pragov/crystal_structure_design/SSSP/Ag_ONCV_PBE-1.0.oncvpsp.upf
     MD5 check sum: 94f47bd0669c641108e45594df92fabc
     Pseudo is Norm-conserving, Zval = 19.0
     Generated using ONCVPSP code by D. R. Hamann
     Using radial grid of 1398 points,  6 beta functions with:
                l(1) =   0
                l(2) =   0
                l(3) =   1
                l(4) =   1
                l(5) =   2
                l(6) =   2

     PseudoPot. # 2 for As read from file:
     /home/pragov/projects/rrg-bengioy-ad/pragov/crystal_structure_design/SSSP/As.pbe-n-rrkjus_psl.0.2.UPF
     MD5 check sum: 767315de957beeeb34f87d97bf945c8f
     Pseudo is Ultrasoft + core correction, Zval =  5.0
     Generated using "atomic" code by A. Dal Corso  v.5.0.99 svn rev. 10869
     Using radial grid of 1209 points,  4 beta functions with:
                l(1) =   0
                l(2) =   0
                l(3) =   1
                l(4) =   1
     Q(r) pseudized with 0 coefficients

     PseudoPot. # 3 for Se read from file:
     /home/pragov/projects/rrg-bengioy-ad/pragov/crystal_structure_design/SSSP/Se_pbe_v1.uspp.F.UPF
     MD5 check sum: 1b3568f3a8ae88f9a2a0ad0698632c85
     Pseudo is Ultrasoft + core correction, Zval =  6.0
     Generated by new atomic code, or converted to UPF format
     Using radial grid of  877 points,  6 beta functions with:
                l(1) =   0
                l(2) =   0
                l(3) =   1
                l(4) =   1
                l(5) =   2
                l(6) =   2
     Q(r) pseudized with  8 coefficients,  rinner =    1.300   1.300   1.300
                                                       1.300   1.300

     atomic species   valence    mass     pseudopotential
        Ag            19.00   107.86820     Ag( 1.00)
        As             5.00    74.92159     As( 1.00)
        Se             6.00    78.97100     Se( 1.00)

      2 Sym. Ops., with inversion, found

                                    s                        frac. trans.

      isym =  1     identity

 cryst.   s( 1) = (     1          0          0      )
                  (     0          1          0      )
                  (     0          0          1      )

 cart.    s( 1) = (  1.0000000  0.0000000  0.0000000 )
                  (  0.0000000  1.0000000 -0.0000000 )
                  (  0.0000000  0.0000000  1.0000000 )

      isym =  2     inversion

 cryst.   s( 2) = (    -1          0          0      )
                  (     0         -1          0      )
                  (     0          0         -1      )

 cart.    s( 2) = ( -1.0000000 -0.0000000 -0.0000000 )
                  (  0.0000000 -1.0000000  0.0000000 )
                  (  0.0000000  0.0000000 -1.0000000 )

   Cartesian axes

     site n.     atom                  positions (alat units)
         1           Ag  tau(   1) = (   1.3407887   0.3943169   0.2407965  )
         2           As  tau(   2) = (   0.0000000   0.0000000   0.0000000  )
         3           Se  tau(   3) = (   1.9986761   0.5877971   0.3589486  )
         4           Se  tau(   4) = (   0.6829012   0.2008366   0.1226444  )

   Crystallographic axes

     site n.     atom                  positions (cryst. coord.)
         1           Ag  tau(   1) = (  0.5000000  0.5000000  0.5000000  )
         2           As  tau(   2) = (  0.0000000  0.0000000  0.0000000  )
         3           Se  tau(   3) = (  0.7453360  0.7453360  0.7453360  )
         4           Se  tau(   4) = (  0.2546640  0.2546640  0.2546640  )

     number of k points=     1  Methfessel-Paxton smearing, width (Ry)=  0.0010
                       cart. coord. in units 2pi/alat
        k(    1) = (   0.0000000   0.0000000   0.0000000), wk =   2.0000000

                       cryst. coord.
        k(    1) = (   0.0000000   0.0000000   0.0000000), wk =   2.0000000

     Initial potential from superposition of free atoms

     starting charge      35.9993, renormalised to      36.0000
     Starting wfcs are   22 randomized atomic wfcs

     Self-consistent Calculation

     iteration #  1     ecut=    30.00 Ry     beta= 0.70
     Davidson diagonalization with overlap

     ethr =  1.00E-02,  avg # of iterations =  2.0

     Threshold (ethr) on eigenvalues was too large:
     Diagonalizing with lowered threshold

     Davidson diagonalization with overlap

[...]

     total energy              =    -391.60431674 Ry
     estimated scf accuracy    <       0.31478670 Ry

[...]

     total energy              =    -391.73155951 Ry
     estimated scf accuracy    <       0.00000401 Ry

     iteration #  8     ecut=    30.00 Ry     beta= 0.70
     Davidson diagonalization with overlap

     ethr =  1.12E-08,  avg # of iterations =  6.0

     End of self-consistent calculation

          k = 0.0000 0.0000 0.0000 (   833 PWs)   bands (ev):

   -84.2785 -47.3421 -47.3303 -47.3303  -5.5846  -3.7079  -0.3553   3.9978
     3.9978   4.1800   4.5037   4.5037   6.2065   6.9988   6.9988   7.1042
     8.3447   8.3447   9.8124  10.3574  10.3574  12.5476

     occupation numbers
     1.0000   1.0000   1.0000   1.0000   1.0000   1.0000   1.0000   1.0000
     1.0000   1.0000   1.0000   1.0000   1.0000   1.0000   1.0000   1.0000
     1.0000   1.0000  -0.0000  -0.0000  -0.0000  -0.0000

     the Fermi energy is     9.6493 ev

!    total energy              =    -391.73157232 Ry
     estimated scf accuracy    <       0.00000095 Ry
     smearing contrib. (-TS)   =       0.00000000 Ry
     internal energy E=F+TS    =    -391.73157232 Ry

     The total energy is F=E-TS. E is the sum of the following terms:
     one-electron contribution =    -211.71908306 Ry
     hartree contribution      =     119.67320370 Ry
     xc contribution           =     -95.92041366 Ry
     ewald contribution        =    -203.76527930 Ry

     convergence has been achieved in   8 iterations

     Forces acting on atoms (cartesian axes, Ry/au):

     atom    1 type  1   force =     0.00000000    0.00000000    0.00000000
     atom    2 type  2   force =     0.00000000    0.00000000    0.00000000
     atom    3 type  3   force =    -0.10067203   -0.02960620   -0.01808364
     atom    4 type  3   force =     0.10067203    0.02960620    0.01808364
     The non-local contrib.  to forces
     atom    1 type  1   force =     0.00000000    0.00000000    0.00000000
     atom    2 type  2   force =     0.00000000    0.00000000    0.00000000
     atom    3 type  3   force =     0.09594232    0.02822611    0.01722858
     atom    4 type  3   force =    -0.09594232   -0.02822611   -0.01722858
     The ionic contribution  to forces
     atom    1 type  1   force =     0.00000000    0.00000000    0.00000000
     atom    2 type  2   force =    -0.00000000    0.00000000   -0.00000000
     atom    3 type  3   force =    -7.08642882   -2.08407069   -1.27267514
     atom    4 type  3   force =     7.08642882    2.08407069    1.27267514
     The local contribution  to forces
     atom    1 type  1   force =    -0.00355931   -0.00119914   -0.00071095
     atom    2 type  2   force =     0.00065995    0.00019161    0.00011506
     atom    3 type  3   force =     6.90464075    2.03059768    1.24003554
     atom    4 type  3   force =    -6.90442912   -2.03053308   -1.23997379
     The core correction contribution to forces
     atom    1 type  1   force =     0.00000000    0.00000000    0.00000000
     atom    2 type  2   force =     0.00003651    0.00001021    0.00000613
     atom    3 type  3   force =    -0.01359789   -0.00400223   -0.00244205
     atom    4 type  3   force =     0.01359600    0.00399849    0.00244149
     The Hubbard contrib.    to forces
     atom    1 type  1   force =     0.00000000    0.00000000    0.00000000
     atom    2 type  2   force =     0.00000000    0.00000000    0.00000000
     atom    3 type  3   force =     0.00000000    0.00000000    0.00000000
     atom    4 type  3   force =     0.00000000    0.00000000    0.00000000
     The SCF correction term to forces
     atom    1 type  1   force =     0.00401927    0.00136053    0.00079820
     atom    2 type  2   force =    -0.00051791   -0.00015001   -0.00009054
     atom    3 type  3   force =    -0.00123192   -0.00036178   -0.00022532
     atom    4 type  3   force =     0.00101512    0.00029152    0.00017464

     Total force =     0.150588     Total SCF correction =     0.004668

     Computing stress (Cartesian axis) and pressure

          total   stress  (Ry/bohr**3)                   (kbar)     P=      -52.43
  -0.00157227  -0.00057022  -0.00034821         -231.29      -83.88      -51.22
  -0.00057022   0.00019898  -0.00010237          -83.88       29.27      -15.06
  -0.00034821  -0.00010237   0.00030414          -51.22      -15.06       44.74

     kinetic stress (kbar)  18676.66   -106.89    -65.28
                             -106.89  19008.66    -19.20
                              -65.28    -19.20  19028.37

     local   stress (kbar)    927.43   5455.23   3331.34
                             5455.23 -16017.53    979.73
                             3331.34    979.73 -17023.59

     nonloc. stress (kbar)   2169.45    -52.28    -31.93
                              -52.28   2331.84     -9.39
                              -31.93     -9.39   2341.48

     hartree stress (kbar)   4176.93  -2687.94  -1641.44
                            -2687.94  12526.17   -482.74
                            -1641.44   -482.74  13021.89

     exc-cor stress (kbar)  10417.72     -0.80     -0.49
                               -0.80  10420.21     -0.14
                               -0.49     -0.14  10420.36

     corecor stress (kbar) -13974.74      7.34      4.48
                                7.34 -13997.53      1.32
                                4.48      1.32 -13998.88

     ewald   stress (kbar) -22624.72  -2698.53  -1647.91
                            -2698.53 -14242.56   -484.64
                            -1647.91   -484.64 -13744.89

     hubbard stress (kbar)      0.00      0.00      0.00
                                0.00      0.00      0.00
                                0.00      0.00      0.00

     DFT-D   stress (kbar)      0.00      0.00      0.00
                                0.00      0.00      0.00
                                0.00      0.00      0.00

     XDM     stress (kbar)      0.00      0.00      0.00
                                0.00      0.00      0.00
                                0.00      0.00      0.00

     dft-nl  stress (kbar)      0.00      0.00      0.00
                                0.00      0.00      0.00
                                0.00      0.00      0.00

     TS-vdW  stress (kbar)      0.00      0.00      0.00
                                0.00      0.00      0.00
                                0.00      0.00      0.00

[...]

                                0.00      0.00      0.00

     Writing all to output data dir new_calculations/myprefix.save/

     General routines

     Parallel routines

   This run was terminated on:   1:47:30  21May2023

   JOB DONE.