     Program PWSCF v.7.0 starts on 20May2023 at  7:40:52

     Reading input from espresso_17130.pwi
Warning: card &CELL ignored
Warning: card / ignored

     Current dimensions of program PWSCF are:
     Max number of different atomic species (ntypx) = 10
     Max number of k-points (npk) =  40000
     Max angular momentum in pseudopotentials (lmaxx) =  4
     file O.pbe-n-kjpaw_psl.0.1.UPF: wavefunction(s)  2P renormalized

     gamma-point specific algorithms are used
     Message from routine setup:
     using ibrav=0 with symmetry is DISCOURAGED, use correct ibrav instead

     Subspace diagonalization in iterative solution of the eigenvalue problem:
     a serial algorithm will be used

     Using Slab Decomposition

     bravais-lattice index     =            0
     lattice parameter (alat)  =      26.1213  a.u.
     unit-cell volume          =    2451.8620 (a.u.)^3
     number of atoms/cell      =           20
     number of atomic types    =            2
     number of electrons       =       112.00
     number of Kohn-Sham states=           67
     kinetic-energy cutoff     =      30.0000  Ry
     charge density cutoff     =     240.0000  Ry
     scf convergence threshold =      1.0E-06
     mixing beta               =       0.7000
     number of iterations used =            8  plain     mixing
     Exchange-correlation= SLA  PW   PBX  PBC
                           (   1   4   3   4   0   0   0)

     celldm(1)=  26.121293  celldm(2)=   0.000000  celldm(3)=   0.000000
     celldm(4)=   0.000000  celldm(5)=   0.000000  celldm(6)=   0.000000

     crystal axes: (cart. coord. in units of alat)
               a(1) = (   1.000000   0.000000   0.000000 )
               a(2) = (   0.000000   0.337018   0.000000 )
               a(3) = (   0.000000   0.305426   0.408187 )

     reciprocal axes: (cart. coord. in units 2 pi/alat)
               b(1) = (  1.000000  0.000000  0.000000 )
               b(2) = (  0.000000  2.967200 -2.220211 )
               b(3) = (  0.000000  0.000000  2.449859 )

     PseudoPot. # 1 for As read from file:
     /home/pragov/projects/rrg-bengioy-ad/pragov/crystal_structure_design/SSSP/As.pbe-n-rrkjus_psl.0.2.UPF
     MD5 check sum: 767315de957beeeb34f87d97bf945c8f
     Pseudo is Ultrasoft + core correction, Zval =  5.0
     Generated using "atomic" code by A. Dal Corso  v.5.0.99 svn rev. 10869
     Using radial grid of 1209 points,  4 beta functions with:
                l(1) =   0
                l(2) =   0
                l(3) =   1
                l(4) =   1
     Q(r) pseudized with 0 coefficients

     PseudoPot. # 2 for O  read from file:
     /home/pragov/projects/rrg-bengioy-ad/pragov/crystal_structure_design/SSSP/O.pbe-n-kjpaw_psl.0.1.UPF
     MD5 check sum: 0234752ac141de4415c5fc33072bef88
     Pseudo is Projector augmented-wave + core cor, Zval =  6.0
     Generated using "atomic" code by A. Dal Corso  v.5.0.99 svn rev. 10869
     Shape of augmentation charge: BESSEL
     Using radial grid of 1095 points,  4 beta functions with:
                l(1) =   0
                l(2) =   0
                l(3) =   1
                l(4) =   1
     Q(r) pseudized with 0 coefficients

     atomic species   valence    mass     pseudopotential
        As             5.00    74.92159     As( 1.00)
        O              6.00    15.99900     O ( 1.00)

      4 Sym. Ops., with inversion, found ( 2 have fractional translation)

                                    s                        frac. trans.

      isym =  1     identity

 cryst.   s( 1) = (     1          0          0      )
                  (     0          1          0      )
                  (     0          0          1      )

 cart.    s( 1) = (  1.0000000  0.0000000  0.0000000 )
                  (  0.0000000  1.0000000  0.0000000 )
                  (  0.0000000  0.0000000  1.0000000 )

      isym =  2     180 deg rotation - cart. axis [1,0,0]

 cryst.   s( 2) = (     1          0          0      )    f =(  0.5000000 )
                  (     0         -1          0      )       ( -0.0000000 )
                  (     0          0         -1      )       ( -0.5000000 )

 cart.    s( 2) = (  1.0000000  0.0000000  0.0000000 )    f =(  0.5000000 )
                  (  0.0000000 -1.0000000 -0.0000000 )       ( -0.1527131 )
                  (  0.0000000  0.0000000 -1.0000000 )       ( -0.2040933 )

      isym =  3     inversion

 cryst.   s( 3) = (    -1          0          0      )
                  (     0         -1          0      )
                  (     0          0         -1      )

 cart.    s( 3) = ( -1.0000000  0.0000000  0.0000000 )
                  (  0.0000000 -1.0000000 -0.0000000 )
                  (  0.0000000  0.0000000 -1.0000000 )

      isym =  4     inv. 180 deg rotation - cart. axis [1,0,0]

 cryst.   s( 4) = (    -1          0          0      )    f =(  0.5000000 )
                  (     0          1          0      )       ( -0.0000000 )
                  (     0          0          1      )       ( -0.5000000 )

 cart.    s( 4) = ( -1.0000000  0.0000000  0.0000000 )    f =(  0.5000000 )
                  (  0.0000000  1.0000000  0.0000000 )       ( -0.1527131 )
                  (  0.0000000  0.0000000  1.0000000 )       ( -0.2040933 )

   Cartesian axes

     site n.     atom                  positions (alat units)
         1           As  tau(   1) = (   0.8444700   0.4774133   0.3554179  )
         2           As  tau(   2) = (   0.3444700   0.3177440   0.2568621  )
         3           As  tau(   3) = (   0.1555300   0.1650309   0.0527687  )
         4           As  tau(   4) = (   0.6555300   0.3247002   0.1513246  )
         5           As  tau(   5) = (   0.6076610   0.4932067   0.3087287  )
         6           As  tau(   6) = (   0.1076610   0.3019506   0.3035513  )
         7           As  tau(   7) = (   0.3923390   0.1492375   0.0994580  )
         8           As  tau(   8) = (   0.8923390   0.3404936   0.1046354  )
         9           O   tau(   9) = (   0.6473570   0.1986790   0.1896672  )
        10           O   tau(  10) = (   0.1473570   0.2910522   0.0144261  )
        11           O   tau(  11) = (   0.3526430   0.4437653   0.2185195  )
        12           O   tau(  12) = (   0.8526430   0.3513921   0.3937605  )
        13           O   tau(  13) = (   0.8897420   0.2147715   0.0649650  )
        14           O   tau(  14) = (   0.3897420   0.2749597   0.1391284  )
        15           O   tau(  15) = (   0.1102580   0.4276728   0.3432217  )
        16           O   tau(  16) = (   0.6102580   0.3674846   0.2690583  )
        17           O   tau(  17) = (   0.7836940   0.3454795   0.1778812  )
        18           O   tau(  18) = (   0.2836940   0.1442516   0.0262121  )
        19           O   tau(  19) = (   0.2163060   0.2969647   0.2303055  )
        20           O   tau(  20) = (   0.7163060   0.4981926   0.3819746  )

   Crystallographic axes

     site n.     atom                  positions (cryst. coord.)
         1           As  tau(   1) = (  0.8444700  0.6274780  0.8707240  )
         2           As  tau(   2) = (  0.3444700  0.3725220  0.6292760  )
         3           As  tau(   3) = (  0.1555300  0.3725220  0.1292760  )
         4           As  tau(   4) = (  0.6555300  0.6274780  0.3707240  )
         5           As  tau(   5) = (  0.6076610  0.7780000  0.7563420  )
         6           As  tau(   6) = (  0.1076610  0.2220000  0.7436580  )
         7           As  tau(   7) = (  0.3923390  0.2220000  0.2436580  )
         8           As  tau(   8) = (  0.8923390  0.7780000  0.2563420  )
         9           O   tau(   9) = (  0.6473570  0.1684190  0.4646580  )
        10           O   tau(  10) = (  0.1473570  0.8315810  0.0353420  )
        11           O   tau(  11) = (  0.3526430  0.8315810  0.5353420  )
        12           O   tau(  12) = (  0.8526430  0.1684190  0.9646580  )
        13           O   tau(  13) = (  0.8897420  0.4930340  0.1591550  )
        14           O   tau(  14) = (  0.3897420  0.5069660  0.3408450  )
        15           O   tau(  15) = (  0.1102580  0.5069660  0.8408450  )
        16           O   tau(  16) = (  0.6102580  0.4930340  0.6591550  )
        17           O   tau(  17) = (  0.7836940  0.6301730  0.4357840  )
        18           O   tau(  18) = (  0.2836940  0.3698270  0.0642160  )
        19           O   tau(  19) = (  0.2163060  0.3698270  0.5642160  )
        20           O   tau(  20) = (  0.7163060  0.6301730  0.9357840  )

     number of k points=     1  Methfessel-Paxton smearing, width (Ry)=  0.0010
                       cart. coord. in units 2pi/alat
        k(    1) = (   0.0000000   0.0000000   0.0000000), wk =   2.0000000

                       cryst. coord.
        k(    1) = (   0.0000000   0.0000000   0.0000000), wk =   2.0000000

     Check: negative core charge=   -0.000005

     Initial potential from superposition of free atoms

     starting charge     111.9981, renormalised to     112.0000
     Starting wfcs are   80 randomized atomic wfcs
     Checking if some PAW data can be deallocated...

     Self-consistent Calculation

     iteration #  1     ecut=    30.00 Ry     beta= 0.70
     Davidson diagonalization with overlap

     ethr =  1.00E-02,  avg # of iterations =  2.0

     total energy              =    -642.47436385 Ry
     estimated scf accuracy    <       4.73072592 Ry

[...]

     total energy              =    -644.85057748 Ry
     estimated scf accuracy    <       0.00000113 Ry

     iteration # 10     ecut=    30.00 Ry     beta= 0.70
     Davidson diagonalization with overlap

     ethr =  1.01E-09,  avg # of iterations =  4.0

     End of self-consistent calculation

          k = 0.0000 0.0000 0.0000 (  3414 PWs)   bands (ev):

   -17.6247 -17.5966 -17.1730 -17.1327 -16.0694 -16.0689 -15.4650 -15.4511
   -15.3484 -15.3387 -15.3283 -15.3180  -9.1829  -9.1687  -7.8438  -7.8351
    -6.4139  -6.3740  -3.8593  -3.8022  -3.7510  -3.5958  -3.5351  -3.4739
    -3.2800  -3.1902  -2.6922  -2.6494  -2.4733  -1.9083  -1.6295  -1.5389
    -1.2855  -0.8226  -0.5804  -0.5520  -0.0479  -0.0239   0.0034   0.0691
     0.3396   0.5047   0.5734   0.7537   0.8151   0.9686   1.0099   1.1356
     1.1533   1.1674   1.6082   1.6634   1.7095   2.0282   2.0367   2.0711
     6.2227   6.3354   6.3714   6.6504   6.6866   7.0796   7.3499   7.7952
     7.8278   7.9448   7.9810

     occupation numbers
     1.0000   1.0000   1.0000   1.0000   1.0000   1.0000   1.0000   1.0000
     1.0000   1.0000   1.0000   1.0000   1.0000   1.0000   1.0000   1.0000
     1.0000   1.0000   1.0000   1.0000   1.0000   1.0000   1.0000   1.0000
     1.0000   1.0000   1.0000   1.0000   1.0000   1.0000   1.0000   1.0000
     1.0000   1.0000   1.0000   1.0000   1.0000   1.0000   1.0000   1.0000
     1.0000   1.0000   1.0000   1.0000   1.0000   1.0000   1.0000   1.0000
     1.0000   1.0000   1.0000   1.0000   1.0000   1.0000   1.0000   1.0000
    -0.0000  -0.0000  -0.0000  -0.0000  -0.0000  -0.0000  -0.0000  -0.0000
    -0.0000  -0.0000  -0.0000

     the Fermi energy is     4.8824 ev

!    total energy              =    -644.85057757 Ry
     estimated scf accuracy    <       0.00000051 Ry
     smearing contrib. (-TS)   =       0.00000000 Ry
     internal energy E=F+TS    =    -644.85057757 Ry

     The total energy is F=E-TS. E is the sum of the following terms:
     one-electron contribution =    -299.92288977 Ry
     hartree contribution      =     204.97432701 Ry
     xc contribution           =    -162.12025138 Ry
     ewald contribution        =    -273.41726617 Ry
     one-center paw contrib.   =    -114.36449726 Ry
      -> PAW hartree energy AE =     356.33334490 Ry
      -> PAW hartree energy PS =    -355.13172864 Ry
      -> PAW xc energy AE      =    -206.23569002 Ry
      -> PAW xc energy PS      =      90.66957649 Ry
      -> total E_H with PAW    =     206.17594327 Ry
      -> total E_XC with PAW   =    -277.68636490 Ry

     convergence has been achieved in  10 iterations

     Forces acting on atoms (cartesian axes, Ry/au):

     atom    1 type  1   force =    -0.00350458    0.04432678   -0.03625877
     atom    2 type  1   force =    -0.00350458   -0.04432678    0.03625877
     atom    3 type  1   force =     0.00350458   -0.04432678    0.03625877
     atom    4 type  1   force =     0.00350458    0.04432678   -0.03625877
     atom    5 type  1   force =    -0.01340629    0.04961171    0.02075062
     atom    6 type  1   force =    -0.01340629   -0.04961171   -0.02075062
     atom    7 type  1   force =     0.01340629   -0.04961171   -0.02075062
     atom    8 type  1   force =     0.01340629    0.04961171    0.02075062
     atom    9 type  2   force =     0.01465443   -0.04049409   -0.07312523
     atom   10 type  2   force =     0.01465443    0.04049409    0.07312523
     atom   11 type  2   force =    -0.01465443    0.04049409    0.07312523
     atom   12 type  2   force =    -0.01465443   -0.04049409   -0.07312523
     atom   13 type  2   force =     0.02214506   -0.05092124    0.08114684
     atom   14 type  2   force =     0.02214506    0.05092124   -0.08114684
     atom   15 type  2   force =    -0.02214506    0.05092124   -0.08114684
     atom   16 type  2   force =    -0.02214506   -0.05092124    0.08114684
     atom   17 type  2   force =     0.00178325   -0.00228614    0.00924934
     atom   18 type  2   force =     0.00178325    0.00228614   -0.00924934
     atom   19 type  2   force =    -0.00178325    0.00228614   -0.00924934
     atom   20 type  2   force =    -0.00178325   -0.00228614    0.00924934
     The non-local contrib.  to forces
     atom    1 type  1   force =    -0.30499139   -0.15915281    0.58954162
     atom    2 type  1   force =    -0.30499139    0.15915281   -0.58954162
     atom    3 type  1   force =     0.30499139    0.15915281   -0.58954162
     atom    4 type  1   force =     0.30499139   -0.15915281    0.58954162
     atom    5 type  1   force =     0.58186824   -0.21213096   -0.27854253
     atom    6 type  1   force =     0.58186824    0.21213096    0.27854253
     atom    7 type  1   force =    -0.58186824    0.21213096    0.27854253
     atom    8 type  1   force =    -0.58186824   -0.21213096   -0.27854253
     atom    9 type  2   force =    -0.26618737    0.86276986    1.07976942
     atom   10 type  2   force =    -0.26618737   -0.86276986   -1.07976942
     atom   11 type  2   force =     0.26618737   -0.86276986   -1.07976942
     atom   12 type  2   force =     0.26618737    0.86276986    1.07976942
     atom   13 type  2   force =    -0.51224506    0.85125549   -0.93412171
     atom   14 type  2   force =    -0.51224506   -0.85125549    0.93412171
     atom   15 type  2   force =     0.51224506   -0.85125549    0.93412171
     atom   16 type  2   force =     0.51224506    0.85125549   -0.93412171
     atom   17 type  2   force =    -0.22302876   -0.25833502   -1.16046723
     atom   18 type  2   force =    -0.22302876    0.25833502    1.16046723
     atom   19 type  2   force =     0.22302876    0.25833502    1.16046723
     atom   20 type  2   force =     0.22302876   -0.25833502   -1.16046723
     The ionic contribution  to forces
     atom    1 type  1   force =     4.16068003    1.47143701   -5.66914162
     atom    2 type  1   force =     4.16068003   -1.47143701    5.66914162
     atom    3 type  1   force =    -4.16068003   -1.47143701    5.66914162
     atom    4 type  1   force =    -4.16068003    1.47143701   -5.66914162
     atom    5 type  1   force =    -6.76250273    1.77585839    3.69647536
     atom    6 type  1   force =    -6.76250273   -1.77585839   -3.69647536
     atom    7 type  1   force =     6.76250273   -1.77585839   -3.69647536
     atom    8 type  1   force =     6.76250273    1.77585839    3.69647536
     atom    9 type  2   force =    -1.99108474   -1.99505246   -3.76259436
     atom   10 type  2   force =    -1.99108474    1.99505246    3.76259436
     atom   11 type  2   force =     1.99108474    1.99505246    3.76259436
     atom   12 type  2   force =     1.99108474   -1.99505246   -3.76259436
     atom   13 type  2   force =     5.35541685   -2.26483288    3.66949278
     atom   14 type  2   force =     5.35541685    2.26483288   -3.66949278
     atom   15 type  2   force =    -5.35541685    2.26483288   -3.66949278
     atom   16 type  2   force =    -5.35541685   -2.26483288    3.66949278
     atom   17 type  2   force =     2.79009129    1.05266256    3.03583451
     atom   18 type  2   force =     2.79009129   -1.05266256   -3.03583451
     atom   19 type  2   force =    -2.79009129   -1.05266256   -3.03583451
     atom   20 type  2   force =    -2.79009129    1.05266256    3.03583451
     The local contribution  to forces
     atom    1 type  1   force =    -3.88839322   -1.27777981    5.08793750
     atom    2 type  1   force =    -3.88782699    1.27779812   -5.08813327
     atom    3 type  1   force =     3.88838972    1.27780716   -5.08796851
     atom    4 type  1   force =     3.88777426   -1.27782219    5.08807809
     atom    5 type  1   force =     6.21562404   -1.52816068   -3.41721210
     atom    6 type  1   force =     6.21590072    1.52811795    3.41714825
     atom    7 type  1   force =    -6.21563365    1.52819165    3.41723532
     atom    8 type  1   force =    -6.21583856   -1.52811421   -3.41712119
     atom    9 type  2   force =     2.26934033    1.10070351    2.62171204
     atom   10 type  2   force =     2.26994747   -1.10065127   -2.62160573
     atom   11 type  2   force =    -2.26936420   -1.10069950   -2.62173552
     atom   12 type  2   force =    -2.26993855    1.10063062    2.62159191
     atom   13 type  2   force =    -4.82695916    1.37138663   -2.66421715
     atom   14 type  2   force =    -4.82659136   -1.37153508    2.66445646
     atom   15 type  2   force =     4.82698669   -1.37140524    2.66423793
     atom   16 type  2   force =     4.82656436    1.37151641   -2.66443132
     atom   17 type  2   force =    -2.56803081   -0.79926111   -1.87813014
     atom   18 type  2   force =    -2.56757550    0.79930416    1.87829213
     atom   19 type  2   force =     2.56805271    0.79925984    1.87814715
     atom   20 type  2   force =     2.56756516   -0.79929608   -1.87829569
     The core correction contribution to forces
     atom    1 type  1   force =     0.02867060    0.00990668   -0.04478401
     atom    2 type  1   force =     0.02868114   -0.00990839    0.04477882
     atom    3 type  1   force =    -0.02867024   -0.00990683    0.04478432
     atom    4 type  1   force =    -0.02868191    0.00990730   -0.04477970
     atom    5 type  1   force =    -0.04837541    0.01405221    0.02019313
     atom    6 type  1   force =    -0.04837071   -0.01405221   -0.02019601
     atom    7 type  1   force =     0.04837544   -0.01405219   -0.02019306
     atom    8 type  1   force =     0.04837012    0.01405096    0.02019647
     atom    9 type  2   force =     0.00247689   -0.00890928   -0.01189920
     atom   10 type  2   force =     0.00247572    0.00891016    0.01189926
     atom   11 type  2   force =    -0.00247676    0.00890920    0.01189919
     atom   12 type  2   force =    -0.00247602   -0.00891068   -0.01189967
     atom   13 type  2   force =     0.00555346   -0.00870069    0.01023869
     atom   14 type  2   force =     0.00555224    0.00869934   -0.01023619
     atom   15 type  2   force =    -0.00555346    0.00870034   -0.01023841
     atom   16 type  2   force =    -0.00555223   -0.00869967    0.01023665
     atom   17 type  2   force =     0.00259938    0.00268085    0.01207954
     atom   18 type  2   force =     0.00259418   -0.00268066   -0.01207864
     atom   19 type  2   force =    -0.00259924   -0.00268083   -0.01207888
     atom   20 type  2   force =    -0.00259403    0.00268061    0.01207853
     The Hubbard contrib.    to forces
     atom    1 type  1   force =     0.00000000    0.00000000    0.00000000
     atom    2 type  1   force =     0.00000000    0.00000000    0.00000000
     atom    3 type  1   force =     0.00000000    0.00000000    0.00000000
     atom    4 type  1   force =     0.00000000    0.00000000    0.00000000
     atom    5 type  1   force =     0.00000000    0.00000000    0.00000000
     atom    6 type  1   force =     0.00000000    0.00000000    0.00000000
     atom    7 type  1   force =     0.00000000    0.00000000    0.00000000
     atom    8 type  1   force =     0.00000000    0.00000000    0.00000000
     atom    9 type  2   force =     0.00000000    0.00000000    0.00000000
     atom   10 type  2   force =     0.00000000    0.00000000    0.00000000
     atom   11 type  2   force =     0.00000000    0.00000000    0.00000000
     atom   12 type  2   force =     0.00000000    0.00000000    0.00000000
     atom   13 type  2   force =     0.00000000    0.00000000    0.00000000
     atom   14 type  2   force =     0.00000000    0.00000000    0.00000000
     atom   15 type  2   force =     0.00000000    0.00000000    0.00000000
     atom   16 type  2   force =     0.00000000    0.00000000    0.00000000
     atom   17 type  2   force =     0.00000000    0.00000000    0.00000000
     atom   18 type  2   force =     0.00000000    0.00000000    0.00000000
     atom   19 type  2   force =     0.00000000    0.00000000    0.00000000
     atom   20 type  2   force =     0.00000000    0.00000000    0.00000000
     The SCF correction term to forces
     atom    1 type  1   force =     0.00053405   -0.00008741    0.00017353
     atom    2 type  1   force =    -0.00005209    0.00006155   -0.00000325
     atom    3 type  1   force =    -0.00053030    0.00006014   -0.00014324
     atom    4 type  1   force =     0.00010484   -0.00004252    0.00005438
     atom    5 type  1   force =    -0.00000809   -0.00000723   -0.00016760
     atom    6 type  1   force =    -0.00031661    0.00004603    0.00022802
     atom    7 type  1   force =     0.00002053   -0.00002254    0.00014395
     atom    8 type  1   force =     0.00024727   -0.00005520   -0.00025106
     atom    9 type  2   force =     0.00016746    0.00002266   -0.00010428
     atom   10 type  2   force =    -0.00055754   -0.00003212    0.00000093
     atom   11 type  2   force =    -0.00013428   -0.00003094    0.00013044
     atom   12 type  2   force =     0.00053399    0.00002277   -0.00001339
     atom   13 type  2   force =     0.00042958   -0.00006400   -0.00019021
     atom   14 type  2   force =    -0.00003880    0.00014559    0.00006607
     atom   15 type  2   force =    -0.00046166    0.00006551    0.00018242
     atom   16 type  2   force =     0.00006920   -0.00014365   -0.00006531
     atom   17 type  2   force =     0.00031410   -0.00003236   -0.00003680
     atom   18 type  2   force =    -0.00045406   -0.00000983   -0.00008902
     atom   19 type  2   force =    -0.00033065    0.00003220    0.00006028
     atom   20 type  2   force =     0.00047048   -0.00000175    0.00008580

     Total force =     0.305467     Total SCF correction =     0.001687

     Computing stress (Cartesian axis) and pressure

          total   stress  (Ry/bohr**3)                   (kbar)     P=     -207.28
  -0.00150883   0.00000000   0.00000000         -221.96        0.00        0.00
   0.00000000  -0.00155340   0.00008928            0.00     -228.51       13.13
   0.00000000   0.00008928  -0.00116492            0.00       13.13     -171.37

     kinetic stress (kbar)   9762.53      0.00      0.00
                                0.00   9511.22    -27.36
                                0.00    -27.36   9652.72

     local   stress (kbar)  -2791.74      0.00     -0.02
                                0.00 -14470.26  -1124.11
                               -0.02  -1124.11  -7168.10

     nonloc. stress (kbar)   2069.31      0.00      0.00
                                0.00   2069.34     -0.84
                                0.00     -0.84   2060.03

     hartree stress (kbar)   1747.42      0.00      0.02
                                0.00   6853.35    422.21
                                0.02    422.21   3697.13

     exc-cor stress (kbar)    800.34      0.00      0.00
                                0.00    805.07      1.01
                                0.00      1.01    803.41

     corecor stress (kbar)  -3208.79     -0.00     -0.00
                               -0.00  -3201.85      0.64
                               -0.00      0.64  -3208.68

     ewald   stress (kbar)  -8601.03      0.00      0.00
                                0.00  -1795.38    741.58
                                0.00    741.58  -6007.88

     hubbard stress (kbar)      0.00      0.00      0.00
                                0.00      0.00      0.00
                                0.00      0.00      0.00

     DFT-D   stress (kbar)      0.00      0.00      0.00
                                0.00      0.00      0.00
                                0.00      0.00      0.00

     XDM     stress (kbar)      0.00      0.00      0.00
                                0.00      0.00      0.00
                                0.00      0.00      0.00

     dft-nl  stress (kbar)      0.00      0.00      0.00
                                0.00      0.00      0.00
                                0.00      0.00      0.00

     TS-vdW  stress (kbar)      0.00      0.00      0.00
                                0.00      0.00      0.00
                                0.00      0.00      0.00

[...]

                                0.00      0.00      0.00

     Writing all to output data dir new_calculations/myprefix.save/

     General routines

     Parallel routines

     PAW routines

   This run was terminated on:   7:41:16  20May2023

   JOB DONE.