     Program PWSCF v.7.0 starts on 21May2023 at  1:12:43

     Reading input from espresso_1882.pwi
Warning: card &CELL ignored
Warning: card / ignored

     Current dimensions of program PWSCF are:
     Max number of different atomic species (ntypx) = 10
     Max number of k-points (npk) =  40000
     Max angular momentum in pseudopotentials (lmaxx) =  4
     file Cd.pbe-dn-rrkjus_psl.0.3.1.UPF: wavefunction(s)  4D renormalized

     gamma-point specific algorithms are used
     Message from routine setup:
     using ibrav=0 with symmetry is DISCOURAGED, use correct ibrav instead

     Subspace diagonalization in iterative solution of the eigenvalue problem:
     a serial algorithm will be used

     Using Slab Decomposition

     bravais-lattice index     =            0
     lattice parameter (alat)  =      13.3668  a.u.
     unit-cell volume          =    1800.2754 (a.u.)^3
     number of atoms/cell      =            8
     number of atomic types    =            4
     number of electrons       =        76.00
     number of Kohn-Sham states=           46
     kinetic-energy cutoff     =      30.0000  Ry
     charge density cutoff     =     240.0000  Ry
     scf convergence threshold =      1.0E-06
     mixing beta               =       0.7000
     number of iterations used =            8  plain     mixing
     Exchange-correlation= SLA  PW   PBE  PBE
                           (   1   4   3   4   0   0   0)

     celldm(1)=  13.366821  celldm(2)=   0.000000  celldm(3)=   0.000000
     celldm(4)=   0.000000  celldm(5)=   0.000000  celldm(6)=   0.000000

     crystal axes: (cart. coord. in units of alat)
               a(1) = (   1.000000   0.000000   0.000000 )
               a(2) = (  -0.483916   0.875114   0.000000 )
               a(3) = (  -0.258042  -0.437557   0.861370 )

     reciprocal axes: (cart. coord. in units 2 pi/alat)
               b(1) = (  1.000000  0.552974  0.580471 )
               b(2) = (  0.000000  1.142708  0.580471 )
               b(3) = (  0.000000  0.000000  1.160942 )

     PseudoPot. # 1 for Tl read from file:
     /home/pragov/projects/rrg-bengioy-ad/pragov/crystal_structure_design/SSSP/Tl_pbe_v1.2.uspp.F.UPF
     MD5 check sum: b76cf1f7e72655a2b2c53cf6385d7059
     Pseudo is Ultrasoft + core correction, Zval = 13.0
     Generated by new atomic code, or converted to UPF format
     Using radial grid of  899 points,  6 beta functions with:
                l(1) =   0
                l(2) =   0
                l(3) =   1
                l(4) =   1
                l(5) =   2
                l(6) =   2
     Q(r) pseudized with  6 coefficients,  rinner =    1.100   1.100   1.100
                                                       1.100   1.100

     PseudoPot. # 2 for Cd read from file:
     /home/pragov/projects/rrg-bengioy-ad/pragov/crystal_structure_design/SSSP/Cd.pbe-dn-rrkjus_psl.0.3.1.UPF
     MD5 check sum: 558e9f355611b531a870a69ef6ace9e2
     Pseudo is Ultrasoft + core correction, Zval = 12.0
     Generated using "atomic" code by A. Dal Corso  v.5.0.99 svn rev. 10869
     Using radial grid of 1239 points,  6 beta functions with:
                l(1) =   0
                l(2) =   0
                l(3) =   1
                l(4) =   1
                l(5) =   2
                l(6) =   2
     Q(r) pseudized with 0 coefficients

     PseudoPot. # 3 for Ge read from file:
     /home/pragov/projects/rrg-bengioy-ad/pragov/crystal_structure_design/SSSP/ge_pbe_v1.4.uspp.F.UPF
     MD5 check sum: 9c9eaa91e581c3f09632fb3098b2c6b2
     Pseudo is Ultrasoft + core correction, Zval = 14.0
     Generated by new atomic code, or converted to UPF format
     Using radial grid of  873 points,  6 beta functions with:
                l(1) =   0
                l(2) =   0
                l(3) =   1
                l(4) =   1
                l(5) =   2
                l(6) =   2
     Q(r) pseudized with  8 coefficients,  rinner =    1.400   1.400   1.400
                                                       1.400   1.400

     PseudoPot. # 4 for Te read from file:
     /home/pragov/projects/rrg-bengioy-ad/pragov/crystal_structure_design/SSSP/Te_pbe_v1.uspp.F.UPF
     MD5 check sum: c319670d6894cc26e93307826a071b75
     Pseudo is Ultrasoft + core correction, Zval =  6.0
     Generated by new atomic code, or converted to UPF format
     Using radial grid of  891 points,  5 beta functions with:
                l(1) =   0
                l(2) =   0
                l(3) =   1
                l(4) =   1
                l(5) =   2
     Q(r) pseudized with  6 coefficients,  rinner =    1.800   1.800   1.800
                                                       1.800   1.800

     atomic species   valence    mass     pseudopotential
        Tl            13.00   204.38000     Tl( 1.00)
        Cd            12.00   112.41400     Cd( 1.00)
        Ge            14.00    72.63000     Ge( 1.00)
        Te             6.00   127.60000     Te( 1.00)

      2 Sym. Ops. (no inversion) found

                                    s                        frac. trans.

      isym =  1     identity

 cryst.   s( 1) = (     1          0          0      )
                  (     0          1          0      )
                  (     0          0          1      )

 cart.    s( 1) = (  1.0000000 -0.0000000  0.0000000 )
                  (  0.0000000  1.0000000 -0.0000000 )
                  (  0.0000000  0.0000000  1.0000000 )

      isym =  2     inv. 180 deg rotation - cart. axis [0,0,1]

 cryst.   s( 2) = (     1          0          0      )
                  (     0          1          0      )
                  (    -1         -1         -1      )

 cart.    s( 2) = (  1.0000000 -0.0000000 -0.0000000 )
                  (  0.0000000  1.0000000 -0.0000000 )
                  (  0.0000000  0.0000000 -1.0000000 )

   Cartesian axes

     site n.     atom                  positions (alat units)
         1           Tl  tau(   1) = (   0.3709790  -0.2187786   0.4306849  )
         2           Tl  tau(   2) = (   0.6290210   0.2187786   0.4306849  )
         3           Cd  tau(   3) = (   0.2580420   0.4375572   0.0000000  )
         4           Ge  tau(   4) = (   0.0000000   0.0000000   0.0000000  )
         5           Te  tau(   5) = (   0.1424562   0.2415605   0.5629706  )
         6           Te  tau(   6) = (   0.4004983   0.6791177   0.2983992  )
         7           Te  tau(   7) = (   0.3726178   0.0444164   0.0000000  )
         8           Te  tau(   8) = (  -0.1414462   0.3475771   0.0000000  )

   Crystallographic axes

     site n.     atom                  positions (cryst. coord.)
         1           Tl  tau(   1) = (  0.5000000  0.0000000  0.5000000  )
         2           Tl  tau(   2) = (  1.0000000  0.5000000  0.5000000  )
         3           Cd  tau(   3) = (  0.5000000  0.5000000  0.0000000  )
         4           Ge  tau(   4) = (  0.0000000  0.0000000  0.0000000  )
         5           Te  tau(   5) = (  0.6028210  0.6028210  0.6535760  )
         6           Te  tau(   6) = (  0.9492450  0.9492450  0.3464240  )
         7           Te  tau(   7) = (  0.3971790  0.0507550  0.0000000  )
         8           Te  tau(   8) = (  0.0507550  0.3971790  0.0000000  )

     number of k points=     1  Methfessel-Paxton smearing, width (Ry)=  0.0010
                       cart. coord. in units 2pi/alat
        k(    1) = (   0.0000000   0.0000000   0.0000000), wk =   2.0000000

                       cryst. coord.
        k(    1) = (   0.0000000   0.0000000   0.0000000), wk =   2.0000000

     Check: negative core charge=   -0.000002

     Initial potential from superposition of free atoms

     starting charge      75.9836, renormalised to      76.0000

     negative rho (up, down):  9.667E-02 0.000E+00
     Starting wfcs are   52 randomized atomic wfcs

     Self-consistent Calculation

     iteration #  1     ecut=    30.00 Ry     beta= 0.70
     Davidson diagonalization with overlap

     ethr =  1.00E-02,  avg # of iterations =  2.0

     Threshold (ethr) on eigenvalues was too large:
     Diagonalizing with lowered threshold

     Davidson diagonalization with overlap

[...]

     negative rho (up, down):  9.717E-02 0.000E+00

     total energy              =    -732.13380340 Ry
     estimated scf accuracy    <       0.10563546 Ry

[...]

     total energy              =    -732.17415204 Ry
     estimated scf accuracy    <       0.00000823 Ry

     iteration #  7     ecut=    30.00 Ry     beta= 0.70
     Davidson diagonalization with overlap

     ethr =  1.08E-08,  avg # of iterations =  4.0

[...]

     End of self-consistent calculation

          k = 0.0000 0.0000 0.0000 (  2516 PWs)   bands (ev):

   -19.6755 -19.6685 -19.6448 -19.6126 -19.5195  -6.2918  -4.9689  -4.8330
    -4.8169  -4.6207  -4.4341  -4.4182  -4.4128  -4.3724  -4.3569  -4.2747
    -4.2685  -4.2585  -4.2501  -2.3493  -2.1156  -2.0585  -1.9672  -1.7903
    -1.7716   0.9698   1.7959   1.9852   2.1248   2.1308   2.7780   3.2259
     3.2267   3.6069   4.8721   4.8760   5.1898   5.2450   7.4901   8.5974
     8.8579   8.8637   9.1755   9.8002  10.0883  10.0890

     occupation numbers
     1.0000   1.0000   1.0000   1.0000   1.0000   1.0000   1.0000   1.0000
     1.0000   1.0000   1.0000   1.0000   1.0000   1.0000   1.0000   1.0000
     1.0000   1.0000   1.0000   1.0000   1.0000   1.0000   1.0000   1.0000
     1.0000   1.0000   1.0000   1.0000   1.0000   1.0000   1.0000   1.0000
     1.0000   1.0000   1.0000   1.0000   1.0000   1.0000  -0.0000  -0.0000
    -0.0000  -0.0000  -0.0000  -0.0000  -0.0000  -0.0000

     the Fermi energy is     6.4704 ev

!    total energy              =    -732.17415563 Ry
     estimated scf accuracy    <       0.00000042 Ry
     smearing contrib. (-TS)   =       0.00000000 Ry
     internal energy E=F+TS    =    -732.17415563 Ry

     The total energy is F=E-TS. E is the sum of the following terms:
     one-electron contribution =    -291.76795853 Ry
     hartree contribution      =     198.40610377 Ry
     xc contribution           =    -282.73299502 Ry
     ewald contribution        =    -356.07930585 Ry

     convergence has been achieved in   7 iterations

     negative rho (up, down):  9.805E-02 0.000E+00

     Forces acting on atoms (cartesian axes, Ry/au):

     atom    1 type  1   force =    -0.00005431    0.00037771    0.00011027
     atom    2 type  1   force =    -0.00005431    0.00037771   -0.00011027
     atom    3 type  2   force =    -0.00063638    0.00227240   -0.00000000
     atom    4 type  3   force =    -0.00059372   -0.00010696    0.00000000
     atom    5 type  4   force =    -0.00474385   -0.00726985   -0.04747833
     atom    6 type  4   force =    -0.00474385   -0.00726985    0.04747833
     atom    7 type  4   force =     0.04580958   -0.01819455   -0.00000000
     atom    8 type  4   force =    -0.03498316    0.02981339   -0.00000000
     The non-local contrib.  to forces
     atom    1 type  1   force =    -0.00001825   -0.00009608    0.00009381
     atom    2 type  1   force =    -0.00001825   -0.00009608   -0.00009381
     atom    3 type  2   force =     0.00077126    0.00046680   -0.00000000
     atom    4 type  3   force =    -0.00255774    0.00227549   -0.00000000
     atom    5 type  4   force =     0.00616606    0.00893311   -0.16034579
     atom    6 type  4   force =     0.00616606    0.00893311    0.16034579
     atom    7 type  4   force =     0.13376429   -0.08746815    0.00000000
     atom    8 type  4   force =    -0.14457135    0.06873417    0.00000000
     The ionic contribution  to forces
     atom    1 type  1   force =    -0.00000000   -0.00000000   -0.00000000
     atom    2 type  1   force =     0.00000000    0.00000000   -0.00000000
     atom    3 type  2   force =     0.00000000    0.00000000    0.00000000
     atom    4 type  3   force =     0.00000000   -0.00000000   -0.00000000
     atom    5 type  4   force =    -0.52221349   -0.88550803   -3.79437213
     atom    6 type  4   force =    -0.52221349   -0.88550803    3.79437213
     atom    7 type  4   force =     3.79057112   -1.04195099   -0.00000000
     atom    8 type  4   force =    -2.74614414    2.81296706    0.00000000
     The local contribution  to forces
     atom    1 type  1   force =     0.00029475    0.00041943   -0.00029608
     atom    2 type  1   force =    -0.00026136    0.00004255    0.00025219
     atom    3 type  2   force =    -0.00159191    0.00089311   -0.00349582
     atom    4 type  3   force =     0.00245200   -0.00202981    0.00039948
     atom    5 type  4   force =     0.51256663    0.87427934    3.93423034
     atom    6 type  4   force =     0.51146310    0.86673473   -3.93444220
     atom    7 type  4   force =    -3.90285370    1.12289624   -0.00172258
     atom    8 type  4   force =     2.87880056   -2.86719785    0.00129756
     The core correction contribution to forces
     atom    1 type  1   force =     0.00008407   -0.00009797    0.00013992
     atom    2 type  1   force =    -0.00004213    0.00009722    0.00007144
     atom    3 type  2   force =    -0.00026434    0.00041457   -0.00029046
     atom    4 type  3   force =     0.00006556   -0.00017149    0.00016385
     atom    5 type  4   force =    -0.00060515   -0.00152040   -0.02710985
     atom    6 type  4   force =    -0.00045320   -0.00082403    0.02713916
     atom    7 type  4   force =     0.02403580   -0.01213025    0.00016361
     atom    8 type  4   force =    -0.02294822    0.01482543   -0.00008408
     The Hubbard contrib.    to forces
     atom    1 type  1   force =     0.00000000    0.00000000    0.00000000
     atom    2 type  1   force =     0.00000000    0.00000000    0.00000000
     atom    3 type  2   force =     0.00000000    0.00000000    0.00000000
     atom    4 type  3   force =     0.00000000    0.00000000    0.00000000
     atom    5 type  4   force =     0.00000000    0.00000000    0.00000000
     atom    6 type  4   force =     0.00000000    0.00000000    0.00000000
     atom    7 type  4   force =     0.00000000    0.00000000    0.00000000
     atom    8 type  4   force =     0.00000000    0.00000000    0.00000000
     The SCF correction term to forces
     atom    1 type  1   force =    -0.00032140    0.00008473    0.00029263
     atom    2 type  1   force =     0.00026352   -0.00004452   -0.00022008
     atom    3 type  2   force =     0.00049339    0.00027485   -0.00046742
     atom    4 type  3   force =    -0.00050878   -0.00040421    0.00020227
     atom    5 type  4   force =    -0.00019050   -0.00036160    0.00003811
     atom    6 type  4   force =    -0.00008417   -0.00014405   -0.00001755
     atom    7 type  4   force =     0.00033685    0.00023554   -0.00003785
     atom    8 type  4   force =    -0.00007524    0.00026152   -0.00000151

     Total force =     0.095956     Total SCF correction =     0.001326

     Computing stress (Cartesian axis) and pressure

     negative rho (up, down):  9.805E-02 0.000E+00
          total   stress  (Ry/bohr**3)                   (kbar)     P=      -84.94
  -0.00057351   0.00007497   0.00000000          -84.37       11.03        0.00
   0.00007497  -0.00053211   0.00000000           11.03      -78.28        0.00
   0.00000000   0.00000000  -0.00062651            0.00        0.00      -92.16

     kinetic stress (kbar)   5396.90    -16.94     -0.00
                              -16.94   5379.76     -0.00
                               -0.00     -0.00   5406.73

     local   stress (kbar)   3297.79  -2470.23     -0.83
                            -2470.23    573.46      2.05
                               -0.83      2.05   4755.46

     nonloc. stress (kbar)   -649.06      9.12      0.00
                                9.12   -653.42      0.00
                                0.00      0.00   -656.53

     hartree stress (kbar)   5229.09   1017.89      0.89
                             1017.89   6354.20     -0.23
                                0.89     -0.23   4628.98

     exc-cor stress (kbar)  12694.47      1.00      0.04
                                1.00  12695.62     -0.00
                                0.04     -0.00  12693.90

     corecor stress (kbar) -16102.01      0.81     -0.13
                                0.81 -16101.39     -0.22
                               -0.13     -0.22 -16102.61

     ewald   stress (kbar)  -9951.55   1469.38     -0.00
                             1469.38  -8326.50     -0.00
                               -0.00     -0.00 -10818.09

     hubbard stress (kbar)      0.00      0.00      0.00
                                0.00      0.00      0.00
                                0.00      0.00      0.00

     DFT-D   stress (kbar)      0.00      0.00      0.00
                                0.00      0.00      0.00
                                0.00      0.00      0.00

     XDM     stress (kbar)      0.00      0.00      0.00
                                0.00      0.00      0.00
                                0.00      0.00      0.00

     dft-nl  stress (kbar)      0.00      0.00      0.00
                                0.00      0.00      0.00
                                0.00      0.00      0.00

     TS-vdW  stress (kbar)      0.00      0.00      0.00
                                0.00      0.00      0.00
                                0.00      0.00      0.00

[...]

                                0.00      0.00      0.00

     Writing all to output data dir new_calculations/myprefix.save/

     General routines

     Parallel routines

   This run was terminated on:   1:13: 3  21May2023

   JOB DONE.