     Program PWSCF v.7.0 starts on 20May2023 at 10:43:11

     Reading input from espresso_6266.pwi
Warning: card &CELL ignored
Warning: card / ignored

     Current dimensions of program PWSCF are:
     Max number of different atomic species (ntypx) = 10
     Max number of k-points (npk) =  40000
     Max angular momentum in pseudopotentials (lmaxx) =  4
     file Pb.pbe-dn-kjpaw_psl.0.2.2.UPF: wavefunction(s)  6S renormalized
     file O.pbe-n-kjpaw_psl.0.1.UPF: wavefunction(s)  2P renormalized

     gamma-point specific algorithms are used
     Message from routine setup:
     using ibrav=0 with symmetry is DISCOURAGED, use correct ibrav instead

     Subspace diagonalization in iterative solution of the eigenvalue problem:
     a serial algorithm will be used

     Using Slab Decomposition

     bravais-lattice index     =            0
     lattice parameter (alat)  =      20.0962  a.u.
     unit-cell volume          =    2172.1289 (a.u.)^3
     number of atoms/cell      =           18
     number of atomic types    =            3
     number of electrons       =       172.00
     number of Kohn-Sham states=          103
     kinetic-energy cutoff     =      30.0000  Ry
     charge density cutoff     =     240.0000  Ry
     scf convergence threshold =      1.0E-06
     mixing beta               =       0.7000
     number of iterations used =            8  plain     mixing
     Exchange-correlation= SLA  PW   PBX  PBC
                           (   1   4   3   4   0   0   0)

     celldm(1)=  20.096215  celldm(2)=   0.000000  celldm(3)=   0.000000
     celldm(4)=   0.000000  celldm(5)=   0.000000  celldm(6)=   0.000000

     crystal axes: (cart. coord. in units of alat)
               a(1) = (   1.000000   0.000000   0.000000 )
               a(2) = (   0.000000   0.507446   0.000000 )
               a(3) = (   0.000000   0.030231   0.527415 )

     reciprocal axes: (cart. coord. in units 2 pi/alat)
               b(1) = (  1.000000  0.000000  0.000000 )
               b(2) = (  0.000000  1.970652 -0.112955 )
               b(3) = (  0.000000  0.000000  1.896039 )

     PseudoPot. # 1 for Ge read from file:
     /home/pragov/projects/rrg-bengioy-ad/pragov/crystal_structure_design/SSSP/ge_pbe_v1.4.uspp.F.UPF
     MD5 check sum: 9c9eaa91e581c3f09632fb3098b2c6b2
     Pseudo is Ultrasoft + core correction, Zval = 14.0
     Generated by new atomic code, or converted to UPF format
     Using radial grid of  873 points,  6 beta functions with:
                l(1) =   0
                l(2) =   0
                l(3) =   1
                l(4) =   1
                l(5) =   2
                l(6) =   2
     Q(r) pseudized with  8 coefficients,  rinner =    1.400   1.400   1.400
                                                       1.400   1.400

     PseudoPot. # 2 for Pb read from file:
     /home/pragov/projects/rrg-bengioy-ad/pragov/crystal_structure_design/SSSP/Pb.pbe-dn-kjpaw_psl.0.2.2.UPF
     MD5 check sum: 9d431e6316058b74ade52399a6cf67da
     Pseudo is Projector augmented-wave + core cor, Zval = 14.0
     Generated using "atomic" code by A. Dal Corso  v.5.0.99 svn rev. 10869
     Shape of augmentation charge: PSQ
     Using radial grid of 1281 points,  6 beta functions with:
                l(1) =   0
                l(2) =   0
                l(3) =   1
                l(4) =   1
                l(5) =   2
                l(6) =   2
     Q(r) pseudized with 0 coefficients

     PseudoPot. # 3 for O  read from file:
     /home/pragov/projects/rrg-bengioy-ad/pragov/crystal_structure_design/SSSP/O.pbe-n-kjpaw_psl.0.1.UPF
     MD5 check sum: 0234752ac141de4415c5fc33072bef88
     Pseudo is Projector augmented-wave + core cor, Zval =  6.0
     Generated using "atomic" code by A. Dal Corso  v.5.0.99 svn rev. 10869
     Shape of augmentation charge: BESSEL
     Using radial grid of 1095 points,  4 beta functions with:
                l(1) =   0
                l(2) =   0
                l(3) =   1
                l(4) =   1
     Q(r) pseudized with 0 coefficients

     atomic species   valence    mass     pseudopotential
        Ge            14.00    72.63000     Ge( 1.00)
        Pb            14.00   207.20000     Pb( 1.00)
        O              6.00    15.99900     O ( 1.00)

      2 Sym. Ops. (no inversion) found ( 1 have fractional translation)

                                    s                        frac. trans.

      isym =  1     identity

 cryst.   s( 1) = (     1          0          0      )
                  (     0          1          0      )
                  (     0          0          1      )

 cart.    s( 1) = (  1.0000000  0.0000000  0.0000000 )
                  (  0.0000000  1.0000000 -0.0000000 )
                  (  0.0000000  0.0000000  1.0000000 )

      isym =  2     180 deg rotation - cart. axis [1,0,0]

 cryst.   s( 2) = (     1          0          0      )    f =( -0.5000000 )
                  (     0         -1          0      )       (  0.0000000 )
                  (     0          0         -1      )       (  0.0000000 )

 cart.    s( 2) = (  1.0000000  0.0000000  0.0000000 )    f =( -0.5000000 )
                  (  0.0000000 -1.0000000  0.0000000 )       (  0.0000000 )
                  (  0.0000000  0.0000000 -1.0000000 )       (  0.0000000 )

   Cartesian axes

     site n.     atom                  positions (alat units)
         1           Ge  tau(   1) = (   0.2433480   0.5090218   0.2386602  )
         2           Ge  tau(   2) = (   0.7433480   0.0286552   0.2887552  )
         3           Pb  tau(   3) = (   0.0013890   0.5237729   0.5021733  )
         4           Pb  tau(   4) = (   0.5013890   0.0139041   0.0252421  )
         5           Pb  tau(   5) = (   0.7473930   0.2517747   0.0066702  )
         6           Pb  tau(   6) = (   0.5165280   0.2771010   0.2630837  )
         7           Pb  tau(   7) = (   0.0165280   0.2605760   0.2643316  )
         8           Pb  tau(   8) = (   0.2473930   0.2859023   0.5207451  )
         9           O   tau(   9) = (   0.4078230   0.4852880   0.2487528  )
        10           O   tau(  10) = (   0.0499150   0.2198305   0.4769807  )
        11           O   tau(  11) = (   0.1614750   0.4412722   0.3692609  )
        12           O   tau(  12) = (   0.6614750   0.0964048   0.1581545  )
        13           O   tau(  13) = (   0.9078230   0.0523890   0.2786625  )
        14           O   tau(  14) = (   0.5499150   0.3178465   0.0504346  )
        15           O   tau(  15) = (   0.2094890   0.1650473   0.2187756  )
        16           O   tau(  16) = (   0.1815390   0.4307009   0.1023745  )
        17           O   tau(  17) = (   0.7094890   0.3726297   0.3086398  )
        18           O   tau(  18) = (   0.6815390   0.1069761   0.4250409  )

   Crystallographic axes

     site n.     atom                  positions (cryst. coord.)
         1           Ge  tau(   1) = (  0.2433480  0.9761470  0.4525090  )
         2           Ge  tau(   2) = (  0.7433480  0.0238530  0.5474910  )
         3           Pb  tau(   3) = (  0.0013890  0.9754510  0.9521400  )
         4           Pb  tau(   4) = (  0.5013890  0.0245490  0.0478600  )
         5           Pb  tau(   5) = (  0.7473930  0.4954070  0.0126470  )
         6           Pb  tau(   6) = (  0.5165280  0.5163530  0.4988170  )
         7           Pb  tau(   7) = (  0.0165280  0.4836470  0.5011830  )
         8           Pb  tau(   8) = (  0.2473930  0.5045930  0.9873530  )
         9           O   tau(   9) = (  0.4078230  0.9282360  0.4716450  )
        10           O   tau(  10) = (  0.0499150  0.3793320  0.9043740  )
        11           O   tau(  11) = (  0.1614750  0.8278840  0.7001330  )
        12           O   tau(  12) = (  0.6614750  0.1721160  0.2998670  )
        13           O   tau(  13) = (  0.9078230  0.0717640  0.5283550  )
        14           O   tau(  14) = (  0.5499150  0.6206680  0.0956260  )
        15           O   tau(  15) = (  0.2094890  0.3005390  0.4148070  )
        16           O   tau(  16) = (  0.1815390  0.8371980  0.1941060  )
        17           O   tau(  17) = (  0.7094890  0.6994610  0.5851930  )
        18           O   tau(  18) = (  0.6815390  0.1628020  0.8058940  )

     number of k points=     1  Methfessel-Paxton smearing, width (Ry)=  0.0010
                       cart. coord. in units 2pi/alat
        k(    1) = (   0.0000000   0.0000000   0.0000000), wk =   2.0000000

                       cryst. coord.
        k(    1) = (   0.0000000   0.0000000   0.0000000), wk =   2.0000000

     Check: negative core charge=   -0.000008

     Initial potential from superposition of free atoms

     starting charge     171.9841, renormalised to     172.0000
     Starting wfcs are  112 randomized atomic wfcs
     Checking if some PAW data can be deallocated...

     Self-consistent Calculation

     iteration #  1     ecut=    30.00 Ry     beta= 0.70
     Davidson diagonalization with overlap

     ethr =  1.00E-02,  avg # of iterations =  3.0

     total energy              =   -6064.34611769 Ry
     estimated scf accuracy    <       4.95995584 Ry

[...]

     total energy              =   -6067.04804150 Ry
     estimated scf accuracy    <       0.00000104 Ry

     iteration # 12     ecut=    30.00 Ry     beta= 0.70
     Davidson diagonalization with overlap

     ethr =  6.03E-10,  avg # of iterations =  5.0

     End of self-consistent calculation

          k = 0.0000 0.0000 0.0000 (  3013 PWs)   bands (ev):

   -16.4182 -16.4175 -16.4057 -16.4045 -16.3847 -16.3836 -16.1834 -16.1819
   -16.1728 -16.1721 -11.1492 -11.0400 -10.3330 -10.2918  -9.8961  -9.8905
    -9.7683  -9.7340  -9.7191  -9.6736  -8.2095  -8.1850  -8.1818  -8.1708
    -8.1596  -8.1573  -8.1487  -8.1426  -8.1260  -8.1205  -8.1067  -8.1056
    -8.0855  -8.0815  -8.0711  -8.0443  -8.0396  -8.0385  -8.0202  -8.0085
    -7.9973  -7.9903  -7.9672  -7.9554  -7.8722  -7.8074  -7.6868  -7.6506
    -7.2352  -7.2231  -0.7767  -0.6624   0.0394   0.3603   0.4628   0.5777
     1.9801   2.1021   3.0652   3.2337   3.4544   3.6313   3.6906   4.0053
     4.0396   4.2109   4.3002   4.5598   4.8190   5.0834   5.2215   5.2507
     5.4455   5.4698   5.6062   5.7471   5.7725   5.8506   5.9277   6.2702
     6.2901   6.5371   6.6593   6.7479   6.8037   6.8091  10.5083  10.5927
    11.0359  11.2662  11.4241  11.8327  12.1659  12.1974  12.4737  12.5943
    12.9423  12.9429  13.0537  13.5050  13.6329  13.8473  14.4058

     occupation numbers
     1.0000   1.0000   1.0000   1.0000   1.0000   1.0000   1.0000   1.0000
     1.0000   1.0000   1.0000   1.0000   1.0000   1.0000   1.0000   1.0000
     1.0000   1.0000   1.0000   1.0000   1.0000   1.0000   1.0000   1.0000
     1.0000   1.0000   1.0000   1.0000   1.0000   1.0000   1.0000   1.0000
     1.0000   1.0000   1.0000   1.0000   1.0000   1.0000   1.0000   1.0000
     1.0000   1.0000   1.0000   1.0000   1.0000   1.0000   1.0000   1.0000
     1.0000   1.0000   1.0000   1.0000   1.0000   1.0000   1.0000   1.0000
     1.0000   1.0000   1.0000   1.0000   1.0000   1.0000   1.0000   1.0000
     1.0000   1.0000   1.0000   1.0000   1.0000   1.0000   1.0000   1.0000
     1.0000   1.0000   1.0000   1.0000   1.0000   1.0000   1.0000   1.0000
     1.0000   1.0000   1.0000   1.0000   1.0000   1.0000  -0.0000  -0.0000
    -0.0000  -0.0000  -0.0000  -0.0000  -0.0000  -0.0000  -0.0000  -0.0000
    -0.0000  -0.0000  -0.0000  -0.0000  -0.0000  -0.0000  -0.0000

     the Fermi energy is     8.7113 ev

!    total energy              =   -6067.04804160 Ry
     estimated scf accuracy    <       0.00000043 Ry
     smearing contrib. (-TS)   =       0.00000000 Ry
     internal energy E=F+TS    =   -6067.04804160 Ry

     The total energy is F=E-TS. E is the sum of the following terms:
     one-electron contribution =    -652.84008350 Ry
     hartree contribution      =     466.19995460 Ry
     xc contribution           =    -457.47057695 Ry
     ewald contribution        =    -956.73404695 Ry
     one-center paw contrib.   =   -4466.20328881 Ry
      -> PAW hartree energy AE =     874.02502818 Ry
      -> PAW hartree energy PS =    -871.81336383 Ry
      -> PAW xc energy AE      =   -4805.18488557 Ry
      -> PAW xc energy PS      =     336.76993241 Ry
      -> total E_H with PAW    =     468.41161895 Ry
      -> total E_XC with PAW   =   -4925.88553011 Ry

     convergence has been achieved in  12 iterations

     Forces acting on atoms (cartesian axes, Ry/au):

     atom    1 type  1   force =    -0.02293361   -0.00404586    0.00344038
     atom    2 type  1   force =    -0.02293361    0.00404586   -0.00344038
     atom    3 type  2   force =     0.02196649   -0.02101564   -0.01201554
     atom    4 type  2   force =     0.02196649    0.02101564    0.01201554
     atom    5 type  2   force =    -0.01505199   -0.00134651    0.00262833
     atom    6 type  2   force =    -0.00112513    0.00943056    0.01115744
     atom    7 type  2   force =    -0.00112513   -0.00943056   -0.01115744
     atom    8 type  2   force =    -0.01505199    0.00134651   -0.00262833
     atom    9 type  3   force =     0.03495567    0.02352220    0.01598702
     atom   10 type  3   force =    -0.06531705    0.04629291    0.03548590
     atom   11 type  3   force =     0.01031081   -0.00025862   -0.00604053
     atom   12 type  3   force =     0.01031081    0.00025862    0.00604053
     atom   13 type  3   force =     0.03495567   -0.02352220   -0.01598702
     atom   14 type  3   force =    -0.06531705   -0.04629291   -0.03548590
     atom   15 type  3   force =     0.02123342   -0.00766776    0.01319197
     atom   16 type  3   force =     0.01596138    0.01656207   -0.00383370
     atom   17 type  3   force =     0.02123342    0.00766776   -0.01319197
     atom   18 type  3   force =     0.01596138   -0.01656207    0.00383370
     The non-local contrib.  to forces
     atom    1 type  1   force =    -0.04997146   -0.00292764    0.00070874
     atom    2 type  1   force =    -0.04997146    0.00292764   -0.00070874
     atom    3 type  2   force =     0.30640062    0.13768108   -0.12862478
     atom    4 type  2   force =     0.30640062   -0.13768108    0.12862478
     atom    5 type  2   force =    -0.33569583   -0.15350935   -0.06104376
     atom    6 type  2   force =     0.23919236    0.17940379   -0.18327210
     atom    7 type  2   force =     0.23919236   -0.17940379    0.18327210
     atom    8 type  2   force =    -0.33569583    0.15350935    0.06104376
     atom    9 type  3   force =    -1.27252936   -0.15370896   -0.27748362
     atom   10 type  3   force =     0.43177552   -0.36392192   -0.29708277
     atom   11 type  3   force =     0.39672241    0.47095098   -0.72647958
     atom   12 type  3   force =     0.39672241   -0.47095098    0.72647958
     atom   13 type  3   force =    -1.27252936    0.15370896    0.27748362
     atom   14 type  3   force =     0.43177552    0.36392192    0.29708277
     atom   15 type  3   force =    -0.18608817   -1.02617777    0.07692462
     atom   16 type  3   force =     0.36455900    0.18595833    0.80176561
     atom   17 type  3   force =    -0.18608817    1.02617777   -0.07692462
     atom   18 type  3   force =     0.36455900   -0.18595833   -0.80176561
     The ionic contribution  to forces
     atom    1 type  1   force =     3.59758683    2.02478133    2.27446977
     atom    2 type  1   force =     3.59758682   -2.02478132   -2.27446977
     atom    3 type  2   force =    -8.58844820   -2.42462206    6.59733563
     atom    4 type  2   force =    -8.58844820    2.42462205   -6.59733563
     atom    5 type  2   force =    10.92146230    4.82472745    2.52659421
     atom    6 type  2   force =    -8.49933559   -3.39055732    5.79677822
     atom    7 type  2   force =    -8.49933559    3.39055732   -5.79677822
     atom    8 type  2   force =    10.92146230   -4.82472745   -2.52659421
     atom    9 type  3   force =     8.44867735    0.44463958    3.84001312
     atom   10 type  3   force =    -3.49183455    1.71862494    3.26267086
     atom   11 type  3   force =    -1.77806052   -2.34510364    5.60631600
     atom   12 type  3   force =    -1.77806052    2.34510364   -5.60631600
     atom   13 type  3   force =     8.44867735   -0.44463958   -3.84001312
     atom   14 type  3   force =    -3.49183455   -1.71862494   -3.26267086
     atom   15 type  3   force =     1.87822694    8.29177416   -0.17692652
     atom   16 type  3   force =    -2.48827456   -2.16632721   -5.94539630
     atom   17 type  3   force =     1.87822694   -8.29177416    0.17692652
     atom   18 type  3   force =    -2.48827456    2.16632721    5.94539630
     The local contribution  to forces
     atom    1 type  1   force =    -3.57346920   -2.02567311   -2.27051511
     atom    2 type  1   force =    -3.57393455    2.02562076    2.27059379
     atom    3 type  2   force =     8.31728220    2.26883235   -6.48444059
     atom    4 type  2   force =     8.31623429   -2.26898933    6.48448607
     atom    5 type  2   force =   -10.61257457   -4.67933773   -2.46569610
     atom    6 type  2   force =     8.26853692    3.22421126   -5.60872191
     atom    7 type  2   force =     8.26967571   -3.22410164    5.60867310
     atom    8 type  2   force =   -10.61219709    4.67944385    2.46565366
     atom    9 type  3   force =    -7.15471674   -0.26940559   -3.54954326
     atom   10 type  3   force =     2.99994592   -1.31238251   -2.93339148
     atom   11 type  3   force =     1.39578975    1.87903041   -4.89351339
     atom   12 type  3   force =     1.39559250   -1.87899823    4.89348957
     atom   13 type  3   force =    -7.15443028    0.26929470    3.54948320
     atom   14 type  3   force =     2.99964654    1.31239996    2.93338762
     atom   15 type  3   force =    -1.67309660   -7.28367142    0.11403090
     atom   16 type  3   force =     2.14347367    1.99861693    5.14844887
     atom   17 type  3   force =    -1.67318848    7.28367583   -0.11400072
     atom   18 type  3   force =     2.14333135   -1.99860265   -5.14843779
     The core correction contribution to forces
     atom    1 type  1   force =     0.00267756   -0.00001582   -0.00097045
     atom    2 type  1   force =     0.00267718    0.00001446    0.00096960
     atom    3 type  2   force =    -0.01268479   -0.00336045    0.00380886
     atom    4 type  2   force =    -0.01269393    0.00335681   -0.00380659
     atom    5 type  2   force =     0.01173102    0.00694931    0.00283055
     atom    6 type  2   force =    -0.00971650   -0.00379492    0.00653772
     atom    7 type  2   force =    -0.00970635    0.00379726   -0.00653912
     atom    8 type  2   force =     0.01173387   -0.00694789   -0.00283261
     atom    9 type  3   force =     0.01338513    0.00197807    0.00295781
     atom   10 type  3   force =    -0.00493770    0.00399105    0.00323873
     atom   11 type  3   force =    -0.00404886   -0.00511490    0.00759508
     atom   12 type  3   force =    -0.00404702    0.00511529   -0.00759488
     atom   13 type  3   force =     0.01338523   -0.00197912   -0.00295847
     atom   14 type  3   force =    -0.00493611   -0.00399105   -0.00323882
     atom   15 type  3   force =     0.00216258    0.01045594   -0.00079321
     atom   16 type  3   force =    -0.00374454   -0.00168037   -0.00864563
     atom   17 type  3   force =     0.00216449   -0.01045562    0.00079339
     atom   18 type  3   force =    -0.00374251    0.00168044    0.00864521
     The Hubbard contrib.    to forces
     atom    1 type  1   force =     0.00000000    0.00000000    0.00000000
     atom    2 type  1   force =     0.00000000    0.00000000    0.00000000
     atom    3 type  2   force =     0.00000000    0.00000000    0.00000000
     atom    4 type  2   force =     0.00000000    0.00000000    0.00000000
     atom    5 type  2   force =     0.00000000    0.00000000    0.00000000
     atom    6 type  2   force =     0.00000000    0.00000000    0.00000000
     atom    7 type  2   force =     0.00000000    0.00000000    0.00000000
     atom    8 type  2   force =     0.00000000    0.00000000    0.00000000
     atom    9 type  3   force =     0.00000000    0.00000000    0.00000000
     atom   10 type  3   force =     0.00000000    0.00000000    0.00000000
     atom   11 type  3   force =     0.00000000    0.00000000    0.00000000
     atom   12 type  3   force =     0.00000000    0.00000000    0.00000000
     atom   13 type  3   force =     0.00000000    0.00000000    0.00000000
     atom   14 type  3   force =     0.00000000    0.00000000    0.00000000
     atom   15 type  3   force =     0.00000000    0.00000000    0.00000000
     atom   16 type  3   force =     0.00000000    0.00000000    0.00000000
     atom   17 type  3   force =     0.00000000    0.00000000    0.00000000
     atom   18 type  3   force =     0.00000000    0.00000000    0.00000000
     The SCF correction term to forces
     atom    1 type  1   force =     0.00023885   -0.00021437   -0.00026112
     atom    2 type  1   force =     0.00074544    0.00026059    0.00016619
     atom    3 type  2   force =    -0.00059818    0.00046252   -0.00009331
     atom    4 type  2   force =     0.00052176   -0.00028374    0.00004828
     atom    5 type  2   force =     0.00005519   -0.00017467   -0.00005478
     atom    6 type  2   force =     0.00025535    0.00016885   -0.00016859
     atom    7 type  2   force =    -0.00097572   -0.00027861    0.00021061
     atom    8 type  2   force =    -0.00035211    0.00007015    0.00010286
     atom    9 type  3   force =     0.00015990   -0.00001011    0.00002531
     atom   10 type  3   force =    -0.00030916   -0.00002529    0.00005073
     atom   11 type  3   force =    -0.00014622   -0.00000693    0.00004361
     atom   12 type  3   force =     0.00019090    0.00000344   -0.00001547
     atom   13 type  3   force =    -0.00013463    0.00006363    0.00000011
     atom   14 type  3   force =     0.00010769   -0.00000544   -0.00004642
     atom   15 type  3   force =    -0.00002188   -0.00003590   -0.00003944
     atom   16 type  3   force =    -0.00010831   -0.00000454   -0.00001656
     atom   17 type  3   force =     0.00020244    0.00005668    0.00001782
     atom   18 type  3   force =     0.00017742   -0.00000768   -0.00001472

     Total force =     0.162126     Total SCF correction =     0.001855

     Computing stress (Cartesian axis) and pressure

          total   stress  (Ry/bohr**3)                   (kbar)     P=     -247.78
  -0.00155697   0.00000000   0.00000000         -229.04        0.00        0.00
   0.00000000  -0.00186215  -0.00007478            0.00     -273.93      -11.00
   0.00000000  -0.00007478  -0.00163407            0.00      -11.00     -240.38

     kinetic stress (kbar)  17761.07      0.00      0.00
                                0.00  17665.43     10.38
                                0.00     10.38  17799.95

     local   stress (kbar)   -276.37      0.01      0.03
                                0.01  -5592.31   1910.72
                                0.03   1910.72  -2462.33

     nonloc. stress (kbar)   2100.27      0.00      0.00
                                0.00   2101.50     -6.77
                                0.00     -6.77   2098.61

     hartree stress (kbar)   9305.30     -0.01     -0.02
                               -0.01  11784.56   -734.22
                               -0.02   -734.22  10483.03

     exc-cor stress (kbar)   9855.22      0.00      0.00
                                0.00   9855.86     -1.72
                                0.00     -1.72   9853.78

     corecor stress (kbar) -16094.63      0.00      0.00
                                0.00 -16094.26      0.14
                                0.00      0.14 -16094.25

     ewald   stress (kbar) -22879.90      0.00     -0.00
                                0.00 -19994.71  -1189.52
                               -0.00  -1189.52 -21919.17

     hubbard stress (kbar)      0.00      0.00      0.00
                                0.00      0.00      0.00
                                0.00      0.00      0.00

     DFT-D   stress (kbar)      0.00      0.00      0.00
                                0.00      0.00      0.00
                                0.00      0.00      0.00

     XDM     stress (kbar)      0.00      0.00      0.00
                                0.00      0.00      0.00
                                0.00      0.00      0.00

     dft-nl  stress (kbar)      0.00      0.00      0.00
                                0.00      0.00      0.00
                                0.00      0.00      0.00

     TS-vdW  stress (kbar)      0.00      0.00      0.00
                                0.00      0.00      0.00
                                0.00      0.00      0.00

[...]

                                0.00      0.00      0.00

     Writing all to output data dir new_calculations/myprefix.save/

     General routines

     Parallel routines

     PAW routines

   This run was terminated on:  10:44:57  20May2023

   JOB DONE.