     Program PWSCF v.7.0 starts on 20May2023 at 12:23: 6

     Reading input from espresso_10379.pwi
Warning: card &CELL ignored
Warning: card / ignored

     Current dimensions of program PWSCF are:
     Max number of different atomic species (ntypx) = 10
     Max number of k-points (npk) =  40000
     Max angular momentum in pseudopotentials (lmaxx) =  4
     file Cd.pbe-dn-rrkjus_psl.0.3.1.UPF: wavefunction(s)  4D renormalized
     file O.pbe-n-kjpaw_psl.0.1.UPF: wavefunction(s)  2P renormalized

     gamma-point specific algorithms are used
     Message from routine setup:
     using ibrav=0 with symmetry is DISCOURAGED, use correct ibrav instead

     Subspace diagonalization in iterative solution of the eigenvalue problem:
     a serial algorithm will be used

     Using Slab Decomposition

     bravais-lattice index     =            0
     lattice parameter (alat)  =      11.1331  a.u.
     unit-cell volume          =     963.5524 (a.u.)^3
     number of atoms/cell      =           10
     number of atomic types    =            4
     number of electrons       =        82.00
     number of Kohn-Sham states=           49
     kinetic-energy cutoff     =      30.0000  Ry
     charge density cutoff     =     240.0000  Ry
     scf convergence threshold =      1.0E-06
     mixing beta               =       0.7000
     number of iterations used =            8  plain     mixing
     Exchange-correlation= SLA  PW   PBX  PBC
                           (   1   4   3   4   0   0   0)

     celldm(1)=  11.133056  celldm(2)=   0.000000  celldm(3)=   0.000000
     celldm(4)=   0.000000  celldm(5)=   0.000000  celldm(6)=   0.000000

     crystal axes: (cart. coord. in units of alat)
               a(1) = (   1.000000   0.000000   0.000000 )
               a(2) = (   0.024226   0.999707   0.000000 )
               a(3) = (  -0.512113  -0.499853   0.698489 )

     reciprocal axes: (cart. coord. in units 2 pi/alat)
               b(1) = (  1.000000 -0.024233  0.715831 )
               b(2) = (  0.000000  1.000294  0.715831 )
               b(3) = (  0.000000  0.000000  1.431662 )

     PseudoPot. # 1 for Sr read from file:
     /home/pragov/projects/rrg-bengioy-ad/pragov/crystal_structure_design/SSSP/Sr_pbe_v1.uspp.F.UPF
     MD5 check sum: 6b418c05fbe9db5448babca5e47b7a5b
     Pseudo is Ultrasoft + core correction, Zval = 10.0
     Generated by new atomic code, or converted to UPF format
     Using radial grid of  883 points,  6 beta functions with:
                l(1) =   0
                l(2) =   0
                l(3) =   1
                l(4) =   1
                l(5) =   2
                l(6) =   2
     Q(r) pseudized with  6 coefficients,  rinner =    1.400   1.400   1.400
                                                       1.400   1.400

     PseudoPot. # 2 for Cd read from file:
     /home/pragov/projects/rrg-bengioy-ad/pragov/crystal_structure_design/SSSP/Cd.pbe-dn-rrkjus_psl.0.3.1.UPF
     MD5 check sum: 558e9f355611b531a870a69ef6ace9e2
     Pseudo is Ultrasoft + core correction, Zval = 12.0
     Generated using "atomic" code by A. Dal Corso  v.5.0.99 svn rev. 10869
     Using radial grid of 1239 points,  6 beta functions with:
                l(1) =   0
                l(2) =   0
                l(3) =   1
                l(4) =   1
                l(5) =   2
                l(6) =   2
     Q(r) pseudized with 0 coefficients

     PseudoPot. # 3 for W  read from file:
     /home/pragov/projects/rrg-bengioy-ad/pragov/crystal_structure_design/SSSP/W_pbe_v1.2.uspp.F.UPF
     MD5 check sum: 9c083fa34c2a2ea0f02f1f893e16e1c8
     Pseudo is Ultrasoft + core correction, Zval = 14.0
     Generated by new atomic code, or converted to UPF format
     Using radial grid of  923 points,  8 beta functions with:
                l(1) =   0
                l(2) =   0
                l(3) =   0
                l(4) =   1
                l(5) =   1
                l(6) =   2
                l(7) =   2
                l(8) =   3
     Q(r) pseudized with  6 coefficients,  rinner =    1.350   1.350   1.350
                                                       1.350   1.350   1.350
                                                       1.350

     PseudoPot. # 4 for O  read from file:
     /home/pragov/projects/rrg-bengioy-ad/pragov/crystal_structure_design/SSSP/O.pbe-n-kjpaw_psl.0.1.UPF
     MD5 check sum: 0234752ac141de4415c5fc33072bef88
     Pseudo is Projector augmented-wave + core cor, Zval =  6.0
     Generated using "atomic" code by A. Dal Corso  v.5.0.99 svn rev. 10869
     Shape of augmentation charge: BESSEL
     Using radial grid of 1095 points,  4 beta functions with:
                l(1) =   0
                l(2) =   0
                l(3) =   1
                l(4) =   1
     Q(r) pseudized with 0 coefficients

     atomic species   valence    mass     pseudopotential
        Sr            10.00    87.62000     Sr( 1.00)
        Cd            12.00   112.41400     Cd( 1.00)
        W             14.00   183.84000     W ( 1.00)
        O              6.00    15.99900     O ( 1.00)

      2 Sym. Ops., with inversion, found

                                    s                        frac. trans.

      isym =  1     identity

 cryst.   s( 1) = (     1          0          0      )
                  (     0          1          0      )
                  (     0          0          1      )

 cart.    s( 1) = (  1.0000000  0.0000000 -0.0000000 )
                  (  0.0000000  1.0000000 -0.0000000 )
                  (  0.0000000  0.0000000  1.0000000 )

      isym =  2     inversion

 cryst.   s( 2) = (    -1          0          0      )
                  (     0         -1          0      )
                  (     0          0         -1      )

 cart.    s( 2) = ( -1.0000000 -0.0000000  0.0000000 )
                  (  0.0000000 -1.0000000  0.0000000 )
                  (  0.0000000  0.0000000 -1.0000000 )

   Cartesian axes

     site n.     atom                  positions (alat units)
         1           Sr  tau(   1) = (   0.0121130   0.4998533   0.3492445  )
         2           Sr  tau(   2) = (   0.5000000   0.0000000   0.3492445  )
         3           Cd  tau(   3) = (   0.5121130   0.4998533   0.0000000  )
         4           W   tau(   4) = (   0.0000000   0.0000000   0.0000000  )
         5           O   tau(   5) = (   0.0647202  -0.0663075   0.3184412  )
         6           O   tau(   6) = (   0.7775723   0.2278831   0.0926574  )
         7           O   tau(   7) = (  -0.2654593   0.2719702   0.6058317  )
         8           O   tau(   8) = (   0.4473929   0.5661608   0.3800479  )
         9           O   tau(   9) = (   0.7869190   0.7680805   0.0000000  )
        10           O   tau(  10) = (   0.2373070   0.2316260   0.0000000  )

   Crystallographic axes

     site n.     atom                  positions (cryst. coord.)
         1           Sr  tau(   1) = (  0.2500000  0.7500000  0.5000000  )
         2           Sr  tau(   2) = (  0.7500000  0.2500000  0.5000000  )
         3           Cd  tau(   3) = (  0.5000000  0.5000000  0.0000000  )
         4           W   tau(   4) = (  0.0000000  0.0000000  0.0000000  )
         5           O   tau(   5) = (  0.2942770  0.1616230  0.4559000  )
         6           O   tau(   6) = (  0.8383770  0.2942770  0.1326540  )
         7           O   tau(   7) = (  0.1616230  0.7057230  0.8673460  )
         8           O   tau(   8) = (  0.7057230  0.8383770  0.5441000  )
         9           O   tau(   9) = (  0.7683060  0.7683060  0.0000000  )
        10           O   tau(  10) = (  0.2316940  0.2316940  0.0000000  )

     number of k points=     1  Methfessel-Paxton smearing, width (Ry)=  0.0010
                       cart. coord. in units 2pi/alat
        k(    1) = (   0.0000000   0.0000000   0.0000000), wk =   2.0000000

                       cryst. coord.
        k(    1) = (   0.0000000   0.0000000   0.0000000), wk =   2.0000000

     Check: negative core charge=   -0.000010

     Initial potential from superposition of free atoms

     starting charge      81.8275, renormalised to      82.0000

     negative rho (up, down):  1.916E-01 0.000E+00
     Starting wfcs are   72 randomized atomic wfcs
     Checking if some PAW data can be deallocated...

     Self-consistent Calculation

     iteration #  1     ecut=    30.00 Ry     beta= 0.70
     Davidson diagonalization with overlap

     ethr =  1.00E-02,  avg # of iterations =  3.0

     negative rho (up, down):  1.599E-01 0.000E+00

     total energy              =    -670.90029270 Ry
     estimated scf accuracy    <       3.03616604 Ry

[...]

     total energy              =    -672.40115499 Ry
     estimated scf accuracy    <       0.00003268 Ry

     iteration # 10     ecut=    30.00 Ry     beta= 0.70
     Davidson diagonalization with overlap

     ethr =  3.99E-08,  avg # of iterations =  2.0

[...]

     End of self-consistent calculation

          k = 0.0000 0.0000 0.0000 (  1347 PWs)   bands (ev):

   -65.7409 -29.8288 -29.6489 -29.2220 -25.3651 -23.6937  -9.5235  -8.7637
    -8.6887  -7.9412  -7.7503  -7.6853  -7.5450  -6.9796  -6.1970  -5.9538
    -5.9257  -5.7525   1.2527   1.5933   2.0205   2.1341   2.5691   3.5887
     5.1309   5.3456   5.5640   5.7595   6.0112   6.0677   6.1488   6.2253
     7.6665   7.7571   7.8989   8.2121   8.2481   8.4636   8.5335   8.6611
     8.8155  12.3169  12.4018  12.5397  12.8658  13.7915  14.3825  14.7899
    14.8595

     occupation numbers
     1.0000   1.0000   1.0000   1.0000   1.0000   1.0000   1.0000   1.0000
     1.0000   1.0000   1.0000   1.0000   1.0000   1.0000   1.0000   1.0000
     1.0000   1.0000   1.0000   1.0000   1.0000   1.0000   1.0000   1.0000
     1.0000   1.0000   1.0000   1.0000   1.0000   1.0000   1.0000   1.0000
     1.0000   1.0000   1.0000   1.0000   1.0000   1.0000   1.0000   1.0000
     1.0000  -0.0000  -0.0000  -0.0000  -0.0000  -0.0000  -0.0000  -0.0000
    -0.0000

     the Fermi energy is     9.9410 ev

!    total energy              =    -672.40116088 Ry
     estimated scf accuracy    <       0.00000025 Ry
     smearing contrib. (-TS)   =       0.00000000 Ry
     internal energy E=F+TS    =    -672.40116088 Ry

     The total energy is F=E-TS. E is the sum of the following terms:
     one-electron contribution =    -161.33214442 Ry
     hartree contribution      =     132.84321567 Ry
     xc contribution           =    -165.83755065 Ry
     ewald contribution        =    -420.94792150 Ry
     one-center paw contrib.   =     -57.12675998 Ry
      -> PAW hartree energy AE =     176.43752678 Ry
      -> PAW hartree energy PS =    -175.85813892 Ry
      -> PAW xc energy AE      =    -102.69851160 Ry
      -> PAW xc energy PS      =      44.99236376 Ry
      -> total E_H with PAW    =     133.42260353 Ry
      -> total E_XC with PAW   =    -223.54369850 Ry

     convergence has been achieved in  10 iterations

     negative rho (up, down):  1.424E-01 0.000E+00

     Forces acting on atoms (cartesian axes, Ry/au):

     atom    1 type  1   force =    -0.00896844    0.01767649    0.00211191
     atom    2 type  1   force =     0.00896844   -0.01767649   -0.00211191
     atom    3 type  2   force =     0.00000000    0.00000000    0.00000000
     atom    4 type  3   force =     0.00000000    0.00000000    0.00000000
     atom    5 type  4   force =     0.04248242   -0.02943941    0.09078373
     atom    6 type  4   force =     0.01798326    0.02927604    0.00103940
     atom    7 type  4   force =    -0.01798326   -0.02927604   -0.00103940
     atom    8 type  4   force =    -0.04248242    0.02943941   -0.09078373
     atom    9 type  4   force =     0.02775753   -0.04836086    0.00755539
     atom   10 type  4   force =    -0.02775753    0.04836086   -0.00755539
     The non-local contrib.  to forces
     atom    1 type  1   force =    -0.00137671    0.00517335    0.00077016
     atom    2 type  1   force =     0.00137671   -0.00517335   -0.00077016
     atom    3 type  2   force =     0.00000000    0.00000000    0.00000000
     atom    4 type  3   force =     0.00000000    0.00000000    0.00000000
     atom    5 type  4   force =    -0.17683839    0.25884100   -0.23401275
     atom    6 type  4   force =     0.18943692   -0.18256372   -0.40524665
     atom    7 type  4   force =    -0.18943692    0.18256372    0.40524665
     atom    8 type  4   force =     0.17683839   -0.25884100    0.23401275
     atom    9 type  4   force =     0.19992568    0.15081503    0.04382399
     atom   10 type  4   force =    -0.19992568   -0.15081503   -0.04382399
     The ionic contribution  to forces
     atom    1 type  1   force =     0.00000000   -0.00000000   -0.00000000
     atom    2 type  1   force =    -0.00000000    0.00000000    0.00000000
     atom    3 type  2   force =     0.00000000   -0.00000000    0.00000000
     atom    4 type  3   force =     0.00000000    0.00000000   -0.00000000
     atom    5 type  4   force =     1.50292427   -1.53978606    5.95250142
     atom    6 type  4   force =    -4.15775721    4.25973333    2.15167899
     atom    7 type  4   force =     4.15775721   -4.25973333   -2.15167899
     atom    8 type  4   force =    -1.50292427    1.53978606   -5.95250142
     atom    9 type  4   force =    -4.39620407   -4.29096090   -0.00000000
     atom   10 type  4   force =     4.39620407    4.29096090    0.00000000
     The local contribution  to forces
     atom    1 type  1   force =    -0.00814606    0.01180402    0.00184780
     atom    2 type  1   force =     0.00809933   -0.01175694   -0.00187169
     atom    3 type  2   force =     0.00003344    0.00002696    0.00001381
     atom    4 type  3   force =     0.00006079   -0.00004501   -0.00002500
     atom    5 type  4   force =    -1.28551985    1.25374893   -5.62938278
     atom    6 type  4   force =     3.98677411   -4.04877516   -1.74914991
     atom    7 type  4   force =    -3.98682075    4.04871532    1.74916237
     atom    8 type  4   force =     1.28557727   -1.25375797    5.62926709
     atom    9 type  4   force =     4.22433669    4.09302674   -0.03526131
     atom   10 type  4   force =    -4.22438082   -4.09308841    0.03524898
     The core correction contribution to forces
     atom    1 type  1   force =     0.00042531    0.00063335   -0.00046052
     atom    2 type  1   force =    -0.00042829   -0.00063129    0.00046021
     atom    3 type  2   force =     0.00000090   -0.00000090   -0.00000006
     atom    4 type  3   force =     0.00000016    0.00000032    0.00000106
     atom    5 type  4   force =     0.00186076   -0.00222196    0.00191702
     atom    6 type  4   force =    -0.00076541    0.00104250    0.00395475
     atom    7 type  4   force =     0.00076577   -0.00104315   -0.00395465
     atom    8 type  4   force =    -0.00186074    0.00222215   -0.00191788
     atom    9 type  4   force =    -0.00054632   -0.00141166   -0.00099350
     atom   10 type  4   force =     0.00054548    0.00141125    0.00099346
     The Hubbard contrib.    to forces
     atom    1 type  1   force =     0.00000000    0.00000000    0.00000000
     atom    2 type  1   force =     0.00000000    0.00000000    0.00000000
     atom    3 type  2   force =     0.00000000    0.00000000    0.00000000
     atom    4 type  3   force =     0.00000000    0.00000000    0.00000000
     atom    5 type  4   force =     0.00000000    0.00000000    0.00000000
     atom    6 type  4   force =     0.00000000    0.00000000    0.00000000
     atom    7 type  4   force =     0.00000000    0.00000000    0.00000000
     atom    8 type  4   force =     0.00000000    0.00000000    0.00000000
     atom    9 type  4   force =     0.00000000    0.00000000    0.00000000
     atom   10 type  4   force =     0.00000000    0.00000000    0.00000000
     The SCF correction term to forces
     atom    1 type  1   force =     0.00011480    0.00006064   -0.00003991
     atom    2 type  1   force =    -0.00009352   -0.00012004    0.00007534
     atom    3 type  2   force =    -0.00002456   -0.00000420   -0.00004466
     atom    4 type  3   force =    -0.00008170    0.00004030    0.00004500
     atom    5 type  4   force =     0.00006621   -0.00001873   -0.00026558
     atom    6 type  4   force =     0.00030491   -0.00018000   -0.00019993
     atom    7 type  4   force =    -0.00023852    0.00020231    0.00018306
     atom    8 type  4   force =    -0.00010249    0.00003275    0.00032932
     atom    9 type  4   force =     0.00023591    0.00017355   -0.00002641
     atom   10 type  4   force =    -0.00021023   -0.00010425    0.00001354

     Total force =     0.176965     Total SCF correction =     0.000833

     Computing stress (Cartesian axis) and pressure

     negative rho (up, down):  1.424E-01 0.000E+00
          total   stress  (Ry/bohr**3)                   (kbar)     P=     -132.89
  -0.00235704  -0.00041749   0.00025593         -346.73      -61.42       37.65
  -0.00041749  -0.00030309   0.00041358          -61.42      -44.59       60.84
   0.00025593   0.00041358  -0.00005002           37.65       60.84       -7.36

     kinetic stress (kbar)  23784.89     38.19     -2.22
                               38.19  23906.61      6.19
                               -2.22      6.19  23842.02

     local   stress (kbar)  -6119.27   -861.68     42.99
                             -861.68  -5872.52     43.49
                               42.99     43.49  -5054.60

     nonloc. stress (kbar)   2026.71    -11.38     -2.83
                              -11.38   2004.54     22.93
                               -2.83     22.93   2022.68

     hartree stress (kbar)   6810.78    133.88     -0.07
                              133.88   6789.62    -10.34
                               -0.07    -10.34   6680.71

     exc-cor stress (kbar)   5729.15      4.20      0.17
                                4.20   5728.85     -0.35
                                0.17     -0.35   5724.97

     corecor stress (kbar) -11384.85     -1.63     -0.39
                               -1.63 -11376.67     -1.07
                               -0.39     -1.07 -11376.37

     ewald   stress (kbar) -21194.14    637.00      0.00
                              637.00 -21225.01      0.00
                                0.00      0.00 -21846.76

     hubbard stress (kbar)      0.00      0.00      0.00
                                0.00      0.00      0.00
                                0.00      0.00      0.00

     DFT-D   stress (kbar)      0.00      0.00      0.00
                                0.00      0.00      0.00
                                0.00      0.00      0.00

     XDM     stress (kbar)      0.00      0.00      0.00
                                0.00      0.00      0.00
                                0.00      0.00      0.00

     dft-nl  stress (kbar)      0.00      0.00      0.00
                                0.00      0.00      0.00
                                0.00      0.00      0.00

     TS-vdW  stress (kbar)      0.00      0.00      0.00
                                0.00      0.00      0.00
                                0.00      0.00      0.00

[...]

                                0.00      0.00      0.00

     Writing all to output data dir new_calculations/myprefix.save/

     General routines

     Parallel routines

     PAW routines

   This run was terminated on:  12:23:26  20May2023

   JOB DONE.