     Program PWSCF v.7.0 starts on 20May2023 at 23: 0:27

     Reading input from espresso_9729.pwi
Warning: card &CELL ignored
Warning: card / ignored

     Current dimensions of program PWSCF are:
     Max number of different atomic species (ntypx) = 10
     Max number of k-points (npk) =  40000
     Max angular momentum in pseudopotentials (lmaxx) =  4

     gamma-point specific algorithms are used
     Message from routine setup:
     using ibrav=0 with symmetry is DISCOURAGED, use correct ibrav instead

     Subspace diagonalization in iterative solution of the eigenvalue problem:
     a serial algorithm will be used

     Using Slab Decomposition

     bravais-lattice index     =            0
     lattice parameter (alat)  =       8.1676  a.u.
     unit-cell volume          =    1174.5077 (a.u.)^3
     number of atoms/cell      =            7
     number of atomic types    =            3
     number of electrons       =       118.00
     number of Kohn-Sham states=           71
     kinetic-energy cutoff     =      30.0000  Ry
     charge density cutoff     =     240.0000  Ry
     scf convergence threshold =      1.0E-06
     mixing beta               =       0.7000
     number of iterations used =            8  plain     mixing
     Exchange-correlation=  SLA  PW   PBX  PBC
                           (   1   4   3   4   0   0   0)

     celldm(1)=   8.167619  celldm(2)=   0.000000  celldm(3)=   0.000000
     celldm(4)=   0.000000  celldm(5)=   0.000000  celldm(6)=   0.000000

     crystal axes: (cart. coord. in units of alat)
               a(1) = (   1.000000   0.000000   0.000000 )
               a(2) = (   0.000000   1.000000   0.000000 )
               a(3) = (   0.000000   0.000000   2.155606 )

     reciprocal axes: (cart. coord. in units 2 pi/alat)
               b(1) = (  1.000000  0.000000  0.000000 )
               b(2) = (  0.000000  1.000000  0.000000 )
               b(3) = (  0.000000  0.000000  0.463907 )

     PseudoPot. # 1 for Dy read from file:
     /home/pragov/projects/rrg-bengioy-ad/pragov/crystal_structure_design/SSSP/Dy.GGA-PBE-paw-v1.0.UPF
     MD5 check sum: 733414aae3e3693a823ce0c917a68f08
     Pseudo is Projector augmented-wave + core cor, Zval = 20.0
     Generated using ATOMPAW code
     Shape of augmentation charge: BESSEL
     Using radial grid of 1112 points,  8 beta functions with:
                l(1) =   0
                l(2) =   0
                l(3) =   1
                l(4) =   1
                l(5) =   2
                l(6) =   2
                l(7) =   3
                l(8) =   3
     Q(r) pseudized with 0 coefficients

     PseudoPot. # 2 for Ni read from file:
     /home/pragov/projects/rrg-bengioy-ad/pragov/crystal_structure_design/SSSP/ni_pbe_v1.4.uspp.F.UPF
     MD5 check sum: 1ee80287db30b12d2bc1f57a5b5d6409
     Pseudo is Ultrasoft + core correction, Zval = 18.0
     Generated by new atomic code, or converted to UPF format
     Using radial grid of  865 points,  6 beta functions with:
                l(1) =   0
                l(2) =   0
                l(3) =   1
                l(4) =   1
                l(5) =   2
                l(6) =   2
     Q(r) pseudized with 10 coefficients,  rinner =    0.980   0.980   0.980
                                                       0.980   0.980

     PseudoPot. # 3 for Sb read from file:
     /home/pragov/projects/rrg-bengioy-ad/pragov/crystal_structure_design/SSSP/sb_pbe_v1.4.uspp.F.UPF
     MD5 check sum: 9bc50dfb53373b713f5709b9110fe27f
     Pseudo is Ultrasoft + core correction, Zval = 15.0
     Generated by new atomic code, or converted to UPF format
     Using radial grid of  891 points,  6 beta functions with:
                l(1) =   0
                l(2) =   0
                l(3) =   1
                l(4) =   1
                l(5) =   2
                l(6) =   2
     Q(r) pseudized with  8 coefficients,  rinner =    1.350   1.350   1.350
                                                       1.350   1.350

     atomic species   valence    mass     pseudopotential
        Dy            20.00   162.50000     Dy( 1.00)
        Ni            18.00    58.69340     Ni( 1.00)
        Sb            15.00   121.76000     Sb( 1.00)

      8 Sym. Ops. (no inversion) found

                                    s                        frac. trans.

      isym =  1     identity

 cryst.   s( 1) = (     1          0          0      )
                  (     0          1          0      )
                  (     0          0          1      )

 cart.    s( 1) = (  1.0000000  0.0000000  0.0000000 )
                  (  0.0000000  1.0000000  0.0000000 )
                  (  0.0000000  0.0000000  1.0000000 )

      isym =  2     180 deg rotation - cart. axis [0,0,1]

[...]

      isym =  4     180 deg rotation - cart. axis [1,-1,0]

[...]

      isym =  5     inv. 180 deg rotation - cart. axis [0,1,0]

[...]

      isym =  8     inv.  90 deg rotation - cart. axis [0,0,1]

 cryst.   s( 8) = (     0         -1          0      )
                  (     1          0          0      )
                  (     0          0         -1      )

 cart.    s( 8) = (  0.0000000  1.0000000  0.0000000 )
                  ( -1.0000000  0.0000000  0.0000000 )
                  (  0.0000000  0.0000000 -1.0000000 )

   Cartesian axes

     site n.     atom                  positions (alat units)
         1           Dy  tau(   1) = (   0.5000000   0.0000000   0.5106200  )
         2           Dy  tau(   2) = (   0.0000000   0.5000000   1.6449861  )
         3           Ni  tau(   3) = (   0.5000000   0.5000000   0.0000000  )
         4           Sb  tau(   4) = (   0.5000000   0.5000000   1.0778031  )
         5           Sb  tau(   5) = (   0.0000000   0.0000000   1.0778031  )
         6           Sb  tau(   6) = (   0.5000000   0.0000000   1.8740042  )
         7           Sb  tau(   7) = (   0.0000000   0.5000000   0.2816019  )

   Crystallographic axes

     site n.     atom                  positions (cryst. coord.)
         1           Dy  tau(   1) = (  0.5000000  0.0000000  0.2368800  )
         2           Dy  tau(   2) = (  0.0000000  0.5000000  0.7631200  )
         3           Ni  tau(   3) = (  0.5000000  0.5000000  0.0000000  )
         4           Sb  tau(   4) = (  0.5000000  0.5000000  0.5000000  )
         5           Sb  tau(   5) = (  0.0000000  0.0000000  0.5000000  )
         6           Sb  tau(   6) = (  0.5000000  0.0000000  0.8693630  )
         7           Sb  tau(   7) = (  0.0000000  0.5000000  0.1306370  )

     number of k points=     1  Methfessel-Paxton smearing, width (Ry)=  0.0010
                       cart. coord. in units 2pi/alat
        k(    1) = (   0.0000000   0.0000000   0.0000000), wk =   2.0000000

                       cryst. coord.
        k(    1) = (   0.0000000   0.0000000   0.0000000), wk =   2.0000000

     Check: negative core charge=   -0.000005

     Initial potential from superposition of free atoms

     starting charge     111.9923, renormalised to     118.0000
     Starting wfcs are  113 randomized atomic wfcs
     Checking if some PAW data can be deallocated...

     Self-consistent Calculation

     iteration #  1     ecut=    30.00 Ry     beta= 0.70
     Davidson diagonalization with overlap

     ethr =  1.00E-02,  avg # of iterations =  5.0

     total energy              =   -2506.32236283 Ry
     estimated scf accuracy    <     122.71314542 Ry

[...]

     ethr =  3.12E-03,  avg # of iterations =  1.0
     Minimization algorithm failed to find Fermi energy: reverting to bisection
     Possible cause: smearing is larger than the electronic band-gap.

[...]

     ethr =  4.96E-06,  avg # of iterations =  1.0
     Minimization algorithm failed to find Fermi energy: reverting to bisection
     Possible cause: smearing is larger than the electronic band-gap.

[...]

     total energy              =   -2636.61457639 Ry
     estimated scf accuracy    <       0.00000312 Ry

     iteration # 77     ecut=    30.00 Ry     beta= 0.70
     Davidson diagonalization with overlap

     ethr =  2.64E-09,  avg # of iterations =  1.0

     End of self-consistent calculation

          k = 0.0000 0.0000 0.0000 (  1612 PWs)   bands (ev):

   -91.3100 -51.6501 -51.6501 -51.5914 -31.6639 -31.6637 -16.2183 -16.1795
   -16.1792 -16.1667 -16.1451 -16.1451 -16.1214 -16.1214 -16.0456 -16.0313
   -16.0313 -16.0213 -16.0196 -16.0150 -16.0127 -15.9990 -15.9762 -15.9762
   -15.9614 -15.9213  -8.1244  -8.0812  -7.9450  -7.9450  -7.9326  -7.9324
     1.0407   2.3758   3.5515   6.8198   8.4204   9.0091   9.5407   9.5407
     9.6477   9.6477  10.4422  10.5152  10.9767  11.0601  11.0602  12.1530
    13.2277  13.2277  13.3772  13.3830  13.4977  13.5689  13.5689  13.5805
    13.6419  13.6420  13.6502  13.6508  13.7247  13.7247  14.0724  14.1775
    14.3738  14.3739  14.5676  15.6530  15.6530  16.5217  16.6606

     occupation numbers
     1.0000   1.0000   1.0000   1.0000   1.0000   1.0000   1.0000   1.0000
     1.0000   1.0000   1.0000   1.0000   1.0000   1.0000   1.0000   1.0000
     1.0000   1.0000   1.0000   1.0000   1.0000   1.0000   1.0000   1.0000
     1.0000   1.0000   1.0000   1.0000   1.0000   1.0000   1.0000   1.0000
     1.0000   1.0000   1.0000   1.0000   1.0000   1.0000   1.0000   1.0000
     1.0000   1.0000   1.0000   1.0000   1.0000   1.0000   1.0000   1.0000
     1.0000   1.0000   1.0000   1.0000   1.0000   1.0000   1.0000   1.0000
     0.9548   0.9531   0.5647   0.5273  -0.0000  -0.0000  -0.0000  -0.0000
    -0.0000  -0.0000  -0.0000  -0.0000  -0.0000  -0.0000  -0.0000

     the Fermi energy is    13.6513 ev

!    total energy              =   -2636.61457620 Ry
     estimated scf accuracy    <       0.00000027 Ry
     smearing contrib. (-TS)   =      -0.00058161 Ry
     internal energy E=F+TS    =   -2636.61399459 Ry

     The total energy is F=E-TS. E is the sum of the following terms:
     one-electron contribution =    -946.30534445 Ry
     hartree contribution      =     541.81550666 Ry
     xc contribution           =    -267.66819590 Ry
     ewald contribution        =   -1004.13862751 Ry
     one-center paw contrib.   =    -960.31733338 Ry
      -> PAW hartree energy AE =     519.74399243 Ry
      -> PAW hartree energy PS =    -483.09936755 Ry
      -> PAW xc energy AE      =   -1050.58510069 Ry
      -> PAW xc energy PS      =      53.62314243 Ry
      -> total E_H with PAW    =     578.46013153 Ry
      -> total E_XC with PAW   =   -1264.63015416 Ry

     convergence has been achieved in  77 iterations

     Forces acting on atoms (cartesian axes, Ry/au):

     atom    1 type  1   force =     0.00000000    0.00000000    0.01341955
     atom    2 type  1   force =     0.00000000    0.00000000   -0.01341955
     atom    3 type  2   force =     0.00000000    0.00000000    0.00000000
     atom    4 type  3   force =     0.00000000    0.00000000    0.00000000
     atom    5 type  3   force =     0.00000000    0.00000000    0.00000000
     atom    6 type  3   force =     0.00000000    0.00000000    0.01871076
     atom    7 type  3   force =     0.00000000    0.00000000   -0.01871076
     The non-local contrib.  to forces
     atom    1 type  1   force =     0.00000000    0.00000000   -0.25833789
     atom    2 type  1   force =     0.00000000    0.00000000    0.25833789
     atom    3 type  2   force =     0.00000000    0.00000000    0.00000000
     atom    4 type  3   force =     0.00000000    0.00000000    0.00000000
     atom    5 type  3   force =     0.00000000    0.00000000    0.00000000
     atom    6 type  3   force =     0.00000000    0.00000000    0.10907021
     atom    7 type  3   force =     0.00000000    0.00000000   -0.10907021
     The ionic contribution  to forces
     atom    1 type  1   force =    -0.00000000   -0.00000000   21.28249560
     atom    2 type  1   force =     0.00000000    0.00000000  -21.28249560
     atom    3 type  2   force =     0.00000000   -0.00000000   -0.00000000
     atom    4 type  3   force =     0.00000000    0.00000000    0.00000000
     atom    5 type  3   force =    -0.00000000   -0.00000000    0.00000000
     atom    6 type  3   force =     0.00000000    0.00000000  -19.53793097
     atom    7 type  3   force =    -0.00000000   -0.00000000   19.53793097
     The local contribution  to forces
     atom    1 type  1   force =    -0.00017269    0.00002364  -21.01061651
     atom    2 type  1   force =    -0.00001993    0.00011919   21.01083511
     atom    3 type  2   force =     0.00002198   -0.00001566    0.00113670
     atom    4 type  3   force =    -0.00002037    0.00001606   -0.00085768
     atom    5 type  3   force =     0.00003530   -0.00002630   -0.00069085
     atom    6 type  3   force =     0.00000728    0.00001218   19.44613989
     atom    7 type  3   force =    -0.00000939   -0.00000240  -19.44511088
     The core correction contribution to forces
     atom    1 type  1   force =    -0.00000000    0.00000000    0.00000484
     atom    2 type  1   force =    -0.00000000    0.00000000   -0.00000484
     atom    3 type  2   force =    -0.00000005    0.00000002    0.00000034
     atom    4 type  3   force =     0.00000017    0.00000002    0.00000044
     atom    5 type  3   force =    -0.00000026    0.00000009    0.00000129
     atom    6 type  3   force =     0.00000002    0.00000004    0.00192523
     atom    7 type  3   force =     0.00000018    0.00000005   -0.00192784
     The Hubbard contrib.    to forces
     atom    1 type  1   force =     0.00000000    0.00000000    0.00000000
     atom    2 type  1   force =     0.00000000    0.00000000    0.00000000
     atom    3 type  2   force =     0.00000000    0.00000000    0.00000000
     atom    4 type  3   force =     0.00000000    0.00000000    0.00000000
     atom    5 type  3   force =     0.00000000    0.00000000    0.00000000
     atom    6 type  3   force =     0.00000000    0.00000000    0.00000000
     atom    7 type  3   force =     0.00000000    0.00000000    0.00000000
     The SCF correction term to forces
     atom    1 type  1   force =     0.00012536   -0.00001975   -0.00010514
     atom    2 type  1   force =     0.00001766   -0.00008057   -0.00007076
     atom    3 type  2   force =    -0.00002259    0.00001355   -0.00102696
     atom    4 type  3   force =     0.00001716   -0.00001560    0.00079418
     atom    5 type  3   force =    -0.00003224    0.00002605    0.00065888
     atom    6 type  3   force =    -0.00000969   -0.00001276   -0.00046132
     atom    7 type  3   force =     0.00000939    0.00000319   -0.00050050

     Total force =     0.032563     Total SCF correction =     0.001620

     Computing stress (Cartesian axis) and pressure

          total   stress  (Ry/bohr**3)                   (kbar)     P=     -270.43
  -0.00156601   0.00000000   0.00000000         -230.37        0.00        0.00
  -0.00000000  -0.00156601   0.00000000           -0.00     -230.37        0.00
   0.00000000   0.00000000  -0.00238301            0.00        0.00     -350.55

     kinetic stress (kbar)  19662.62      0.00      0.00
                                0.00  19662.62      0.00
                                0.00      0.00  19619.62

     local   stress (kbar)  -2820.93     -0.05      0.36
                               -0.05  -2822.63      0.24
                                0.36      0.24   7738.01

     nonloc. stress (kbar)   6560.67     -0.00      0.00
                               -0.00   6560.67      0.00
                                0.00      0.00   6452.55

     hartree stress (kbar)  24221.24      0.02     -0.13
                                0.02  24221.96     -0.09
                               -0.13     -0.09  19418.27

     exc-cor stress (kbar)   3901.45      0.00     -0.00
                                0.00   3901.45     -0.00
                               -0.00     -0.00   3898.47

     corecor stress (kbar) -11741.11      0.00      0.00
                                0.00 -11741.11     -0.00
                                0.00     -0.00 -11738.46

     ewald   stress (kbar) -40013.81      0.00     -0.00
                                0.00 -40013.81      0.00
                               -0.00      0.00 -45739.02

     hubbard stress (kbar)      0.00      0.00      0.00
                                0.00      0.00      0.00
                                0.00      0.00      0.00

     DFT-D   stress (kbar)      0.00      0.00      0.00
                                0.00      0.00      0.00
                                0.00      0.00      0.00

     XDM     stress (kbar)      0.00      0.00      0.00
                                0.00      0.00      0.00
                                0.00      0.00      0.00

     dft-nl  stress (kbar)      0.00      0.00      0.00
                                0.00      0.00      0.00
                                0.00      0.00      0.00

     TS-vdW  stress (kbar)      0.00      0.00      0.00
                                0.00      0.00      0.00
                                0.00      0.00      0.00

[...]

                                0.00      0.00      0.00

     Writing all to output data dir new_calculations/myprefix.save/

     General routines

     Parallel routines

     PAW routines

   This run was terminated on:  23: 2:25  20May2023

   JOB DONE.