     Program PWSCF v.7.0 starts on 21May2023 at 16: 0:31

     Reading input from espresso_22858.pwi
Warning: card &CELL ignored
Warning: card / ignored

     Current dimensions of program PWSCF are:
     Max number of different atomic species (ntypx) = 10
     Max number of k-points (npk) =  40000
     Max angular momentum in pseudopotentials (lmaxx) =  4
     file Al.pbe-n-kjpaw_psl.1.0.0.UPF: wavefunction(s)  3S 3P renormalized

     gamma-point specific algorithms are used
     Message from routine setup:
     using ibrav=0 with symmetry is DISCOURAGED, use correct ibrav instead

     Subspace diagonalization in iterative solution of the eigenvalue problem:
     a serial algorithm will be used

     Using Slab Decomposition

     bravais-lattice index     =            0
     lattice parameter (alat)  =      20.3305  a.u.
     unit-cell volume          =    2332.4365 (a.u.)^3
     number of atoms/cell      =           20
     number of atomic types    =            4
     number of electrons       =       144.00
     number of Kohn-Sham states=           86
     kinetic-energy cutoff     =      30.0000  Ry
     charge density cutoff     =     240.0000  Ry
     scf convergence threshold =      1.0E-06
     mixing beta               =       0.7000
     number of iterations used =            8  plain     mixing
     Exchange-correlation=  SLA  PW   PBX  PBC
                           (   1   4   3   4   0   0   0)

     celldm(1)=  20.330477  celldm(2)=   0.000000  celldm(3)=   0.000000
     celldm(4)=   0.000000  celldm(5)=   0.000000  celldm(6)=   0.000000

     crystal axes: (cart. coord. in units of alat)
               a(1) = (   1.000000   0.000000   0.000000 )
               a(2) = (   0.829800   0.558060   0.000000 )
               a(3) = (   0.829800   0.253076   0.497377 )

     reciprocal axes: (cart. coord. in units 2 pi/alat)
               b(1) = (  1.000000 -1.486936 -0.911767 )
               b(2) = (  0.000000  1.791920 -0.911767 )
               b(3) = (  0.000000  0.000000  2.010547 )

     PseudoPot. # 1 for Cs read from file:
     /home/pragov/projects/rrg-bengioy-ad/pragov/crystal_structure_design/SSSP/Cs_pbe_v1.uspp.F.UPF
     MD5 check sum: 3476d69cb178dfad3ffaa59df4e07ca4
     Pseudo is Ultrasoft + core correction, Zval =  9.0
     Generated by new atomic code, or converted to UPF format
     Using radial grid of  905 points,  6 beta functions with:
                l(1) =   0
                l(2) =   0
                l(3) =   1
                l(4) =   1
                l(5) =   2
                l(6) =   2
     Q(r) pseudized with  6 coefficients,  rinner =    1.500   1.500   1.500
                                                       1.500   1.500

     PseudoPot. # 2 for Na read from file:
     /home/pragov/projects/rrg-bengioy-ad/pragov/crystal_structure_design/SSSP/na_pbe_v1.5.uspp.F.UPF
     MD5 check sum: 44600605ef58000f06b90626533354dc
     Pseudo is Ultrasoft, Zval =  9.0
     Generated by new atomic code, or converted to UPF format
     Using radial grid of  819 points,  5 beta functions with:
                l(1) =   0
                l(2) =   0
                l(3) =   1
                l(4) =   1
                l(5) =   2
     Q(r) pseudized with  8 coefficients,  rinner =    1.250   1.250   1.250
                                                       1.250   1.250

     PseudoPot. # 3 for Al read from file:
     /home/pragov/projects/rrg-bengioy-ad/pragov/crystal_structure_design/SSSP/Al.pbe-n-kjpaw_psl.1.0.0.UPF
     MD5 check sum: cfc449ca30b5f3223ec38ddd88ac046d
     Pseudo is Projector augmented-wave + core cor, Zval =  3.0
     Generated using "atomic" code by A. Dal Corso  v.5.1
     Shape of augmentation charge: PSQ
     Using radial grid of 1135 points,  6 beta functions with:
                l(1) =   0
                l(2) =   0
                l(3) =   1
                l(4) =   1
                l(5) =   2
                l(6) =   2
     Q(r) pseudized with 0 coefficients

     PseudoPot. # 4 for F  read from file:
     /home/pragov/projects/rrg-bengioy-ad/pragov/crystal_structure_design/SSSP/f_pbe_v1.4.uspp.F.UPF
     MD5 check sum: 4c38b6a325caf53ec0e86aed9459de46
     Pseudo is Ultrasoft, Zval =  7.0
     Generated by new atomic code, or converted to UPF format
     Using radial grid of  799 points,  4 beta functions with:
                l(1) =   0
                l(2) =   0
                l(3) =   1
                l(4) =   1
     Q(r) pseudized with  8 coefficients,  rinner =    0.950   0.950   0.950

     atomic species   valence    mass     pseudopotential
        Cs             9.00   132.90545     Cs( 1.00)
        Na             9.00    22.98977     Na( 1.00)
        Al             3.00    26.98154     Al( 1.00)
        F              7.00    18.99840     F ( 1.00)

      2 Sym. Ops., with inversion, found

                                    s                        frac. trans.

      isym =  1     identity

 cryst.   s( 1) = (     1          0          0      )
                  (     0          1          0      )
                  (     0          0          1      )

 cart.    s( 1) = (  1.0000000  0.0000000  0.0000000 )
                  (  0.0000000  1.0000000  0.0000000 )
                  (  0.0000000  0.0000000  1.0000000 )

      isym =  2     inversion

 cryst.   s( 2) = (    -1          0          0      )
                  (     0         -1          0      )
                  (     0          0         -1      )

 cart.    s( 2) = ( -1.0000000 -0.0000000 -0.0000000 )
                  (  0.0000000 -1.0000000 -0.0000000 )
                  (  0.0000000  0.0000000 -1.0000000 )

   Cartesian axes

     site n.     atom                  positions (alat units)
         1           Cs  tau(   1) = (   0.5836972   0.1780185   0.1091584  )
         2           Cs  tau(   2) = (   2.0759033   0.6331181   0.3882188  )
         3           Cs  tau(   3) = (   1.6706015   0.5095073   0.3124225  )
         4           Cs  tau(   4) = (   0.9889990   0.3016293   0.1849547  )
         5           Na  tau(   5) = (   2.3992336   0.7317288   0.4486854  )
         6           Na  tau(   6) = (   0.2603669   0.0794078   0.0486917  )
         7           Al  tau(   7) = (   0.0000000   0.0000000   0.0000000  )
         8           Al  tau(   8) = (   1.3298003   0.4055683   0.2486886  )
         9           F   tau(   9) = (   1.2850763   0.2633761   0.1614984  )
        10           F   tau(  10) = (   1.4462641   0.4410880   0.1262323  )
        11           F   tau(  11) = (   1.4462641   0.3125358   0.3358788  )
        12           F   tau(  12) = (   1.2133364   0.4986008   0.1614984  )
        13           F   tau(  13) = (   0.8573775   0.0812532   0.0498233  )
        14           F   tau(  14) = (   0.7567963   0.2308110   0.3437533  )
        15           F   tau(  15) = (   0.7567963   0.4110446   0.0498233  )
        16           F   tau(  16) = (   1.2133364   0.3700486   0.3711448  )
        17           F   tau(  17) = (   1.8022230   0.7298834   0.4475539  )
        18           F   tau(  18) = (   1.9028043   0.5803256   0.1536239  )
        19           F   tau(  19) = (   1.9028042   0.4000920   0.4475539  )
        20           F   tau(  20) = (   1.3745242   0.5477605   0.3358788  )

   Crystallographic axes

     site n.     atom                  positions (cryst. coord.)
         1           Cs  tau(   1) = (  0.2194680  0.2194680  0.2194680  )
         2           Cs  tau(   2) = (  0.7805320  0.7805320  0.7805320  )
         3           Cs  tau(   3) = (  0.6281400  0.6281400  0.6281400  )
         4           Cs  tau(   4) = (  0.3718600  0.3718600  0.3718600  )
         5           Na  tau(   5) = (  0.9021030  0.9021030  0.9021030  )
         6           Na  tau(   6) = (  0.0978970  0.0978970  0.0978970  )
         7           Al  tau(   7) = (  0.0000000  0.0000000  0.0000000  )
         8           Al  tau(   8) = (  0.5000000  0.5000000  0.5000000  )
         9           F   tau(   9) = (  0.7462040  0.3247000  0.3247000  )
        10           F   tau(  10) = (  0.6753000  0.6753000  0.2537960  )
        11           F   tau(  11) = (  0.6753000  0.2537960  0.6753000  )
        12           F   tau(  12) = (  0.3247000  0.7462040  0.3247000  )
        13           F   tau(  13) = (  0.6911320  0.1001720  0.1001720  )
        14           F   tau(  14) = (  0.1001720  0.1001720  0.6911320  )
        15           F   tau(  15) = (  0.1001720  0.6911320  0.1001720  )
        16           F   tau(  16) = (  0.3247000  0.3247000  0.7462040  )
        17           F   tau(  17) = (  0.3088680  0.8998280  0.8998280  )
        18           F   tau(  18) = (  0.8998280  0.8998280  0.3088680  )
        19           F   tau(  19) = (  0.8998280  0.3088680  0.8998280  )
        20           F   tau(  20) = (  0.2537960  0.6753000  0.6753000  )

     number of k points=     1  Methfessel-Paxton smearing, width (Ry)=  0.0010
                       cart. coord. in units 2pi/alat
        k(    1) = (   0.0000000   0.0000000   0.0000000), wk =   2.0000000

                       cryst. coord.
        k(    1) = (   0.0000000   0.0000000   0.0000000), wk =   2.0000000

     Initial potential from superposition of free atoms

     starting charge     143.8253, renormalised to     144.0000
     Starting wfcs are  118 randomized atomic wfcs
     Checking if some PAW data can be deallocated...

     Self-consistent Calculation

     iteration #  1     ecut=    30.00 Ry     beta= 0.70
     Davidson diagonalization with overlap

     ethr =  1.00E-02,  avg # of iterations =  2.0

     total energy              =   -1106.73635028 Ry
     estimated scf accuracy    <       2.24191049 Ry

[...]

     total energy              =   -1107.71616506 Ry
     estimated scf accuracy    <       0.00000176 Ry

     iteration #  8     ecut=    30.00 Ry     beta= 0.70
     Davidson diagonalization with overlap

     ethr =  1.22E-09,  avg # of iterations =  6.0

     End of self-consistent calculation

          k = 0.0000 0.0000 0.0000 (  3233 PWs)   bands (ev):

   -45.7743 -45.7742 -18.3053 -18.1915 -17.9538 -17.8966 -17.8966 -17.8328
   -17.8328 -17.6186 -17.5426 -17.5285 -17.5284 -17.3531 -17.3530 -17.3211
   -17.3125 -17.3124 -17.1914 -17.1912 -15.7157 -15.7116 -15.2211 -15.2031
    -2.9358  -2.9358  -2.8976  -2.8031  -2.8030  -2.7005  -2.5504  -2.5504
    -2.4263  -2.2399  -2.2399  -2.1411  -1.8442  -1.4513  -0.4282  -0.2724
    -0.2403  -0.2402  -0.0264  -0.0263   0.3849   0.6876   0.6877   0.7165
     0.7982   0.7984   0.9948   0.9948   1.0681   1.0681   1.2166   1.3677
     1.3677   1.4909   1.5026   1.5027   1.6665   1.7018   1.7019   1.7671
     1.8935   1.8935   2.0358   2.0477   2.0477   2.0896   2.0897   2.1642
     8.7244  10.2596  10.5490  10.5490  10.8691  11.0479  11.0479  11.0970
    11.1130  11.1130  11.2267  11.2268  11.9714  12.5796

     occupation numbers
     1.0000   1.0000   1.0000   1.0000   1.0000   1.0000   1.0000   1.0000
     1.0000   1.0000   1.0000   1.0000   1.0000   1.0000   1.0000   1.0000
     1.0000   1.0000   1.0000   1.0000   1.0000   1.0000   1.0000   1.0000
     1.0000   1.0000   1.0000   1.0000   1.0000   1.0000   1.0000   1.0000
     1.0000   1.0000   1.0000   1.0000   1.0000   1.0000   1.0000   1.0000
     1.0000   1.0000   1.0000   1.0000   1.0000   1.0000   1.0000   1.0000
     1.0000   1.0000   1.0000   1.0000   1.0000   1.0000   1.0000   1.0000
     1.0000   1.0000   1.0000   1.0000   1.0000   1.0000   1.0000   1.0000
     1.0000   1.0000   1.0000   1.0000   1.0000   1.0000   1.0000   1.0000
    -0.0000  -0.0000  -0.0000  -0.0000  -0.0000  -0.0000  -0.0000  -0.0000
    -0.0000  -0.0000  -0.0000  -0.0000  -0.0000  -0.0000

     the Fermi energy is     5.3874 ev

!    total energy              =   -1107.71616630 Ry
     estimated scf accuracy    <       0.00000014 Ry
     smearing contrib. (-TS)   =       0.00000000 Ry
     internal energy E=F+TS    =   -1107.71616630 Ry

     The total energy is F=E-TS. E is the sum of the following terms:
     one-electron contribution =    -526.74372204 Ry
     hartree contribution      =     343.11149092 Ry
     xc contribution           =    -268.86234379 Ry
     ewald contribution        =    -585.94468921 Ry
     one-center paw contrib.   =     -69.27690217 Ry
      -> PAW hartree energy AE =       4.17009387 Ry
      -> PAW hartree energy PS =      -4.16483310 Ry
      -> PAW xc energy AE      =     -73.70136964 Ry
      -> PAW xc energy PS      =       4.41920670 Ry
      -> total E_H with PAW    =     343.11675169 Ry
      -> total E_XC with PAW   =    -338.14450674 Ry

     convergence has been achieved in   8 iterations

     Forces acting on atoms (cartesian axes, Ry/au):

     atom    1 type  1   force =     0.01684348    0.00513633    0.00315351
     atom    2 type  1   force =    -0.01684348   -0.00513633   -0.00315351
     atom    3 type  1   force =     0.00003657    0.00000981    0.00000787
     atom    4 type  1   force =    -0.00003657   -0.00000981   -0.00000787
     atom    5 type  2   force =     0.00044430    0.00013205    0.00008019
     atom    6 type  2   force =    -0.00044430   -0.00013205   -0.00008019
     atom    7 type  3   force =     0.00000000    0.00000000    0.00000000
     atom    8 type  3   force =     0.00000000    0.00000000    0.00000000
     atom    9 type  4   force =     0.00486699    0.00534347    0.00327526
     atom   10 type  4   force =    -0.00701956   -0.00214202    0.00301023
     atom   11 type  4   force =    -0.00701550    0.00171035   -0.00327110
     atom   12 type  4   force =     0.00701550   -0.00171035    0.00327110
     atom   13 type  4   force =     0.00513325   -0.00452421   -0.00277142
     atom   14 type  4   force =     0.00173834    0.00053026    0.00715931
     atom   15 type  4   force =     0.00173186    0.00661573   -0.00277225
     atom   16 type  4   force =     0.00701956    0.00214202   -0.00301023
     atom   17 type  4   force =    -0.00513325    0.00452421    0.00277142
     atom   18 type  4   force =    -0.00173834   -0.00053026   -0.00715931
     atom   19 type  4   force =    -0.00173186   -0.00661573    0.00277225
     atom   20 type  4   force =    -0.00486699   -0.00534347   -0.00327526
     The non-local contrib.  to forces
     atom    1 type  1   force =    -0.02424204   -0.00739434   -0.00453564
     atom    2 type  1   force =     0.02424204    0.00739434    0.00453564
     atom    3 type  1   force =     0.00445677    0.00136347    0.00083147
     atom    4 type  1   force =    -0.00445677   -0.00136347   -0.00083147
     atom    5 type  2   force =    -0.17277705   -0.05268719   -0.03230725
     atom    6 type  2   force =     0.17277705    0.05268719    0.03230725
     atom    7 type  3   force =     0.00000000    0.00000000    0.00000000
     atom    8 type  3   force =     0.00000000    0.00000000    0.00000000
     atom    9 type  4   force =     0.17480221    0.54153958    0.33206634
     atom   10 type  4   force =    -0.44726003   -0.13640654    0.46414810
     atom   11 type  4   force =    -0.44725290    0.35181135   -0.33205454
     atom   12 type  4   force =     0.44725290   -0.35181135    0.33205454
     atom   13 type  4   force =     0.62957614   -0.45138836   -0.27678164
     atom   14 type  4   force =     0.27052510    0.08250471    0.77249627
     atom   15 type  4   force =     0.27052088    0.72590110   -0.27678201
     atom   16 type  4   force =     0.44726003    0.13640654   -0.46414810
     atom   17 type  4   force =    -0.62957614    0.45138836    0.27678164
     atom   18 type  4   force =    -0.27052510   -0.08250471   -0.77249627
     atom   19 type  4   force =    -0.27052088   -0.72590110    0.27678201
     atom   20 type  4   force =    -0.17480221   -0.54153958   -0.33206634
     The ionic contribution  to forces
     atom    1 type  1   force =     1.60898977    0.49071674    0.30090049
     atom    2 type  1   force =    -1.60898977   -0.49071674   -0.30090049
     atom    3 type  1   force =     0.94765744    0.28902071    0.17722195
     atom    4 type  1   force =    -0.94765744   -0.28902071   -0.17722195
     atom    5 type  2   force =    -3.28658320   -1.00235652   -0.61462946
     atom    6 type  2   force =     3.28658320    1.00235652    0.61462946
     atom    7 type  3   force =     0.00000000    0.00000000    0.00000000
     atom    8 type  3   force =     0.00000000   -0.00000000    0.00000000
     atom    9 type  4   force =    -1.29137799   -2.47018912   -1.51468376
     atom   10 type  4   force =     2.45010124    0.74724259   -1.87146843
     atom   11 type  4   force =     2.45010076   -1.32909656    1.51468376
     atom   12 type  4   force =    -2.45010076    1.32909656   -1.51468376
     atom   13 type  4   force =    -4.14670134    6.61665101    4.05723401
     atom   14 type  4   force =     0.25155797    0.07672125   -8.79586131
     atom   15 type  4   force =     0.25155763   -7.80460898    4.05723401
     atom   16 type  4   force =    -2.45010124   -0.74724259    1.87146843
     atom   17 type  4   force =     4.14670134   -6.61665101   -4.05723401
     atom   18 type  4   force =    -0.25155797   -0.07672125    8.79586131
     atom   19 type  4   force =    -0.25155763    7.80460898   -4.05723401
     atom   20 type  4   force =     1.29137799    2.47018912    1.51468376
     The local contribution  to forces
     atom    1 type  1   force =    -1.57041004   -0.47895736   -0.29366824
     atom    2 type  1   force =     1.57037291    0.47893108    0.29368681
     atom    3 type  1   force =    -0.95202852   -0.29037942   -0.17799948
     atom    4 type  1   force =     0.95203004    0.29034726    0.17807391
     atom    5 type  2   force =     3.45955880    1.05512605    0.64697425
     atom    6 type  2   force =    -3.45955988   -1.05510403   -0.64698487
     atom    7 type  3   force =     0.00000101    0.00000404   -0.00000442
     atom    8 type  3   force =    -0.00000294   -0.00000515   -0.00000024
     atom    9 type  4   force =     1.12176077    1.93403219    1.18590773
     atom   10 type  4   force =    -2.01013400   -0.61305578    1.41021695
     atom   11 type  4   force =    -2.01011942    0.97883941   -1.18590341
     atom   12 type  4   force =     2.01015521   -0.97885767    1.18592691
     atom   13 type  4   force =     3.52234909   -6.16994981   -3.78333523
     atom   14 type  4   force =    -0.52035414   -0.15869815    8.03076326
     atom   15 type  4   force =    -0.52035381    7.08551990   -3.78333876
     atom   16 type  4   force =     2.01014434    0.61305911   -1.41022593
     atom   17 type  4   force =    -3.52235018    6.16997397    3.78332918
     atom   18 type  4   force =     0.52037757    0.15871215   -8.03076321
     atom   19 type  4   force =     0.52037047   -7.08552457    3.78332681
     atom   20 type  4   force =    -1.12176246   -1.93403701   -1.18593122
     The core correction contribution to forces
     atom    1 type  1   force =     0.00193904    0.00059087    0.00036411
     atom    2 type  1   force =    -0.00194020   -0.00059261   -0.00036174
     atom    3 type  1   force =    -0.00016845   -0.00005296   -0.00002986
     atom    4 type  1   force =     0.00016735    0.00005109    0.00003218
     atom    5 type  2   force =     0.00000000    0.00000000    0.00000000
     atom    6 type  2   force =     0.00000000    0.00000000    0.00000000
     atom    7 type  3   force =     0.00000038   -0.00000068    0.00000021
     atom    8 type  3   force =     0.00000049    0.00000094   -0.00000041
     atom    9 type  4   force =     0.00000000    0.00000000    0.00000000
     atom   10 type  4   force =     0.00000000    0.00000000    0.00000000
     atom   11 type  4   force =     0.00000000    0.00000000    0.00000000
     atom   12 type  4   force =     0.00000000    0.00000000    0.00000000
     atom   13 type  4   force =     0.00000000    0.00000000    0.00000000
     atom   14 type  4   force =     0.00000000    0.00000000    0.00000000
     atom   15 type  4   force =     0.00000000    0.00000000    0.00000000
     atom   16 type  4   force =     0.00000000    0.00000000    0.00000000
     atom   17 type  4   force =     0.00000000    0.00000000    0.00000000
     atom   18 type  4   force =     0.00000000    0.00000000    0.00000000
     atom   19 type  4   force =     0.00000000    0.00000000    0.00000000
     atom   20 type  4   force =     0.00000000    0.00000000    0.00000000
     The Hubbard contrib.    to forces
     atom    1 type  1   force =     0.00000000    0.00000000    0.00000000
     atom    2 type  1   force =     0.00000000    0.00000000    0.00000000
     atom    3 type  1   force =     0.00000000    0.00000000    0.00000000
     atom    4 type  1   force =     0.00000000    0.00000000    0.00000000
     atom    5 type  2   force =     0.00000000    0.00000000    0.00000000
     atom    6 type  2   force =     0.00000000    0.00000000    0.00000000
     atom    7 type  3   force =     0.00000000    0.00000000    0.00000000
     atom    8 type  3   force =     0.00000000    0.00000000    0.00000000
     atom    9 type  4   force =     0.00000000    0.00000000    0.00000000
     atom   10 type  4   force =     0.00000000    0.00000000    0.00000000
     atom   11 type  4   force =     0.00000000    0.00000000    0.00000000
     atom   12 type  4   force =     0.00000000    0.00000000    0.00000000
     atom   13 type  4   force =     0.00000000    0.00000000    0.00000000
     atom   14 type  4   force =     0.00000000    0.00000000    0.00000000
     atom   15 type  4   force =     0.00000000    0.00000000    0.00000000
     atom   16 type  4   force =     0.00000000    0.00000000    0.00000000
     atom   17 type  4   force =     0.00000000    0.00000000    0.00000000
     atom   18 type  4   force =     0.00000000    0.00000000    0.00000000
     atom   19 type  4   force =     0.00000000    0.00000000    0.00000000
     atom   20 type  4   force =     0.00000000    0.00000000    0.00000000
     The SCF correction term to forces
     atom    1 type  1   force =     0.00056114    0.00017069    0.00009971
     atom    2 type  1   force =    -0.00053406   -0.00016214   -0.00010681
     atom    3 type  1   force =     0.00011384    0.00004803   -0.00000116
     atom    4 type  1   force =    -0.00012522   -0.00003393   -0.00004551
     atom    5 type  2   force =     0.00025500    0.00006293    0.00003417
     atom    6 type  2   force =    -0.00023542   -0.00005851   -0.00004051
     atom    7 type  3   force =     0.00000109   -0.00001095    0.00000719
     atom    8 type  3   force =     0.00000811    0.00001478   -0.00000334
     atom    9 type  4   force =    -0.00031904   -0.00004058   -0.00001296
     atom   10 type  4   force =     0.00027101    0.00008090    0.00011977
     atom   11 type  4   force =     0.00025153    0.00016505   -0.00000233
     atom   12 type  4   force =    -0.00029639   -0.00012899   -0.00003202
     atom   13 type  4   force =    -0.00009282    0.00015344    0.00011234
     atom   14 type  4   force =     0.00000053   -0.00000532   -0.00023851
     atom   15 type  4   force =     0.00000548   -0.00019407    0.00011538
     atom   16 type  4   force =    -0.00028579   -0.00007784   -0.00009849
     atom   17 type  4   force =     0.00008954   -0.00019660   -0.00010447
     atom   18 type  4   force =    -0.00004172   -0.00002423    0.00023925
     atom   19 type  4   force =    -0.00002550    0.00020318   -0.00010169
     atom   20 type  4   force =     0.00031867    0.00004261    0.00004064

     Total force =     0.036674     Total SCF correction =     0.001327

     Computing stress (Cartesian axis) and pressure

          total   stress  (Ry/bohr**3)                   (kbar)     P=      -70.51
  -0.00065928  -0.00008794  -0.00005392          -96.98      -12.94       -7.93
  -0.00008794  -0.00039774  -0.00001644          -12.94      -58.51       -2.42
  -0.00005392  -0.00001644  -0.00038101           -7.93       -2.42      -56.05

     kinetic stress (kbar)  12618.68    -24.35    -14.93
                              -24.35  12691.08     -4.55
                              -14.93     -4.55  12695.72

     local   stress (kbar)  -5281.83  -1031.59   -632.56
                            -1031.59  -2214.00   -192.92
                             -632.56   -192.92  -2017.67

     nonloc. stress (kbar)   -647.85     -4.17     -2.55
                               -4.17   -635.46     -0.78
                               -2.55     -0.78   -634.67

     hartree stress (kbar)   8269.82    516.39    316.65
                              516.39   6734.12     96.57
                              316.65     96.57   6635.85

     exc-cor stress (kbar)   2344.21      0.08      0.05
                                0.08   2343.96      0.02
                                0.05      0.02   2343.95

     corecor stress (kbar)  -6167.01      0.21      0.13
                                0.21  -6167.65      0.04
                                0.13      0.04  -6167.69

     ewald   stress (kbar) -11233.01    530.47    325.28
                              530.47 -12810.57     99.20
                              325.28     99.20 -12911.53

     hubbard stress (kbar)      0.00      0.00      0.00
                                0.00      0.00      0.00
                                0.00      0.00      0.00

     DFT-D   stress (kbar)      0.00      0.00      0.00
                                0.00      0.00      0.00
                                0.00      0.00      0.00

     XDM     stress (kbar)      0.00      0.00      0.00
                                0.00      0.00      0.00
                                0.00      0.00      0.00

     dft-nl  stress (kbar)      0.00      0.00      0.00
                                0.00      0.00      0.00
                                0.00      0.00      0.00

     TS-vdW  stress (kbar)      0.00      0.00      0.00
                                0.00      0.00      0.00
                                0.00      0.00      0.00

[...]

                                0.00      0.00      0.00

     Writing all to output data dir new_calculations/myprefix.save/

     General routines

     Parallel routines

     PAW routines

   This run was terminated on:  16: 1:28  21May2023

   JOB DONE.