     Program PWSCF v.7.0 starts on 20May2023 at 22:36:33

     Reading input from espresso_21294.pwi
Warning: card &CELL ignored
Warning: card / ignored

     Current dimensions of program PWSCF are:
     Max number of different atomic species (ntypx) = 10
     Max number of k-points (npk) =  40000
     Max angular momentum in pseudopotentials (lmaxx) =  4
     file Mg.pbe-n-kjpaw_psl.0.3.0.UPF: wavefunction(s)  3S renormalized

     gamma-point specific algorithms are used
     Message from routine setup:
     using ibrav=0 with symmetry is DISCOURAGED, use correct ibrav instead

     Subspace diagonalization in iterative solution of the eigenvalue problem:
     a serial algorithm will be used

     Using Slab Decomposition

     bravais-lattice index     =            0
     lattice parameter (alat)  =      14.4661  a.u.
     unit-cell volume          =    2322.6655 (a.u.)^3
     number of atoms/cell      =           14
     number of atomic types    =            3
     number of electrons       =       100.00
     number of Kohn-Sham states=           60
     kinetic-energy cutoff     =      30.0000  Ry
     charge density cutoff     =     240.0000  Ry
     scf convergence threshold =      1.0E-06
     mixing beta               =       0.7000
     number of iterations used =            8  plain     mixing
     Exchange-correlation= SLA  PW   PBE  PBE
                           (   1   4   3   4   0   0   0)

     celldm(1)=  14.466132  celldm(2)=   0.000000  celldm(3)=   0.000000
     celldm(4)=   0.000000  celldm(5)=   0.000000  celldm(6)=   0.000000

     crystal axes: (cart. coord. in units of alat)
               a(1) = (   1.000000   0.000000   0.000000 )
               a(2) = (  -0.269536   0.962990   0.000000 )
               a(3) = (  -0.365232  -0.481495   0.796723 )

     reciprocal axes: (cart. coord. in units 2 pi/alat)
               b(1) = (  1.000000  0.279895  0.627570 )
               b(2) = (  0.000000  1.038432  0.627570 )
               b(3) = (  0.000000  0.000000  1.255141 )

     PseudoPot. # 1 for Ce read from file:
     /home/pragov/projects/rrg-bengioy-ad/pragov/crystal_structure_design/SSSP/Ce.GGA-PBE-paw-v1.0.UPF
     MD5 check sum: f2b950f613061344c13339c8d844425d
     Pseudo is Projector augmented-wave + core cor, Zval = 12.0
     Generated using ATOMPAW code
     Shape of augmentation charge: BESSEL
     Using radial grid of 1102 points,  8 beta functions with:
                l(1) =   0
                l(2) =   0
                l(3) =   1
                l(4) =   1
                l(5) =   2
                l(6) =   2
                l(7) =   3
                l(8) =   3
     Q(r) pseudized with 0 coefficients

     PseudoPot. # 2 for Mg read from file:
     /home/pragov/projects/rrg-bengioy-ad/pragov/crystal_structure_design/SSSP/Mg.pbe-n-kjpaw_psl.0.3.0.UPF
     MD5 check sum: 24ecedc7f3e3cbe212e682f4413594e4
     Pseudo is Projector augmented-wave + core cor, Zval =  2.0
     Generated using "atomic" code by A. Dal Corso  v.5.0.99 svn rev. 10869
     Shape of augmentation charge: PSQ
     Using radial grid of 1129 points,  4 beta functions with:
                l(1) =   0
                l(2) =   0
                l(3) =   1
                l(4) =   1
     Q(r) pseudized with 0 coefficients

     PseudoPot. # 3 for Se read from file:
     /home/pragov/projects/rrg-bengioy-ad/pragov/crystal_structure_design/SSSP/Se_pbe_v1.uspp.F.UPF
     MD5 check sum: 1b3568f3a8ae88f9a2a0ad0698632c85
     Pseudo is Ultrasoft + core correction, Zval =  6.0
     Generated by new atomic code, or converted to UPF format
     Using radial grid of  877 points,  6 beta functions with:
                l(1) =   0
                l(2) =   0
                l(3) =   1
                l(4) =   1
                l(5) =   2
                l(6) =   2
     Q(r) pseudized with  8 coefficients,  rinner =    1.300   1.300   1.300
                                                       1.300   1.300

     atomic species   valence    mass     pseudopotential
        Ce            12.00   140.11600     Ce( 1.00)
        Mg             2.00    24.30500     Mg( 1.00)
        Se             6.00    78.97100     Se( 1.00)

      2 Sym. Ops. (no inversion) found ( 1 have fractional translation)

                                    s                        frac. trans.

      isym =  1     identity

 cryst.   s( 1) = (     1          0          0      )
                  (     0          1          0      )
                  (     0          0          1      )

 cart.    s( 1) = (  1.0000000  0.0000000  0.0000000 )
                  (  0.0000000  1.0000000 -0.0000000 )
                  (  0.0000000  0.0000000  1.0000000 )

      isym =  2     inv. 180 deg rotation - cart. axis [0,0,1]

 cryst.   s( 2) = (     1          0          0      )    f =(  0.2500000 )
                  (     0          1          0      )       ( -0.2500000 )
                  (    -1         -1         -1      )       (  0.5000000 )

 cart.    s( 2) = (  1.0000000  0.0000000 -0.0000000 )    f =(  0.1347682 )
                  (  0.0000000  1.0000000 -0.0000000 )       ( -0.4814951 )
                  (  0.0000000  0.0000000 -1.0000000 )       (  0.3983617 )

   Cartesian axes

     site n.     atom                  positions (alat units)
         1           Ce  tau(   1) = (   0.5327360   0.5440712   0.3027246  )
         2           Ce  tau(   2) = (   0.1498798  -0.3033236   0.7010863  )
         3           Ce  tau(   3) = (   0.0151116   0.1781715   0.4939988  )
         4           Ce  tau(   4) = (   0.0327360   0.5440712   0.0956371  )
         5           Mg  tau(   5) = (   0.0000000   0.0000000   0.0000000  )
         6           Mg  tau(   6) = (   0.5000000   0.0000000   0.3983617  )
         7           Se  tau(   7) = (   0.3049597   0.2335598   0.2131092  )
         8           Se  tau(   8) = (   0.3111820   0.0576109   0.6949054  )
         9           Se  tau(   9) = (  -0.2225148  -0.1248690   0.5836142  )
        10           Se  tau(  10) = (   0.3368354   0.7966895   0.1018181  )
        11           Se  tau(  11) = (   0.1063721  -0.1663017   0.2965436  )
        12           Se  tau(  12) = (   0.8049600   0.2335588   0.1852525  )
        13           Se  tau(  13) = (   0.1764148   0.5391060   0.5001798  )
        14           Se  tau(  14) = (  -0.3572820   0.3566261   0.6114709  )

   Crystallographic axes

     site n.     atom                  positions (cryst. coord.)
         1           Ce  tau(   1) = (  0.8750000  0.7549620  0.3799620  )
         2           Ce  tau(   2) = (  0.5049620  0.1250000  0.8799620  )
         3           Ce  tau(   3) = (  0.3750000  0.4950380  0.6200380  )
         4           Ce  tau(   4) = (  0.2450380  0.6250000  0.1200380  )
         5           Mg  tau(   5) = (  0.0000000  0.0000000  0.0000000  )
         6           Mg  tau(   6) = (  0.7500000  0.2500000  0.5000000  )
         7           Se  tau(   7) = (  0.5040730  0.3762770  0.2674820  )
         8           Se  tau(   8) = (  0.7634090  0.4959270  0.8722040  )
         9           Se  tau(   9) = (  0.1087940  0.2365910  0.7325180  )
        10           Se  tau(  10) = (  0.6237230  0.8912060  0.1277960  )
        11           Se  tau(  11) = (  0.2459270  0.0134090  0.3722040  )
        12           Se  tau(  12) = (  0.9865910  0.3587940  0.2325180  )
        13           Se  tau(  13) = (  0.6412060  0.8737230  0.6277960  )
        14           Se  tau(  14) = (  0.1262770  0.7540730  0.7674820  )

     number of k points=     1  Methfessel-Paxton smearing, width (Ry)=  0.0010
                       cart. coord. in units 2pi/alat
        k(    1) = (   0.0000000   0.0000000   0.0000000), wk =   2.0000000

                       cryst. coord.
        k(    1) = (   0.0000000   0.0000000   0.0000000), wk =   2.0000000

     Initial potential from superposition of free atoms

     starting charge      99.9696, renormalised to     100.0000
     Starting wfcs are  168 randomized atomic wfcs
     Checking if some PAW data can be deallocated...

     Self-consistent Calculation

     iteration #  1     ecut=    30.00 Ry     beta= 0.70
     Davidson diagonalization with overlap

     ethr =  1.00E-02,  avg # of iterations =  5.0

     total energy              =   -2342.98943825 Ry
     estimated scf accuracy    <       4.78125238 Ry

[...]

     c_bands:  2 eigenvalues not converged
     ethr =  1.85E-04,  avg # of iterations = 20.0

[...]

     c_bands:  1 eigenvalues not converged
     ethr =  2.99E-06,  avg # of iterations = 20.0

[...]

     total energy              =   -2348.70753825 Ry
     estimated scf accuracy    <       0.00000287 Ry

     iteration # 58     ecut=    30.00 Ry     beta= 0.70
     Davidson diagonalization with overlap

     ethr =  1.08E-09,  avg # of iterations =  8.0

     End of self-consistent calculation

          k = 0.0000 0.0000 0.0000 (  3222 PWs)   bands (ev):

   -26.4922 -25.9154 -25.5969 -25.3868 -10.9750 -10.1863  -9.9201  -9.4449
    -9.0753  -8.9289  -8.7289  -8.6800  -8.6583  -8.6050  -8.3900  -8.3050
    -4.1157  -3.5546  -3.2337  -3.1818  -2.9869  -2.9073  -2.8230  -2.6312
     3.7514   3.8340   4.1695   4.4144   4.4825   4.8813   5.1912   5.3168
     5.6873   5.7839   6.0048   6.0594   6.4495   6.6149   6.7949   6.8034
     6.9283   6.9827   7.0674   7.3964   7.6280   7.6422   7.8372   8.3771
     9.2705   9.5299   9.5487   9.5974   9.6115   9.6226   9.6379   9.7045
     9.7221   9.7403   9.7570   9.7859

     occupation numbers
     1.0000   1.0000   1.0000   1.0000   1.0000   1.0000   1.0000   1.0000
     1.0000   1.0000   1.0000   1.0000   1.0000   1.0000   1.0000   1.0000
     1.0000   1.0000   1.0000   1.0000   1.0000   1.0000   1.0000   1.0000
     1.0000   1.0000   1.0000   1.0000   1.0000   1.0000   1.0000   1.0000
     1.0000   1.0000   1.0000   1.0000   1.0000   1.0000   1.0000   1.0000
     1.0000   1.0000   1.0000   1.0000   1.0000   1.0000   1.0000   1.0000
     1.0000   0.9563   0.0437  -0.0000  -0.0000  -0.0000  -0.0000  -0.0000
    -0.0000  -0.0000  -0.0000  -0.0000

     the Fermi energy is     9.5393 ev

!    total energy              =   -2348.70753747 Ry
     estimated scf accuracy    <       0.00000099 Ry
     smearing contrib. (-TS)   =      -0.00001695 Ry
     internal energy E=F+TS    =   -2348.70752052 Ry

     The total energy is F=E-TS. E is the sum of the following terms:
     one-electron contribution =     -36.54925082 Ry
     hartree contribution      =      74.74464738 Ry
     xc contribution           =    -283.98242330 Ry
     ewald contribution        =    -407.45184520 Ry
     one-center paw contrib.   =   -1695.46864858 Ry
      -> PAW hartree energy AE =     169.37876916 Ry
      -> PAW hartree energy PS =    -168.49936580 Ry
      -> PAW xc energy AE      =   -1731.91791571 Ry
      -> PAW xc energy PS      =      35.56986376 Ry
      -> total E_H with PAW    =      75.62405075 Ry
      -> total E_XC with PAW   =   -1980.33047525 Ry

     convergence has been achieved in  58 iterations

     Forces acting on atoms (cartesian axes, Ry/au):

     atom    1 type  1   force =     0.04894066    0.02285518   -0.03251713
     atom    2 type  1   force =     0.01464770    0.04506890   -0.00757615
     atom    3 type  1   force =     0.01464770    0.04506890    0.00757615
     atom    4 type  1   force =     0.04894066    0.02285518    0.03251713
     atom    5 type  2   force =    -0.01362988   -0.01579728    0.00862291
     atom    6 type  2   force =    -0.01362988   -0.01579728   -0.00862291
     atom    7 type  3   force =    -0.00171659   -0.06793551    0.02346907
     atom    8 type  3   force =     0.00902074   -0.04054708    0.03900332
     atom    9 type  3   force =    -0.01948944   -0.01516800   -0.04482140
     atom   10 type  3   force =    -0.03777320    0.07152379   -0.02835061
     atom   11 type  3   force =    -0.03777320    0.07152379    0.02835061
     atom   12 type  3   force =    -0.00171659   -0.06793551   -0.02346907
     atom   13 type  3   force =     0.00902074   -0.04054708   -0.03900332
     atom   14 type  3   force =    -0.01948944   -0.01516800    0.04482140
     The non-local contrib.  to forces
     atom    1 type  1   force =    -0.02146093    0.07147619    0.19380247
     atom    2 type  1   force =     0.05336313   -0.00246491   -0.02222640
     atom    3 type  1   force =     0.05336313   -0.00246491    0.02222640
     atom    4 type  1   force =    -0.02146093    0.07147619   -0.19380247
     atom    5 type  2   force =    -0.01279945   -0.00558917    0.00682598
     atom    6 type  2   force =    -0.01279945   -0.00558917   -0.00682598
     atom    7 type  3   force =     0.06348867    0.01954385    0.05052065
     atom    8 type  3   force =     0.02422883   -0.06440211   -0.00685145
     atom    9 type  3   force =     0.00239032    0.05417703   -0.06194256
     atom   10 type  3   force =    -0.06081054   -0.03663965   -0.02987490
     atom   11 type  3   force =    -0.06081054   -0.03663965    0.02987490
     atom   12 type  3   force =     0.06348867    0.01954385   -0.05052065
     atom   13 type  3   force =     0.02422883   -0.06440211    0.00685145
     atom   14 type  3   force =     0.00239032    0.05417703    0.06194256
     The ionic contribution  to forces
     atom    1 type  1   force =    -0.42759352    0.32436287    0.53668571
     atom    2 type  1   force =     0.42761029   -0.32434077    0.53668571
     atom    3 type  1   force =     0.42761492   -0.32436131   -0.53669646
     atom    4 type  1   force =    -0.42761455    0.32436179   -0.53669646
     atom    5 type  2   force =     0.00000356   -0.00000429    0.00000096
     atom    6 type  2   force =    -0.00000509    0.00000228    0.00000096
     atom    7 type  3   force =    -0.24418632   -2.20582946    0.64606252
     atom    8 type  3   force =     1.66601086    1.12731923   -1.13852683
     atom    9 type  3   force =    -2.05835289   -0.82969748   -0.64606891
     atom   10 type  3   force =     0.63655221    1.90817341    1.13854301
     atom   11 type  3   force =     0.63654678    1.90820572   -1.13852683
     atom   12 type  3   force =    -0.24418948   -2.20580734   -0.64606891
     atom   13 type  3   force =     1.66597828    1.12731576    1.13854301
     atom   14 type  3   force =    -2.05837505   -0.82970040    0.64606252
     The local contribution  to forces
     atom    1 type  1   force =     0.37442035   -0.41198264   -0.86984357
     atom    2 type  1   force =    -0.44155257    0.21607783   -0.52599701
     atom    3 type  1   force =    -0.48730259    0.55192383    0.51853714
     atom    4 type  1   force =     0.62525936   -0.30919891    0.65530942
     atom    5 type  2   force =     0.00412765    0.01335902    0.00667839
     atom    6 type  2   force =    -0.00155860   -0.00908394    0.00358467
     atom    7 type  3   force =     0.18625800    2.11565183   -0.60872227
     atom    8 type  3   force =    -1.66674563   -1.05344142    1.23557741
     atom    9 type  3   force =     2.01218830    0.76853330    0.61620302
     atom   10 type  3   force =    -0.63245322   -1.86198654   -1.19129002
     atom   11 type  3   force =    -0.58583111   -1.79788427    1.08225913
     atom   12 type  3   force =     0.17444944    2.18384450    0.74943159
     atom   13 type  3   force =    -1.69998822   -1.11393981   -1.11747481
     atom   14 type  3   force =     2.07401009    0.81101161   -0.74109058
     The core correction contribution to forces
     atom    1 type  1   force =    -0.00000317   -0.00007833   -0.00026147
     atom    2 type  1   force =    -0.00005849   -0.00004766   -0.00005197
     atom    3 type  1   force =    -0.00008723    0.00017504    0.00000779
     atom    4 type  1   force =     0.00018477    0.00001129    0.00017083
     atom    5 type  2   force =    -0.00012135    0.00126640    0.00084851
     atom    6 type  2   force =    -0.00021191   -0.00147417    0.00037418
     atom    7 type  3   force =     0.00475434   -0.02710406    0.03684628
     atom    8 type  3   force =     0.00867838    0.00834069    0.02404492
     atom    9 type  3   force =    -0.01021158   -0.01551629   -0.04088950
     atom   10 type  3   force =    -0.00634062    0.02024006   -0.01466566
     atom   11 type  3   force =     0.00144292    0.06393212   -0.01427248
     atom   12 type  3   force =    -0.00362266   -0.01118720    0.02488679
     atom   13 type  3   force =    -0.00026444   -0.02329325    0.00826037
     atom   14 type  3   force =     0.00075551   -0.01885711   -0.00995945
     The Hubbard contrib.    to forces
     atom    1 type  1   force =     0.00000000    0.00000000    0.00000000
     atom    2 type  1   force =     0.00000000    0.00000000    0.00000000
     atom    3 type  1   force =     0.00000000    0.00000000    0.00000000
     atom    4 type  1   force =     0.00000000    0.00000000    0.00000000
     atom    5 type  2   force =     0.00000000    0.00000000    0.00000000
     atom    6 type  2   force =     0.00000000    0.00000000    0.00000000
     atom    7 type  3   force =     0.00000000    0.00000000    0.00000000
     atom    8 type  3   force =     0.00000000    0.00000000    0.00000000
     atom    9 type  3   force =     0.00000000    0.00000000    0.00000000
     atom   10 type  3   force =     0.00000000    0.00000000    0.00000000
     atom   11 type  3   force =     0.00000000    0.00000000    0.00000000
     atom   12 type  3   force =     0.00000000    0.00000000    0.00000000
     atom   13 type  3   force =     0.00000000    0.00000000    0.00000000
     atom   14 type  3   force =     0.00000000    0.00000000    0.00000000
     The SCF correction term to forces
     atom    1 type  1   force =     0.00007594   -0.00001673   -0.00026216
     atom    2 type  1   force =     0.00013865   -0.00003803    0.00012114
     atom    3 type  1   force =     0.00008265    0.00017525   -0.00039111
     atom    4 type  1   force =    -0.00004950   -0.00020481    0.00017394
     atom    5 type  2   force =    -0.00001294   -0.00001446    0.00003318
     atom    6 type  2   force =    -0.00000568    0.00002950    0.00000738
     atom    7 type  3   force =    -0.00028235   -0.00001049    0.00030094
     atom    8 type  3   force =    -0.00016896    0.00023651   -0.00014179
     atom    9 type  3   force =     0.00004843    0.00025563   -0.00007525
     atom   10 type  3   force =     0.00010304   -0.00009732   -0.00010838
     atom   11 type  3   force =    -0.00006883    0.00024025   -0.00002944
     atom   12 type  3   force =     0.00028498   -0.00001996    0.00034115
     atom   13 type  3   force =    -0.00003995   -0.00033112   -0.00008440
     atom   14 type  3   force =     0.00005414   -0.00022277   -0.00008543

     Total force =     0.224359     Total SCF correction =     0.001094

     Computing stress (Cartesian axis) and pressure

          total   stress  (Ry/bohr**3)                   (kbar)     P=      262.90
  -0.00050871   0.00032903   0.00000000          -74.83       48.40        0.00
   0.00032903   0.00395669  -0.00000000           48.40      582.05       -0.00
   0.00000000  -0.00000000   0.00191343            0.00       -0.00      281.48

     kinetic stress (kbar)   6034.76     51.05     -0.00
                               51.05   6573.72     -0.00
                               -0.00     -0.00   6351.05

     local   stress (kbar)  -3187.94    125.37     44.26
                              125.37  -3080.14     15.81
                               44.26     15.81  -3283.42

     nonloc. stress (kbar)   6053.05     -8.44     -0.00
                               -8.44   6140.48     -0.00
                               -0.00     -0.00   6104.74

     hartree stress (kbar)   1577.76    -25.92     -8.45
                              -25.92   1557.79      4.93
                               -8.45      4.93   1598.37

     exc-cor stress (kbar)  10931.12     -0.88     -0.10
                               -0.88  10930.66      0.07
                               -0.10      0.07  10932.44

     corecor stress (kbar) -12875.26      3.78      0.07
                                3.78 -12878.07      1.05
                                0.07      1.05 -12886.62

     ewald   stress (kbar)  -8608.33    -96.56      0.00
                              -96.56  -8662.38      0.00
                                0.00      0.00  -8535.08

     hubbard stress (kbar)      0.00      0.00      0.00
                                0.00      0.00      0.00
                                0.00      0.00      0.00

     DFT-D   stress (kbar)      0.00      0.00      0.00
                                0.00      0.00      0.00
                                0.00      0.00      0.00

     XDM     stress (kbar)      0.00      0.00      0.00
                                0.00      0.00      0.00
                                0.00      0.00      0.00

     dft-nl  stress (kbar)      0.00      0.00      0.00
                                0.00      0.00      0.00
                                0.00      0.00      0.00

     TS-vdW  stress (kbar)      0.00      0.00      0.00
                                0.00      0.00      0.00
                                0.00      0.00      0.00

[...]

                                0.00      0.00      0.00

     Writing all to output data dir new_calculations/myprefix.save/

     General routines

     Parallel routines

     PAW routines

   This run was terminated on:  22:39:22  20May2023

   JOB DONE.