     Program PWSCF v.7.0 starts on 20May2023 at 14:46:39

     Reading input from espresso_17433.pwi
Warning: card &CELL ignored
Warning: card / ignored

     Current dimensions of program PWSCF are:
     Max number of different atomic species (ntypx) = 10
     Max number of k-points (npk) =  40000
     Max angular momentum in pseudopotentials (lmaxx) =  4
     file Cd.pbe-dn-rrkjus_psl.0.3.1.UPF: wavefunction(s)  4D renormalized
     file O.pbe-n-kjpaw_psl.0.1.UPF: wavefunction(s)  2P renormalized

     gamma-point specific algorithms are used
     Message from routine setup:
     using ibrav=0 with symmetry is DISCOURAGED, use correct ibrav instead

     Subspace diagonalization in iterative solution of the eigenvalue problem:
     a serial algorithm will be used

     Using Slab Decomposition

     bravais-lattice index     =            0
     lattice parameter (alat)  =      11.0740  a.u.
     unit-cell volume          =     744.0918 (a.u.)^3
     number of atoms/cell      =            8
     number of atomic types    =            3
     number of electrons       =        70.00
     number of Kohn-Sham states=           42
     kinetic-energy cutoff     =      30.0000  Ry
     charge density cutoff     =     240.0000  Ry
     scf convergence threshold =      1.0E-06
     mixing beta               =       0.7000
     number of iterations used =            8  plain     mixing
     Exchange-correlation= SLA  PW   PBX  PBC
                           (   1   4   3   4   0   0   0)

     celldm(1)=  11.073978  celldm(2)=   0.000000  celldm(3)=   0.000000
     celldm(4)=   0.000000  celldm(5)=   0.000000  celldm(6)=   0.000000

     crystal axes: (cart. coord. in units of alat)
               a(1) = (   1.000000   0.000000   0.000000 )
               a(2) = (  -0.338210   0.941070   0.000000 )
               a(3) = (   0.000000   0.000000   0.582228 )

     reciprocal axes: (cart. coord. in units 2 pi/alat)
               b(1) = (  1.000000  0.359389  0.000000 )
               b(2) = (  0.000000  1.062620  0.000000 )
               b(3) = (  0.000000  0.000000  1.717539 )

     PseudoPot. # 1 for Ca read from file:
     /home/pragov/projects/rrg-bengioy-ad/pragov/crystal_structure_design/SSSP/Ca_pbe_v1.uspp.F.UPF
     MD5 check sum: 403a4c14b9e4d4dfdc3024c9a3812218
     Pseudo is Ultrasoft + core correction, Zval = 10.0
     Generated by new atomic code, or converted to UPF format
     Using radial grid of  845 points,  6 beta functions with:
                l(1) =   0
                l(2) =   0
                l(3) =   1
                l(4) =   1
                l(5) =   2
                l(6) =   2
     Q(r) pseudized with  8 coefficients,  rinner =    1.500   1.500   1.500
                                                       1.500   1.500

     PseudoPot. # 2 for Cd read from file:
     /home/pragov/projects/rrg-bengioy-ad/pragov/crystal_structure_design/SSSP/Cd.pbe-dn-rrkjus_psl.0.3.1.UPF
     MD5 check sum: 558e9f355611b531a870a69ef6ace9e2
     Pseudo is Ultrasoft + core correction, Zval = 12.0
     Generated using "atomic" code by A. Dal Corso  v.5.0.99 svn rev. 10869
     Using radial grid of 1239 points,  6 beta functions with:
                l(1) =   0
                l(2) =   0
                l(3) =   1
                l(4) =   1
                l(5) =   2
                l(6) =   2
     Q(r) pseudized with 0 coefficients

     PseudoPot. # 3 for O  read from file:
     /home/pragov/projects/rrg-bengioy-ad/pragov/crystal_structure_design/SSSP/O.pbe-n-kjpaw_psl.0.1.UPF
     MD5 check sum: 0234752ac141de4415c5fc33072bef88
     Pseudo is Projector augmented-wave + core cor, Zval =  6.0
     Generated using "atomic" code by A. Dal Corso  v.5.0.99 svn rev. 10869
     Shape of augmentation charge: BESSEL
     Using radial grid of 1095 points,  4 beta functions with:
                l(1) =   0
                l(2) =   0
                l(3) =   1
                l(4) =   1
     Q(r) pseudized with 0 coefficients

     atomic species   valence    mass     pseudopotential
        Ca            10.00    40.07800     Ca( 1.00)
        Cd            12.00   112.41400     Cd( 1.00)
        O              6.00    15.99900     O ( 1.00)

      4 Sym. Ops., with inversion, found

                                    s                        frac. trans.

      isym =  1     identity

 cryst.   s( 1) = (     1          0          0      )
                  (     0          1          0      )
                  (     0          0          1      )

 cart.    s( 1) = (  1.0000000 -0.0000000  0.0000000 )
                  (  0.0000000  1.0000000  0.0000000 )
                  (  0.0000000  0.0000000  1.0000000 )

      isym =  2     180 deg rotation - cart. axis [0,0,1]

[...]

      isym =  3     inversion

[...]

      isym =  4     inv. 180 deg rotation - cart. axis [0,0,1]

 cryst.   s( 4) = (     1          0          0      )
                  (     0          1          0      )
                  (     0          0         -1      )

 cart.    s( 4) = (  1.0000000 -0.0000000  0.0000000 )
                  (  0.0000000  1.0000000  0.0000000 )
                  (  0.0000000  0.0000000 -1.0000000 )

   Cartesian axes

     site n.     atom                  positions (alat units)
         1           Ca  tau(   1) = (   0.3308948   0.4705352   0.0000000  )
         2           Cd  tau(   2) = (   0.5000000   0.0000000   0.2911142  )
         3           Cd  tau(   3) = (  -0.1691052   0.4705352   0.2911142  )
         4           Cd  tau(   4) = (   0.0000000   0.0000000   0.0000000  )
         5           O   tau(   5) = (  -0.0034652   0.7056674   0.0000000  )
         6           O   tau(   6) = (   0.1670112   0.2374914   0.2911142  )
         7           O   tau(   7) = (   0.4947783   0.7035791   0.2911142  )
         8           O   tau(   8) = (   0.6652547   0.2354031   0.0000000  )

   Crystallographic axes

     site n.     atom                  positions (cryst. coord.)
         1           Ca  tau(   1) = (  0.5000000  0.5000000  0.0000000  )
         2           Cd  tau(   2) = (  0.5000000  0.0000000  0.5000000  )
         3           Cd  tau(   3) = (  0.0000000  0.5000000  0.5000000  )
         4           Cd  tau(   4) = (  0.0000000  0.0000000  0.0000000  )
         5           O   tau(   5) = (  0.2501440  0.7498560  0.0000000  )
         6           O   tau(   6) = (  0.2523630  0.2523630  0.5000000  )
         7           O   tau(   7) = (  0.7476370  0.7476370  0.5000000  )
         8           O   tau(   8) = (  0.7498560  0.2501440  0.0000000  )

     number of k points=     1  Methfessel-Paxton smearing, width (Ry)=  0.0010
                       cart. coord. in units 2pi/alat
        k(    1) = (   0.0000000   0.0000000   0.0000000), wk =   2.0000000

                       cryst. coord.
        k(    1) = (   0.0000000   0.0000000   0.0000000), wk =   2.0000000

     Check: negative core charge=   -0.000007

     Initial potential from superposition of free atoms

     starting charge      69.9799, renormalised to      70.0000
     Starting wfcs are   53 randomized atomic wfcs
     Checking if some PAW data can be deallocated...

     Self-consistent Calculation

     iteration #  1     ecut=    30.00 Ry     beta= 0.70
     Davidson diagonalization with overlap

     ethr =  1.00E-02,  avg # of iterations =  2.0

     total energy              =    -606.91073451 Ry
     estimated scf accuracy    <       2.00317784 Ry

[...]

     total energy              =    -607.88694468 Ry
     estimated scf accuracy    <       0.00000973 Ry

     iteration # 24     ecut=    30.00 Ry     beta= 0.70
     Davidson diagonalization with overlap

     ethr =  1.39E-08,  avg # of iterations =  1.0

     End of self-consistent calculation

          k = 0.0000 0.0000 0.0000 (  1038 PWs)   bands (ev):

   -29.1510 -10.5473 -10.4264 -10.0342  -7.9165  -7.3597  -7.1658  -6.8042
     1.3374   1.4522   1.4583   1.5415   1.6113   1.8701   2.0197   2.0467
     2.0669   2.1474   2.2797   2.4825   2.5087   2.6195   2.7099   4.7103
     5.3901   5.5997   7.1456   7.1469   7.9206   8.0490   8.0836   8.1304
     8.2534   8.8771   8.8798   8.8801  13.4544  13.5535  14.0783  14.6755
    15.4232  16.4419

     occupation numbers
     1.0000   1.0000   1.0000   1.0000   1.0000   1.0000   1.0000   1.0000
     1.0000   1.0000   1.0000   1.0000   1.0000   1.0000   1.0000   1.0000
     1.0000   1.0000   1.0000   1.0000   1.0000   1.0000   1.0000   1.0000
     1.0000   1.0000   1.0000   1.0000   1.0000   1.0000   1.0000   1.0000
     1.0000   0.7717   0.6220   0.6063  -0.0000  -0.0000  -0.0000  -0.0000
    -0.0000  -0.0000

     the Fermi energy is     8.8818 ev

!    total energy              =    -607.88694470 Ry
     estimated scf accuracy    <       0.00000002 Ry
     smearing contrib. (-TS)   =      -0.00072520 Ry
     internal energy E=F+TS    =    -607.88621950 Ry

     The total energy is F=E-TS. E is the sum of the following terms:
     one-electron contribution =    -109.03829300 Ry
     hartree contribution      =     117.46905949 Ry
     xc contribution           =    -170.58674962 Ry
     ewald contribution        =    -407.61067380 Ry
     one-center paw contrib.   =     -38.11956258 Ry
      -> PAW hartree energy AE =     114.70770399 Ry
      -> PAW hartree energy PS =    -114.30997470 Ry
      -> PAW xc energy AE      =     -68.11542220 Ry
      -> PAW xc energy PS      =      29.59813033 Ry
      -> total E_H with PAW    =     117.86678878 Ry
      -> total E_XC with PAW   =    -209.10404148 Ry

     convergence has been achieved in  24 iterations

     Forces acting on atoms (cartesian axes, Ry/au):

     atom    1 type  1   force =     0.00000000    0.00000000    0.00000000
     atom    2 type  2   force =     0.00000000    0.00000000    0.00000000
     atom    3 type  2   force =     0.00000000    0.00000000    0.00000000
     atom    4 type  2   force =     0.00000000    0.00000000    0.00000000
     atom    5 type  3   force =    -0.00242514    0.00166675    0.00000000
     atom    6 type  3   force =     0.04452784    0.06323615    0.00000000
     atom    7 type  3   force =    -0.04452784   -0.06323615    0.00000000
     atom    8 type  3   force =     0.00242514   -0.00166675    0.00000000
     The non-local contrib.  to forces
     atom    1 type  1   force =     0.00000000    0.00000000    0.00000000
     atom    2 type  2   force =     0.00000000    0.00000000    0.00000000
     atom    3 type  2   force =     0.00000000    0.00000000    0.00000000
     atom    4 type  2   force =     0.00000000    0.00000000    0.00000000
     atom    5 type  3   force =    -0.01222884    0.00794295    0.00000000
     atom    6 type  3   force =    -0.17298207   -0.24694843    0.00000000
     atom    7 type  3   force =     0.17298207    0.24694843    0.00000000
     atom    8 type  3   force =     0.01222884   -0.00794295    0.00000000
     The ionic contribution  to forces
     atom    1 type  1   force =    -0.00000000    0.00000000   -0.00000000
     atom    2 type  2   force =     0.00000000   -0.00000000   -0.00000000
     atom    3 type  2   force =    -0.00000000    0.00000000   -0.00000000
     atom    4 type  2   force =     0.00000000   -0.00000000   -0.00000000
     atom    5 type  3   force =     0.67733766   -0.47632453   -0.00000000
     atom    6 type  3   force =     0.62549313    0.88945671   -0.00000000
     atom    7 type  3   force =    -0.62549313   -0.88945671    0.00000000
     atom    8 type  3   force =    -0.67733766    0.47632453   -0.00000000
     The local contribution  to forces
     atom    1 type  1   force =    -0.00000499   -0.00000779   -0.00000013
     atom    2 type  2   force =    -0.00001038    0.00000336   -0.00000108
     atom    3 type  2   force =     0.00000310    0.00000230   -0.00000132
     atom    4 type  2   force =     0.00000898   -0.00000076    0.00000006
     atom    5 type  3   force =    -0.66769958    0.47033908   -0.00002156
     atom    6 type  3   force =    -0.41055154   -0.58271026   -0.00000419
     atom    7 type  3   force =     0.41055880    0.58269747    0.00000256
     atom    8 type  3   force =     0.66769957   -0.47033989    0.00002732
     The core correction contribution to forces
     atom    1 type  1   force =    -0.00000020   -0.00000017   -0.00000002
     atom    2 type  2   force =    -0.00000028    0.00000060    0.00000008
     atom    3 type  2   force =    -0.00000008   -0.00000051   -0.00000013
     atom    4 type  2   force =     0.00000045    0.00000002   -0.00000030
     atom    5 type  3   force =     0.00029037   -0.00019439   -0.00000027
     atom    6 type  3   force =     0.00248759    0.00355166   -0.00000001
     atom    7 type  3   force =    -0.00248759   -0.00355182    0.00000009
     atom    8 type  3   force =    -0.00029038    0.00019438    0.00000038
     The Hubbard contrib.    to forces
     atom    1 type  1   force =     0.00000000    0.00000000    0.00000000
     atom    2 type  2   force =     0.00000000    0.00000000    0.00000000
     atom    3 type  2   force =     0.00000000    0.00000000    0.00000000
     atom    4 type  2   force =     0.00000000    0.00000000    0.00000000
     atom    5 type  3   force =     0.00000000    0.00000000    0.00000000
     atom    6 type  3   force =     0.00000000    0.00000000    0.00000000
     atom    7 type  3   force =     0.00000000    0.00000000    0.00000000
     atom    8 type  3   force =     0.00000000    0.00000000    0.00000000
     The SCF correction term to forces
     atom    1 type  1   force =     0.00000523    0.00000696    0.00000047
     atom    2 type  2   force =     0.00001650   -0.00000044    0.00000177
     atom    3 type  2   force =    -0.00000737   -0.00001020    0.00000103
     atom    4 type  2   force =    -0.00001699    0.00000495   -0.00000362
     atom    5 type  3   force =    -0.00012174   -0.00009680    0.00000432
     atom    6 type  3   force =     0.00007918   -0.00011523    0.00000217
     atom    7 type  3   force =    -0.00008953    0.00012479    0.00000047
     atom    8 type  3   force =     0.00012777    0.00009676   -0.00000891

     Total force =     0.109455     Total SCF correction =     0.000307

     Computing stress (Cartesian axis) and pressure

          total   stress  (Ry/bohr**3)                   (kbar)     P=     -350.35
  -0.00239739   0.00013941   0.00000000         -352.67       20.51        0.00
   0.00013941  -0.00229716   0.00000000           20.51     -337.92        0.00
   0.00000000   0.00000000  -0.00245044            0.00        0.00     -360.47

     kinetic stress (kbar)  27440.40     28.72      0.00
                               28.72  27461.02      0.00
                                0.00      0.00  27930.08

     local   stress (kbar)   -334.56    117.47      0.01
                              117.47   -250.09      0.02
                                0.01      0.02  -1227.29

     nonloc. stress (kbar)  -1749.93    -17.05      0.00
                              -17.05  -1762.19      0.00
                                0.00      0.00  -1767.18

     hartree stress (kbar)   7677.64    -58.16     -0.00
                              -58.16   7635.83     -0.01
                               -0.00     -0.01   7909.87

     exc-cor stress (kbar)   9463.67     -1.09     -0.00
                               -1.09   9462.88     -0.00
                               -0.00     -0.00   9464.50

     corecor stress (kbar) -15944.32      1.81      0.00
                                1.81 -15943.02      0.00
                                0.00      0.00 -15934.77

     ewald   stress (kbar) -26905.56    -51.18      0.00
                              -51.18 -26942.35      0.00
                                0.00      0.00 -26735.69

     hubbard stress (kbar)      0.00      0.00      0.00
                                0.00      0.00      0.00
                                0.00      0.00      0.00

     DFT-D   stress (kbar)      0.00      0.00      0.00
                                0.00      0.00      0.00
                                0.00      0.00      0.00

     XDM     stress (kbar)      0.00      0.00      0.00
                                0.00      0.00      0.00
                                0.00      0.00      0.00

     dft-nl  stress (kbar)      0.00      0.00      0.00
                                0.00      0.00      0.00
                                0.00      0.00      0.00

     TS-vdW  stress (kbar)      0.00      0.00      0.00
                                0.00      0.00      0.00
                                0.00      0.00      0.00

[...]

                                0.00      0.00      0.00

     Writing all to output data dir new_calculations/myprefix.save/

     General routines

     Parallel routines

     PAW routines

   This run was terminated on:  14:46:56  20May2023

   JOB DONE.