     Program PWSCF v.7.0 starts on 21May2023 at  3:18:44

     Reading input from espresso_16817.pwi
Warning: card &CELL ignored
Warning: card / ignored

     Current dimensions of program PWSCF are:
     Max number of different atomic species (ntypx) = 10
     Max number of k-points (npk) =  40000
     Max angular momentum in pseudopotentials (lmaxx) =  4
     file Pb.pbe-dn-kjpaw_psl.0.2.2.UPF: wavefunction(s)  6S renormalized

     gamma-point specific algorithms are used
     Message from routine setup:
     using ibrav=0 with symmetry is DISCOURAGED, use correct ibrav instead

     Subspace diagonalization in iterative solution of the eigenvalue problem:
     a serial algorithm will be used

     Using Slab Decomposition

     bravais-lattice index     =            0
     lattice parameter (alat)  =       8.2778  a.u.
     unit-cell volume          =    2709.0280 (a.u.)^3
     number of atoms/cell      =           12
     number of atomic types    =            3
     number of electrons       =       116.00
     number of Kohn-Sham states=           70
     kinetic-energy cutoff     =      30.0000  Ry
     charge density cutoff     =     240.0000  Ry
     scf convergence threshold =      1.0E-06
     mixing beta               =       0.7000
     number of iterations used =            8  plain     mixing
     Exchange-correlation= SLA  PW   PBX  PBC
                           (   1   4   3   4   0   0   0)

     celldm(1)=   8.277809  celldm(2)=   0.000000  celldm(3)=   0.000000
     celldm(4)=   0.000000  celldm(5)=   0.000000  celldm(6)=   0.000000

     crystal axes: (cart. coord. in units of alat)
               a(1) = (   1.000000   0.000000   0.000000 )
               a(2) = (  -0.500000   0.866025   0.000000 )
               a(3) = (   0.000000   0.000000   5.514887 )

     reciprocal axes: (cart. coord. in units 2 pi/alat)
               b(1) = (  1.000000  0.577350  0.000000 )
               b(2) = (  0.000000  1.154701  0.000000 )
               b(3) = (  0.000000  0.000000  0.181327 )

     PseudoPot. # 1 for Sb read from file:
     /home/pragov/projects/rrg-bengioy-ad/pragov/crystal_structure_design/SSSP/sb_pbe_v1.4.uspp.F.UPF
     MD5 check sum: 9bc50dfb53373b713f5709b9110fe27f
     Pseudo is Ultrasoft + core correction, Zval = 15.0
     Generated by new atomic code, or converted to UPF format
     Using radial grid of  891 points,  6 beta functions with:
                l(1) =   0
                l(2) =   0
                l(3) =   1
                l(4) =   1
                l(5) =   2
                l(6) =   2
     Q(r) pseudized with  8 coefficients,  rinner =    1.350   1.350   1.350
                                                       1.350   1.350

     PseudoPot. # 2 for Te read from file:
     /home/pragov/projects/rrg-bengioy-ad/pragov/crystal_structure_design/SSSP/Te_pbe_v1.uspp.F.UPF
     MD5 check sum: c319670d6894cc26e93307826a071b75
     Pseudo is Ultrasoft + core correction, Zval =  6.0
     Generated by new atomic code, or converted to UPF format
     Using radial grid of  891 points,  5 beta functions with:
                l(1) =   0
                l(2) =   0
                l(3) =   1
                l(4) =   1
                l(5) =   2
     Q(r) pseudized with  6 coefficients,  rinner =    1.800   1.800   1.800
                                                       1.800   1.800

     PseudoPot. # 3 for Pb read from file:
     /home/pragov/projects/rrg-bengioy-ad/pragov/crystal_structure_design/SSSP/Pb.pbe-dn-kjpaw_psl.0.2.2.UPF
     MD5 check sum: 9d431e6316058b74ade52399a6cf67da
     Pseudo is Projector augmented-wave + core cor, Zval = 14.0
     Generated using "atomic" code by A. Dal Corso  v.5.0.99 svn rev. 10869
     Shape of augmentation charge: PSQ
     Using radial grid of 1281 points,  6 beta functions with:
                l(1) =   0
                l(2) =   0
                l(3) =   1
                l(4) =   1
                l(5) =   2
                l(6) =   2
     Q(r) pseudized with 0 coefficients

     atomic species   valence    mass     pseudopotential
        Sb            15.00   121.76000     Sb( 1.00)
        Te             6.00   127.60000     Te( 1.00)
        Pb            14.00   207.20000     Pb( 1.00)

     12 Sym. Ops., with inversion, found

                                    s                        frac. trans.

      isym =  1     identity

 cryst.   s( 1) = (     1          0          0      )
                  (     0          1          0      )
                  (     0          0          1      )

 cart.    s( 1) = (  1.0000000 -0.0000000  0.0000000 )
                  (  0.0000000  1.0000000  0.0000000 )
                  (  0.0000000  0.0000000  1.0000000 )

      isym =  2     180 deg rotation - cart. axis [1,0,0]

[...]

      isym =  3     120 deg rotation - cryst. axis [0,0,1]

[...]

      isym =  6     180 deg rotation - cryst. axis [1,1,0]

[...]

      isym =  7     inversion

[...]

      isym =  8     inv. 180 deg rotation - cart. axis [1,0,0]

[...]

      isym =  9     inv. 120 deg rotation - cryst. axis [0,0,1]

 cryst.   s( 9) = (     0         -1          0      )
                  (     1          1          0      )
                  (     0          0         -1      )

 cart.    s( 9) = (  0.5000000  0.8660254  0.0000000 )
                  ( -0.8660254  0.5000000  0.0000000 )
                  (  0.0000000  0.0000000 -1.0000000 )

[...]

 cryst.   s(10) = (     1          1          0      )
                  (    -1          0          0      )
                  (     0          0         -1      )

 cart.    s(10) = (  0.5000000 -0.8660254  0.0000000 )
                  (  0.8660254  0.5000000  0.0000000 )
                  (  0.0000000  0.0000000 -1.0000000 )

[...]

      isym = 12     inv. 180 deg rotation - cryst. axis [1,1,0]

 cryst.   s(12) = (     0         -1          0      )
                  (    -1          0          0      )
                  (     0          0          1      )

 cart.    s(12) = (  0.5000000 -0.8660254  0.0000000 )
                  ( -0.8660254 -0.5000000  0.0000000 )
                  (  0.0000000  0.0000000  1.0000000 )

   Cartesian axes

     site n.     atom                  positions (alat units)
         1           Sb  tau(   1) = (  -0.0000005   0.5773506   0.4445550  )
         2           Sb  tau(   2) = (   0.5000005   0.2886748   5.0703318  )
         3           Sb  tau(   3) = (  -0.0000005   0.5773506   1.8421487  )
         4           Sb  tau(   4) = (   0.5000005   0.2886748   3.6727381  )
         5           Te  tau(   5) = (  -0.0000005   0.5773506   3.2228778  )
         6           Te  tau(   6) = (   0.5000005   0.2886748   2.2920090  )
         7           Te  tau(   7) = (  -0.0000005   0.5773506   4.6858173  )
         8           Te  tau(   8) = (   0.5000005   0.2886748   0.8290695  )
         9           Te  tau(   9) = (   0.0000000   0.0000000   1.4625645  )
        10           Te  tau(  10) = (   0.0000000   0.0000000   4.0523223  )
        11           Te  tau(  11) = (   0.0000000   0.0000000   0.0000000  )
        12           Pb  tau(  12) = (   0.0000000   0.0000000   2.7574434  )

   Crystallographic axes

     site n.     atom                  positions (cryst. coord.)
         1           Sb  tau(   1) = (  0.3333330  0.6666670  0.0806100  )
         2           Sb  tau(   2) = (  0.6666670  0.3333330  0.9193900  )
         3           Sb  tau(   3) = (  0.3333330  0.6666670  0.3340320  )
         4           Sb  tau(   4) = (  0.6666670  0.3333330  0.6659680  )
         5           Te  tau(   5) = (  0.3333330  0.6666670  0.5843960  )
         6           Te  tau(   6) = (  0.6666670  0.3333330  0.4156040  )
         7           Te  tau(   7) = (  0.3333330  0.6666670  0.8496670  )
         8           Te  tau(   8) = (  0.6666670  0.3333330  0.1503330  )
         9           Te  tau(   9) = (  0.0000000  0.0000000  0.2652030  )
        10           Te  tau(  10) = (  0.0000000  0.0000000  0.7347970  )
        11           Te  tau(  11) = (  0.0000000  0.0000000  0.0000000  )
        12           Pb  tau(  12) = (  0.0000000  0.0000000  0.5000000  )

     number of k points=     1  Methfessel-Paxton smearing, width (Ry)=  0.0010
                       cart. coord. in units 2pi/alat
        k(    1) = (   0.0000000   0.0000000   0.0000000), wk =   2.0000000

                       cryst. coord.
        k(    1) = (   0.0000000   0.0000000   0.0000000), wk =   2.0000000

     Check: negative core charge=   -0.000001

     Initial potential from superposition of free atoms

     starting charge     111.9961, renormalised to     116.0000
     Starting wfcs are   73 randomized atomic wfcs
     Checking if some PAW data can be deallocated...

     Self-consistent Calculation

     iteration #  1     ecut=    30.00 Ry     beta= 0.70
     Davidson diagonalization with overlap

     ethr =  1.00E-02,  avg # of iterations = 10.0

     negative rho (up, down):  3.740E-04 0.000E+00

     total energy              =   -1145.63618488 Ry
     estimated scf accuracy    <     734.35554684 Ry

[...]

     negative rho (up, down):  2.400E-07 0.000E+00

[...]

     total energy              =   -1792.72967718 Ry
     estimated scf accuracy    <       0.00000732 Ry

     iteration # 49     ecut=    30.00 Ry     beta= 0.70
     Davidson diagonalization with overlap

     ethr =  1.89E-09,  avg # of iterations =  1.0

     End of self-consistent calculation

          k = 0.0000 0.0000 0.0000 (  3781 PWs)   bands (ev):

   -21.5344 -21.5344 -21.5329 -21.5329 -21.5098 -21.5098 -21.5061 -21.5061
   -21.4868 -21.4868 -21.4866 -21.4859 -21.4859 -21.4836 -21.4532 -21.4532
   -21.4483 -21.4473 -21.4473 -21.4399 -10.6654 -10.6654 -10.5323 -10.5323
   -10.5225  -5.1177  -4.9742  -4.8656  -4.4111  -4.2049  -3.3975  -3.3262
    -1.4762  -0.8511   0.0671   0.5490   1.0574   4.8657   5.4082   5.5551
     5.6905   5.6905   5.7456   5.7456   5.7832   5.7832   5.9398   5.9398
     6.2468   6.2468   6.3433   6.4988   6.5353   6.5353   6.5420   6.5420
     7.3817   7.5036   8.1423   8.1423   8.1724   8.1741   8.1756   8.1756
     8.8201   8.8604   8.8604   9.3892   9.3892   9.4241

     occupation numbers
     1.0000   1.0000   1.0000   1.0000   1.0000   1.0000   1.0000   1.0000
     1.0000   1.0000   1.0000   1.0000   1.0000   1.0000   1.0000   1.0000
     1.0000   1.0000   1.0000   1.0000   1.0000   1.0000   1.0000   1.0000
     1.0000   1.0000   1.0000   1.0000   1.0000   1.0000   1.0000   1.0000
     1.0000   1.0000   1.0000   1.0000   1.0000   1.0000   1.0000   1.0000
     1.0000   1.0000   1.0000   1.0000   1.0000   1.0000   1.0000   1.0000
     1.0000   1.0000   1.0000   1.0000   1.0000   1.0000   1.0000   1.0000
     1.0000   1.0000  -0.0000  -0.0000  -0.0000  -0.0000  -0.0000  -0.0000
    -0.0000  -0.0000  -0.0000  -0.0000  -0.0000  -0.0000

     the Fermi energy is     7.6083 ev

!    total energy              =   -1792.72967725 Ry
     estimated scf accuracy    <       0.00000024 Ry
     smearing contrib. (-TS)   =       0.00000000 Ry
     internal energy E=F+TS    =   -1792.72967725 Ry

     The total energy is F=E-TS. E is the sum of the following terms:
     one-electron contribution =    -492.97641022 Ry
     hartree contribution      =     309.07934552 Ry
     xc contribution           =    -322.51920359 Ry
     ewald contribution        =    -557.83058088 Ry
     one-center paw contrib.   =    -728.48282807 Ry
      -> PAW hartree energy AE =      98.46889136 Ry
      -> PAW hartree energy PS =     -98.26353249 Ry
      -> PAW xc energy AE      =    -772.46062056 Ry
      -> PAW xc energy PS      =      43.77243362 Ry
      -> total E_H with PAW    =     309.28470439 Ry
      -> total E_XC with PAW   =   -1051.20739053 Ry

     convergence has been achieved in  49 iterations

     Forces acting on atoms (cartesian axes, Ry/au):

     atom    1 type  1   force =     0.00000000    0.00000000    0.01186482
     atom    2 type  1   force =     0.00000000    0.00000000   -0.01186482
     atom    3 type  1   force =     0.00000000   -0.00000000   -0.00920391
     atom    4 type  1   force =    -0.00000000    0.00000000    0.00920391
     atom    5 type  2   force =    -0.00000000   -0.00000000    0.05319937
     atom    6 type  2   force =     0.00000000   -0.00000000   -0.05319937
     atom    7 type  2   force =     0.00000000    0.00000000    0.03993728
     atom    8 type  2   force =     0.00000000   -0.00000000   -0.03993728
     atom    9 type  2   force =     0.00000000   -0.00000000    0.04019535
     atom   10 type  2   force =     0.00000000    0.00000000   -0.04019535
     atom   11 type  2   force =     0.00000000    0.00000000    0.00000000
     atom   12 type  3   force =     0.00000000    0.00000000    0.00000000
     The non-local contrib.  to forces
     atom    1 type  1   force =    -0.00000000    0.00000000   -0.02565511
     atom    2 type  1   force =     0.00000000   -0.00000000    0.02565511
     atom    3 type  1   force =     0.00000000    0.00000000    0.04025372
     atom    4 type  1   force =     0.00000000    0.00000000   -0.04025372
     atom    5 type  2   force =     0.00000000   -0.00000000   -0.08190930
     atom    6 type  2   force =     0.00000000   -0.00000000    0.08190930
     atom    7 type  2   force =     0.00000000    0.00000000    0.01879103
     atom    8 type  2   force =     0.00000000   -0.00000000   -0.01879103
     atom    9 type  2   force =     0.00000000    0.00000000    0.03436267
     atom   10 type  2   force =    -0.00000000   -0.00000000   -0.03436267
     atom   11 type  2   force =     0.00000000   -0.00000000    0.00000000
     atom   12 type  3   force =     0.00000000    0.00000000    0.00000000
     The ionic contribution  to forces
     atom    1 type  1   force =     0.00001302   -0.00000752    8.02523856
     atom    2 type  1   force =    -0.00001302    0.00000752   -8.02523856
     atom    3 type  1   force =     0.00001115   -0.00000644   -8.85200537
     atom    4 type  1   force =    -0.00001115    0.00000644    8.85200537
     atom    5 type  2   force =     0.00000895   -0.00000517    0.86183753
     atom    6 type  2   force =    -0.00000895    0.00000517   -0.86183753
     atom    7 type  2   force =     0.00000965   -0.00000557   -6.39874158
     atom    8 type  2   force =    -0.00000965    0.00000557    6.39874158
     atom    9 type  2   force =    -0.00000411    0.00000237   -6.81964608
     atom   10 type  2   force =     0.00000411   -0.00000237    6.81964608
     atom   11 type  2   force =    -0.00000000    0.00000000    0.00000000
     atom   12 type  3   force =    -0.00000000    0.00000000    0.00000000
     The local contribution  to forces
     atom    1 type  1   force =    -0.00001117    0.00000445   -7.98674408
     atom    2 type  1   force =     0.00000649   -0.00000532    7.98926639
     atom    3 type  1   force =    -0.00000483    0.00000516    8.80208740
     atom    4 type  1   force =     0.00000995   -0.00000520   -8.80340774
     atom    5 type  2   force =    -0.00000786    0.00000734   -0.71932816
     atom    6 type  2   force =     0.00000342   -0.00000561    0.71861474
     atom    7 type  2   force =    -0.00000870    0.00000417    6.42476466
     atom    8 type  2   force =     0.00000916   -0.00000290   -6.42421693
     atom    9 type  2   force =     0.00001011   -0.00000089    6.82821322
     atom   10 type  2   force =    -0.00000518    0.00000039   -6.82838479
     atom   11 type  2   force =    -0.00000127    0.00000047    0.00056036
     atom   12 type  3   force =    -0.00000100    0.00000478   -0.00066722
     The core correction contribution to forces
     atom    1 type  1   force =    -0.00000009   -0.00000000    0.00019670
     atom    2 type  1   force =    -0.00000005   -0.00000002   -0.00019229
     atom    3 type  1   force =     0.00000014   -0.00000005   -0.00047037
     atom    4 type  1   force =     0.00000006   -0.00000006    0.00047378
     atom    5 type  2   force =    -0.00000021   -0.00000014   -0.00784445
     atom    6 type  2   force =     0.00000067    0.00000001    0.00783369
     atom    7 type  2   force =    -0.00000000    0.00000011   -0.00460435
     atom    8 type  2   force =    -0.00000003   -0.00000023    0.00459964
     atom    9 type  2   force =    -0.00000064   -0.00000008   -0.00298461
     atom   10 type  2   force =     0.00000014    0.00000018    0.00297834
     atom   11 type  2   force =     0.00000018   -0.00000004   -0.00000209
     atom   12 type  3   force =    -0.00000000    0.00000010    0.00000608
     The Hubbard contrib.    to forces
     atom    1 type  1   force =     0.00000000    0.00000000    0.00000000
     atom    2 type  1   force =     0.00000000    0.00000000    0.00000000
     atom    3 type  1   force =     0.00000000    0.00000000    0.00000000
     atom    4 type  1   force =     0.00000000    0.00000000    0.00000000
     atom    5 type  2   force =     0.00000000    0.00000000    0.00000000
     atom    6 type  2   force =     0.00000000    0.00000000    0.00000000
     atom    7 type  2   force =     0.00000000    0.00000000    0.00000000
     atom    8 type  2   force =     0.00000000    0.00000000    0.00000000
     atom    9 type  2   force =     0.00000000    0.00000000    0.00000000
     atom   10 type  2   force =     0.00000000    0.00000000    0.00000000
     atom   11 type  2   force =     0.00000000    0.00000000    0.00000000
     atom   12 type  3   force =     0.00000000    0.00000000    0.00000000
     The SCF correction term to forces
     atom    1 type  1   force =     0.00000163    0.00000079   -0.00109447
     atom    2 type  1   force =     0.00000266    0.00000009   -0.00127870
     atom    3 type  1   force =    -0.00000259   -0.00000018    0.00090574
     atom    4 type  1   force =    -0.00000193    0.00000135    0.00036124
     atom    5 type  2   force =     0.00000059   -0.00000017    0.00049835
     atom    6 type  2   force =    -0.00000060    0.00000031    0.00033504
     atom    7 type  2   force =     0.00000003   -0.00000036   -0.00026760
     atom    8 type  2   force =    -0.00000008    0.00000019   -0.00026568
     atom    9 type  2   force =     0.00000045   -0.00000021    0.00027093
     atom   10 type  2   force =    -0.00000014   -0.00000018   -0.00005155
     atom   11 type  2   force =    -0.00000032   -0.00000014   -0.00052845
     atom   12 type  3   force =    -0.00000087   -0.00000260    0.00071749

     Total force =     0.111949     Total SCF correction =     0.002271

     Computing stress (Cartesian axis) and pressure

          total   stress  (Ry/bohr**3)                   (kbar)     P=      204.40
   0.00227770   0.00000000   0.00000000          335.06        0.00        0.00
   0.00000000   0.00227770   0.00000000            0.00      335.06        0.00
  -0.00000000  -0.00000000  -0.00038697           -0.00       -0.00      -56.93

     kinetic stress (kbar)   7831.99      0.00      0.00
                                0.00   7831.99      0.00
                                0.00      0.00   7461.35

     local   stress (kbar)    303.64     -0.00      0.00
                               -0.00    303.64     -0.00
                                0.00     -0.00   8967.89

     nonloc. stress (kbar)  -3172.56     -0.00      0.00
                               -0.00  -3172.56      0.00
                                0.00     -0.00  -3051.11

     hartree stress (kbar)   6976.80      0.00     -0.00
                                0.00   6976.80      0.00
                               -0.00      0.00   2829.97

     exc-cor stress (kbar)   7669.77      0.00      0.00
                                0.00   7669.77      0.00
                                0.00      0.00   7672.26

     corecor stress (kbar) -10735.29      0.00      0.00
                                0.00 -10735.29      0.00
                                0.00      0.00 -10724.65

     ewald   stress (kbar)  -8539.29      0.00     -0.00
                                0.00  -8539.28      0.00
                               -0.00      0.00 -13212.63

     hubbard stress (kbar)      0.00      0.00      0.00
                                0.00      0.00      0.00
                                0.00      0.00      0.00

     DFT-D   stress (kbar)      0.00      0.00      0.00
                                0.00      0.00      0.00
                                0.00      0.00      0.00

     XDM     stress (kbar)      0.00      0.00      0.00
                                0.00      0.00      0.00
                                0.00      0.00      0.00

     dft-nl  stress (kbar)      0.00      0.00      0.00
                                0.00      0.00      0.00
                                0.00      0.00      0.00

     TS-vdW  stress (kbar)      0.00      0.00      0.00
                                0.00      0.00      0.00
                                0.00      0.00      0.00

[...]

                                0.00      0.00      0.00

     Writing all to output data dir new_calculations/myprefix.save/

     General routines

     Parallel routines

     PAW routines

   This run was terminated on:   3:20:53  21May2023

   JOB DONE.