     Program PWSCF v.7.0 starts on 20May2023 at  4: 3:35

     Reading input from espresso_19025.pwi
Warning: card &CELL ignored
Warning: card / ignored

     Current dimensions of program PWSCF are:
     Max number of different atomic species (ntypx) = 10
     Max number of k-points (npk) =  40000
     Max angular momentum in pseudopotentials (lmaxx) =  4
     file Ba.pbe-spn-kjpaw_psl.1.0.0.UPF: wavefunction(s)  5S 6S renormalized
     file O.pbe-n-kjpaw_psl.0.1.UPF: wavefunction(s)  2P renormalized

     gamma-point specific algorithms are used
     Message from routine setup:
     using ibrav=0 with symmetry is DISCOURAGED, use correct ibrav instead

     Subspace diagonalization in iterative solution of the eigenvalue problem:
     a serial algorithm will be used

     Using Slab Decomposition

     bravais-lattice index     =            0
     lattice parameter (alat)  =      11.6761  a.u.
     unit-cell volume          =    2294.4882 (a.u.)^3
     number of atoms/cell      =           20
     number of atomic types    =            5
     number of electrons       =       164.00
     number of Kohn-Sham states=           98
     kinetic-energy cutoff     =      30.0000  Ry
     charge density cutoff     =     240.0000  Ry
     scf convergence threshold =      1.0E-06
     mixing beta               =       0.7000
     number of iterations used =            8  plain     mixing
     Exchange-correlation= SLA  PW   PBX  PBC
                           (   1   4   3   4   0   0   0)

     celldm(1)=  11.676125  celldm(2)=   0.000000  celldm(3)=   0.000000
     celldm(4)=   0.000000  celldm(5)=   0.000000  celldm(6)=   0.000000

     crystal axes: (cart. coord. in units of alat)
               a(1) = (   1.000000   0.000000   0.000000 )
               a(2) = (   0.001059   1.012548   0.000000 )
               a(3) = (   0.008113  -0.003452   1.423555 )

     reciprocal axes: (cart. coord. in units 2 pi/alat)
               b(1) = (  1.000000 -0.001046 -0.005701 )
               b(2) = (  0.000000  0.987608  0.002395 )
               b(3) = (  0.000000  0.000000  0.702467 )

     PseudoPot. # 1 for Ba read from file:
     /home/pragov/projects/rrg-bengioy-ad/pragov/crystal_structure_design/SSSP/Ba.pbe-spn-kjpaw_psl.1.0.0.UPF
     MD5 check sum: c432291d3e53af55f19d5e8866385beb
     Pseudo is Projector augmented-wave + core cor, Zval = 10.0
     Generated using "atomic" code by A. Dal Corso  v.5.1
     Shape of augmentation charge: PSQ
     Using radial grid of 1251 points,  7 beta functions with:
                l(1) =   0
                l(2) =   0
                l(3) =   0
                l(4) =   1
                l(5) =   1
                l(6) =   2
                l(7) =   2
     Q(r) pseudized with 0 coefficients

     PseudoPot. # 2 for Sr read from file:
     /home/pragov/projects/rrg-bengioy-ad/pragov/crystal_structure_design/SSSP/Sr_pbe_v1.uspp.F.UPF
     MD5 check sum: 6b418c05fbe9db5448babca5e47b7a5b
     Pseudo is Ultrasoft + core correction, Zval = 10.0
     Generated by new atomic code, or converted to UPF format
     Using radial grid of  883 points,  6 beta functions with:
                l(1) =   0
                l(2) =   0
                l(3) =   1
                l(4) =   1
                l(5) =   2
                l(6) =   2
     Q(r) pseudized with  6 coefficients,  rinner =    1.400   1.400   1.400
                                                       1.400   1.400

     PseudoPot. # 3 for La read from file:
     /home/pragov/projects/rrg-bengioy-ad/pragov/crystal_structure_design/SSSP/La.GGA-PBE-paw-v1.0.UPF
     MD5 check sum: 436541e95c1ad8901025bd0b0ed42ae2
     Pseudo is Projector augmented-wave + core cor, Zval = 11.0
     Generated using ATOMPAW code
     Shape of augmentation charge: BESSEL
     Using radial grid of 1101 points,  8 beta functions with:
                l(1) =   0
                l(2) =   0
                l(3) =   1
                l(4) =   1
                l(5) =   2
                l(6) =   2
                l(7) =   3
                l(8) =   3
     Q(r) pseudized with 0 coefficients

     PseudoPot. # 4 for Bi read from file:
     /home/pragov/projects/rrg-bengioy-ad/pragov/crystal_structure_design/SSSP/Bi_pbe_v1.uspp.F.UPF
     MD5 check sum: cceb9f28ec65b6d7ff33140f5b0b1758
     Pseudo is Ultrasoft + core correction, Zval = 15.0
     Generated by new atomic code, or converted to UPF format
     Using radial grid of  899 points,  6 beta functions with:
                l(1) =   0
                l(2) =   0
                l(3) =   1
                l(4) =   1
                l(5) =   2
                l(6) =   2
     Q(r) pseudized with  6 coefficients,  rinner =    1.000   1.000   1.000
                                                       1.000   1.000

     PseudoPot. # 5 for O  read from file:
     /home/pragov/projects/rrg-bengioy-ad/pragov/crystal_structure_design/SSSP/O.pbe-n-kjpaw_psl.0.1.UPF
     MD5 check sum: 0234752ac141de4415c5fc33072bef88
     Pseudo is Projector augmented-wave + core cor, Zval =  6.0
     Generated using "atomic" code by A. Dal Corso  v.5.0.99 svn rev. 10869
     Shape of augmentation charge: BESSEL
     Using radial grid of 1095 points,  4 beta functions with:
                l(1) =   0
                l(2) =   0
                l(3) =   1
                l(4) =   1
     Q(r) pseudized with 0 coefficients

     atomic species   valence    mass     pseudopotential
        Ba            10.00   137.32700     Ba( 1.00)
        Sr            10.00    87.62000     Sr( 1.00)
        La            11.00   138.90547     La( 1.00)
        Bi            15.00   208.98040     Bi( 1.00)
        O              6.00    15.99900     O ( 1.00)

      2 Sym. Ops., with inversion, found

                                    s                        frac. trans.

      isym =  1     identity

 cryst.   s( 1) = (     1          0          0      )
                  (     0          1          0      )
                  (     0          0          1      )

 cart.    s( 1) = (  1.0000000  0.0000000  0.0000000 )
                  (  0.0000000  1.0000000  0.0000000 )
                  (  0.0000000  0.0000000  1.0000000 )

      isym =  2     inversion

 cryst.   s( 2) = (    -1          0          0      )
                  (     0         -1          0      )
                  (     0          0         -1      )

 cart.    s( 2) = ( -1.0000000 -0.0000000 -0.0000000 )
                  (  0.0000000 -1.0000000 -0.0000000 )
                  (  0.0000000  0.0000000 -1.0000000 )

   Cartesian axes

     site n.     atom                  positions (alat units)
         1           Ba  tau(   1) = (   0.9950131   0.0325492   0.3562607  )
         2           Ba  tau(   2) = (   0.0141589   0.9765467   1.0672941  )
         3           Sr  tau(   3) = (   0.5118919   0.5435935   0.3579773  )
         4           Sr  tau(   4) = (   0.4972801   0.4655024   1.0655775  )
         5           La  tau(   5) = (   0.5000000   0.0000000   0.0000000  )
         6           La  tau(   6) = (   1.0045860   0.5045479   0.7117774  )
         7           Bi  tau(   7) = (   0.0005297   0.5062738   0.0000000  )
         8           Bi  tau(   8) = (   0.5040563  -0.0017259   0.7117774  )
         9           O   tau(   9) = (   0.2057850   0.2235699   1.3614070  )
        10           O   tau(  10) = (   0.3156273   0.7248725   0.7854783  )
        11           O   tau(  11) = (   0.8033870   0.7855260   0.0621478  )
        12           O   tau(  12) = (   0.6935446   0.2842234   0.6380765  )
        13           O   tau(  13) = (   0.2866245   0.7013959   1.3490187  )
        14           O   tau(  14) = (   0.2266200   0.2001375   0.7619094  )
        15           O   tau(  15) = (   0.7225475   0.3077000   0.0745361  )
        16           O   tau(  16) = (   0.7825520   0.8089584   0.6616454  )
        17           O   tau(  17) = (   0.4291595   0.9643162   0.3748230  )
        18           O   tau(  18) = (   0.0998061   0.4897539   0.3358420  )
        19           O   tau(  19) = (   0.5800125   0.0447797   1.0487318  )
        20           O   tau(  20) = (   0.9093659   0.5193420   1.0877128  )

   Crystallographic axes

     site n.     atom                  positions (cryst. coord.)
         1           Ba  tau(   1) = (  0.9929479  0.0329990  0.2502613  )
         2           Ba  tau(   2) = (  0.0070521  0.9670010  0.7497387  )
         3           Sr  tau(   3) = (  0.5092822  0.5377145  0.2514671  )
         4           Sr  tau(   4) = (  0.4907178  0.4622855  0.7485328  )
         5           La  tau(   5) = (  0.5000000  0.0000000  0.0000000  )
         6           La  tau(   6) = (  1.0000000  0.5000000  0.5000000  )
         7           Bi  tau(   7) = (  0.0000000  0.5000000  0.0000000  )
         8           Bi  tau(   8) = (  0.5000000 -0.0000000  0.5000000  )
         9           O   tau(   9) = (  0.1977892  0.2240596  0.9563432  )
        10           O   tau(  10) = (  0.3103906  0.7177707  0.5517724  )
        11           O   tau(  11) = (  0.8022107  0.7759404  0.0436568  )
        12           O   tau(  12) = (  0.6896094  0.2822293  0.4482276  )
        13           O   tau(  13) = (  0.2781994  0.6959346  0.9476409  )
        14           O   tau(  14) = (  0.2220667  0.1994819  0.5352160  )
        15           O   tau(  15) = (  0.7218006  0.3040654  0.0523591  )
        16           O   tau(  16) = (  0.7779333  0.8005181  0.4647840  )
        17           O   tau(  17) = (  0.4260135  0.9532638  0.2633007  )
        18           O   tau(  18) = (  0.0973789  0.4844890  0.2359178  )
        19           O   tau(  19) = (  0.5739865  0.0467362  0.7366993  )
        20           O   tau(  20) = (  0.9026211  0.5155110  0.7640822  )

     number of k points=     1  Methfessel-Paxton smearing, width (Ry)=  0.0010
                       cart. coord. in units 2pi/alat
        k(    1) = (   0.0000000   0.0000000   0.0000000), wk =   2.0000000

                       cryst. coord.
        k(    1) = (   0.0000000   0.0000000   0.0000000), wk =   2.0000000

     Check: negative core charge=   -0.000010

     Initial potential from superposition of free atoms

     starting charge     161.8815, renormalised to     164.0000

     negative rho (up, down):  2.167E-01 0.000E+00
     Starting wfcs are  166 randomized atomic wfcs
     Checking if some PAW data can be deallocated...

     Self-consistent Calculation

     iteration #  1     ecut=    30.00 Ry     beta= 0.70
     Davidson diagonalization with overlap

     ethr =  1.00E-02,  avg # of iterations =  2.0

     negative rho (up, down):  2.271E-01 0.000E+00

     total energy              =   -2797.94709388 Ry
     estimated scf accuracy    <       4.85333407 Ry

[...]

     c_bands:  2 eigenvalues not converged
     ethr =  1.52E-04,  avg # of iterations = 20.0

[...]

     c_bands:  2 eigenvalues not converged
     ethr =  2.19E-06,  avg # of iterations = 20.0

[...]

     total energy              =   -2800.51188580 Ry
     estimated scf accuracy    <       0.00000281 Ry

     iteration # 20     ecut=    30.00 Ry     beta= 0.70
[...]

[...]

     End of self-consistent calculation

          k = 0.0000 0.0000 0.0000 (  3189 PWs)   bands (ev):

   -24.6870 -24.6829 -21.1877 -21.1750 -16.9968 -16.9746 -13.5510 -13.4986
   -13.4843 -13.4274 -13.1961 -13.1831 -13.1702 -13.1386 -13.1243 -13.0983
    -8.9620  -8.7337  -8.6972  -8.6080  -8.5479  -8.3582  -8.2960  -8.2144
    -7.5222  -7.4138  -7.3128  -7.2064  -6.6900  -6.6455  -6.5520  -6.4117
    -6.3433  -6.2487  -4.5063  -4.4818  -4.4645  -4.4417  -4.4221  -4.3816
    -2.2660  -2.2394  -2.2311  -2.1703  -2.1254  -2.0490  -0.1318  -0.0075
     5.1757   5.2664   5.4183   5.4730   5.5351   5.5947   5.6099   6.2679
     6.3043   6.4063   6.4932   6.5606   6.6202   6.6757   6.9377   6.9442
     7.0724   7.2426   7.3138   7.3215   7.4123   7.4426   7.4568   7.4747
     7.5601   7.6342   7.6682   7.7045   7.7598   7.7934   7.8189   7.8432
     7.9293   8.0405   9.8970  10.2659  13.5619  13.5804  13.6337  13.6392
    13.7027  13.7326  13.7964  13.8042  13.8879  13.9272  13.9484  13.9549
    13.9676  13.9824

     occupation numbers
     1.0000   1.0000   1.0000   1.0000   1.0000   1.0000   1.0000   1.0000
     1.0000   1.0000   1.0000   1.0000   1.0000   1.0000   1.0000   1.0000
     1.0000   1.0000   1.0000   1.0000   1.0000   1.0000   1.0000   1.0000
     1.0000   1.0000   1.0000   1.0000   1.0000   1.0000   1.0000   1.0000
     1.0000   1.0000   1.0000   1.0000   1.0000   1.0000   1.0000   1.0000
     1.0000   1.0000   1.0000   1.0000   1.0000   1.0000   1.0000   1.0000
     1.0000   1.0000   1.0000   1.0000   1.0000   1.0000   1.0000   1.0000
     1.0000   1.0000   1.0000   1.0000   1.0000   1.0000   1.0000   1.0000
     1.0000   1.0000   1.0000   1.0000   1.0000   1.0000   1.0000   1.0000
     1.0000   1.0000   1.0000   1.0000   1.0000   1.0000   1.0000   1.0000
     1.0000   1.0000  -0.0000  -0.0000  -0.0000  -0.0000  -0.0000  -0.0000
    -0.0000  -0.0000  -0.0000  -0.0000  -0.0000  -0.0000  -0.0000  -0.0000
    -0.0000  -0.0000

     the Fermi energy is     9.2508 ev

!    total energy              =   -2800.51188590 Ry
     estimated scf accuracy    <       0.00000009 Ry
     smearing contrib. (-TS)   =       0.00000000 Ry
     internal energy E=F+TS    =   -2800.51188590 Ry

     The total energy is F=E-TS. E is the sum of the following terms:
     one-electron contribution =    -262.06234625 Ry
     hartree contribution      =     238.95052036 Ry
     xc contribution           =    -314.06354280 Ry
     ewald contribution        =    -802.84122385 Ry
     one-center paw contrib.   =   -1660.49529336 Ry
      -> PAW hartree energy AE =     477.34764778 Ry
      -> PAW hartree energy PS =    -476.02214936 Ry
      -> PAW xc energy AE      =   -1804.37690294 Ry
      -> PAW xc energy PS      =     142.55611115 Ry
      -> total E_H with PAW    =     240.27601879 Ry
      -> total E_XC with PAW   =   -1975.88433458 Ry

     convergence has been achieved in  20 iterations

     negative rho (up, down):  2.264E-01 0.000E+00

     Forces acting on atoms (cartesian axes, Ry/au):

     atom    1 type  1   force =    -0.01064312    0.01502512    0.00074472
     atom    2 type  1   force =     0.01064312   -0.01502512   -0.00074472
     atom    3 type  2   force =     0.00212171    0.00812541   -0.00197900
     atom    4 type  2   force =    -0.00212171   -0.00812541    0.00197900
     atom    5 type  3   force =     0.00000000    0.00000000    0.00000000
     atom    6 type  3   force =     0.00000000    0.00000000    0.00000000
     atom    7 type  4   force =     0.00000000    0.00000000    0.00000000
     atom    8 type  4   force =     0.00000000    0.00000000    0.00000000
     atom    9 type  5   force =    -0.00798602    0.00398012   -0.00909462
     atom   10 type  5   force =     0.00757772    0.00325437    0.00870574
     atom   11 type  5   force =     0.00798602   -0.00398012    0.00909462
     atom   12 type  5   force =    -0.00757772   -0.00325437   -0.00870574
     atom   13 type  5   force =     0.00515686   -0.01081911   -0.01178066
     atom   14 type  5   force =    -0.00529740   -0.01368792    0.00800243
     atom   15 type  5   force =    -0.00515686    0.01081911    0.01178066
     atom   16 type  5   force =     0.00529740    0.01368792   -0.00800243
     atom   17 type  5   force =    -0.01079867   -0.01517876    0.02215421
     atom   18 type  5   force =     0.01687001   -0.00585345   -0.01860328
     atom   19 type  5   force =     0.01079867    0.01517876   -0.02215421
     atom   20 type  5   force =    -0.01687001    0.00585345    0.01860328
     The non-local contrib.  to forces
     atom    1 type  1   force =     0.01235682   -0.00508331   -0.00049193
     atom    2 type  1   force =    -0.01235682    0.00508331    0.00049193
     atom    3 type  2   force =     0.00288886   -0.00086653    0.00001977
     atom    4 type  2   force =    -0.00288886    0.00086653   -0.00001977
     atom    5 type  3   force =     0.00000000    0.00000000    0.00000000
     atom    6 type  3   force =     0.00000000    0.00000000    0.00000000
     atom    7 type  4   force =     0.00000000    0.00000000    0.00000000
     atom    8 type  4   force =     0.00000000    0.00000000    0.00000000
     atom    9 type  5   force =    -0.32838586    0.46272518    0.07020638
     atom   10 type  5   force =     0.28553220    0.46993937   -0.05091328
     atom   11 type  5   force =     0.32838586   -0.46272518   -0.07020638
     atom   12 type  5   force =    -0.28553220   -0.46993937    0.05091328
     atom   13 type  5   force =    -0.47384430   -0.29052741    0.07049216
     atom   14 type  5   force =     0.48408253   -0.33394144   -0.03608609
     atom   15 type  5   force =     0.47384430    0.29052741   -0.07049216
     atom   16 type  5   force =    -0.48408253    0.33394144    0.03608609
     atom   17 type  5   force =     0.14766161    0.06793496    0.51350700
     atom   18 type  5   force =    -0.17390552    0.01778172   -0.48745333
     atom   19 type  5   force =    -0.14766161   -0.06793496   -0.51350700
     atom   20 type  5   force =     0.17390552   -0.01778172    0.48745333
     The ionic contribution  to forces
     atom    1 type  1   force =     0.72930796   -0.82924670   -0.11006230
     atom    2 type  1   force =    -0.72930796    0.82924670    0.11006230
     atom    3 type  2   force =    -0.37763337   -1.29380367   -0.25579610
     atom    4 type  2   force =     0.37763337    1.29380367    0.25579610
     atom    5 type  3   force =     0.00000000   -0.00000000    0.00000000
     atom    6 type  3   force =    -0.00000000   -0.00000000   -0.00000000
     atom    7 type  4   force =    -0.00000000    0.00000000   -0.00000000
     atom    8 type  4   force =     0.00000000   -0.00000000   -0.00000000
     atom    9 type  5   force =     2.00472156   -4.12783137   -0.93092081
     atom   10 type  5   force =    -2.21075334   -3.74839474    1.30677464
     atom   11 type  5   force =    -2.00472156    4.12783136    0.93092080
     atom   12 type  5   force =     2.21075334    3.74839474   -1.30677464
     atom   13 type  5   force =     3.99207229    2.61766185   -1.13783245
     atom   14 type  5   force =    -4.40240381    2.29534052    0.71344607
     atom   15 type  5   force =    -3.99207229   -2.61766185    1.13783245
     atom   16 type  5   force =     4.40240381   -2.29534052   -0.71344607
     atom   17 type  5   force =    -2.02634788    0.06526308   -4.55606653
     atom   18 type  5   force =     1.77095729    0.04604633    4.32153194
     atom   19 type  5   force =     2.02634788   -0.06526308    4.55606653
     atom   20 type  5   force =    -1.77095729   -0.04604633   -4.32153194
     The local contribution  to forces
     atom    1 type  1   force =    -0.75066386    0.84869849    0.11150125
     atom    2 type  1   force =     0.75108471   -0.84875595   -0.11146111
     atom    3 type  2   force =     0.37673377    1.30260864    0.25406631
     atom    4 type  2   force =    -0.37671433   -1.30258410   -0.25407480
     atom    5 type  3   force =     0.00005061   -0.00001413   -0.00003789
     atom    6 type  3   force =    -0.00001027    0.00003037    0.00001835
     atom    7 type  4   force =    -0.00003958    0.00002254   -0.00001306
     atom    8 type  4   force =     0.00004852   -0.00003314    0.00002106
     atom    9 type  5   force =    -1.68833449    3.67462842    0.85226051
     atom   10 type  5   force =     1.93630688    3.28720346   -1.24758501
     atom   11 type  5   force =     1.68832528   -3.67463996   -0.85227215
     atom   12 type  5   force =    -1.93630508   -3.28722439    1.24759107
     atom   13 type  5   force =    -3.51861793   -2.34151769    1.05620188
     atom   14 type  5   force =     3.91873251   -1.97909762   -0.66969390
     atom   15 type  5   force =     3.51863618    2.34150694   -1.05622166
     atom   16 type  5   force =    -3.91873857    1.97910001    0.66971328
     atom   17 type  5   force =     1.86948851   -0.14758499    4.07090161
     atom   18 type  5   force =    -1.58213430   -0.06938784   -3.85826792
     atom   19 type  5   force =    -1.86948822    0.14755562   -4.07088569
     atom   20 type  5   force =     1.58213979    0.06937630    3.85828489
     The core correction contribution to forces
     atom    1 type  1   force =    -0.00144939    0.00063813    0.00003663
     atom    2 type  1   force =     0.00145976   -0.00063877   -0.00003591
     atom    3 type  2   force =     0.00014206    0.00017159   -0.00004204
     atom    4 type  2   force =    -0.00014202   -0.00017160    0.00004201
     atom    5 type  3   force =     0.00000001    0.00000001   -0.00000002
     atom    6 type  3   force =     0.00000000    0.00000000    0.00000001
     atom    7 type  4   force =     0.00000074   -0.00000164   -0.00000010
     atom    8 type  4   force =    -0.00000044    0.00000016   -0.00000012
     atom    9 type  5   force =     0.00403893   -0.00559025   -0.00068868
     atom   10 type  5   force =    -0.00361698   -0.00562011    0.00039521
     atom   11 type  5   force =    -0.00403899    0.00559019    0.00068874
     atom   12 type  5   force =     0.00361694    0.00562017   -0.00039538
     atom   13 type  5   force =     0.00558972    0.00358409   -0.00070562
     atom   14 type  5   force =    -0.00584188    0.00411162    0.00031635
     atom   15 type  5   force =    -0.00558959   -0.00358421    0.00070576
     atom   16 type  5   force =     0.00584184   -0.00411167   -0.00031655
     atom   17 type  5   force =    -0.00162938   -0.00082527   -0.00613888
     atom   18 type  5   force =     0.00193409   -0.00030053    0.00584909
     atom   19 type  5   force =     0.00162919    0.00082502    0.00613877
     atom   20 type  5   force =    -0.00193379    0.00030025   -0.00584895
     The Hubbard contrib.    to forces
     atom    1 type  1   force =     0.00000000    0.00000000    0.00000000
     atom    2 type  1   force =     0.00000000    0.00000000    0.00000000
     atom    3 type  2   force =     0.00000000    0.00000000    0.00000000
     atom    4 type  2   force =     0.00000000    0.00000000    0.00000000
     atom    5 type  3   force =     0.00000000    0.00000000    0.00000000
     atom    6 type  3   force =     0.00000000    0.00000000    0.00000000
     atom    7 type  4   force =     0.00000000    0.00000000    0.00000000
     atom    8 type  4   force =     0.00000000    0.00000000    0.00000000
     atom    9 type  5   force =     0.00000000    0.00000000    0.00000000
     atom   10 type  5   force =     0.00000000    0.00000000    0.00000000
     atom   11 type  5   force =     0.00000000    0.00000000    0.00000000
     atom   12 type  5   force =     0.00000000    0.00000000    0.00000000
     atom   13 type  5   force =     0.00000000    0.00000000    0.00000000
     atom   14 type  5   force =     0.00000000    0.00000000    0.00000000
     atom   15 type  5   force =     0.00000000    0.00000000    0.00000000
     atom   16 type  5   force =     0.00000000    0.00000000    0.00000000
     atom   17 type  5   force =     0.00000000    0.00000000    0.00000000
     atom   18 type  5   force =     0.00000000    0.00000000    0.00000000
     atom   19 type  5   force =     0.00000000    0.00000000    0.00000000
     atom   20 type  5   force =     0.00000000    0.00000000    0.00000000
     The SCF correction term to forces
     atom    1 type  1   force =     0.00001824    0.00000699   -0.00022660
     atom    2 type  1   force =    -0.00002368    0.00002805    0.00021042
     atom    3 type  2   force =    -0.00001008    0.00001641   -0.00022671
     atom    4 type  2   force =    -0.00001034   -0.00003887    0.00023570
     atom    5 type  3   force =    -0.00004718    0.00001797    0.00003110
     atom    6 type  3   force =     0.00000668   -0.00002779   -0.00001916
     atom    7 type  4   force =     0.00004328   -0.00003320    0.00001237
     atom    8 type  4   force =    -0.00005789    0.00003767   -0.00003106
     atom    9 type  5   force =    -0.00002402    0.00004222    0.00004797
     atom   10 type  5   force =     0.00010792    0.00012857    0.00002489
     atom   11 type  5   force =     0.00003758   -0.00004244   -0.00003639
     atom   12 type  5   force =    -0.00011175   -0.00010334   -0.00004935
     atom   13 type  5   force =    -0.00003653   -0.00002426    0.00006684
     atom   14 type  5   force =     0.00013417   -0.00010248    0.00001245
     atom   15 type  5   force =     0.00003094    0.00002652   -0.00004025
     atom   16 type  5   force =    -0.00012624    0.00009716   -0.00004674
     atom   17 type  5   force =     0.00002169    0.00002889   -0.00004886
     atom   18 type  5   force =     0.00002590    0.00000118   -0.00026088
     atom   19 type  5   force =    -0.00003535   -0.00000842    0.00003331
     atom   20 type  5   force =    -0.00001680   -0.00000076    0.00024812

     Total force =     0.074630     Total SCF correction =     0.000697

     Computing stress (Cartesian axis) and pressure

     negative rho (up, down):  2.264E-01 0.000E+00
          total   stress  (Ry/bohr**3)                   (kbar)     P=     -239.09
  -0.00158842  -0.00001115  -0.00001474         -233.67       -1.64       -2.17
  -0.00001115  -0.00150643  -0.00000115           -1.64     -221.60       -0.17
  -0.00001474  -0.00000115  -0.00178105           -2.17       -0.17     -262.00

     kinetic stress (kbar)  14835.43     -1.46     -2.02
                               -1.46  14854.27     -9.08
                               -2.02     -9.08  14769.95

     local   stress (kbar)  -7488.89    447.98    299.29
                              447.98  -7198.57   -181.66
                              299.29   -181.66  -7149.26

     nonloc. stress (kbar)   8683.27     -0.43      2.96
                               -0.43   8689.00      4.30
                                2.96      4.30   8687.39

     hartree stress (kbar)   5131.82   -139.05   -142.09
                             -139.05   5069.42     86.77
                             -142.09     86.77   5118.45

     exc-cor stress (kbar)   4985.47     -0.83      0.02
                               -0.83   4984.64     -0.02
                                0.02     -0.02   4984.39

     corecor stress (kbar)  -9400.68      0.25     -0.00
                                0.25  -9400.93     -0.06
                               -0.00     -0.06  -9400.37

     ewald   stress (kbar) -16980.07   -308.10   -160.33
                             -308.10 -17219.43     99.58
                             -160.33     99.58 -17272.56

     hubbard stress (kbar)      0.00      0.00      0.00
                                0.00      0.00      0.00
                                0.00      0.00      0.00

     DFT-D   stress (kbar)      0.00      0.00      0.00
                                0.00      0.00      0.00
                                0.00      0.00      0.00

     XDM     stress (kbar)      0.00      0.00      0.00
                                0.00      0.00      0.00
                                0.00      0.00      0.00

     dft-nl  stress (kbar)      0.00      0.00      0.00
                                0.00      0.00      0.00
                                0.00      0.00      0.00

     TS-vdW  stress (kbar)      0.00      0.00      0.00
                                0.00      0.00      0.00
                                0.00      0.00      0.00

[...]

                                0.00      0.00      0.00

     Writing all to output data dir new_calculations/myprefix.save/

     General routines

     Parallel routines

     PAW routines

   This run was terminated on:   4: 5:27  20May2023

   JOB DONE.