     Program PWSCF v.7.0 starts on 20May2023 at 16:50:38

     Reading input from espresso_19385.pwi
Warning: card &CELL ignored
Warning: card / ignored

     Current dimensions of program PWSCF are:
     Max number of different atomic species (ntypx) = 10
     Max number of k-points (npk) =  40000
     Max angular momentum in pseudopotentials (lmaxx) =  4

     gamma-point specific algorithms are used
     Message from routine setup:
     using ibrav=0 with symmetry is DISCOURAGED, use correct ibrav instead

     Subspace diagonalization in iterative solution of the eigenvalue problem:
     a serial algorithm will be used

     Using Slab Decomposition

     bravais-lattice index     =            0
     lattice parameter (alat)  =      10.5034  a.u.
     unit-cell volume          =    2412.7936 (a.u.)^3
     number of atoms/cell      =           12
     number of atomic types    =            4
     number of electrons       =       136.00
     number of Kohn-Sham states=           82
     kinetic-energy cutoff     =      30.0000  Ry
     charge density cutoff     =     240.0000  Ry
     scf convergence threshold =      1.0E-06
     mixing beta               =       0.7000
     number of iterations used =            8  plain     mixing
     Exchange-correlation=  SLA  PW   PBX  PBC
                           (   1   4   3   4   0   0   0)

     celldm(1)=  10.503442  celldm(2)=   0.000000  celldm(3)=   0.000000
     celldm(4)=   0.000000  celldm(5)=   0.000000  celldm(6)=   0.000000

     crystal axes: (cart. coord. in units of alat)
               a(1) = (   1.000000   0.000000   0.000000 )
               a(2) = (   0.000000   1.396549   0.000000 )
               a(3) = (   0.000000   0.548670   1.490971 )

     reciprocal axes: (cart. coord. in units 2 pi/alat)
               b(1) = (  1.000000  0.000000  0.000000 )
               b(2) = (  0.000000  0.716051 -0.263503 )
               b(3) = (  0.000000  0.000000  0.670704 )

     PseudoPot. # 1 for Cs read from file:
     /home/pragov/projects/rrg-bengioy-ad/pragov/crystal_structure_design/SSSP/Cs_pbe_v1.uspp.F.UPF
     MD5 check sum: 3476d69cb178dfad3ffaa59df4e07ca4
     Pseudo is Ultrasoft + core correction, Zval =  9.0
     Generated by new atomic code, or converted to UPF format
     Using radial grid of  905 points,  6 beta functions with:
                l(1) =   0
                l(2) =   0
                l(3) =   1
                l(4) =   1
                l(5) =   2
                l(6) =   2
     Q(r) pseudized with  6 coefficients,  rinner =    1.500   1.500   1.500
                                                       1.500   1.500

     PseudoPot. # 2 for Cu read from file:
     /home/pragov/projects/rrg-bengioy-ad/pragov/crystal_structure_design/SSSP/Cu_pbe_v1.2.uspp.F.UPF
     MD5 check sum: 6e991ff952a84172a2a52a1c1e996048
     Pseudo is Ultrasoft + core correction, Zval = 19.0
     Generated by new atomic code, or converted to UPF format
     Using radial grid of  867 points,  6 beta functions with:
                l(1) =   0
                l(2) =   0
                l(3) =   1
                l(4) =   1
                l(5) =   2
                l(6) =   2
     Q(r) pseudized with  8 coefficients,  rinner =    1.150   1.150   1.150
                                                       1.150   1.150

     PseudoPot. # 3 for I  read from file:
     /home/pragov/projects/rrg-bengioy-ad/pragov/crystal_structure_design/SSSP/I.pbe-n-kjpaw_psl.0.2.UPF
     MD5 check sum: d4ef18d9c8f18dc85e5843bca1e50dc0
     Pseudo is Projector augmented-wave + core cor, Zval =  7.0
     Generated using "atomic" code by A. Dal Corso  v.5.0.99 svn rev. 10869
     Shape of augmentation charge: PSQ
     Using radial grid of 1247 points,  4 beta functions with:
                l(1) =   0
                l(2) =   0
                l(3) =   1
                l(4) =   1
     Q(r) pseudized with 0 coefficients

     PseudoPot. # 4 for Cl read from file:
     /home/pragov/projects/rrg-bengioy-ad/pragov/crystal_structure_design/SSSP/cl_pbe_v1.4.uspp.F.UPF
     MD5 check sum: fc6f6913ecf08c9257cb748ef0700058
     Pseudo is Ultrasoft + core correction, Zval =  7.0
     Generated by new atomic code, or converted to UPF format
     Using radial grid of  909 points,  6 beta functions with:
                l(1) =   0
                l(2) =   0
                l(3) =   1
                l(4) =   1
                l(5) =   2
                l(6) =   2
     Q(r) pseudized with  8 coefficients,  rinner =    1.300   1.300   1.300
                                                       1.300   1.300

     atomic species   valence    mass     pseudopotential
        Cs             9.00   132.90545     Cs( 1.00)
        Cu            19.00    63.54600     Cu( 1.00)
        I              7.00   126.90447     I ( 1.00)
        Cl             7.00    35.45000     Cl( 1.00)

      4 Sym. Ops., with inversion, found ( 2 have fractional translation)

                                    s                        frac. trans.

      isym =  1     identity

 cryst.   s( 1) = (     1          0          0      )
                  (     0          1          0      )
                  (     0          0          1      )

 cart.    s( 1) = (  1.0000000  0.0000000  0.0000000 )
                  (  0.0000000  1.0000000  0.0000000 )
                  (  0.0000000  0.0000000  1.0000000 )

      isym =  2     180 deg rotation - cart. axis [1,0,0]

 cryst.   s( 2) = (     1          0          0      )    f =(  0.5000000 )
                  (     0         -1          0      )       (  0.0000000 )
                  (     0          0         -1      )       ( -0.0000000 )

 cart.    s( 2) = (  1.0000000  0.0000000  0.0000000 )    f =(  0.5000000 )
                  (  0.0000000 -1.0000000 -0.0000000 )       (  0.0000000 )
                  (  0.0000000  0.0000000 -1.0000000 )       ( -0.0000000 )

      isym =  3     inversion

 cryst.   s( 3) = (    -1          0          0      )
                  (     0         -1          0      )
                  (     0          0         -1      )

 cart.    s( 3) = ( -1.0000000  0.0000000  0.0000000 )
                  (  0.0000000 -1.0000000 -0.0000000 )
                  (  0.0000000  0.0000000 -1.0000000 )

      isym =  4     inv. 180 deg rotation - cart. axis [1,0,0]

 cryst.   s( 4) = (    -1          0          0      )    f =(  0.5000000 )
                  (     0          1          0      )       (  0.0000000 )
                  (     0          0          1      )       (  0.0000000 )

 cart.    s( 4) = ( -1.0000000  0.0000000  0.0000000 )    f =(  0.5000000 )
                  (  0.0000000  1.0000000  0.0000000 )       (  0.0000000 )
                  (  0.0000000  0.0000000  1.0000000 )       (  0.0000000 )

   Cartesian axes

     site n.     atom                  positions (alat units)
         1           Cs  tau(   1) = (   0.7500000   0.6588566   0.5454881  )
         2           Cs  tau(   2) = (   0.2500000   1.2863620   0.9454827  )
         3           Cu  tau(   3) = (   0.4958660   0.6277889   1.2721172  )
         4           Cu  tau(   4) = (   0.0041340   0.6277889   1.2721172  )
         5           Cu  tau(   5) = (   0.9958660   1.3174297   0.2188536  )
         6           Cu  tau(   6) = (   0.5041340   1.3174297   0.2188536  )
         7           I   tau(   7) = (   0.2500000   0.3163886   0.1217721  )
         8           I   tau(   8) = (   0.7500000   1.6288300   1.3691987  )
         9           Cl  tau(   9) = (   0.2500000   0.5277797   0.9362551  )
        10           Cl  tau(  10) = (   0.2500000   1.0105801   0.3776301  )
        11           Cl  tau(  11) = (   0.7500000   1.4174389   0.5547157  )
        12           Cl  tau(  12) = (   0.7500000   0.9346385   1.1133407  )

   Crystallographic axes

     site n.     atom                  positions (cryst. coord.)
         1           Cs  tau(   1) = (  0.7500000  0.3280370  0.3658610  )
         2           Cs  tau(   2) = (  0.2500000  0.6719630  0.6341390  )
         3           Cu  tau(   3) = (  0.4958660  0.1143220  0.8532140  )
         4           Cu  tau(   4) = (  0.0041340  0.1143220  0.8532140  )
         5           Cu  tau(   5) = (  0.9958660  0.8856780  0.1467860  )
         6           Cu  tau(   6) = (  0.5041340  0.8856780  0.1467860  )
         7           I   tau(   7) = (  0.2500000  0.1944630  0.0816730  )
         8           I   tau(   8) = (  0.7500000  0.8055370  0.9183270  )
         9           Cl  tau(   9) = (  0.2500000  0.1312110  0.6279500  )
        10           Cl  tau(  10) = (  0.2500000  0.6241200  0.2532780  )
        11           Cl  tau(  11) = (  0.7500000  0.8687890  0.3720500  )
        12           Cl  tau(  12) = (  0.7500000  0.3758800  0.7467220  )

     number of k points=     1  Methfessel-Paxton smearing, width (Ry)=  0.0010
                       cart. coord. in units 2pi/alat
        k(    1) = (   0.0000000   0.0000000   0.0000000), wk =   2.0000000

                       cryst. coord.
        k(    1) = (   0.0000000   0.0000000   0.0000000), wk =   2.0000000

     Initial potential from superposition of free atoms

     starting charge     131.9210, renormalised to     136.0000

     negative rho (up, down):  6.171E-02 0.000E+00
     Starting wfcs are  102 randomized atomic wfcs
     Checking if some PAW data can be deallocated...

     Self-consistent Calculation

     iteration #  1     ecut=    30.00 Ry     beta= 0.70
     Davidson diagonalization with overlap

     ethr =  1.00E-02,  avg # of iterations =  4.0

     negative rho (up, down):  5.922E-02 0.000E+00

     total energy              =   -2631.47089341 Ry
     estimated scf accuracy    <       2.38381990 Ry

[...]

     WARNING: integrated charge=   136.00016251, expected=   136.00000000

[...]

     WARNING: integrated charge=   136.00003462, expected=   136.00000000

[...]

     total energy              =   -2632.69352938 Ry
     estimated scf accuracy    <       0.00000384 Ry

     iteration # 14     ecut=    30.00 Ry     beta= 0.70
     Davidson diagonalization with overlap

     ethr =  1.12E-09,  avg # of iterations =  3.0

[...]

     End of self-consistent calculation

          k = 0.0000 0.0000 0.0000 (  3355 PWs)   bands (ev):

  -106.0818-106.0797-106.0795-106.0776 -63.5274 -63.5250 -63.5169 -63.5155
   -63.5135 -63.5118 -63.4880 -63.4852 -63.4492 -63.4465 -63.4395 -63.4375
   -16.1419 -16.1280 -10.0434  -9.9963  -9.7868  -9.7816  -8.1086  -7.9327
    -3.0867  -3.0506  -3.0091  -2.9648  -2.9552  -2.9370  -0.4850   0.1499
     0.4365   0.8459   0.9477   1.1431   1.2332   1.2579   1.4424   1.5895
     1.6147   1.6265   1.7641   1.7976   1.8081   1.8389   2.1353   2.5673
     2.9799   3.3058   3.3867   3.5064   3.5066   3.8081   3.9041   3.9695
     4.1059   4.1149   4.1432   4.2135   4.3226   4.4534   4.5518   4.5707
     4.6156   4.6502   4.7594   4.9395   6.9399   8.2910   8.4842   8.7327
     9.0671   9.3726   9.4979  10.0245  10.0687  10.4838  10.6433  10.7533
    11.0120  11.1350

     occupation numbers
     1.0000   1.0000   1.0000   1.0000   1.0000   1.0000   1.0000   1.0000
     1.0000   1.0000   1.0000   1.0000   1.0000   1.0000   1.0000   1.0000
     1.0000   1.0000   1.0000   1.0000   1.0000   1.0000   1.0000   1.0000
     1.0000   1.0000   1.0000   1.0000   1.0000   1.0000   1.0000   1.0000
     1.0000   1.0000   1.0000   1.0000   1.0000   1.0000   1.0000   1.0000
     1.0000   1.0000   1.0000   1.0000   1.0000   1.0000   1.0000   1.0000
     1.0000   1.0000   1.0000   1.0000   1.0000   1.0000   1.0000   1.0000
     1.0000   1.0000   1.0000   1.0000   1.0000   1.0000   1.0000   1.0000
     1.0000   1.0000   1.0000   1.0000  -0.0000  -0.0000  -0.0000  -0.0000
    -0.0000  -0.0000  -0.0000  -0.0000  -0.0000  -0.0000  -0.0000  -0.0000
    -0.0000  -0.0000

     the Fermi energy is     5.7638 ev

!    total energy              =   -2632.69352887 Ry
     estimated scf accuracy    <       0.00000096 Ry
     smearing contrib. (-TS)   =       0.00000000 Ry
     internal energy E=F+TS    =   -2632.69352887 Ry

     The total energy is F=E-TS. E is the sum of the following terms:
     one-electron contribution =   -2299.37609103 Ry
     hartree contribution      =    1196.44595805 Ry
     xc contribution           =    -337.47324513 Ry
     ewald contribution        =    -551.24909902 Ry
     one-center paw contrib.   =    -641.04105175 Ry
      -> PAW hartree energy AE =      18.92255569 Ry
      -> PAW hartree energy PS =     -19.04155641 Ry
      -> PAW xc energy AE      =    -721.74418875 Ry
      -> PAW xc energy PS      =      80.82213771 Ry
      -> total E_H with PAW    =    1196.32695734 Ry
      -> total E_XC with PAW   =    -978.39529617 Ry

     convergence has been achieved in  14 iterations

     negative rho (up, down):  5.857E-02 0.000E+00

     Forces acting on atoms (cartesian axes, Ry/au):

     atom    1 type  1   force =    -0.00000000    0.00096075    0.00120676
     atom    2 type  1   force =     0.00000000   -0.00096075   -0.00120676
     atom    3 type  2   force =     0.00090892   -0.00078831   -0.00420459
     atom    4 type  2   force =    -0.00090892   -0.00078831   -0.00420459
     atom    5 type  2   force =     0.00090892    0.00078831    0.00420459
     atom    6 type  2   force =    -0.00090892    0.00078831    0.00420459
     atom    7 type  3   force =     0.00000000   -0.00552653   -0.00666226
     atom    8 type  3   force =     0.00000000    0.00552653    0.00666226
     atom    9 type  4   force =     0.00000000    0.00043314    0.01074539
     atom   10 type  4   force =     0.00000000    0.00132453    0.00218137
     atom   11 type  4   force =     0.00000000   -0.00043314   -0.01074539
     atom   12 type  4   force =     0.00000000   -0.00132453   -0.00218137
     The non-local contrib.  to forces
     atom    1 type  1   force =     0.00000000    0.00591181   -0.00449814
     atom    2 type  1   force =     0.00000000   -0.00591181    0.00449814
     atom    3 type  2   force =     0.00298427   -0.05874457    0.17132651
     atom    4 type  2   force =    -0.00298427   -0.05874457    0.17132651
     atom    5 type  2   force =     0.00298427    0.05874457   -0.17132651
     atom    6 type  2   force =    -0.00298427    0.05874457   -0.17132651
     atom    7 type  3   force =     0.00000000   -0.15140463   -0.04798089
     atom    8 type  3   force =     0.00000000    0.15140463    0.04798089
     atom    9 type  4   force =     0.00000000    0.08061837    0.23392252
     atom   10 type  4   force =     0.00000000    0.20170682   -0.10269407
     atom   11 type  4   force =     0.00000000   -0.08061837   -0.23392252
     atom   12 type  4   force =     0.00000000   -0.20170682    0.10269407
     The ionic contribution  to forces
     atom    1 type  1   force =     0.00000000   -0.99913140   -1.20073703
     atom    2 type  1   force =     0.00000000    0.99913140    1.20073703
     atom    3 type  2   force =     1.29111254   10.69156945  -30.65644448
     atom    4 type  2   force =    -1.29111254   10.69156945  -30.65644448
     atom    5 type  2   force =     1.29111254  -10.69156945   30.65644448
     atom    6 type  2   force =    -1.29111254  -10.69156945   30.65644448
     atom    7 type  3   force =    -0.00000000   24.14004547    9.18065237
     atom    8 type  3   force =     0.00000000  -24.14004547   -9.18065237
     atom    9 type  4   force =    -0.00000000   -5.30513890  -21.10373478
     atom   10 type  4   force =    -0.00000000  -18.99867190   10.37596691
     atom   11 type  4   force =    -0.00000000    5.30513890   21.10373478
     atom   12 type  4   force =    -0.00000000   18.99867190  -10.37596690
     The local contribution  to forces
     atom    1 type  1   force =     0.00002097    0.99454054    1.20537472
     atom    2 type  1   force =    -0.00004364   -0.99461873   -1.20514732
     atom    3 type  2   force =    -1.29316310  -10.63410722   30.48168516
     atom    4 type  2   force =     1.29317612  -10.63418436   30.48186604
     atom    5 type  2   force =    -1.29323038   10.63435158  -30.48237925
     atom    6 type  2   force =     1.29323028   10.63435267  -30.48228152
     atom    7 type  3   force =    -0.00007309  -24.03467255   -9.15170899
     atom    8 type  3   force =     0.00008824   24.03480299    9.15139442
     atom    9 type  4   force =    -0.00006352    5.22765389   20.88835542
     atom   10 type  4   force =    -0.00014276   18.80446062  -10.27444251
     atom   11 type  4   force =     0.00014697   -5.22752271  -20.88778106
     atom   12 type  4   force =     0.00007072  -18.80510040   10.27475113
     The core correction contribution to forces
     atom    1 type  1   force =    -0.00000013   -0.00046741    0.00121787
     atom    2 type  1   force =    -0.00000108    0.00046433   -0.00121275
     atom    3 type  2   force =     0.00004176    0.00021534   -0.00056559
     atom    4 type  2   force =    -0.00004172    0.00021529   -0.00056560
     atom    5 type  2   force =     0.00004169   -0.00021545    0.00056595
     atom    6 type  2   force =    -0.00004181   -0.00021555    0.00056624
     atom    7 type  3   force =    -0.00000106    0.04013161    0.01210574
     atom    8 type  3   force =     0.00000401   -0.04012091   -0.01212504
     atom    9 type  4   force =    -0.00000035   -0.00257140   -0.00708154
     atom   10 type  4   force =    -0.00000074   -0.00604553    0.00334894
     atom   11 type  4   force =     0.00000098    0.00257251    0.00709034
     atom   12 type  4   force =     0.00000037    0.00603445   -0.00334338
     The Hubbard contrib.    to forces
     atom    1 type  1   force =     0.00000000    0.00000000    0.00000000
     atom    2 type  1   force =     0.00000000    0.00000000    0.00000000
     atom    3 type  2   force =     0.00000000    0.00000000    0.00000000
     atom    4 type  2   force =     0.00000000    0.00000000    0.00000000
     atom    5 type  2   force =     0.00000000    0.00000000    0.00000000
     atom    6 type  2   force =     0.00000000    0.00000000    0.00000000
     atom    7 type  3   force =     0.00000000    0.00000000    0.00000000
     atom    8 type  3   force =     0.00000000    0.00000000    0.00000000
     atom    9 type  4   force =     0.00000000    0.00000000    0.00000000
     atom   10 type  4   force =     0.00000000    0.00000000    0.00000000
     atom   11 type  4   force =     0.00000000    0.00000000    0.00000000
     atom   12 type  4   force =     0.00000000    0.00000000    0.00000000
     The SCF correction term to forces
     atom    1 type  1   force =    -0.00002186    0.00009125   -0.00012206
     atom    2 type  1   force =     0.00003195   -0.00004190   -0.00005327
     atom    3 type  2   force =    -0.00009391    0.00023284   -0.00009040
     atom    4 type  2   force =     0.00005135    0.00033836   -0.00035617
     atom    5 type  2   force =     0.00000887   -0.00057095    0.00101103
     atom    6 type  2   force =    -0.00001770   -0.00053933    0.00083750
     atom    7 type  3   force =     0.00008434    0.00037403    0.00027057
     atom    8 type  3   force =    -0.00009950   -0.00051426    0.00006541
     atom    9 type  4   force =     0.00006639   -0.00011681   -0.00061911
     atom   10 type  4   force =     0.00013458   -0.00024726    0.00006255
     atom   11 type  4   force =    -0.00013164    0.00000855    0.00023018
     atom   12 type  4   force =    -0.00007194    0.00065456   -0.00025585

     Total force =     0.021805     Total SCF correction =     0.002059

     Computing stress (Cartesian axis) and pressure

     negative rho (up, down):  5.857E-02 0.000E+00
          total   stress  (Ry/bohr**3)                   (kbar)     P=     -137.08
  -0.00088232   0.00000000   0.00000000         -129.79        0.00        0.00
   0.00000000  -0.00092565   0.00002565            0.00     -136.17        3.77
   0.00000000   0.00002565  -0.00098768            0.00        3.77     -145.29

     kinetic stress (kbar)  10153.78      0.00      0.00
                                0.00  10142.86      2.05
                                0.00      2.05  10131.39

     local   stress (kbar) -68195.96     -0.00      0.00
                               -0.00  12069.15  16270.62
                                0.00  16270.62 -25529.42

     nonloc. stress (kbar)   8140.02      0.00      0.00
                                0.00   8151.62      5.77
                                0.00      5.77   8141.01

     hartree stress (kbar)  43988.16     -0.00     -0.00
                               -0.00   5478.67  -7763.20
                               -0.00  -7763.20  23479.02

     exc-cor stress (kbar)   4062.82     -0.00     -0.00
                               -0.00   4060.59     -0.57
                               -0.00     -0.57   4061.53

     corecor stress (kbar)  -8379.68      0.00      0.00
                                0.00  -8378.35      0.60
                                0.00      0.60  -8379.48

     ewald   stress (kbar)  10101.07      0.00     -0.00
                                0.00 -31660.70  -8511.49
                               -0.00  -8511.49 -12049.35

     hubbard stress (kbar)      0.00      0.00      0.00
                                0.00      0.00      0.00
                                0.00      0.00      0.00

     DFT-D   stress (kbar)      0.00      0.00      0.00
                                0.00      0.00      0.00
                                0.00      0.00      0.00

     XDM     stress (kbar)      0.00      0.00      0.00
                                0.00      0.00      0.00
                                0.00      0.00      0.00

     dft-nl  stress (kbar)      0.00      0.00      0.00
                                0.00      0.00      0.00
                                0.00      0.00      0.00

     TS-vdW  stress (kbar)      0.00      0.00      0.00
                                0.00      0.00      0.00
                                0.00      0.00      0.00

[...]

                                0.00      0.00      0.00

     Writing all to output data dir new_calculations/myprefix.save/

     General routines

     Parallel routines

     PAW routines

   This run was terminated on:  16:51:18  20May2023

   JOB DONE.