     Program PWSCF v.7.0 starts on 21May2023 at 13:59:56

     Reading input from espresso_23693.pwi
Warning: card &CELL ignored
Warning: card / ignored

     Current dimensions of program PWSCF are:
     Max number of different atomic species (ntypx) = 10
     Max number of k-points (npk) =  40000
     Max angular momentum in pseudopotentials (lmaxx) =  4

     gamma-point specific algorithms are used
     Message from routine setup:
     using ibrav=0 with symmetry is DISCOURAGED, use correct ibrav instead

     Subspace diagonalization in iterative solution of the eigenvalue problem:
     a serial algorithm will be used

     Using Slab Decomposition

     bravais-lattice index     =            0
     lattice parameter (alat)  =      10.8193  a.u.
     unit-cell volume          =     895.6143 (a.u.)^3
     number of atoms/cell      =            6
     number of atomic types    =            2
     number of electrons       =       105.00
     number of Kohn-Sham states=           64
     kinetic-energy cutoff     =      30.0000  Ry
     charge density cutoff     =     240.0000  Ry
     scf convergence threshold =      1.0E-06
     mixing beta               =       0.7000
     number of iterations used =            8  plain     mixing
     Exchange-correlation= PBE
                           (   1   4   3   4   0   0   0)

     celldm(1)=  10.819332  celldm(2)=   0.000000  celldm(3)=   0.000000
     celldm(4)=   0.000000  celldm(5)=   0.000000  celldm(6)=   0.000000

     crystal axes: (cart. coord. in units of alat)
               a(1) = (   1.000000   0.000000   0.000000 )
               a(2) = (  -0.500000   0.866025   0.000000 )
               a(3) = (   0.000000   0.000000   0.816562 )

     reciprocal axes: (cart. coord. in units 2 pi/alat)
               b(1) = (  1.000000  0.577350  0.000000 )
               b(2) = (  0.000000  1.154700  0.000000 )
               b(3) = (  0.000000  0.000000  1.224647 )

     PseudoPot. # 1 for Sr read from file:
     /home/pragov/projects/rrg-bengioy-ad/pragov/crystal_structure_design/SSSP/Sr_pbe_v1.uspp.F.UPF
     MD5 check sum: 6b418c05fbe9db5448babca5e47b7a5b
     Pseudo is Ultrasoft + core correction, Zval = 10.0
     Generated by new atomic code, or converted to UPF format
     Using radial grid of  883 points,  6 beta functions with:
                l(1) =   0
                l(2) =   0
                l(3) =   1
                l(4) =   1
                l(5) =   2
                l(6) =   2
     Q(r) pseudized with  6 coefficients,  rinner =    1.400   1.400   1.400
                                                       1.400   1.400

     PseudoPot. # 2 for Au read from file:
     /home/pragov/projects/rrg-bengioy-ad/pragov/crystal_structure_design/SSSP/Au_ONCV_PBE-1.0.oncvpsp.upf
     MD5 check sum: d14007822ba0e19f0206237467fc06c2
     Pseudo is Norm-conserving, Zval = 19.0
     Generated using ONCVPSP code by D. R. Hamann
     Using radial grid of 1278 points,  8 beta functions with:
                l(1) =   0
                l(2) =   0
                l(3) =   1
                l(4) =   1
                l(5) =   2
                l(6) =   2
                l(7) =   3
                l(8) =   3

     atomic species   valence    mass     pseudopotential
        Sr            10.00    87.62000     Sr( 1.00)
        Au            19.00   196.96657     Au( 1.00)

     24 Sym. Ops., with inversion, found

                                    s                        frac. trans.

      isym =  1     identity

 cryst.   s( 1) = (     1          0          0      )
                  (     0          1          0      )
                  (     0          0          1      )

 cart.    s( 1) = (  1.0000000  0.0000000  0.0000000 )
                  (  0.0000000  1.0000000  0.0000000 )
                  (  0.0000000  0.0000000  1.0000000 )

      isym =  2     180 deg rotation - cart. axis [0,0,1]

[...]

      isym =  4     180 deg rotation - cart. axis [1,0,0]

[...]

      isym =  5      60 deg rotation - cryst. axis [0,0,1]

[...]

 cryst.   s( 9) = (     0         -1          0      )
                  (    -1          0          0      )
                  (     0          0         -1      )

 cart.    s( 9) = (  0.4999999 -0.8660254  0.0000000 )
                  ( -0.8660254 -0.4999999  0.0000000 )
                  (  0.0000000  0.0000000 -1.0000000 )

[...]

 cryst.   s(10) = (     1          1          0      )
                  (     0         -1          0      )
                  (     0          0         -1      )

 cart.    s(10) = (  0.5000001  0.8660253  0.0000000 )
                  (  0.8660254 -0.5000001  0.0000000 )
                  (  0.0000000  0.0000000 -1.0000000 )

[...]

      isym = 12     180 deg rotation - cryst. axis [1,1,0]

[...]

      isym = 13     inversion

[...]

      isym = 14     inv. 180 deg rotation - cart. axis [0,0,1]

[...]

      isym = 16     inv. 180 deg rotation - cart. axis [1,0,0]

[...]

      isym = 17     inv.  60 deg rotation - cryst. axis [0,0,1]

[...]

      isym = 24     inv. 180 deg rotation - cryst. axis [1,1,0]

 cryst.   s(24) = (     0         -1          0      )
                  (    -1          0          0      )
                  (     0          0          1      )

 cart.    s(24) = (  0.4999999 -0.8660254  0.0000000 )
                  ( -0.8660254 -0.4999999  0.0000000 )
                  (  0.0000000  0.0000000  1.0000000 )

   Cartesian axes

     site n.     atom                  positions (alat units)
         1           Sr  tau(   1) = (   0.0000000   0.0000000   0.0000000  )
         2           Au  tau(   2) = (   0.5000005   0.2886749   0.0000000  )
         3           Au  tau(   3) = (   0.5000000   0.0000000   0.4082809  )
         4           Au  tau(   4) = (   0.2500000   0.4330127   0.4082809  )
         5           Au  tau(   5) = (  -0.2500000   0.4330127   0.4082809  )
         6           Au  tau(   6) = (  -0.0000005   0.5773506   0.0000000  )

   Crystallographic axes

     site n.     atom                  positions (cryst. coord.)
         1           Sr  tau(   1) = (  0.0000000  0.0000000  0.0000000  )
         2           Au  tau(   2) = (  0.6666670  0.3333330  0.0000000  )
         3           Au  tau(   3) = (  0.5000000  0.0000000  0.5000000  )
         4           Au  tau(   4) = (  0.5000000  0.5000000  0.5000000  )
         5           Au  tau(   5) = ( -0.0000000  0.5000000  0.5000000  )
         6           Au  tau(   6) = (  0.3333330  0.6666670  0.0000000  )

     number of k points=     1  Methfessel-Paxton smearing, width (Ry)=  0.0010
                       cart. coord. in units 2pi/alat
        k(    1) = (   0.0000000   0.0000000   0.0000000), wk =   2.0000000

                       cryst. coord.
        k(    1) = (   0.0000000   0.0000000   0.0000000), wk =   2.0000000

     Check: negative core charge=   -0.000002

     Initial potential from superposition of free atoms

     starting charge     104.9659, renormalised to     105.0000

     negative rho (up, down):  6.481E-02 0.000E+00
     Starting wfcs are   63 randomized atomic wfcs +    1 random wfcs

     Self-consistent Calculation

     iteration #  1     ecut=    30.00 Ry     beta= 0.70
     Davidson diagonalization with overlap

     ethr =  1.00E-02,  avg # of iterations =  4.0

     Threshold (ethr) on eigenvalues was too large:
     Diagonalizing with lowered threshold

     Davidson diagonalization with overlap

[...]

     negative rho (up, down):  6.602E-02 0.000E+00

     total energy              =   -1442.25922742 Ry
     estimated scf accuracy    <       0.23361099 Ry

[...]

     total energy              =   -1442.33388728 Ry
     estimated scf accuracy    <       0.00000277 Ry

     iteration # 15     ecut=    30.00 Ry     beta= 0.70
     Davidson diagonalization with overlap

     ethr =  2.64E-09,  avg # of iterations =  1.0

[...]

     End of self-consistent calculation

          k = 0.0000 0.0000 0.0000 (  1220 PWs)   bands (ev):

   -91.5366 -91.5300 -91.5298 -90.6455 -90.6450 -42.6786 -42.6118 -42.6117
   -42.5319 -42.5210 -42.5209 -42.4335 -42.4116 -42.4115 -41.6500 -41.6395
   -41.6306 -41.6306 -41.6147 -41.6146 -20.5055  -2.6266  -2.4560  -2.4560
     6.4339   8.7177   9.1846   9.1847   9.5640   9.6622   9.6925   9.6926
    10.2788  10.2789  10.8491  11.3248  11.3249  11.5203  11.5203  11.6269
    11.6270  11.7911  11.7911  11.8007  11.8033  12.6019  12.6020  13.0614
    13.6901  13.6902  14.4847  15.6621  15.8993  15.8994  16.5568  16.5568
    17.1475  19.7651  19.7651  19.7840  20.5253  20.5253  21.5906  22.8957

     occupation numbers
     1.0000   1.0000   1.0000   1.0000   1.0000   1.0000   1.0000   1.0000
     1.0000   1.0000   1.0000   1.0000   1.0000   1.0000   1.0000   1.0000
     1.0000   1.0000   1.0000   1.0000   1.0000   1.0000   1.0000   1.0000
     1.0000   1.0000   1.0000   1.0000   1.0000   1.0000   1.0000   1.0000
     1.0000   1.0000   1.0000   1.0000   1.0000   1.0000   1.0000   1.0000
     1.0000   1.0000   1.0000   1.0000   1.0000   1.0000   1.0000   1.0000
     1.0000   1.0000   1.0000   1.0000   0.2512   0.2488  -0.0000  -0.0000
    -0.0000  -0.0000  -0.0000  -0.0000  -0.0000  -0.0000  -0.0000  -0.0000

     the Fermi energy is    15.8951 ev

!    total energy              =   -1442.33388722 Ry
     estimated scf accuracy    <       0.00000020 Ry
     smearing contrib. (-TS)   =      -0.00041261 Ry
     internal energy E=F+TS    =   -1442.33347461 Ry

     The total energy is F=E-TS. E is the sum of the following terms:
     one-electron contribution =    -726.80634457 Ry
     hartree contribution      =     393.80769793 Ry
     xc contribution           =    -144.83312969 Ry
     ewald contribution        =    -964.50169828 Ry

     convergence has been achieved in  15 iterations

     negative rho (up, down):  6.773E-02 0.000E+00

     Forces acting on atoms (cartesian axes, Ry/au):

     atom    1 type  1   force =    -0.00000000   -0.00000000    0.00000000
     atom    2 type  2   force =     0.00000000    0.00000000   -0.00000000
     atom    3 type  2   force =    -0.00000000   -0.00000000    0.00000000
     atom    4 type  2   force =     0.00000000    0.00000000   -0.00000000
     atom    5 type  2   force =     0.00000000   -0.00000000    0.00000000
     atom    6 type  2   force =    -0.00000000   -0.00000000    0.00000000
     The non-local contrib.  to forces
     atom    1 type  1   force =     0.00000000   -0.00000000    0.00000000
     atom    2 type  2   force =     0.00000000   -0.00000000   -0.00000000
     atom    3 type  2   force =    -0.00000000   -0.00000000   -0.00000000
     atom    4 type  2   force =    -0.00000000   -0.00000000    0.00000000
     atom    5 type  2   force =     0.00000000    0.00000000   -0.00000000
     atom    6 type  2   force =     0.00000000    0.00000000    0.00000000
     The ionic contribution  to forces
     atom    1 type  1   force =     0.00000000   -0.00000000   -0.00000000
     atom    2 type  2   force =    -0.00008191    0.00004729   -0.00000000
     atom    3 type  2   force =    -0.00000000   -0.00000000   -0.00000000
     atom    4 type  2   force =    -0.00000000   -0.00000000   -0.00000000
     atom    5 type  2   force =     0.00000000    0.00000000   -0.00000000
     atom    6 type  2   force =     0.00008191   -0.00004729   -0.00000000
     The local contribution  to forces
     atom    1 type  1   force =     0.00000039   -0.00000025    0.00000035
     atom    2 type  2   force =     0.00094894    0.00020067    0.00000090
     atom    3 type  2   force =     0.00000017   -0.00001487    0.00000095
     atom    4 type  2   force =    -0.00001129    0.00000710   -0.00000125
     atom    5 type  2   force =     0.00001290    0.00000782   -0.00000152
     atom    6 type  2   force =    -0.00095499   -0.00020256    0.00000150
     The core correction contribution to forces
     atom    1 type  1   force =    -0.00000005    0.00000000    0.00000001
     atom    2 type  2   force =     0.00000000    0.00000000    0.00000000
     atom    3 type  2   force =     0.00000000    0.00000000    0.00000000
     atom    4 type  2   force =     0.00000000    0.00000000    0.00000000
     atom    5 type  2   force =     0.00000000    0.00000000    0.00000000
     atom    6 type  2   force =     0.00000000    0.00000000    0.00000000
     The Hubbard contrib.    to forces
     atom    1 type  1   force =     0.00000000    0.00000000    0.00000000
     atom    2 type  2   force =     0.00000000    0.00000000    0.00000000
     atom    3 type  2   force =     0.00000000    0.00000000    0.00000000
     atom    4 type  2   force =     0.00000000    0.00000000    0.00000000
     atom    5 type  2   force =     0.00000000    0.00000000    0.00000000
     atom    6 type  2   force =     0.00000000    0.00000000    0.00000000
     The SCF correction term to forces
     atom    1 type  1   force =    -0.00000030    0.00000028   -0.00000012
     atom    2 type  2   force =    -0.00072993   -0.00020005   -0.00000122
     atom    3 type  2   force =     0.00000025    0.00001790   -0.00000023
     atom    4 type  2   force =     0.00001482   -0.00000893    0.00000089
     atom    5 type  2   force =    -0.00001548   -0.00000939    0.00000194
     atom    6 type  2   force =     0.00073346    0.00020144   -0.00000156

     Total force =     0.000000     Total SCF correction =     0.001073

     Computing stress (Cartesian axis) and pressure

     negative rho (up, down):  6.773E-02 0.000E+00
          total   stress  (Ry/bohr**3)                   (kbar)     P=     -624.64
  -0.00427364   0.00000000  -0.00000000         -628.67        0.00       -0.00
   0.00000000  -0.00427364   0.00000000            0.00     -628.67        0.00
  -0.00000000   0.00000000  -0.00419135           -0.00        0.00     -616.57

     kinetic stress (kbar)  47963.58     -0.00      0.00
                               -0.00  47963.58      0.00
                                0.00      0.00  48000.80

     local   stress (kbar)  -3971.94     -2.38     -0.00
                               -2.38  -3970.84     -0.00
                               -0.00     -0.00 -43603.58

     nonloc. stress (kbar)   7009.83     -0.00      0.00
                               -0.00   7009.83      0.00
                               -0.00     -0.00   7143.89

     hartree stress (kbar)  15618.33      1.24      0.00
                                1.24  15617.75      0.00
                                0.00      0.00  33447.02

     exc-cor stress (kbar)  -5586.67      0.01      0.00
                                0.01  -5586.68      0.00
                                0.00      0.00  -5577.10

     corecor stress (kbar)  -1643.64     -0.00     -0.00
                               -0.00  -1643.64     -0.00
                               -0.00     -0.00  -1644.55

     ewald   stress (kbar) -60018.47      0.09     -0.00
                                0.09 -60018.37     -0.00
                               -0.00     -0.00 -38383.04

     hubbard stress (kbar)      0.00      0.00      0.00
                                0.00      0.00      0.00
                                0.00      0.00      0.00

     DFT-D   stress (kbar)      0.00      0.00      0.00
                                0.00      0.00      0.00
                                0.00      0.00      0.00

     XDM     stress (kbar)      0.00      0.00      0.00
                                0.00      0.00      0.00
                                0.00      0.00      0.00

     dft-nl  stress (kbar)      0.00      0.00      0.00
                                0.00      0.00      0.00
                                0.00      0.00      0.00

     TS-vdW  stress (kbar)      0.00      0.00      0.00
                                0.00      0.00      0.00
                                0.00      0.00      0.00

[...]

                                0.00      0.00      0.00

     Writing all to output data dir new_calculations/myprefix.save/

     General routines

     Parallel routines

   This run was terminated on:  14: 0: 8  21May2023

   JOB DONE.