     Program PWSCF v.7.0 starts on 21May2023 at 11:17:10

     Reading input from espresso_24671.pwi
Warning: card &CELL ignored
Warning: card / ignored

     Current dimensions of program PWSCF are:
     Max number of different atomic species (ntypx) = 10
     Max number of k-points (npk) =  40000
     Max angular momentum in pseudopotentials (lmaxx) =  4

     gamma-point specific algorithms are used
     Message from routine setup:
     using ibrav=0 with symmetry is DISCOURAGED, use correct ibrav instead

     Subspace diagonalization in iterative solution of the eigenvalue problem:
     a serial algorithm will be used

     Using Slab Decomposition

     bravais-lattice index     =            0
     lattice parameter (alat)  =      12.4974  a.u.
     unit-cell volume          =    1422.2870 (a.u.)^3
     number of atoms/cell      =           11
     number of atomic types    =            2
     number of electrons       =       121.00
     number of Kohn-Sham states=           73
     kinetic-energy cutoff     =      30.0000  Ry
     charge density cutoff     =     240.0000  Ry
     scf convergence threshold =      1.0E-06
     mixing beta               =       0.7000
     number of iterations used =            8  plain     mixing
     Exchange-correlation= SLA  PW   PBE  PBE
                           (   1   4   3   4   0   0   0)

     celldm(1)=  12.497369  celldm(2)=   0.000000  celldm(3)=   0.000000
     celldm(4)=   0.000000  celldm(5)=   0.000000  celldm(6)=   0.000000

     crystal axes: (cart. coord. in units of alat)
               a(1) = (   1.000000   0.000000   0.000000 )
               a(2) = (   0.479347   0.877625   0.000000 )
               a(3) = (   0.479347   0.284374   0.830276 )

     reciprocal axes: (cart. coord. in units 2 pi/alat)
               b(1) = (  1.000000 -0.546187 -0.390263 )
               b(2) = (  0.000000  1.139438 -0.390263 )
               b(3) = (  0.000000  0.000000  1.204419 )

     PseudoPot. # 1 for Co read from file:
     /home/pragov/projects/rrg-bengioy-ad/pragov/crystal_structure_design/SSSP/Co_pbe_v1.2.uspp.F.UPF
     MD5 check sum: 5f91765df6ddd3222702df6e7b74a16d
     Pseudo is Ultrasoft + core correction, Zval = 17.0
     Generated by new atomic code, or converted to UPF format
     Using radial grid of  863 points,  6 beta functions with:
                l(1) =   0
                l(2) =   0
                l(3) =   1
                l(4) =   1
                l(5) =   2
                l(6) =   2
     Q(r) pseudized with  8 coefficients,  rinner =    1.200   1.200   1.200
                                                       1.200   1.200

     PseudoPot. # 2 for Te read from file:
     /home/pragov/projects/rrg-bengioy-ad/pragov/crystal_structure_design/SSSP/Te_pbe_v1.uspp.F.UPF
     MD5 check sum: c319670d6894cc26e93307826a071b75
     Pseudo is Ultrasoft + core correction, Zval =  6.0
     Generated by new atomic code, or converted to UPF format
     Using radial grid of  891 points,  5 beta functions with:
                l(1) =   0
                l(2) =   0
                l(3) =   1
                l(4) =   1
                l(5) =   2
     Q(r) pseudized with  6 coefficients,  rinner =    1.800   1.800   1.800
                                                       1.800   1.800

     atomic species   valence    mass     pseudopotential
        Co            17.00    58.93319     Co( 1.00)
        Te             6.00   127.60000     Te( 1.00)

      2 Sym. Ops., with inversion, found

                                    s                        frac. trans.

      isym =  1     identity

 cryst.   s( 1) = (     1          0          0      )
                  (     0          1          0      )
                  (     0          0          1      )

 cart.    s( 1) = (  1.0000000  0.0000000 -0.0000000 )
                  (  0.0000000  1.0000000 -0.0000000 )
                  (  0.0000000  0.0000000  1.0000000 )

      isym =  2     inversion

 cryst.   s( 2) = (    -1          0          0      )
                  (     0         -1          0      )
                  (     0          0         -1      )

 cart.    s( 2) = ( -1.0000000 -0.0000000  0.0000000 )
                  (  0.0000000 -1.0000000  0.0000000 )
                  (  0.0000000  0.0000000 -1.0000000 )

   Cartesian axes

     site n.     atom                  positions (alat units)
         1           Co  tau(   1) = (   1.6409709   0.9735088   0.6955950  )
         2           Co  tau(   2) = (   0.9793473   0.5809995   0.4151378  )
         3           Co  tau(   3) = (   0.3177238   0.1884902   0.1346807  )
         4           Co  tau(   4) = (   1.3068039   0.7752636   0.5539441  )
         5           Co  tau(   5) = (   0.6518908   0.3867353   0.2763315  )
         6           Te  tau(   6) = (   0.6456276   0.5845698   0.6239330  )
         7           Te  tau(   7) = (   0.9937526   0.1928783   0.3508604  )
         8           Te  tau(   8) = (   0.8225130   0.6830742   0.0687842  )
         9           Te  tau(   9) = (   1.3130671   0.5774292   0.2063426  )
        10           Te  tau(  10) = (   1.1361817   0.4789248   0.7614915  )
        11           Te  tau(  11) = (   0.9649421   0.9691206   0.4794153  )

   Crystallographic axes

     site n.     atom                  positions (cryst. coord.)
         1           Co  tau(   1) = (  0.8377880  0.8377880  0.8377880  )
         2           Co  tau(   2) = (  0.5000000  0.5000000  0.5000000  )
         3           Co  tau(   3) = (  0.1622120  0.1622120  0.1622120  )
         4           Co  tau(   4) = (  0.6671810  0.6671810  0.6671810  )
         5           Co  tau(   5) = (  0.3328190  0.3328190  0.3328190  )
         6           Te  tau(   6) = (  0.0828450  0.4225830  0.7514770  )
         7           Te  tau(   7) = (  0.7514770  0.0828450  0.4225830  )
         8           Te  tau(   8) = (  0.4225830  0.7514770  0.0828450  )
         9           Te  tau(   9) = (  0.9171550  0.5774170  0.2485230  )
        10           Te  tau(  10) = (  0.5774170  0.2485230  0.9171550  )
        11           Te  tau(  11) = (  0.2485230  0.9171550  0.5774170  )

     number of k points=     1  Methfessel-Paxton smearing, width (Ry)=  0.0010
                       cart. coord. in units 2pi/alat
        k(    1) = (   0.0000000   0.0000000   0.0000000), wk =   2.0000000

                       cryst. coord.
        k(    1) = (   0.0000000   0.0000000   0.0000000), wk =   2.0000000

     Check: negative core charge=   -0.000006

     Initial potential from superposition of free atoms

     starting charge     115.9987, renormalised to     121.0000
     Starting wfcs are   89 randomized atomic wfcs

     Self-consistent Calculation

     iteration #  1     ecut=    30.00 Ry     beta= 0.70
     Davidson diagonalization with overlap

     ethr =  1.00E-02,  avg # of iterations =  4.0

     total energy              =   -1608.52035176 Ry
     estimated scf accuracy    <      57.13513590 Ry

[...]

     total energy              =   -1651.35785435 Ry
     estimated scf accuracy    <       0.00007134 Ry

     iteration # 25     ecut=    30.00 Ry     beta= 0.70
     Davidson diagonalization with overlap

     ethr =  1.11E-08,  avg # of iterations = 15.0

     End of self-consistent calculation

          k = 0.0000 0.0000 0.0000 (  1959 PWs)   bands (ev):

   -82.6116 -82.5740 -82.5731 -82.5363 -82.5358 -46.0704 -45.9744 -45.9647
   -45.8971 -45.8965 -45.8283 -45.8283 -45.8211 -45.8211 -45.8156 -45.8156
   -45.8017 -45.8016 -45.7959 -45.7958  -2.5452  -0.0247  -0.0245   0.0249
     0.0251   0.6729   4.8207   5.4481   5.8655   5.8656   5.8858   5.9812
     5.9813   7.4203   7.6270   7.9000   7.9000   8.9058   8.9059   9.3083
     9.3084   9.6967  10.2626  10.2627  10.3774  10.5646  10.6959  10.6959
    10.7573  10.7574  10.9513  11.0873  11.0873  11.1659  11.1659  11.3120
    11.3121  11.3284  11.3284  11.5914  11.5914  12.2265  13.1490  13.3018
    13.3019  13.8723  13.8723  14.0269  14.0270  14.4986  16.5652  16.7425
    17.2296

     occupation numbers
     1.0000   1.0000   1.0000   1.0000   1.0000   1.0000   1.0000   1.0000
     1.0000   1.0000   1.0000   1.0000   1.0000   1.0000   1.0000   1.0000
     1.0000   1.0000   1.0000   1.0000   1.0000   1.0000   1.0000   1.0000
     1.0000   1.0000   1.0000   1.0000   1.0000   1.0000   1.0000   1.0000
     1.0000   1.0000   1.0000   1.0000   1.0000   1.0000   1.0000   1.0000
     1.0000   1.0000   1.0000   1.0000   1.0000   1.0000   1.0000   1.0000
     1.0000   1.0000   1.0000   1.0000   1.0000   1.0000   1.0000   1.0000
     1.0000   1.0000   1.0000   0.7516   0.7484  -0.0000  -0.0000  -0.0000
    -0.0000  -0.0000  -0.0000  -0.0000  -0.0000  -0.0000  -0.0000  -0.0000
    -0.0000

     the Fermi energy is    11.5956 ev

!    total energy              =   -1651.35785620 Ry
     estimated scf accuracy    <       0.00000060 Ry
     smearing contrib. (-TS)   =      -0.00041261 Ry
     internal energy E=F+TS    =   -1651.35744359 Ry

     The total energy is F=E-TS. E is the sum of the following terms:
     one-electron contribution =   -1296.66444576 Ry
     hartree contribution      =     707.96551265 Ry
     xc contribution           =    -250.71408683 Ry
     ewald contribution        =    -811.94442364 Ry

     convergence has been achieved in  25 iterations

     Forces acting on atoms (cartesian axes, Ry/au):

     atom    1 type  1   force =     0.01050491    0.00619133    0.00436864
     atom    2 type  1   force =     0.00000000    0.00000000    0.00000000
     atom    3 type  1   force =    -0.01050491   -0.00619133   -0.00436864
     atom    4 type  1   force =     0.01436527    0.00851874    0.00599534
     atom    5 type  1   force =    -0.01436527   -0.00851874   -0.00599534
     atom    6 type  2   force =    -0.00349251   -0.00732004   -0.00514521
     atom    7 type  2   force =    -0.00806133    0.00036308   -0.00536589
     atom    8 type  2   force =    -0.00818111   -0.00472166    0.00202492
     atom    9 type  2   force =     0.00349251    0.00732004    0.00514521
     atom   10 type  2   force =     0.00818111    0.00472166   -0.00202492
     atom   11 type  2   force =     0.00806133   -0.00036308    0.00536589
     The non-local contrib.  to forces
     atom    1 type  1   force =    -0.01988177   -0.01191505   -0.00848842
     atom    2 type  1   force =     0.00000000    0.00000000    0.00000000
     atom    3 type  1   force =     0.01988177    0.01191505    0.00848842
     atom    4 type  1   force =    -0.02177040   -0.01289044   -0.00912255
     atom    5 type  1   force =     0.02177040    0.01289044    0.00912255
     atom    6 type  2   force =    -0.01807052   -0.03982741    0.04421367
     atom    7 type  2   force =     0.01666008   -0.03001970   -0.05227542
     atom    8 type  2   force =    -0.04388820    0.04295618   -0.01140705
     atom    9 type  2   force =     0.01807052    0.03982741   -0.04421367
     atom   10 type  2   force =     0.04388820   -0.04295618    0.01140705
     atom   11 type  2   force =    -0.01666008    0.03001970    0.05227542
     The ionic contribution  to forces
     atom    1 type  1   force =    10.81799891    6.41779644    4.58566574
     atom    2 type  1   force =    -0.00000000   -0.00000000   -0.00000000
     atom    3 type  1   force =   -10.81799891   -6.41779644   -4.58566574
     atom    4 type  1   force =     0.98677053    0.58540322    0.41828122
     atom    5 type  1   force =    -0.98677053   -0.58540322   -0.41828122
     atom    6 type  2   force =    -2.61933770   -3.73069574    2.51630187
     atom    7 type  2   force =    -0.22726093   -2.86044464   -4.34476708
     atom    8 type  2   force =    -4.52972687    2.21513086   -1.29830098
     atom    9 type  2   force =     2.61933770    3.73069574   -2.51630187
     atom   10 type  2   force =     4.52972687   -2.21513086    1.29830098
     atom   11 type  2   force =     0.22726093    2.86044464    4.34476708
     The local contribution  to forces
     atom    1 type  1   force =   -10.78836323   -6.40020982   -4.57288979
     atom    2 type  1   force =    -0.00056951    0.00000441   -0.00006048
     atom    3 type  1   force =    10.78904322    6.40032182    4.57298743
     atom    4 type  1   force =    -0.95158867   -0.56445088   -0.40308053
     atom    5 type  1   force =     0.95131879    0.56454318    0.40319007
     atom    6 type  2   force =     2.63818821    3.77063098   -2.57219973
     atom    7 type  2   force =     0.20122851    2.89637813    4.40075465
     atom    8 type  2   force =     4.57394337   -2.26899435    1.31396974
     atom    9 type  2   force =    -2.63805791   -3.77071552    2.57205581
     atom   10 type  2   force =    -4.57398647    2.26894836   -1.31382084
     atom   11 type  2   force =    -0.20130531   -2.89625089   -4.40077239
     The core correction contribution to forces
     atom    1 type  1   force =     0.00097272    0.00058283    0.00041381
     atom    2 type  1   force =    -0.00000033   -0.00000026   -0.00000058
     atom    3 type  1   force =    -0.00097205   -0.00058164   -0.00041283
     atom    4 type  1   force =     0.00090332    0.00053350    0.00037459
     atom    5 type  1   force =    -0.00090281   -0.00053385   -0.00037464
     atom    6 type  2   force =    -0.00421484   -0.00743530    0.00657662
     atom    7 type  2   force =     0.00132115   -0.00556185   -0.00918991
     atom    8 type  2   force =    -0.00857614    0.00618884   -0.00227223
     atom    9 type  2   force =     0.00422132    0.00743067   -0.00657879
     atom   10 type  2   force =     0.00857017   -0.00618763    0.00227871
     atom   11 type  2   force =    -0.00132104    0.00556569    0.00918838
     The Hubbard contrib.    to forces
     atom    1 type  1   force =     0.00000000    0.00000000    0.00000000
     atom    2 type  1   force =     0.00000000    0.00000000    0.00000000
     atom    3 type  1   force =     0.00000000    0.00000000    0.00000000
     atom    4 type  1   force =     0.00000000    0.00000000    0.00000000
     atom    5 type  1   force =     0.00000000    0.00000000    0.00000000
     atom    6 type  2   force =     0.00000000    0.00000000    0.00000000
     atom    7 type  2   force =     0.00000000    0.00000000    0.00000000
     atom    8 type  2   force =     0.00000000    0.00000000    0.00000000
     atom    9 type  2   force =     0.00000000    0.00000000    0.00000000
     atom   10 type  2   force =     0.00000000    0.00000000    0.00000000
     atom   11 type  2   force =     0.00000000    0.00000000    0.00000000
     The SCF correction term to forces
     atom    1 type  1   force =    -0.00030234   -0.00007550   -0.00033985
     atom    2 type  1   force =     0.00066155   -0.00004421    0.00005330
     atom    3 type  1   force =    -0.00053957   -0.00006254    0.00022691
     atom    4 type  1   force =     0.00012897   -0.00006336   -0.00044139
     atom    5 type  1   force =     0.00029735   -0.00000197    0.00036391
     atom    6 type  2   force =    -0.00009400    0.00003854   -0.00002702
     atom    7 type  2   force =    -0.00001172   -0.00000837    0.00012784
     atom    8 type  2   force =     0.00010223   -0.00001653   -0.00000198
     atom    9 type  2   force =    -0.00011548    0.00011283    0.00019435
     atom   10 type  2   force =     0.00001786    0.00003465   -0.00022824
     atom   11 type  2   force =     0.00008525   -0.00016174   -0.00007664

     Total force =     0.039042     Total SCF correction =     0.001278

     Computing stress (Cartesian axis) and pressure

          total   stress  (Ry/bohr**3)                   (kbar)     P=     -220.47
  -0.00172510  -0.00027505  -0.00019593         -253.77      -40.46      -28.82
  -0.00027505  -0.00142569  -0.00011660          -40.46     -209.73      -17.15
  -0.00019593  -0.00011660  -0.00134539          -28.82      -17.15     -197.91

     kinetic stress (kbar)  16742.01   -122.07    -87.58
                             -122.07  16875.88    -51.68
                              -87.58    -51.68  16911.13

     local   stress (kbar) -16065.09  -7539.47  -5385.66
                            -7539.47  -7831.29  -3196.04
                            -5385.66  -3196.04  -5641.44

     nonloc. stress (kbar)   2970.35     64.98     46.01
                               64.98   2900.02     27.53
                               46.01     27.53   2881.01

     hartree stress (kbar)  27453.90   3692.44   2637.72
                             3692.44  23421.16   1565.27
                             2637.72   1565.27  22348.78

     exc-cor stress (kbar)   1403.50     -3.16     -2.26
                               -3.16   1406.96     -1.34
                               -2.26     -1.34   1407.87

     corecor stress (kbar)  -7946.96     10.93      7.82
                               10.93  -7958.91      4.63
                                7.82      4.63  -7962.08

     ewald   stress (kbar) -24811.49   3855.88   2755.12
                             3855.88 -29023.56   1634.48
                             2755.12   1634.48 -30143.19

     hubbard stress (kbar)      0.00      0.00      0.00
                                0.00      0.00      0.00
                                0.00      0.00      0.00

     DFT-D   stress (kbar)      0.00      0.00      0.00
                                0.00      0.00      0.00
                                0.00      0.00      0.00

     XDM     stress (kbar)      0.00      0.00      0.00
                                0.00      0.00      0.00
                                0.00      0.00      0.00

     dft-nl  stress (kbar)      0.00      0.00      0.00
                                0.00      0.00      0.00
                                0.00      0.00      0.00

     TS-vdW  stress (kbar)      0.00      0.00      0.00
                                0.00      0.00      0.00
                                0.00      0.00      0.00

[...]

                                0.00      0.00      0.00

     Writing all to output data dir new_calculations/myprefix.save/

     General routines

     Parallel routines

   This run was terminated on:  11:17:37  21May2023

   JOB DONE.