     Program PWSCF v.7.0 starts on 20May2023 at 20:34:19

     Reading input from espresso_10698.pwi
Warning: card &CELL ignored
Warning: card / ignored

     Current dimensions of program PWSCF are:
     Max number of different atomic species (ntypx) = 10
     Max number of k-points (npk) =  40000
     Max angular momentum in pseudopotentials (lmaxx) =  4

     gamma-point specific algorithms are used
     Message from routine setup:
     using ibrav=0 with symmetry is DISCOURAGED, use correct ibrav instead

     Subspace diagonalization in iterative solution of the eigenvalue problem:
     a serial algorithm will be used

     Using Slab Decomposition

     bravais-lattice index     =            0
     lattice parameter (alat)  =      12.1824  a.u.
     unit-cell volume          =    1278.4594 (a.u.)^3
     number of atoms/cell      =           10
     number of atomic types    =            4
     number of electrons       =        90.00
     number of Kohn-Sham states=           54
     kinetic-energy cutoff     =      30.0000  Ry
     charge density cutoff     =     240.0000  Ry
     scf convergence threshold =      1.0E-06
     mixing beta               =       0.7000
     number of iterations used =            8  plain     mixing
     Exchange-correlation=  SLA  PW   PBX  PBC
                           (   1   4   3   4   0   0   0)

     celldm(1)=  12.182431  celldm(2)=   0.000000  celldm(3)=   0.000000
     celldm(4)=   0.000000  celldm(5)=   0.000000  celldm(6)=   0.000000

     crystal axes: (cart. coord. in units of alat)
               a(1) = (   1.000000   0.000000   0.000000 )
               a(2) = (   0.500000   0.866025   0.000000 )
               a(3) = (   0.500000   0.288675   0.816497 )

     reciprocal axes: (cart. coord. in units 2 pi/alat)
               b(1) = (  1.000000 -0.577350 -0.408248 )
               b(2) = (  0.000000  1.154700 -0.408248 )
               b(3) = (  0.000000  0.000000  1.224745 )

     PseudoPot. # 1 for Rb read from file:
     /home/pragov/projects/rrg-bengioy-ad/pragov/crystal_structure_design/SSSP/Rb_ONCV_PBE-1.0.oncvpsp.upf
     MD5 check sum: 55a5172d6bfbce6759a58e35d43f6aa9
     Pseudo is Norm-conserving, Zval =  9.0
     Generated using ONCVPSP code by D. R. Hamann
     Using radial grid of 2308 points,  6 beta functions with:
                l(1) =   0
                l(2) =   0
                l(3) =   1
                l(4) =   1
                l(5) =   2
                l(6) =   2

     PseudoPot. # 2 for Tl read from file:
     /home/pragov/projects/rrg-bengioy-ad/pragov/crystal_structure_design/SSSP/Tl_pbe_v1.2.uspp.F.UPF
     MD5 check sum: b76cf1f7e72655a2b2c53cf6385d7059
     Pseudo is Ultrasoft + core correction, Zval = 13.0
     Generated by new atomic code, or converted to UPF format
     Using radial grid of  899 points,  6 beta functions with:
                l(1) =   0
                l(2) =   0
                l(3) =   1
                l(4) =   1
                l(5) =   2
                l(6) =   2
     Q(r) pseudized with  6 coefficients,  rinner =    1.100   1.100   1.100
                                                       1.100   1.100

     PseudoPot. # 3 for Co read from file:
     /home/pragov/projects/rrg-bengioy-ad/pragov/crystal_structure_design/SSSP/Co_pbe_v1.2.uspp.F.UPF
     MD5 check sum: 5f91765df6ddd3222702df6e7b74a16d
     Pseudo is Ultrasoft + core correction, Zval = 17.0
     Generated by new atomic code, or converted to UPF format
     Using radial grid of  863 points,  6 beta functions with:
                l(1) =   0
                l(2) =   0
                l(3) =   1
                l(4) =   1
                l(5) =   2
                l(6) =   2
     Q(r) pseudized with  8 coefficients,  rinner =    1.200   1.200   1.200
                                                       1.200   1.200

     PseudoPot. # 4 for F  read from file:
     /home/pragov/projects/rrg-bengioy-ad/pragov/crystal_structure_design/SSSP/f_pbe_v1.4.uspp.F.UPF
     MD5 check sum: 4c38b6a325caf53ec0e86aed9459de46
     Pseudo is Ultrasoft, Zval =  7.0
     Generated by new atomic code, or converted to UPF format
     Using radial grid of  799 points,  4 beta functions with:
                l(1) =   0
                l(2) =   0
                l(3) =   1
                l(4) =   1
     Q(r) pseudized with  8 coefficients,  rinner =    0.950   0.950   0.950

     atomic species   valence    mass     pseudopotential
        Rb             9.00    85.46780     Rb( 1.00)
        Tl            13.00   204.38000     Tl( 1.00)
        Co            17.00    58.93319     Co( 1.00)
        F              7.00    18.99840     F ( 1.00)

     12 Sym. Ops., with inversion, found

                                    s                        frac. trans.

      isym =  1     identity

 cryst.   s( 1) = (     1          0          0      )
                  (     0          1          0      )
                  (     0          0          1      )

 cart.    s( 1) = (  1.0000000  0.0000000 -0.0000000 )
                  (  0.0000000  1.0000000 -0.0000000 )
                  (  0.0000000  0.0000000  1.0000000 )

      isym =  2     180 deg rotation - cart. axis [1,0,0]

[...]

      isym =  3     120 deg rotation - cryst. axis [0,0,1]

[...]

      isym =  6     180 deg rotation - cryst. axis [1,1,0]

[...]

      isym =  7     inversion

[...]

      isym =  8     inv. 180 deg rotation - cart. axis [1,0,0]

[...]

      isym =  9     inv. 120 deg rotation - cryst. axis [0,0,1]

 cryst.   s( 9) = (     1         -1          0      )
                  (     1          0          0      )
                  (     1          0         -1      )

 cart.    s( 9) = (  0.4999999  0.8660254 -0.0000001 )
                  ( -0.8660255  0.5000001  0.0000001 )
                  (  0.0000000  0.0000000 -1.0000000 )

[...]

 cryst.   s(10) = (     0          1          0      )
                  (    -1          1          0      )
                  (     0          1         -1      )

 cart.    s(10) = (  0.5000001 -0.8660254 -0.0000001 )
                  (  0.8660255  0.4999999 -0.0000001 )
                  (  0.0000000  0.0000000 -1.0000000 )

[...]

      isym = 12     inv. 180 deg rotation - cryst. axis [1,1,0]

 cryst.   s(12) = (     1         -1          0      )
                  (     0         -1          0      )
                  (     0         -1          1      )

 cart.    s(12) = (  0.4999999 -0.8660254  0.0000000 )
                  ( -0.8660255 -0.4999999  0.0000001 )
                  (  0.0000000  0.0000000  1.0000000 )

   Cartesian axes

     site n.     atom                  positions (alat units)
         1           Rb  tau(   1) = (   0.5000000   0.2886752   0.2041241  )
         2           Rb  tau(   2) = (   1.5000001   0.8660255   0.6123724  )
         3           Tl  tau(   3) = (   1.0000001   0.5773503   0.4082483  )
         4           Co  tau(   4) = (   0.0000000   0.0000000   0.0000000  )
         5           F   tau(   5) = (   0.7149851   0.7419038   0.1755345  )
         6           F   tau(   6) = (   1.2850151   0.7419038   0.1755345  )
         7           F   tau(   7) = (   1.2850151   0.4127968   0.6409621  )
         8           F   tau(   8) = (   1.0000000   0.2482433   0.1755345  )
         9           F   tau(   9) = (   1.0000001   0.9064573   0.6409621  )
        10           F   tau(  10) = (   0.7149851   0.4127968   0.6409621  )

   Crystallographic axes

     site n.     atom                  positions (cryst. coord.)
         1           Rb  tau(   1) = (  0.2500000  0.2500000  0.2500000  )
         2           Rb  tau(   2) = (  0.7500000  0.7500000  0.7500000  )
         3           Tl  tau(   3) = (  0.5000000  0.5000000  0.5000000  )
         4           Co  tau(   4) = (  0.0000000  0.0000000  0.0000000  )
         5           F   tau(   5) = (  0.2149850  0.7850150  0.2149850  )
         6           F   tau(   6) = (  0.7850150  0.7850150  0.2149850  )
         7           F   tau(   7) = (  0.7850150  0.2149850  0.7850150  )
         8           F   tau(   8) = (  0.7850150  0.2149850  0.2149850  )
         9           F   tau(   9) = (  0.2149850  0.7850150  0.7850150  )
        10           F   tau(  10) = (  0.2149850  0.2149850  0.7850150  )

     number of k points=     1  Methfessel-Paxton smearing, width (Ry)=  0.0010
                       cart. coord. in units 2pi/alat
        k(    1) = (   0.0000000   0.0000000   0.0000000), wk =   2.0000000

                       cryst. coord.
        k(    1) = (   0.0000000   0.0000000   0.0000000), wk =   2.0000000

     Check: negative core charge=   -0.000007

     Initial potential from superposition of free atoms

     starting charge      88.9456, renormalised to      90.0000

     negative rho (up, down):  5.117E-02 0.000E+00
     Starting wfcs are   56 randomized atomic wfcs

     Self-consistent Calculation

     iteration #  1     ecut=    30.00 Ry     beta= 0.70
     Davidson diagonalization with overlap

     ethr =  1.00E-02,  avg # of iterations =  5.0

     negative rho (up, down):  5.092E-02 0.000E+00

     total energy              =    -832.59122713 Ry
     estimated scf accuracy    <       1.67370974 Ry

[...]

     total energy              =    -833.46742931 Ry
     estimated scf accuracy    <       0.00001088 Ry

     iteration #  9     ecut=    30.00 Ry     beta= 0.70
     Davidson diagonalization with overlap

     ethr =  1.21E-08,  avg # of iterations =  2.0

[...]

     End of self-consistent calculation

          k = 0.0000 0.0000 0.0000 (  1764 PWs)   bands (ev):

   -91.0324 -54.2357 -54.2356 -54.2355 -21.2318 -21.2075 -17.8625 -17.5081
   -17.5079 -17.5076 -17.4423 -17.4421  -5.6022  -5.6022  -5.6021  -5.4636
    -5.4635  -5.2978  -5.2977  -5.2977  -5.2529  -5.2529  -5.2529  -2.1389
    -0.1621  -0.1618  -0.1361  -0.1359  -0.1358   0.3226   0.3227   0.3228
     1.4548   1.4549   1.4551   1.4957   1.4957   1.4958   1.9165   1.9166
     1.9166   2.3937   3.8411   3.8411   3.8412   5.3785   5.3786   9.2150
     9.2150   9.2151   9.5770  10.9655  10.9656  13.1861

     occupation numbers
     1.0000   1.0000   1.0000   1.0000   1.0000   1.0000   1.0000   1.0000
     1.0000   1.0000   1.0000   1.0000   1.0000   1.0000   1.0000   1.0000
     1.0000   1.0000   1.0000   1.0000   1.0000   1.0000   1.0000   1.0000
     1.0000   1.0000   1.0000   1.0000   1.0000   1.0000   1.0000   1.0000
     1.0000   1.0000   1.0000   1.0000   1.0000   1.0000   1.0000   1.0000
     1.0000   1.0000   1.0000   1.0000   1.0000  -0.0000  -0.0000  -0.0000
    -0.0000  -0.0000  -0.0000  -0.0000  -0.0000  -0.0000

     the Fermi energy is     5.1588 ev

!    total energy              =    -833.46743145 Ry
     estimated scf accuracy    <       0.00000040 Ry
     smearing contrib. (-TS)   =       0.00000000 Ry
     internal energy E=F+TS    =    -833.46743145 Ry

     The total energy is F=E-TS. E is the sum of the following terms:
     one-electron contribution =    -572.87834245 Ry
     hartree contribution      =     331.52358882 Ry
     xc contribution           =    -165.75444054 Ry
     ewald contribution        =    -426.35823727 Ry

     convergence has been achieved in   9 iterations

     negative rho (up, down):  5.035E-02 0.000E+00

     Forces acting on atoms (cartesian axes, Ry/au):

     atom    1 type  1   force =    -0.00000000    0.00000000   -0.00000075
     atom    2 type  1   force =     0.00000000   -0.00000000    0.00000075
     atom    3 type  2   force =     0.00000000    0.00000000   -0.00000000
     atom    4 type  3   force =    -0.00000000   -0.00000000    0.00000000
     atom    5 type  4   force =    -0.02963322    0.01710875   -0.02420769
     atom    6 type  4   force =     0.02963322    0.01710875   -0.02420769
     atom    7 type  4   force =     0.02963322   -0.01710875    0.02420769
     atom    8 type  4   force =     0.00000000   -0.03421750   -0.02420769
     atom    9 type  4   force =     0.00000000    0.03421750    0.02420769
     atom   10 type  4   force =    -0.02963322   -0.01710875    0.02420769
     The non-local contrib.  to forces
     atom    1 type  1   force =     0.00000000    0.00000000    0.00000201
     atom    2 type  1   force =     0.00000000    0.00000000   -0.00000201
     atom    3 type  2   force =     0.00000000    0.00000000   -0.00000000
     atom    4 type  3   force =     0.00000000    0.00000000   -0.00000000
     atom    5 type  4   force =    -0.41703327    0.24077430   -0.34051009
     atom    6 type  4   force =     0.41703327    0.24077422   -0.34051014
     atom    7 type  4   force =     0.41703327   -0.24077430    0.34051009
     atom    8 type  4   force =     0.00000000   -0.48154852   -0.34051011
     atom    9 type  4   force =     0.00000000    0.48154852    0.34051011
     atom   10 type  4   force =    -0.41703327   -0.24077422    0.34051014
     The ionic contribution  to forces
     atom    1 type  1   force =    -0.00000103    0.00000046   -0.00000018
     atom    2 type  1   force =     0.00000103   -0.00000046    0.00000018
     atom    3 type  2   force =    -0.00000000    0.00000000    0.00000000
     atom    4 type  3   force =     0.00000000    0.00000000   -0.00000000
     atom    5 type  4   force =     9.84633895   -5.68478679    8.03950213
     atom    6 type  4   force =    -9.84633895   -5.68478668    8.03950222
     atom    7 type  4   force =    -9.84633895    5.68478679   -8.03950213
     atom    8 type  4   force =     0.00000142   11.36957256    8.03950153
     atom    9 type  4   force =    -0.00000142  -11.36957256   -8.03950153
     atom   10 type  4   force =     9.84633895    5.68478668   -8.03950222
     The local contribution  to forces
     atom    1 type  1   force =     0.00001976   -0.00003203    0.00001450
     atom    2 type  1   force =    -0.00000087    0.00000776   -0.00000745
     atom    3 type  2   force =    -0.00036115    0.00031046   -0.00001810
     atom    4 type  3   force =     0.00051304   -0.00040804    0.00008839
     atom    5 type  4   force =    -9.45913943    5.46126311   -7.72334139
     atom    6 type  4   force =     9.45918622    5.46122554   -7.72335967
     atom    7 type  4   force =     9.45919711   -5.46130341    7.72339682
     atom    8 type  4   force =     0.00001354  -10.92255491   -7.72335943
     atom    9 type  4   force =     0.00001823   10.92246617    7.72332452
     atom   10 type  4   force =    -9.45910833   -5.46125978    7.72336854
     The core correction contribution to forces
     atom    1 type  1   force =     0.00000000    0.00000000    0.00000000
     atom    2 type  1   force =     0.00000000    0.00000000    0.00000000
     atom    3 type  2   force =    -0.00000151    0.00000358    0.00000132
     atom    4 type  3   force =     0.00000262   -0.00000240    0.00000022
     atom    5 type  4   force =     0.00000000    0.00000000    0.00000000
     atom    6 type  4   force =     0.00000000    0.00000000    0.00000000
     atom    7 type  4   force =     0.00000000    0.00000000    0.00000000
     atom    8 type  4   force =     0.00000000    0.00000000    0.00000000
     atom    9 type  4   force =     0.00000000    0.00000000    0.00000000
     atom   10 type  4   force =     0.00000000    0.00000000    0.00000000
     The Hubbard contrib.    to forces
     atom    1 type  1   force =     0.00000000    0.00000000    0.00000000
     atom    2 type  1   force =     0.00000000    0.00000000    0.00000000
     atom    3 type  2   force =     0.00000000    0.00000000    0.00000000
     atom    4 type  3   force =     0.00000000    0.00000000    0.00000000
     atom    5 type  4   force =     0.00000000    0.00000000    0.00000000
     atom    6 type  4   force =     0.00000000    0.00000000    0.00000000
     atom    7 type  4   force =     0.00000000    0.00000000    0.00000000
     atom    8 type  4   force =     0.00000000    0.00000000    0.00000000
     atom    9 type  4   force =     0.00000000    0.00000000    0.00000000
     atom   10 type  4   force =     0.00000000    0.00000000    0.00000000
     The SCF correction term to forces
     atom    1 type  1   force =    -0.00002387    0.00004716   -0.00001899
     atom    2 type  1   force =    -0.00000471   -0.00001109    0.00000814
     atom    3 type  2   force =     0.00045824   -0.00033745    0.00003101
     atom    4 type  3   force =    -0.00061631    0.00051362   -0.00007421
     atom    5 type  4   force =     0.00018286   -0.00012695    0.00014029
     atom    6 type  4   force =    -0.00024651   -0.00011059    0.00016100
     atom    7 type  4   force =    -0.00027588    0.00019660   -0.00020460
     atom    8 type  4   force =    -0.00002533    0.00031728    0.00015414
     atom    9 type  4   force =    -0.00003051   -0.00022197   -0.00012424
     atom   10 type  4   force =     0.00015699    0.00015331   -0.00016887

     Total force =     0.102670     Total SCF correction =     0.001253

     Computing stress (Cartesian axis) and pressure

     negative rho (up, down):  5.035E-02 0.000E+00
          total   stress  (Ry/bohr**3)                   (kbar)     P=     -131.57
  -0.00089431   0.00000000   0.00000000         -131.56        0.00        0.00
   0.00000000  -0.00089431   0.00000000            0.00     -131.56        0.00
   0.00000000   0.00000000  -0.00089459            0.00        0.00     -131.60

     kinetic stress (kbar)  14623.93     -0.00     -0.00
                               -0.00  14623.93     -0.00
                               -0.00     -0.00  14623.93

     local   stress (kbar) -10409.86      0.01     -0.03
                                0.01 -10409.87     -0.06
                               -0.03     -0.06 -10409.89

     nonloc. stress (kbar)   4023.70     -0.00     -0.00
                               -0.00   4023.70     -0.00
                               -0.00     -0.00   4023.67

     hartree stress (kbar)  12715.49     -0.01      0.03
                               -0.01  12715.53      0.05
                                0.03      0.05  12715.53

     exc-cor stress (kbar)   1095.16      0.00     -0.00
                                0.00   1095.16     -0.00
                               -0.00     -0.00   1095.16

     corecor stress (kbar)  -5827.11     -0.00      0.00
                               -0.00  -5827.11     -0.00
                                0.00     -0.00  -5827.11

     ewald   stress (kbar) -16352.87      0.00      0.00
                                0.00 -16352.88     -0.00
                                0.00     -0.00 -16352.88

     hubbard stress (kbar)      0.00      0.00      0.00
                                0.00      0.00      0.00
                                0.00      0.00      0.00

     DFT-D   stress (kbar)      0.00      0.00      0.00
                                0.00      0.00      0.00
                                0.00      0.00      0.00

     XDM     stress (kbar)      0.00      0.00      0.00
                                0.00      0.00      0.00
                                0.00      0.00      0.00

     dft-nl  stress (kbar)      0.00      0.00      0.00
                                0.00      0.00      0.00
                                0.00      0.00      0.00

     TS-vdW  stress (kbar)      0.00      0.00      0.00
                                0.00      0.00      0.00
                                0.00      0.00      0.00

[...]

                                0.00      0.00      0.00

     Writing all to output data dir new_calculations/myprefix.save/

     General routines

     Parallel routines

   This run was terminated on:  20:34:37  20May2023

   JOB DONE.