     Program PWSCF v.7.0 starts on 21May2023 at  7: 9:29

     Reading input from espresso_25371.pwi
Warning: card &CELL ignored
Warning: card / ignored

     Current dimensions of program PWSCF are:
     Max number of different atomic species (ntypx) = 10
     Max number of k-points (npk) =  40000
     Max angular momentum in pseudopotentials (lmaxx) =  4
     file O.pbe-n-kjpaw_psl.0.1.UPF: wavefunction(s)  2P renormalized

     gamma-point specific algorithms are used
     Message from routine setup:
     using ibrav=0 with symmetry is DISCOURAGED, use correct ibrav instead

     Subspace diagonalization in iterative solution of the eigenvalue problem:
     a serial algorithm will be used

     Using Slab Decomposition

     bravais-lattice index     =            0
     lattice parameter (alat)  =      12.1599  a.u.
     unit-cell volume          =    1384.1077 (a.u.)^3
     number of atoms/cell      =           20
     number of atomic types    =            4
     number of electrons       =       186.00
     number of Kohn-Sham states=          112
     kinetic-energy cutoff     =      30.0000  Ry
     charge density cutoff     =     240.0000  Ry
     scf convergence threshold =      1.0E-06
     mixing beta               =       0.7000
     number of iterations used =            8  plain     mixing
     Exchange-correlation= SLA  PW   PBX  PBC
                           (   1   4   3   4   0   0   0)

     celldm(1)=  12.159916  celldm(2)=   0.000000  celldm(3)=   0.000000
     celldm(4)=   0.000000  celldm(5)=   0.000000  celldm(6)=   0.000000

     crystal axes: (cart. coord. in units of alat)
               a(1) = (   1.000000   0.000000   0.000000 )
               a(2) = (  -0.333333   0.942809   0.000000 )
               a(3) = (  -0.333333  -0.471405   0.816497 )

     reciprocal axes: (cart. coord. in units 2 pi/alat)
               b(1) = (  1.000000  0.353553  0.612372 )
               b(2) = (  0.000000  1.060660  0.612372 )
               b(3) = (  0.000000  0.000000  1.224745 )

     PseudoPot. # 1 for Na read from file:
     /home/pragov/projects/rrg-bengioy-ad/pragov/crystal_structure_design/SSSP/na_pbe_v1.5.uspp.F.UPF
     MD5 check sum: 44600605ef58000f06b90626533354dc
     Pseudo is Ultrasoft, Zval =  9.0
     Generated by new atomic code, or converted to UPF format
     Using radial grid of  819 points,  5 beta functions with:
                l(1) =   0
                l(2) =   0
                l(3) =   1
                l(4) =   1
                l(5) =   2
     Q(r) pseudized with  8 coefficients,  rinner =    1.250   1.250   1.250
                                                       1.250   1.250

     PseudoPot. # 2 for Ti read from file:
     /home/pragov/projects/rrg-bengioy-ad/pragov/crystal_structure_design/SSSP/ti_pbe_v1.4.uspp.F.UPF
     MD5 check sum: 88a00a6731bd790ddea75d31a80cb452
     Pseudo is Ultrasoft + core correction, Zval = 12.0
     Generated by new atomic code, or converted to UPF format
     Using radial grid of  851 points,  6 beta functions with:
                l(1) =   0
                l(2) =   0
                l(3) =   1
                l(4) =   1
                l(5) =   2
                l(6) =   2
     Q(r) pseudized with  6 coefficients,  rinner =    1.000   1.000   1.000
                                                       1.000   1.000

     PseudoPot. # 3 for Cu read from file:
     /home/pragov/projects/rrg-bengioy-ad/pragov/crystal_structure_design/SSSP/Cu_pbe_v1.2.uspp.F.UPF
     MD5 check sum: 6e991ff952a84172a2a52a1c1e996048
     Pseudo is Ultrasoft + core correction, Zval = 19.0
     Generated by new atomic code, or converted to UPF format
     Using radial grid of  867 points,  6 beta functions with:
                l(1) =   0
                l(2) =   0
                l(3) =   1
                l(4) =   1
                l(5) =   2
                l(6) =   2
     Q(r) pseudized with  8 coefficients,  rinner =    1.150   1.150   1.150
                                                       1.150   1.150

     PseudoPot. # 4 for O  read from file:
     /home/pragov/projects/rrg-bengioy-ad/pragov/crystal_structure_design/SSSP/O.pbe-n-kjpaw_psl.0.1.UPF
     MD5 check sum: 0234752ac141de4415c5fc33072bef88
     Pseudo is Projector augmented-wave + core cor, Zval =  6.0
     Generated using "atomic" code by A. Dal Corso  v.5.0.99 svn rev. 10869
     Shape of augmentation charge: BESSEL
     Using radial grid of 1095 points,  4 beta functions with:
                l(1) =   0
                l(2) =   0
                l(3) =   1
                l(4) =   1
     Q(r) pseudized with 0 coefficients

     atomic species   valence    mass     pseudopotential
        Na             9.00    22.98977     Na( 1.00)
        Ti            12.00    47.86700     Ti( 1.00)
        Cu            19.00    63.54600     Cu( 1.00)
        O              6.00    15.99900     O ( 1.00)

      2 Sym. Ops., with inversion, found

                                    s                        frac. trans.

      isym =  1     identity

 cryst.   s( 1) = (     1          0          0      )
                  (     0          1          0      )
                  (     0          0          1      )

 cart.    s( 1) = (  1.0000000  0.0000000  0.0000000 )
                  (  0.0000000  1.0000000 -0.0000000 )
                  (  0.0000000  0.0000000  1.0000000 )

      isym =  2     inversion

 cryst.   s( 2) = (    -1          0          0      )
                  (     0         -1          0      )
                  (     0          0         -1      )

 cart.    s( 2) = ( -1.0000000 -0.0000000 -0.0000000 )
                  (  0.0000000 -1.0000000  0.0000000 )
                  (  0.0000000  0.0000000 -1.0000000 )

   Cartesian axes

     site n.     atom                  positions (alat units)
         1           Na  tau(   1) = (   0.0000000   0.0000000   0.0000000  )
         2           Ti  tau(   2) = (   0.1666667   0.2357023   0.4082483  )
         3           Ti  tau(   3) = (   0.5000000   0.0000000   0.0000000  )
         4           Ti  tau(   4) = (  -0.1666667   0.4714045   0.0000000  )
         5           Ti  tau(   5) = (   0.5000000   0.7071068   0.4082483  )
         6           Cu  tau(   6) = (   0.3333333   0.4714045   0.0000000  )
         7           Cu  tau(   7) = (   0.0000000   0.7071068   0.4082483  )
         8           Cu  tau(   8) = (   0.6666667   0.2357023   0.4082483  )
         9           O   tau(   9) = (   0.4214100   0.4091249   0.4186513  )
        10           O   tau(  10) = (  -0.0880767   0.0622796   0.3978453  )
        11           O   tau(  11) = (  -0.3418277   0.2417080   0.7086260  )
        12           O   tau(  12) = (   0.6751610   0.2296966   0.1078706  )
        13           O   tau(  13) = (   0.2452567   0.0957206   0.6715097  )
        14           O   tau(  14) = (   0.0880767   0.3756839   0.1449869  )
        15           O   tau(  15) = (   0.3418270   0.7345425   0.1449869  )
        16           O   tau(  16) = (  -0.0084937  -0.2631380   0.6715097  )
        17           O   tau(  17) = (   0.0084940   0.4499759   0.5636382  )
        18           O   tau(  18) = (   0.3248393   0.0214286   0.2528584  )
        19           O   tau(  19) = (  -0.2452577   0.6294047   0.2528584  )
        20           O   tau(  20) = (   0.5785910  -0.1580002   0.5636382  )

   Crystallographic axes

     site n.     atom                  positions (cryst. coord.)
         1           Na  tau(   1) = (  0.0000000  0.0000000  0.0000000  )
         2           Ti  tau(   2) = (  0.5000000  0.5000000  0.5000000  )
         3           Ti  tau(   3) = (  0.5000000  0.0000000  0.0000000  )
         4           Ti  tau(   4) = (  0.0000000  0.5000000  0.0000000  )
         5           Ti  tau(   5) = (  1.0000000  1.0000000  0.5000000  )
         6           Cu  tau(   6) = (  0.5000000  0.5000000  0.0000000  )
         7           Cu  tau(   7) = (  0.5000000  1.0000000  0.5000000  )
         8           Cu  tau(   8) = (  1.0000000  0.5000000  0.5000000  )
         9           O   tau(   9) = (  0.8224280  0.6903130  0.5127410  )
        10           O   tau(  10) = (  0.1775720  0.3096870  0.4872590  )
        11           O   tau(  11) = (  0.1775720  0.6903130  0.8678860  )
        12           O   tau(  12) = (  0.8224280  0.3096870  0.1321140  )
        13           O   tau(  13) = (  0.6903130  0.5127410  0.8224280  )
        14           O   tau(  14) = (  0.3096870  0.4872590  0.1775720  )
        15           O   tau(  15) = (  0.6903130  0.8678860  0.1775720  )
        16           O   tau(  16) = (  0.3096870  0.1321140  0.8224280  )
        17           O   tau(  17) = (  0.5127410  0.8224280  0.6903130  )
        18           O   tau(  18) = (  0.4872590  0.1775720  0.3096870  )
        19           O   tau(  19) = (  0.1321140  0.8224280  0.3096870  )
        20           O   tau(  20) = (  0.8678860  0.1775720  0.6903130  )

     number of k points=     1  Methfessel-Paxton smearing, width (Ry)=  0.0010
                       cart. coord. in units 2pi/alat
        k(    1) = (   0.0000000   0.0000000   0.0000000), wk =   2.0000000

                       cryst. coord.
        k(    1) = (   0.0000000   0.0000000   0.0000000), wk =   2.0000000

     Check: negative core charge=   -0.000017

     Initial potential from superposition of free atoms

     starting charge     178.9935, renormalised to     186.0000

     negative rho (up, down):  5.997E-03 0.000E+00
     Starting wfcs are  132 randomized atomic wfcs
     Checking if some PAW data can be deallocated...

     Self-consistent Calculation

     iteration #  1     ecut=    30.00 Ry     beta= 0.70
     Davidson diagonalization with overlap

     ethr =  1.00E-02,  avg # of iterations =  4.0

     negative rho (up, down):  1.413E-03 0.000E+00

     total energy              =   -2221.19081958 Ry
     estimated scf accuracy    <      79.16674393 Ry

[...]

     total energy              =   -2286.38759295 Ry
     estimated scf accuracy    <       0.00001271 Ry

     iteration # 45     ecut=    30.00 Ry     beta= 0.70
     Davidson diagonalization with overlap

     ethr =  6.83E-09,  avg # of iterations =  1.0

[...]

     End of self-consistent calculation

          k = 0.0000 0.0000 0.0000 (  1903 PWs)   bands (ev):

  -103.4750-102.9228-102.7010 -60.7199 -60.2946 -60.0497 -59.8900 -59.6992
   -59.3026 -59.2438 -59.0989 -58.4099 -48.3443 -48.0528 -47.8573 -47.3678
   -46.2083 -34.7072 -30.3779 -23.7792 -23.7176 -23.6639 -23.6157 -23.5892
   -23.5595 -23.5133 -23.4548 -23.4259 -23.3679 -23.0974 -22.6445 -18.8380
   -11.3874  -9.9060  -9.7721  -9.6429  -9.3037  -9.2121  -9.0890  -9.0873
    -8.7465  -8.5972  -8.4132  -8.2792   3.6358   3.7210   4.0637   4.4778
     4.6156   4.6556   4.9191   5.0712   5.1390   5.4987   5.5907   5.6631
     5.7256   5.7719   5.8334   6.1604   6.5233   6.6569   6.7201   6.8323
     6.8634   7.0297   7.0699   7.1769   7.3722   7.5675   7.6446   7.8187
     7.8512   7.9749   8.1316   8.1679   8.2099   8.2727   8.4277   8.4349
     8.4640   8.5004   8.5961   8.8142   8.9730   9.1507   9.2249   9.3668
     9.7945   9.8386   9.8405   9.9088  10.1667  10.1818  10.3274  11.7382
    11.7495  11.9430  12.3912  12.6912  12.7224  12.9582  13.1420  13.4096
    13.4643  13.8311  13.8966  14.0302  14.3396  14.4507  15.4735  15.6952

     occupation numbers
     1.0000   1.0000   1.0000   1.0000   1.0000   1.0000   1.0000   1.0000
     1.0000   1.0000   1.0000   1.0000   1.0000   1.0000   1.0000   1.0000
     1.0000   1.0000   1.0000   1.0000   1.0000   1.0000   1.0000   1.0000
     1.0000   1.0000   1.0000   1.0000   1.0000   1.0000   1.0000   1.0000
     1.0000   1.0000   1.0000   1.0000   1.0000   1.0000   1.0000   1.0000
     1.0000   1.0000   1.0000   1.0000   1.0000   1.0000   1.0000   1.0000
     1.0000   1.0000   1.0000   1.0000   1.0000   1.0000   1.0000   1.0000
     1.0000   1.0000   1.0000   1.0000   1.0000   1.0000   1.0000   1.0000
     1.0000   1.0000   1.0000   1.0000   1.0000   1.0000   1.0000   1.0000
     1.0000   1.0000   1.0000   1.0000   1.0000   1.0000   1.0000   1.0000
     1.0000   1.0000   1.0000   1.0000   1.0000   1.0000   1.0000   1.0000
     1.0000   1.0000   1.0000   1.0000   0.8987   0.1013  -0.0000  -0.0000
    -0.0000  -0.0000  -0.0000  -0.0000  -0.0000  -0.0000  -0.0000  -0.0000
    -0.0000  -0.0000  -0.0000  -0.0000  -0.0000  -0.0000  -0.0000  -0.0000

     the Fermi energy is    10.1742 ev

!    total energy              =   -2286.38759310 Ry
     estimated scf accuracy    <       0.00000035 Ry
     smearing contrib. (-TS)   =      -0.00015949 Ry
     internal energy E=F+TS    =   -2286.38743361 Ry

     The total energy is F=E-TS. E is the sum of the following terms:
     one-electron contribution =   -1312.60576272 Ry
     hartree contribution      =     747.32679088 Ry
     xc contribution           =    -290.75726442 Ry
     ewald contribution        =   -1315.95158236 Ry
     one-center paw contrib.   =    -114.39961499 Ry
      -> PAW hartree energy AE =     346.92477594 Ry
      -> PAW hartree energy PS =    -346.07437838 Ry
      -> PAW xc energy AE      =    -204.14199852 Ry
      -> PAW xc energy PS      =      88.89198598 Ry
      -> total E_H with PAW    =     748.17718844 Ry
      -> total E_XC with PAW   =    -406.00727696 Ry

     convergence has been achieved in  45 iterations

     negative rho (up, down):  4.144E-03 0.000E+00

     Forces acting on atoms (cartesian axes, Ry/au):

     atom    1 type  1   force =     0.00000000    0.00000000    0.00000000
     atom    2 type  2   force =     0.00000000    0.00000000    0.00000000
     atom    3 type  2   force =     0.00000000    0.00000000    0.00000000
     atom    4 type  2   force =     0.00000000    0.00000000    0.00000000
     atom    5 type  2   force =     0.00000000    0.00000000    0.00000000
     atom    6 type  3   force =     0.00000000    0.00000000    0.00000000
     atom    7 type  3   force =     0.00000000    0.00000000    0.00000000
     atom    8 type  3   force =     0.00000000    0.00000000    0.00000000
     atom    9 type  4   force =    -0.00871363    0.10817818   -0.12791316
     atom   10 type  4   force =     0.00871363   -0.10817818    0.12791316
     atom   11 type  4   force =     0.00463743    0.14161498   -0.02965620
     atom   12 type  4   force =    -0.00463743   -0.14161498    0.02965620
     atom   13 type  4   force =    -0.00537711   -0.04863560   -0.00769635
     atom   14 type  4   force =     0.00537711    0.04863560    0.00769635
     atom   15 type  4   force =     0.01299211   -0.03808144   -0.16946925
     atom   16 type  4   force =    -0.01299211    0.03808144    0.16946925
     atom   17 type  4   force =    -0.02288433    0.05604753   -0.10484915
     atom   18 type  4   force =     0.02288433   -0.05604753    0.10484915
     atom   19 type  4   force =    -0.01613635   -0.04007398    0.00539228
     atom   20 type  4   force =     0.01613635    0.04007398   -0.00539228
     The non-local contrib.  to forces
     atom    1 type  1   force =     0.00000000    0.00000000    0.00000000
     atom    2 type  2   force =     0.00000000    0.00000000    0.00000000
     atom    3 type  2   force =     0.00000000    0.00000000    0.00000000
     atom    4 type  2   force =     0.00000000    0.00000000    0.00000000
     atom    5 type  2   force =     0.00000000    0.00000000    0.00000000
     atom    6 type  3   force =     0.00000000    0.00000000    0.00000000
     atom    7 type  3   force =     0.00000000    0.00000000    0.00000000
     atom    8 type  3   force =     0.00000000    0.00000000    0.00000000
     atom    9 type  4   force =     0.19636926   -0.04362442   -0.00247239
     atom   10 type  4   force =    -0.19636926    0.04362442    0.00247239
     atom   11 type  4   force =    -0.07480008    0.17389935   -0.21416857
     atom   12 type  4   force =     0.07480008   -0.17389935    0.21416857
     atom   13 type  4   force =    -0.19016181   -0.03948574    0.04168912
     atom   14 type  4   force =     0.19016181    0.03948574   -0.04168912
     atom   15 type  4   force =    -0.08381827   -0.25856996   -0.28553171
     atom   16 type  4   force =     0.08381827    0.25856996    0.28553171
     atom   17 type  4   force =    -0.01821952    0.06431826   -0.16283351
     atom   18 type  4   force =     0.01821952   -0.06431826    0.16283351
     atom   19 type  4   force =     0.15993211    0.00142595    0.06542892
     atom   20 type  4   force =    -0.15993211   -0.00142595   -0.06542892
     The ionic contribution  to forces
     atom    1 type  1   force =     0.00000000   -0.00000000   -0.00000000
     atom    2 type  2   force =    -0.00000000   -0.00000000    0.00000000
     atom    3 type  2   force =     0.00000000   -0.00000000   -0.00000000
     atom    4 type  2   force =    -0.00000000    0.00000000   -0.00000000
     atom    5 type  2   force =     0.00000000   -0.00000000    0.00000000
     atom    6 type  3   force =    -0.00000000    0.00000000   -0.00000000
     atom    7 type  3   force =     0.00000000   -0.00000000    0.00000000
     atom    8 type  3   force =     0.00000000   -0.00000000    0.00000000
     atom    9 type  4   force =    -4.66355741    3.29761696    3.47122510
     atom   10 type  4   force =     4.66355741   -3.29761696   -3.47122509
     atom   11 type  4   force =    -2.83422324    2.00415566    5.71155547
     atom   12 type  4   force =     2.83422324   -2.00415566   -5.71155547
     atom   13 type  4   force =     4.66354222    4.65498834   -1.12022612
     atom   14 type  4   force =    -4.66354222   -4.65498834    1.12022612
     atom   15 type  4   force =     2.83427715    5.94839184    1.12019405
     atom   16 type  4   force =    -2.83427715   -5.94839184   -1.12019405
     atom   17 type  4   force =     2.83425102   -3.94439055    4.59143261
     atom   18 type  4   force =    -2.83425102    3.94439055   -4.59143261
     atom   19 type  4   force =    -4.66343855    1.35737319   -4.59142745
     atom   20 type  4   force =     4.66343855   -1.35737320    4.59142745
     The local contribution  to forces
     atom    1 type  1   force =     0.00000585   -0.00001875    0.00001711
     atom    2 type  2   force =     0.00005339    0.00004194   -0.00003016
     atom    3 type  2   force =    -0.00000775   -0.00000593    0.00004868
     atom    4 type  2   force =    -0.00002529    0.00001689    0.00007915
     atom    5 type  2   force =     0.00007232   -0.00006668   -0.00007372
     atom    6 type  3   force =     0.00001232    0.00002421    0.00007622
     atom    7 type  3   force =    -0.00007836   -0.00001505   -0.00009632
     atom    8 type  3   force =    -0.00002692    0.00004553    0.00007299
     atom    9 type  4   force =     4.46275299   -3.14829325   -3.59427416
     atom   10 type  4   force =    -4.46277654    3.14818688    3.59428598
     atom   11 type  4   force =     2.91266812   -2.03683955   -5.52942276
     atom   12 type  4   force =    -2.91268687    2.03700220    5.52938250
     atom   13 type  4   force =    -4.48238936   -4.66430592    1.07215643
     atom   14 type  4   force =     4.48238400    4.66434133   -1.07212622
     atom   15 type  4   force =    -2.73746823   -5.73137452   -1.00529868
     atom   16 type  4   force =     2.73747697    5.73131955    1.00530941
     atom   17 type  4   force =    -2.83802402    3.93656867   -4.53364119
     atom   18 type  4   force =     2.83800733   -3.93659141    4.53358123
     atom   19 type  4   force =     4.49027119   -1.39862982    4.53143067
     atom   20 type  4   force =    -4.49028634    1.39863823   -4.53142558
     The core correction contribution to forces
     atom    1 type  1   force =     0.00000000    0.00000000    0.00000000
     atom    2 type  2   force =     0.00000083    0.00000039    0.00000019
     atom    3 type  2   force =    -0.00000068   -0.00000007    0.00000028
     atom    4 type  2   force =    -0.00000033   -0.00000007    0.00000005
     atom    5 type  2   force =     0.00000069   -0.00000061   -0.00000051
     atom    6 type  3   force =     0.00000000    0.00000003    0.00000004
     atom    7 type  3   force =     0.00000002    0.00000004   -0.00000006
     atom    8 type  3   force =    -0.00000002    0.00000002    0.00000011
     atom    9 type  4   force =    -0.00399438    0.00240839   -0.00249746
     atom   10 type  4   force =     0.00399441   -0.00240991    0.00249812
     atom   11 type  4   force =     0.00117838    0.00052331    0.00215413
     atom   12 type  4   force =    -0.00117841   -0.00052177   -0.00215476
     atom   13 type  4   force =     0.00334856    0.00004190   -0.00104149
     atom   14 type  4   force =    -0.00334866   -0.00004152    0.00104159
     atom   15 type  4   force =    -0.00004473    0.00322234    0.00100807
     atom   16 type  4   force =     0.00004490   -0.00322297   -0.00100769
     atom   17 type  4   force =    -0.00109540   -0.00043867    0.00031816
     atom   18 type  4   force =     0.00109530    0.00043833   -0.00031841
     atom   19 type  4   force =    -0.00301749   -0.00030209    0.00003154
     atom   20 type  4   force =     0.00301761    0.00030214   -0.00003142
     The Hubbard contrib.    to forces
     atom    1 type  1   force =     0.00000000    0.00000000    0.00000000
     atom    2 type  2   force =     0.00000000    0.00000000    0.00000000
     atom    3 type  2   force =     0.00000000    0.00000000    0.00000000
     atom    4 type  2   force =     0.00000000    0.00000000    0.00000000
     atom    5 type  2   force =     0.00000000    0.00000000    0.00000000
     atom    6 type  3   force =     0.00000000    0.00000000    0.00000000
     atom    7 type  3   force =     0.00000000    0.00000000    0.00000000
     atom    8 type  3   force =     0.00000000    0.00000000    0.00000000
     atom    9 type  4   force =     0.00000000    0.00000000    0.00000000
     atom   10 type  4   force =     0.00000000    0.00000000    0.00000000
     atom   11 type  4   force =     0.00000000    0.00000000    0.00000000
     atom   12 type  4   force =     0.00000000    0.00000000    0.00000000
     atom   13 type  4   force =     0.00000000    0.00000000    0.00000000
     atom   14 type  4   force =     0.00000000    0.00000000    0.00000000
     atom   15 type  4   force =     0.00000000    0.00000000    0.00000000
     atom   16 type  4   force =     0.00000000    0.00000000    0.00000000
     atom   17 type  4   force =     0.00000000    0.00000000    0.00000000
     atom   18 type  4   force =     0.00000000    0.00000000    0.00000000
     atom   19 type  4   force =     0.00000000    0.00000000    0.00000000
     atom   20 type  4   force =     0.00000000    0.00000000    0.00000000
     The SCF correction term to forces
     atom    1 type  1   force =    -0.00000229    0.00002238   -0.00001736
     atom    2 type  2   force =    -0.00003919   -0.00003172    0.00002856
     atom    3 type  2   force =     0.00000142    0.00000250   -0.00003802
     atom    4 type  2   force =     0.00002808   -0.00001875   -0.00008068
     atom    5 type  2   force =    -0.00005663    0.00005661    0.00006370
     atom    6 type  3   force =    -0.00001909   -0.00001888   -0.00008643
     atom    7 type  3   force =     0.00006966    0.00002048    0.00009657
     atom    8 type  3   force =     0.00004471   -0.00007606   -0.00002776
     atom    9 type  4   force =    -0.00029628    0.00003066    0.00012473
     atom   10 type  4   force =     0.00029540   -0.00000245   -0.00009927
     atom   11 type  4   force =    -0.00018701   -0.00007082    0.00020194
     atom   12 type  4   force =     0.00020328    0.00001257   -0.00020824
     atom   13 type  4   force =     0.00027954    0.00013388   -0.00027584
     atom   14 type  4   force =    -0.00028157   -0.00015356    0.00024241
     atom   15 type  4   force =     0.00004585    0.00023157    0.00016549
     atom   16 type  4   force =    -0.00005543   -0.00021057   -0.00016366
     atom   17 type  4   force =     0.00019906   -0.00001987   -0.00014001
     atom   18 type  4   force =    -0.00019131    0.00002359    0.00017063
     atom   19 type  4   force =     0.00011821    0.00006778   -0.00006467
     atom   20 type  4   force =    -0.00009954   -0.00005824    0.00007292

     Total force =     0.443716     Total SCF correction =     0.001039

     Computing stress (Cartesian axis) and pressure

     negative rho (up, down):  4.144E-03 0.000E+00
          total   stress  (Ry/bohr**3)                   (kbar)     P=     -671.32
  -0.00489024   0.00011529   0.00006820         -719.38       16.96       10.03
   0.00011529  -0.00468657  -0.00004721           16.96     -689.42       -6.94
   0.00006820  -0.00004721  -0.00411389           10.03       -6.94     -605.17

     kinetic stress (kbar)  32701.78    -31.81    -18.31
                              -31.81  32331.36    131.60
                              -18.31    131.60  32735.21

     local   stress (kbar) -10490.85    157.56    215.34
                              157.56  -9942.91    -91.45
                              215.34    -91.45 -10334.52

     nonloc. stress (kbar)   6777.84    -58.19   -126.91
                              -58.19   6766.77    -27.86
                             -126.91    -27.86   6797.34

     hartree stress (kbar)  26551.50    -51.05    -60.78
                              -51.05  26417.10    -18.27
                              -60.78    -18.27  26458.44

     exc-cor stress (kbar)  -7422.47     -0.06     -0.30
                               -0.06  -7427.08      0.41
                               -0.30      0.41  -7425.03

     corecor stress (kbar)  -2216.78      0.53      1.04
                                0.53  -2214.23     -1.30
                                1.04     -1.30  -2216.09

     ewald   stress (kbar) -46620.40     -0.03     -0.06
                               -0.03 -46620.43     -0.08
                               -0.06     -0.08 -46620.52

     hubbard stress (kbar)      0.00      0.00      0.00
                                0.00      0.00      0.00
                                0.00      0.00      0.00

     DFT-D   stress (kbar)      0.00      0.00      0.00
                                0.00      0.00      0.00
                                0.00      0.00      0.00

     XDM     stress (kbar)      0.00      0.00      0.00
                                0.00      0.00      0.00
                                0.00      0.00      0.00

     dft-nl  stress (kbar)      0.00      0.00      0.00
                                0.00      0.00      0.00
                                0.00      0.00      0.00

     TS-vdW  stress (kbar)      0.00      0.00      0.00
                                0.00      0.00      0.00
                                0.00      0.00      0.00

[...]

                                0.00      0.00      0.00

     Writing all to output data dir new_calculations/myprefix.save/

     General routines

     Parallel routines

     PAW routines

   This run was terminated on:   7:13: 1  21May2023

   JOB DONE.