     Program PWSCF v.7.0 starts on 20May2023 at 20:10:46

     Reading input from espresso_8795.pwi
Warning: card &CELL ignored
Warning: card / ignored

     Current dimensions of program PWSCF are:
     Max number of different atomic species (ntypx) = 10
     Max number of k-points (npk) =  40000
     Max angular momentum in pseudopotentials (lmaxx) =  4

     gamma-point specific algorithms are used
     Message from routine setup:
     using ibrav=0 with symmetry is DISCOURAGED, use correct ibrav instead

     Subspace diagonalization in iterative solution of the eigenvalue problem:
     a serial algorithm will be used

     Using Slab Decomposition

     bravais-lattice index     =            0
     lattice parameter (alat)  =       9.0827  a.u.
     unit-cell volume          =     490.0756 (a.u.)^3
     number of atoms/cell      =            3
     number of atomic types    =            2
     number of electrons       =        32.00
     number of Kohn-Sham states=           20
     kinetic-energy cutoff     =      30.0000  Ry
     charge density cutoff     =     240.0000  Ry
     scf convergence threshold =      1.0E-06
     mixing beta               =       0.7000
     number of iterations used =            8  plain     mixing
     Exchange-correlation=  SLA  PW   PBX  PBC
                           (   1   4   3   4   0   0   0)

     celldm(1)=   9.082727  celldm(2)=   0.000000  celldm(3)=   0.000000
     celldm(4)=   0.000000  celldm(5)=   0.000000  celldm(6)=   0.000000

     crystal axes: (cart. coord. in units of alat)
               a(1) = (   1.000000   0.000000   0.000000 )
               a(2) = (   0.129769   0.991544   0.000000 )
               a(3) = (  -0.564885  -0.495772   0.659633 )

     reciprocal axes: (cart. coord. in units 2 pi/alat)
               b(1) = (  1.000000 -0.130876  0.757998 )
               b(2) = (  0.000000  1.008528  0.757998 )
               b(3) = (  0.000000  0.000000  1.515995 )

     PseudoPot. # 1 for Xe read from file:
     /home/pragov/projects/rrg-bengioy-ad/pragov/crystal_structure_design/SSSP/Xe_ONCV_PBE-1.1.oncvpsp.upf
     MD5 check sum: f6ea899d5a535d3f5731d9e48edfe3e3
     Pseudo is Norm-conserving, Zval = 18.0
     Generated using ONCVPSP code by D. R. Hamann
     Using radial grid of 1106 points,  6 beta functions with:
                l(1) =   0
                l(2) =   0
                l(3) =   1
                l(4) =   1
                l(5) =   2
                l(6) =   2

     PseudoPot. # 2 for F  read from file:
     /home/pragov/projects/rrg-bengioy-ad/pragov/crystal_structure_design/SSSP/f_pbe_v1.4.uspp.F.UPF
     MD5 check sum: 4c38b6a325caf53ec0e86aed9459de46
     Pseudo is Ultrasoft, Zval =  7.0
     Generated by new atomic code, or converted to UPF format
     Using radial grid of  799 points,  4 beta functions with:
                l(1) =   0
                l(2) =   0
                l(3) =   1
                l(4) =   1
     Q(r) pseudized with  8 coefficients,  rinner =    0.950   0.950   0.950

     atomic species   valence    mass     pseudopotential
        Xe            18.00   131.29300     Xe( 1.00)
        F              7.00    18.99840     F ( 1.00)

      4 Sym. Ops., with inversion, found

                                    s                        frac. trans.

      isym =  1     identity

 cryst.   s( 1) = (     1          0          0      )
                  (     0          1          0      )
                  (     0          0          1      )

 cart.    s( 1) = (  1.0000000  0.0000000 -0.0000000 )
                  (  0.0000000  1.0000000  0.0000000 )
                  (  0.0000000  0.0000000  1.0000000 )

      isym =  2     180 deg rotation - cart. axis [0,0,1]

[...]

      isym =  3     inversion

[...]

      isym =  4     inv. 180 deg rotation - cart. axis [0,0,1]

 cryst.   s( 4) = (     1          0          0      )
                  (     0          1          0      )
                  (    -1         -1         -1      )

 cart.    s( 4) = (  1.0000000  0.0000000  0.0000000 )
                  (  0.0000000  1.0000000  0.0000000 )
                  (  0.0000000  0.0000000 -1.0000000 )

   Cartesian axes

     site n.     atom                  positions (alat units)
         1           Xe  tau(   1) = (   0.0000000   0.0000000   0.0000000  )
         2           F   tau(   2) = (   0.8047358   0.7062779   0.0000000  )
         3           F   tau(   3) = (   0.3250335   0.2852663   0.0000000  )

   Crystallographic axes

     site n.     atom                  positions (cryst. coord.)
         1           Xe  tau(   1) = (  0.0000000  0.0000000  0.0000000  )
         2           F   tau(   2) = (  0.7123010  0.7123010  0.0000000  )
         3           F   tau(   3) = (  0.2876990  0.2876990  0.0000000  )

     number of k points=     1  Methfessel-Paxton smearing, width (Ry)=  0.0010
                       cart. coord. in units 2pi/alat
        k(    1) = (   0.0000000   0.0000000   0.0000000), wk =   2.0000000

                       cryst. coord.
        k(    1) = (   0.0000000   0.0000000   0.0000000), wk =   2.0000000

     Initial potential from superposition of free atoms

     starting charge      32.0000, renormalised to      32.0000
     Starting wfcs are   17 randomized atomic wfcs +    3 random wfcs

     Self-consistent Calculation

     iteration #  1     ecut=    30.00 Ry     beta= 0.70
     Davidson diagonalization with overlap

     ethr =  1.00E-02,  avg # of iterations = 10.0

     total energy              =    -327.59312298 Ry
     estimated scf accuracy    <       0.57859166 Ry

[...]

     total energy              =    -327.85266109 Ry
     estimated scf accuracy    <       0.00001667 Ry

     iteration #  7     ecut=    30.00 Ry     beta= 0.70
     Davidson diagonalization with overlap

     ethr =  5.21E-08,  avg # of iterations =  2.0

     End of self-consistent calculation

          k = 0.0000 0.0000 0.0000 (   674 PWs)   bands (ev):

   -53.7290 -53.2582 -52.7081 -52.2135 -51.1995 -19.6321 -19.2780 -12.2473
    -3.6806  -0.9039  -0.6443  -0.6108  -0.4917  -0.4879   0.8334   0.8892
     5.0755   8.8836  11.6427  14.1855

     occupation numbers
     1.0000   1.0000   1.0000   1.0000   1.0000   1.0000   1.0000   1.0000
     1.0000   1.0000   1.0000   1.0000   1.0000   1.0000   1.0000   1.0000
    -0.0000  -0.0000  -0.0000  -0.0000

     the Fermi energy is     1.5365 ev

!    total energy              =    -327.85266373 Ry
     estimated scf accuracy    <       0.00000008 Ry
     smearing contrib. (-TS)   =       0.00000000 Ry
     internal energy E=F+TS    =    -327.85266373 Ry

     The total energy is F=E-TS. E is the sum of the following terms:
     one-electron contribution =    -202.37852208 Ry
     hartree contribution      =     103.74355118 Ry
     xc contribution           =     -40.04850777 Ry
     ewald contribution        =    -189.16918506 Ry

     convergence has been achieved in   7 iterations

     Forces acting on atoms (cartesian axes, Ry/au):

     atom    1 type  1   force =     0.00000000    0.00000000   -0.00000000
     atom    2 type  2   force =     0.00487536    0.00796540    0.00000000
     atom    3 type  2   force =    -0.00487536   -0.00796540   -0.00000000
     The non-local contrib.  to forces
     atom    1 type  1   force =     0.00000000    0.00000000   -0.00000000
     atom    2 type  2   force =     0.73652758    0.64778631    0.00000000
     atom    3 type  2   force =    -0.73652758   -0.64778631   -0.00000000
     The ionic contribution  to forces
     atom    1 type  1   force =     0.00000000    0.00000000    0.00000000
     atom    2 type  2   force =    -6.85986425   -6.02057342    0.00000000
     atom    3 type  2   force =     6.85986425    6.02057342   -0.00000000
     The local contribution  to forces
     atom    1 type  1   force =    -0.00004982   -0.00002113    0.00004657
     atom    2 type  2   force =     6.12801464    5.38051276    0.00039180
     atom    3 type  2   force =    -6.12805627   -5.38052464   -0.00038021
     The core correction contribution to forces
     atom    1 type  1   force =     0.00000000    0.00000000    0.00000000
     atom    2 type  2   force =     0.00000000    0.00000000    0.00000000
     atom    3 type  2   force =     0.00000000    0.00000000    0.00000000
     The Hubbard contrib.    to forces
     atom    1 type  1   force =     0.00000000    0.00000000    0.00000000
     atom    2 type  2   force =     0.00000000    0.00000000    0.00000000
     atom    3 type  2   force =     0.00000000    0.00000000    0.00000000
     The SCF correction term to forces
     atom    1 type  1   force =     0.00006180   -0.00000296   -0.00006689
     atom    2 type  2   force =     0.00020509    0.00024519   -0.00007284
     atom    3 type  2   force =    -0.00014805   -0.00022242    0.00004729

     Total force =     0.013207     Total SCF correction =     0.000435

     Computing stress (Cartesian axis) and pressure

          total   stress  (Ry/bohr**3)                   (kbar)     P=    -1300.00
  -0.01080413  -0.00142317  -0.00000000        -1589.34     -209.36       -0.00
  -0.00142317  -0.00736083  -0.00000000         -209.36    -1082.82       -0.00
  -0.00000000  -0.00000000  -0.00834673           -0.00       -0.00    -1227.85

     kinetic stress (kbar)  26204.26   -628.34      0.00
                             -628.34  26510.21      0.00
                                0.00      0.00  26950.50

     local   stress (kbar) -10338.97 -15906.09    -12.85
                           -15906.09  -6061.20    -27.42
                              -12.85    -27.42   7873.70

     nonloc. stress (kbar) -12898.46   -336.86     -0.00
                             -336.86 -12585.95     -0.00
                               -0.00     -0.00 -12496.13

     hartree stress (kbar)  13181.80   5967.36     -0.29
                             5967.36  11591.95     11.03
                               -0.29     11.03   6366.75

     exc-cor stress (kbar)  -3801.22      8.88     -0.31
                                8.88  -3804.07      0.72
                               -0.31      0.72  -3810.61

     corecor stress (kbar)      0.00      0.00      0.00
                                0.00      0.00      0.00
                                0.00      0.00      0.00

     ewald   stress (kbar) -13936.75  10685.69      0.00
                            10685.69 -16733.75      0.00
                                0.00      0.00 -26112.06

     hubbard stress (kbar)      0.00      0.00      0.00
                                0.00      0.00      0.00
                                0.00      0.00      0.00

     DFT-D   stress (kbar)      0.00      0.00      0.00
                                0.00      0.00      0.00
                                0.00      0.00      0.00

     XDM     stress (kbar)      0.00      0.00      0.00
                                0.00      0.00      0.00
                                0.00      0.00      0.00

     dft-nl  stress (kbar)      0.00      0.00      0.00
                                0.00      0.00      0.00
                                0.00      0.00      0.00

     TS-vdW  stress (kbar)      0.00      0.00      0.00
                                0.00      0.00      0.00
                                0.00      0.00      0.00

[...]

                                0.00      0.00      0.00

     Writing all to output data dir new_calculations/myprefix.save/

     General routines

     Parallel routines

   This run was terminated on:  20:10:50  20May2023

   JOB DONE.