     Program PWSCF v.7.0 starts on 21May2023 at 13:38: 4

     Reading input from espresso_22776.pwi
Warning: card &CELL ignored
Warning: card / ignored

     Current dimensions of program PWSCF are:
     Max number of different atomic species (ntypx) = 10
     Max number of k-points (npk) =  40000
     Max angular momentum in pseudopotentials (lmaxx) =  4
     file C.pbe-n-kjpaw_psl.1.0.0.UPF: wavefunction(s)  2S 2P renormalized

     gamma-point specific algorithms are used
     Message from routine setup:
     using ibrav=0 with symmetry is DISCOURAGED, use correct ibrav instead

     Subspace diagonalization in iterative solution of the eigenvalue problem:
     a serial algorithm will be used

     Using Slab Decomposition

     bravais-lattice index     =            0
     lattice parameter (alat)  =       6.1347  a.u.
     unit-cell volume          =    1120.7622 (a.u.)^3
     number of atoms/cell      =           16
     number of atomic types    =            3
     number of electrons       =       132.00
     number of Kohn-Sham states=           79
     kinetic-energy cutoff     =      30.0000  Ry
     charge density cutoff     =     240.0000  Ry
     scf convergence threshold =      1.0E-06
     mixing beta               =       0.7000
     number of iterations used =            8  plain     mixing
     Exchange-correlation= SLA  PW   PBX  PBC
                           (   1   4   3   4   0   0   0)

     celldm(1)=   6.134656  celldm(2)=   0.000000  celldm(3)=   0.000000
     celldm(4)=   0.000000  celldm(5)=   0.000000  celldm(6)=   0.000000

     crystal axes: (cart. coord. in units of alat)
               a(1) = (   1.000000   0.000000   0.000000 )
               a(2) = (   0.000000   1.743805   0.000000 )
               a(3) = (   0.000000   0.000000   2.783845 )

     reciprocal axes: (cart. coord. in units 2 pi/alat)
               b(1) = (  1.000000  0.000000  0.000000 )
               b(2) = (  0.000000  0.573459  0.000000 )
               b(3) = (  0.000000  0.000000  0.359215 )

     PseudoPot. # 1 for Sc read from file:
     /home/pragov/projects/rrg-bengioy-ad/pragov/crystal_structure_design/SSSP/Sc_ONCV_PBE-1.0.oncvpsp.upf
     MD5 check sum: e21af8023abb52e52cb7cd3133e4a229
     Pseudo is Norm-conserving, Zval = 11.0
     Generated using ONCVPSP code by D. R. Hamann
     Using radial grid of 1662 points,  6 beta functions with:
                l(1) =   0
                l(2) =   0
                l(3) =   1
                l(4) =   1
                l(5) =   2
                l(6) =   2

     PseudoPot. # 2 for Cr read from file:
     /home/pragov/projects/rrg-bengioy-ad/pragov/crystal_structure_design/SSSP/cr_pbe_v1.5.uspp.F.UPF
     MD5 check sum: 0d52af634a40206e4dee301ad30da4bf
     Pseudo is Ultrasoft + core correction, Zval = 14.0
     Generated by new atomic code, or converted to UPF format
     Using radial grid of  857 points,  6 beta functions with:
                l(1) =   0
                l(2) =   0
                l(3) =   1
                l(4) =   1
                l(5) =   2
                l(6) =   2
     Q(r) pseudized with  8 coefficients,  rinner =    0.950   0.950   0.950
                                                       0.950   0.950

     PseudoPot. # 3 for C  read from file:
     /home/pragov/projects/rrg-bengioy-ad/pragov/crystal_structure_design/SSSP/C.pbe-n-kjpaw_psl.1.0.0.UPF
     MD5 check sum: 5d2aebdfa2cae82b50a7e79e9516da0f
     Pseudo is Projector augmented-wave + core cor, Zval =  4.0
     Generated using "atomic" code by A. Dal Corso  v.5.1
     Shape of augmentation charge: PSQ
     Using radial grid of 1073 points,  4 beta functions with:
                l(1) =   0
                l(2) =   0
                l(3) =   1
                l(4) =   1
     Q(r) pseudized with 0 coefficients

     atomic species   valence    mass     pseudopotential
        Sc            11.00    44.95591     Sc( 1.00)
        Cr            14.00    51.99610     Cr( 1.00)
        C              4.00    12.01100     C ( 1.00)

      8 Sym. Ops., with inversion, found ( 4 have fractional translation)

                                    s                        frac. trans.

      isym =  1     identity

 cryst.   s( 1) = (     1          0          0      )
                  (     0          1          0      )
                  (     0          0          1      )

 cart.    s( 1) = (  1.0000000  0.0000000  0.0000000 )
                  (  0.0000000  1.0000000  0.0000000 )
                  (  0.0000000  0.0000000  1.0000000 )

      isym =  2     180 deg rotation - cart. axis [0,0,1]

 cryst.   s( 2) = (    -1          0          0      )    f =(  0.5000000 )
                  (     0         -1          0      )       (  0.0000000 )
                  (     0          0          1      )       (  0.5000000 )

 cart.    s( 2) = ( -1.0000000  0.0000000  0.0000000 )    f =(  0.5000000 )
                  (  0.0000000 -1.0000000  0.0000000 )       (  0.0000000 )
                  (  0.0000000  0.0000000  1.0000000 )       (  1.3919225 )

[...]

      isym =  4     180 deg rotation - cart. axis [1,0,0]

[...]

      isym =  5     inversion

[...]

      isym =  6     inv. 180 deg rotation - cart. axis [0,0,1]

[...]

 cryst.   s( 7) = (     1          0          0      )    f =( -0.5000000 )
                  (     0         -1          0      )       (  0.0000000 )
                  (     0          0          1      )       (  0.5000000 )

 cart.    s( 7) = (  1.0000000  0.0000000  0.0000000 )    f =( -0.5000000 )
                  (  0.0000000 -1.0000000  0.0000000 )       (  0.0000000 )
                  (  0.0000000  0.0000000  1.0000000 )       (  1.3919225 )

      isym =  8     inv. 180 deg rotation - cart. axis [1,0,0]

 cryst.   s( 8) = (    -1          0          0      )
                  (     0          1          0      )
                  (     0          0          1      )

 cart.    s( 8) = ( -1.0000000  0.0000000  0.0000000 )
                  (  0.0000000  1.0000000  0.0000000 )
                  (  0.0000000  0.0000000  1.0000000 )

   Cartesian axes

     site n.     atom                  positions (alat units)
         1           Sc  tau(   1) = (   0.0000000   0.4396585   2.0905006  )
         2           Sc  tau(   2) = (   0.0000000   0.4396585   0.6933445  )
         3           Sc  tau(   3) = (   0.5000000   1.3041462   2.0852670  )
         4           Sc  tau(   4) = (   0.5000000   1.3041462   0.6985781  )
         5           Cr  tau(   5) = (   0.0000000   1.6075926   1.3919225  )
         6           Cr  tau(   6) = (   0.5000000   0.1362121   0.0000000  )
         7           Cr  tau(   7) = (   0.0000000   1.0315651   0.0000000  )
         8           Cr  tau(   8) = (   0.5000000   0.7122396   1.3919225  )
         9           C   tau(   9) = (   0.0000000   1.0202635   1.1599420  )
        10           C   tau(  10) = (   0.0000000   1.0202635   1.6239031  )
        11           C   tau(  11) = (   0.5000000   0.7235412   0.2319806  )
        12           C   tau(  12) = (   0.5000000   0.7235412   2.5518645  )
        13           C   tau(  13) = (   0.0000000   1.6009051   2.5457512  )
        14           C   tau(  14) = (   0.0000000   1.6009051   0.2380939  )
        15           C   tau(  15) = (   0.5000000   0.1428996   1.6300165  )
        16           C   tau(  16) = (   0.5000000   0.1428996   1.1538286  )

   Crystallographic axes

     site n.     atom                  positions (cryst. coord.)
         1           Sc  tau(   1) = (  0.0000000  0.2521260  0.7509400  )
         2           Sc  tau(   2) = (  0.0000000  0.2521260  0.2490600  )
         3           Sc  tau(   3) = (  0.5000000  0.7478740  0.7490600  )
         4           Sc  tau(   4) = (  0.5000000  0.7478740  0.2509400  )
         5           Cr  tau(   5) = (  0.0000000  0.9218880  0.5000000  )
         6           Cr  tau(   6) = (  0.5000000  0.0781120  0.0000000  )
         7           Cr  tau(   7) = (  0.0000000  0.5915600  0.0000000  )
         8           Cr  tau(   8) = (  0.5000000  0.4084400  0.5000000  )
         9           C   tau(   9) = (  0.0000000  0.5850790  0.4166690  )
        10           C   tau(  10) = (  0.0000000  0.5850790  0.5833310  )
        11           C   tau(  11) = (  0.5000000  0.4149210  0.0833310  )
        12           C   tau(  12) = (  0.5000000  0.4149210  0.9166690  )
        13           C   tau(  13) = (  0.0000000  0.9180530  0.9144730  )
        14           C   tau(  14) = (  0.0000000  0.9180530  0.0855270  )
        15           C   tau(  15) = (  0.5000000  0.0819470  0.5855270  )
        16           C   tau(  16) = (  0.5000000  0.0819470  0.4144730  )

     number of k points=     1  Methfessel-Paxton smearing, width (Ry)=  0.0010
                       cart. coord. in units 2pi/alat
        k(    1) = (   0.0000000   0.0000000   0.0000000), wk =   2.0000000

                       cryst. coord.
        k(    1) = (   0.0000000   0.0000000   0.0000000), wk =   2.0000000

     Check: negative core charge=   -0.000027

     Initial potential from superposition of free atoms

     starting charge     127.9890, renormalised to     132.0000

     negative rho (up, down):  8.652E-03 0.000E+00
     Starting wfcs are  112 randomized atomic wfcs
     Checking if some PAW data can be deallocated...

     Self-consistent Calculation

     iteration #  1     ecut=    30.00 Ry     beta= 0.70
     Davidson diagonalization with overlap

     ethr =  1.00E-02,  avg # of iterations =  3.0

     negative rho (up, down):  1.202E-02 0.000E+00

     total energy              =   -1212.84407574 Ry
     estimated scf accuracy    <       6.83773056 Ry

[...]

     c_bands:  1 eigenvalues not converged
     ethr =  6.21E-07,  avg # of iterations = 20.0

[...]

     total energy              =   -1216.82890474 Ry
     estimated scf accuracy    <       0.00000124 Ry

     iteration # 29     ecut=    30.00 Ry     beta= 0.70
     Davidson diagonalization with overlap

     ethr =  9.43E-10,  avg # of iterations =  2.0

[...]

     End of self-consistent calculation

          k = 0.0000 0.0000 0.0000 (  1571 PWs)   bands (ev):

   -56.4750 -56.4747 -56.3351 -56.3349 -33.8901 -33.8887 -33.8439 -33.8434
   -28.1923 -28.1917 -27.9818 -27.9816 -27.9289 -27.9287 -27.8372 -27.8358
   -27.4822 -27.4787 -27.4419 -27.4371 -12.8601 -12.8535 -12.6412 -12.6102
   -12.5433 -12.5371 -12.4873 -12.4864 -12.3888 -12.3877 -12.3074 -12.3073
    -0.6954  -0.3673   0.4901   0.6121   5.2498   6.2349   6.8688   7.2011
     7.8603   8.1228   8.5999   9.5049   9.5574   9.7985   9.8528  10.3110
    10.7122  10.8927  10.8938  11.2488  11.6336  11.9941  12.4760  12.6290
    13.0293  13.0918  13.1445  13.7243  13.7516  14.5422  15.0782  15.1767
    15.2893  15.3010  15.4464  15.9142  15.9318  16.1965  16.2299  16.3774
    16.4204  16.4699  16.5973  17.7506  17.9161  18.1402  18.1507

     occupation numbers
     1.0000   1.0000   1.0000   1.0000   1.0000   1.0000   1.0000   1.0000
     1.0000   1.0000   1.0000   1.0000   1.0000   1.0000   1.0000   1.0000
     1.0000   1.0000   1.0000   1.0000   1.0000   1.0000   1.0000   1.0000
     1.0000   1.0000   1.0000   1.0000   1.0000   1.0000   1.0000   1.0000
     1.0000   1.0000   1.0000   1.0000   1.0000   1.0000   1.0000   1.0000
     1.0000   1.0000   1.0000   1.0000   1.0000   1.0000   1.0000   1.0000
     1.0000   1.0000   1.0000   1.0000   1.0000   1.0000   1.0000   1.0000
     1.0000   1.0000   1.0000   1.0000   1.0000   1.0000   1.0000   1.0000
     1.0000   1.0000  -0.0000  -0.0000  -0.0000  -0.0000  -0.0000  -0.0000
    -0.0000  -0.0000  -0.0000  -0.0000  -0.0000  -0.0000  -0.0000

     the Fermi energy is    15.3793 ev

!    total energy              =   -1216.82890481 Ry
     estimated scf accuracy    <       0.00000007 Ry
     smearing contrib. (-TS)   =       0.00000000 Ry
     internal energy E=F+TS    =   -1216.82890481 Ry

     The total energy is F=E-TS. E is the sum of the following terms:
     one-electron contribution =    -404.52095990 Ry
     hartree contribution      =     268.85059816 Ry
     xc contribution           =    -175.36732241 Ry
     ewald contribution        =    -856.43545899 Ry
     one-center paw contrib.   =     -49.35576168 Ry
      -> PAW hartree energy AE =      61.99922271 Ry
      -> PAW hartree energy PS =     -61.93122224 Ry
      -> PAW xc energy AE      =     -82.00116882 Ry
      -> PAW xc energy PS      =      32.57740667 Ry
      -> total E_H with PAW    =     268.91859863 Ry
      -> total E_XC with PAW   =    -224.79108456 Ry

     convergence has been achieved in  29 iterations

     negative rho (up, down):  9.015E-03 0.000E+00

     Forces acting on atoms (cartesian axes, Ry/au):

     atom    1 type  1   force =     0.00000000   -0.00096250   -0.01788637
     atom    2 type  1   force =    -0.00000000   -0.00096250    0.01788637
     atom    3 type  1   force =     0.00000000    0.00096250    0.01788637
     atom    4 type  1   force =     0.00000000    0.00096250   -0.01788637
     atom    5 type  2   force =     0.00000000    0.07485778    0.00000000
     atom    6 type  2   force =    -0.00000000   -0.07485778    0.00000000
     atom    7 type  2   force =     0.00000000    0.00618880    0.00000000
     atom    8 type  2   force =    -0.00000000   -0.00618880    0.00000000
     atom    9 type  3   force =    -0.00000000    0.00178379    0.06478125
     atom   10 type  3   force =     0.00000000    0.00178379   -0.06478125
     atom   11 type  3   force =     0.00000000   -0.00178379   -0.06478125
     atom   12 type  3   force =     0.00000000   -0.00178379    0.06478125
     atom   13 type  3   force =     0.00000000    0.00092077    0.04254720
     atom   14 type  3   force =     0.00000000    0.00092077   -0.04254720
     atom   15 type  3   force =    -0.00000000   -0.00092077   -0.04254720
     atom   16 type  3   force =     0.00000000   -0.00092077    0.04254720
     The non-local contrib.  to forces
     atom    1 type  1   force =     0.00000000   -0.00348118    0.00060001
     atom    2 type  1   force =    -0.00000000   -0.00348118   -0.00060001
     atom    3 type  1   force =     0.00000000    0.00348118   -0.00060001
     atom    4 type  1   force =     0.00000000    0.00348118    0.00060001
     atom    5 type  2   force =     0.00000000    0.27631730    0.00000000
     atom    6 type  2   force =    -0.00000000   -0.27631730    0.00000000
     atom    7 type  2   force =     0.00000000   -0.23674901    0.00000000
     atom    8 type  2   force =     0.00000000    0.23674901    0.00000000
     atom    9 type  3   force =     0.00000000    0.05185611    0.39960360
     atom   10 type  3   force =     0.00000000    0.05185611   -0.39960360
     atom   11 type  3   force =     0.00000000   -0.05185611   -0.39960360
     atom   12 type  3   force =     0.00000000   -0.05185611    0.39960360
     atom   13 type  3   force =     0.00000000   -0.01826863    0.43190050
     atom   14 type  3   force =     0.00000000   -0.01826863   -0.43190050
     atom   15 type  3   force =     0.00000000    0.01826863   -0.43190050
     atom   16 type  3   force =    -0.00000000    0.01826863    0.43190050
     The ionic contribution  to forces
     atom    1 type  1   force =     0.00000000    0.21443276    0.32688221
     atom    2 type  1   force =     0.00000000    0.21443276   -0.32688221
     atom    3 type  1   force =     0.00000000   -0.21443276   -0.32688221
     atom    4 type  1   force =     0.00000000   -0.21443276    0.32688221
     atom    5 type  2   force =    -0.00000000   -1.30789049    0.00000000
     atom    6 type  2   force =    -0.00000000    1.30789049   -0.00000000
     atom    7 type  2   force =    -0.00000000   -1.40783716   -0.00000000
     atom    8 type  2   force =    -0.00000000    1.40783716    0.00000000
     atom    9 type  3   force =    -0.00000000    0.17147581   -5.40821285
     atom   10 type  3   force =    -0.00000000    0.17147581    5.40821285
     atom   11 type  3   force =     0.00000000   -0.17147581    5.40821285
     atom   12 type  3   force =     0.00000000   -0.17147581   -5.40821285
     atom   13 type  3   force =    -0.00000000    0.21344353   -5.84582634
     atom   14 type  3   force =     0.00000000    0.21344353    5.84582634
     atom   15 type  3   force =     0.00000000   -0.21344353    5.84582634
     atom   16 type  3   force =     0.00000000   -0.21344353   -5.84582634
     The local contribution  to forces
     atom    1 type  1   force =     0.00000154   -0.21199205   -0.34552550
     atom    2 type  1   force =     0.00000009   -0.21215870    0.34541476
     atom    3 type  1   force =     0.00000244    0.21199343    0.34538755
     atom    4 type  1   force =     0.00000432    0.21217831   -0.34553323
     atom    5 type  2   force =     0.00000056    1.12174784    0.00036338
     atom    6 type  2   force =     0.00000044   -1.12179974   -0.00023126
     atom    7 type  2   force =     0.00000025    1.63738425   -0.00028923
     atom    8 type  2   force =     0.00000478   -1.63732475    0.00053939
     atom    9 type  3   force =    -0.00000289   -0.22026345    5.07728066
     atom   10 type  3   force =    -0.00000200   -0.22028765   -5.07699387
     atom   11 type  3   force =     0.00000268    0.22029598   -5.07725069
     atom   12 type  3   force =    -0.00000059    0.22029663    5.07705894
     atom   13 type  3   force =    -0.00000360   -0.19444936    5.46126678
     atom   14 type  3   force =    -0.00000398   -0.19444800   -5.46138752
     atom   15 type  3   force =     0.00000036    0.19443232   -5.46122320
     atom   16 type  3   force =     0.00000050    0.19440632    5.46138847
     The core correction contribution to forces
     atom    1 type  1   force =     0.00000000    0.00000000    0.00000000
     atom    2 type  1   force =     0.00000000    0.00000000    0.00000000
     atom    3 type  1   force =     0.00000000    0.00000000    0.00000000
     atom    4 type  1   force =     0.00000000    0.00000000    0.00000000
     atom    5 type  2   force =     0.00000010   -0.01499174    0.00000008
     atom    6 type  2   force =    -0.00000005    0.01499246    0.00000023
     atom    7 type  2   force =     0.00000002    0.01377667    0.00000004
     atom    8 type  2   force =    -0.00000001   -0.01377719    0.00000017
     atom    9 type  3   force =    -0.00000004   -0.00130030   -0.00371674
     atom   10 type  3   force =    -0.00000002   -0.00130021    0.00371717
     atom   11 type  3   force =     0.00000005    0.00130019    0.00371688
     atom   12 type  3   force =    -0.00000003    0.00130054   -0.00371705
     atom   13 type  3   force =    -0.00000004    0.00014209   -0.00476218
     atom   14 type  3   force =    -0.00000007    0.00014239    0.00476189
     atom   15 type  3   force =     0.00000001   -0.00014234    0.00476203
     atom   16 type  3   force =     0.00000003   -0.00014195   -0.00476201
     The Hubbard contrib.    to forces
     atom    1 type  1   force =     0.00000000    0.00000000    0.00000000
     atom    2 type  1   force =     0.00000000    0.00000000    0.00000000
     atom    3 type  1   force =     0.00000000    0.00000000    0.00000000
     atom    4 type  1   force =     0.00000000    0.00000000    0.00000000
     atom    5 type  2   force =     0.00000000    0.00000000    0.00000000
     atom    6 type  2   force =     0.00000000    0.00000000    0.00000000
     atom    7 type  2   force =     0.00000000    0.00000000    0.00000000
     atom    8 type  2   force =     0.00000000    0.00000000    0.00000000
     atom    9 type  3   force =     0.00000000    0.00000000    0.00000000
     atom   10 type  3   force =     0.00000000    0.00000000    0.00000000
     atom   11 type  3   force =     0.00000000    0.00000000    0.00000000
     atom   12 type  3   force =     0.00000000    0.00000000    0.00000000
     atom   13 type  3   force =     0.00000000    0.00000000    0.00000000
     atom   14 type  3   force =     0.00000000    0.00000000    0.00000000
     atom   15 type  3   force =     0.00000000    0.00000000    0.00000000
     atom   16 type  3   force =     0.00000000    0.00000000    0.00000000
     The SCF correction term to forces
     atom    1 type  1   force =     0.00000026    0.00006479    0.00016036
     atom    2 type  1   force =    -0.00000034    0.00024790   -0.00004569
     atom    3 type  1   force =    -0.00000019   -0.00007576   -0.00001374
     atom    4 type  1   force =    -0.00000334   -0.00027772    0.00016691
     atom    5 type  2   force =     0.00000084   -0.00030592   -0.00035031
     atom    6 type  2   force =    -0.00000119    0.00039552    0.00019439
     atom    7 type  2   force =     0.00000262   -0.00040669    0.00027245
     atom    8 type  2   force =    -0.00000618    0.00030622   -0.00052706
     atom    9 type  3   force =     0.00000107    0.00001114   -0.00016549
     atom   10 type  3   force =     0.00000065    0.00004260   -0.00010353
     atom   11 type  3   force =    -0.00000081   -0.00005294    0.00013806
     atom   12 type  3   force =    -0.00000093   -0.00004574    0.00004573
     atom   13 type  3   force =     0.00000047    0.00005111   -0.00004279
     atom   14 type  3   force =     0.00000141    0.00005673    0.00015383
     atom   15 type  3   force =    -0.00000035   -0.00003891   -0.00001656
     atom   16 type  3   force =    -0.00000029   -0.00000398   -0.00014560

     Total force =     0.191340     Total SCF correction =     0.001160

     Computing stress (Cartesian axis) and pressure

     negative rho (up, down):  9.015E-03 0.000E+00
          total   stress  (Ry/bohr**3)                   (kbar)     P=      -96.36
  -0.00020964   0.00000000   0.00000000          -30.84        0.00        0.00
   0.00000000  -0.00193396   0.00000000            0.00     -284.49        0.00
   0.00000000   0.00000000   0.00017841            0.00        0.00       26.25

     kinetic stress (kbar)  30197.13      0.00      0.00
                                0.00  29846.54      0.00
                                0.00      0.00  30366.53

     local   stress (kbar)  -3775.91      0.00      0.00
                                0.00  -3807.17      0.00
                                0.00      0.00   9688.22

     nonloc. stress (kbar)   1664.32      0.00      0.00
                                0.00   1742.57      0.00
                                0.00      0.00   1848.37

     hartree stress (kbar)  13837.07     -0.00     -0.00
                               -0.00  13795.00      0.00
                               -0.00      0.00   7655.77

     exc-cor stress (kbar)  -4463.38     -0.00     -0.00
                               -0.00  -4464.33     -0.00
                               -0.00     -0.00  -4462.24

     corecor stress (kbar)  -2516.87      0.00      0.00
                                0.00  -2511.68      0.00
                                0.00      0.00  -2518.04

     ewald   stress (kbar) -34973.20      0.00      0.00
                                0.00 -34885.44      0.00
                                0.00      0.00 -42552.36

     hubbard stress (kbar)      0.00      0.00      0.00
                                0.00      0.00      0.00
                                0.00      0.00      0.00

     DFT-D   stress (kbar)      0.00      0.00      0.00
                                0.00      0.00      0.00
                                0.00      0.00      0.00

     XDM     stress (kbar)      0.00      0.00      0.00
                                0.00      0.00      0.00
                                0.00      0.00      0.00

     dft-nl  stress (kbar)      0.00      0.00      0.00
                                0.00      0.00      0.00
                                0.00      0.00      0.00

     TS-vdW  stress (kbar)      0.00      0.00      0.00
                                0.00      0.00      0.00
                                0.00      0.00      0.00

[...]

                                0.00      0.00      0.00

     Writing all to output data dir new_calculations/myprefix.save/

     General routines

     Parallel routines

     PAW routines

   This run was terminated on:  13:38:35  21May2023

   JOB DONE.