     Program PWSCF v.7.0 starts on 20May2023 at  3:39:32

     Reading input from espresso_6068.pwi
Warning: card &CELL ignored
Warning: card / ignored

     Current dimensions of program PWSCF are:
     Max number of different atomic species (ntypx) = 10
     Max number of k-points (npk) =  40000
     Max angular momentum in pseudopotentials (lmaxx) =  4
     file Fe.pbe-spn-kjpaw_psl.0.2.1.UPF: wavefunction(s)  3D renormalized

     gamma-point specific algorithms are used
     Message from routine setup:
     using ibrav=0 with symmetry is DISCOURAGED, use correct ibrav instead

     Subspace diagonalization in iterative solution of the eigenvalue problem:
     a serial algorithm will be used

     Using Slab Decomposition

     bravais-lattice index     =            0
     lattice parameter (alat)  =       5.9283  a.u.
     unit-cell volume          =    1075.0563 (a.u.)^3
     number of atoms/cell      =           14
     number of atomic types    =            3
     number of electrons       =       100.00
     number of Kohn-Sham states=           60
     kinetic-energy cutoff     =      30.0000  Ry
     charge density cutoff     =     240.0000  Ry
     scf convergence threshold =      1.0E-06
     mixing beta               =       0.7000
     number of iterations used =            8  plain     mixing
     Exchange-correlation=  SLA  PW   PBX  PBC
                           (   1   4   3   4   0   0   0)

     celldm(1)=   5.928324  celldm(2)=   0.000000  celldm(3)=   0.000000
     celldm(4)=   0.000000  celldm(5)=   0.000000  celldm(6)=   0.000000

     crystal axes: (cart. coord. in units of alat)
               a(1) = (   1.000000   0.000000   0.000000 )
               a(2) = (   0.000000   1.655719   0.000000 )
               a(3) = (   0.000000   1.399748   3.116369 )

     reciprocal axes: (cart. coord. in units 2 pi/alat)
               b(1) = (  1.000000  0.000000  0.000000 )
               b(2) = (  0.000000  0.603967 -0.271278 )
               b(3) = (  0.000000  0.000000  0.320886 )

     PseudoPot. # 1 for Li read from file:
     /home/pragov/projects/rrg-bengioy-ad/pragov/crystal_structure_design/SSSP/li_pbe_v1.4.uspp.F.UPF
     MD5 check sum: e912e257baa3777c20ea3d68f190483c
     Pseudo is Ultrasoft, Zval =  3.0
     Generated by new atomic code, or converted to UPF format
     Using radial grid of  751 points,  5 beta functions with:
                l(1) =   0
                l(2) =   0
                l(3) =   0
                l(4) =   1
                l(5) =   1
     Q(r) pseudized with 10 coefficients,  rinner =    1.150   1.150   1.150

     PseudoPot. # 2 for Fe read from file:
     /home/pragov/projects/rrg-bengioy-ad/pragov/crystal_structure_design/SSSP/Fe.pbe-spn-kjpaw_psl.0.2.1.UPF
     MD5 check sum: e86618425769142926afa95317d90200
     Pseudo is Projector augmented-wave + core cor, Zval = 16.0
     Generated using "atomic" code by A. Dal Corso  v.5.0.99 svn rev. 10869
     Shape of augmentation charge: PSQ
     Using radial grid of 1191 points,  6 beta functions with:
                l(1) =   0
                l(2) =   0
                l(3) =   1
                l(4) =   1
                l(5) =   2
                l(6) =   2
     Q(r) pseudized with 0 coefficients

     PseudoPot. # 3 for F  read from file:
     /home/pragov/projects/rrg-bengioy-ad/pragov/crystal_structure_design/SSSP/f_pbe_v1.4.uspp.F.UPF
     MD5 check sum: 4c38b6a325caf53ec0e86aed9459de46
     Pseudo is Ultrasoft, Zval =  7.0
     Generated by new atomic code, or converted to UPF format
     Using radial grid of  799 points,  4 beta functions with:
                l(1) =   0
                l(2) =   0
                l(3) =   1
                l(4) =   1
     Q(r) pseudized with  8 coefficients,  rinner =    0.950   0.950   0.950

     atomic species   valence    mass     pseudopotential
        Li             3.00     6.94000     Li( 1.00)
        Fe            16.00    55.84500     Fe( 1.00)
        F              7.00    18.99840     F ( 1.00)

      4 Sym. Ops., with inversion, found ( 2 have fractional translation)

                                    s                        frac. trans.

      isym =  1     identity

 cryst.   s( 1) = (     1          0          0      )
                  (     0          1          0      )
                  (     0          0          1      )

 cart.    s( 1) = (  1.0000000  0.0000000  0.0000000 )
                  (  0.0000000  1.0000000 -0.0000000 )
                  (  0.0000000  0.0000000  1.0000000 )

      isym =  2     180 deg rotation - cart. axis [1,0,0]

 cryst.   s( 2) = (     1          0          0      )    f =(  0.0000000 )
                  (     0         -1          0      )       ( -0.0000000 )
                  (     0          0         -1      )       ( -0.5000000 )

 cart.    s( 2) = (  1.0000000  0.0000000  0.0000000 )    f =(  0.0000000 )
                  (  0.0000000 -1.0000000  0.0000000 )       ( -0.6998738 )
                  (  0.0000000  0.0000000 -1.0000000 )       ( -1.5581845 )

      isym =  3     inversion

 cryst.   s( 3) = (    -1          0          0      )
                  (     0         -1          0      )
                  (     0          0         -1      )

 cart.    s( 3) = ( -1.0000000  0.0000000  0.0000000 )
                  (  0.0000000 -1.0000000  0.0000000 )
                  (  0.0000000  0.0000000 -1.0000000 )

      isym =  4     inv. 180 deg rotation - cart. axis [1,0,0]

 cryst.   s( 4) = (    -1          0          0      )    f =(  0.0000000 )
                  (     0          1          0      )       ( -0.0000000 )
                  (     0          0          1      )       ( -0.5000000 )

 cart.    s( 4) = ( -1.0000000  0.0000000  0.0000000 )    f =(  0.0000000 )
                  (  0.0000000  1.0000000 -0.0000000 )       ( -0.6998738 )
                  (  0.0000000  0.0000000  1.0000000 )       ( -1.5581845 )

   Cartesian axes

     site n.     atom                  positions (alat units)
         1           Li  tau(   1) = (   0.1109010   2.6709658   2.9060764  )
         2           Li  tau(   2) = (   0.1109010   1.0843743   1.7684771  )
         3           Li  tau(   3) = (   0.8890990   0.3845004   0.2102926  )
         4           Li  tau(   4) = (   0.8890990   1.9710920   1.3478919  )
         5           Fe  tau(   5) = (   0.4028560   1.1777962   0.7790922  )
         6           Fe  tau(   6) = (   0.5971440   1.8776700   2.3372767  )
         7           F   tau(   7) = (   0.6166120   2.3982265   2.7085017  )
         8           F   tau(   8) = (   0.9026920   0.9163705   1.1822413  )
         9           F   tau(   9) = (   0.6166120   1.3571136   1.9660517  )
        10           F   tau(  10) = (   0.0973080   1.6162444   2.7404258  )
        11           F   tau(  11) = (   0.9026920   1.4392219   0.3759432  )
        12           F   tau(  12) = (   0.3833880   1.6983527   1.1503172  )
        13           F   tau(  13) = (   0.0973080   2.1390957   1.9341276  )
        14           F   tau(  14) = (   0.3833880   0.6572397   0.4078673  )

   Crystallographic axes

     site n.     atom                  positions (cryst. coord.)
         1           Li  tau(   1) = (  0.1109010  0.8248220  0.9325200  )
         2           Li  tau(   2) = (  0.1109010  0.1751780  0.5674800  )
         3           Li  tau(   3) = (  0.8890990  0.1751780  0.0674800  )
         4           Li  tau(   4) = (  0.8890990  0.8248220  0.4325200  )
         5           Fe  tau(   5) = (  0.4028560  0.5000000  0.2500000  )
         6           Fe  tau(   6) = (  0.5971440  0.5000000  0.7500000  )
         7           F   tau(   7) = (  0.6166120  0.7136940  0.8691210  )
         8           F   tau(   8) = (  0.9026920  0.2327420  0.3793650  )
         9           F   tau(   9) = (  0.6166120  0.2863060  0.6308790  )
        10           F   tau(  10) = (  0.0973080  0.2327420  0.8793650  )
        11           F   tau(  11) = (  0.9026920  0.7672580  0.1206350  )
        12           F   tau(  12) = (  0.3833880  0.7136940  0.3691210  )
        13           F   tau(  13) = (  0.0973080  0.7672580  0.6206350  )
        14           F   tau(  14) = (  0.3833880  0.2863060  0.1308790  )

     number of k points=     1  Methfessel-Paxton smearing, width (Ry)=  0.0010
                       cart. coord. in units 2pi/alat
        k(    1) = (   0.0000000   0.0000000   0.0000000), wk =   2.0000000

                       cryst. coord.
        k(    1) = (   0.0000000   0.0000000   0.0000000), wk =   2.0000000

     Check: negative core charge=   -0.000093

     Initial potential from superposition of free atoms

     starting charge      98.1962, renormalised to     100.0000
     Starting wfcs are   78 randomized atomic wfcs
     Checking if some PAW data can be deallocated...

     Self-consistent Calculation

     iteration #  1     ecut=    30.00 Ry     beta= 0.70
     Davidson diagonalization with overlap

     ethr =  1.00E-02,  avg # of iterations =  2.0

     negative rho (up, down):  3.411E-05 0.000E+00

     total energy              =   -1101.45249094 Ry
     estimated scf accuracy    <       5.64080716 Ry

[...]

     total energy              =   -1105.51633348 Ry
     estimated scf accuracy    <       0.00000137 Ry

     iteration # 19     ecut=    30.00 Ry     beta= 0.70
     Davidson diagonalization with overlap

     ethr =  1.37E-09,  avg # of iterations =  2.0

[...]

     End of self-consistent calculation

          k = 0.0000 0.0000 0.0000 (  1488 PWs)   bands (ev):

   -82.2711 -82.2705 -47.9953 -47.9932 -47.9266 -47.9207 -47.7047 -47.7005
   -40.2285 -40.2272 -40.2158 -40.2145 -19.1710 -19.0493 -19.0117 -18.8947
   -18.1678 -18.0851 -18.0688 -17.9696  -2.1906  -1.5082  -1.3311  -1.1031
    -1.0609  -0.9944  -0.7805  -0.6201  -0.4819  -0.4744  -0.3847  -0.1463
    -0.1003  -0.0793   0.0959   0.6052   0.6210   0.7069   0.7431   0.7561
     0.8577   0.9074   0.9798   1.4136   3.5269   3.5613   4.1779   4.1791
     4.2497   4.2830   5.3504   5.3629   5.8565   5.9058   7.4928   9.1301
     9.7377  11.9467  12.0714  12.2000

     occupation numbers
     1.0000   1.0000   1.0000   1.0000   1.0000   1.0000   1.0000   1.0000
     1.0000   1.0000   1.0000   1.0000   1.0000   1.0000   1.0000   1.0000
     1.0000   1.0000   1.0000   1.0000   1.0000   1.0000   1.0000   1.0000
     1.0000   1.0000   1.0000   1.0000   1.0000   1.0000   1.0000   1.0000
     1.0000   1.0000   1.0000   1.0000   1.0000   1.0000   1.0000   1.0000
     1.0000   1.0000   1.0000   1.0000   1.0000   1.0000   1.0000   1.0000
     1.0000   1.0000  -0.0000  -0.0000  -0.0000  -0.0000  -0.0000  -0.0000
    -0.0000  -0.0000  -0.0000  -0.0000

     the Fermi energy is     4.9342 ev

!    total energy              =   -1105.51633376 Ry
     estimated scf accuracy    <       0.00000030 Ry
     smearing contrib. (-TS)   =       0.00000000 Ry
     internal energy E=F+TS    =   -1105.51633376 Ry

     The total energy is F=E-TS. E is the sum of the following terms:
     one-electron contribution =    -649.97109856 Ry
     hartree contribution      =     365.20761772 Ry
     xc contribution           =    -158.59750835 Ry
     ewald contribution        =    -510.02573493 Ry
     one-center paw contrib.   =    -152.12960965 Ry
      -> PAW hartree energy AE =     416.02818768 Ry
      -> PAW hartree energy PS =    -414.46109524 Ry
      -> PAW xc energy AE      =    -222.29128487 Ry
      -> PAW xc energy PS      =      68.59458277 Ry
      -> total E_H with PAW    =     366.77471016 Ry
      -> total E_XC with PAW   =    -312.29421044 Ry

     convergence has been achieved in  19 iterations

     negative rho (up, down):  9.554E-05 0.000E+00

     Forces acting on atoms (cartesian axes, Ry/au):

     atom    1 type  1   force =    -0.00167327   -0.03032089   -0.02675410
     atom    2 type  1   force =    -0.00167327    0.03032089    0.02675410
     atom    3 type  1   force =     0.00167327    0.03032089    0.02675410
     atom    4 type  1   force =     0.00167327   -0.03032089   -0.02675410
     atom    5 type  2   force =    -0.01355176    0.00000000    0.00000000
     atom    6 type  2   force =     0.01355176    0.00000000    0.00000000
     atom    7 type  3   force =    -0.00346817    0.02338977    0.01453113
     atom    8 type  3   force =     0.00311518    0.02148140   -0.03768838
     atom    9 type  3   force =    -0.00346817   -0.02338977   -0.01453113
     atom   10 type  3   force =    -0.00311518    0.02148140   -0.03768838
     atom   11 type  3   force =     0.00311518   -0.02148140    0.03768838
     atom   12 type  3   force =     0.00346817    0.02338977    0.01453113
     atom   13 type  3   force =    -0.00311518   -0.02148140    0.03768838
     atom   14 type  3   force =     0.00346817   -0.02338977   -0.01453113
     The non-local contrib.  to forces
     atom    1 type  1   force =     0.02643398   -0.01618153    0.01176392
     atom    2 type  1   force =     0.02643398    0.01618153   -0.01176392
     atom    3 type  1   force =    -0.02643398    0.01618153   -0.01176392
     atom    4 type  1   force =    -0.02643398   -0.01618153    0.01176392
     atom    5 type  2   force =     0.00642808    0.00000000    0.00000000
     atom    6 type  2   force =    -0.00642808    0.00000000    0.00000000
     atom    7 type  3   force =    -0.00828624   -0.31903144   -0.20653245
     atom    8 type  3   force =     0.07130660    0.12258221   -0.21010737
     atom    9 type  3   force =    -0.00828624    0.31903144    0.20653245
     atom   10 type  3   force =    -0.07130660    0.12258221   -0.21010737
     atom   11 type  3   force =     0.07130660   -0.12258221    0.21010737
     atom   12 type  3   force =     0.00828624   -0.31903144   -0.20653245
     atom   13 type  3   force =    -0.07130660   -0.12258221    0.21010737
     atom   14 type  3   force =     0.00828624    0.31903144    0.20653245
     The ionic contribution  to forces
     atom    1 type  1   force =     0.40509667    0.26165267    0.09545988
     atom    2 type  1   force =     0.40509667   -0.26165267   -0.09545988
     atom    3 type  1   force =    -0.40509667   -0.26165267   -0.09545988
     atom    4 type  1   force =    -0.40509667    0.26165267    0.09545988
     atom    5 type  2   force =     0.50922775    0.00000000   -0.00000000
     atom    6 type  2   force =    -0.50922775    0.00000000   -0.00000000
     atom    7 type  3   force =     0.05225764    8.46665420    5.19815993
     atom    8 type  3   force =    -0.44238997   -6.21558583    8.79998094
     atom    9 type  3   force =     0.05225764   -8.46665420   -5.19815993
     atom   10 type  3   force =     0.44238997   -6.21558583    8.79998094
     atom   11 type  3   force =    -0.44238997    6.21558583   -8.79998094
     atom   12 type  3   force =    -0.05225764    8.46665420    5.19815993
     atom   13 type  3   force =     0.44238997    6.21558583   -8.79998094
     atom   14 type  3   force =    -0.05225764   -8.46665420   -5.19815993
     The local contribution  to forces
     atom    1 type  1   force =    -0.43319838   -0.27584333   -0.13404473
     atom    2 type  1   force =    -0.43320875    0.27579029    0.13392416
     atom    3 type  1   force =     0.43319609    0.27582618    0.13403507
     atom    4 type  1   force =     0.43320514   -0.27576519   -0.13391906
     atom    5 type  2   force =    -0.52873230   -0.00014710    0.00084413
     atom    6 type  2   force =     0.52873954    0.00010252   -0.00080434
     atom    7 type  3   force =    -0.04743469   -8.12425893   -4.97728275
     atom    8 type  3   force =     0.37419585    6.11455119   -8.62741635
     atom    9 type  3   force =    -0.04744361    8.12425857    4.97692581
     atom   10 type  3   force =    -0.37420341    6.11452288   -8.62775604
     atom   11 type  3   force =     0.37420104   -6.11455142    8.62774656
     atom   12 type  3   force =     0.04744040   -8.12427950   -4.97693131
     atom   13 type  3   force =    -0.37420003   -6.11452024    8.62742357
     atom   14 type  3   force =     0.04743595    8.12427342    4.97728590
     The core correction contribution to forces
     atom    1 type  1   force =     0.00000000    0.00000000    0.00000000
     atom    2 type  1   force =     0.00000000    0.00000000    0.00000000
     atom    3 type  1   force =     0.00000000    0.00000000    0.00000000
     atom    4 type  1   force =     0.00000000    0.00000000    0.00000000
     atom    5 type  2   force =    -0.00046792   -0.00000103    0.00000449
     atom    6 type  2   force =     0.00046800   -0.00000072   -0.00000488
     atom    7 type  3   force =     0.00000000    0.00000000    0.00000000
     atom    8 type  3   force =     0.00000000    0.00000000    0.00000000
     atom    9 type  3   force =     0.00000000    0.00000000    0.00000000
     atom   10 type  3   force =     0.00000000    0.00000000    0.00000000
     atom   11 type  3   force =     0.00000000    0.00000000    0.00000000
     atom   12 type  3   force =     0.00000000    0.00000000    0.00000000
     atom   13 type  3   force =     0.00000000    0.00000000    0.00000000
     atom   14 type  3   force =     0.00000000    0.00000000    0.00000000
     The Hubbard contrib.    to forces
     atom    1 type  1   force =     0.00000000    0.00000000    0.00000000
     atom    2 type  1   force =     0.00000000    0.00000000    0.00000000
     atom    3 type  1   force =     0.00000000    0.00000000    0.00000000
     atom    4 type  1   force =     0.00000000    0.00000000    0.00000000
     atom    5 type  2   force =     0.00000000    0.00000000    0.00000000
     atom    6 type  2   force =     0.00000000    0.00000000    0.00000000
     atom    7 type  3   force =     0.00000000    0.00000000    0.00000000
     atom    8 type  3   force =     0.00000000    0.00000000    0.00000000
     atom    9 type  3   force =     0.00000000    0.00000000    0.00000000
     atom   10 type  3   force =     0.00000000    0.00000000    0.00000000
     atom   11 type  3   force =     0.00000000    0.00000000    0.00000000
     atom   12 type  3   force =     0.00000000    0.00000000    0.00000000
     atom   13 type  3   force =     0.00000000    0.00000000    0.00000000
     atom   14 type  3   force =     0.00000000    0.00000000    0.00000000
     The SCF correction term to forces
     atom    1 type  1   force =    -0.00000577    0.00005206    0.00006630
     atom    2 type  1   force =     0.00000428   -0.00000306    0.00006187
     atom    3 type  1   force =     0.00000675   -0.00003131   -0.00006660
     atom    4 type  1   force =    -0.00000092   -0.00002953   -0.00005962
     atom    5 type  2   force =    -0.00001523    0.00019907   -0.00112909
     atom    6 type  2   force =    -0.00000780   -0.00014463    0.00107079
     atom    7 type  3   force =    -0.00000931    0.00002282    0.00027833
     atom    8 type  3   force =     0.00000558   -0.00005498   -0.00023427
     atom    9 type  3   force =     0.00000064    0.00000187    0.00025824
     atom   10 type  3   force =     0.00000465   -0.00004761    0.00028724
     atom   11 type  3   force =    -0.00000289    0.00009084   -0.00026415
     atom   12 type  3   force =    -0.00000398    0.00005598   -0.00025527
     atom   13 type  3   force =     0.00000419    0.00001222    0.00022240
     atom   14 type  3   force =    -0.00000107   -0.00006153   -0.00027551

     Total force =     0.132538     Total SCF correction =     0.001751

     Computing stress (Cartesian axis) and pressure

     negative rho (up, down):  9.554E-05 0.000E+00
          total   stress  (Ry/bohr**3)                   (kbar)     P=     -249.53
  -0.00112093   0.00000000   0.00000000         -164.89        0.00        0.00
   0.00000000  -0.00188937   0.00007472            0.00     -277.94       10.99
   0.00000000   0.00007472  -0.00207848            0.00       10.99     -305.75

     kinetic stress (kbar)  23094.61      0.00      0.00
                                0.00  22930.61      3.54
                                0.00      3.54  22866.32

     local   stress (kbar) -15638.19      0.01     -0.01
                                0.01   1440.17  -5577.78
                               -0.01  -5577.78   1169.96

     nonloc. stress (kbar)  -5607.97      0.00      0.00
                                0.00  -5653.99    -12.45
                                0.00    -12.45  -5666.28

     hartree stress (kbar)  21722.00     -0.01      0.01
                               -0.01  13983.20   2268.13
                                0.01   2268.13  14267.90

     exc-cor stress (kbar)  -4249.94     -0.00      0.00
                               -0.00  -4246.70      3.61
                                0.00      3.61  -4249.15

     corecor stress (kbar)  -2371.54     -0.00     -0.00
                               -0.00  -2375.86     -1.03
                               -0.00     -1.03  -2374.50

     ewald   stress (kbar) -17113.87      0.00      0.00
                                0.00 -26355.37   3326.96
                                0.00   3326.96 -26320.02

     hubbard stress (kbar)      0.00      0.00      0.00
                                0.00      0.00      0.00
                                0.00      0.00      0.00

     DFT-D   stress (kbar)      0.00      0.00      0.00
                                0.00      0.00      0.00
                                0.00      0.00      0.00

     XDM     stress (kbar)      0.00      0.00      0.00
                                0.00      0.00      0.00
                                0.00      0.00      0.00

     dft-nl  stress (kbar)      0.00      0.00      0.00
                                0.00      0.00      0.00
                                0.00      0.00      0.00

     TS-vdW  stress (kbar)      0.00      0.00      0.00
                                0.00      0.00      0.00
                                0.00      0.00      0.00

[...]

                                0.00      0.00      0.00

     Writing all to output data dir new_calculations/myprefix.save/

     General routines

     Parallel routines

     PAW routines

   This run was terminated on:   3:40: 4  20May2023

   JOB DONE.