     Program PWSCF v.7.0 starts on 20May2023 at 23:22:12

     Reading input from espresso_9746.pwi
Warning: card &CELL ignored
Warning: card / ignored

     Current dimensions of program PWSCF are:
     Max number of different atomic species (ntypx) = 10
     Max number of k-points (npk) =  40000
     Max angular momentum in pseudopotentials (lmaxx) =  4
     file Mg.pbe-n-kjpaw_psl.0.3.0.UPF: wavefunction(s)  3S renormalized

     gamma-point specific algorithms are used
     Message from routine setup:
     using ibrav=0 with symmetry is DISCOURAGED, use correct ibrav instead

     Subspace diagonalization in iterative solution of the eigenvalue problem:
     a serial algorithm will be used

     Using Slab Decomposition

     bravais-lattice index     =            0
     lattice parameter (alat)  =       8.7164  a.u.
     unit-cell volume          =     523.0847 (a.u.)^3
     number of atoms/cell      =            6
     number of atomic types    =            3
     number of electrons       =        63.00
     number of Kohn-Sham states=           38
     kinetic-energy cutoff     =      30.0000  Ry
     charge density cutoff     =     240.0000  Ry
     scf convergence threshold =      1.0E-06
     mixing beta               =       0.7000
     number of iterations used =            8  plain     mixing
     Exchange-correlation= PBE
                           (   1   4   3   4   0   0   0)

     celldm(1)=   8.716371  celldm(2)=   0.000000  celldm(3)=   0.000000
     celldm(4)=   0.000000  celldm(5)=   0.000000  celldm(6)=   0.000000

     crystal axes: (cart. coord. in units of alat)
               a(1) = (   1.000000   0.000000   0.000000 )
               a(2) = (   0.416613   0.909084   0.000000 )
               a(3) = (   0.416613   0.267353   0.868882 )

     reciprocal axes: (cart. coord. in units 2 pi/alat)
               b(1) = (  1.000000 -0.458278 -0.338470 )
               b(2) = (  0.000000  1.100008 -0.338470 )
               b(3) = (  0.000000  0.000000  1.150904 )

     PseudoPot. # 1 for Mg read from file:
     /home/pragov/projects/rrg-bengioy-ad/pragov/crystal_structure_design/SSSP/Mg.pbe-n-kjpaw_psl.0.3.0.UPF
     MD5 check sum: 24ecedc7f3e3cbe212e682f4413594e4
     Pseudo is Projector augmented-wave + core cor, Zval =  2.0
     Generated using "atomic" code by A. Dal Corso  v.5.0.99 svn rev. 10869
     Shape of augmentation charge: PSQ
     Using radial grid of 1129 points,  4 beta functions with:
                l(1) =   0
                l(2) =   0
                l(3) =   1
                l(4) =   1
     Q(r) pseudized with 0 coefficients

     PseudoPot. # 2 for Ni read from file:
     /home/pragov/projects/rrg-bengioy-ad/pragov/crystal_structure_design/SSSP/ni_pbe_v1.4.uspp.F.UPF
     MD5 check sum: 1ee80287db30b12d2bc1f57a5b5d6409
     Pseudo is Ultrasoft + core correction, Zval = 18.0
     Generated by new atomic code, or converted to UPF format
     Using radial grid of  865 points,  6 beta functions with:
                l(1) =   0
                l(2) =   0
                l(3) =   1
                l(4) =   1
                l(5) =   2
                l(6) =   2
     Q(r) pseudized with 10 coefficients,  rinner =    0.980   0.980   0.980
                                                       0.980   0.980

     PseudoPot. # 3 for P  read from file:
     /home/pragov/projects/rrg-bengioy-ad/pragov/crystal_structure_design/SSSP/P.pbe-n-rrkjus_psl.1.0.0.UPF
     MD5 check sum: 8b930f418f0a4573dca56cd030ffe088
     Pseudo is Ultrasoft + core correction, Zval =  5.0
     Generated using "atomic" code by A. Dal Corso  v.5.1
     Using radial grid of 1147 points,  6 beta functions with:
                l(1) =   0
                l(2) =   0
                l(3) =   1
                l(4) =   1
                l(5) =   2
                l(6) =   2
     Q(r) pseudized with 0 coefficients

     atomic species   valence    mass     pseudopotential
        Mg             2.00    24.30500     Mg( 1.00)
        Ni            18.00    58.69340     Ni( 1.00)
        P              5.00    30.97376     P ( 1.00)

      2 Sym. Ops., with inversion, found

                                    s                        frac. trans.

      isym =  1     identity

 cryst.   s( 1) = (     1          0          0      )
                  (     0          1          0      )
                  (     0          0          1      )

 cart.    s( 1) = (  1.0000000 -0.0000000 -0.0000000 )
                  (  0.0000000  1.0000000 -0.0000000 )
                  (  0.0000000  0.0000000  1.0000000 )

      isym =  2     inversion

 cryst.   s( 2) = (    -1          0          0      )
                  (     0         -1          0      )
                  (     0          0         -1      )

 cart.    s( 2) = ( -1.0000000  0.0000000  0.0000000 )
                  (  0.0000000 -1.0000000  0.0000000 )
                  (  0.0000000  0.0000000 -1.0000000 )

   Cartesian axes

     site n.     atom                  positions (alat units)
         1           Mg  tau(   1) = (   0.6858300   0.4401181   0.3250583  )
         2           Mg  tau(   2) = (   1.1473960   0.7363191   0.5438237  )
         3           Ni  tau(   3) = (   0.2083065   0.1336766   0.4344410  )
         4           Ni  tau(   4) = (   0.5000000   0.0000000   0.0000000  )
         5           Ni  tau(   5) = (   0.2083065   0.4545420   0.0000000  )
         6           P   tau(   6) = (   0.0000000   0.0000000   0.0000000  )

   Crystallographic axes

     site n.     atom                  positions (cryst. coord.)
         1           Mg  tau(   1) = (  0.3741110  0.3741110  0.3741110  )
         2           Mg  tau(   2) = (  0.6258890  0.6258890  0.6258890  )
         3           Ni  tau(   3) = (  0.0000000 -0.0000000  0.5000000  )
         4           Ni  tau(   4) = (  0.5000000  0.0000000  0.0000000  )
         5           Ni  tau(   5) = ( -0.0000000  0.5000000  0.0000000  )
         6           P   tau(   6) = (  0.0000000  0.0000000  0.0000000  )

     number of k points=     1  Methfessel-Paxton smearing, width (Ry)=  0.0010
                       cart. coord. in units 2pi/alat
        k(    1) = (   0.0000000   0.0000000   0.0000000), wk =   2.0000000

                       cryst. coord.
        k(    1) = (   0.0000000   0.0000000   0.0000000), wk =   2.0000000

     Check: negative core charge=   -0.000005

     Initial potential from superposition of free atoms

     starting charge      56.9980, renormalised to      63.0000
     Starting wfcs are   51 randomized atomic wfcs
     Checking if some PAW data can be deallocated...

     Self-consistent Calculation

     iteration #  1     ecut=    30.00 Ry     beta= 0.70
     Davidson diagonalization with overlap

     ethr =  1.00E-02,  avg # of iterations =  6.0

     total energy              =    -992.18876097 Ry
     estimated scf accuracy    <     175.53927555 Ry

[...]

     total energy              =   -1110.40602366 Ry
     estimated scf accuracy    <       0.00000121 Ry

     iteration # 28     ecut=    30.00 Ry     beta= 0.70
     Davidson diagonalization with overlap

     ethr =  1.91E-09,  avg # of iterations =  1.0

     End of self-consistent calculation

          k = 0.0000 0.0000 0.0000 (   732 PWs)   bands (ev):

   -91.3898 -91.3743 -91.3742 -51.9388 -51.9008 -51.9008 -51.7014 -51.7014
   -51.6577 -51.6406 -51.5152 -51.5152   0.3823   6.3065   8.3569   8.9182
     8.9489   8.9490   9.1281   9.1282   9.2513   9.2513   9.3471  10.2606
    10.2607  10.8538  10.9606  10.9606  11.0970  11.0971  11.9737  12.7656
    13.0249  14.1190  14.1191  14.8916  14.8916  16.7671

     occupation numbers
     1.0000   1.0000   1.0000   1.0000   1.0000   1.0000   1.0000   1.0000
     1.0000   1.0000   1.0000   1.0000   1.0000   1.0000   1.0000   1.0000
     1.0000   1.0000   1.0000   1.0000   1.0000   1.0000   1.0000   1.0000
     1.0000   1.0000   1.0000   1.0000   1.0000   1.0000   1.0000   0.5000
    -0.0000  -0.0000  -0.0000  -0.0000  -0.0000  -0.0000

     the Fermi energy is    12.7656 ev

!    total energy              =   -1110.40602352 Ry
     estimated scf accuracy    <       0.00000020 Ry
     smearing contrib. (-TS)   =      -0.00028209 Ry
     internal energy E=F+TS    =   -1110.40574143 Ry

     The total energy is F=E-TS. E is the sum of the following terms:
     one-electron contribution =    -892.81408522 Ry
     hartree contribution      =     476.13643354 Ry
     xc contribution           =    -114.67423073 Ry
     ewald contribution        =    -516.45345857 Ry
     one-center paw contrib.   =     -62.60040045 Ry
      -> PAW hartree energy AE =       1.85879602 Ry
      -> PAW hartree energy PS =      -1.85456612 Ry
      -> PAW xc energy AE      =     -65.36489773 Ry
      -> PAW xc energy PS      =       2.76026738 Ry
      -> total E_H with PAW    =     476.14066343 Ry
      -> total E_XC with PAW   =    -177.27886108 Ry

     convergence has been achieved in  28 iterations

     Forces acting on atoms (cartesian axes, Ry/au):

     atom    1 type  1   force =    -0.03697621   -0.02373190   -0.01752814
     atom    2 type  1   force =     0.03697621    0.02373190    0.01752814
     atom    3 type  2   force =     0.00000000    0.00000000    0.00000000
     atom    4 type  2   force =     0.00000000    0.00000000    0.00000000
     atom    5 type  2   force =     0.00000000    0.00000000    0.00000000
     atom    6 type  3   force =     0.00000000    0.00000000    0.00000000
     The non-local contrib.  to forces
     atom    1 type  1   force =     0.06315590    0.04053156    0.02993482
     atom    2 type  1   force =    -0.06315590   -0.04053156   -0.02993482
     atom    3 type  2   force =     0.00000000    0.00000000    0.00000000
     atom    4 type  2   force =     0.00000000    0.00000000    0.00000000
     atom    5 type  2   force =     0.00000000    0.00000000    0.00000000
     atom    6 type  3   force =     0.00000000    0.00000000    0.00000000
     The ionic contribution  to forces
     atom    1 type  1   force =     0.46068299    0.29563438    0.21834746
     atom    2 type  1   force =    -0.46068299   -0.29563438   -0.21834746
     atom    3 type  2   force =    -0.00000000   -0.00000000    0.00000000
     atom    4 type  2   force =     0.00000000   -0.00000000   -0.00000000
     atom    5 type  2   force =    -0.00000000    0.00000000   -0.00000000
     atom    6 type  3   force =    -0.00000000   -0.00000000   -0.00000000
     The local contribution  to forces
     atom    1 type  1   force =    -0.55337192   -0.35512550   -0.26229021
     atom    2 type  1   force =     0.55337960    0.35513232    0.26229009
     atom    3 type  2   force =    -0.00004925    0.00000356   -0.00003596
     atom    4 type  2   force =    -0.00006411   -0.00004448    0.00000435
     atom    5 type  2   force =    -0.00009782   -0.00000064    0.00001193
     atom    6 type  3   force =     0.00002278    0.00000685    0.00001860
     The core correction contribution to forces
     atom    1 type  1   force =    -0.00743310   -0.00477019   -0.00352334
     atom    2 type  1   force =     0.00743339    0.00477086    0.00352330
     atom    3 type  2   force =     0.00000034   -0.00000013   -0.00000025
     atom    4 type  2   force =     0.00000020    0.00000019   -0.00000015
     atom    5 type  2   force =     0.00000011   -0.00000019    0.00000028
     atom    6 type  3   force =     0.00000093    0.00000004    0.00000071
     The Hubbard contrib.    to forces
     atom    1 type  1   force =     0.00000000    0.00000000    0.00000000
     atom    2 type  1   force =     0.00000000    0.00000000    0.00000000
     atom    3 type  2   force =     0.00000000    0.00000000    0.00000000
     atom    4 type  2   force =     0.00000000    0.00000000    0.00000000
     atom    5 type  2   force =     0.00000000    0.00000000    0.00000000
     atom    6 type  3   force =     0.00000000    0.00000000    0.00000000
     The SCF correction term to forces
     atom    1 type  1   force =    -0.00000789    0.00000146    0.00000291
     atom    2 type  1   force =     0.00000429   -0.00000173   -0.00000319
     atom    3 type  2   force =     0.00005994   -0.00003903    0.00002173
     atom    4 type  2   force =     0.00005195    0.00005398    0.00003135
     atom    5 type  2   force =     0.00014215   -0.00002542   -0.00002933
     atom    6 type  3   force =    -0.00000473   -0.00000646   -0.00000540

     Total force =     0.066898     Total SCF correction =     0.000185

     Computing stress (Cartesian axis) and pressure

          total   stress  (Ry/bohr**3)                   (kbar)     P=     -784.10
  -0.00538012  -0.00007018  -0.00005178         -791.44      -10.32       -7.62
  -0.00007018  -0.00531561  -0.00003332          -10.32     -781.95       -4.90
  -0.00005178  -0.00003332  -0.00529488           -7.62       -4.90     -778.90

     kinetic stress (kbar)  28093.80   -109.87    -81.16
                             -109.87  28194.51    -52.08
                              -81.16    -52.08  28226.56

     local   stress (kbar)  -9833.15  24663.32  18215.61
                            24663.32 -32438.31  11689.41
                            18215.61  11689.41 -39631.70

     nonloc. stress (kbar)  12162.11    -34.64    -25.60
                              -34.64  12193.87    -16.41
                              -25.60    -16.41  12203.96

     hartree stress (kbar)  36378.05 -11656.87  -8609.40
                           -11656.87  47062.08  -5524.84
                            -8609.40  -5524.84  50461.87

     exc-cor stress (kbar)  -7842.67      3.52      2.60
                                3.52  -7845.90      1.67
                                2.60      1.67  -7846.92

     corecor stress (kbar)  -2218.83     -2.94     -2.17
                               -2.94  -2216.14     -1.39
                               -2.17     -1.39  -2215.28

     ewald   stress (kbar) -57530.74 -12872.83  -9507.49
                           -12872.83 -45732.07  -6101.25
                            -9507.49  -6101.25 -41977.40

     hubbard stress (kbar)      0.00      0.00      0.00
                                0.00      0.00      0.00
                                0.00      0.00      0.00

     DFT-D   stress (kbar)      0.00      0.00      0.00
                                0.00      0.00      0.00
                                0.00      0.00      0.00

     XDM     stress (kbar)      0.00      0.00      0.00
                                0.00      0.00      0.00
                                0.00      0.00      0.00

     dft-nl  stress (kbar)      0.00      0.00      0.00
                                0.00      0.00      0.00
                                0.00      0.00      0.00

     TS-vdW  stress (kbar)      0.00      0.00      0.00
                                0.00      0.00      0.00
                                0.00      0.00      0.00

[...]

                                0.00      0.00      0.00

     Writing all to output data dir new_calculations/myprefix.save/

     General routines

     Parallel routines

     PAW routines

   This run was terminated on:  23:22:22  20May2023

   JOB DONE.