     Program PWSCF v.7.0 starts on 20May2023 at 13: 2:29

     Reading input from espresso_16345.pwi
Warning: card &CELL ignored
Warning: card / ignored

     Current dimensions of program PWSCF are:
     Max number of different atomic species (ntypx) = 10
     Max number of k-points (npk) =  40000
     Max angular momentum in pseudopotentials (lmaxx) =  4

     gamma-point specific algorithms are used
     Message from routine setup:
     using ibrav=0 with symmetry is DISCOURAGED, use correct ibrav instead

     Subspace diagonalization in iterative solution of the eigenvalue problem:
     a serial algorithm will be used

     Using Slab Decomposition

     bravais-lattice index     =            0
     lattice parameter (alat)  =       9.5986  a.u.
     unit-cell volume          =     726.8818 (a.u.)^3
     number of atoms/cell      =            8
     number of atomic types    =            2
     number of electrons       =       116.00
     number of Kohn-Sham states=           70
     kinetic-energy cutoff     =      30.0000  Ry
     charge density cutoff     =     240.0000  Ry
     scf convergence threshold =      1.0E-06
     mixing beta               =       0.7000
     number of iterations used =            8  plain     mixing
     Exchange-correlation= PBE
                           (   1   4   3   4   0   0   0)

     celldm(1)=   9.598560  celldm(2)=   0.000000  celldm(3)=   0.000000
     celldm(4)=   0.000000  celldm(5)=   0.000000  celldm(6)=   0.000000

     crystal axes: (cart. coord. in units of alat)
               a(1) = (   1.000000   0.000000   0.000000 )
               a(2) = (  -0.840005   0.542578   0.000000 )
               a(3) = (   0.000000   0.000000   1.514898 )

     reciprocal axes: (cart. coord. in units 2 pi/alat)
               b(1) = (  1.000000  1.548174  0.000000 )
               b(2) = (  0.000000  1.843053  0.000000 )
               b(3) = (  0.000000  0.000000  0.660111 )

     PseudoPot. # 1 for Be read from file:
     /home/pragov/projects/rrg-bengioy-ad/pragov/crystal_structure_design/SSSP/be_pbe_v1.4.uspp.F.UPF
     MD5 check sum: 5ecff1440924c7c98ad504bef30f5264
     Pseudo is Ultrasoft, Zval =  4.0
     Generated by new atomic code, or converted to UPF format
     Using radial grid of  769 points,  6 beta functions with:
                l(1) =   0
                l(2) =   0
                l(3) =   0
                l(4) =   1
                l(5) =   1
                l(6) =   2
     Q(r) pseudized with 10 coefficients,  rinner =    1.000   1.000   1.000
                                                       1.000   1.000

     PseudoPot. # 2 for Pd read from file:
     /home/pragov/projects/rrg-bengioy-ad/pragov/crystal_structure_design/SSSP/Pd_ONCV_PBE-1.0.oncvpsp.upf
     MD5 check sum: eb77f42b51d86fb18e25f68156a31cf1
     Pseudo is Norm-conserving, Zval = 18.0
     Generated using ONCVPSP code by D. R. Hamann
     Using radial grid of 1410 points,  6 beta functions with:
                l(1) =   0
                l(2) =   0
                l(3) =   1
                l(4) =   1
                l(5) =   2
                l(6) =   2

     atomic species   valence    mass     pseudopotential
        Be             4.00     9.01218     Be( 1.00)
        Pd            18.00   106.42000     Pd( 1.00)

      4 Sym. Ops., with inversion, found ( 2 have fractional translation)

                                    s                        frac. trans.

      isym =  1     identity

 cryst.   s( 1) = (     1          0          0      )
                  (     0          1          0      )
                  (     0          0          1      )

 cart.    s( 1) = (  1.0000000  0.0000000  0.0000000 )
                  (  0.0000000  1.0000000  0.0000000 )
                  (  0.0000000  0.0000000  1.0000000 )

      isym =  2     180 deg rotation - cart. axis [0,0,1]

 cryst.   s( 2) = (    -1          0          0      )    f =( -0.0000000 )
                  (     0         -1          0      )       ( -0.0000000 )
                  (     0          0          1      )       (  0.5000000 )

 cart.    s( 2) = ( -1.0000000 -0.0000000  0.0000000 )    f =( -0.0000000 )
                  (  0.0000000 -1.0000000  0.0000000 )       ( -0.0000000 )
                  (  0.0000000  0.0000000  1.0000000 )       (  0.7574488 )

      isym =  3     inversion

 cryst.   s( 3) = (    -1          0          0      )
                  (     0         -1          0      )
                  (     0          0         -1      )

 cart.    s( 3) = ( -1.0000000 -0.0000000  0.0000000 )
                  (  0.0000000 -1.0000000  0.0000000 )
                  (  0.0000000  0.0000000 -1.0000000 )

      isym =  4     inv. 180 deg rotation - cart. axis [0,0,1]

 cryst.   s( 4) = (     1          0          0      )    f =(  0.0000000 )
                  (     0          1          0      )       (  0.0000000 )
                  (     0          0         -1      )       (  0.5000000 )

 cart.    s( 4) = (  1.0000000  0.0000000  0.0000000 )    f =(  0.0000000 )
                  (  0.0000000  1.0000000  0.0000000 )       (  0.0000000 )
                  (  0.0000000  0.0000000 -1.0000000 )       (  0.7574488 )

   Cartesian axes

     site n.     atom                  positions (alat units)
         1           Be  tau(   1) = (  -0.3745815   0.4053346   1.1361733  )
         2           Be  tau(   2) = (   0.5345762   0.1372435   0.3787244  )
         3           Pd  tau(   3) = (   0.2037708   0.2347909   1.1361733  )
         4           Pd  tau(   4) = (  -0.0437762   0.3077872   0.3787244  )
         5           Pd  tau(   5) = (   0.7490637   0.0739957   1.4223253  )
         6           Pd  tau(   6) = (  -0.5890691   0.4685824   0.0925724  )
         7           Pd  tau(   7) = (  -0.5890691   0.4685824   0.6648765  )
         8           Pd  tau(   8) = (   0.7490637   0.0739957   0.8500212  )

   Crystallographic axes

     site n.     atom                  positions (cryst. coord.)
         1           Be  tau(   1) = (  0.2529470  0.7470530  0.7500000  )
         2           Be  tau(   2) = (  0.7470530  0.2529470  0.2500000  )
         3           Pd  tau(   3) = (  0.5672680  0.4327320  0.7500000  )
         4           Pd  tau(   4) = (  0.4327320  0.5672680  0.2500000  )
         5           Pd  tau(   5) = (  0.8636220  0.1363780  0.9388920  )
         6           Pd  tau(   6) = (  0.1363780  0.8636220  0.0611080  )
         7           Pd  tau(   7) = (  0.1363780  0.8636220  0.4388920  )
         8           Pd  tau(   8) = (  0.8636220  0.1363780  0.5611080  )

     number of k points=     1  Methfessel-Paxton smearing, width (Ry)=  0.0010
                       cart. coord. in units 2pi/alat
        k(    1) = (   0.0000000   0.0000000   0.0000000), wk =   2.0000000

                       cryst. coord.
        k(    1) = (   0.0000000   0.0000000   0.0000000), wk =   2.0000000

     Initial potential from superposition of free atoms

     starting charge     115.9976, renormalised to     116.0000
     Starting wfcs are   70 randomized atomic wfcs

     Self-consistent Calculation

     iteration #  1     ecut=    30.00 Ry     beta= 0.70
     Davidson diagonalization with overlap

     ethr =  1.00E-02,  avg # of iterations =  3.0

     Threshold (ethr) on eigenvalues was too large:
     Diagonalizing with lowered threshold

     Davidson diagonalization with overlap

[...]

     total energy              =   -1575.08640277 Ry
     estimated scf accuracy    <       0.23929566 Ry

[...]

     total energy              =   -1575.12215460 Ry
     estimated scf accuracy    <       0.00000461 Ry

     iteration # 61     ecut=    30.00 Ry     beta= 0.70
     Davidson diagonalization with overlap

     ethr =  3.97E-09,  avg # of iterations =  1.0

     End of self-consistent calculation

          k = 0.0000 0.0000 0.0000 (  1013 PWs)   bands (ev):

   -82.6749 -82.6736 -67.1878 -67.1835 -67.1314 -67.1313 -67.1155 -67.1112
   -32.8632 -32.8237 -32.7736 -32.7354 -32.6867 -32.6552 -32.6444 -32.6431
   -32.6359 -32.6272 -32.5564 -32.5179 -32.4050 -32.3963 -32.2392 -32.2301
   -32.2073 -32.2036   9.8073  11.5761  12.4995  12.6048  13.4304  13.6522
    13.6943  13.7549  13.8512  14.2327  14.5012  14.5264  14.8071  14.9839
    15.0387  15.2068  15.3506  15.4491  15.4568  15.5016  15.5775  15.8743
    15.8933  16.1819  16.3233  16.3894  16.4645  16.7224  16.9481  17.0579
    17.5129  17.5140  17.5165  17.5289  19.2459  19.9114  20.9848  21.4996
    24.0451  24.5305  25.1032  26.3122  27.0482  28.5036

     occupation numbers
     1.0000   1.0000   1.0000   1.0000   1.0000   1.0000   1.0000   1.0000
     1.0000   1.0000   1.0000   1.0000   1.0000   1.0000   1.0000   1.0000
     1.0000   1.0000   1.0000   1.0000   1.0000   1.0000   1.0000   1.0000
     1.0000   1.0000   1.0000   1.0000   1.0000   1.0000   1.0000   1.0000
     1.0000   1.0000   1.0000   1.0000   1.0000   1.0000   1.0000   1.0000
     1.0000   1.0000   1.0000   1.0000   1.0000   1.0000   1.0000   1.0000
     1.0000   1.0000   1.0000   1.0000   1.0000   1.0000   1.0000   1.0000
     0.7575   0.6982   0.5480  -0.0037  -0.0000  -0.0000  -0.0000  -0.0000
    -0.0000  -0.0000  -0.0000  -0.0000  -0.0000  -0.0000

     the Fermi energy is    17.5173 ev

!    total energy              =   -1575.12215436 Ry
     estimated scf accuracy    <       0.00000043 Ry
     smearing contrib. (-TS)   =      -0.00065161 Ry
     internal energy E=F+TS    =   -1575.12150275 Ry

     The total energy is F=E-TS. E is the sum of the following terms:
     one-electron contribution =    -552.76069994 Ry
     hartree contribution      =     330.41591222 Ry
     xc contribution           =    -159.03258112 Ry
     ewald contribution        =   -1193.74413392 Ry

     convergence has been achieved in  61 iterations

     Forces acting on atoms (cartesian axes, Ry/au):

     atom    1 type  1   force =    -0.00247812    0.00073075    0.00000000
     atom    2 type  1   force =     0.00247812   -0.00073075    0.00000000
     atom    3 type  2   force =     0.01655193   -0.00488081    0.00000000
     atom    4 type  2   force =    -0.01655193    0.00488081    0.00000000
     atom    5 type  2   force =     0.00844470   -0.00249016   -0.00097034
     atom    6 type  2   force =    -0.00844470    0.00249016    0.00097034
     atom    7 type  2   force =    -0.00844470    0.00249016   -0.00097034
     atom    8 type  2   force =     0.00844470   -0.00249016    0.00097034
     The non-local contrib.  to forces
     atom    1 type  1   force =    -0.04563027    0.01345539    0.00000000
     atom    2 type  1   force =     0.04563027   -0.01345539    0.00000000
     atom    3 type  2   force =     0.15781039   -0.04653490    0.00000000
     atom    4 type  2   force =    -0.15781039    0.04653490    0.00000000
     atom    5 type  2   force =    -0.07620095    0.02247002   -0.08034003
     atom    6 type  2   force =     0.07620095   -0.02247002    0.08034003
     atom    7 type  2   force =     0.07620095   -0.02247002   -0.08034003
     atom    8 type  2   force =    -0.07620095    0.02247002    0.08034003
     The ionic contribution  to forces
     atom    1 type  1   force =    -0.13706061    0.04041623   -0.00000000
     atom    2 type  1   force =     0.13706061   -0.04041623    0.00000000
     atom    3 type  2   force =     2.89850070   -0.85470568   -0.00000000
     atom    4 type  2   force =    -2.89850070    0.85470568    0.00000000
     atom    5 type  2   force =    -1.84510342    0.54408142   -0.82059450
     atom    6 type  2   force =     1.84510342   -0.54408142    0.82059450
     atom    7 type  2   force =     1.84510342   -0.54408142   -0.82059450
     atom    8 type  2   force =    -1.84510342    0.54408142    0.82059450
     The local contribution  to forces
     atom    1 type  1   force =     0.18033535   -0.05317702    0.00021602
     atom    2 type  1   force =    -0.18027550    0.05315938   -0.00019410
     atom    3 type  2   force =    -3.03941185    0.89625739    0.00082538
     atom    4 type  2   force =     3.03940282   -0.89625465   -0.00086043
     atom    5 type  2   force =     1.92954011   -0.56897997    0.90070641
     atom    6 type  2   force =    -1.92955015    0.56898296   -0.90040836
     atom    7 type  2   force =    -1.92954182    0.56898052    0.89984218
     atom    8 type  2   force =     1.92947332   -0.56896026   -0.90010737
     The core correction contribution to forces
     atom    1 type  1   force =     0.00000000    0.00000000    0.00000000
     atom    2 type  1   force =     0.00000000    0.00000000    0.00000000
     atom    3 type  2   force =     0.00000000    0.00000000    0.00000000
     atom    4 type  2   force =     0.00000000    0.00000000    0.00000000
     atom    5 type  2   force =     0.00000000    0.00000000    0.00000000
     atom    6 type  2   force =     0.00000000    0.00000000    0.00000000
     atom    7 type  2   force =     0.00000000    0.00000000    0.00000000
     atom    8 type  2   force =     0.00000000    0.00000000    0.00000000
     The Hubbard contrib.    to forces
     atom    1 type  1   force =     0.00000000    0.00000000    0.00000000
     atom    2 type  1   force =     0.00000000    0.00000000    0.00000000
     atom    3 type  2   force =     0.00000000    0.00000000    0.00000000
     atom    4 type  2   force =     0.00000000    0.00000000    0.00000000
     atom    5 type  2   force =     0.00000000    0.00000000    0.00000000
     atom    6 type  2   force =     0.00000000    0.00000000    0.00000000
     atom    7 type  2   force =     0.00000000    0.00000000    0.00000000
     atom    8 type  2   force =     0.00000000    0.00000000    0.00000000
     The SCF correction term to forces
     atom    1 type  1   force =    -0.00011901    0.00003509   -0.00020765
     atom    2 type  1   force =     0.00006634   -0.00001957    0.00018833
     atom    3 type  2   force =    -0.00034933    0.00010301   -0.00080144
     atom    4 type  2   force =     0.00035433   -0.00010449    0.00085456
     atom    5 type  2   force =     0.00020336   -0.00005996   -0.00074174
     atom    6 type  2   force =    -0.00019982    0.00005893    0.00044059
     atom    7 type  2   force =    -0.00020441    0.00006029    0.00012521
     atom    8 type  2   force =     0.00028327   -0.00008352    0.00015043

     Total force =     0.030377     Total SCF correction =     0.001657

     Computing stress (Cartesian axis) and pressure

          total   stress  (Ry/bohr**3)                   (kbar)     P=    -1418.42
  -0.01022151   0.00033668   0.00000000        -1503.64       49.53        0.00
   0.00033668  -0.00917903   0.00000000           49.53    -1350.28        0.00
   0.00000000   0.00000000  -0.00952622            0.00        0.00    -1401.36

     kinetic stress (kbar)  68575.00    645.90      0.00
                              645.90  70574.93      0.00
                                0.00      0.00  69280.60

     local   stress (kbar) -10792.62  -1979.48      0.49
                            -1979.48 -16921.80     -0.15
                                0.49     -0.15 -11036.56

     nonloc. stress (kbar)  10649.69   -146.02      0.00
                             -146.02  10197.56      0.00
                                0.00      0.00  10447.22

     hartree stress (kbar)  21354.84    827.10     -0.15
                              827.10  23915.84      0.04
                               -0.15      0.04  21598.32

     exc-cor stress (kbar) -10180.53      7.13     -0.00
                                7.13 -10158.44      0.00
                               -0.00      0.00 -10171.44

     corecor stress (kbar)      0.00      0.00      0.00
                                0.00      0.00      0.00
                                0.00      0.00      0.00

     ewald   stress (kbar) -81110.01    694.89     -0.00
                              694.89 -78958.37      0.00
                               -0.00      0.00 -81519.49

     hubbard stress (kbar)      0.00      0.00      0.00
                                0.00      0.00      0.00
                                0.00      0.00      0.00

     DFT-D   stress (kbar)      0.00      0.00      0.00
                                0.00      0.00      0.00
                                0.00      0.00      0.00

     XDM     stress (kbar)      0.00      0.00      0.00
                                0.00      0.00      0.00
                                0.00      0.00      0.00

     dft-nl  stress (kbar)      0.00      0.00      0.00
                                0.00      0.00      0.00
                                0.00      0.00      0.00

     TS-vdW  stress (kbar)      0.00      0.00      0.00
                                0.00      0.00      0.00
                                0.00      0.00      0.00

[...]

                                0.00      0.00      0.00

     Writing all to output data dir new_calculations/myprefix.save/

     General routines

     Parallel routines

   This run was terminated on:  13: 3: 4  20May2023

   JOB DONE.