     Program PWSCF v.7.0 starts on 20May2023 at 18:48:35

     Reading input from espresso_10597.pwi
Warning: card &CELL ignored
Warning: card / ignored

     Current dimensions of program PWSCF are:
     Max number of different atomic species (ntypx) = 10
     Max number of k-points (npk) =  40000
     Max angular momentum in pseudopotentials (lmaxx) =  4

     gamma-point specific algorithms are used
     Message from routine setup:
     using ibrav=0 with symmetry is DISCOURAGED, use correct ibrav instead

     Subspace diagonalization in iterative solution of the eigenvalue problem:
     a serial algorithm will be used

     Using Slab Decomposition

     bravais-lattice index     =            0
     lattice parameter (alat)  =      16.7693  a.u.
     unit-cell volume          =     529.5929 (a.u.)^3
     number of atoms/cell      =           10
     number of atomic types    =            3
     number of electrons       =        78.00
     number of Kohn-Sham states=           47
     kinetic-energy cutoff     =      30.0000  Ry
     charge density cutoff     =     240.0000  Ry
     scf convergence threshold =      1.0E-06
     mixing beta               =       0.7000
     number of iterations used =            8  plain     mixing
     Exchange-correlation=  SLA  PW   PBX  PBC
                           (   1   4   3   4   0   0   0)

     celldm(1)=  16.769318  celldm(2)=   0.000000  celldm(3)=   0.000000
     celldm(4)=   0.000000  celldm(5)=   0.000000  celldm(6)=   0.000000

     crystal axes: (cart. coord. in units of alat)
               a(1) = (   1.000000   0.000000   0.000000 )
               a(2) = (  -0.942390   0.334515   0.000000 )
               a(3) = (   0.000000   0.000000   0.335722 )

     reciprocal axes: (cart. coord. in units 2 pi/alat)
               b(1) = (  1.000000  2.817184  0.000000 )
               b(2) = (  0.000000  2.989402  0.000000 )
               b(3) = (  0.000000  0.000000  2.978651 )

     PseudoPot. # 1 for V  read from file:
     /home/pragov/projects/rrg-bengioy-ad/pragov/crystal_structure_design/SSSP/v_pbe_v1.4.uspp.F.UPF
     MD5 check sum: 22b79981416ebb76fdaf5b1b8640f6fb
     Pseudo is Ultrasoft + core correction, Zval = 13.0
     Generated by new atomic code, or converted to UPF format
     Using radial grid of  853 points,  6 beta functions with:
                l(1) =   0
                l(2) =   0
                l(3) =   1
                l(4) =   1
                l(5) =   2
                l(6) =   2
     Q(r) pseudized with  8 coefficients,  rinner =    1.100   1.100   1.100
                                                       1.100   1.100

     PseudoPot. # 2 for Co read from file:
     /home/pragov/projects/rrg-bengioy-ad/pragov/crystal_structure_design/SSSP/Co_pbe_v1.2.uspp.F.UPF
     MD5 check sum: 5f91765df6ddd3222702df6e7b74a16d
     Pseudo is Ultrasoft + core correction, Zval = 17.0
     Generated by new atomic code, or converted to UPF format
     Using radial grid of  863 points,  6 beta functions with:
                l(1) =   0
                l(2) =   0
                l(3) =   1
                l(4) =   1
                l(5) =   2
                l(6) =   2
     Q(r) pseudized with  8 coefficients,  rinner =    1.200   1.200   1.200
                                                       1.200   1.200

     PseudoPot. # 3 for B  read from file:
     /home/pragov/projects/rrg-bengioy-ad/pragov/crystal_structure_design/SSSP/b_pbe_v1.4.uspp.F.UPF
     MD5 check sum: cc6de2960df11db49a60e589f9ebb39b
     Pseudo is Ultrasoft + core correction, Zval =  3.0
     Generated by new atomic code, or converted to UPF format
     Using radial grid of  781 points,  4 beta functions with:
                l(1) =   0
                l(2) =   0
                l(3) =   1
                l(4) =   1
     Q(r) pseudized with  8 coefficients,  rinner =    1.100   1.100   1.100

     atomic species   valence    mass     pseudopotential
        V             13.00    50.94150     V ( 1.00)
        Co            17.00    58.93319     Co( 1.00)
        B              3.00    10.81000     B ( 1.00)

      4 Sym. Ops., with inversion, found ( 2 have fractional translation)

                                    s                        frac. trans.

      isym =  1     identity

 cryst.   s( 1) = (     1          0          0      )
                  (     0          1          0      )
                  (     0          0          1      )

 cart.    s( 1) = (  1.0000000  0.0000000  0.0000000 )
                  (  0.0000000  1.0000000  0.0000000 )
                  (  0.0000000  0.0000000  1.0000000 )

      isym =  2     180 deg rotation - cart. axis [0,0,1]

 cryst.   s( 2) = (    -1          0          0      )    f =(  0.0000000 )
                  (     0         -1          0      )       (  0.0000000 )
                  (     0          0          1      )       ( -0.5000000 )

 cart.    s( 2) = ( -1.0000000 -0.0000000  0.0000000 )    f =( -0.0000000 )
                  (  0.0000000 -1.0000000  0.0000000 )       (  0.0000000 )
                  (  0.0000000  0.0000000  1.0000000 )       ( -0.1678612 )

      isym =  3     inversion

 cryst.   s( 3) = (    -1          0          0      )
                  (     0         -1          0      )
                  (     0          0         -1      )

 cart.    s( 3) = ( -1.0000000 -0.0000000  0.0000000 )
                  (  0.0000000 -1.0000000  0.0000000 )
                  (  0.0000000  0.0000000 -1.0000000 )

      isym =  4     inv. 180 deg rotation - cart. axis [0,0,1]

 cryst.   s( 4) = (     1          0          0      )    f =(  0.0000000 )
                  (     0          1          0      )       (  0.0000000 )
                  (     0          0         -1      )       (  0.5000000 )

 cart.    s( 4) = (  1.0000000  0.0000000  0.0000000 )    f =(  0.0000000 )
                  (  0.0000000  1.0000000  0.0000000 )       (  0.0000000 )
                  (  0.0000000  0.0000000 -1.0000000 )       (  0.1678612 )

   Cartesian axes

     site n.     atom                  positions (alat units)
         1           V   tau(   1) = (   0.8554551   0.0248933   0.0839306  )
         2           V   tau(   2) = (  -0.7978455   0.3096218   0.2517918  )
         3           Co  tau(   3) = (  -0.5464536   0.2663275   0.0839306  )
         4           Co  tau(   4) = (   0.6040631   0.0681875   0.2517918  )
         5           B   tau(   5) = (   0.2707392   0.1255920   0.0839306  )
         6           B   tau(   6) = (  -0.2131296   0.2089230   0.2517918  )
         7           B   tau(   7) = (   0.0774053   0.1588876   0.0839306  )
         8           B   tau(   8) = (  -0.0197958   0.1756274   0.2517918  )
         9           B   tau(   9) = (   0.3767568   0.1073338   0.2517918  )
        10           B   tau(  10) = (  -0.3191473   0.2271812   0.0839306  )

   Crystallographic axes

     site n.     atom                  positions (cryst. coord.)
         1           V   tau(   1) = (  0.9255840  0.0744160  0.2500000  )
         2           V   tau(   2) = (  0.0744160  0.9255840  0.7500000  )
         3           Co  tau(   3) = (  0.2038400  0.7961600  0.2500000  )
         4           Co  tau(   4) = (  0.7961600  0.2038400  0.7500000  )
         5           B   tau(   5) = (  0.6245550  0.3754450  0.2500000  )
         6           B   tau(   6) = (  0.3754450  0.6245550  0.7500000  )
         7           B   tau(   7) = (  0.5250210  0.4749790  0.2500000  )
         8           B   tau(   8) = (  0.4749790  0.5250210  0.7500000  )
         9           B   tau(   9) = (  0.6791360  0.3208640  0.7500000  )
        10           B   tau(  10) = (  0.3208640  0.6791360  0.2500000  )

     number of k points=     1  Methfessel-Paxton smearing, width (Ry)=  0.0010
                       cart. coord. in units 2pi/alat
        k(    1) = (   0.0000000   0.0000000   0.0000000), wk =   2.0000000

                       cryst. coord.
        k(    1) = (   0.0000000   0.0000000   0.0000000), wk =   2.0000000

     Check: negative core charge=   -0.000014

     Initial potential from superposition of free atoms

     starting charge      75.9958, renormalised to      78.0000
     Starting wfcs are   70 randomized atomic wfcs

     Self-consistent Calculation

     iteration #  1     ecut=    30.00 Ry     beta= 0.70
     Davidson diagonalization with overlap

     ethr =  1.00E-02,  avg # of iterations =  3.0

     negative rho (up, down):  7.002E-03 0.000E+00

     total energy              =    -880.31490449 Ry
     estimated scf accuracy    <      56.67343516 Ry

[...]

     total energy              =    -924.97427743 Ry
     estimated scf accuracy    <       0.00000409 Ry

     iteration # 37     ecut=    30.00 Ry     beta= 0.70
     Davidson diagonalization with overlap

     ethr =  5.25E-09,  avg # of iterations =  1.0

[...]

     End of self-consistent calculation

          k = 0.0000 0.0000 0.0000 (   717 PWs)   bands (ev):

   -77.1125 -77.0972 -47.0591 -47.0412 -40.8988 -40.8452 -40.3878 -40.3468
   -39.9480 -39.9024 -21.4480 -21.3068 -20.8099 -20.7760 -20.5901 -20.5666
     2.6352   4.1106   5.0734   7.9960   9.7699  13.0344  13.1030  13.3027
    13.4455  13.5386  13.7774  13.8187  13.9477  14.0872  14.4808  14.5677
    15.4019  16.2651  16.3578  16.4668  16.4688  17.2226  18.0760  18.0771
    18.2998  18.4322  18.6716  18.9471  19.1631  19.4040  19.6359

     occupation numbers
     1.0000   1.0000   1.0000   1.0000   1.0000   1.0000   1.0000   1.0000
     1.0000   1.0000   1.0000   1.0000   1.0000   1.0000   1.0000   1.0000
     1.0000   1.0000   1.0000   1.0000   1.0000   1.0000   1.0000   1.0000
     1.0000   1.0000   1.0000   1.0000   1.0000   1.0000   1.0000   1.0000
     1.0000   1.0000   1.0000   1.0000   1.0000   1.0000   0.5356   0.4644
    -0.0000  -0.0000  -0.0000  -0.0000  -0.0000  -0.0000  -0.0000

     the Fermi energy is    18.0765 ev

!    total energy              =    -924.97427691 Ry
     estimated scf accuracy    <       0.00000055 Ry
     smearing contrib. (-TS)   =      -0.00056119 Ry
     internal energy E=F+TS    =    -924.97371573 Ry

     The total energy is F=E-TS. E is the sum of the following terms:
     one-electron contribution =    -521.41271646 Ry
     hartree contribution      =     309.72786648 Ry
     xc contribution           =    -123.35131615 Ry
     ewald contribution        =    -589.93754960 Ry

     convergence has been achieved in  37 iterations

     negative rho (up, down):  6.438E-04 0.000E+00

     Forces acting on atoms (cartesian axes, Ry/au):

     atom    1 type  1   force =     0.05474358   -0.00939621    0.00000000
     atom    2 type  1   force =    -0.05474358    0.00939621    0.00000000
     atom    3 type  2   force =    -0.07345057    0.01266072    0.00000000
     atom    4 type  2   force =     0.07345057   -0.01266072    0.00000000
     atom    5 type  3   force =     0.21226487   -0.03651563   -0.00000000
     atom    6 type  3   force =    -0.21226487    0.03651563    0.00000000
     atom    7 type  3   force =    -0.20936065    0.03605915    0.00000000
     atom    8 type  3   force =     0.20936065   -0.03605915    0.00000000
     atom    9 type  3   force =    -0.08573611    0.01476986   -0.00000000
     atom   10 type  3   force =     0.08573611   -0.01476986   -0.00000000
     The non-local contrib.  to forces
     atom    1 type  1   force =     0.04723620   -0.00810281    0.00000000
     atom    2 type  1   force =    -0.04723620    0.00810281    0.00000000
     atom    3 type  2   force =    -0.26768896    0.04611189    0.00000000
     atom    4 type  2   force =     0.26768896   -0.04611189    0.00000000
     atom    5 type  3   force =    -0.02565449    0.00442107    0.00000000
     atom    6 type  3   force =     0.02565449   -0.00442107   -0.00000000
     atom    7 type  3   force =    -0.06968767    0.01200199    0.00000000
     atom    8 type  3   force =     0.06968767   -0.01200199    0.00000000
     atom    9 type  3   force =    -0.08364957    0.01440625    0.00000000
     atom   10 type  3   force =     0.08364957   -0.01440625    0.00000000
     The ionic contribution  to forces
     atom    1 type  1   force =    21.12135739   -3.63748269    0.00000000
     atom    2 type  1   force =   -21.12135739    3.63748270   -0.00000000
     atom    3 type  2   force =   -21.02262477    3.62047914   -0.00000000
     atom    4 type  2   force =    21.02262477   -3.62047914   -0.00000000
     atom    5 type  3   force =    -7.60533389    1.30977711    0.00000000
     atom    6 type  3   force =     7.60533389   -1.30977711   -0.00000000
     atom    7 type  3   force =    -1.67988762    0.28930727    0.00000000
     atom    8 type  3   force =     1.67988762   -0.28930727    0.00000000
     atom    9 type  3   force =    -6.73270989    1.15949535   -0.00000000
     atom   10 type  3   force =     6.73270989   -1.15949535   -0.00000000
     The local contribution  to forces
     atom    1 type  1   force =   -21.11668926    3.63674763    0.00000001
     atom    2 type  1   force =    21.11718713   -3.63683245   -0.00000003
     atom    3 type  2   force =    21.21548913   -3.65370819   -0.00000005
     atom    4 type  2   force =   -21.21647227    3.65387982   -0.00000008
     atom    5 type  3   force =     7.83897551   -1.34995892    0.00000001
     atom    6 type  3   force =    -7.83899965    1.34996190   -0.00000001
     atom    7 type  3   force =     1.54099432   -0.26538150    0.00000001
     atom    8 type  3   force =    -1.54075837    0.26534033   -0.00000000
     atom    9 type  3   force =     6.73121172   -1.15922467    0.00000002
     atom   10 type  3   force =    -6.73135180    1.15924820    0.00000003
     The core correction contribution to forces
     atom    1 type  1   force =     0.00489608   -0.00084713   -0.00000000
     atom    2 type  1   force =    -0.00489596    0.00084700   -0.00000000
     atom    3 type  2   force =    -0.00095691    0.00016463   -0.00000000
     atom    4 type  2   force =     0.00095617   -0.00016449    0.00000000
     atom    5 type  3   force =     0.00363742   -0.00062603    0.00000000
     atom    6 type  3   force =    -0.00363743    0.00062602    0.00000000
     atom    7 type  3   force =    -0.00079596    0.00013714    0.00000000
     atom    8 type  3   force =     0.00079583   -0.00013712    0.00000000
     atom    9 type  3   force =    -0.00118311    0.00020372    0.00000000
     atom   10 type  3   force =     0.00118319   -0.00020371    0.00000000
     The Hubbard contrib.    to forces
     atom    1 type  1   force =     0.00000000    0.00000000    0.00000000
     atom    2 type  1   force =     0.00000000    0.00000000    0.00000000
     atom    3 type  2   force =     0.00000000    0.00000000    0.00000000
     atom    4 type  2   force =     0.00000000    0.00000000    0.00000000
     atom    5 type  3   force =     0.00000000    0.00000000    0.00000000
     atom    6 type  3   force =     0.00000000    0.00000000    0.00000000
     atom    7 type  3   force =     0.00000000    0.00000000    0.00000000
     atom    8 type  3   force =     0.00000000    0.00000000    0.00000000
     atom    9 type  3   force =     0.00000000    0.00000000    0.00000000
     atom   10 type  3   force =     0.00000000    0.00000000    0.00000000
     The SCF correction term to forces
     atom    1 type  1   force =    -0.00205435    0.00028845   -0.00000001
     atom    2 type  1   force =     0.00156133   -0.00020418    0.00000002
     atom    3 type  2   force =     0.00231312   -0.00038299   -0.00000001
     atom    4 type  2   force =    -0.00136489    0.00021875    0.00000013
     atom    5 type  3   force =     0.00063611   -0.00012860   -0.00000001
     atom    6 type  3   force =    -0.00062039    0.00012615    0.00000000
     atom    7 type  3   force =     0.00002313   -0.00000710   -0.00000000
     atom    8 type  3   force =    -0.00024525    0.00004553    0.00000000
     atom    9 type  3   force =     0.00059159   -0.00011043    0.00000001
     atom   10 type  3   force =    -0.00045790    0.00008760   -0.00000000

     Total force =     0.464179     Total SCF correction =     0.003957

     Computing stress (Cartesian axis) and pressure

     negative rho (up, down):  6.438E-04 0.000E+00
          total   stress  (Ry/bohr**3)                   (kbar)     P=     -244.57
  -0.00381923   0.00045327   0.00000000         -561.83       66.68        0.00
   0.00045327  -0.00127040   0.00000000           66.68     -186.88        0.00
   0.00000000   0.00000000   0.00010205            0.00        0.00       15.01

     kinetic stress (kbar)  32999.66    290.65      0.00
                              290.65  34637.35      0.00
                                0.00      0.00  35276.66

     local   stress (kbar)  19766.12  -6831.96      0.00
                            -6831.96 -18727.99      0.00
                                0.00      0.00 -21214.95

     nonloc. stress (kbar)   8201.16     64.19      0.00
                               64.19   8562.41      0.00
                                0.00      0.00   8766.13

     hartree stress (kbar)  15345.35   3406.03     -0.00
                             3406.03  34536.11     -0.00
                               -0.00     -0.00  36151.68

     exc-cor stress (kbar)  -6414.69      1.83     -0.00
                                1.83  -6404.35     -0.00
                               -0.00     -0.00  -6394.45

     corecor stress (kbar)  -3966.48     -2.39      0.00
                               -2.39  -3979.96      0.00
                                0.00      0.00  -4006.44

     ewald   stress (kbar) -66492.94   3138.33     -0.00
                             3138.33 -48810.44      0.00
                               -0.00      0.00 -48563.62

     hubbard stress (kbar)      0.00      0.00      0.00
                                0.00      0.00      0.00
                                0.00      0.00      0.00

     DFT-D   stress (kbar)      0.00      0.00      0.00
                                0.00      0.00      0.00
                                0.00      0.00      0.00

     XDM     stress (kbar)      0.00      0.00      0.00
                                0.00      0.00      0.00
                                0.00      0.00      0.00

     dft-nl  stress (kbar)      0.00      0.00      0.00
                                0.00      0.00      0.00
                                0.00      0.00      0.00

     TS-vdW  stress (kbar)      0.00      0.00      0.00
                                0.00      0.00      0.00
                                0.00      0.00      0.00

[...]

                                0.00      0.00      0.00

     Writing all to output data dir new_calculations/myprefix.save/

     General routines

     Parallel routines

   This run was terminated on:  18:49: 2  20May2023

   JOB DONE.