     Program PWSCF v.7.0 starts on 20May2023 at  9:37:13

     Reading input from espresso_19214.pwi
Warning: card &CELL ignored
Warning: card / ignored

     Current dimensions of program PWSCF are:
     Max number of different atomic species (ntypx) = 10
     Max number of k-points (npk) =  40000
     Max angular momentum in pseudopotentials (lmaxx) =  4

     gamma-point specific algorithms are used

     Subspace diagonalization in iterative solution of the eigenvalue problem:
     a serial algorithm will be used

     Using Slab Decomposition

     bravais-lattice index     =            0
     lattice parameter (alat)  =      13.7968  a.u.
     unit-cell volume          =     718.0120 (a.u.)^3
     number of atoms/cell      =            4
     number of atomic types    =            3
     number of electrons       =        52.00
     number of Kohn-Sham states=           31
     kinetic-energy cutoff     =      30.0000  Ry
     charge density cutoff     =     240.0000  Ry
     scf convergence threshold =      1.0E-06
     mixing beta               =       0.7000
     number of iterations used =            8  plain     mixing
     Exchange-correlation= SLA  PW   PBE  PBE
                           (   1   4   3   4   0   0   0)

     celldm(1)=  13.796769  celldm(2)=   0.000000  celldm(3)=   0.000000
     celldm(4)=   0.000000  celldm(5)=   0.000000  celldm(6)=   0.000000

     crystal axes: (cart. coord. in units of alat)
               a(1) = (   1.000000   0.000000   0.000000 )
               a(2) = (   0.832526   0.553985   0.000000 )
               a(3) = (   0.832526   0.251679   0.493516 )

     reciprocal axes: (cart. coord. in units 2 pi/alat)
               b(1) = (  1.000000 -1.502794 -0.920548 )
               b(2) = (  0.000000  1.805101 -0.920548 )
               b(3) = (  0.000000  0.000000  2.026277 )

     PseudoPot. # 1 for Zn read from file:
     /home/pragov/projects/rrg-bengioy-ad/pragov/crystal_structure_design/SSSP/Zn_pbe_v1.uspp.F.UPF
     MD5 check sum: df62231357ef9e81f77b2b3087fa5675
     Pseudo is Ultrasoft, Zval = 20.0
     Generated by new atomic code, or converted to UPF format
     Using radial grid of  943 points,  6 beta functions with:
                l(1) =   0
                l(2) =   0
                l(3) =   1
                l(4) =   1
                l(5) =   2
                l(6) =   2
     Q(r) pseudized with  8 coefficients,  rinner =    1.100   1.100   1.100
                                                       1.100   1.100

     PseudoPot. # 2 for Te read from file:
     /home/pragov/projects/rrg-bengioy-ad/pragov/crystal_structure_design/SSSP/Te_pbe_v1.uspp.F.UPF
     MD5 check sum: c319670d6894cc26e93307826a071b75
     Pseudo is Ultrasoft + core correction, Zval =  6.0
     Generated by new atomic code, or converted to UPF format
     Using radial grid of  891 points,  5 beta functions with:
                l(1) =   0
                l(2) =   0
                l(3) =   1
                l(4) =   1
                l(5) =   2
     Q(r) pseudized with  6 coefficients,  rinner =    1.800   1.800   1.800
                                                       1.800   1.800

     PseudoPot. # 3 for Se read from file:
     /home/pragov/projects/rrg-bengioy-ad/pragov/crystal_structure_design/SSSP/Se_pbe_v1.uspp.F.UPF
     MD5 check sum: 1b3568f3a8ae88f9a2a0ad0698632c85
     Pseudo is Ultrasoft + core correction, Zval =  6.0
     Generated by new atomic code, or converted to UPF format
     Using radial grid of  877 points,  6 beta functions with:
                l(1) =   0
                l(2) =   0
                l(3) =   1
                l(4) =   1
                l(5) =   2
                l(6) =   2
     Q(r) pseudized with  8 coefficients,  rinner =    1.300   1.300   1.300
                                                       1.300   1.300

     atomic species   valence    mass     pseudopotential
        Zn            20.00    65.38000     Zn( 1.00)
        Te             6.00   127.60000     Te( 1.00)
        Se             6.00    78.97100     Se( 1.00)

     No symmetry found

                                    s                        frac. trans.

      isym =  1     identity

 cryst.   s( 1) = (     1          0          0      )
                  (     0          1          0      )
                  (     0          0          1      )

 cart.    s( 1) = (  1.0000000 -0.0000000 -0.0000000 )
                  (  0.0000000  1.0000000  0.0000000 )
                  (  0.0000000  0.0000000  1.0000000 )

   Cartesian axes

     site n.     atom                  positions (alat units)
         1           Zn  tau(   1) = (   2.6518660   0.8016776   0.4910740  )
         2           Zn  tau(   2) = (   1.3452680   0.4066839   0.2491175  )
         3           Te  tau(   3) = (   1.0002103   0.3023705   0.1852195  )
         4           Se  tau(   4) = (   2.3315507   0.7048440   0.4317578  )

   Crystallographic axes

     site n.     atom                  positions (cryst. coord.)
         1           Zn  tau(   1) = (  0.9950520  0.9950520  0.9950520  )
         2           Zn  tau(   2) = (  0.5047810  0.5047810  0.5047810  )
         3           Te  tau(   3) = (  0.3753060  0.3753060  0.3753060  )
         4           Se  tau(   4) = (  0.8748610  0.8748610  0.8748610  )

     number of k points=     1  Methfessel-Paxton smearing, width (Ry)=  0.0010
                       cart. coord. in units 2pi/alat
        k(    1) = (   0.0000000   0.0000000   0.0000000), wk =   2.0000000

                       cryst. coord.
        k(    1) = (   0.0000000   0.0000000   0.0000000), wk =   2.0000000

     Initial potential from superposition of free atoms

     starting charge      51.9994, renormalised to      52.0000
     Starting wfcs are   34 randomized atomic wfcs

     Self-consistent Calculation

     iteration #  1     ecut=    30.00 Ry     beta= 0.70
     Davidson diagonalization with overlap

     ethr =  1.00E-02,  avg # of iterations =  3.0

     total energy              =    -992.01910603 Ry
     estimated scf accuracy    <       0.54030734 Ry

[...]

     total energy              =    -992.20674369 Ry
     estimated scf accuracy    <       0.00000224 Ry

     iteration # 10     ecut=    30.00 Ry     beta= 0.70
     Davidson diagonalization with overlap

     ethr =  4.32E-09,  avg # of iterations =  2.0

     End of self-consistent calculation

          k = 0.0000 0.0000 0.0000 (   984 PWs)   bands (ev):

  -120.1853-120.1260 -74.3487 -74.2882 -74.2882 -74.2626 -74.2305 -74.2304
    -5.9127  -4.5488  -1.2400  -1.2233  -1.2233  -1.1508  -1.1508  -1.0572
    -1.0572  -1.0016  -1.0015  -0.8641   1.1719   5.5015   5.5015   6.4438
     6.5853   6.5853   6.8248   8.4134  10.9203  10.9204  10.9955

     occupation numbers
     1.0000   1.0000   1.0000   1.0000   1.0000   1.0000   1.0000   1.0000
     1.0000   1.0000   1.0000   1.0000   1.0000   1.0000   1.0000   1.0000
     1.0000   1.0000   1.0000   1.0000   1.0000   1.0000   1.0000   1.0000
     1.0000   1.0000  -0.0000  -0.0000  -0.0000  -0.0000  -0.0000

     the Fermi energy is     6.7027 ev

!    total energy              =    -992.20674394 Ry
     estimated scf accuracy    <       0.00000015 Ry
     smearing contrib. (-TS)   =       0.00000000 Ry
     internal energy E=F+TS    =    -992.20674394 Ry

     The total energy is F=E-TS. E is the sum of the following terms:
     one-electron contribution =    -974.58013415 Ry
     hartree contribution      =     498.90582899 Ry
     xc contribution           =    -129.03333665 Ry
     ewald contribution        =    -387.49910214 Ry

     convergence has been achieved in  10 iterations

     Forces acting on atoms (cartesian axes, Ry/au):

     atom    1 type  1   force =    -0.07241199   -0.02187494   -0.01319692
     atom    2 type  1   force =    -0.04314518   -0.01307253   -0.00772214
     atom    3 type  2   force =     0.07781921    0.02353525    0.01413900
     atom    4 type  3   force =     0.03773795    0.01141222    0.00678006
     The non-local contrib.  to forces
     atom    1 type  1   force =     0.75341104    0.22773358    0.13978832
     atom    2 type  1   force =     0.92106056    0.27839467    0.17095068
     atom    3 type  2   force =     0.02422323    0.00737755    0.00377801
     atom    4 type  3   force =     0.21623292    0.06532760    0.04072647
     The ionic contribution  to forces
     atom    1 type  1   force =     5.13915356    1.55360199    0.95166959
     atom    2 type  1   force =    -4.80835945   -1.45360062   -0.89041515
     atom    3 type  2   force =     1.46815649    0.44383395    0.27187460
     atom    4 type  3   force =    -1.79895059   -0.54383532   -0.33312905
     The local contribution  to forces
     atom    1 type  1   force =    -5.96445054   -1.80307362   -1.10503291
     atom    2 type  1   force =     3.84398110    1.16212347    0.71119055
     atom    3 type  2   force =    -1.41865842   -0.42891891   -0.26206329
     atom    4 type  3   force =     1.64716159    0.49798847    0.30431596
     The core correction contribution to forces
     atom    1 type  1   force =     0.00000000    0.00000000    0.00000000
     atom    2 type  1   force =     0.00000000    0.00000000    0.00000000
     atom    3 type  2   force =     0.00397930    0.00120860    0.00066392
     atom    4 type  3   force =    -0.02651681   -0.00801149   -0.00500080
     The Hubbard contrib.    to forces
     atom    1 type  1   force =     0.00000000    0.00000000    0.00000000
     atom    2 type  1   force =     0.00000000    0.00000000    0.00000000
     atom    3 type  2   force =     0.00000000    0.00000000    0.00000000
     atom    4 type  3   force =     0.00000000    0.00000000    0.00000000
     The SCF correction term to forces
     atom    1 type  1   force =    -0.00057241   -0.00015623    0.00059574
     atom    2 type  1   force =     0.00012626   -0.00000939    0.00076943
     atom    3 type  2   force =     0.00007225    0.00001470    0.00010342
     atom    4 type  3   force =    -0.00023552   -0.00007639    0.00008514

     Total force =     0.128055     Total SCF correction =     0.001183

     Computing stress (Cartesian axis) and pressure

          total   stress  (Ry/bohr**3)                   (kbar)     P=       11.97
  -0.00083254  -0.00044231  -0.00027065         -122.47      -65.07      -39.81
  -0.00044231   0.00049679  -0.00008184          -65.07       73.08      -12.04
  -0.00027065  -0.00008184   0.00057987          -39.81      -12.04       85.30

     kinetic stress (kbar)  12611.89    -81.87    -50.13
                              -81.87  12857.95    -15.16
                              -50.13    -15.16  12873.34

     local   stress (kbar) -11572.70    143.62     87.85
                              143.62 -12004.34     26.56
                               87.85     26.56 -12031.44

     nonloc. stress (kbar)  -2055.57     15.52      9.53
                               15.52  -2102.24      2.88
                                9.53      2.88  -2105.13

     hartree stress (kbar)  33888.49    -88.65    -54.18
                              -88.65  34154.90    -16.38
                              -54.18    -16.38  34171.58

     exc-cor stress (kbar)    982.81      0.11      0.07
                                0.11    982.48      0.02
                                0.07      0.02    982.46

     corecor stress (kbar)  -7388.75      6.80      4.17
                                6.80  -7409.19      1.26
                                4.17      1.26  -7410.47

     ewald   stress (kbar) -26588.64    -60.61    -37.12
                              -60.61 -26406.48    -11.22
                              -37.12    -11.22 -26395.03

     hubbard stress (kbar)      0.00      0.00      0.00
                                0.00      0.00      0.00
                                0.00      0.00      0.00

     DFT-D   stress (kbar)      0.00      0.00      0.00
                                0.00      0.00      0.00
                                0.00      0.00      0.00

     XDM     stress (kbar)      0.00      0.00      0.00
                                0.00      0.00      0.00
                                0.00      0.00      0.00

     dft-nl  stress (kbar)      0.00      0.00      0.00
                                0.00      0.00      0.00
                                0.00      0.00      0.00

     TS-vdW  stress (kbar)      0.00      0.00      0.00
                                0.00      0.00      0.00
                                0.00      0.00      0.00

[...]

                                0.00      0.00      0.00

     Writing all to output data dir new_calculations/myprefix.save/

     General routines

     Parallel routines

   This run was terminated on:   9:37:31  20May2023

   JOB DONE.