     Program PWSCF v.7.0 starts on 20May2023 at 13:20:44

     Reading input from espresso_19302.pwi
Warning: card &CELL ignored
Warning: card / ignored

     Current dimensions of program PWSCF are:
     Max number of different atomic species (ntypx) = 10
     Max number of k-points (npk) =  40000
     Max angular momentum in pseudopotentials (lmaxx) =  4
     file Ba.pbe-spn-kjpaw_psl.1.0.0.UPF: wavefunction(s)  5S 6S renormalized

     gamma-point specific algorithms are used
     Message from routine setup:
     using ibrav=0 with symmetry is DISCOURAGED, use correct ibrav instead

     Subspace diagonalization in iterative solution of the eigenvalue problem:
     a serial algorithm will be used

     Using Slab Decomposition

     bravais-lattice index     =            0
     lattice parameter (alat)  =      14.9256  a.u.
     unit-cell volume          =    6452.6725 (a.u.)^3
     number of atoms/cell      =           18
     number of atomic types    =            3
     number of electrons       =       144.00
     number of Kohn-Sham states=           86
     kinetic-energy cutoff     =      30.0000  Ry
     charge density cutoff     =     240.0000  Ry
     scf convergence threshold =      1.0E-06
     mixing beta               =       0.7000
     number of iterations used =            8  plain     mixing
     Exchange-correlation= SLA  PW   PBX  PBC
                           (   1   4   3   4   0   0   0)

     celldm(1)=  14.925592  celldm(2)=   0.000000  celldm(3)=   0.000000
     celldm(4)=   0.000000  celldm(5)=   0.000000  celldm(6)=   0.000000

     crystal axes: (cart. coord. in units of alat)
               a(1) = (   1.000000   0.000000   0.000000 )
               a(2) = (   0.000000   1.000000   0.000000 )
               a(3) = (   0.000000   0.000000   1.940640 )

     reciprocal axes: (cart. coord. in units 2 pi/alat)
               b(1) = (  1.000000  0.000000  0.000000 )
               b(2) = (  0.000000  1.000000  0.000000 )
               b(3) = (  0.000000  0.000000  0.515294 )

     PseudoPot. # 1 for Ba read from file:
     /home/pragov/projects/rrg-bengioy-ad/pragov/crystal_structure_design/SSSP/Ba.pbe-spn-kjpaw_psl.1.0.0.UPF
     MD5 check sum: c432291d3e53af55f19d5e8866385beb
     Pseudo is Projector augmented-wave + core cor, Zval = 10.0
     Generated using "atomic" code by A. Dal Corso  v.5.1
     Shape of augmentation charge: PSQ
     Using radial grid of 1251 points,  7 beta functions with:
                l(1) =   0
                l(2) =   0
                l(3) =   0
                l(4) =   1
                l(5) =   1
                l(6) =   2
                l(7) =   2
     Q(r) pseudized with 0 coefficients

     PseudoPot. # 2 for Ca read from file:
     /home/pragov/projects/rrg-bengioy-ad/pragov/crystal_structure_design/SSSP/Ca_pbe_v1.uspp.F.UPF
     MD5 check sum: 403a4c14b9e4d4dfdc3024c9a3812218
     Pseudo is Ultrasoft + core correction, Zval = 10.0
     Generated by new atomic code, or converted to UPF format
     Using radial grid of  845 points,  6 beta functions with:
                l(1) =   0
                l(2) =   0
                l(3) =   1
                l(4) =   1
                l(5) =   2
                l(6) =   2
     Q(r) pseudized with  8 coefficients,  rinner =    1.500   1.500   1.500
                                                       1.500   1.500

     PseudoPot. # 3 for I  read from file:
     /home/pragov/projects/rrg-bengioy-ad/pragov/crystal_structure_design/SSSP/I.pbe-n-kjpaw_psl.0.2.UPF
     MD5 check sum: d4ef18d9c8f18dc85e5843bca1e50dc0
     Pseudo is Projector augmented-wave + core cor, Zval =  7.0
     Generated using "atomic" code by A. Dal Corso  v.5.0.99 svn rev. 10869
     Shape of augmentation charge: PSQ
     Using radial grid of 1247 points,  4 beta functions with:
                l(1) =   0
                l(2) =   0
                l(3) =   1
                l(4) =   1
     Q(r) pseudized with 0 coefficients

     atomic species   valence    mass     pseudopotential
        Ba            10.00   137.32700     Ba( 1.00)
        Ca            10.00    40.07800     Ca( 1.00)
        I              7.00   126.90447     I ( 1.00)

     16 Sym. Ops., with inversion, found ( 8 have fractional translation)

                                    s                        frac. trans.

      isym =  1     identity

 cryst.   s( 1) = (     1          0          0      )
                  (     0          1          0      )
                  (     0          0          1      )

 cart.    s( 1) = (  1.0000000  0.0000000  0.0000000 )
                  (  0.0000000  1.0000000  0.0000000 )
                  (  0.0000000  0.0000000  1.0000000 )

      isym =  2     180 deg rotation - cart. axis [0,0,1]

[...]

 cryst.   s( 3) = (    -1          0          0      )    f =(  0.5000000 )
                  (     0          1          0      )       ( -0.5000000 )
                  (     0          0         -1      )       ( -0.5000000 )

 cart.    s( 3) = ( -1.0000000  0.0000000  0.0000000 )    f =(  0.5000000 )
                  (  0.0000000  1.0000000  0.0000000 )       ( -0.5000000 )
                  (  0.0000000  0.0000000 -1.0000000 )       ( -0.9703199 )

[...]

      isym =  8      90 deg rotation - cart. axis [0,0,1]

 cryst.   s( 8) = (     0          1          0      )    f =(  0.5000000 )
                  (    -1          0          0      )       ( -0.5000000 )
                  (     0          0          1      )       ( -0.5000000 )

 cart.    s( 8) = (  0.0000000 -1.0000000  0.0000000 )    f =(  0.5000000 )
                  (  1.0000000  0.0000000  0.0000000 )       ( -0.5000000 )
                  (  0.0000000  0.0000000  1.0000000 )       ( -0.9703199 )

      isym =  9     inversion

 cryst.   s( 9) = (    -1          0          0      )
                  (     0         -1          0      )
                  (     0          0         -1      )

 cart.    s( 9) = ( -1.0000000  0.0000000  0.0000000 )
                  (  0.0000000 -1.0000000  0.0000000 )
                  (  0.0000000  0.0000000 -1.0000000 )

      isym = 10     inv. 180 deg rotation - cart. axis [0,0,1]

 cryst.   s(10) = (     1          0          0      )
                  (     0          1          0      )
                  (     0          0         -1      )

 cart.    s(10) = (  1.0000000  0.0000000  0.0000000 )
                  (  0.0000000  1.0000000  0.0000000 )
                  (  0.0000000  0.0000000 -1.0000000 )

[...]

 cryst.   s(11) = (     1          0          0      )    f =( -0.5000000 )
                  (     0         -1          0      )       (  0.5000000 )
                  (     0          0          1      )       ( -0.5000000 )

 cart.    s(11) = (  1.0000000  0.0000000  0.0000000 )    f =( -0.5000000 )
                  (  0.0000000 -1.0000000  0.0000000 )       (  0.5000000 )
                  (  0.0000000  0.0000000  1.0000000 )       ( -0.9703199 )

[...]

 cryst.   s(14) = (     0          1          0      )
                  (     1          0          0      )
                  (     0          0          1      )

 cart.    s(14) = (  0.0000000  1.0000000  0.0000000 )
                  (  1.0000000  0.0000000  0.0000000 )
                  (  0.0000000  0.0000000  1.0000000 )

[...]

      isym = 16     inv.  90 deg rotation - cart. axis [0,0,1]

 cryst.   s(16) = (     0         -1          0      )    f =( -0.5000000 )
                  (     1          0          0      )       (  0.5000000 )
                  (     0          0         -1      )       ( -0.5000000 )

 cart.    s(16) = (  0.0000000  1.0000000  0.0000000 )    f =( -0.5000000 )
                  ( -1.0000000  0.0000000  0.0000000 )       (  0.5000000 )
                  (  0.0000000  0.0000000 -1.0000000 )       ( -0.9703199 )

   Cartesian axes

     site n.     atom                  positions (alat units)
         1           Ba  tau(   1) = (   0.0000000   0.0000000   0.6487967  )
         2           Ba  tau(   2) = (   0.0000000   0.0000000   1.2918432  )
         3           Ba  tau(   3) = (   0.5000000   0.5000000   0.3215233  )
         4           Ba  tau(   4) = (   0.5000000   0.5000000   1.6191166  )
         5           Ca  tau(   5) = (   0.0000000   0.0000000   0.0000000  )
         6           Ca  tau(   6) = (   0.5000000   0.5000000   0.9703199  )
         7           I   tau(   7) = (   0.1887120   0.8112880   0.2999375  )
         8           I   tau(   8) = (   0.1887120   0.8112880   1.6407023  )
         9           I   tau(   9) = (   0.2132760   0.7867240   0.9703199  )
        10           I   tau(  10) = (   0.2867240   0.2867240   0.0000000  )
        11           I   tau(  11) = (   0.3112880   0.3112880   0.6703824  )
        12           I   tau(  12) = (   0.3112880   0.3112880   1.2702575  )
        13           I   tau(  13) = (   0.6887120   0.6887120   0.6703824  )
        14           I   tau(  14) = (   0.6887120   0.6887120   1.2702575  )
        15           I   tau(  15) = (   0.7132760   0.7132760   0.0000000  )
        16           I   tau(  16) = (   0.7867240   0.2132760   0.9703199  )
        17           I   tau(  17) = (   0.8112880   0.1887120   0.2999375  )
        18           I   tau(  18) = (   0.8112880   0.1887120   1.6407023  )

   Crystallographic axes

     site n.     atom                  positions (cryst. coord.)
         1           Ba  tau(   1) = (  0.0000000  0.0000000  0.3343210  )
         2           Ba  tau(   2) = (  0.0000000  0.0000000  0.6656790  )
         3           Ba  tau(   3) = (  0.5000000  0.5000000  0.1656790  )
         4           Ba  tau(   4) = (  0.5000000  0.5000000  0.8343210  )
         5           Ca  tau(   5) = (  0.0000000  0.0000000  0.0000000  )
         6           Ca  tau(   6) = (  0.5000000  0.5000000  0.5000000  )
         7           I   tau(   7) = (  0.1887120  0.8112880  0.1545560  )
         8           I   tau(   8) = (  0.1887120  0.8112880  0.8454440  )
         9           I   tau(   9) = (  0.2132760  0.7867240  0.5000000  )
        10           I   tau(  10) = (  0.2867240  0.2867240  0.0000000  )
        11           I   tau(  11) = (  0.3112880  0.3112880  0.3454440  )
        12           I   tau(  12) = (  0.3112880  0.3112880  0.6545560  )
        13           I   tau(  13) = (  0.6887120  0.6887120  0.3454440  )
        14           I   tau(  14) = (  0.6887120  0.6887120  0.6545560  )
        15           I   tau(  15) = (  0.7132760  0.7132760  0.0000000  )
        16           I   tau(  16) = (  0.7867240  0.2132760  0.5000000  )
        17           I   tau(  17) = (  0.8112880  0.1887120  0.1545560  )
        18           I   tau(  18) = (  0.8112880  0.1887120  0.8454440  )

     number of k points=     1  Methfessel-Paxton smearing, width (Ry)=  0.0010
                       cart. coord. in units 2pi/alat
        k(    1) = (   0.0000000   0.0000000   0.0000000), wk =   2.0000000

                       cryst. coord.
        k(    1) = (   0.0000000   0.0000000   0.0000000), wk =   2.0000000

     Check: negative core charge=   -0.000001

     Initial potential from superposition of free atoms

     starting charge     143.9202, renormalised to     144.0000
     Starting wfcs are   88 randomized atomic wfcs
     Checking if some PAW data can be deallocated...

     Self-consistent Calculation

     iteration #  1     ecut=    30.00 Ry     beta= 0.70
     Davidson diagonalization with overlap

     ethr =  1.00E-02,  avg # of iterations =  7.0

     Threshold (ethr) on eigenvalues was too large:
     Diagonalizing with lowered threshold

     Davidson diagonalization with overlap

[...]

     total energy              =   -6443.70169451 Ry
     estimated scf accuracy    <       0.21885357 Ry

[...]

     total energy              =   -6443.75551263 Ry
     estimated scf accuracy    <       0.00000340 Ry

     iteration # 15     ecut=    30.00 Ry     beta= 0.70
     Davidson diagonalization with overlap

     ethr =  2.36E-09,  avg # of iterations =  2.0

     End of self-consistent calculation

          k = 0.0000 0.0000 0.0000 (  8938 PWs)   bands (ev):

   -38.6124 -38.6123 -25.2466 -25.2459 -25.2450 -25.2443 -19.6021 -19.6020
   -19.5939 -19.5938 -19.5916 -19.5915 -10.6495 -10.6246 -10.6114 -10.6114
   -10.5757 -10.5757 -10.5019 -10.4943 -10.4941 -10.4941 -10.4335 -10.4334
    -9.4144  -9.2112  -9.2068  -9.1362  -9.1061  -9.1061  -9.0628  -9.0018
    -9.0018  -8.9439  -8.9439  -8.9411  -0.7623  -0.5833  -0.2736  -0.1230
    -0.0117   0.1307   0.1307   0.2004   0.2385   0.2617   0.3131   0.3157
     0.4330   0.4330   0.4746   0.4766   0.4766   0.5115   0.5184   0.5184
     0.7067   0.7089   0.7089   0.7190   0.9578   0.9578   1.1435   1.1435
     1.1716   1.1716   1.1910   1.2139   1.4188   1.4188   1.4339   1.6483
     5.2349   5.5108   5.5308   5.8285   5.8877   5.9878   6.0080   6.0081
     6.0105   6.0166   6.0167   6.1457   6.1458   6.4064

     occupation numbers
     1.0000   1.0000   1.0000   1.0000   1.0000   1.0000   1.0000   1.0000
     1.0000   1.0000   1.0000   1.0000   1.0000   1.0000   1.0000   1.0000
     1.0000   1.0000   1.0000   1.0000   1.0000   1.0000   1.0000   1.0000
     1.0000   1.0000   1.0000   1.0000   1.0000   1.0000   1.0000   1.0000
     1.0000   1.0000   1.0000   1.0000   1.0000   1.0000   1.0000   1.0000
     1.0000   1.0000   1.0000   1.0000   1.0000   1.0000   1.0000   1.0000
     1.0000   1.0000   1.0000   1.0000   1.0000   1.0000   1.0000   1.0000
     1.0000   1.0000   1.0000   1.0000   1.0000   1.0000   1.0000   1.0000
     1.0000   1.0000   1.0000   1.0000   1.0000   1.0000   1.0000   1.0000
    -0.0000  -0.0000  -0.0000  -0.0000  -0.0000  -0.0000  -0.0000  -0.0000
    -0.0000  -0.0000  -0.0000  -0.0000  -0.0000  -0.0000

     the Fermi energy is     3.7118 ev

!    total energy              =   -6443.75551256 Ry
     estimated scf accuracy    <       0.00000055 Ry
     smearing contrib. (-TS)   =       0.00000000 Ry
     internal energy E=F+TS    =   -6443.75551256 Ry

     The total energy is F=E-TS. E is the sum of the following terms:
     one-electron contribution =    -201.65531156 Ry
     hartree contribution      =     148.67733899 Ry
     xc contribution           =    -605.94617250 Ry
     ewald contribution        =    -438.70501036 Ry
     one-center paw contrib.   =   -5346.12635713 Ry
      -> PAW hartree energy AE =     231.98393677 Ry
      -> PAW hartree energy PS =    -232.28631939 Ry
      -> PAW xc energy AE      =   -5908.50910806 Ry
      -> PAW xc energy PS      =     562.68513355 Ry
      -> total E_H with PAW    =     148.37495637 Ry
      -> total E_XC with PAW   =   -5951.77014701 Ry

     convergence has been achieved in  15 iterations

     Forces acting on atoms (cartesian axes, Ry/au):

     atom    1 type  1   force =     0.00000000    0.00000000   -0.00134276
     atom    2 type  1   force =     0.00000000    0.00000000    0.00134276
     atom    3 type  1   force =     0.00000000    0.00000000    0.00134276
     atom    4 type  1   force =     0.00000000    0.00000000   -0.00134276
     atom    5 type  2   force =     0.00000000    0.00000000    0.00000000
     atom    6 type  2   force =     0.00000000    0.00000000    0.00000000
     atom    7 type  3   force =     0.00026246   -0.00026246   -0.00061851
     atom    8 type  3   force =     0.00026246   -0.00026246    0.00061851
     atom    9 type  3   force =    -0.00066437    0.00066437   -0.00000000
     atom   10 type  3   force =     0.00066437    0.00066437    0.00000000
     atom   11 type  3   force =    -0.00026246   -0.00026246    0.00061851
     atom   12 type  3   force =    -0.00026246   -0.00026246   -0.00061851
     atom   13 type  3   force =     0.00026246    0.00026246    0.00061851
     atom   14 type  3   force =     0.00026246    0.00026246   -0.00061851
     atom   15 type  3   force =    -0.00066437   -0.00066437    0.00000000
     atom   16 type  3   force =     0.00066437   -0.00066437   -0.00000000
     atom   17 type  3   force =    -0.00026246    0.00026246   -0.00061851
     atom   18 type  3   force =    -0.00026246    0.00026246    0.00061851
     The non-local contrib.  to forces
     atom    1 type  1   force =     0.00000000    0.00000000    0.00305275
     atom    2 type  1   force =     0.00000000    0.00000000   -0.00305275
     atom    3 type  1   force =     0.00000000    0.00000000   -0.00305275
     atom    4 type  1   force =     0.00000000    0.00000000    0.00305275
     atom    5 type  2   force =     0.00000000    0.00000000    0.00000000
     atom    6 type  2   force =     0.00000000    0.00000000    0.00000000
     atom    7 type  3   force =    -0.01431929    0.01431929    0.00028409
     atom    8 type  3   force =    -0.01431929    0.01431929   -0.00028409
     atom    9 type  3   force =    -0.01124412    0.01124412    0.00000000
     atom   10 type  3   force =     0.01124412    0.01124412    0.00000000
     atom   11 type  3   force =     0.01431929    0.01431929   -0.00028409
     atom   12 type  3   force =     0.01431929    0.01431929    0.00028409
     atom   13 type  3   force =    -0.01431929   -0.01431929   -0.00028409
     atom   14 type  3   force =    -0.01431929   -0.01431929    0.00028409
     atom   15 type  3   force =    -0.01124412   -0.01124412    0.00000000
     atom   16 type  3   force =     0.01124412   -0.01124412    0.00000000
     atom   17 type  3   force =     0.01431929   -0.01431929    0.00028409
     atom   18 type  3   force =     0.01431929   -0.01431929   -0.00028409
     The ionic contribution  to forces
     atom    1 type  1   force =     0.00000000    0.00000000   -0.00136729
     atom    2 type  1   force =     0.00000000    0.00000000    0.00136729
     atom    3 type  1   force =    -0.00000000    0.00000000    0.00136729
     atom    4 type  1   force =     0.00000000    0.00000000   -0.00136729
     atom    5 type  2   force =    -0.00000000   -0.00000000   -0.00000000
     atom    6 type  2   force =     0.00000000    0.00000000   -0.00000000
     atom    7 type  3   force =     1.03507072   -1.03507072    0.85809767
     atom    8 type  3   force =     1.03507072   -1.03507072   -0.85809767
     atom    9 type  3   force =    -0.29610170    0.29610170   -0.00000000
     atom   10 type  3   force =     0.29610170    0.29610170    0.00000000
     atom   11 type  3   force =    -1.03507072   -1.03507072   -0.85809767
     atom   12 type  3   force =    -1.03507072   -1.03507072    0.85809767
     atom   13 type  3   force =     1.03507072    1.03507072   -0.85809767
     atom   14 type  3   force =     1.03507072    1.03507072    0.85809767
     atom   15 type  3   force =    -0.29610170   -0.29610170    0.00000000
     atom   16 type  3   force =     0.29610170   -0.29610170   -0.00000000
     atom   17 type  3   force =    -1.03507072    1.03507072    0.85809767
     atom   18 type  3   force =    -1.03507072    1.03507072   -0.85809767
     The local contribution  to forces
     atom    1 type  1   force =    -0.00021550   -0.00002483   -0.00281085
     atom    2 type  1   force =     0.00025402   -0.00009256    0.00258830
     atom    3 type  1   force =    -0.00079522   -0.00064683    0.00309702
     atom    4 type  1   force =    -0.00007273   -0.00053123   -0.00261177
     atom    5 type  2   force =     0.00000428    0.00000029   -0.00000266
     atom    6 type  2   force =     0.00000006   -0.00000345   -0.00000582
     atom    7 type  3   force =    -1.02161726    1.02161660   -0.86056440
     atom    8 type  3   force =    -1.02161734    1.02161930    0.86056037
     atom    9 type  3   force =     0.30669968   -0.30669996    0.00000053
     atom   10 type  3   force =    -0.30667511   -0.30667501   -0.00000343
     atom   11 type  3   force =     1.02163885    1.02163772    0.86058578
     atom   12 type  3   force =     1.02163748    1.02163812   -0.86058325
     atom   13 type  3   force =    -1.02163820   -1.02163984    0.86058955
     atom   14 type  3   force =    -1.02163900   -1.02163900   -0.86058590
     atom   15 type  3   force =     0.30667617    0.30667610   -0.00000246
     atom   16 type  3   force =    -0.30670038    0.30670093   -0.00000367
     atom   17 type  3   force =     1.02161612   -1.02161554   -0.86056139
     atom   18 type  3   force =     1.02161879   -1.02161796    0.86056253
     The core correction contribution to forces
     atom    1 type  1   force =    -0.00000575    0.00000073   -0.00024216
     atom    2 type  1   force =     0.00000693   -0.00000633    0.00024203
     atom    3 type  1   force =    -0.00001379   -0.00001100    0.00024868
     atom    4 type  1   force =    -0.00000439   -0.00001352   -0.00023682
     atom    5 type  2   force =     0.00000014    0.00000006    0.00000006
     atom    6 type  2   force =    -0.00000006   -0.00000013   -0.00000021
     atom    7 type  3   force =     0.00113853   -0.00113857    0.00157821
     atom    8 type  3   force =     0.00113865   -0.00113828   -0.00157859
     atom    9 type  3   force =    -0.00001365    0.00001366   -0.00000015
     atom   10 type  3   force =     0.00001433    0.00001440   -0.00000028
     atom   11 type  3   force =    -0.00113800   -0.00113805   -0.00157740
     atom   12 type  3   force =    -0.00113800   -0.00113798    0.00157736
     atom   13 type  3   force =     0.00113818    0.00113804   -0.00157707
     atom   14 type  3   force =     0.00113805    0.00113796    0.00157709
     atom   15 type  3   force =    -0.00001416   -0.00001420   -0.00000006
     atom   16 type  3   force =     0.00001356   -0.00001357   -0.00000057
     atom   17 type  3   force =    -0.00113858    0.00113877    0.00157884
     atom   18 type  3   force =    -0.00113832    0.00113861   -0.00157838
     The Hubbard contrib.    to forces
     atom    1 type  1   force =     0.00000000    0.00000000    0.00000000
     atom    2 type  1   force =     0.00000000    0.00000000    0.00000000
     atom    3 type  1   force =     0.00000000    0.00000000    0.00000000
     atom    4 type  1   force =     0.00000000    0.00000000    0.00000000
     atom    5 type  2   force =     0.00000000    0.00000000    0.00000000
     atom    6 type  2   force =     0.00000000    0.00000000    0.00000000
     atom    7 type  3   force =     0.00000000    0.00000000    0.00000000
     atom    8 type  3   force =     0.00000000    0.00000000    0.00000000
     atom    9 type  3   force =     0.00000000    0.00000000    0.00000000
     atom   10 type  3   force =     0.00000000    0.00000000    0.00000000
     atom   11 type  3   force =     0.00000000    0.00000000    0.00000000
     atom   12 type  3   force =     0.00000000    0.00000000    0.00000000
     atom   13 type  3   force =     0.00000000    0.00000000    0.00000000
     atom   14 type  3   force =     0.00000000    0.00000000    0.00000000
     atom   15 type  3   force =     0.00000000    0.00000000    0.00000000
     atom   16 type  3   force =     0.00000000    0.00000000    0.00000000
     atom   17 type  3   force =     0.00000000    0.00000000    0.00000000
     atom   18 type  3   force =     0.00000000    0.00000000    0.00000000
     The SCF correction term to forces
     atom    1 type  1   force =     0.00002668    0.00000108   -0.00001942
     atom    2 type  1   force =    -0.00004032    0.00001118    0.00003667
     atom    3 type  1   force =     0.00010822    0.00008787   -0.00003985
     atom    4 type  1   force =     0.00000909    0.00006694   -0.00001904
     atom    5 type  2   force =    -0.00000349    0.00000028    0.00000461
     atom    6 type  2   force =    -0.00000086    0.00000173    0.00000240
     atom    7 type  3   force =    -0.00001353    0.00001419   -0.00001061
     atom    8 type  3   force =    -0.00001264    0.00001077    0.00001949
     atom    9 type  3   force =    -0.00000690    0.00000740   -0.00000256
     atom   10 type  3   force =    -0.00002338   -0.00002367    0.00000486
     atom   11 type  3   force =    -0.00001488   -0.00001452   -0.00000737
     atom   12 type  3   force =    -0.00001349   -0.00001417    0.00000286
     atom   13 type  3   force =     0.00001374    0.00001601   -0.00001170
     atom   14 type  3   force =     0.00001453    0.00001444    0.00000711
     atom   15 type  3   force =     0.00002164    0.00002202    0.00000369
     atom   16 type  3   force =     0.00000778   -0.00000878    0.00000547
     atom   17 type  3   force =     0.00001478   -0.00001545   -0.00001557
     atom   18 type  3   force =     0.00001123   -0.00001218    0.00001535

     Total force =     0.003861     Total SCF correction =     0.000192

     Computing stress (Cartesian axis) and pressure

          total   stress  (Ry/bohr**3)                   (kbar)     P=       -0.61
   0.00000046   0.00000000   0.00000000            0.07        0.00        0.00
   0.00000000   0.00000046   0.00000000            0.00        0.07        0.00
   0.00000000   0.00000000  -0.00001345            0.00        0.00       -1.98

     kinetic stress (kbar)   2857.04      0.00      0.00
                                0.00   2857.04      0.00
                                0.00      0.00   2839.62

     local   stress (kbar)    838.79      0.00      0.00
                                0.00    838.79     -0.00
                                0.00     -0.00  -1159.86

     nonloc. stress (kbar)    368.97      0.00      0.00
                                0.00    368.97      0.00
                                0.00      0.00    367.14

     hartree stress (kbar)    871.24     -0.00      0.00
                               -0.00    871.24     -0.00
                                0.00     -0.00   1647.01

     exc-cor stress (kbar)  10060.31     -0.00      0.00
                               -0.00  10060.31     -0.00
                                0.00     -0.00  10061.44

     corecor stress (kbar) -11249.92      0.00      0.00
                                0.00 -11249.92     -0.00
                                0.00     -0.00 -11248.65

     ewald   stress (kbar)  -3746.36      0.00     -0.00
                                0.00  -3746.36     -0.00
                               -0.00     -0.00  -2508.68

     hubbard stress (kbar)      0.00      0.00      0.00
                                0.00      0.00      0.00
                                0.00      0.00      0.00

     DFT-D   stress (kbar)      0.00      0.00      0.00
                                0.00      0.00      0.00
                                0.00      0.00      0.00

     XDM     stress (kbar)      0.00      0.00      0.00
                                0.00      0.00      0.00
                                0.00      0.00      0.00

     dft-nl  stress (kbar)      0.00      0.00      0.00
                                0.00      0.00      0.00
                                0.00      0.00      0.00

     TS-vdW  stress (kbar)      0.00      0.00      0.00
                                0.00      0.00      0.00
                                0.00      0.00      0.00

[...]

                                0.00      0.00      0.00

     Writing all to output data dir new_calculations/myprefix.save/

     General routines

     Parallel routines

     PAW routines

   This run was terminated on:  13:21:55  20May2023

   JOB DONE.