     Program PWSCF v.7.0 starts on 21May2023 at  2:10:54

     Reading input from espresso_26331.pwi
Warning: card &CELL ignored
Warning: card / ignored

     Current dimensions of program PWSCF are:
     Max number of different atomic species (ntypx) = 10
     Max number of k-points (npk) =  40000
     Max angular momentum in pseudopotentials (lmaxx) =  4

     gamma-point specific algorithms are used
     Message from routine setup:
     using ibrav=0 with symmetry is DISCOURAGED, use correct ibrav instead

     Subspace diagonalization in iterative solution of the eigenvalue problem:
     a serial algorithm will be used

     Using Slab Decomposition

     bravais-lattice index     =            0
     lattice parameter (alat)  =      14.3902  a.u.
     unit-cell volume          =    4146.3396 (a.u.)^3
     number of atoms/cell      =           16
     number of atomic types    =            3
     number of electrons       =       106.00
     number of Kohn-Sham states=           64
     kinetic-energy cutoff     =      30.0000  Ry
     charge density cutoff     =     240.0000  Ry
     scf convergence threshold =      1.0E-06
     mixing beta               =       0.7000
     number of iterations used =            8  plain     mixing
     Exchange-correlation= SLA  PW   PBE  PBE
                           (   1   4   3   4   0   0   0)

     celldm(1)=  14.390181  celldm(2)=   0.000000  celldm(3)=   0.000000
     celldm(4)=   0.000000  celldm(5)=   0.000000  celldm(6)=   0.000000

     crystal axes: (cart. coord. in units of alat)
               a(1) = (   1.000000   0.000000   0.000000 )
               a(2) = (   0.073892   1.017980   0.000000 )
               a(3) = (   0.058561   0.111778   1.366869 )

     reciprocal axes: (cart. coord. in units 2 pi/alat)
               b(1) = (  1.000000 -0.072587 -0.036907 )
               b(2) = (  0.000000  0.982338 -0.080333 )
               b(3) = (  0.000000  0.000000  0.731599 )

     PseudoPot. # 1 for Cs read from file:
     /home/pragov/projects/rrg-bengioy-ad/pragov/crystal_structure_design/SSSP/Cs_pbe_v1.uspp.F.UPF
     MD5 check sum: 3476d69cb178dfad3ffaa59df4e07ca4
     Pseudo is Ultrasoft + core correction, Zval =  9.0
     Generated by new atomic code, or converted to UPF format
     Using radial grid of  905 points,  6 beta functions with:
                l(1) =   0
                l(2) =   0
                l(3) =   1
                l(4) =   1
                l(5) =   2
                l(6) =   2
     Q(r) pseudized with  6 coefficients,  rinner =    1.500   1.500   1.500
                                                       1.500   1.500

     PseudoPot. # 2 for P  read from file:
     /home/pragov/projects/rrg-bengioy-ad/pragov/crystal_structure_design/SSSP/P.pbe-n-rrkjus_psl.1.0.0.UPF
     MD5 check sum: 8b930f418f0a4573dca56cd030ffe088
     Pseudo is Ultrasoft + core correction, Zval =  5.0
     Generated using "atomic" code by A. Dal Corso  v.5.1
     Using radial grid of 1147 points,  6 beta functions with:
                l(1) =   0
                l(2) =   0
                l(3) =   1
                l(4) =   1
                l(5) =   2
                l(6) =   2
     Q(r) pseudized with 0 coefficients

     PseudoPot. # 3 for Se read from file:
     /home/pragov/projects/rrg-bengioy-ad/pragov/crystal_structure_design/SSSP/Se_pbe_v1.uspp.F.UPF
     MD5 check sum: 1b3568f3a8ae88f9a2a0ad0698632c85
     Pseudo is Ultrasoft + core correction, Zval =  6.0
     Generated by new atomic code, or converted to UPF format
     Using radial grid of  877 points,  6 beta functions with:
                l(1) =   0
                l(2) =   0
                l(3) =   1
                l(4) =   1
                l(5) =   2
                l(6) =   2
     Q(r) pseudized with  8 coefficients,  rinner =    1.300   1.300   1.300
                                                       1.300   1.300

     atomic species   valence    mass     pseudopotential
        Cs             9.00   132.90545     Cs( 1.00)
        P              5.00    30.97376     P ( 1.00)
        Se             6.00    78.97100     Se( 1.00)

      2 Sym. Ops., with inversion, found

                                    s                        frac. trans.

      isym =  1     identity

 cryst.   s( 1) = (     1          0          0      )
                  (     0          1          0      )
                  (     0          0          1      )

 cart.    s( 1) = (  1.0000000 -0.0000000 -0.0000000 )
                  (  0.0000000  1.0000000 -0.0000000 )
                  (  0.0000000  0.0000000  1.0000000 )

      isym =  2     inversion

 cryst.   s( 2) = (    -1          0          0      )
                  (     0         -1          0      )
                  (     0          0         -1      )

 cart.    s( 2) = ( -1.0000000  0.0000000  0.0000000 )
                  (  0.0000000 -1.0000000  0.0000000 )
                  (  0.0000000  0.0000000 -1.0000000 )

   Cartesian axes

     site n.     atom                  positions (alat units)
         1           Cs  tau(   1) = (   0.8513815   0.2138637   0.8663530  )
         2           Cs  tau(   2) = (   0.2810720   0.9158945   0.5005160  )
         3           Cs  tau(   3) = (   0.2983167   0.3876531   1.3229911  )
         4           Cs  tau(   4) = (   0.8341369   0.7421051   0.0438779  )
         5           P   tau(   5) = (   0.3541658   0.8903501   1.0624645  )
         6           P   tau(   6) = (   0.7782877   0.2394081   0.3044045  )
         7           Se  tau(   7) = (   1.0175939   0.3663816   0.3987362  )
         8           Se  tau(   8) = (   0.5915930   0.6938390   1.0375766  )
         9           Se  tau(   9) = (   0.3459049   0.1140249   0.9219914  )
        10           Se  tau(  10) = (   0.1148596   0.7633766   0.9681328  )
        11           Se  tau(  11) = (   0.6723517   0.6737001   0.7410070  )
        12           Se  tau(  12) = (   0.4601019   0.4560581   0.6258620  )
        13           Se  tau(  13) = (   0.3863724   0.8920907   1.3517104  )
        14           Se  tau(  14) = (   0.7865486   1.0157333   0.4448776  )
        15           Se  tau(  15) = (   0.7460811   0.2376675   0.0151586  )
        16           Se  tau(  16) = (   0.5408605   0.4359192   0.3292924  )

   Crystallographic axes

     site n.     atom                  positions (cryst. coord.)
         1           Cs  tau(   1) = (  0.8038830  0.1404900  0.6338230  )
         2           Cs  tau(   2) = (  0.1961170  0.8595100  0.3661770  )
         3           Cs  tau(   3) = (  0.2213500  0.2745270  0.9678990  )
         4           Cs  tau(   4) = (  0.7786500  0.7254730  0.0321010  )
         5           P   tau(   5) = (  0.2503250  0.7892740  0.7772980  )
         6           P   tau(   6) = (  0.7496750  0.2107260  0.2227020  )
         7           Se  tau(   7) = (  0.9762830  0.3278790  0.2917150  )
         8           Se  tau(   8) = (  0.5029350  0.5982330  0.7590900  )
         9           Se  tau(   9) = (  0.3036000  0.0379450  0.6745280  )
        10           Se  tau(  10) = (  0.0237170  0.6721210  0.7082850  )
        11           Se  tau(  11) = (  0.5961010  0.6022740  0.5421200  )
        12           Se  tau(  12) = (  0.4038990  0.3977260  0.4578800  )
        13           Se  tau(  13) = (  0.2717300  0.7677480  0.9889100  )
        14           Se  tau(  14) = (  0.6964000  0.9620550  0.3254720  )
        15           Se  tau(  15) = (  0.7282700  0.2322520  0.0110900  )
        16           Se  tau(  16) = (  0.4970650  0.4017670  0.2409100  )

     number of k points=     1  Methfessel-Paxton smearing, width (Ry)=  0.0010
                       cart. coord. in units 2pi/alat
        k(    1) = (   0.0000000   0.0000000   0.0000000), wk =   2.0000000

                       cryst. coord.
        k(    1) = (   0.0000000   0.0000000   0.0000000), wk =   2.0000000

     Initial potential from superposition of free atoms

     starting charge     105.8414, renormalised to     106.0000
     Starting wfcs are  100 randomized atomic wfcs

     Self-consistent Calculation

     iteration #  1     ecut=    30.00 Ry     beta= 0.70
     Davidson diagonalization with overlap

     ethr =  1.00E-02,  avg # of iterations =  3.0

     Threshold (ethr) on eigenvalues was too large:
     Diagonalizing with lowered threshold

     Davidson diagonalization with overlap

[...]

     total energy              =    -716.84561829 Ry
     estimated scf accuracy    <       0.53826673 Ry

[...]

     total energy              =    -717.02575476 Ry
     estimated scf accuracy    <       0.00000219 Ry

     iteration # 10     ecut=    30.00 Ry     beta= 0.70
     Davidson diagonalization with overlap

     ethr =  2.06E-09,  avg # of iterations =  4.0

     End of self-consistent calculation

          k = 0.0000 0.0000 0.0000 (  5754 PWs)   bands (ev):

   -18.0326 -18.0212 -17.7776 -17.7680 -11.8537 -11.3696 -10.7620 -10.1968
    -8.9638  -8.7241  -8.6122  -8.6046  -8.5212  -7.6996  -5.0500  -5.0287
    -4.9757  -4.8717  -4.8641  -4.8628  -4.8329  -4.8032  -4.7160  -4.6635
    -4.6482  -4.6181  -4.6015  -4.5190  -1.8210  -1.6122  -1.1804  -1.1702
    -0.9511  -0.8579  -0.7646  -0.4215   0.1919   0.7452   1.2961   1.5664
     1.8992   1.9737   2.0395   2.1381   2.1856   2.3686   2.4142   2.5258
     2.6377   2.7461   2.8080   2.9296   3.0262   4.6027   4.9535   5.1396
     5.5419   5.7112   6.1883   6.3583   6.7395   6.9621   7.0587   7.3443

     occupation numbers
     1.0000   1.0000   1.0000   1.0000   1.0000   1.0000   1.0000   1.0000
     1.0000   1.0000   1.0000   1.0000   1.0000   1.0000   1.0000   1.0000
     1.0000   1.0000   1.0000   1.0000   1.0000   1.0000   1.0000   1.0000
     1.0000   1.0000   1.0000   1.0000   1.0000   1.0000   1.0000   1.0000
     1.0000   1.0000   1.0000   1.0000   1.0000   1.0000   1.0000   1.0000
     1.0000   1.0000   1.0000   1.0000   1.0000   1.0000   1.0000   1.0000
     1.0000   1.0000   1.0000   1.0000   1.0000  -0.0000  -0.0000  -0.0000
    -0.0000  -0.0000  -0.0000  -0.0000  -0.0000  -0.0000  -0.0000  -0.0000

     the Fermi energy is     4.2743 ev

!    total energy              =    -717.02575533 Ry
     estimated scf accuracy    <       0.00000037 Ry
     smearing contrib. (-TS)   =       0.00000000 Ry
     internal energy E=F+TS    =    -717.02575533 Ry

     The total energy is F=E-TS. E is the sum of the following terms:
     one-electron contribution =     -62.64048843 Ry
     hartree contribution      =      70.91821199 Ry
     xc contribution           =    -426.81982971 Ry
     ewald contribution        =    -298.48364919 Ry

     convergence has been achieved in  10 iterations

     Forces acting on atoms (cartesian axes, Ry/au):

     atom    1 type  1   force =    -0.00065064    0.00269150   -0.00798996
     atom    2 type  1   force =     0.00065064   -0.00269150    0.00798996
     atom    3 type  1   force =    -0.00253393    0.00453884   -0.00706344
     atom    4 type  1   force =     0.00253393   -0.00453884    0.00706344
     atom    5 type  2   force =    -0.00552747    0.00670798    0.00664360
     atom    6 type  2   force =     0.00552747   -0.00670798   -0.00664360
     atom    7 type  3   force =    -0.00527958   -0.01148004   -0.00044669
     atom    8 type  3   force =     0.00007834   -0.01057954    0.00444503
     atom    9 type  3   force =    -0.00523394   -0.00529055    0.00888697
     atom   10 type  3   force =     0.00527958    0.01148004    0.00044669
     atom   11 type  3   force =    -0.00102993    0.00369850    0.00974238
     atom   12 type  3   force =     0.00102993   -0.00369850   -0.00974238
     atom   13 type  3   force =     0.00887273   -0.00043651   -0.01723341
     atom   14 type  3   force =     0.00523394    0.00529055   -0.00888697
     atom   15 type  3   force =    -0.00887273    0.00043651    0.01723341
     atom   16 type  3   force =    -0.00007834    0.01057954   -0.00444503
     The non-local contrib.  to forces
     atom    1 type  1   force =     0.00627875    0.00044507    0.02549683
     atom    2 type  1   force =    -0.00627875   -0.00044507   -0.02549683
     atom    3 type  1   force =     0.00755970   -0.00461268    0.01252900
     atom    4 type  1   force =    -0.00755970    0.00461268   -0.01252900
     atom    5 type  2   force =     0.04108042   -0.01955836    0.02284540
     atom    6 type  2   force =    -0.04108042    0.01955836   -0.02284540
     atom    7 type  3   force =    -0.24680711   -0.10216788   -0.08758246
     atom    8 type  3   force =    -0.11471061    0.10259100   -0.31130939
     atom    9 type  3   force =    -0.06832745   -0.22257729    0.14705418
     atom   10 type  3   force =     0.24680711    0.10216788    0.08758246
     atom   11 type  3   force =    -0.25899191   -0.20361508    0.20663553
     atom   12 type  3   force =     0.25899191    0.20361508   -0.20663553
     atom   13 type  3   force =    -0.04289608    0.01420391   -0.23529079
     atom   14 type  3   force =     0.06832745    0.22257729   -0.14705418
     atom   15 type  3   force =     0.04289608   -0.01420391    0.23529079
     atom   16 type  3   force =     0.11471061   -0.10259100    0.31130939
     The ionic contribution  to forces
     atom    1 type  1   force =     0.57478919    0.31535072    1.33210681
     atom    2 type  1   force =    -0.57478919   -0.31535072   -1.33210681
     atom    3 type  1   force =    -0.31500456   -0.73784044   -0.09519471
     atom    4 type  1   force =     0.31500456    0.73784044    0.09519471
     atom    5 type  2   force =    -0.48069550    0.54825761    0.12730369
     atom    6 type  2   force =     0.48069550   -0.54825761   -0.12730369
     atom    7 type  3   force =     3.04132504    2.00082183    1.34442914
     atom    8 type  3   force =     1.98246016   -1.65133322    1.60656787
     atom    9 type  3   force =     0.64381600    3.07058211   -1.17530145
     atom   10 type  3   force =    -3.04132504   -2.00082183   -1.34442914
     atom   11 type  3   force =     2.67424525    1.00866228   -1.38826697
     atom   12 type  3   force =    -2.67424525   -1.00866228    1.38826697
     atom   13 type  3   force =     0.09324678    0.76640813    3.73960434
     atom   14 type  3   force =    -0.64381600   -3.07058211    1.17530145
     atom   15 type  3   force =    -0.09324678   -0.76640813   -3.73960434
     atom   16 type  3   force =    -1.98246016    1.65133321   -1.60656787
     The local contribution  to forces
     atom    1 type  1   force =    -0.58105416   -0.31249897   -1.36202101
     atom    2 type  1   force =     0.58105657    0.31253687    1.36227005
     atom    3 type  1   force =     0.30550976    0.74669702    0.07662890
     atom    4 type  1   force =    -0.30549264   -0.74665182   -0.07691924
     atom    5 type  2   force =     0.43674903   -0.52323245   -0.14240838
     atom    6 type  2   force =    -0.43670145    0.52314567    0.14244078
     atom    7 type  3   force =    -2.82548822   -1.91998144   -1.26613537
     atom    8 type  3   force =    -1.88036787    1.54943999   -1.32738408
     atom    9 type  3   force =    -0.58770234   -2.87648344    1.05278174
     atom   10 type  3   force =     2.82586653    1.92009986    1.26630043
     atom   11 type  3   force =    -2.44688678   -0.82577449    1.21515563
     atom   12 type  3   force =     2.44666421    0.82578226   -1.21482995
     atom   13 type  3   force =    -0.04604583   -0.77924939   -3.54627056
     atom   14 type  3   force =     0.58765768    2.87628750   -1.05259236
     atom   15 type  3   force =     0.04601924    0.77922300    3.54566996
     atom   16 type  3   force =     1.88008291   -1.54930661    1.32745654
     The core correction contribution to forces
     atom    1 type  1   force =    -0.00066778   -0.00051515   -0.00334740
     atom    2 type  1   force =     0.00066783    0.00051823    0.00335082
     atom    3 type  1   force =    -0.00049321    0.00033085   -0.00111371
     atom    4 type  1   force =     0.00049306   -0.00033108    0.00111615
     atom    5 type  2   force =    -0.00258568    0.00122369   -0.00110229
     atom    6 type  2   force =     0.00258457   -0.00122497    0.00110384
     atom    7 type  3   force =     0.02628619    0.01006407    0.00904128
     atom    8 type  3   force =     0.01291184   -0.01137723    0.03651949
     atom    9 type  3   force =     0.00703182    0.02335110   -0.01563205
     atom   10 type  3   force =    -0.02627450   -0.01005966   -0.00903792
     atom   11 type  3   force =     0.03060810    0.02441883   -0.02350546
     atom   12 type  3   force =    -0.03061302   -0.02441716    0.02350897
     atom   13 type  3   force =     0.00466470   -0.00184111    0.02463236
     atom   14 type  3   force =    -0.00703338   -0.02335578    0.01563582
     atom   15 type  3   force =    -0.00466662    0.00184068   -0.02464619
     atom   16 type  3   force =    -0.01291874    0.01138203   -0.03652074
     The Hubbard contrib.    to forces
     atom    1 type  1   force =     0.00000000    0.00000000    0.00000000
     atom    2 type  1   force =     0.00000000    0.00000000    0.00000000
     atom    3 type  1   force =     0.00000000    0.00000000    0.00000000
     atom    4 type  1   force =     0.00000000    0.00000000    0.00000000
     atom    5 type  2   force =     0.00000000    0.00000000    0.00000000
     atom    6 type  2   force =     0.00000000    0.00000000    0.00000000
     atom    7 type  3   force =     0.00000000    0.00000000    0.00000000
     atom    8 type  3   force =     0.00000000    0.00000000    0.00000000
     atom    9 type  3   force =     0.00000000    0.00000000    0.00000000
     atom   10 type  3   force =     0.00000000    0.00000000    0.00000000
     atom   11 type  3   force =     0.00000000    0.00000000    0.00000000
     atom   12 type  3   force =     0.00000000    0.00000000    0.00000000
     atom   13 type  3   force =     0.00000000    0.00000000    0.00000000
     atom   14 type  3   force =     0.00000000    0.00000000    0.00000000
     atom   15 type  3   force =     0.00000000    0.00000000    0.00000000
     atom   16 type  3   force =     0.00000000    0.00000000    0.00000000
     The SCF correction term to forces
     atom    1 type  1   force =     0.00000096   -0.00006883   -0.00021867
     atom    2 type  1   force =    -0.00000822    0.00007052   -0.00002075
     atom    3 type  1   force =    -0.00010677   -0.00003158    0.00010504
     atom    4 type  1   force =     0.00008750   -0.00000473    0.00021878
     atom    5 type  2   force =    -0.00009026    0.00000751    0.00002473
     atom    6 type  2   force =     0.00001475    0.00006058   -0.00001957
     atom    7 type  3   force =    -0.00054876   -0.00019756   -0.00018575
     atom    8 type  3   force =    -0.00024120    0.00011843    0.00004758
     atom    9 type  3   force =    -0.00005855   -0.00018462   -0.00000303
     atom   10 type  3   force =     0.00025221    0.00011286    0.00004441
     atom   11 type  3   force =    -0.00002056    0.00001247   -0.00026428
     atom   12 type  3   force =     0.00021612   -0.00001088   -0.00004077
     atom   13 type  3   force =    -0.00010498    0.00004227    0.00003004
     atom   14 type  3   force =     0.00009162    0.00034206   -0.00016527
     atom   15 type  3   force =     0.00011723   -0.00001481    0.00046200
     atom   16 type  3   force =     0.00048102   -0.00021957   -0.00012592

     Total force =     0.048571     Total SCF correction =     0.001234

     Computing stress (Cartesian axis) and pressure

          total   stress  (Ry/bohr**3)                   (kbar)     P=        9.25
   0.00016743   0.00000899   0.00000108           24.63        1.32        0.16
   0.00000899   0.00005726  -0.00000583            1.32        8.42       -0.86
   0.00000108  -0.00000583  -0.00003607            0.16       -0.86       -5.31

     kinetic stress (kbar)   2886.69    -33.73     -0.37
                              -33.73   2875.74     -1.02
                               -0.37     -1.02   2757.86

     local   stress (kbar)  -2688.61    198.22     54.20
                              198.22  -2669.44     33.08
                               54.20     33.08  -3651.03

     nonloc. stress (kbar)   4202.44     -3.18      4.31
                               -3.18   4202.10     -7.61
                                4.31     -7.61   4165.61

     hartree stress (kbar)    727.18   -106.86    -37.00
                             -106.86    731.20    -14.27
                              -37.00    -14.27   1057.67

     exc-cor stress (kbar)  11053.81      0.18      0.11
                                0.18  11053.75     -0.16
                                0.11     -0.16  11055.08

     corecor stress (kbar) -12383.03      1.05     -0.58
                                1.05 -12382.91      1.02
                               -0.58      1.02 -12376.67

     ewald   stress (kbar)  -3773.85    -54.36    -20.51
                              -54.36  -3802.02    -11.90
                              -20.51    -11.90  -3013.82

     hubbard stress (kbar)      0.00      0.00      0.00
                                0.00      0.00      0.00
                                0.00      0.00      0.00

     DFT-D   stress (kbar)      0.00      0.00      0.00
                                0.00      0.00      0.00
                                0.00      0.00      0.00

     XDM     stress (kbar)      0.00      0.00      0.00
                                0.00      0.00      0.00
                                0.00      0.00      0.00

     dft-nl  stress (kbar)      0.00      0.00      0.00
                                0.00      0.00      0.00
                                0.00      0.00      0.00

     TS-vdW  stress (kbar)      0.00      0.00      0.00
                                0.00      0.00      0.00
                                0.00      0.00      0.00

[...]

                                0.00      0.00      0.00

     Writing all to output data dir new_calculations/myprefix.save/

     General routines

     Parallel routines

   This run was terminated on:   2:11:38  21May2023

   JOB DONE.