     Program PWSCF v.7.0 starts on 21May2023 at  7:28:46

     Reading input from espresso_24505.pwi
Warning: card &CELL ignored
Warning: card / ignored

     Current dimensions of program PWSCF are:
     Max number of different atomic species (ntypx) = 10
     Max number of k-points (npk) =  40000
     Max angular momentum in pseudopotentials (lmaxx) =  4
     file Ga.pbe-dn-kjpaw_psl.1.0.0.UPF: wavefunction(s)  4S renormalized

     gamma-point specific algorithms are used
     Message from routine setup:
     using ibrav=0 with symmetry is DISCOURAGED, use correct ibrav instead

     Subspace diagonalization in iterative solution of the eigenvalue problem:
     a serial algorithm will be used

     Using Slab Decomposition

     bravais-lattice index     =            0
     lattice parameter (alat)  =      13.3778  a.u.
     unit-cell volume          =    1396.4844 (a.u.)^3
     number of atoms/cell      =            8
     number of atomic types    =            3
     number of electrons       =        88.00
     number of Kohn-Sham states=           53
     kinetic-energy cutoff     =      30.0000  Ry
     charge density cutoff     =     240.0000  Ry
     scf convergence threshold =      1.0E-06
     mixing beta               =       0.7000
     number of iterations used =            8  plain     mixing
     Exchange-correlation= SLA  PW   PBE  PBE
                           (   1   4   3   4   0   0   0)

     celldm(1)=  13.377820  celldm(2)=   0.000000  celldm(3)=   0.000000
     celldm(4)=   0.000000  celldm(5)=   0.000000  celldm(6)=   0.000000

     crystal axes: (cart. coord. in units of alat)
               a(1) = (   1.000000   0.000000   0.000000 )
               a(2) = (   0.267231   0.963633   0.000000 )
               a(3) = (  -0.633615  -0.481816   0.605297 )

     reciprocal axes: (cart. coord. in units 2 pi/alat)
               b(1) = (  1.000000 -0.277316  0.826041 )
               b(2) = (  0.000000  1.037740  0.826041 )
               b(3) = (  0.000000  0.000000  1.652081 )

     PseudoPot. # 1 for Ga read from file:
     /home/pragov/projects/rrg-bengioy-ad/pragov/crystal_structure_design/SSSP/Ga.pbe-dn-kjpaw_psl.1.0.0.UPF
     MD5 check sum: a27b4342b1af7e5f338de752e9ed7044
     Pseudo is Projector augmented-wave + core cor, Zval = 13.0
     Generated using "atomic" code by A. Dal Corso  v.5.1
     Shape of augmentation charge: PSQ
     Using radial grid of 1205 points,  6 beta functions with:
                l(1) =   0
                l(2) =   0
                l(3) =   1
                l(4) =   1
                l(5) =   2
                l(6) =   2
     Q(r) pseudized with 0 coefficients

     PseudoPot. # 2 for Ag read from file:
     /home/pragov/projects/rrg-bengioy-ad/pragov/crystal_structure_design/SSSP/Ag_ONCV_PBE-1.0.oncvpsp.upf
     MD5 check sum: 94f47bd0669c641108e45594df92fabc
     Pseudo is Norm-conserving, Zval = 19.0
     Generated using ONCVPSP code by D. R. Hamann
     Using radial grid of 1398 points,  6 beta functions with:
                l(1) =   0
                l(2) =   0
                l(3) =   1
                l(4) =   1
                l(5) =   2
                l(6) =   2

     PseudoPot. # 3 for Se read from file:
     /home/pragov/projects/rrg-bengioy-ad/pragov/crystal_structure_design/SSSP/Se_pbe_v1.uspp.F.UPF
     MD5 check sum: 1b3568f3a8ae88f9a2a0ad0698632c85
     Pseudo is Ultrasoft + core correction, Zval =  6.0
     Generated by new atomic code, or converted to UPF format
     Using radial grid of  877 points,  6 beta functions with:
                l(1) =   0
                l(2) =   0
                l(3) =   1
                l(4) =   1
                l(5) =   2
                l(6) =   2
     Q(r) pseudized with  8 coefficients,  rinner =    1.300   1.300   1.300
                                                       1.300   1.300

     atomic species   valence    mass     pseudopotential
        Ga            13.00    69.72300     Ga( 1.00)
        Ag            19.00   107.86820     Ag( 1.00)
        Se             6.00    78.97100     Se( 1.00)

      2 Sym. Ops. (no inversion) found ( 1 have fractional translation)

                                    s                        frac. trans.

      isym =  1     identity

 cryst.   s( 1) = (     1          0          0      )
                  (     0          1          0      )
                  (     0          0          1      )

 cart.    s( 1) = (  1.0000000 -0.0000000  0.0000000 )
                  (  0.0000000  1.0000000 -0.0000000 )
                  (  0.0000000  0.0000000  1.0000000 )

      isym =  2     inv. 180 deg rotation - cart. axis [0,0,1]

 cryst.   s( 2) = (     1          0          0      )    f =(  0.2500000 )
                  (     0          1          0      )       ( -0.2500000 )
                  (    -1         -1         -1      )       (  0.5000000 )

 cart.    s( 2) = (  1.0000000 -0.0000000  0.0000000 )    f =( -0.1336155 )
                  (  0.0000000  1.0000000  0.0000000 )       ( -0.4818163 )
                  (  0.0000000  0.0000000 -1.0000000 )       (  0.3026485 )

   Cartesian axes

     site n.     atom                  positions (alat units)
         1           Ga  tau(   1) = (   0.6336155   0.4818163   0.0000000  )
         2           Ga  tau(   2) = (   0.1336155   0.4818163   0.3026485  )
         3           Ag  tau(   3) = (   0.5000000  -0.0000000   0.3026485  )
         4           Ag  tau(   4) = (   0.0000000   0.0000000   0.0000000  )
         5           Se  tau(   5) = (   0.8028178   0.5880697   0.2848086  )
         6           Se  tau(   6) = (   0.3028178   0.5880697   0.0178399  )
         7           Se  tau(   7) = (   0.1476054   0.1346546   0.3204884  )
         8           Se  tau(   8) = (   0.0139899  -0.3471616   0.5874571  )

   Crystallographic axes

     site n.     atom                  positions (cryst. coord.)
         1           Ga  tau(   1) = (  0.5000000  0.5000000  0.0000000  )
         2           Ga  tau(   2) = (  0.2500000  0.7500000  0.5000000  )
         3           Ag  tau(   3) = (  0.7500000  0.2500000  0.5000000  )
         4           Ag  tau(   4) = (  0.0000000  0.0000000  0.0000000  )
         5           Se  tau(   5) = (  0.8750000  0.8455270  0.4705270  )
         6           Se  tau(   6) = (  0.1544730  0.6250000  0.0294730  )
         7           Se  tau(   7) = (  0.3750000  0.4044730  0.5294730  )
         8           Se  tau(   8) = (  0.5955270  0.1250000  0.9705270  )

     number of k points=     1  Methfessel-Paxton smearing, width (Ry)=  0.0010
                       cart. coord. in units 2pi/alat
        k(    1) = (   0.0000000   0.0000000   0.0000000), wk =   2.0000000

                       cryst. coord.
        k(    1) = (   0.0000000   0.0000000   0.0000000), wk =   2.0000000

     Check: negative core charge=   -0.000001

     Initial potential from superposition of free atoms

     starting charge      87.9932, renormalised to      88.0000
     Starting wfcs are   54 randomized atomic wfcs
     Checking if some PAW data can be deallocated...

     Self-consistent Calculation

     iteration #  1     ecut=    30.00 Ry     beta= 0.70
     Davidson diagonalization with overlap

     ethr =  1.00E-02,  avg # of iterations =  9.0

     total energy              =   -1304.04521093 Ry
     estimated scf accuracy    <       4.39356851 Ry

[...]

     total energy              =   -1306.18317364 Ry
     estimated scf accuracy    <       0.00000587 Ry

     iteration # 10     ecut=    30.00 Ry     beta= 0.70
     Davidson diagonalization with overlap

     ethr =  6.67E-09,  avg # of iterations =  4.0

     End of self-consistent calculation

          k = 0.0000 0.0000 0.0000 (  1928 PWs)   bands (ev):

   -89.8243 -88.0074 -51.0694 -50.7088 -50.3380 -50.1236 -49.4619 -49.3460
    -9.5612  -9.0473  -8.9292  -8.9013  -8.7424  -8.6554  -8.5607  -8.4269
    -8.2965  -8.2102  -7.5940  -7.0576  -5.9774  -5.3494  -0.7579   0.4219
     0.8683   1.0505   1.1338   1.2838   1.4324   1.5228   1.6531   1.7927
     2.0439   2.3805   2.7303   3.1506   3.2587   3.7123   3.8795   4.2167
     4.5224   5.3227   5.7939   6.2103   7.1043   7.5000   8.3104   8.8830
     9.6803  10.5967  10.6597  11.0227  11.2352

     occupation numbers
     1.0000   1.0000   1.0000   1.0000   1.0000   1.0000   1.0000   1.0000
     1.0000   1.0000   1.0000   1.0000   1.0000   1.0000   1.0000   1.0000
     1.0000   1.0000   1.0000   1.0000   1.0000   1.0000   1.0000   1.0000
     1.0000   1.0000   1.0000   1.0000   1.0000   1.0000   1.0000   1.0000
     1.0000   1.0000   1.0000   1.0000   1.0000   1.0000   1.0000   1.0000
     1.0000   1.0000   1.0000   1.0000  -0.0000  -0.0000  -0.0000  -0.0000
    -0.0000  -0.0000  -0.0000  -0.0000  -0.0000

     the Fermi energy is     6.6213 ev

!    total energy              =   -1306.18317489 Ry
     estimated scf accuracy    <       0.00000097 Ry
     smearing contrib. (-TS)   =       0.00000000 Ry
     internal energy E=F+TS    =   -1306.18317489 Ry

     The total energy is F=E-TS. E is the sum of the following terms:
     one-electron contribution =    -655.36369042 Ry
     hartree contribution      =     367.75674870 Ry
     xc contribution           =    -252.37931278 Ry
     ewald contribution        =    -544.38451381 Ry
     one-center paw contrib.   =    -221.81240658 Ry
      -> PAW hartree energy AE =     283.93606076 Ry
      -> PAW hartree energy PS =    -279.46853678 Ry
      -> PAW xc energy AE      =    -301.59265243 Ry
      -> PAW xc energy PS      =      75.31272188 Ry
      -> total E_H with PAW    =     372.22427268 Ry
      -> total E_XC with PAW   =    -478.65924334 Ry

     convergence has been achieved in  10 iterations

     Forces acting on atoms (cartesian axes, Ry/au):

     atom    1 type  1   force =     0.04917640    0.10842010    0.07352687
     atom    2 type  1   force =     0.04917640    0.10842010   -0.07352687
     atom    3 type  2   force =    -0.00549266    0.12110765   -0.04593573
     atom    4 type  2   force =    -0.00549266    0.12110765    0.04593573
     atom    5 type  3   force =     0.00269400   -0.07610154    0.28768366
     atom    6 type  3   force =     0.00269400   -0.07610154   -0.28768366
     atom    7 type  3   force =    -0.04637773   -0.15342621   -0.42865620
     atom    8 type  3   force =    -0.04637773   -0.15342621    0.42865620
     The non-local contrib.  to forces
     atom    1 type  1   force =    -0.01159385   -0.10849899   -0.09545209
     atom    2 type  1   force =    -0.01159385   -0.10849899    0.09545209
     atom    3 type  2   force =    -0.04446063    0.02217052   -0.04289819
     atom    4 type  2   force =    -0.04446063    0.02217052    0.04289819
     atom    5 type  3   force =    -0.03039324    0.08034866    0.20137283
     atom    6 type  3   force =    -0.03039324    0.08034866   -0.20137283
     atom    7 type  3   force =     0.00705859   -0.15827281   -0.28844487
     atom    8 type  3   force =     0.00705859   -0.15827281    0.28844487
     The ionic contribution  to forces
     atom    1 type  1   force =    -0.00000000   -0.00000000   -0.00000000
     atom    2 type  1   force =    -0.00000000   -0.00000000   -0.00000000
     atom    3 type  2   force =    -0.00000000   -0.00000000   -0.00000000
     atom    4 type  2   force =    -0.00000000   -0.00000000   -0.00000000
     atom    5 type  3   force =     0.55721801   -0.73277305   -0.92056952
     atom    6 type  3   force =     0.55721801   -0.73277305    0.92056953
     atom    7 type  3   force =    -0.55721800    0.73277305    0.92056953
     atom    8 type  3   force =    -0.55721800    0.73277305   -0.92056952
     The local contribution  to forces
     atom    1 type  1   force =     0.15279992    0.34999595   -0.03153859
     atom    2 type  1   force =    -0.07333129   -0.10344120   -0.36007762
     atom    3 type  2   force =     0.04342169   -0.11491032   -0.08626091
     atom    4 type  2   force =     0.00284167    0.13500479   -0.07902215
     atom    5 type  3   force =    -0.47359828    0.29535783    1.26284341
     atom    6 type  3   force =    -0.59101737    0.75982481   -0.64921671
     atom    7 type  3   force =     0.46417680   -0.69383612   -0.93818850
     atom    8 type  3   force =     0.53034278   -0.85833585    1.02970103
     The core correction contribution to forces
     atom    1 type  1   force =     0.00513528    0.00590872   -0.00279421
     atom    2 type  1   force =     0.00489981    0.00340688   -0.01184491
     atom    3 type  2   force =     0.00000000    0.00000000    0.00000000
     atom    4 type  2   force =     0.00000000    0.00000000    0.00000000
     atom    5 type  3   force =     0.00186829   -0.13999552    0.17461817
     atom    6 type  3   force =    -0.01807298    0.06030227    0.07267524
     atom    7 type  3   force =    -0.02968031   -0.02304448    0.00999351
     atom    8 type  3   force =     0.01018200   -0.05827149    0.16394447
     The Hubbard contrib.    to forces
     atom    1 type  1   force =     0.00000000    0.00000000    0.00000000
     atom    2 type  1   force =     0.00000000    0.00000000    0.00000000
     atom    3 type  2   force =     0.00000000    0.00000000    0.00000000
     atom    4 type  2   force =     0.00000000    0.00000000    0.00000000
     atom    5 type  3   force =     0.00000000    0.00000000    0.00000000
     atom    6 type  3   force =     0.00000000    0.00000000    0.00000000
     atom    7 type  3   force =     0.00000000    0.00000000    0.00000000
     atom    8 type  3   force =     0.00000000    0.00000000    0.00000000
     The SCF correction term to forces
     atom    1 type  1   force =     0.00192736    0.00088822    0.00157931
     atom    2 type  1   force =    -0.00237547   -0.00029639    0.00121111
     atom    3 type  2   force =    -0.00118228   -0.00056069   -0.00198211
     atom    4 type  2   force =     0.00036996    0.00096447   -0.00314579
     atom    5 type  3   force =    -0.00032730   -0.00022039   -0.00019862
     atom    6 type  3   force =     0.00040122    0.00000070    0.00004372
     atom    7 type  3   force =     0.00012264    0.00011979    0.00041169
     atom    8 type  3   force =    -0.00006544    0.00013926    0.00013289

     Total force =     0.817782     Total SCF correction =     0.005603

     Computing stress (Cartesian axis) and pressure

          total   stress  (Ry/bohr**3)                   (kbar)     P=      105.31
  -0.00117936  -0.00478235  -0.00000000         -173.49     -703.51       -0.00
  -0.00478235   0.00115829  -0.00000000         -703.51      170.39       -0.00
  -0.00000000  -0.00000000   0.00216871           -0.00       -0.00      319.03

     kinetic stress (kbar)  19293.92   -469.17      0.00
                             -469.17  19426.01      0.00
                                0.00      0.00  19664.78

     local   stress (kbar)  -8464.55    774.19     14.12
                              774.19  -8736.54     18.77
                               14.12     18.77  -9547.04

     nonloc. stress (kbar)    105.88   -165.79     -0.00
                             -165.79    171.09     -0.00
                               -0.00     -0.00    176.74

     hartree stress (kbar)  12748.82   -279.70    -19.45
                             -279.70  12853.58      6.30
                              -19.45      6.30  13136.95

     exc-cor stress (kbar)   9378.03     -2.14     -0.18
                               -2.14   9377.83     -0.16
                               -0.18     -0.16   9380.73

     corecor stress (kbar) -13779.51    -13.75    -10.76
                              -13.75 -13768.97      4.95
                              -10.76      4.95 -13756.57

     ewald   stress (kbar) -19456.07   -547.14      0.00
                             -547.14 -19152.61      0.00
                                0.00      0.00 -18736.55

     hubbard stress (kbar)      0.00      0.00      0.00
                                0.00      0.00      0.00
                                0.00      0.00      0.00

     DFT-D   stress (kbar)      0.00      0.00      0.00
                                0.00      0.00      0.00
                                0.00      0.00      0.00

     XDM     stress (kbar)      0.00      0.00      0.00
                                0.00      0.00      0.00
                                0.00      0.00      0.00

     dft-nl  stress (kbar)      0.00      0.00      0.00
                                0.00      0.00      0.00
                                0.00      0.00      0.00

     TS-vdW  stress (kbar)      0.00      0.00      0.00
                                0.00      0.00      0.00
                                0.00      0.00      0.00

[...]

                                0.00      0.00      0.00

     Writing all to output data dir new_calculations/myprefix.save/

     General routines

     Parallel routines

     PAW routines

   This run was terminated on:   7:29: 6  21May2023

   JOB DONE.