     Program PWSCF v.7.0 starts on 21May2023 at  1:32:33

     Reading input from espresso_9854.pwi
Warning: card &CELL ignored
Warning: card / ignored

     Current dimensions of program PWSCF are:
     Max number of different atomic species (ntypx) = 10
     Max number of k-points (npk) =  40000
     Max angular momentum in pseudopotentials (lmaxx) =  4

     gamma-point specific algorithms are used
     Message from routine setup:
     using ibrav=0 with symmetry is DISCOURAGED, use correct ibrav instead

     Subspace diagonalization in iterative solution of the eigenvalue problem:
     a serial algorithm will be used

     Using Slab Decomposition

     bravais-lattice index     =            0
     lattice parameter (alat)  =      13.1044  a.u.
     unit-cell volume          =    3371.6532 (a.u.)^3
     number of atoms/cell      =           18
     number of atomic types    =            3
     number of electrons       =       168.00
     number of Kohn-Sham states=          101
     kinetic-energy cutoff     =      30.0000  Ry
     charge density cutoff     =     240.0000  Ry
     scf convergence threshold =      1.0E-06
     mixing beta               =       0.7000
     number of iterations used =            8  plain     mixing
     Exchange-correlation=  SLA  PW   PBX  PBC
                           (   1   4   3   4   0   0   0)

     celldm(1)=  13.104417  celldm(2)=   0.000000  celldm(3)=   0.000000
     celldm(4)=   0.000000  celldm(5)=   0.000000  celldm(6)=   0.000000

     crystal axes: (cart. coord. in units of alat)
               a(1) = (   1.000000   0.000000   0.000000 )
               a(2) = (   0.338588   0.940935   0.000000 )
               a(3) = (   0.431744   0.303486   1.592319 )

     reciprocal axes: (cart. coord. in units 2 pi/alat)
               b(1) = (  1.000000 -0.359842 -0.202558 )
               b(2) = (  0.000000  1.062773 -0.202558 )
               b(3) = (  0.000000  0.000000  0.628015 )

     PseudoPot. # 1 for Tl read from file:
     /home/pragov/projects/rrg-bengioy-ad/pragov/crystal_structure_design/SSSP/Tl_pbe_v1.2.uspp.F.UPF
     MD5 check sum: b76cf1f7e72655a2b2c53cf6385d7059
     Pseudo is Ultrasoft + core correction, Zval = 13.0
     Generated by new atomic code, or converted to UPF format
     Using radial grid of  899 points,  6 beta functions with:
                l(1) =   0
                l(2) =   0
                l(3) =   1
                l(4) =   1
                l(5) =   2
                l(6) =   2
     Q(r) pseudized with  6 coefficients,  rinner =    1.100   1.100   1.100
                                                       1.100   1.100

     PseudoPot. # 2 for Sn read from file:
     /home/pragov/projects/rrg-bengioy-ad/pragov/crystal_structure_design/SSSP/Sn_pbe_v1.uspp.F.UPF
     MD5 check sum: 4cf58ce39ec5d5d420df3dd08604eb00
     Pseudo is Ultrasoft + core correction, Zval = 14.0
     Generated by new atomic code, or converted to UPF format
     Using radial grid of  891 points,  6 beta functions with:
                l(1) =   0
                l(2) =   0
                l(3) =   1
                l(4) =   1
                l(5) =   2
                l(6) =   2
     Q(r) pseudized with  6 coefficients,  rinner =    1.200   1.200   1.200
                                                       1.200   1.200

     PseudoPot. # 3 for S  read from file:
     /home/pragov/projects/rrg-bengioy-ad/pragov/crystal_structure_design/SSSP/s_pbe_v1.4.uspp.F.UPF
     MD5 check sum: 88d86576ff6df21479756cfb9bdac1df
     Pseudo is Ultrasoft + core correction, Zval =  6.0
     Generated by new atomic code, or converted to UPF format
     Using radial grid of  907 points,  6 beta functions with:
                l(1) =   0
                l(2) =   0
                l(3) =   1
                l(4) =   1
                l(5) =   2
                l(6) =   2
     Q(r) pseudized with  8 coefficients,  rinner =    1.300   1.300   1.300
                                                       1.300   1.300

     atomic species   valence    mass     pseudopotential
        Tl            13.00   204.38000     Tl( 1.00)
        Sn            14.00   118.71000     Sn( 1.00)
        S              6.00    32.06000     S ( 1.00)

      2 Sym. Ops., with inversion, found

                                    s                        frac. trans.

      isym =  1     identity

 cryst.   s( 1) = (     1          0          0      )
                  (     0          1          0      )
                  (     0          0          1      )

 cart.    s( 1) = (  1.0000000  0.0000000 -0.0000000 )
                  (  0.0000000  1.0000000  0.0000000 )
                  (  0.0000000  0.0000000  1.0000000 )

      isym =  2     inversion

 cryst.   s( 2) = (    -1          0          0      )
                  (     0         -1          0      )
                  (     0          0         -1      )

 cart.    s( 2) = ( -1.0000000 -0.0000000  0.0000000 )
                  (  0.0000000 -1.0000000 -0.0000000 )
                  (  0.0000000  0.0000000 -1.0000000 )

   Cartesian axes

     site n.     atom                  positions (alat units)
         1           Tl  tau(   1) = (   0.9214694   0.8989761   0.2911381  )
         2           Tl  tau(   2) = (   0.3965835   0.5300174   0.5050216  )
         3           Tl  tau(   3) = (   0.8488621   0.3454450   1.3011813  )
         4           Tl  tau(   4) = (   1.3737480   0.7144037   1.0872978  )
         5           Sn  tau(   5) = (   0.9620619   0.1905708   0.7038752  )
         6           Sn  tau(   6) = (   1.0494026   0.2519654   0.0922845  )
         7           Sn  tau(   7) = (   0.8082697   1.0538503   0.8884442  )
         8           Sn  tau(   8) = (   0.7209290   0.9924557   1.5000350  )
         9           S   tau(   9) = (   0.8707001   0.8722125   1.1942396  )
        10           S   tau(  10) = (   0.8996314   0.3722086   0.3980799  )
        11           S   tau(  11) = (   0.6110459   0.9401393   0.6136146  )
        12           S   tau(  12) = (   0.4629572   0.8360432   0.1825451  )
        13           S   tau(  13) = (   1.1592857   0.3042818   0.9787048  )
        14           S   tau(  14) = (   1.3073744   0.4083779   1.4097743  )
        15           S   tau(  15) = (   0.6751678   0.3975770   0.8563526  )
        16           S   tau(  16) = (   1.3835060   0.8954900   1.5321266  )
        17           S   tau(  17) = (   0.3868255   0.3489312   0.0601929  )
        18           S   tau(  18) = (   1.0951638   0.8468441   0.7359669  )

   Crystallographic axes

     site n.     atom                  positions (cryst. coord.)
         1           Tl  tau(   1) = (  0.5390080  0.8964350  0.1828390  )
         2           Tl  tau(   2) = (  0.1035650  0.4609920  0.3171610  )
         3           Tl  tau(   3) = (  0.4609920  0.1035650  0.8171610  )
         4           Tl  tau(   4) = (  0.8964350  0.5390080  0.6828390  )
         5           Sn  tau(   5) = (  0.7509110  0.0599580  0.4420440  )
         6           Sn  tau(   6) = (  0.9400420  0.2490890  0.0579560  )
         7           Sn  tau(   7) = (  0.2490890  0.9400420  0.5579560  )
         8           Sn  tau(   8) = (  0.0599580  0.7509110  0.9420440  )
         9           S   tau(   9) = (  0.3149390  0.6850610  0.7500000  )
        10           S   tau(  10) = (  0.6850610  0.3149390  0.2500000  )
        11           S   tau(  11) = (  0.1484520  0.8748620  0.3853590  )
        12           S   tau(  12) = (  0.1251380  0.8515480  0.1146410  )
        13           S   tau(  13) = (  0.8515480  0.1251380  0.6146410  )
        14           S   tau(  14) = (  0.8748620  0.1484520  0.8853590  )
        15           S   tau(  15) = (  0.3586420  0.2490730  0.5378020  )
        16           S   tau(  16) = (  0.7509270  0.6413580  0.9621980  )
        17           S   tau(  17) = (  0.2490730  0.3586420  0.0378020  )
        18           S   tau(  18) = (  0.6413580  0.7509270  0.4621980  )

     number of k points=     1  Methfessel-Paxton smearing, width (Ry)=  0.0010
                       cart. coord. in units 2pi/alat
        k(    1) = (   0.0000000   0.0000000   0.0000000), wk =   2.0000000

                       cryst. coord.
        k(    1) = (   0.0000000   0.0000000   0.0000000), wk =   2.0000000

     Check: negative core charge=   -0.000004

     Initial potential from superposition of free atoms

     starting charge     163.9800, renormalised to     168.0000

     negative rho (up, down):  2.027E-01 0.000E+00
     Starting wfcs are  112 randomized atomic wfcs

     Self-consistent Calculation

     iteration #  1     ecut=    30.00 Ry     beta= 0.70
     Davidson diagonalization with overlap

     ethr =  1.00E-02,  avg # of iterations =  3.0

     negative rho (up, down):  1.968E-01 0.000E+00

     total energy              =   -1473.30547833 Ry
     estimated scf accuracy    <       2.28200930 Ry

[...]

     total energy              =   -1474.28791918 Ry
     estimated scf accuracy    <       0.00000182 Ry

     iteration # 10     ecut=    30.00 Ry     beta= 0.70
     Davidson diagonalization with overlap

     ethr =  1.09E-09,  avg # of iterations =  6.0

[...]

     End of self-consistent calculation

          k = 0.0000 0.0000 0.0000 (  4685 PWs)   bands (ev):

   -15.7559 -15.7552 -15.7421 -15.7379 -15.7343 -15.7301 -15.7256 -15.7229
   -15.7188 -15.7166 -15.7020 -15.7016 -15.6868 -15.6864 -15.6721 -15.6687
   -15.6671 -15.6661 -15.6436 -15.6414  -7.5759  -7.1968  -6.4574  -6.2757
    -6.1840  -6.0000  -5.9791  -5.8837  -5.6237  -5.4804  -4.5037  -4.4915
    -4.4862  -4.4774  -4.4655  -4.4653  -4.4647  -4.4634  -4.4625  -4.4579
    -4.4550  -4.4544  -4.4517  -4.4447  -4.4221  -4.4117  -4.4066  -4.4016
    -4.3857  -4.3664  -1.9499  -1.2759  -0.5030  -0.3606   0.5392   0.7443
     1.2447   1.5449   1.7532   1.7972   1.8489   1.8973   2.5635   2.5799
     2.6776   2.7736   3.0871   3.2453   3.9522   4.0257   4.1170   4.2517
     4.2705   4.4490   4.4620   4.4899   4.5862   4.6672   4.7172   4.8030
     5.0587   5.0879   5.1174   5.4488   6.9458   6.9610   7.9219   8.0561
     8.9271   8.9450   8.9683   8.9894   9.6137   9.7526   9.8556   9.9036
    10.1038  10.1646  10.4210  10.6905  10.7598

     occupation numbers
     1.0000   1.0000   1.0000   1.0000   1.0000   1.0000   1.0000   1.0000
     1.0000   1.0000   1.0000   1.0000   1.0000   1.0000   1.0000   1.0000
     1.0000   1.0000   1.0000   1.0000   1.0000   1.0000   1.0000   1.0000
     1.0000   1.0000   1.0000   1.0000   1.0000   1.0000   1.0000   1.0000
     1.0000   1.0000   1.0000   1.0000   1.0000   1.0000   1.0000   1.0000
     1.0000   1.0000   1.0000   1.0000   1.0000   1.0000   1.0000   1.0000
     1.0000   1.0000   1.0000   1.0000   1.0000   1.0000   1.0000   1.0000
     1.0000   1.0000   1.0000   1.0000   1.0000   1.0000   1.0000   1.0000
     1.0000   1.0000   1.0000   1.0000   1.0000   1.0000   1.0000   1.0000
     1.0000   1.0000   1.0000   1.0000   1.0000   1.0000   1.0000   1.0000
     1.0000   1.0000   1.0000   1.0000  -0.0000  -0.0000  -0.0000  -0.0000
    -0.0000  -0.0000  -0.0000  -0.0000  -0.0000  -0.0000  -0.0000  -0.0000
    -0.0000  -0.0000  -0.0000  -0.0000  -0.0000

     the Fermi energy is     5.8731 ev

!    total energy              =   -1474.28792076 Ry
     estimated scf accuracy    <       0.00000061 Ry
     smearing contrib. (-TS)   =       0.00000000 Ry
     internal energy E=F+TS    =   -1474.28792076 Ry

     The total energy is F=E-TS. E is the sum of the following terms:
     one-electron contribution =    -492.14549186 Ry
     hartree contribution      =     346.37498249 Ry
     xc contribution           =    -522.91253433 Ry
     ewald contribution        =    -805.60487706 Ry

     convergence has been achieved in  10 iterations

     negative rho (up, down):  1.974E-01 0.000E+00

     Forces acting on atoms (cartesian axes, Ry/au):

     atom    1 type  1   force =     0.00445509   -0.00573445   -0.00408879
     atom    2 type  1   force =     0.00379764   -0.00606963    0.00414362
     atom    3 type  1   force =    -0.00445509    0.00573445    0.00408879
     atom    4 type  1   force =    -0.00379764    0.00606963   -0.00414362
     atom    5 type  2   force =    -0.00001612    0.00623207   -0.00170721
     atom    6 type  2   force =    -0.00580323    0.00211697    0.00170771
     atom    7 type  2   force =     0.00001612   -0.00623207    0.00170721
     atom    8 type  2   force =     0.00580323   -0.00211697   -0.00170771
     atom    9 type  3   force =     0.01099771   -0.01564149    0.00000605
     atom   10 type  3   force =    -0.01099771    0.01564149   -0.00000605
     atom   11 type  3   force =    -0.00683574    0.02156095   -0.03416906
     atom   12 type  3   force =    -0.01796102    0.01372891    0.03417407
     atom   13 type  3   force =     0.00683574   -0.02156095    0.03416906
     atom   14 type  3   force =     0.01796102   -0.01372891   -0.03417407
     atom   15 type  3   force =     0.00139570    0.01919022   -0.02089011
     atom   16 type  3   force =    -0.01854148    0.00518155    0.02088495
     atom   17 type  3   force =     0.01854148   -0.00518155   -0.02088495
     atom   18 type  3   force =    -0.00139570   -0.01919022    0.02089011
     The non-local contrib.  to forces
     atom    1 type  1   force =    -0.05196221   -0.02616092    0.03295473
     atom    2 type  1   force =     0.04212697    0.04009565   -0.03288360
     atom    3 type  1   force =     0.05196221    0.02616092   -0.03295473
     atom    4 type  1   force =    -0.04212697   -0.04009565    0.03288360
     atom    5 type  2   force =     0.05218256    0.01881347   -0.00812950
     atom    6 type  2   force =    -0.03531255   -0.04276261    0.00811680
     atom    7 type  2   force =    -0.05218256   -0.01881347    0.00812950
     atom    8 type  2   force =     0.03531255    0.04276261   -0.00811680
     atom    9 type  3   force =    -0.14627851    0.20808792    0.00002477
     atom   10 type  3   force =     0.14627851   -0.20808792   -0.00002477
     atom   11 type  3   force =    -0.04054351    0.07180267    0.20024808
     atom   12 type  3   force =    -0.05388721    0.06248810   -0.20031712
     atom   13 type  3   force =     0.04054351   -0.07180267   -0.20024808
     atom   14 type  3   force =     0.05388721   -0.06248810    0.20031712
     atom   15 type  3   force =    -0.02253767   -0.21350508    0.02312804
     atom   16 type  3   force =     0.20858513   -0.05107661   -0.02309685
     atom   17 type  3   force =    -0.20858513    0.05107661    0.02309685
     atom   18 type  3   force =     0.02253767    0.21350508   -0.02312804
     The ionic contribution  to forces
     atom    1 type  1   force =    -1.14150277   -1.07967512    0.28361227
     atom    2 type  1   force =     1.40240267    0.70851513   -0.28361227
     atom    3 type  1   force =     1.14150277    1.07967512   -0.28361227
     atom    4 type  1   force =    -1.40240267   -0.70851513    0.28361227
     atom    5 type  2   force =    -0.18888776    2.75627266   -1.62079698
     atom    6 type  2   force =    -2.52951800    1.11097087    1.62079698
     atom    7 type  2   force =     0.18888776   -2.75627266    1.62079698
     atom    8 type  2   force =     2.52951800   -1.11097087   -1.62079698
     atom    9 type  3   force =     3.20015495   -4.55258693    0.00000000
     atom   10 type  3   force =    -3.20015495    4.55258693   -0.00000000
     atom   11 type  3   force =     0.84058190   -3.93111170   -3.47602667
     atom   12 type  3   force =     3.41430945   -2.12195856    3.47602667
     atom   13 type  3   force =    -0.84058190    3.93111170    3.47602667
     atom   14 type  3   force =    -3.41430945    2.12195856   -3.47602667
     atom   15 type  3   force =     1.36897132    6.62012667    0.60929327
     atom   16 type  3   force =    -6.69262475    0.95338005   -0.60929327
     atom   17 type  3   force =     6.69262475   -0.95338005    0.60929327
     atom   18 type  3   force =    -1.36897132   -6.62012667   -0.60929327
     The local contribution  to forces
     atom    1 type  1   force =     1.19622335    1.09960039   -0.31900780
     atom    2 type  1   force =    -1.43961932   -0.75320855    0.31884751
     atom    3 type  1   force =    -1.19595501   -1.09964613    0.31866198
     atom    4 type  1   force =     1.43945438    0.75323928   -0.31856341
     atom    5 type  2   force =     0.13962713   -2.76675512    1.62581904
     atom    6 type  2   force =     2.55593078   -1.06811672   -1.62572882
     atom    7 type  2   force =    -0.13960327    2.76672190   -1.62512600
     atom    8 type  2   force =    -2.55598012    1.06810566    1.62520151
     atom    9 type  3   force =    -3.05106921    4.34048732   -0.00004243
     atom   10 type  3   force =     3.05096739   -4.34046523   -0.00000819
     atom   11 type  3   force =    -0.80941459    3.88491489    3.25268956
     atom   12 type  3   force =    -3.38132674    2.07685924   -3.25269632
     atom   13 type  3   force =     0.80939563   -3.88496441   -3.25248920
     atom   14 type  3   force =     3.38120039   -2.07692947    3.25224009
     atom   15 type  3   force =    -1.34638880   -6.39912593   -0.65161480
     atom   16 type  3   force =     6.47683979   -0.89979178    0.65149323
     atom   17 type  3   force =    -6.47679569    0.89982876   -0.65192694
     atom   18 type  3   force =     1.34641273    6.39910649    0.65199121
     The core correction contribution to forces
     atom    1 type  1   force =     0.00172320    0.00071641   -0.00181641
     atom    2 type  1   force =    -0.00125586   -0.00137575    0.00181587
     atom    3 type  1   force =    -0.00171732   -0.00071695    0.00181294
     atom    4 type  1   force =     0.00125229    0.00137848   -0.00181463
     atom    5 type  2   force =    -0.00214075   -0.00269236    0.00179809
     atom    6 type  2   force =     0.00325619    0.00110394   -0.00179584
     atom    7 type  2   force =     0.00214156    0.00269082   -0.00179849
     atom    8 type  2   force =    -0.00325493   -0.00110538    0.00179868
     atom    9 type  3   force =     0.00799249   -0.01137179   -0.00000261
     atom   10 type  3   force =    -0.00799613    0.01137229    0.00000072
     atom   11 type  3   force =     0.00229302   -0.00367833   -0.01090775
     atom   12 type  3   force =     0.00268655   -0.00340477    0.01090816
     atom   13 type  3   force =    -0.00229222    0.00367580    0.01090437
     atom   14 type  3   force =    -0.00268857    0.00340396   -0.01091406
     atom   15 type  3   force =     0.00114385    0.01142207   -0.00143164
     atom   16 type  3   force =    -0.01113879    0.00279008    0.00142826
     atom   17 type  3   force =     0.01113965   -0.00279067   -0.00143292
     atom   18 type  3   force =    -0.00114395   -0.01142203    0.00143428
     The Hubbard contrib.    to forces
     atom    1 type  1   force =     0.00000000    0.00000000    0.00000000
     atom    2 type  1   force =     0.00000000    0.00000000    0.00000000
     atom    3 type  1   force =     0.00000000    0.00000000    0.00000000
     atom    4 type  1   force =     0.00000000    0.00000000    0.00000000
     atom    5 type  2   force =     0.00000000    0.00000000    0.00000000
     atom    6 type  2   force =     0.00000000    0.00000000    0.00000000
     atom    7 type  2   force =     0.00000000    0.00000000    0.00000000
     atom    8 type  2   force =     0.00000000    0.00000000    0.00000000
     atom    9 type  3   force =     0.00000000    0.00000000    0.00000000
     atom   10 type  3   force =     0.00000000    0.00000000    0.00000000
     atom   11 type  3   force =     0.00000000    0.00000000    0.00000000
     atom   12 type  3   force =     0.00000000    0.00000000    0.00000000
     atom   13 type  3   force =     0.00000000    0.00000000    0.00000000
     atom   14 type  3   force =     0.00000000    0.00000000    0.00000000
     atom   15 type  3   force =     0.00000000    0.00000000    0.00000000
     atom   16 type  3   force =     0.00000000    0.00000000    0.00000000
     atom   17 type  3   force =     0.00000000    0.00000000    0.00000000
     atom   18 type  3   force =     0.00000000    0.00000000    0.00000000
     The SCF correction term to forces
     atom    1 type  1   force =    -0.00003287   -0.00021464    0.00016725
     atom    2 type  1   force =     0.00015004   -0.00010339   -0.00001613
     atom    3 type  1   force =    -0.00025414    0.00026205    0.00017969
     atom    4 type  1   force =     0.00003219    0.00005536   -0.00025370
     atom    5 type  2   force =    -0.00079431    0.00058551   -0.00044726
     atom    6 type  2   force =    -0.00014431    0.00092165    0.00034873
     atom    7 type  2   force =     0.00077563   -0.00056657   -0.00034418
     atom    8 type  2   force =     0.00022308   -0.00090883    0.00023602
     atom    9 type  3   force =     0.00016907   -0.00025363    0.00001287
     atom   10 type  3   force =    -0.00012144    0.00023980    0.00001272
     atom   11 type  3   force =     0.00024709   -0.00038544   -0.00019127
     atom   12 type  3   force =     0.00023635   -0.00026637    0.00020133
     atom   13 type  3   force =    -0.00022963    0.00039976   -0.00004370
     atom   14 type  3   force =    -0.00014912    0.00031487    0.00015808
     atom   15 type  3   force =     0.00020593    0.00027490   -0.00024234
     atom   16 type  3   force =    -0.00019577   -0.00012117    0.00031720
     atom   17 type  3   force =     0.00016498    0.00008282    0.00004842
     atom   18 type  3   force =    -0.00023191   -0.00025067   -0.00009143

     Total force =     0.105431     Total SCF correction =     0.002432

     Computing stress (Cartesian axis) and pressure

     negative rho (up, down):  1.974E-01 0.000E+00
          total   stress  (Ry/bohr**3)                   (kbar)     P=       -1.23
  -0.00013279  -0.00003710  -0.00001059          -19.53       -5.46       -1.56
  -0.00003710  -0.00010609  -0.00000740           -5.46      -15.61       -1.09
  -0.00001059  -0.00000740   0.00021386           -1.56       -1.09       31.46

     kinetic stress (kbar)   6129.14    -17.31     -7.35
                              -17.31   6141.59     -5.16
                               -7.35     -5.16   6159.40

     local   stress (kbar)  -1346.14  -1098.01   -240.48
                            -1098.01   -555.89   -169.01
                             -240.48   -169.01  -2792.09

     nonloc. stress (kbar)   5804.50      6.14      7.84
                                6.14   5800.08      5.51
                                7.84      5.51   5801.92

     hartree stress (kbar)   4942.39    477.01     65.73
                              477.01   4599.07     46.18
                               65.73     46.18   5570.87

     exc-cor stress (kbar)  11464.64      0.07      0.83
                                0.07  11464.60      0.59
                                0.83      0.59  11465.69

     corecor stress (kbar) -15168.51     -0.24     -0.42
                               -0.24 -15168.34     -0.29
                               -0.42     -0.29 -15168.09

     ewald   stress (kbar) -11845.55    626.89    172.28
                              626.89 -12296.71    121.10
                              172.28    121.10 -11006.24

     hubbard stress (kbar)      0.00      0.00      0.00
                                0.00      0.00      0.00
                                0.00      0.00      0.00

     DFT-D   stress (kbar)      0.00      0.00      0.00
                                0.00      0.00      0.00
                                0.00      0.00      0.00

     XDM     stress (kbar)      0.00      0.00      0.00
                                0.00      0.00      0.00
                                0.00      0.00      0.00

     dft-nl  stress (kbar)      0.00      0.00      0.00
                                0.00      0.00      0.00
                                0.00      0.00      0.00

     TS-vdW  stress (kbar)      0.00      0.00      0.00
                                0.00      0.00      0.00
                                0.00      0.00      0.00

[...]

                                0.00      0.00      0.00

     Writing all to output data dir new_calculations/myprefix.save/

     General routines

     Parallel routines

   This run was terminated on:   1:33: 8  21May2023

   JOB DONE.