     Program PWSCF v.7.0 starts on 20May2023 at 19:24:56

     Reading input from espresso_11563.pwi
Warning: card &CELL ignored
Warning: card / ignored

     Current dimensions of program PWSCF are:
     Max number of different atomic species (ntypx) = 10
     Max number of k-points (npk) =  40000
     Max angular momentum in pseudopotentials (lmaxx) =  4

     gamma-point specific algorithms are used
     Message from routine setup:
     using ibrav=0 with symmetry is DISCOURAGED, use correct ibrav instead

     Subspace diagonalization in iterative solution of the eigenvalue problem:
     a serial algorithm will be used

     Using Slab Decomposition

     bravais-lattice index     =            0
     lattice parameter (alat)  =      30.3267  a.u.
     unit-cell volume          =    1694.6795 (a.u.)^3
     number of atoms/cell      =            3
     number of atomic types    =            2
     number of electrons       =        24.00
     number of Kohn-Sham states=           16
     kinetic-energy cutoff     =      30.0000  Ry
     charge density cutoff     =     240.0000  Ry
     scf convergence threshold =      1.0E-06
     mixing beta               =       0.7000
     number of iterations used =            8  plain     mixing
     Exchange-correlation= SLA  PW   PBE  PBE
                           (   1   4   3   4   0   0   0)

     celldm(1)=  30.326661  celldm(2)=   0.000000  celldm(3)=   0.000000
     celldm(4)=   0.000000  celldm(5)=   0.000000  celldm(6)=   0.000000

     crystal axes: (cart. coord. in units of alat)
               a(1) = (   1.000000   0.000000   0.000000 )
               a(2) = (   0.964498   0.264091   0.000000 )
               a(3) = (   0.964498   0.129659   0.230070 )

     reciprocal axes: (cart. coord. in units 2 pi/alat)
               b(1) = (  1.000000 -3.652147 -2.133973 )
               b(2) = (  0.000000  3.786579 -2.133973 )
               b(3) = (  0.000000  0.000000  4.346495 )

     PseudoPot. # 1 for Ce read from file:
     /home/pragov/projects/rrg-bengioy-ad/pragov/crystal_structure_design/SSSP/Ce.GGA-PBE-paw-v1.0.UPF
     MD5 check sum: f2b950f613061344c13339c8d844425d
     Pseudo is Projector augmented-wave + core cor, Zval = 12.0
     Generated using ATOMPAW code
     Shape of augmentation charge: BESSEL
     Using radial grid of 1102 points,  8 beta functions with:
                l(1) =   0
                l(2) =   0
                l(3) =   1
                l(4) =   1
                l(5) =   2
                l(6) =   2
                l(7) =   3
                l(8) =   3
     Q(r) pseudized with 0 coefficients

     PseudoPot. # 2 for Se read from file:
     /home/pragov/projects/rrg-bengioy-ad/pragov/crystal_structure_design/SSSP/Se_pbe_v1.uspp.F.UPF
     MD5 check sum: 1b3568f3a8ae88f9a2a0ad0698632c85
     Pseudo is Ultrasoft + core correction, Zval =  6.0
     Generated by new atomic code, or converted to UPF format
     Using radial grid of  877 points,  6 beta functions with:
                l(1) =   0
                l(2) =   0
                l(3) =   1
                l(4) =   1
                l(5) =   2
                l(6) =   2
     Q(r) pseudized with  8 coefficients,  rinner =    1.300   1.300   1.300
                                                       1.300   1.300

     atomic species   valence    mass     pseudopotential
        Ce            12.00   140.11600     Ce( 1.00)
        Se             6.00    78.97100     Se( 1.00)

      2 Sym. Ops., with inversion, found

                                    s                        frac. trans.

      isym =  1     identity

 cryst.   s( 1) = (     1          0          0      )
                  (     0          1          0      )
                  (     0          0          1      )

 cart.    s( 1) = (  1.0000000 -0.0000000  0.0000000 )
                  (  0.0000000  1.0000000  0.0000000 )
                  (  0.0000000  0.0000000  1.0000000 )

      isym =  2     inversion

 cryst.   s( 2) = (    -1          0          0      )
                  (     0         -1          0      )
                  (     0          0         -1      )

 cart.    s( 2) = ( -1.0000000  0.0000000 -0.0000000 )
                  (  0.0000000 -1.0000000 -0.0000000 )
                  (  0.0000000  0.0000000 -1.0000000 )

   Cartesian axes

     site n.     atom                  positions (alat units)
         1           Ce  tau(   1) = (   1.4644979   0.1968748   0.1150352  )
         2           Se  tau(   2) = (   2.5307695   0.3402155   0.1987900  )
         3           Se  tau(   3) = (   0.3982263   0.0535342   0.0312804  )

   Crystallographic axes

     site n.     atom                  positions (cryst. coord.)
         1           Ce  tau(   1) = (  0.5000000  0.5000000  0.5000000  )
         2           Se  tau(   2) = (  0.8640400  0.8640400  0.8640400  )
         3           Se  tau(   3) = (  0.1359600  0.1359600  0.1359600  )

     number of k points=     1  Methfessel-Paxton smearing, width (Ry)=  0.0010
                       cart. coord. in units 2pi/alat
        k(    1) = (   0.0000000   0.0000000   0.0000000), wk =   2.0000000

                       cryst. coord.
        k(    1) = (   0.0000000   0.0000000   0.0000000), wk =   2.0000000

     Initial potential from superposition of free atoms

     starting charge      23.9929, renormalised to      24.0000

     negative rho (up, down):  1.514E-04 0.000E+00
     Starting wfcs are   40 randomized atomic wfcs
     Checking if some PAW data can be deallocated...

     Self-consistent Calculation

     iteration #  1     ecut=    30.00 Ry     beta= 0.70
     Davidson diagonalization with overlap

     ethr =  1.00E-02,  avg # of iterations =  2.0

     negative rho (up, down):  2.882E-07 0.000E+00

     total energy              =    -568.96366429 Ry
     estimated scf accuracy    <       0.31414006 Ry

[...]

     total energy              =    -569.56099888 Ry
     estimated scf accuracy    <       0.00000118 Ry

     iteration # 35     ecut=    30.00 Ry     beta= 0.70
     Davidson diagonalization with overlap

     ethr =  4.93E-09,  avg # of iterations =  2.0

[...]

     End of self-consistent calculation

          k = 0.0000 0.0000 0.0000 (  2340 PWs)   bands (ev):

   -34.8841 -18.1609 -17.4686 -17.4686 -13.0106 -12.1033  -3.8056  -3.3767
    -3.3767  -2.0820  -1.8139  -1.8139  -0.1502   0.0580   0.0582   0.3214

     occupation numbers
     1.0000   1.0000   1.0000   1.0000   1.0000   1.0000   1.0000   1.0000
     1.0000   1.0000   1.0000   1.0000  -0.0000  -0.0000  -0.0000  -0.0000

     the Fermi energy is    -0.6512 ev

!    total energy              =    -569.56099829 Ry
     estimated scf accuracy    <       0.00000061 Ry
     smearing contrib. (-TS)   =       0.00000000 Ry
     internal energy E=F+TS    =    -569.56099829 Ry

     The total energy is F=E-TS. E is the sum of the following terms:
     one-electron contribution =    -359.47491929 Ry
     hartree contribution      =     185.21958767 Ry
     xc contribution           =     -69.85261086 Ry
     ewald contribution        =      82.85549303 Ry
     one-center paw contrib.   =    -408.30854884 Ry
      -> PAW hartree energy AE =      43.83371993 Ry
      -> PAW hartree energy PS =     -43.58495710 Ry
      -> PAW xc energy AE      =    -417.10249938 Ry
      -> PAW xc energy PS      =       8.54518771 Ry
      -> total E_H with PAW    =     185.46835050 Ry
      -> total E_XC with PAW   =    -478.40992253 Ry

     convergence has been achieved in  35 iterations

     negative rho (up, down):  5.509E-05 0.000E+00

     Forces acting on atoms (cartesian axes, Ry/au):

     atom    1 type  1   force =     0.00000000    0.00000000    0.00000000
     atom    2 type  2   force =    -0.12075642   -0.01623219   -0.00947801
     atom    3 type  2   force =     0.12075642    0.01623219    0.00947801
     The non-local contrib.  to forces
     atom    1 type  1   force =     0.00000000    0.00000000    0.00000000
     atom    2 type  2   force =     0.08044255    0.01081240    0.00630571
     atom    3 type  2   force =    -0.08044255   -0.01081240   -0.00630571
     The ionic contribution  to forces
     atom    1 type  1   force =     0.00000000    0.00000000    0.00000000
     atom    2 type  2   force =    14.63684588    1.96765500    1.14971385
     atom    3 type  2   force =   -14.63684588   -1.96765500   -1.14971385
     The local contribution  to forces
     atom    1 type  1   force =     0.00021536    0.00005374    0.00006056
     atom    2 type  2   force =   -14.82414506   -1.99283514   -1.16438758
     atom    3 type  2   force =    14.82438994    1.99285712    1.16443044
     The core correction contribution to forces
     atom    1 type  1   force =    -0.00000007    0.00000000    0.00000002
     atom    2 type  2   force =    -0.01326526   -0.00178248   -0.00103811
     atom    3 type  2   force =     0.01326401    0.00178422    0.00104214
     The Hubbard contrib.    to forces
     atom    1 type  1   force =     0.00000000    0.00000000    0.00000000
     atom    2 type  2   force =     0.00000000    0.00000000    0.00000000
     atom    3 type  2   force =     0.00000000    0.00000000    0.00000000
     The SCF correction term to forces
     atom    1 type  1   force =    -0.00030388   -0.00005294   -0.00003646
     atom    2 type  2   force =    -0.00062520   -0.00007980   -0.00005527
     atom    3 type  2   force =     0.00040023    0.00006042    0.00004160

     Total force =     0.172832     Total SCF correction =     0.000814

     Computing stress (Cartesian axis) and pressure

     negative rho (up, down):  5.509E-05 0.000E+00
          total   stress  (Ry/bohr**3)                   (kbar)     P=      -11.26
  -0.00039052  -0.00006408  -0.00003744          -57.45       -9.43       -5.51
  -0.00006408   0.00007759  -0.00000503           -9.43       11.41       -0.74
  -0.00003744  -0.00000503   0.00008326           -5.51       -0.74       12.25

     kinetic stress (kbar)   1884.15    -16.60     -9.70
                              -16.60   2005.39     -1.30
                               -9.70     -1.30   2006.85

     local   stress (kbar)  28586.74   8134.42   4753.00
                             8134.42 -30829.43    638.95
                             4753.00    638.95 -31549.60

     nonloc. stress (kbar)   2164.52     -1.91     -1.12
                               -1.91   2178.48     -0.15
                               -1.12     -0.15   2178.65

     hartree stress (kbar) -13586.91  -3867.33  -2259.71
                            -3867.33  14661.17   -303.78
                            -2259.71   -303.78  15003.56

     exc-cor stress (kbar)   3723.13     -0.47     -0.28
                               -0.47   3726.59     -0.04
                               -0.28     -0.04   3726.63

     corecor stress (kbar)  -4365.70      0.60      0.35
                                0.60  -4370.07      0.05
                                0.35      0.05  -4370.12

     ewald   stress (kbar) -18463.38  -4258.14  -2488.06
                            -4258.14  12639.29   -334.47
                            -2488.06   -334.47  13016.29

     hubbard stress (kbar)      0.00      0.00      0.00
                                0.00      0.00      0.00
                                0.00      0.00      0.00

     DFT-D   stress (kbar)      0.00      0.00      0.00
                                0.00      0.00      0.00
                                0.00      0.00      0.00

     XDM     stress (kbar)      0.00      0.00      0.00
                                0.00      0.00      0.00
                                0.00      0.00      0.00

     dft-nl  stress (kbar)      0.00      0.00      0.00
                                0.00      0.00      0.00
                                0.00      0.00      0.00

     TS-vdW  stress (kbar)      0.00      0.00      0.00
                                0.00      0.00      0.00
                                0.00      0.00      0.00

[...]

                                0.00      0.00      0.00

     Writing all to output data dir new_calculations/myprefix.save/

     General routines

     Parallel routines

     PAW routines

   This run was terminated on:  19:26:40  20May2023

   JOB DONE.