     Program PWSCF v.7.0 starts on 20May2023 at  5:36:45

     Reading input from espresso_267.pwi
Warning: card &CELL ignored
Warning: card / ignored

     Current dimensions of program PWSCF are:
     Max number of different atomic species (ntypx) = 10
     Max number of k-points (npk) =  40000
     Max angular momentum in pseudopotentials (lmaxx) =  4
     file O.pbe-n-kjpaw_psl.0.1.UPF: wavefunction(s)  2P renormalized

     gamma-point specific algorithms are used
     Message from routine setup:
     using ibrav=0 with symmetry is DISCOURAGED, use correct ibrav instead

     Subspace diagonalization in iterative solution of the eigenvalue problem:
     a serial algorithm will be used

     Using Slab Decomposition

     bravais-lattice index     =            0
     lattice parameter (alat)  =       5.6468  a.u.
     unit-cell volume          =     511.8616 (a.u.)^3
     number of atoms/cell      =            7
     number of atomic types    =            3
     number of electrons       =        57.00
     number of Kohn-Sham states=           35
     kinetic-energy cutoff     =      30.0000  Ry
     charge density cutoff     =     240.0000  Ry
     scf convergence threshold =      1.0E-06
     mixing beta               =       0.7000
     number of iterations used =            8  plain     mixing
     Exchange-correlation= SLA  PW   PBX  PBC
                           (   1   4   3   4   0   0   0)

     celldm(1)=   5.646815  celldm(2)=   0.000000  celldm(3)=   0.000000
     celldm(4)=   0.000000  celldm(5)=   0.000000  celldm(6)=   0.000000

     crystal axes: (cart. coord. in units of alat)
               a(1) = (   1.000000   0.000000   0.000000 )
               a(2) = (   0.000000   1.694131   0.000000 )
               a(3) = (   0.000000   0.546876   1.678011 )

     reciprocal axes: (cart. coord. in units 2 pi/alat)
               b(1) = (  1.000000  0.000000  0.000000 )
               b(2) = (  0.000000  0.590273 -0.192374 )
               b(3) = (  0.000000  0.000000  0.595944 )

     PseudoPot. # 1 for Li read from file:
     /home/pragov/projects/rrg-bengioy-ad/pragov/crystal_structure_design/SSSP/li_pbe_v1.4.uspp.F.UPF
     MD5 check sum: e912e257baa3777c20ea3d68f190483c
     Pseudo is Ultrasoft, Zval =  3.0
     Generated by new atomic code, or converted to UPF format
     Using radial grid of  751 points,  5 beta functions with:
                l(1) =   0
                l(2) =   0
                l(3) =   0
                l(4) =   1
                l(5) =   1
     Q(r) pseudized with 10 coefficients,  rinner =    1.150   1.150   1.150

     PseudoPot. # 2 for Mn read from file:
     /home/pragov/projects/rrg-bengioy-ad/pragov/crystal_structure_design/SSSP/mn_pbe_v1.5.uspp.F.UPF
     MD5 check sum: 82ef2b46521d7a7d9e736dc3972e4928
     Pseudo is Ultrasoft + core correction, Zval = 15.0
     Generated by new atomic code, or converted to UPF format
     Using radial grid of  859 points,  6 beta functions with:
                l(1) =   0
                l(2) =   0
                l(3) =   1
                l(4) =   1
                l(5) =   2
                l(6) =   2
     Q(r) pseudized with  8 coefficients,  rinner =    0.950   0.950   0.950
                                                       0.950   0.950

     PseudoPot. # 3 for O  read from file:
     /home/pragov/projects/rrg-bengioy-ad/pragov/crystal_structure_design/SSSP/O.pbe-n-kjpaw_psl.0.1.UPF
     MD5 check sum: 0234752ac141de4415c5fc33072bef88
     Pseudo is Projector augmented-wave + core cor, Zval =  6.0
     Generated using "atomic" code by A. Dal Corso  v.5.0.99 svn rev. 10869
     Shape of augmentation charge: BESSEL
     Using radial grid of 1095 points,  4 beta functions with:
                l(1) =   0
                l(2) =   0
                l(3) =   1
                l(4) =   1
     Q(r) pseudized with 0 coefficients

     atomic species   valence    mass     pseudopotential
        Li             3.00     6.94000     Li( 1.00)
        Mn            15.00    54.93804     Mn( 1.00)
        O              6.00    15.99900     O ( 1.00)

      4 Sym. Ops., with inversion, found

                                    s                        frac. trans.

      isym =  1     identity

 cryst.   s( 1) = (     1          0          0      )
                  (     0          1          0      )
                  (     0          0          1      )

 cart.    s( 1) = (  1.0000000  0.0000000  0.0000000 )
                  (  0.0000000  1.0000000 -0.0000000 )
                  (  0.0000000  0.0000000  1.0000000 )

      isym =  2     180 deg rotation - cart. axis [1,0,0]

[...]

      isym =  3     inversion

[...]

      isym =  4     inv. 180 deg rotation - cart. axis [1,0,0]

 cryst.   s( 4) = (    -1          0          0      )
                  (     0          1          0      )
                  (     0          0          1      )

 cart.    s( 4) = ( -1.0000000  0.0000000  0.0000000 )
                  (  0.0000000  1.0000000 -0.0000000 )
                  (  0.0000000  0.0000000  1.0000000 )

   Cartesian axes

     site n.     atom                  positions (alat units)
         1           Li  tau(   1) = (   0.0000000   0.0000000   0.0000000  )
         2           Mn  tau(   2) = (   0.0000000   1.1205033   0.8390054  )
         3           Mn  tau(   3) = (   0.5000000   0.2734378   0.8390054  )
         4           O   tau(   4) = (   0.0000000   0.5529651   0.5172234  )
         5           O   tau(   5) = (   0.5000000   1.4493258   0.4669753  )
         6           O   tau(   6) = (   0.0000000   1.6880416   1.1607875  )
         7           O   tau(   7) = (   0.5000000   0.7916809   1.2110355  )

   Crystallographic axes

     site n.     atom                  positions (cryst. coord.)
         1           Li  tau(   1) = (  0.0000000  0.0000000  0.0000000  )
         2           Mn  tau(   2) = (  0.0000000  0.5000000  0.5000000  )
         3           Mn  tau(   3) = (  0.5000000  0.0000000  0.5000000  )
         4           O   tau(   4) = (  0.0000000  0.2269000  0.3082360  )
         5           O   tau(   5) = (  0.5000000  0.7656640  0.2782910  )
         6           O   tau(   6) = (  0.0000000  0.7731000  0.6917640  )
         7           O   tau(   7) = (  0.5000000  0.2343360  0.7217090  )

     number of k points=     1  Methfessel-Paxton smearing, width (Ry)=  0.0010
                       cart. coord. in units 2pi/alat
        k(    1) = (   0.0000000   0.0000000   0.0000000), wk =   2.0000000

                       cryst. coord.
        k(    1) = (   0.0000000   0.0000000   0.0000000), wk =   2.0000000

     Check: negative core charge=   -0.000030

     Initial potential from superposition of free atoms

     starting charge      55.5491, renormalised to      57.0000
     Starting wfcs are   47 randomized atomic wfcs
     Checking if some PAW data can be deallocated...

     Self-consistent Calculation

     iteration #  1     ecut=    30.00 Ry     beta= 0.70
     Davidson diagonalization with overlap

     ethr =  1.00E-02,  avg # of iterations =  2.0

     total energy              =    -598.46941099 Ry
     estimated scf accuracy    <       6.97119318 Ry

[...]

     total energy              =    -603.20540260 Ry
     estimated scf accuracy    <       0.00000512 Ry

     iteration # 36     ecut=    30.00 Ry     beta= 0.70
     Davidson diagonalization with overlap

     ethr =  8.98E-09,  avg # of iterations =  1.0

     End of self-consistent calculation

          k = 0.0000 0.0000 0.0000 (   701 PWs)   bands (ev):

   -72.0115 -71.6637 -40.9483 -40.8052 -40.7451 -40.4155 -40.2318 -40.0852
   -37.3892 -11.4693 -10.1085 -10.1065  -9.9390   1.4629   1.9123   2.8371
     2.9366   3.0739   3.9413   4.1564   4.6947   5.0720   5.9517   6.0948
     6.2012   7.1621   7.3057   7.4047   7.9839   7.9935   8.3482  10.0012
    10.1955  10.9410  10.9691

     occupation numbers
     1.0000   1.0000   1.0000   1.0000   1.0000   1.0000   1.0000   1.0000
     1.0000   1.0000   1.0000   1.0000   1.0000   1.0000   1.0000   1.0000
     1.0000   1.0000   1.0000   1.0000   1.0000   1.0000   1.0000   1.0000
     1.0000   1.0000   1.0000   1.0000   0.4724   0.0276  -0.0000  -0.0000
    -0.0000  -0.0000  -0.0000

     the Fermi energy is     7.9835 ev

!    total energy              =    -603.20540406 Ry
     estimated scf accuracy    <          7.1E-09 Ry
     smearing contrib. (-TS)   =      -0.00026662 Ry
     internal energy E=F+TS    =    -603.20513744 Ry

     The total energy is F=E-TS. E is the sum of the following terms:
     one-electron contribution =    -400.54623062 Ry
     hartree contribution      =     223.07334359 Ry
     xc contribution           =     -85.79663255 Ry
     ewald contribution        =    -301.87111235 Ry
     one-center paw contrib.   =     -38.06450551 Ry
      -> PAW hartree energy AE =     117.23868993 Ry
      -> PAW hartree energy PS =    -116.81008405 Ry
      -> PAW xc energy AE      =     -68.45979964 Ry
      -> PAW xc energy PS      =      29.96668825 Ry
      -> total E_H with PAW    =     223.50194947 Ry
      -> total E_XC with PAW   =    -124.28974394 Ry

     convergence has been achieved in  36 iterations

     Forces acting on atoms (cartesian axes, Ry/au):

     atom    1 type  1   force =     0.00000000    0.00000000    0.00000000
     atom    2 type  2   force =     0.00000000    0.00000000    0.00000000
     atom    3 type  2   force =     0.00000000    0.00000000    0.00000000
     atom    4 type  3   force =     0.00000000   -0.01115036    0.07529000
     atom    5 type  3   force =     0.00000000   -0.05270564    0.11979668
     atom    6 type  3   force =     0.00000000    0.01115036   -0.07529000
     atom    7 type  3   force =     0.00000000    0.05270564   -0.11979668
     The non-local contrib.  to forces
     atom    1 type  1   force =     0.00000000    0.00000000    0.00000000
     atom    2 type  2   force =     0.00000000    0.00000000    0.00000000
     atom    3 type  2   force =     0.00000000    0.00000000    0.00000000
     atom    4 type  3   force =     0.00000000    0.11842058    0.56286690
     atom    5 type  3   force =     0.00000000    0.11394547    0.62352559
     atom    6 type  3   force =     0.00000000   -0.11842058   -0.56286690
     atom    7 type  3   force =     0.00000000   -0.11394547   -0.62352559
     The ionic contribution  to forces
     atom    1 type  1   force =    -0.00000000    0.00000000   -0.00000000
     atom    2 type  2   force =    -0.00000000   -0.00000000    0.00000000
     atom    3 type  2   force =     0.00000000    0.00000000    0.00000000
     atom    4 type  3   force =    -0.00000000    1.89377249  -18.81810418
     atom    5 type  3   force =    -0.00000000   -3.60411717  -17.10771357
     atom    6 type  3   force =    -0.00000000   -1.89377249   18.81810418
     atom    7 type  3   force =     0.00000000    3.60411717   17.10771357
     The local contribution  to forces
     atom    1 type  1   force =    -0.00000006   -0.00000489    0.00002415
     atom    2 type  2   force =    -0.00000115    0.00002697   -0.00012187
     atom    3 type  2   force =     0.00000054   -0.00005631   -0.00011717
     atom    4 type  3   force =     0.00001896   -2.02166160   18.33503969
     atom    5 type  3   force =     0.00001356    3.43772405   16.60992002
     atom    6 type  3   force =    -0.00001856    2.02165188  -18.33507296
     atom    7 type  3   force =    -0.00001321   -3.43772214  -16.60993036
     The core correction contribution to forces
     atom    1 type  1   force =     0.00000000    0.00000000    0.00000000
     atom    2 type  2   force =     0.00000005   -0.00000017   -0.00000066
     atom    3 type  2   force =    -0.00000003   -0.00000059   -0.00000049
     atom    4 type  3   force =     0.00000000   -0.00169766   -0.00454388
     atom    5 type  3   force =     0.00000000   -0.00023767   -0.00595191
     atom    6 type  3   force =     0.00000000    0.00169762    0.00454393
     atom    7 type  3   force =     0.00000001    0.00023763    0.00595210
     The Hubbard contrib.    to forces
     atom    1 type  1   force =     0.00000000    0.00000000    0.00000000
     atom    2 type  2   force =     0.00000000    0.00000000    0.00000000
     atom    3 type  2   force =     0.00000000    0.00000000    0.00000000
     atom    4 type  3   force =     0.00000000    0.00000000    0.00000000
     atom    5 type  3   force =     0.00000000    0.00000000    0.00000000
     atom    6 type  3   force =     0.00000000    0.00000000    0.00000000
     atom    7 type  3   force =     0.00000000    0.00000000    0.00000000
     The SCF correction term to forces
     atom    1 type  1   force =    -0.00000001    0.00000406   -0.00002193
     atom    2 type  2   force =     0.00000134   -0.00003345    0.00012138
     atom    3 type  2   force =     0.00000006    0.00005274    0.00011711
     atom    4 type  3   force =    -0.00001560    0.00001548    0.00003142
     atom    5 type  3   force =    -0.00001019   -0.00002143    0.00001939
     atom    6 type  3   force =     0.00001560   -0.00000642    0.00000169
     atom    7 type  3   force =     0.00001079    0.00001733   -0.00000355

     Total force =     0.214112     Total SCF correction =     0.000190

     Computing stress (Cartesian axis) and pressure

          total   stress  (Ry/bohr**3)                   (kbar)     P=     -679.98
  -0.00398540   0.00000000   0.00000000         -586.27        0.00        0.00
   0.00000000  -0.00520264   0.00046046            0.00     -765.34       67.74
   0.00000000   0.00046046  -0.00467919            0.00       67.74     -688.33

     kinetic stress (kbar)  30394.56      0.00      0.00
                                0.00  29406.48   -147.89
                                0.00   -147.89  29956.36

     local   stress (kbar) -62721.33      0.16     -0.20
                                0.16 -63544.71  -3153.03
                               -0.20  -3153.03  47342.11

     nonloc. stress (kbar)  11067.06      0.00      0.00
                                0.00  10836.70    -88.59
                                0.00    -88.59  10919.95

     hartree stress (kbar)  37743.33     -0.06      0.06
                               -0.06  37920.18   1195.54
                                0.06   1195.54 -11553.95

     exc-cor stress (kbar)  -5130.31     -0.00      0.00
                               -0.00  -5126.59      3.89
                                0.00      3.89  -5146.08

     corecor stress (kbar)  -2553.45      0.00     -0.00
                                0.00  -2545.64      3.68
                               -0.00      3.68  -2549.19

     ewald   stress (kbar)  -9386.14      0.00      0.00
                                0.00  -7711.77   2254.14
                                0.00   2254.14 -69657.53

     hubbard stress (kbar)      0.00      0.00      0.00
                                0.00      0.00      0.00
                                0.00      0.00      0.00

     DFT-D   stress (kbar)      0.00      0.00      0.00
                                0.00      0.00      0.00
                                0.00      0.00      0.00

     XDM     stress (kbar)      0.00      0.00      0.00
                                0.00      0.00      0.00
                                0.00      0.00      0.00

     dft-nl  stress (kbar)      0.00      0.00      0.00
                                0.00      0.00      0.00
                                0.00      0.00      0.00

     TS-vdW  stress (kbar)      0.00      0.00      0.00
                                0.00      0.00      0.00
                                0.00      0.00      0.00

[...]

                                0.00      0.00      0.00

     Writing all to output data dir new_calculations/myprefix.save/

     General routines

     Parallel routines

     PAW routines

   This run was terminated on:   5:37:14  20May2023

   JOB DONE.