     Program PWSCF v.7.0 starts on 20May2023 at 19:59:11

     Reading input from espresso_25071.pwi
Warning: card &CELL ignored
Warning: card / ignored

     Current dimensions of program PWSCF are:
     Max number of different atomic species (ntypx) = 10
     Max number of k-points (npk) =  40000
     Max angular momentum in pseudopotentials (lmaxx) =  4

     gamma-point specific algorithms are used
     Message from routine setup:
     using ibrav=0 with symmetry is DISCOURAGED, use correct ibrav instead

     Subspace diagonalization in iterative solution of the eigenvalue problem:
     a serial algorithm will be used

     Using Slab Decomposition

     bravais-lattice index     =            0
     lattice parameter (alat)  =      14.5190  a.u.
     unit-cell volume          =    1418.2776 (a.u.)^3
     number of atoms/cell      =           11
     number of atomic types    =            3
     number of electrons       =       190.00
     number of Kohn-Sham states=          114
     kinetic-energy cutoff     =      30.0000  Ry
     charge density cutoff     =     240.0000  Ry
     scf convergence threshold =      1.0E-06
     mixing beta               =       0.7000
     number of iterations used =            8  plain     mixing
     Exchange-correlation=  SLA  PW   PBX  PBC
                           (   1   4   3   4   0   0   0)

     celldm(1)=  14.518992  celldm(2)=   0.000000  celldm(3)=   0.000000
     celldm(4)=   0.000000  celldm(5)=   0.000000  celldm(6)=   0.000000

     crystal axes: (cart. coord. in units of alat)
               a(1) = (   1.000000   0.000000   0.000000 )
               a(2) = (  -0.500000   0.866025   0.000000 )
               a(3) = (   0.000000   0.000000   0.535083 )

     reciprocal axes: (cart. coord. in units 2 pi/alat)
               b(1) = (  1.000000  0.577350  0.000000 )
               b(2) = (  0.000000  1.154701  0.000000 )
               b(3) = (  0.000000  0.000000  1.868869 )

     PseudoPot. # 1 for Nd read from file:
     /home/pragov/projects/rrg-bengioy-ad/pragov/crystal_structure_design/SSSP/Nd.GGA-PBE-paw-v1.0.UPF
     MD5 check sum: 1d1e94942b6eb1cde76049b71bb7dcb0
     Pseudo is Projector augmented-wave + core cor, Zval = 14.0
     Generated using ATOMPAW code
     Shape of augmentation charge: BESSEL
     Using radial grid of 1105 points,  8 beta functions with:
                l(1) =   0
                l(2) =   0
                l(3) =   1
                l(4) =   1
                l(5) =   2
                l(6) =   2
                l(7) =   3
                l(8) =   3
     Q(r) pseudized with 0 coefficients

     PseudoPot. # 2 for Zn read from file:
     /home/pragov/projects/rrg-bengioy-ad/pragov/crystal_structure_design/SSSP/Zn_pbe_v1.uspp.F.UPF
     MD5 check sum: df62231357ef9e81f77b2b3087fa5675
     Pseudo is Ultrasoft, Zval = 20.0
     Generated by new atomic code, or converted to UPF format
     Using radial grid of  943 points,  6 beta functions with:
                l(1) =   0
                l(2) =   0
                l(3) =   1
                l(4) =   1
                l(5) =   2
                l(6) =   2
     Q(r) pseudized with  8 coefficients,  rinner =    1.100   1.100   1.100
                                                       1.100   1.100

     PseudoPot. # 3 for Ge read from file:
     /home/pragov/projects/rrg-bengioy-ad/pragov/crystal_structure_design/SSSP/ge_pbe_v1.4.uspp.F.UPF
     MD5 check sum: 9c9eaa91e581c3f09632fb3098b2c6b2
     Pseudo is Ultrasoft + core correction, Zval = 14.0
     Generated by new atomic code, or converted to UPF format
     Using radial grid of  873 points,  6 beta functions with:
                l(1) =   0
                l(2) =   0
                l(3) =   1
                l(4) =   1
                l(5) =   2
                l(6) =   2
     Q(r) pseudized with  8 coefficients,  rinner =    1.400   1.400   1.400
                                                       1.400   1.400

     atomic species   valence    mass     pseudopotential
        Nd            14.00   144.24200     Nd( 1.00)
        Zn            20.00    65.38000     Zn( 1.00)
        Ge            14.00    72.63000     Ge( 1.00)

     12 Sym. Ops. (no inversion) found

                                    s                        frac. trans.

      isym =  1     identity

 cryst.   s( 1) = (     1          0          0      )
                  (     0          1          0      )
                  (     0          0          1      )

 cart.    s( 1) = (  1.0000000 -0.0000000  0.0000000 )
                  (  0.0000000  1.0000000  0.0000000 )
                  (  0.0000000  0.0000000  1.0000000 )

      isym =  2     180 deg rotation - cart. axis [1,0,0]

[...]

      isym =  3     120 deg rotation - cryst. axis [0,0,1]

[...]

      isym =  6     180 deg rotation - cryst. axis [1,1,0]

[...]

      isym =  7     inv. 180 deg rotation - cart. axis [0,0,1]

[...]

      isym =  8     inv. 180 deg rotation - cart. axis [0,1,0]

[...]

      isym =  9     inv.  60 deg rotation - cryst. axis [0,0,1]

 cryst.   s( 9) = (    -1         -1          0      )
                  (     1          0          0      )
                  (     0          0         -1      )

 cart.    s( 9) = ( -0.5000000  0.8660254  0.0000000 )
                  ( -0.8660254 -0.5000000  0.0000000 )
                  (  0.0000000  0.0000000 -1.0000000 )

[...]

 cryst.   s(10) = (     0          1          0      )
                  (    -1         -1          0      )
                  (     0          0         -1      )

 cart.    s(10) = ( -0.5000000 -0.8660254  0.0000000 )
                  (  0.8660254 -0.5000000  0.0000000 )
                  (  0.0000000  0.0000000 -1.0000000 )

[...]

      isym = 12     inv. 180 deg rotation - cryst. axis [2,1,0]

 cryst.   s(12) = (    -1         -1          0      )
                  (     0          1          0      )
                  (     0          0          1      )

 cart.    s(12) = ( -0.5000000 -0.8660254  0.0000000 )
                  ( -0.8660254  0.5000000  0.0000000 )
                  (  0.0000000  0.0000000  1.0000000 )

   Cartesian axes

     site n.     atom                  positions (alat units)
         1           Nd  tau(   1) = (   0.5000005   0.2886748   0.0000000  )
         2           Nd  tau(   2) = (  -0.0000005   0.5773506   0.0000000  )
         3           Zn  tau(   3) = (   0.7125010   0.0000000   0.2675415  )
         4           Zn  tau(   4) = (   0.6437495   0.6170440   0.2675415  )
         5           Zn  tau(   5) = (   0.1896790   0.0000000   0.0000000  )
         6           Zn  tau(   6) = (   0.4051605   0.7017586   0.0000000  )
         7           Zn  tau(   7) = (   0.1437495   0.2489814   0.2675415  )
         8           Zn  tau(   8) = (  -0.0948395   0.1642668   0.0000000  )
         9           Ge  tau(   9) = (   0.3830820   0.0000000   0.2675415  )
        10           Ge  tau(  10) = (   0.3084590   0.5342667   0.2675415  )
        11           Ge  tau(  11) = (  -0.1915410   0.3317587   0.2675415  )

   Crystallographic axes

     site n.     atom                  positions (cryst. coord.)
         1           Nd  tau(   1) = (  0.6666670  0.3333330  0.0000000  )
         2           Nd  tau(   2) = (  0.3333330  0.6666670  0.0000000  )
         3           Zn  tau(   3) = (  0.7125010  0.0000000  0.5000000  )
         4           Zn  tau(   4) = (  1.0000000  0.7125010  0.5000000  )
         5           Zn  tau(   5) = (  0.1896790  0.0000000  0.0000000  )
         6           Zn  tau(   6) = (  0.8103210  0.8103210  0.0000000  )
         7           Zn  tau(   7) = (  0.2874990  0.2874990  0.5000000  )
         8           Zn  tau(   8) = (  0.0000000  0.1896790  0.0000000  )
         9           Ge  tau(   9) = (  0.3830820  0.0000000  0.5000000  )
        10           Ge  tau(  10) = (  0.6169180  0.6169180  0.5000000  )
        11           Ge  tau(  11) = (  0.0000000  0.3830820  0.5000000  )

     number of k points=     1  Methfessel-Paxton smearing, width (Ry)=  0.0010
                       cart. coord. in units 2pi/alat
        k(    1) = (   0.0000000   0.0000000   0.0000000), wk =   2.0000000

                       cryst. coord.
        k(    1) = (   0.0000000   0.0000000   0.0000000), wk =   2.0000000

     Check: negative core charge=   -0.000001

     Initial potential from superposition of free atoms

     starting charge     189.9842, renormalised to     190.0000
     Starting wfcs are  169 randomized atomic wfcs
     Checking if some PAW data can be deallocated...

     Self-consistent Calculation

     iteration #  1     ecut=    30.00 Ry     beta= 0.70
     Davidson diagonalization with overlap

     ethr =  1.00E-02,  avg # of iterations =  2.0

     total energy              =   -4449.36656565 Ry
     estimated scf accuracy    <      34.99311478 Ry

[...]

     total energy              =   -4484.02032917 Ry
     estimated scf accuracy    <       0.00000889 Ry

     iteration # 53     ecut=    30.00 Ry     beta= 0.70
     Davidson diagonalization with overlap

     ethr =  2.22E-09,  avg # of iterations =  1.0

     End of self-consistent calculation

          k = 0.0000 0.0000 0.0000 (  1969 PWs)   bands (ev):

  -114.6618-114.6607-114.6606-114.3338-114.3330-114.3327 -68.7820 -68.7612
   -68.7611 -68.7416 -68.7416 -68.7404 -68.7305 -68.7277 -68.7275 -68.4571
   -68.4528 -68.4524 -68.4414 -68.4410 -68.4403 -68.3971 -68.3968 -68.3952
   -23.9449 -23.9379 -11.5125 -11.5124 -11.5075 -11.5060 -11.5060 -11.5027
   -11.4391 -11.4388 -11.4384 -11.4242 -11.4239 -11.4232 -11.4127 -11.4093
   -11.4089  -5.4596  -5.4596  -5.3485  -5.3485  -5.0401  -5.0061   1.7809
     3.1752   3.1754   3.9680   4.1587   4.1588   4.1806   4.2091   4.2377
     4.2378   4.4471   4.4902   4.4903   4.6002   4.6003   4.6120   4.6121
     4.7237   4.8244   4.8245   4.8305   4.8448   4.8508   4.8762   4.8807
     4.8809   4.9673   4.9675   5.0456   5.0457   5.1345   5.3662   5.3663
     6.3193   6.6510   6.6511   8.8543  11.0104  11.0341  11.0341  11.3242
    11.8917  11.8919  12.6762  12.8360  12.8360  12.9305  13.0531  13.0531
    13.0573  13.1679  13.1679  13.2845  13.3307  13.3427  13.3428  13.6903
    13.7747  14.0114  14.1514  14.1515  14.1897  14.1898  14.5942  14.7218
    14.7219  15.2017

     occupation numbers
     1.0000   1.0000   1.0000   1.0000   1.0000   1.0000   1.0000   1.0000
     1.0000   1.0000   1.0000   1.0000   1.0000   1.0000   1.0000   1.0000
     1.0000   1.0000   1.0000   1.0000   1.0000   1.0000   1.0000   1.0000
     1.0000   1.0000   1.0000   1.0000   1.0000   1.0000   1.0000   1.0000
     1.0000   1.0000   1.0000   1.0000   1.0000   1.0000   1.0000   1.0000
     1.0000   1.0000   1.0000   1.0000   1.0000   1.0000   1.0000   1.0000
     1.0000   1.0000   1.0000   1.0000   1.0000   1.0000   1.0000   1.0000
     1.0000   1.0000   1.0000   1.0000   1.0000   1.0000   1.0000   1.0000
     1.0000   1.0000   1.0000   1.0000   1.0000   1.0000   1.0000   1.0000
     1.0000   1.0000   1.0000   1.0000   1.0000   1.0000   1.0000   1.0000
     1.0000   1.0000   1.0000   1.0000   1.0000   1.0000   1.0000   1.0000
     1.0000   1.0000   1.0000   1.0000   1.0000   1.0000   0.4109   0.4100
     0.1791  -0.0000  -0.0000  -0.0000  -0.0000  -0.0000  -0.0000  -0.0000
    -0.0000  -0.0000  -0.0000  -0.0000  -0.0000  -0.0000  -0.0000  -0.0000
    -0.0000  -0.0000

     the Fermi energy is    13.0517 ev

!    total energy              =   -4484.02032893 Ry
     estimated scf accuracy    <       0.00000030 Ry
     smearing contrib. (-TS)   =      -0.00070001 Ry
     internal energy E=F+TS    =   -4484.01962892 Ry

     The total energy is F=E-TS. E is the sum of the following terms:
     one-electron contribution =   -2970.12883505 Ry
     hartree contribution      =    1593.70140077 Ry
     xc contribution           =    -455.76789784 Ry
     ewald contribution        =   -1791.69077433 Ry
     one-center paw contrib.   =    -860.13352246 Ry
      -> PAW hartree energy AE =     163.80787077 Ry
      -> PAW hartree energy PS =    -163.04889625 Ry
      -> PAW xc energy AE      =    -886.09800467 Ry
      -> PAW xc energy PS      =      25.20550768 Ry
      -> total E_H with PAW    =    1594.46037529 Ry
      -> total E_XC with PAW   =   -1316.66039483 Ry

     convergence has been achieved in  53 iterations

     Forces acting on atoms (cartesian axes, Ry/au):

     atom    1 type  1   force =     0.00000000    0.00000000    0.00000000
     atom    2 type  1   force =     0.00000000    0.00000000    0.00000000
     atom    3 type  2   force =    -0.02187138    0.00000000    0.00000000
     atom    4 type  2   force =     0.01093569   -0.01894117    0.00000000
     atom    5 type  2   force =     0.02697930   -0.00000000    0.00000000
     atom    6 type  2   force =    -0.01348965   -0.02336476    0.00000000
     atom    7 type  2   force =     0.01093569    0.01894117    0.00000000
     atom    8 type  2   force =    -0.01348965    0.02336476   -0.00000000
     atom    9 type  3   force =     0.02481683   -0.00000000    0.00000000
     atom   10 type  3   force =    -0.01240842   -0.02149201    0.00000000
     atom   11 type  3   force =    -0.01240842    0.02149201    0.00000000
     The non-local contrib.  to forces
     atom    1 type  1   force =    -0.00000000    0.00000000   -0.00000000
     atom    2 type  1   force =     0.00000000    0.00000000   -0.00000000
     atom    3 type  2   force =     0.41013060   -0.00000001   -0.00000000
     atom    4 type  2   force =    -0.20506530    0.35518352    0.00000000
     atom    5 type  2   force =    -0.26720190    0.00000000    0.00000000
     atom    6 type  2   force =     0.13360095    0.23140363    0.00000000
     atom    7 type  2   force =    -0.20506530   -0.35518351    0.00000000
     atom    8 type  2   force =     0.13360095   -0.23140363    0.00000000
     atom    9 type  3   force =     0.06553559   -0.00000000   -0.00000000
     atom   10 type  3   force =    -0.03276780   -0.05675549    0.00000000
     atom   11 type  3   force =    -0.03276780    0.05675549    0.00000000
     The ionic contribution  to forces
     atom    1 type  1   force =    -0.00014195    0.00008179    0.00000000
     atom    2 type  1   force =     0.00014181   -0.00008203   -0.00000000
     atom    3 type  2   force =   -32.31260295   -0.00005862    0.00000000
     atom    4 type  2   force =    16.15625034  -27.98356454    0.00000000
     atom    5 type  2   force =    34.76886892    0.00006106   -0.00000000
     atom    6 type  2   force =   -17.38448795  -30.11081593   -0.00000000
     atom    7 type  2   force =    16.15635342   27.98362457   -0.00000000
     atom    8 type  2   force =   -17.38438120   30.11075450    0.00000000
     atom    9 type  3   force =    21.25994853    0.00003465    0.00000000
     atom   10 type  3   force =   -10.63000498  -18.41170843    0.00000000
     atom   11 type  3   force =   -10.62994402   18.41167297    0.00000000
     The local contribution  to forces
     atom    1 type  1   force =     0.00024994    0.00089644   -0.00000313
     atom    2 type  1   force =    -0.00016950   -0.00048128    0.00000568
     atom    3 type  2   force =    31.88144633   -0.00048168   -0.00001743
     atom    4 type  2   force =   -15.94060369   27.60945884    0.00001351
     atom    5 type  2   force =   -34.47563845   -0.00084444    0.00000821
     atom    6 type  2   force =    17.23760973   29.85561735    0.00000372
     atom    7 type  2   force =   -15.94094246  -27.60932731    0.00000102
     atom    8 type  2   force =    17.23743817  -29.85606330   -0.00000617
     atom    9 type  3   force =   -21.29514158   -0.00061106    0.00001196
     atom   10 type  3   force =    10.64763340   18.44228896   -0.00000339
     atom   11 type  3   force =    10.64753152  -18.44161422   -0.00000422
     The core correction contribution to forces
     atom    1 type  1   force =    -0.00000000    0.00000007   -0.00000000
     atom    2 type  1   force =    -0.00000001   -0.00000006    0.00000000
     atom    3 type  2   force =     0.00000000    0.00000000    0.00000000
     atom    4 type  2   force =     0.00000000    0.00000000    0.00000000
     atom    5 type  2   force =     0.00000000    0.00000000    0.00000000
     atom    6 type  2   force =     0.00000000    0.00000000    0.00000000
     atom    7 type  2   force =     0.00000000    0.00000000    0.00000000
     atom    8 type  2   force =     0.00000000    0.00000000    0.00000000
     atom    9 type  3   force =    -0.00579847   -0.00000212    0.00000020
     atom   10 type  3   force =     0.00290154    0.00502206    0.00000001
     atom   11 type  3   force =     0.00289749   -0.00502151   -0.00000009
     The Hubbard contrib.    to forces
     atom    1 type  1   force =     0.00000000    0.00000000    0.00000000
     atom    2 type  1   force =     0.00000000    0.00000000    0.00000000
     atom    3 type  2   force =     0.00000000    0.00000000    0.00000000
     atom    4 type  2   force =     0.00000000    0.00000000    0.00000000
     atom    5 type  2   force =     0.00000000    0.00000000    0.00000000
     atom    6 type  2   force =     0.00000000    0.00000000    0.00000000
     atom    7 type  2   force =     0.00000000    0.00000000    0.00000000
     atom    8 type  2   force =     0.00000000    0.00000000    0.00000000
     atom    9 type  3   force =     0.00000000    0.00000000    0.00000000
     atom   10 type  3   force =     0.00000000    0.00000000    0.00000000
     atom   11 type  3   force =     0.00000000    0.00000000    0.00000000
     The SCF correction term to forces
     atom    1 type  1   force =    -0.00012063   -0.00082545   -0.00000227
     atom    2 type  1   force =     0.00001757    0.00043236   -0.00000157
     atom    3 type  2   force =    -0.00090949    0.00052813    0.00001723
     atom    4 type  2   force =     0.00040246    0.00004851   -0.00001986
     atom    5 type  2   force =     0.00099569    0.00083445   -0.00000647
     atom    6 type  2   force =    -0.00027548    0.00050155   -0.00000510
     atom    7 type  2   force =     0.00060231   -0.00021401   -0.00000335
     atom    8 type  2   force =    -0.00015827    0.00005400    0.00000647
     atom    9 type  3   force =     0.00029742    0.00056134   -0.00001147
     atom   10 type  3   force =    -0.00020768   -0.00031640    0.00000529
     atom   11 type  3   force =    -0.00012732   -0.00032889    0.00000612

     Total force =     0.073935     Total SCF correction =     0.002297

     Computing stress (Cartesian axis) and pressure

          total   stress  (Ry/bohr**3)                   (kbar)     P=     -324.57
  -0.00234782   0.00000000   0.00000000         -345.38        0.00        0.00
   0.00000000  -0.00234782   0.00000000            0.00     -345.38        0.00
   0.00000000   0.00000000  -0.00192357            0.00        0.00     -282.97

     kinetic stress (kbar)  22888.18     -0.00      0.00
                               -0.00  22888.18      0.00
                                0.00      0.00  23092.23

     local   stress (kbar)    486.01      0.16     -0.05
                                0.16    485.85      0.02
                               -0.05      0.02 -17622.94

     nonloc. stress (kbar)   1594.84     -0.00      0.00
                               -0.00   1594.84      0.00
                                0.00      0.00   1640.20

     hartree stress (kbar)  51939.68     -0.08      0.01
                               -0.08  51940.06     -0.01
                                0.01     -0.01  61420.47

     exc-cor stress (kbar)  -2928.01     -0.00      0.00
                               -0.00  -2928.01     -0.00
                                0.00     -0.00  -2927.57

     corecor stress (kbar)  -9566.40     -0.00     -0.00
                               -0.00  -9566.40      0.00
                               -0.00      0.00  -9569.06

     ewald   stress (kbar) -64759.74     -0.05     -0.00
                               -0.05 -64759.81      0.00
                               -0.00      0.00 -56316.29

     hubbard stress (kbar)      0.00      0.00      0.00
                                0.00      0.00      0.00
                                0.00      0.00      0.00

     DFT-D   stress (kbar)      0.00      0.00      0.00
                                0.00      0.00      0.00
                                0.00      0.00      0.00

     XDM     stress (kbar)      0.00      0.00      0.00
                                0.00      0.00      0.00
                                0.00      0.00      0.00

     dft-nl  stress (kbar)      0.00      0.00      0.00
                                0.00      0.00      0.00
                                0.00      0.00      0.00

     TS-vdW  stress (kbar)      0.00      0.00      0.00
                                0.00      0.00      0.00
                                0.00      0.00      0.00

[...]

                                0.00      0.00      0.00

     Writing all to output data dir new_calculations/myprefix.save/

     General routines

     Parallel routines

     PAW routines

   This run was terminated on:  20: 3:42  20May2023

   JOB DONE.