     Program PWSCF v.7.0 starts on 20May2023 at 11:21:23

     Reading input from espresso_11308.pwi
Warning: card &CELL ignored
Warning: card / ignored

     Current dimensions of program PWSCF are:
     Max number of different atomic species (ntypx) = 10
     Max number of k-points (npk) =  40000
     Max angular momentum in pseudopotentials (lmaxx) =  4
     file K.pbe-spn-kjpaw_psl.1.0.0.UPF: wavefunction(s)  3S renormalized
     file Fe.pbe-spn-kjpaw_psl.0.2.1.UPF: wavefunction(s)  3D renormalized

     gamma-point specific algorithms are used
     Message from routine setup:
     using ibrav=0 with symmetry is DISCOURAGED, use correct ibrav instead

     Subspace diagonalization in iterative solution of the eigenvalue problem:
     a serial algorithm will be used

     Using Slab Decomposition

     bravais-lattice index     =            0
     lattice parameter (alat)  =       7.3526  a.u.
     unit-cell volume          =    3326.7225 (a.u.)^3
     number of atoms/cell      =           20
     number of atomic types    =            3
     number of electrons       =       184.00
     number of Kohn-Sham states=          110
     kinetic-energy cutoff     =      30.0000  Ry
     charge density cutoff     =     240.0000  Ry
     scf convergence threshold =      1.0E-06
     mixing beta               =       0.7000
     number of iterations used =            8  plain     mixing
     Exchange-correlation=  SLA  PW   PBX  PBC
                           (   1   4   3   4   0   0   0)

     celldm(1)=   7.352635  celldm(2)=   0.000000  celldm(3)=   0.000000
     celldm(4)=   0.000000  celldm(5)=   0.000000  celldm(6)=   0.000000

     crystal axes: (cart. coord. in units of alat)
               a(1) = (   1.000000   0.000000   0.000000 )
               a(2) = (   0.000000   2.277742   0.000000 )
               a(3) = (   0.000000   0.000000   3.674371 )

     reciprocal axes: (cart. coord. in units 2 pi/alat)
               b(1) = (  1.000000  0.000000  0.000000 )
               b(2) = (  0.000000  0.439031  0.000000 )
               b(3) = (  0.000000  0.000000  0.272155 )

     PseudoPot. # 1 for K  read from file:
     /home/pragov/projects/rrg-bengioy-ad/pragov/crystal_structure_design/SSSP/K.pbe-spn-kjpaw_psl.1.0.0.UPF
     MD5 check sum: 7d58810084cac21f60fbe77ea2b688fd
     Pseudo is Projector augmented-wave + core cor, Zval =  9.0
     Generated using "atomic" code by A. Dal Corso  v.5.1
     Shape of augmentation charge: PSQ
     Using radial grid of 1165 points,  6 beta functions with:
                l(1) =   0
                l(2) =   0
                l(3) =   1
                l(4) =   1
                l(5) =   2
                l(6) =   2
     Q(r) pseudized with 0 coefficients

     PseudoPot. # 2 for Fe read from file:
     /home/pragov/projects/rrg-bengioy-ad/pragov/crystal_structure_design/SSSP/Fe.pbe-spn-kjpaw_psl.0.2.1.UPF
     MD5 check sum: e86618425769142926afa95317d90200
     Pseudo is Projector augmented-wave + core cor, Zval = 16.0
     Generated using "atomic" code by A. Dal Corso  v.5.0.99 svn rev. 10869
     Shape of augmentation charge: PSQ
     Using radial grid of 1191 points,  6 beta functions with:
                l(1) =   0
                l(2) =   0
                l(3) =   1
                l(4) =   1
                l(5) =   2
                l(6) =   2
     Q(r) pseudized with 0 coefficients

     PseudoPot. # 3 for Cl read from file:
     /home/pragov/projects/rrg-bengioy-ad/pragov/crystal_structure_design/SSSP/cl_pbe_v1.4.uspp.F.UPF
     MD5 check sum: fc6f6913ecf08c9257cb748ef0700058
     Pseudo is Ultrasoft + core correction, Zval =  7.0
     Generated by new atomic code, or converted to UPF format
     Using radial grid of  909 points,  6 beta functions with:
                l(1) =   0
                l(2) =   0
                l(3) =   1
                l(4) =   1
                l(5) =   2
                l(6) =   2
     Q(r) pseudized with  8 coefficients,  rinner =    1.300   1.300   1.300
                                                       1.300   1.300

     atomic species   valence    mass     pseudopotential
        K              9.00    39.09830     K ( 1.00)
        Fe            16.00    55.84500     Fe( 1.00)
        Cl             7.00    35.45000     Cl( 1.00)

      8 Sym. Ops., with inversion, found ( 6 have fractional translation)

                                    s                        frac. trans.

      isym =  1     identity

 cryst.   s( 1) = (     1          0          0      )
                  (     0          1          0      )
                  (     0          0          1      )

 cart.    s( 1) = (  1.0000000  0.0000000  0.0000000 )
                  (  0.0000000  1.0000000  0.0000000 )
                  (  0.0000000  0.0000000  1.0000000 )

      isym =  2     180 deg rotation - cart. axis [0,0,1]

 cryst.   s( 2) = (    -1          0          0      )    f =(  0.0000000 )
                  (     0         -1          0      )       ( -0.5000000 )
                  (     0          0          1      )       ( -0.5000000 )

 cart.    s( 2) = ( -1.0000000  0.0000000  0.0000000 )    f =(  0.0000000 )
                  (  0.0000000 -1.0000000  0.0000000 )       ( -1.1388710 )
                  (  0.0000000  0.0000000  1.0000000 )       ( -1.8371853 )

[...]

      isym =  4     180 deg rotation - cart. axis [1,0,0]

[...]

      isym =  5     inversion

 cryst.   s( 5) = (    -1          0          0      )
                  (     0         -1          0      )
                  (     0          0         -1      )

 cart.    s( 5) = ( -1.0000000  0.0000000  0.0000000 )
                  (  0.0000000 -1.0000000  0.0000000 )
                  (  0.0000000  0.0000000 -1.0000000 )

      isym =  6     inv. 180 deg rotation - cart. axis [0,0,1]

[...]

      isym =  8     inv. 180 deg rotation - cart. axis [1,0,0]

 cryst.   s( 8) = (    -1          0          0      )    f =(  0.5000000 )
                  (     0          1          0      )       (  0.0000000 )
                  (     0          0          1      )       (  0.0000000 )

 cart.    s( 8) = ( -1.0000000  0.0000000  0.0000000 )    f =(  0.5000000 )
                  (  0.0000000  1.0000000  0.0000000 )       (  0.0000000 )
                  (  0.0000000  0.0000000  1.0000000 )       (  0.0000000 )

   Cartesian axes

     site n.     atom                  positions (alat units)
         1           K   tau(   1) = (   0.7500000   0.1308085   2.4695004  )
         2           K   tau(   2) = (   0.2500000   2.1469336   1.2048702  )
         3           K   tau(   3) = (   0.7500000   1.2696795   3.0420555  )
         4           K   tau(   4) = (   0.2500000   1.0080626   0.6323151  )
         5           Fe  tau(   5) = (   0.7500000   0.7705397   1.6464855  )
         6           Fe  tau(   6) = (   0.2500000   1.5072024   2.0278852  )
         7           Fe  tau(   7) = (   0.7500000   1.9094107   0.1906998  )
         8           Fe  tau(   8) = (   0.2500000   0.3683314   3.4836708  )
         9           Cl  tau(   9) = (   0.2500000   0.0465138   0.3534892  )
        10           Cl  tau(  10) = (   0.7500000   2.2312283   3.3208815  )
        11           Cl  tau(  11) = (   0.2500000   1.1853848   1.4836962  )
        12           Cl  tau(  12) = (   0.7500000   1.0923573   2.1906745  )
        13           Cl  tau(  13) = (   0.2500000   0.4159408   1.8585224  )
        14           Cl  tau(  14) = (   0.7500000   1.8618013   1.8158483  )
        15           Cl  tau(  15) = (   0.2500000   1.5548118   3.6530336  )
        16           Cl  tau(  16) = (   0.7500000   0.7229303   0.0213371  )
        17           Cl  tau(  17) = (   0.7500000   0.5292539   1.0925998  )
        18           Cl  tau(  18) = (   0.2500000   1.7484882   2.5817708  )
        19           Cl  tau(  19) = (   0.7500000   1.6681249   0.7445855  )
        20           Cl  tau(  20) = (   0.2500000   0.6096172   2.9297852  )

   Crystallographic axes

     site n.     atom                  positions (cryst. coord.)
         1           K   tau(   1) = (  0.7500000  0.0574290  0.6720880  )
         2           K   tau(   2) = (  0.2500000  0.9425710  0.3279120  )
         3           K   tau(   3) = (  0.7500000  0.5574290  0.8279120  )
         4           K   tau(   4) = (  0.2500000  0.4425710  0.1720880  )
         5           Fe  tau(   5) = (  0.7500000  0.3382910  0.4481000  )
         6           Fe  tau(   6) = (  0.2500000  0.6617090  0.5519000  )
         7           Fe  tau(   7) = (  0.7500000  0.8382910  0.0519000  )
         8           Fe  tau(   8) = (  0.2500000  0.1617090  0.9481000  )
         9           Cl  tau(   9) = (  0.2500000  0.0204210  0.0962040  )
        10           Cl  tau(  10) = (  0.7500000  0.9795790  0.9037960  )
        11           Cl  tau(  11) = (  0.2500000  0.5204210  0.4037960  )
        12           Cl  tau(  12) = (  0.7500000  0.4795790  0.5962040  )
        13           Cl  tau(  13) = (  0.2500000  0.1826110  0.5058070  )
        14           Cl  tau(  14) = (  0.7500000  0.8173890  0.4941930  )
        15           Cl  tau(  15) = (  0.2500000  0.6826110  0.9941930  )
        16           Cl  tau(  16) = (  0.7500000  0.3173890  0.0058070  )
        17           Cl  tau(  17) = (  0.7500000  0.2323590  0.2973570  )
        18           Cl  tau(  18) = (  0.2500000  0.7676410  0.7026430  )
        19           Cl  tau(  19) = (  0.7500000  0.7323590  0.2026430  )
        20           Cl  tau(  20) = (  0.2500000  0.2676410  0.7973570  )

     number of k points=     1  Methfessel-Paxton smearing, width (Ry)=  0.0010
                       cart. coord. in units 2pi/alat
        k(    1) = (   0.0000000   0.0000000   0.0000000), wk =   2.0000000

                       cryst. coord.
        k(    1) = (   0.0000000   0.0000000   0.0000000), wk =   2.0000000

     Check: negative core charge=   -0.000062

     Initial potential from superposition of free atoms

     starting charge     183.9228, renormalised to     184.0000

     negative rho (up, down):  1.777E-01 0.000E+00
     Starting wfcs are  132 randomized atomic wfcs
     Checking if some PAW data can be deallocated...

     Self-consistent Calculation

     iteration #  1     ecut=    30.00 Ry     beta= 0.70
     Davidson diagonalization with overlap

     ethr =  1.00E-02,  avg # of iterations =  5.0

     Threshold (ethr) on eigenvalues was too large:
     Diagonalizing with lowered threshold

     Davidson diagonalization with overlap

[...]

     negative rho (up, down):  1.809E-01 0.000E+00

     total energy              =   -2168.11532993 Ry
     estimated scf accuracy    <       1.10932619 Ry

[...]

     total energy              =   -2168.53345259 Ry
     estimated scf accuracy    <       0.00000672 Ry

     iteration # 11     ecut=    30.00 Ry     beta= 0.70
     Davidson diagonalization with overlap

     ethr =  3.65E-09,  avg # of iterations =  2.0

[...]

     End of self-consistent calculation

          k = 0.0000 0.0000 0.0000 (  4642 PWs)   bands (ev):

   -82.0131 -82.0124 -82.0103 -82.0075 -47.9397 -47.9310 -47.9201 -47.9049
   -47.5720 -47.5608 -47.5561 -47.5443 -47.4126 -47.4069 -47.3999 -47.3976
   -24.8520 -24.8510 -24.8510 -24.8499 -10.9290 -10.9271 -10.3870 -10.3626
   -10.3223 -10.3024 -10.2943 -10.2715  -9.7744  -9.7466  -9.6854  -9.6663
    -8.3487  -8.3403  -8.3313  -8.3246  -8.3089  -8.2786  -8.2770  -8.2747
    -8.2730  -8.2620  -8.1827  -8.1769  -0.2557  -0.2250  -0.1730  -0.0492
     0.3229   0.3731   0.7081   0.7973   0.9816   1.0355   1.0627   1.0760
     1.0830   1.1140   1.1178   1.1773   1.2283   1.2298   1.2652   1.5802
     1.7344   1.7761   1.7922   1.9046   1.9624   2.1779   2.2533   2.2671
     2.4911   2.5475   2.5556   2.5741   2.6082   2.7086   2.7203   2.8152
     3.9115   3.9120   3.9745   3.9754   4.0455   4.0491   4.0501   4.0910
     4.3332   4.3548   4.3770   4.4285   5.5951   5.5998   5.6000   5.6023
     5.6704   5.7333   5.8026   5.8799   7.9684   9.1883   9.4060   9.7153
     9.9709   9.9808  10.0434  10.3104  10.4117  10.4439

     occupation numbers
     1.0000   1.0000   1.0000   1.0000   1.0000   1.0000   1.0000   1.0000
     1.0000   1.0000   1.0000   1.0000   1.0000   1.0000   1.0000   1.0000
     1.0000   1.0000   1.0000   1.0000   1.0000   1.0000   1.0000   1.0000
     1.0000   1.0000   1.0000   1.0000   1.0000   1.0000   1.0000   1.0000
     1.0000   1.0000   1.0000   1.0000   1.0000   1.0000   1.0000   1.0000
     1.0000   1.0000   1.0000   1.0000   1.0000   1.0000   1.0000   1.0000
     1.0000   1.0000   1.0000   1.0000   1.0000   1.0000   1.0000   1.0000
     1.0000   1.0000   1.0000   1.0000   1.0000   1.0000   1.0000   1.0000
     1.0000   1.0000   1.0000   1.0000   1.0000   1.0000   1.0000   1.0000
     1.0000   1.0000   1.0000   1.0000   1.0000   1.0000   1.0000   1.0000
     1.0000   1.0000   1.0000   1.0000   1.0000   1.0000   1.0000   1.0000
     1.0000   1.0000   1.0000   1.0000  -0.0000  -0.0000  -0.0000  -0.0000
    -0.0000  -0.0000  -0.0000  -0.0000  -0.0000  -0.0000  -0.0000  -0.0000
    -0.0000  -0.0000  -0.0000  -0.0000  -0.0000  -0.0000

     the Fermi energy is     4.7843 ev

!    total energy              =   -2168.53345369 Ry
     estimated scf accuracy    <       0.00000084 Ry
     smearing contrib. (-TS)   =       0.00000000 Ry
     internal energy E=F+TS    =   -2168.53345369 Ry

     The total energy is F=E-TS. E is the sum of the following terms:
     one-electron contribution =   -1157.18787663 Ry
     hartree contribution      =     643.17497667 Ry
     xc contribution           =    -297.85474256 Ry
     ewald contribution        =    -830.72750364 Ry
     one-center paw contrib.   =    -525.93830752 Ry
      -> PAW hartree energy AE =     986.37671521 Ry
      -> PAW hartree energy PS =    -982.39937362 Ry
      -> PAW xc energy AE      =    -709.59699538 Ry
      -> PAW xc energy PS      =     179.68134626 Ry
      -> total E_H with PAW    =     647.15231826 Ry
      -> total E_XC with PAW   =    -827.77039168 Ry

     convergence has been achieved in  11 iterations

     negative rho (up, down):  1.766E-01 0.000E+00

     Forces acting on atoms (cartesian axes, Ry/au):

     atom    1 type  1   force =     0.00000000   -0.00072772    0.00472645
     atom    2 type  1   force =    -0.00000000    0.00072772   -0.00472645
     atom    3 type  1   force =     0.00000000   -0.00072772   -0.00472645
     atom    4 type  1   force =     0.00000000    0.00072772    0.00472645
     atom    5 type  2   force =     0.00000000    0.01294111    0.01531845
     atom    6 type  2   force =    -0.00000000   -0.01294111   -0.01531845
     atom    7 type  2   force =     0.00000000    0.01294111   -0.01531845
     atom    8 type  2   force =    -0.00000000   -0.01294111    0.01531845
     atom    9 type  3   force =     0.00000000   -0.01534559   -0.01294674
     atom   10 type  3   force =    -0.00000000    0.01534559    0.01294674
     atom   11 type  3   force =     0.00000000   -0.01534559    0.01294674
     atom   12 type  3   force =     0.00000000    0.01534559   -0.01294674
     atom   13 type  3   force =     0.00000000    0.01315008   -0.01287293
     atom   14 type  3   force =    -0.00000000   -0.01315008    0.01287293
     atom   15 type  3   force =    -0.00000000    0.01315008    0.01287293
     atom   16 type  3   force =     0.00000000   -0.01315008   -0.01287293
     atom   17 type  3   force =    -0.00000000   -0.00327698    0.00407923
     atom   18 type  3   force =    -0.00000000    0.00327698   -0.00407923
     atom   19 type  3   force =     0.00000000   -0.00327698   -0.00407923
     atom   20 type  3   force =     0.00000000    0.00327698    0.00407923
     The non-local contrib.  to forces
     atom    1 type  1   force =     0.00000000    0.00613712   -0.00742786
     atom    2 type  1   force =    -0.00000000   -0.00613712    0.00742786
     atom    3 type  1   force =     0.00000000    0.00613712    0.00742786
     atom    4 type  1   force =     0.00000000   -0.00613712   -0.00742786
     atom    5 type  2   force =     0.00000000    0.00481167    0.08727776
     atom    6 type  2   force =     0.00000000   -0.00481167   -0.08727776
     atom    7 type  2   force =     0.00000000    0.00481167   -0.08727776
     atom    8 type  2   force =     0.00000000   -0.00481167    0.08727776
     atom    9 type  3   force =    -0.00000000   -0.06961309   -0.11110806
     atom   10 type  3   force =     0.00000000    0.06961309    0.11110806
     atom   11 type  3   force =     0.00000000   -0.06961309    0.11110806
     atom   12 type  3   force =     0.00000000    0.06961309   -0.11110806
     atom   13 type  3   force =    -0.00000000    0.10399797   -0.06479094
     atom   14 type  3   force =    -0.00000000   -0.10399797    0.06479094
     atom   15 type  3   force =     0.00000000    0.10399797    0.06479094
     atom   16 type  3   force =     0.00000000   -0.10399797   -0.06479094
     atom   17 type  3   force =    -0.00000000    0.03564545    0.09932542
     atom   18 type  3   force =     0.00000000   -0.03564545   -0.09932542
     atom   19 type  3   force =     0.00000000    0.03564545   -0.09932542
     atom   20 type  3   force =     0.00000000   -0.03564545    0.09932542
     The ionic contribution  to forces
     atom    1 type  1   force =    -0.00000000    0.21978618    0.89727737
     atom    2 type  1   force =     0.00000000   -0.21978618   -0.89727737
     atom    3 type  1   force =     0.00000000    0.21978618   -0.89727737
     atom    4 type  1   force =     0.00000000   -0.21978618    0.89727737
     atom    5 type  2   force =     0.00000000   -8.63758531   -4.79382963
     atom    6 type  2   force =    -0.00000000    8.63758531    4.79382963
     atom    7 type  2   force =     0.00000000   -8.63758531    4.79382963
     atom    8 type  2   force =    -0.00000000    8.63758531   -4.79382963
     atom    9 type  3   force =    -0.00000000    4.61537160   12.30395403
     atom   10 type  3   force =    -0.00000000   -4.61537160  -12.30395403
     atom   11 type  3   force =    -0.00000000    4.61537160  -12.30395403
     atom   12 type  3   force =     0.00000000   -4.61537160   12.30395403
     atom   13 type  3   force =    -0.00000000   -9.42860816    4.63098223
     atom   14 type  3   force =    -0.00000000    9.42860816   -4.63098223
     atom   15 type  3   force =     0.00000000   -9.42860816   -4.63098223
     atom   16 type  3   force =    -0.00000000    9.42860816    4.63098223
     atom   17 type  3   force =    -0.00000000   -4.05017308   -8.94539978
     atom   18 type  3   force =     0.00000000    4.05017308    8.94539978
     atom   19 type  3   force =    -0.00000000   -4.05017308    8.94539978
     atom   20 type  3   force =     0.00000000    4.05017308   -8.94539978
     The local contribution  to forces
     atom    1 type  1   force =    -0.00000160   -0.22609742   -0.88511107
     atom    2 type  1   force =    -0.00000147    0.22627494    0.88557426
     atom    3 type  1   force =     0.00000680   -0.22612889    0.88527531
     atom    4 type  1   force =    -0.00000803    0.22623212   -0.88563334
     atom    5 type  2   force =     0.00000230    8.63903785    4.72091331
     atom    6 type  2   force =    -0.00000817   -8.63942022   -4.71938155
     atom    7 type  2   force =     0.00000089    8.63919987   -4.72088380
     atom    8 type  2   force =    -0.00000209   -8.63950548    4.71930089
     atom    9 type  3   force =    -0.00000468   -4.56321838  -12.20900982
     atom   10 type  3   force =     0.00000108    4.56303604   12.20834758
     atom   11 type  3   force =    -0.00000169   -4.56322019   12.20888480
     atom   12 type  3   force =     0.00000262    4.56273519  -12.20823902
     atom   13 type  3   force =    -0.00000391    9.34095467   -4.58051240
     atom   14 type  3   force =     0.00000130   -9.34065044    4.58111007
     atom   15 type  3   force =    -0.00000221    9.34106974    4.58059542
     atom   16 type  3   force =     0.00000127   -9.34086941   -4.58122098
     atom   17 type  3   force =     0.00000025    4.01202032    8.85256402
     atom   18 type  3   force =     0.00000150   -4.01197261   -8.85201380
     atom   19 type  3   force =    -0.00000276    4.01205947   -8.85254804
     atom   20 type  3   force =     0.00000826   -4.01205500    8.85224048
     The core correction contribution to forces
     atom    1 type  1   force =    -0.00000015   -0.00035266    0.00042344
     atom    2 type  1   force =     0.00000005    0.00035394   -0.00042416
     atom    3 type  1   force =     0.00000015   -0.00035194   -0.00042235
     atom    4 type  1   force =    -0.00000018    0.00035321    0.00042415
     atom    5 type  2   force =    -0.00000085    0.00649586    0.00155945
     atom    6 type  2   force =    -0.00000042   -0.00649716   -0.00155093
     atom    7 type  2   force =    -0.00000042    0.00649588   -0.00155783
     atom    8 type  2   force =    -0.00000038   -0.00649625    0.00155175
     atom    9 type  3   force =    -0.00000004    0.00200297    0.00287448
     atom   10 type  3   force =     0.00000026   -0.00200517   -0.00287463
     atom   11 type  3   force =     0.00000007    0.00200438   -0.00287382
     atom   12 type  3   force =     0.00000013   -0.00200811    0.00287541
     atom   13 type  3   force =     0.00000005   -0.00301016    0.00188276
     atom   14 type  3   force =     0.00000022    0.00301329   -0.00188350
     atom   15 type  3   force =    -0.00000011   -0.00300988   -0.00188150
     atom   16 type  3   force =    -0.00000005    0.00301414    0.00188416
     atom   17 type  3   force =    -0.00000008   -0.00067086   -0.00222454
     atom   18 type  3   force =     0.00000017    0.00067148    0.00222712
     atom   19 type  3   force =     0.00000008   -0.00067185    0.00222712
     atom   20 type  3   force =     0.00000041    0.00067432   -0.00222852
     The Hubbard contrib.    to forces
     atom    1 type  1   force =     0.00000000    0.00000000    0.00000000
     atom    2 type  1   force =     0.00000000    0.00000000    0.00000000
     atom    3 type  1   force =     0.00000000    0.00000000    0.00000000
     atom    4 type  1   force =     0.00000000    0.00000000    0.00000000
     atom    5 type  2   force =     0.00000000    0.00000000    0.00000000
     atom    6 type  2   force =     0.00000000    0.00000000    0.00000000
     atom    7 type  2   force =     0.00000000    0.00000000    0.00000000
     atom    8 type  2   force =     0.00000000    0.00000000    0.00000000
     atom    9 type  3   force =     0.00000000    0.00000000    0.00000000
     atom   10 type  3   force =     0.00000000    0.00000000    0.00000000
     atom   11 type  3   force =     0.00000000    0.00000000    0.00000000
     atom   12 type  3   force =     0.00000000    0.00000000    0.00000000
     atom   13 type  3   force =     0.00000000    0.00000000    0.00000000
     atom   14 type  3   force =     0.00000000    0.00000000    0.00000000
     atom   15 type  3   force =     0.00000000    0.00000000    0.00000000
     atom   16 type  3   force =     0.00000000    0.00000000    0.00000000
     atom   17 type  3   force =     0.00000000    0.00000000    0.00000000
     atom   18 type  3   force =     0.00000000    0.00000000    0.00000000
     atom   19 type  3   force =     0.00000000    0.00000000    0.00000000
     atom   20 type  3   force =     0.00000000    0.00000000    0.00000000
     The SCF correction term to forces
     atom    1 type  1   force =    -0.00000254   -0.00020343   -0.00042341
     atom    2 type  1   force =     0.00000212    0.00004360   -0.00004720
     atom    3 type  1   force =    -0.00000161   -0.00014839    0.00031490
     atom    4 type  1   force =     0.00000245    0.00006351    0.00009877
     atom    5 type  2   force =    -0.00000424    0.00022596   -0.00081897
     atom    6 type  2   force =     0.00001582    0.00023706   -0.00110394
     atom    7 type  2   force =    -0.00000287    0.00005928    0.00074668
     atom    8 type  2   force =     0.00000426    0.00033776    0.00124347
     atom    9 type  3   force =     0.00000405    0.00007392    0.00036908
     atom   10 type  3   force =    -0.00000153    0.00005686    0.00032542
     atom   11 type  3   force =     0.00000208    0.00008133   -0.00020417
     atom   12 type  3   force =    -0.00000179    0.00032562   -0.00043579
     atom   13 type  3   force =     0.00000283   -0.00014083   -0.00045875
     atom   14 type  3   force =    -0.00000206   -0.00011138   -0.00018392
     atom   15 type  3   force =     0.00000243   -0.00028455    0.00038923
     atom   16 type  3   force =    -0.00000104    0.00014169    0.00031410
     atom   17 type  3   force =    -0.00000114   -0.00005157   -0.00011862
     atom   18 type  3   force =     0.00000082    0.00002866   -0.00036757
     atom   19 type  3   force =    -0.00000026   -0.00015316    0.00019986
     atom   20 type  3   force =    -0.00000200    0.00018292    0.00010621

     Total force =     0.069112     Total SCF correction =     0.002462

     Computing stress (Cartesian axis) and pressure

     negative rho (up, down):  1.766E-01 0.000E+00
          total   stress  (Ry/bohr**3)                   (kbar)     P=      -61.88
   0.00004289   0.00000000   0.00000000            6.31        0.00        0.00
   0.00000000  -0.00069913   0.00000000            0.00     -102.85        0.00
   0.00000000   0.00000000  -0.00060569            0.00        0.00      -89.10

     kinetic stress (kbar)  12312.14      0.00      0.00
                                0.00  12326.73      0.00
                                0.00      0.00  12269.58

     local   stress (kbar) -15635.48     -0.00      0.00
                               -0.00  -4685.70      0.03
                                0.00      0.03    788.02

     nonloc. stress (kbar)    533.40      0.00      0.00
                                0.00    463.83      0.00
                                0.00      0.00    457.55

     hartree stress (kbar)  13762.98      0.00     -0.00
                                0.00   8748.22     -0.02
                               -0.00     -0.02   5929.49

     exc-cor stress (kbar)    429.09      0.00     -0.00
                                0.00    433.01      0.00
                               -0.00      0.00    433.81

     corecor stress (kbar)  -4004.74     -0.00      0.00
                               -0.00  -4008.42     -0.00
                                0.00     -0.00  -4005.02

     ewald   stress (kbar)  -7391.07      0.00      0.00
                                0.00 -13380.53      0.00
                                0.00      0.00 -15962.53

     hubbard stress (kbar)      0.00      0.00      0.00
                                0.00      0.00      0.00
                                0.00      0.00      0.00

     DFT-D   stress (kbar)      0.00      0.00      0.00
                                0.00      0.00      0.00
                                0.00      0.00      0.00

     XDM     stress (kbar)      0.00      0.00      0.00
                                0.00      0.00      0.00
                                0.00      0.00      0.00

     dft-nl  stress (kbar)      0.00      0.00      0.00
                                0.00      0.00      0.00
                                0.00      0.00      0.00

     TS-vdW  stress (kbar)      0.00      0.00      0.00
                                0.00      0.00      0.00
                                0.00      0.00      0.00

[...]

                                0.00      0.00      0.00

     Writing all to output data dir new_calculations/myprefix.save/

     General routines

     Parallel routines

     PAW routines

   This run was terminated on:  11:22:28  20May2023

   JOB DONE.