     Program PWSCF v.7.0 starts on 21May2023 at  1:47:19

     Reading input from espresso_21431.pwi
Warning: card &CELL ignored
Warning: card / ignored

     Current dimensions of program PWSCF are:
     Max number of different atomic species (ntypx) = 10
     Max number of k-points (npk) =  40000
     Max angular momentum in pseudopotentials (lmaxx) =  4

     gamma-point specific algorithms are used
     Message from routine setup:
     using ibrav=0 with symmetry is DISCOURAGED, use correct ibrav instead

     Subspace diagonalization in iterative solution of the eigenvalue problem:
     a serial algorithm will be used

     Using Slab Decomposition

     bravais-lattice index     =            0
     lattice parameter (alat)  =       7.5468  a.u.
     unit-cell volume          =    1209.4290 (a.u.)^3
     number of atoms/cell      =           12
     number of atomic types    =            2
     number of electrons       =       176.00
     number of Kohn-Sham states=          106
     kinetic-energy cutoff     =      30.0000  Ry
     charge density cutoff     =     240.0000  Ry
     scf convergence threshold =      1.0E-06
     mixing beta               =       0.7000
     number of iterations used =            8  plain     mixing
     Exchange-correlation=  SLA  PW   PBX  PBC
                           (   1   4   3   4   0   0   0)

     celldm(1)=   7.546791  celldm(2)=   0.000000  celldm(3)=   0.000000
     celldm(4)=   0.000000  celldm(5)=   0.000000  celldm(6)=   0.000000

     crystal axes: (cart. coord. in units of alat)
               a(1) = (   1.000000   0.000000   0.000000 )
               a(2) = (   0.000000   1.000000   0.000000 )
               a(3) = (   0.000000   0.000000   2.813801 )

     reciprocal axes: (cart. coord. in units 2 pi/alat)
               b(1) = (  1.000000  0.000000  0.000000 )
               b(2) = (  0.000000  1.000000  0.000000 )
               b(3) = (  0.000000  0.000000  0.355391 )

     PseudoPot. # 1 for Cu read from file:
     /home/pragov/projects/rrg-bengioy-ad/pragov/crystal_structure_design/SSSP/Cu_pbe_v1.2.uspp.F.UPF
     MD5 check sum: 6e991ff952a84172a2a52a1c1e996048
     Pseudo is Ultrasoft + core correction, Zval = 19.0
     Generated by new atomic code, or converted to UPF format
     Using radial grid of  867 points,  6 beta functions with:
                l(1) =   0
                l(2) =   0
                l(3) =   1
                l(4) =   1
                l(5) =   2
                l(6) =   2
     Q(r) pseudized with  8 coefficients,  rinner =    1.150   1.150   1.150
                                                       1.150   1.150

     PseudoPot. # 2 for S  read from file:
     /home/pragov/projects/rrg-bengioy-ad/pragov/crystal_structure_design/SSSP/s_pbe_v1.4.uspp.F.UPF
     MD5 check sum: 88d86576ff6df21479756cfb9bdac1df
     Pseudo is Ultrasoft + core correction, Zval =  6.0
     Generated by new atomic code, or converted to UPF format
     Using radial grid of  907 points,  6 beta functions with:
                l(1) =   0
                l(2) =   0
                l(3) =   1
                l(4) =   1
                l(5) =   2
                l(6) =   2
     Q(r) pseudized with  8 coefficients,  rinner =    1.300   1.300   1.300
                                                       1.300   1.300

     atomic species   valence    mass     pseudopotential
        Cu            19.00    63.54600     Cu( 1.00)
        S              6.00    32.06000     S ( 1.00)

      8 Sym. Ops. (no inversion) found ( 6 have fractional translation)

                                    s                        frac. trans.

      isym =  1     identity

 cryst.   s( 1) = (     1          0          0      )
                  (     0          1          0      )
                  (     0          0          1      )

 cart.    s( 1) = (  1.0000000  0.0000000  0.0000000 )
                  (  0.0000000  1.0000000  0.0000000 )
                  (  0.0000000  0.0000000  1.0000000 )

      isym =  2     180 deg rotation - cart. axis [0,0,1]

 cryst.   s( 2) = (    -1          0          0      )    f =(  0.0000000 )
                  (     0         -1          0      )       (  0.0000000 )
                  (     0          0          1      )       ( -0.5000000 )

 cart.    s( 2) = ( -1.0000000  0.0000000  0.0000000 )    f =(  0.0000000 )
                  (  0.0000000 -1.0000000  0.0000000 )       (  0.0000000 )
                  (  0.0000000  0.0000000  1.0000000 )       ( -1.4069004 )

[...]

 cryst.   s( 5) = (     0          1          0      )
                  (     1          0          0      )
                  (     0          0         -1      )

 cart.    s( 5) = (  0.0000000  1.0000000  0.0000000 )
                  (  1.0000000  0.0000000  0.0000000 )
                  (  0.0000000  0.0000000 -1.0000000 )

[...]

      isym =  8      90 deg rotation - cart. axis [0,0,1]

 cryst.   s( 8) = (     0          1          0      )    f =( -0.5000000 )
                  (    -1          0          0      )       ( -0.5000000 )
                  (     0          0          1      )       (  0.2500000 )

 cart.    s( 8) = (  0.0000000 -1.0000000  0.0000000 )    f =( -0.5000000 )
                  (  1.0000000  0.0000000  0.0000000 )       ( -0.5000000 )
                  (  0.0000000  0.0000000  1.0000000 )       (  0.7034502 )

   Cartesian axes

     site n.     atom                  positions (alat units)
         1           Cu  tau(   1) = (   0.4996560   0.1602070   0.9412811  )
         2           Cu  tau(   2) = (   0.0003440   0.6602070   1.1690695  )
         3           Cu  tau(   3) = (   0.3397930   0.9996560   0.2378309  )
         4           Cu  tau(   4) = (   0.5003440   0.8397930   2.3481815  )
         5           Cu  tau(   5) = (   0.8397930   0.5003440   0.4656193  )
         6           Cu  tau(   6) = (   0.9996560   0.3397930   2.5759700  )
         7           Cu  tau(   7) = (   0.6602070   0.0003440   1.6447313  )
         8           Cu  tau(   8) = (   0.1602070   0.4996560   1.8725198  )
         9           S   tau(   9) = (   0.9971410   0.0028590   2.1103506  )
        10           S   tau(  10) = (   0.5028590   0.5028590   0.0000000  )
        11           S   tau(  11) = (   0.4971410   0.4971410   1.4069004  )
        12           S   tau(  12) = (   0.0028590   0.9971410   0.7034502  )

   Crystallographic axes

     site n.     atom                  positions (cryst. coord.)
         1           Cu  tau(   1) = (  0.4996560  0.1602070  0.3345230  )
         2           Cu  tau(   2) = (  0.0003440  0.6602070  0.4154770  )
         3           Cu  tau(   3) = (  0.3397930  0.9996560  0.0845230  )
         4           Cu  tau(   4) = (  0.5003440  0.8397930  0.8345230  )
         5           Cu  tau(   5) = (  0.8397930  0.5003440  0.1654770  )
         6           Cu  tau(   6) = (  0.9996560  0.3397930  0.9154770  )
         7           Cu  tau(   7) = (  0.6602070  0.0003440  0.5845230  )
         8           Cu  tau(   8) = (  0.1602070  0.4996560  0.6654770  )
         9           S   tau(   9) = (  0.9971410  0.0028590  0.7500000  )
        10           S   tau(  10) = (  0.5028590  0.5028590  0.0000000  )
        11           S   tau(  11) = (  0.4971410  0.4971410  0.5000000  )
        12           S   tau(  12) = (  0.0028590  0.9971410  0.2500000  )

     number of k points=     1  Methfessel-Paxton smearing, width (Ry)=  0.0010
                       cart. coord. in units 2pi/alat
        k(    1) = (   0.0000000   0.0000000   0.0000000), wk =   2.0000000

                       cryst. coord.
        k(    1) = (   0.0000000   0.0000000   0.0000000), wk =   2.0000000

     Check: negative core charge=   -0.000001

     Initial potential from superposition of free atoms

     starting charge     167.9998, renormalised to     176.0000
     Starting wfcs are  120 randomized atomic wfcs

     Self-consistent Calculation

     iteration #  1     ecut=    30.00 Ry     beta= 0.70
     Davidson diagonalization with overlap

     ethr =  1.00E-02,  avg # of iterations =  4.0

     total energy              =   -3293.06787409 Ry
     estimated scf accuracy    <      44.83952928 Ry

[...]

     total energy              =   -3325.28439568 Ry
     estimated scf accuracy    <       0.00000231 Ry

     iteration # 27     ecut=    30.00 Ry     beta= 0.70
     Davidson diagonalization with overlap

     ethr =  1.31E-09,  avg # of iterations =  2.0

     End of self-consistent calculation

          k = 0.0000 0.0000 0.0000 (  1707 PWs)   bands (ev):

  -101.0427-101.0425-101.0421-101.0415-101.0409-101.0402-101.0396-101.0385
   -58.5514 -58.5458 -58.5446 -58.5424 -58.5375 -58.5338 -58.5336 -58.5322
   -58.4315 -58.4258 -58.4253 -58.4245 -58.4242 -58.4238 -58.4227 -58.4219
   -58.3355 -58.3340 -58.3337 -58.3317 -58.3303 -58.3278 -58.3274 -58.3239
    -3.0584  -2.5353  -2.5350  -1.9150   4.6050   5.3632   5.3633   6.1455
     6.1711   6.3826   6.4176   6.4179   6.4970   6.4973   6.8092   6.9330
     8.1783   8.1788   8.1792   8.1960   8.2449   8.4077   8.4435   8.4435
     8.6017   8.6654   8.6832   8.6837   8.7706   8.8396   8.8398   8.8475
     8.8566   8.9236   9.0412   9.0414   9.0589   9.1116   9.1121   9.1684
     9.1691   9.1978   9.3126   9.5450   9.5601   9.7366   9.7366   9.9403
    10.0562  10.2030  10.2031  10.7893  10.8491  11.4988  11.6964  11.6964
    11.7496  12.5972  13.5428  13.5429  13.7460  14.4125  14.4126  16.2156
    16.2157  16.7487  17.4083  17.4083  18.1483  18.5152  18.7403  18.9268
    18.9606  18.9730

     occupation numbers
     1.0000   1.0000   1.0000   1.0000   1.0000   1.0000   1.0000   1.0000
     1.0000   1.0000   1.0000   1.0000   1.0000   1.0000   1.0000   1.0000
     1.0000   1.0000   1.0000   1.0000   1.0000   1.0000   1.0000   1.0000
     1.0000   1.0000   1.0000   1.0000   1.0000   1.0000   1.0000   1.0000
     1.0000   1.0000   1.0000   1.0000   1.0000   1.0000   1.0000   1.0000
     1.0000   1.0000   1.0000   1.0000   1.0000   1.0000   1.0000   1.0000
     1.0000   1.0000   1.0000   1.0000   1.0000   1.0000   1.0000   1.0000
     1.0000   1.0000   1.0000   1.0000   1.0000   1.0000   1.0000   1.0000
     1.0000   1.0000   1.0000   1.0000   1.0000   1.0000   1.0000   1.0000
     1.0000   1.0000   1.0000   1.0000   1.0000   1.0000   1.0000   1.0000
     1.0000   1.0000   1.0000   1.0000   1.0000   1.0000   1.0064   1.0064
    -0.0128  -0.0000  -0.0000  -0.0000  -0.0000  -0.0000  -0.0000  -0.0000
    -0.0000  -0.0000  -0.0000  -0.0000  -0.0000  -0.0000  -0.0000  -0.0000
    -0.0000  -0.0000

     the Fermi energy is    11.7245 ev

!    total energy              =   -3325.28439557 Ry
     estimated scf accuracy    <       0.00000080 Ry
     smearing contrib. (-TS)   =       0.00011371 Ry
     internal energy E=F+TS    =   -3325.28450929 Ry

     The total energy is F=E-TS. E is the sum of the following terms:
     one-electron contribution =   -2651.62031412 Ry
     hartree contribution      =    1409.34263531 Ry
     xc contribution           =    -344.84309792 Ry
     ewald contribution        =   -1738.16373256 Ry

     convergence has been achieved in  27 iterations

     Forces acting on atoms (cartesian axes, Ry/au):

     atom    1 type  1   force =     0.01139987    0.03008830    0.00322158
     atom    2 type  1   force =    -0.01139987    0.03008830   -0.00322158
     atom    3 type  1   force =    -0.03008830    0.01139987    0.00322158
     atom    4 type  1   force =    -0.01139987   -0.03008830    0.00322158
     atom    5 type  1   force =    -0.03008830   -0.01139987   -0.00322158
     atom    6 type  1   force =     0.01139987   -0.03008830   -0.00322158
     atom    7 type  1   force =     0.03008830   -0.01139987    0.00322158
     atom    8 type  1   force =     0.03008830    0.01139987   -0.00322158
     atom    9 type  2   force =    -0.02878057    0.02878057   -0.00000000
     atom   10 type  2   force =     0.02878057    0.02878057    0.00000000
     atom   11 type  2   force =    -0.02878057   -0.02878057   -0.00000000
     atom   12 type  2   force =     0.02878057   -0.02878057   -0.00000000
     The non-local contrib.  to forces
     atom    1 type  1   force =     0.15454418   -0.25462649    0.16508167
     atom    2 type  1   force =    -0.15454418   -0.25462649   -0.16508167
     atom    3 type  1   force =     0.25462649    0.15454418    0.16508167
     atom    4 type  1   force =    -0.15454418    0.25462649    0.16508167
     atom    5 type  1   force =     0.25462649   -0.15454418   -0.16508167
     atom    6 type  1   force =     0.15454418    0.25462649   -0.16508167
     atom    7 type  1   force =    -0.25462649   -0.15454418    0.16508167
     atom    8 type  1   force =    -0.25462649    0.15454418   -0.16508167
     atom    9 type  2   force =     0.08457447   -0.08457447    0.00000000
     atom   10 type  2   force =    -0.08457447   -0.08457447    0.00000000
     atom   11 type  2   force =     0.08457447    0.08457447    0.00000000
     atom   12 type  2   force =    -0.08457447    0.08457447   -0.00000000
     The ionic contribution  to forces
     atom    1 type  1   force =    -4.41507216   -1.32716089    1.18908806
     atom    2 type  1   force =     4.41507216   -1.32716089   -1.18908806
     atom    3 type  1   force =     1.32716089   -4.41507216    1.18908806
     atom    4 type  1   force =     4.41507216    1.32716089    1.18908806
     atom    5 type  1   force =     1.32716089    4.41507216   -1.18908806
     atom    6 type  1   force =    -4.41507216    1.32716089   -1.18908806
     atom    7 type  1   force =    -1.32716089    4.41507216    1.18908806
     atom    8 type  1   force =    -1.32716089   -4.41507216   -1.18908806
     atom    9 type  2   force =    -0.48268315    0.48268315    0.00000000
     atom   10 type  2   force =     0.48268315    0.48268315    0.00000000
     atom   11 type  2   force =    -0.48268315   -0.48268315    0.00000000
     atom   12 type  2   force =     0.48268315   -0.48268315    0.00000000
     The local contribution  to forces
     atom    1 type  1   force =     4.27171663    1.61186988   -1.34953136
     atom    2 type  1   force =    -4.27152285    1.61144693    1.35050264
     atom    3 type  1   force =    -1.61202678    4.27180875   -1.35266192
     atom    4 type  1   force =    -4.27144407   -1.61136208   -1.34968685
     atom    5 type  1   force =    -1.61121943   -4.27131947    1.34896995
     atom    6 type  1   force =     4.27185554   -1.61210422    1.35053232
     atom    7 type  1   force =     1.61115706   -4.27151975   -1.34899696
     atom    8 type  1   force =     1.61196543    4.27183567    1.35100445
     atom    9 type  2   force =     0.37479797   -0.37345361    0.00040958
     atom   10 type  2   force =    -0.37359451   -0.37338193   -0.00052300
     atom   11 type  2   force =     0.37500651    0.37487086    0.00024118
     atom   12 type  2   force =    -0.37323613    0.37485657   -0.00007597
     The core correction contribution to forces
     atom    1 type  1   force =    -0.00015015    0.00014638   -0.00044613
     atom    2 type  1   force =     0.00014989    0.00014601    0.00044543
     atom    3 type  1   force =    -0.00014670   -0.00014998   -0.00044585
     atom    4 type  1   force =     0.00014998   -0.00014666   -0.00044591
     atom    5 type  1   force =    -0.00014641    0.00015000    0.00044620
     atom    6 type  1   force =    -0.00015004   -0.00014663    0.00044612
     atom    7 type  1   force =     0.00014587    0.00015001   -0.00044566
     atom    8 type  1   force =     0.00014637   -0.00015011    0.00044604
     atom    9 type  2   force =    -0.00488450    0.00496139   -0.00000013
     atom   10 type  2   force =     0.00495611    0.00496420    0.00000025
     atom   11 type  2   force =    -0.00488327   -0.00488667   -0.00000468
     atom   12 type  2   force =     0.00496884   -0.00488259    0.00000762
     The Hubbard contrib.    to forces
     atom    1 type  1   force =     0.00000000    0.00000000    0.00000000
     atom    2 type  1   force =     0.00000000    0.00000000    0.00000000
     atom    3 type  1   force =     0.00000000    0.00000000    0.00000000
     atom    4 type  1   force =     0.00000000    0.00000000    0.00000000
     atom    5 type  1   force =     0.00000000    0.00000000    0.00000000
     atom    6 type  1   force =     0.00000000    0.00000000    0.00000000
     atom    7 type  1   force =     0.00000000    0.00000000    0.00000000
     atom    8 type  1   force =     0.00000000    0.00000000    0.00000000
     atom    9 type  2   force =     0.00000000    0.00000000    0.00000000
     atom   10 type  2   force =     0.00000000    0.00000000    0.00000000
     atom   11 type  2   force =     0.00000000    0.00000000    0.00000000
     atom   12 type  2   force =     0.00000000    0.00000000    0.00000000
     The SCF correction term to forces
     atom    1 type  1   force =     0.00046677   -0.00020913   -0.00097913
     atom    2 type  1   force =    -0.00054616    0.00023682   -0.00013027
     atom    3 type  1   force =     0.00017273    0.00034202    0.00209866
     atom    4 type  1   force =    -0.00054168   -0.00039610   -0.00097052
     atom    5 type  1   force =    -0.00049638   -0.00071758    0.00153960
     atom    6 type  1   force =     0.00024033    0.00043821   -0.00000431
     atom    7 type  1   force =     0.00051853   -0.00045607   -0.00134260
     atom    8 type  1   force =    -0.00014516    0.00028956   -0.00046719
     atom    9 type  2   force =     0.00003802   -0.00023140   -0.00040671
     atom   10 type  2   force =    -0.00015745   -0.00025572    0.00051755
     atom   11 type  2   force =    -0.00015456   -0.00007916   -0.00033277
     atom   12 type  2   force =    -0.00035586    0.00000957    0.00021469

     Total force =     0.122441     Total SCF correction =     0.003796

     Computing stress (Cartesian axis) and pressure

          total   stress  (Ry/bohr**3)                   (kbar)     P=     -398.17
  -0.00241373   0.00000000   0.00000000         -355.07        0.00        0.00
   0.00000000  -0.00241373   0.00000000            0.00     -355.07        0.00
   0.00000000   0.00000000  -0.00329269            0.00        0.00     -484.37

     kinetic stress (kbar)  29844.04      0.00      0.00
                                0.00  29844.04      0.00
                                0.00      0.00  29688.60

     local   stress (kbar) -21420.83      0.02     -0.05
                                0.02 -21420.87     -0.03
                               -0.05     -0.03 -34752.00

     nonloc. stress (kbar)  21987.57      0.00      0.00
                                0.00  21987.57      0.00
                                0.00      0.00  21756.84

     hartree stress (kbar)  55134.92     -0.02      0.01
                               -0.02  55134.91      0.02
                                0.01      0.02  61151.11

     exc-cor stress (kbar) -10657.92      0.00      0.00
                                0.00 -10657.92      0.00
                                0.00      0.00 -10654.01

     corecor stress (kbar)  -2251.72     -0.00     -0.00
                               -0.00  -2251.72     -0.00
                               -0.00     -0.00  -2241.10

     ewald   stress (kbar) -72991.12     -0.00      0.00
                               -0.00 -72991.12      0.00
                                0.00      0.00 -65433.82

     hubbard stress (kbar)      0.00      0.00      0.00
                                0.00      0.00      0.00
                                0.00      0.00      0.00

     DFT-D   stress (kbar)      0.00      0.00      0.00
                                0.00      0.00      0.00
                                0.00      0.00      0.00

     XDM     stress (kbar)      0.00      0.00      0.00
                                0.00      0.00      0.00
                                0.00      0.00      0.00

     dft-nl  stress (kbar)      0.00      0.00      0.00
                                0.00      0.00      0.00
                                0.00      0.00      0.00

     TS-vdW  stress (kbar)      0.00      0.00      0.00
                                0.00      0.00      0.00
                                0.00      0.00      0.00

[...]

                                0.00      0.00      0.00

     Writing all to output data dir new_calculations/myprefix.save/

     General routines

     Parallel routines

   This run was terminated on:   1:47:48  21May2023

   JOB DONE.