     Program PWSCF v.7.0 starts on 21May2023 at  2:22: 2

     Reading input from espresso_24310.pwi
Warning: card &CELL ignored
Warning: card / ignored

     Current dimensions of program PWSCF are:
     Max number of different atomic species (ntypx) = 10
     Max number of k-points (npk) =  40000
     Max angular momentum in pseudopotentials (lmaxx) =  4

     gamma-point specific algorithms are used
     Message from routine setup:
     using ibrav=0 with symmetry is DISCOURAGED, use correct ibrav instead

     Subspace diagonalization in iterative solution of the eigenvalue problem:
     a serial algorithm will be used

     Using Slab Decomposition

     bravais-lattice index     =            0
     lattice parameter (alat)  =      13.3379  a.u.
     unit-cell volume          =     582.2240 (a.u.)^3
     number of atoms/cell      =            4
     number of atomic types    =            2
     number of electrons       =        48.00
     number of Kohn-Sham states=           29
     kinetic-energy cutoff     =      30.0000  Ry
     charge density cutoff     =     240.0000  Ry
     scf convergence threshold =      1.0E-06
     mixing beta               =       0.7000
     number of iterations used =            8  plain     mixing
     Exchange-correlation= SLA  PW   PBE  PBE
                           (   1   4   3   4   0   0   0)

     celldm(1)=  13.337910  celldm(2)=   0.000000  celldm(3)=   0.000000
     celldm(4)=   0.000000  celldm(5)=   0.000000  celldm(6)=   0.000000

     crystal axes: (cart. coord. in units of alat)
               a(1) = (   1.000000   0.000000   0.000000 )
               a(2) = (   0.850710   0.525635   0.000000 )
               a(3) = (   0.850710   0.241617   0.466812 )

     reciprocal axes: (cart. coord. in units 2 pi/alat)
               b(1) = (  1.000000 -1.618442 -0.984693 )
               b(2) = (  0.000000  1.902460 -0.984693 )
               b(3) = (  0.000000  0.000000  2.142189 )

     PseudoPot. # 1 for Ni read from file:
     /home/pragov/projects/rrg-bengioy-ad/pragov/crystal_structure_design/SSSP/ni_pbe_v1.4.uspp.F.UPF
     MD5 check sum: 1ee80287db30b12d2bc1f57a5b5d6409
     Pseudo is Ultrasoft + core correction, Zval = 18.0
     Generated by new atomic code, or converted to UPF format
     Using radial grid of  865 points,  6 beta functions with:
                l(1) =   0
                l(2) =   0
                l(3) =   1
                l(4) =   1
                l(5) =   2
                l(6) =   2
     Q(r) pseudized with 10 coefficients,  rinner =    0.980   0.980   0.980
                                                       0.980   0.980

     PseudoPot. # 2 for Te read from file:
     /home/pragov/projects/rrg-bengioy-ad/pragov/crystal_structure_design/SSSP/Te_pbe_v1.uspp.F.UPF
     MD5 check sum: c319670d6894cc26e93307826a071b75
     Pseudo is Ultrasoft + core correction, Zval =  6.0
     Generated by new atomic code, or converted to UPF format
     Using radial grid of  891 points,  5 beta functions with:
                l(1) =   0
                l(2) =   0
                l(3) =   1
                l(4) =   1
                l(5) =   2
     Q(r) pseudized with  6 coefficients,  rinner =    1.800   1.800   1.800
                                                       1.800   1.800

     atomic species   valence    mass     pseudopotential
        Ni            18.00    58.69340     Ni( 1.00)
        Te             6.00   127.60000     Te( 1.00)

      2 Sym. Ops., with inversion, found

                                    s                        frac. trans.

      isym =  1     identity

 cryst.   s( 1) = (     1          0          0      )
                  (     0          1          0      )
                  (     0          0          1      )

 cart.    s( 1) = (  1.0000000 -0.0000000 -0.0000000 )
                  (  0.0000000  1.0000000 -0.0000000 )
                  (  0.0000000  0.0000000  1.0000000 )

      isym =  2     inversion

 cryst.   s( 2) = (    -1          0          0      )
                  (     0         -1          0      )
                  (     0          0         -1      )

 cart.    s( 2) = ( -1.0000000  0.0000000  0.0000000 )
                  (  0.0000000 -1.0000000  0.0000000 )
                  (  0.0000000  0.0000000 -1.0000000 )

   Cartesian axes

     site n.     atom                  positions (alat units)
         1           Ni  tau(   1) = (   0.3556527   0.1010118   0.0614577  )
         2           Ni  tau(   2) = (   2.3457673   0.6662405   0.4053546  )
         3           Te  tau(   3) = (   0.6975391   0.1981138   0.1205365  )
         4           Te  tau(   4) = (   2.0038809   0.5691386   0.3462757  )

   Crystallographic axes

     site n.     atom                  positions (cryst. coord.)
         1           Ni  tau(   1) = (  0.1316540  0.1316540  0.1316540  )
         2           Ni  tau(   2) = (  0.8683460  0.8683460  0.8683460  )
         3           Te  tau(   3) = (  0.2582120  0.2582120  0.2582120  )
         4           Te  tau(   4) = (  0.7417880  0.7417880  0.7417880  )

     number of k points=     1  Methfessel-Paxton smearing, width (Ry)=  0.0010
                       cart. coord. in units 2pi/alat
        k(    1) = (   0.0000000   0.0000000   0.0000000), wk =   2.0000000

                       cryst. coord.
        k(    1) = (   0.0000000   0.0000000   0.0000000), wk =   2.0000000

     Check: negative core charge=   -0.000002

     Initial potential from superposition of free atoms

     starting charge      43.9996, renormalised to      48.0000
     Starting wfcs are   34 randomized atomic wfcs

     Self-consistent Calculation

     iteration #  1     ecut=    30.00 Ry     beta= 0.70
     Davidson diagonalization with overlap

     ethr =  1.00E-02,  avg # of iterations =  5.0

     total energy              =    -667.50615172 Ry
     estimated scf accuracy    <     100.13198384 Ry

[...]

     total energy              =    -738.27509548 Ry
     estimated scf accuracy    <       0.00000625 Ry

     iteration # 19     ecut=    30.00 Ry     beta= 0.70
     Davidson diagonalization with overlap

     ethr =  1.30E-08,  avg # of iterations =  1.0

     End of self-consistent calculation

          k = 0.0000 0.0000 0.0000 (   822 PWs)   bands (ev):

   -92.9727 -92.9668 -53.3789 -53.3789 -53.3781 -53.3486 -53.3486 -53.3428
    -3.3582  -2.0660   3.6508   6.5824   6.5824   6.5849   6.9775   6.9775
     8.0741   8.0741   8.8517   8.9271   8.9271  11.0004  11.0004  11.4251
    11.7655  11.7655  13.1072  14.5411  15.0573

     occupation numbers
     1.0000   1.0000   1.0000   1.0000   1.0000   1.0000   1.0000   1.0000
     1.0000   1.0000   1.0000   1.0000   1.0000   1.0000   1.0000   1.0000
     1.0000   1.0000   1.0000   1.0000   1.0000   1.0000   1.0000   1.0000
    -0.0000  -0.0000  -0.0000  -0.0000  -0.0000

     the Fermi energy is    11.5974 ev

!    total energy              =    -738.27509545 Ry
     estimated scf accuracy    <       0.00000048 Ry
     smearing contrib. (-TS)   =       0.00000000 Ry
     internal energy E=F+TS    =    -738.27509545 Ry

     The total energy is F=E-TS. E is the sum of the following terms:
     one-electron contribution =    -754.91280740 Ry
     hartree contribution      =     398.53591478 Ry
     xc contribution           =    -100.60364256 Ry
     ewald contribution        =    -281.29456027 Ry

     convergence has been achieved in  19 iterations

     Forces acting on atoms (cartesian axes, Ry/au):

     atom    1 type  1   force =     0.10409648    0.02951885    0.01787781
     atom    2 type  1   force =    -0.10409648   -0.02951885   -0.01787781
     atom    3 type  2   force =     0.05532981    0.01571783    0.00955328
     atom    4 type  2   force =    -0.05532981   -0.01571783   -0.00955328
     The non-local contrib.  to forces
     atom    1 type  1   force =    -0.42515844   -0.12077028   -0.07345524
     atom    2 type  1   force =     0.42515844    0.12077028    0.07345524
     atom    3 type  2   force =     0.42117785    0.11964943    0.07280217
     atom    4 type  2   force =    -0.42117785   -0.11964943   -0.07280217
     The ionic contribution  to forces
     atom    1 type  1   force =   -31.39346757   -8.91631549   -5.42486717
     atom    2 type  1   force =    31.39346757    8.91631549    5.42486717
     atom    3 type  2   force =    18.64490893    5.29549308    3.22189041
     atom    4 type  2   force =   -18.64490893   -5.29549308   -3.22189041
     The local contribution  to forces
     atom    1 type  1   force =    31.90901223    9.06281275    5.51404421
     atom    2 type  1   force =   -31.91001839   -9.06312110   -5.51422746
     atom    3 type  2   force =   -19.06982150   -5.41619579   -3.29535264
     atom    4 type  2   force =    19.06999628    5.41624375    3.29535887
     The core correction contribution to forces
     atom    1 type  1   force =     0.01295527    0.00367947    0.00223752
     atom    2 type  1   force =    -0.01296091   -0.00368131   -0.00223881
     atom    3 type  2   force =     0.05918279    0.01681206    0.01023061
     atom    4 type  2   force =    -0.05920263   -0.01681685   -0.01023176
     The Hubbard contrib.    to forces
     atom    1 type  1   force =     0.00000000    0.00000000    0.00000000
     atom    2 type  1   force =     0.00000000    0.00000000    0.00000000
     atom    3 type  2   force =     0.00000000    0.00000000    0.00000000
     atom    4 type  2   force =     0.00000000    0.00000000    0.00000000
     The SCF correction term to forces
     atom    1 type  1   force =     0.00070024    0.00009647   -0.00011793
     atom    2 type  1   force =     0.00020206    0.00018187    0.00022963
     atom    3 type  2   force =    -0.00003299   -0.00001879   -0.00001449
     atom    4 type  2   force =     0.00004857    0.00001997    0.00001499

     Total force =     0.175652     Total SCF correction =     0.000803

     Computing stress (Cartesian axis) and pressure

          total   stress  (Ry/bohr**3)                   (kbar)     P=     -150.68
  -0.00156893  -0.00024561  -0.00014942         -230.80      -36.13      -21.98
  -0.00024561  -0.00077381  -0.00004237          -36.13     -113.83       -6.23
  -0.00014942  -0.00004237  -0.00073010          -21.98       -6.23     -107.40

     kinetic stress (kbar)  18097.60     45.19     27.50
                               45.19  17951.33      7.81
                               27.50      7.81  17943.23

     local   stress (kbar)  31430.67  24853.44  15121.35
                            24853.44 -49017.05   4294.77
                            15121.35   4294.77 -53462.89

     nonloc. stress (kbar)   2360.34    -32.21    -19.60
                              -32.21   2464.63     -5.57
                              -19.60     -5.57   2470.37

     hartree stress (kbar)   6558.43 -12178.45  -7409.62
                           -12178.45  45978.69  -2104.49
                            -7409.62  -2104.49  48157.21

     exc-cor stress (kbar)   -296.68      3.57      2.17
                                3.57   -308.25      0.62
                                2.17      0.62   -308.89

     corecor stress (kbar)  -6468.82     -1.16     -0.71
                               -1.16  -6465.05     -0.20
                               -0.71     -0.20  -6464.85

     ewald   stress (kbar) -51912.34 -12726.51  -7743.07
                           -12726.51 -10718.13  -2199.17
                            -7743.07  -2199.17  -8441.59

     hubbard stress (kbar)      0.00      0.00      0.00
                                0.00      0.00      0.00
                                0.00      0.00      0.00

     DFT-D   stress (kbar)      0.00      0.00      0.00
                                0.00      0.00      0.00
                                0.00      0.00      0.00

     XDM     stress (kbar)      0.00      0.00      0.00
                                0.00      0.00      0.00
                                0.00      0.00      0.00

     dft-nl  stress (kbar)      0.00      0.00      0.00
                                0.00      0.00      0.00
                                0.00      0.00      0.00

     TS-vdW  stress (kbar)      0.00      0.00      0.00
                                0.00      0.00      0.00
                                0.00      0.00      0.00

[...]

                                0.00      0.00      0.00

     Writing all to output data dir new_calculations/myprefix.save/

     General routines

     Parallel routines

   This run was terminated on:   2:22:23  21May2023

   JOB DONE.