     Program PWSCF v.7.0 starts on 20May2023 at  8:36:41

     Reading input from espresso_7192.pwi
Warning: card &CELL ignored
Warning: card / ignored

     Current dimensions of program PWSCF are:
     Max number of different atomic species (ntypx) = 10
     Max number of k-points (npk) =  40000
     Max angular momentum in pseudopotentials (lmaxx) =  4
     file O.pbe-n-kjpaw_psl.0.1.UPF: wavefunction(s)  2P renormalized

     gamma-point specific algorithms are used
     Message from routine setup:
     using ibrav=0 with symmetry is DISCOURAGED, use correct ibrav instead

     Subspace diagonalization in iterative solution of the eigenvalue problem:
     a serial algorithm will be used

     Using Slab Decomposition

     bravais-lattice index     =            0
     lattice parameter (alat)  =      13.3588  a.u.
     unit-cell volume          =     755.6021 (a.u.)^3
     number of atoms/cell      =            7
     number of atomic types    =            3
     number of electrons       =        56.00
     number of Kohn-Sham states=           34
     kinetic-energy cutoff     =      30.0000  Ry
     charge density cutoff     =     240.0000  Ry
     scf convergence threshold =      1.0E-06
     mixing beta               =       0.7000
     number of iterations used =            8  plain     mixing
     Exchange-correlation= SLA  PW   PBX  PBC
                           (   1   4   3   4   0   0   0)

     celldm(1)=  13.358780  celldm(2)=   0.000000  celldm(3)=   0.000000
     celldm(4)=   0.000000  celldm(5)=   0.000000  celldm(6)=   0.000000

     crystal axes: (cart. coord. in units of alat)
               a(1) = (   1.000000   0.000000   0.000000 )
               a(2) = (   0.651172   0.758930   0.000000 )
               a(3) = (  -0.825586  -0.379465   0.417629 )

     reciprocal axes: (cart. coord. in units 2 pi/alat)
               b(1) = (  1.000000 -0.858013  1.197234 )
               b(2) = (  0.000000  1.317644  1.197234 )
               b(3) = (  0.000000  0.000000  2.394469 )

     PseudoPot. # 1 for Sr read from file:
     /home/pragov/projects/rrg-bengioy-ad/pragov/crystal_structure_design/SSSP/Sr_pbe_v1.uspp.F.UPF
     MD5 check sum: 6b418c05fbe9db5448babca5e47b7a5b
     Pseudo is Ultrasoft + core correction, Zval = 10.0
     Generated by new atomic code, or converted to UPF format
     Using radial grid of  883 points,  6 beta functions with:
                l(1) =   0
                l(2) =   0
                l(3) =   1
                l(4) =   1
                l(5) =   2
                l(6) =   2
     Q(r) pseudized with  6 coefficients,  rinner =    1.400   1.400   1.400
                                                       1.400   1.400

     PseudoPot. # 2 for Zr read from file:
     /home/pragov/projects/rrg-bengioy-ad/pragov/crystal_structure_design/SSSP/Zr_pbe_v1.uspp.F.UPF
     MD5 check sum: 5db81b1e868ab7776c4564c113de050b
     Pseudo is Ultrasoft + core correction, Zval = 12.0
     Generated by new atomic code, or converted to UPF format
     Using radial grid of  887 points,  6 beta functions with:
                l(1) =   0
                l(2) =   0
                l(3) =   1
                l(4) =   1
                l(5) =   2
                l(6) =   2
     Q(r) pseudized with  6 coefficients,  rinner =    1.200   1.200   1.200
                                                       1.200   1.200

     PseudoPot. # 3 for O  read from file:
     /home/pragov/projects/rrg-bengioy-ad/pragov/crystal_structure_design/SSSP/O.pbe-n-kjpaw_psl.0.1.UPF
     MD5 check sum: 0234752ac141de4415c5fc33072bef88
     Pseudo is Projector augmented-wave + core cor, Zval =  6.0
     Generated using "atomic" code by A. Dal Corso  v.5.0.99 svn rev. 10869
     Shape of augmentation charge: BESSEL
     Using radial grid of 1095 points,  4 beta functions with:
                l(1) =   0
                l(2) =   0
                l(3) =   1
                l(4) =   1
     Q(r) pseudized with 0 coefficients

     atomic species   valence    mass     pseudopotential
        Sr            10.00    87.62000     Sr( 1.00)
        Zr            12.00    91.22400     Zr( 1.00)
        O              6.00    15.99900     O ( 1.00)

      4 Sym. Ops., with inversion, found

                                    s                        frac. trans.

      isym =  1     identity

 cryst.   s( 1) = (     1          0          0      )
                  (     0          1          0      )
                  (     0          0          1      )

 cart.    s( 1) = (  1.0000000  0.0000000  0.0000000 )
                  (  0.0000000  1.0000000  0.0000000 )
                  (  0.0000000  0.0000000  1.0000000 )

      isym =  2     180 deg rotation - cart. axis [0,0,1]

[...]

      isym =  3     inversion

[...]

      isym =  4     inv. 180 deg rotation - cart. axis [0,0,1]

 cryst.   s( 4) = (     1          0          0      )
                  (     0          1          0      )
                  (    -1         -1         -1      )

 cart.    s( 4) = (  1.0000000  0.0000000 -0.0000000 )
                  (  0.0000000  1.0000000 -0.0000000 )
                  (  0.0000000  0.0000000 -1.0000000 )

   Cartesian axes

     site n.     atom                  positions (alat units)
         1           Sr  tau(   1) = (   0.5821041   0.2675533   0.0000000  )
         2           Sr  tau(   2) = (   1.0690677   0.4913771   0.0000000  )
         3           Zr  tau(   3) = (   0.0000000   0.0000000   0.0000000  )
         4           O   tau(   4) = (   0.2742134   0.1260371   0.0000000  )
         5           O   tau(   5) = (   1.3769584   0.6328933   0.0000000  )
         6           O   tau(   6) = (   0.0872071  -0.1897326   0.2088146  )
         7           O   tau(   7) = (  -0.0872071   0.1897326   0.2088146  )

   Crystallographic axes

     site n.     atom                  positions (cryst. coord.)
         1           Sr  tau(   1) = (  0.3525400  0.3525400  0.0000000  )
         2           Sr  tau(   2) = (  0.6474600  0.6474600  0.0000000  )
         3           Zr  tau(   3) = (  0.0000000  0.0000000  0.0000000  )
         4           O   tau(   4) = (  0.1660720  0.1660720  0.0000000  )
         5           O   tau(   5) = (  0.8339280  0.8339280  0.0000000  )
         6           O   tau(   6) = (  0.5000000  0.0000000  0.5000000  )
         7           O   tau(   7) = ( -0.0000000  0.5000000  0.5000000  )

     number of k points=     1  Methfessel-Paxton smearing, width (Ry)=  0.0010
                       cart. coord. in units 2pi/alat
        k(    1) = (   0.0000000   0.0000000   0.0000000), wk =   2.0000000

                       cryst. coord.
        k(    1) = (   0.0000000   0.0000000   0.0000000), wk =   2.0000000

     Check: negative core charge=   -0.000012

     Initial potential from superposition of free atoms

     starting charge      55.9305, renormalised to      56.0000

     negative rho (up, down):  1.878E-01 0.000E+00
     Starting wfcs are   55 randomized atomic wfcs
     Checking if some PAW data can be deallocated...

     Self-consistent Calculation

     iteration #  1     ecut=    30.00 Ry     beta= 0.70
     Davidson diagonalization with overlap

     ethr =  1.00E-02,  avg # of iterations =  2.0

     negative rho (up, down):  1.930E-01 0.000E+00

     total energy              =    -404.80668699 Ry
     estimated scf accuracy    <       2.90826404 Ry

[...]

     total energy              =    -406.20634606 Ry
     estimated scf accuracy    <       0.00000265 Ry

     iteration # 13     ecut=    30.00 Ry     beta= 0.70
     Davidson diagonalization with overlap

     ethr =  4.73E-09,  avg # of iterations =  2.0

[...]

     End of self-consistent calculation

          k = 0.0000 0.0000 0.0000 (  1057 PWs)   bands (ev):

   -39.9687 -24.9109 -24.8677 -18.2333 -18.1551 -17.8499  -8.3693  -7.6969
    -7.5318  -7.3679  -7.0646  -6.9631  -6.9539  -6.8893  -5.8993  -5.8965
     6.0806   6.4960   6.7523   6.7762   7.2247   7.2369   7.2534   7.9642
     7.9704   8.3429   8.4252   8.4363  10.8118  11.7318  11.7406  11.9232
    13.4062  14.0766

     occupation numbers
     1.0000   1.0000   1.0000   1.0000   1.0000   1.0000   1.0000   1.0000
     1.0000   1.0000   1.0000   1.0000   1.0000   1.0000   1.0000   1.0000
     1.0000   1.0000   1.0000   1.0000   1.0000   1.0000   1.0000   1.0000
     1.0000   1.0000   1.0000   1.0000  -0.0000  -0.0000  -0.0000  -0.0000
    -0.0000  -0.0000

     the Fermi energy is     9.1204 ev

!    total energy              =    -406.20634660 Ry
     estimated scf accuracy    <       0.00000019 Ry
     smearing contrib. (-TS)   =       0.00000000 Ry
     internal energy E=F+TS    =    -406.20634660 Ry

     The total energy is F=E-TS. E is the sum of the following terms:
     one-electron contribution =    -103.94876347 Ry
     hartree contribution      =      82.20215091 Ry
     xc contribution           =     -84.67581501 Ry
     ewald contribution        =    -261.76369933 Ry
     one-center paw contrib.   =     -38.02021971 Ry
      -> PAW hartree energy AE =     122.17385970 Ry
      -> PAW hartree energy PS =    -121.71091984 Ry
      -> PAW xc energy AE      =     -69.19626000 Ry
      -> PAW xc energy PS      =      30.71310045 Ry
      -> total E_H with PAW    =      82.66509077 Ry
      -> total E_XC with PAW   =    -123.15897457 Ry

     convergence has been achieved in  13 iterations

     negative rho (up, down):  2.016E-01 0.000E+00

     Forces acting on atoms (cartesian axes, Ry/au):

     atom    1 type  1   force =     0.07477520    0.03614447   -0.00000000
     atom    2 type  1   force =    -0.07477520   -0.03614447    0.00000000
     atom    3 type  2   force =     0.00000000    0.00000000    0.00000000
     atom    4 type  3   force =    -0.08691989   -0.03561820    0.00000000
     atom    5 type  3   force =     0.08691989    0.03561820   -0.00000000
     atom    6 type  3   force =     0.00000000    0.00000000    0.00000000
     atom    7 type  3   force =     0.00000000    0.00000000    0.00000000
     The non-local contrib.  to forces
     atom    1 type  1   force =    -0.00502569   -0.00154137    0.00000000
     atom    2 type  1   force =     0.00502569    0.00154137   -0.00000000
     atom    3 type  2   force =     0.00000000    0.00000000    0.00000000
     atom    4 type  3   force =    -0.16323917   -0.07446506    0.00000000
     atom    5 type  3   force =     0.16323917    0.07446506   -0.00000000
     atom    6 type  3   force =     0.00000000    0.00000000   -0.00000000
     atom    7 type  3   force =     0.00000000    0.00000000    0.00000000
     The ionic contribution  to forces
     atom    1 type  1   force =    -6.03733810   -2.77495004    0.00000000
     atom    2 type  1   force =     6.03733810    2.77495004   -0.00000000
     atom    3 type  2   force =     0.00000000    0.00000000   -0.00000000
     atom    4 type  3   force =     6.38448096    2.93450779   -0.00000000
     atom    5 type  3   force =    -6.38448096   -2.93450779    0.00000000
     atom    6 type  3   force =     0.00000000   -0.00000000    0.00000000
     atom    7 type  3   force =    -0.00000000    0.00000000    0.00000000
     The local contribution  to forces
     atom    1 type  1   force =     6.11685421    2.81218472   -0.00360834
     atom    2 type  1   force =    -6.11690820   -2.81223236    0.00360106
     atom    3 type  2   force =    -0.00010773    0.00001045    0.00003844
     atom    4 type  3   force =    -6.30955423   -2.89630871    0.00087692
     atom    5 type  3   force =     6.30964273    2.89635958   -0.00087555
     atom    6 type  3   force =    -0.00003962   -0.00002005    0.00000377
     atom    7 type  3   force =    -0.00005540   -0.00005465   -0.00002260
     The core correction contribution to forces
     atom    1 type  1   force =     0.00091909    0.00073522   -0.00021876
     atom    2 type  1   force =    -0.00091942   -0.00073576    0.00021854
     atom    3 type  2   force =    -0.00000512   -0.00000105    0.00000083
     atom    4 type  3   force =     0.00103657    0.00049183    0.00000240
     atom    5 type  3   force =    -0.00103698   -0.00049204   -0.00000240
     atom    6 type  3   force =     0.00000008   -0.00000005   -0.00000010
     atom    7 type  3   force =     0.00000006   -0.00000018   -0.00000002
     The Hubbard contrib.    to forces
     atom    1 type  1   force =     0.00000000    0.00000000    0.00000000
     atom    2 type  1   force =     0.00000000    0.00000000    0.00000000
     atom    3 type  2   force =     0.00000000    0.00000000    0.00000000
     atom    4 type  3   force =     0.00000000    0.00000000    0.00000000
     atom    5 type  3   force =     0.00000000    0.00000000    0.00000000
     atom    6 type  3   force =     0.00000000    0.00000000    0.00000000
     atom    7 type  3   force =     0.00000000    0.00000000    0.00000000
     The SCF correction term to forces
     atom    1 type  1   force =    -0.00064766   -0.00029350    0.00000536
     atom    2 type  1   force =     0.00067528    0.00032281   -0.00000039
     atom    3 type  2   force =    -0.00000131   -0.00004178   -0.00002639
     atom    4 type  3   force =     0.00036913    0.00016068   -0.00000061
     atom    5 type  3   force =    -0.00043093   -0.00020188   -0.00000326
     atom    6 type  3   force =     0.00005139    0.00002011   -0.00001155
     atom    7 type  3   force =     0.00006962    0.00005609    0.00002454

     Total force =     0.177322     Total SCF correction =     0.001212

     Computing stress (Cartesian axis) and pressure

     negative rho (up, down):  2.016E-01 0.000E+00
          total   stress  (Ry/bohr**3)                   (kbar)     P=     -101.95
  -0.00264723  -0.00130550   0.00000000         -389.42     -192.05        0.00
  -0.00130550  -0.00004983   0.00000000         -192.05       -7.33        0.00
   0.00000000   0.00000000   0.00061789            0.00        0.00       90.89

     kinetic stress (kbar)  17862.08   -138.72     -0.00
                             -138.72  18117.41     -0.00
                               -0.00     -0.00  18190.61

     local   stress (kbar)  -7537.11   2731.54     -1.10
                             2731.54 -12190.58      0.86
                               -1.10      0.86 -13447.39

     nonloc. stress (kbar)   8922.22    -35.11     -0.00
                              -35.11   8981.06     -0.00
                               -0.00     -0.00   9004.12

     hartree stress (kbar)   3532.02  -1389.89     -0.13
                            -1389.89   5917.69     -0.36
                               -0.13     -0.36   6553.90

     exc-cor stress (kbar)   1051.11      6.11     -0.03
                                6.11   1040.72     -0.04
                               -0.03     -0.04   1037.87

     corecor stress (kbar)  -5457.60      2.26      0.21
                                2.26  -5459.41     -0.61
                                0.21     -0.61  -5462.87

     ewald   stress (kbar) -18762.14  -1368.23      0.00
                            -1368.23 -16414.22      0.00
                                0.00      0.00 -15785.34

     hubbard stress (kbar)      0.00      0.00      0.00
                                0.00      0.00      0.00
                                0.00      0.00      0.00

     DFT-D   stress (kbar)      0.00      0.00      0.00
                                0.00      0.00      0.00
                                0.00      0.00      0.00

     XDM     stress (kbar)      0.00      0.00      0.00
                                0.00      0.00      0.00
                                0.00      0.00      0.00

     dft-nl  stress (kbar)      0.00      0.00      0.00
                                0.00      0.00      0.00
                                0.00      0.00      0.00

     TS-vdW  stress (kbar)      0.00      0.00      0.00
                                0.00      0.00      0.00
                                0.00      0.00      0.00

[...]

                                0.00      0.00      0.00

     Writing all to output data dir new_calculations/myprefix.save/

     General routines

     Parallel routines

     PAW routines

   This run was terminated on:   8:36:56  20May2023

   JOB DONE.