     Program PWSCF v.7.0 starts on 20May2023 at  5:20:22

     Reading input from espresso_252.pwi
Warning: card &CELL ignored
Warning: card / ignored

     Current dimensions of program PWSCF are:
     Max number of different atomic species (ntypx) = 10
     Max number of k-points (npk) =  40000
     Max angular momentum in pseudopotentials (lmaxx) =  4
     file K.pbe-spn-kjpaw_psl.1.0.0.UPF: wavefunction(s)  3S renormalized
     file O.pbe-n-kjpaw_psl.0.1.UPF: wavefunction(s)  2P renormalized

     gamma-point specific algorithms are used

     Subspace diagonalization in iterative solution of the eigenvalue problem:
     a serial algorithm will be used

     Using Slab Decomposition

     bravais-lattice index     =            0
     lattice parameter (alat)  =      11.5502  a.u.
     unit-cell volume          =    1061.4160 (a.u.)^3
     number of atoms/cell      =           10
     number of atomic types    =            5
     number of electrons       =        80.00
     number of Kohn-Sham states=           48
     kinetic-energy cutoff     =      30.0000  Ry
     charge density cutoff     =     240.0000  Ry
     scf convergence threshold =      1.0E-06
     mixing beta               =       0.7000
     number of iterations used =            8  plain     mixing
     Exchange-correlation=  SLA  PW   PBX  PBC
                           (   1   4   3   4   0   0   0)

     celldm(1)=  11.550247  celldm(2)=   0.000000  celldm(3)=   0.000000
     celldm(4)=   0.000000  celldm(5)=   0.000000  celldm(6)=   0.000000

     crystal axes: (cart. coord. in units of alat)
               a(1) = (   1.000000   0.000000   0.000000 )
               a(2) = (   0.506044   0.851187   0.000000 )
               a(3) = (   0.493956   0.263858   0.809258 )

     reciprocal axes: (cart. coord. in units 2 pi/alat)
               b(1) = (  1.000000 -0.594516 -0.416540 )
               b(2) = (  0.000000  1.174830 -0.383052 )
               b(3) = (  0.000000  0.000000  1.235700 )

     PseudoPot. # 1 for K  read from file:
     /home/pragov/projects/rrg-bengioy-ad/pragov/crystal_structure_design/SSSP/K.pbe-spn-kjpaw_psl.1.0.0.UPF
     MD5 check sum: 7d58810084cac21f60fbe77ea2b688fd
     Pseudo is Projector augmented-wave + core cor, Zval =  9.0
     Generated using "atomic" code by A. Dal Corso  v.5.1
     Shape of augmentation charge: PSQ
     Using radial grid of 1165 points,  6 beta functions with:
                l(1) =   0
                l(2) =   0
                l(3) =   1
                l(4) =   1
                l(5) =   2
                l(6) =   2
     Q(r) pseudized with 0 coefficients

     PseudoPot. # 2 for Na read from file:
     /home/pragov/projects/rrg-bengioy-ad/pragov/crystal_structure_design/SSSP/na_pbe_v1.5.uspp.F.UPF
     MD5 check sum: 44600605ef58000f06b90626533354dc
     Pseudo is Ultrasoft, Zval =  9.0
     Generated by new atomic code, or converted to UPF format
     Using radial grid of  819 points,  5 beta functions with:
                l(1) =   0
                l(2) =   0
                l(3) =   1
                l(4) =   1
                l(5) =   2
     Q(r) pseudized with  8 coefficients,  rinner =    1.250   1.250   1.250
                                                       1.250   1.250

     PseudoPot. # 3 for Mo read from file:
     /home/pragov/projects/rrg-bengioy-ad/pragov/crystal_structure_design/SSSP/Mo_ONCV_PBE-1.0.oncvpsp.upf
     MD5 check sum: 1b5d28e075c9ccadda658a603575cd1f
     Pseudo is Norm-conserving, Zval = 14.0
     Generated using ONCVPSP code by D. R. Hamann
     Using radial grid of 1526 points,  6 beta functions with:
                l(1) =   0
                l(2) =   0
                l(3) =   1
                l(4) =   1
                l(5) =   2
                l(6) =   2

     PseudoPot. # 4 for O  read from file:
     /home/pragov/projects/rrg-bengioy-ad/pragov/crystal_structure_design/SSSP/O.pbe-n-kjpaw_psl.0.1.UPF
     MD5 check sum: 0234752ac141de4415c5fc33072bef88
     Pseudo is Projector augmented-wave + core cor, Zval =  6.0
     Generated using "atomic" code by A. Dal Corso  v.5.0.99 svn rev. 10869
     Shape of augmentation charge: BESSEL
     Using radial grid of 1095 points,  4 beta functions with:
                l(1) =   0
                l(2) =   0
                l(3) =   1
                l(4) =   1
     Q(r) pseudized with 0 coefficients

     PseudoPot. # 5 for F  read from file:
     /home/pragov/projects/rrg-bengioy-ad/pragov/crystal_structure_design/SSSP/f_pbe_v1.4.uspp.F.UPF
     MD5 check sum: 4c38b6a325caf53ec0e86aed9459de46
     Pseudo is Ultrasoft, Zval =  7.0
     Generated by new atomic code, or converted to UPF format
     Using radial grid of  799 points,  4 beta functions with:
                l(1) =   0
                l(2) =   0
                l(3) =   1
                l(4) =   1
     Q(r) pseudized with  8 coefficients,  rinner =    0.950   0.950   0.950

     atomic species   valence    mass     pseudopotential
        K              9.00    39.09830     K ( 1.00)
        Na             9.00    22.98977     Na( 1.00)
        Mo            14.00    95.95000     Mo( 1.00)
        O              6.00    15.99900     O ( 1.00)
        F              7.00    18.99840     F ( 1.00)

     No symmetry found

                                    s                        frac. trans.

      isym =  1     identity

 cryst.   s( 1) = (     1          0          0      )
                  (     0          1          0      )
                  (     0          0          1      )

 cart.    s( 1) = (  1.0000000 -0.0000000 -0.0000000 )
                  (  0.0000000  1.0000000  0.0000000 )
                  (  0.0000000  0.0000000  1.0000000 )

   Cartesian axes

     site n.     atom                  positions (alat units)
         1           K   tau(   1) = (   1.5094509   0.8417678   0.5993865  )
         2           K   tau(   2) = (   0.5094509   0.2842456   0.1947576  )
         3           Na  tau(   3) = (   1.0035211   0.5595655   0.4018135  )
         4           Mo  tau(   4) = (   0.5150475   0.2760975   0.7923929  )
         5           O   tau(   5) = (   0.9809520   0.8653549   0.6512955  )
         6           O   tau(   6) = (   0.7221452   0.3962792   0.6267993  )
         7           O   tau(   7) = (   0.9809520   0.2275818   0.1884235  )
         8           F   tau(   8) = (   0.7414541   0.7145047   0.1883289  )
         9           F   tau(   9) = (   1.2668635   0.7123868   0.1912470  )
        10           F   tau(  10) = (   1.2641174   0.4037729   0.6164740  )

   Crystallographic axes

     site n.     atom                  positions (cryst. coord.)
         1           K   tau(   1) = (  0.7593380  0.7593380  0.7406620  )
         2           K   tau(   2) = (  0.2593380  0.2593380  0.2406620  )
         3           Na  tau(   3) = (  0.5034790  0.5034790  0.4965210  )
         4           Mo  tau(   4) = (  0.0208400  0.0208400  0.9791600  )
         5           O   tau(   5) = (  0.1951940  0.7671650  0.8048060  )
         6           O   tau(   6) = (  0.2254640  0.2254640  0.7745360  )
         7           O   tau(   7) = (  0.7671650  0.1951940  0.2328350  )
         8           F   tau(   8) = (  0.2382230  0.7672820  0.2327180  )
         9           F   tau(   9) = (  0.7636760  0.7636760  0.2363240  )
        10           F   tau(  10) = (  0.7672820  0.2382230  0.7617770  )

     number of k points=     1  Methfessel-Paxton smearing, width (Ry)=  0.0010
                       cart. coord. in units 2pi/alat
        k(    1) = (   0.0000000   0.0000000   0.0000000), wk =   2.0000000

                       cryst. coord.
        k(    1) = (   0.0000000   0.0000000   0.0000000), wk =   2.0000000

     Check: negative core charge=   -0.000009

     Initial potential from superposition of free atoms

     starting charge      79.9551, renormalised to      80.0000
     Starting wfcs are   55 randomized atomic wfcs
     Checking if some PAW data can be deallocated...

     Self-consistent Calculation

     iteration #  1     ecut=    30.00 Ry     beta= 0.70
     Davidson diagonalization with overlap

     ethr =  1.00E-02,  avg # of iterations =  5.0

     total energy              =    -728.20102407 Ry
     estimated scf accuracy    <       2.85666941 Ry

[...]

     total energy              =    -729.82260461 Ry
     estimated scf accuracy    <       0.00000561 Ry

     iteration # 10     ecut=    30.00 Ry     beta= 0.70
     Davidson diagonalization with overlap

     ethr =  7.02E-09,  avg # of iterations =  3.0

     End of self-consistent calculation

          k = 0.0000 0.0000 0.0000 (  1467 PWs)   bands (ev):

   -57.2905 -44.8321 -31.5520 -31.5457 -31.3331 -24.0152 -23.9968 -18.0348
   -17.8373 -16.8599 -16.7461 -16.6591 -16.1651 -12.5278 -12.0276 -11.0295
    -7.6293  -7.5875  -7.5456  -7.5057  -7.4769  -7.4411  -1.1259  -0.2221
    -0.1327   0.1118   0.2760   0.4284   0.7836   0.9244   0.9352   2.1485
     2.1659   2.4486   2.4880   2.9028   3.4726   3.5447   3.8296   4.2207
     6.5922   7.2115   8.3217   8.9909   9.8521  11.5734  12.0168  12.2449

     occupation numbers
     1.0000   1.0000   1.0000   1.0000   1.0000   1.0000   1.0000   1.0000
     1.0000   1.0000   1.0000   1.0000   1.0000   1.0000   1.0000   1.0000
     1.0000   1.0000   1.0000   1.0000   1.0000   1.0000   1.0000   1.0000
     1.0000   1.0000   1.0000   1.0000   1.0000   1.0000   1.0000   1.0000
     1.0000   1.0000   1.0000   1.0000   1.0000   1.0000   1.0000   1.0000
    -0.0000  -0.0000  -0.0000  -0.0000  -0.0000  -0.0000  -0.0000  -0.0000

     the Fermi energy is     5.8365 ev

!    total energy              =    -729.82260586 Ry
     estimated scf accuracy    <       0.00000018 Ry
     smearing contrib. (-TS)   =       0.00000000 Ry
     internal energy E=F+TS    =    -729.82260586 Ry

     The total energy is F=E-TS. E is the sum of the following terms:
     one-electron contribution =    -313.60643010 Ry
     hartree contribution      =     192.34646018 Ry
     xc contribution           =    -103.03325049 Ry
     ewald contribution        =    -366.11183691 Ry
     one-center paw contrib.   =    -139.41754855 Ry
      -> PAW hartree energy AE =     163.75746413 Ry
      -> PAW hartree energy PS =    -163.03108864 Ry
      -> PAW xc energy AE      =    -183.88030003 Ry
      -> PAW xc energy PS      =      43.73637600 Ry
      -> total E_H with PAW    =     193.07283567 Ry
      -> total E_XC with PAW   =    -243.17717453 Ry

     convergence has been achieved in  10 iterations

     Forces acting on atoms (cartesian axes, Ry/au):

     atom    1 type  1   force =     0.00868032    0.00504027   -0.00693320
     atom    2 type  1   force =     0.00867823    0.00503666   -0.00694287
     atom    3 type  2   force =     0.00437693    0.00252578   -0.00351574
     atom    4 type  3   force =     0.03748070    0.02176335   -0.02995451
     atom    5 type  4   force =    -0.01054017    0.03784418    0.04033186
     atom    6 type  4   force =    -0.04375527   -0.02539156    0.03499326
     atom    7 type  4   force =    -0.01053654   -0.05009334   -0.02349916
     atom    8 type  5   force =    -0.00885659    0.00685118   -0.00943348
     atom    9 type  5   force =     0.00292774    0.00170674   -0.00233131
     atom   10 type  5   force =     0.01154465   -0.00528328    0.00728514
     The non-local contrib.  to forces
     atom    1 type  1   force =    -0.01485135   -0.00862026    0.01187784
     atom    2 type  1   force =    -0.01486699   -0.00862022    0.01188799
     atom    3 type  2   force =    -0.02852539   -0.01654706    0.02279846
     atom    4 type  3   force =    -0.03355292   -0.01945855    0.02684594
     atom    5 type  4   force =     0.13513480    0.64626853    0.30406611
     atom    6 type  4   force =    -0.66374117   -0.38518240    0.53072392
     atom    7 type  4   force =     0.13514694   -0.48944649   -0.52021376
     atom    8 type  5   force =    -0.48731211    0.36518867   -0.50316358
     atom    9 type  5   force =     0.24331158    0.14118993   -0.19454750
     atom   10 type  5   force =     0.61579671   -0.29063028    0.40043942
     The ionic contribution  to forces
     atom    1 type  1   force =    -0.45933329   -0.26655753    0.36727908
     atom    2 type  1   force =    -0.45933330   -0.26655751    0.36727908
     atom    3 type  2   force =    -0.48481239   -0.28134339    0.38765195
     atom    4 type  3   force =     0.36550310    0.21210654   -0.29225323
     atom    5 type  4   force =    -1.01462300   -9.28306140   -5.49868812
     atom    6 type  4   force =     8.04539580    4.66885542   -6.43303150
     atom    7 type  4   force =    -1.01462298    8.10546166    7.12125632
     atom    8 type  5   force =     5.61573766   -3.64252754    5.01889484
     atom    9 type  5   force =    -4.46085646   -2.58869723    3.56686368
     atom   10 type  5   force =    -6.13305514    3.34232099   -4.60525210
     The local contribution  to forces
     atom    1 type  1   force =     0.48194151    0.27965985   -0.38534060
     atom    2 type  1   force =     0.48195563    0.27968056   -0.38537953
     atom    3 type  2   force =     0.51777577    0.30052228   -0.41397799
     atom    4 type  3   force =    -0.29457995   -0.17105755    0.23539056
     atom    5 type  4   force =     0.87006706    8.67930923    5.23694263
     atom    6 type  4   force =    -7.43047205   -4.31198825    5.94131721
     atom    7 type  4   force =     0.87009553   -7.66949799   -6.62838281
     atom    8 type  5   force =    -5.13750937    3.28430370   -4.52532291
     atom    9 type  5   force =     4.22068492    2.44930431   -3.37484026
     atom   10 type  5   force =     5.52903541   -3.05712589    4.21227285
     The core correction contribution to forces
     atom    1 type  1   force =     0.00089735    0.00052087   -0.00071758
     atom    2 type  1   force =     0.00089874    0.00052103   -0.00071868
     atom    3 type  2   force =     0.00000000    0.00000000    0.00000000
     atom    4 type  3   force =     0.00000000    0.00000000    0.00000000
     atom    5 type  4   force =    -0.00110853   -0.00442485   -0.00185820
     atom    6 type  4   force =     0.00476282    0.00276403   -0.00380845
     atom    7 type  4   force =    -0.00110863    0.00313851    0.00363132
     atom    8 type  5   force =     0.00000000    0.00000000    0.00000000
     atom    9 type  5   force =     0.00000000    0.00000000    0.00000000
     atom   10 type  5   force =     0.00000000    0.00000000    0.00000000
     The Hubbard contrib.    to forces
     atom    1 type  1   force =     0.00000000    0.00000000    0.00000000
     atom    2 type  1   force =     0.00000000    0.00000000    0.00000000
     atom    3 type  2   force =     0.00000000    0.00000000    0.00000000
     atom    4 type  3   force =     0.00000000    0.00000000    0.00000000
     atom    5 type  4   force =     0.00000000    0.00000000    0.00000000
     atom    6 type  4   force =     0.00000000    0.00000000    0.00000000
     atom    7 type  4   force =     0.00000000    0.00000000    0.00000000
     atom    8 type  5   force =     0.00000000    0.00000000    0.00000000
     atom    9 type  5   force =     0.00000000    0.00000000    0.00000000
     atom   10 type  5   force =     0.00000000    0.00000000    0.00000000
     The SCF correction term to forces
     atom    1 type  1   force =     0.00001101    0.00002668   -0.00002162
     atom    2 type  1   force =     0.00000907    0.00000214   -0.00000141
     atom    3 type  2   force =    -0.00007615   -0.00011671    0.00002216
     atom    4 type  3   force =     0.00009538    0.00016225    0.00007254
     atom    5 type  4   force =    -0.00002560   -0.00025798   -0.00012024
     atom    6 type  4   force =     0.00028424    0.00014897   -0.00019760
     atom    7 type  4   force =    -0.00006249    0.00024032    0.00022008
     atom    8 type  5   force =     0.00021213   -0.00012431    0.00016848
     atom    9 type  5   force =    -0.00022739   -0.00010092    0.00020309
     atom   10 type  5   force =    -0.00024741    0.00014123   -0.00016471

     Total force =     0.116975     Total SCF correction =     0.000834

     Computing stress (Cartesian axis) and pressure

          total   stress  (Ry/bohr**3)                   (kbar)     P=     -185.36
  -0.00114228  -0.00003174   0.00004372         -168.04       -4.67        6.43
  -0.00003174  -0.00137412  -0.00016921           -4.67     -202.14      -24.89
   0.00004372  -0.00016921  -0.00126380            6.43      -24.89     -185.91

     kinetic stress (kbar)  19301.20     77.47   -106.75
                               77.47  19430.16     95.91
                             -106.75     95.91  19367.62

     local   stress (kbar)  -6255.84    356.02   -490.55
                              356.02  -5040.23    892.88
                             -490.55    892.88  -5622.47

     nonloc. stress (kbar)  -1458.39      1.05     -1.45
                                1.05  -1455.67      2.00
                               -1.45      2.00  -1456.98

     hartree stress (kbar)   9250.79   -209.66    288.89
                             -209.66   8531.26   -528.47
                              288.89   -528.47   8875.87

     exc-cor stress (kbar)  -3506.72      1.66     -2.29
                                1.66  -3502.13      3.38
                               -2.29      3.38  -3504.34

     corecor stress (kbar)   -923.11     -0.25      0.35
                               -0.25   -923.28     -0.13
                                0.35     -0.13   -923.19

     ewald   stress (kbar) -16575.96   -230.96    318.23
                             -230.96 -17242.25   -490.47
                              318.23   -490.47 -16922.42

     hubbard stress (kbar)      0.00      0.00      0.00
                                0.00      0.00      0.00
                                0.00      0.00      0.00

     DFT-D   stress (kbar)      0.00      0.00      0.00
                                0.00      0.00      0.00
                                0.00      0.00      0.00

     XDM     stress (kbar)      0.00      0.00      0.00
                                0.00      0.00      0.00
                                0.00      0.00      0.00

     dft-nl  stress (kbar)      0.00      0.00      0.00
                                0.00      0.00      0.00
                                0.00      0.00      0.00

     TS-vdW  stress (kbar)      0.00      0.00      0.00
                                0.00      0.00      0.00
                                0.00      0.00      0.00

[...]

                                0.00      0.00      0.00

     Writing all to output data dir new_calculations/myprefix.save/

     General routines

     Parallel routines

     PAW routines

   This run was terminated on:   5:20:43  20May2023

   JOB DONE.