     Program PWSCF v.7.0 starts on 20May2023 at 20:28:40

     Reading input from espresso_6534.pwi
Warning: card &CELL ignored
Warning: card / ignored

     Current dimensions of program PWSCF are:
     Max number of different atomic species (ntypx) = 10
     Max number of k-points (npk) =  40000
     Max angular momentum in pseudopotentials (lmaxx) =  4
     file O.pbe-n-kjpaw_psl.0.1.UPF: wavefunction(s)  2P renormalized

     gamma-point specific algorithms are used
     Message from routine setup:
     using ibrav=0 with symmetry is DISCOURAGED, use correct ibrav instead

     Subspace diagonalization in iterative solution of the eigenvalue problem:
     a serial algorithm will be used

     Using Slab Decomposition

     bravais-lattice index     =            0
     lattice parameter (alat)  =      10.7508  a.u.
     unit-cell volume          =     844.1899 (a.u.)^3
     number of atoms/cell      =           10
     number of atomic types    =            4
     number of electrons       =        87.00
     number of Kohn-Sham states=           53
     kinetic-energy cutoff     =      30.0000  Ry
     charge density cutoff     =     240.0000  Ry
     scf convergence threshold =      1.0E-06
     mixing beta               =       0.7000
     number of iterations used =            8  plain     mixing
     Exchange-correlation= SLA  PW   PBX  PBC
                           (   1   4   3   4   0   0   0)

     celldm(1)=  10.750779  celldm(2)=   0.000000  celldm(3)=   0.000000
     celldm(4)=   0.000000  celldm(5)=   0.000000  celldm(6)=   0.000000

     crystal axes: (cart. coord. in units of alat)
               a(1) = (   1.000000   0.000000   0.000000 )
               a(2) = (   0.072038   0.997402   0.000000 )
               a(3) = (  -0.536019  -0.498701   0.681162 )

     reciprocal axes: (cart. coord. in units 2 pi/alat)
               b(1) = (  1.000000 -0.072225  0.734040 )
               b(2) = (  0.000000  1.002605  0.734040 )
               b(3) = (  0.000000  0.000000  1.468080 )

     PseudoPot. # 1 for Sr read from file:
     /home/pragov/projects/rrg-bengioy-ad/pragov/crystal_structure_design/SSSP/Sr_pbe_v1.uspp.F.UPF
     MD5 check sum: 6b418c05fbe9db5448babca5e47b7a5b
     Pseudo is Ultrasoft + core correction, Zval = 10.0
     Generated by new atomic code, or converted to UPF format
     Using radial grid of  883 points,  6 beta functions with:
                l(1) =   0
                l(2) =   0
                l(3) =   1
                l(4) =   1
                l(5) =   2
                l(6) =   2
     Q(r) pseudized with  6 coefficients,  rinner =    1.400   1.400   1.400
                                                       1.400   1.400

     PseudoPot. # 2 for Co read from file:
     /home/pragov/projects/rrg-bengioy-ad/pragov/crystal_structure_design/SSSP/Co_pbe_v1.2.uspp.F.UPF
     MD5 check sum: 5f91765df6ddd3222702df6e7b74a16d
     Pseudo is Ultrasoft + core correction, Zval = 17.0
     Generated by new atomic code, or converted to UPF format
     Using radial grid of  863 points,  6 beta functions with:
                l(1) =   0
                l(2) =   0
                l(3) =   1
                l(4) =   1
                l(5) =   2
                l(6) =   2
     Q(r) pseudized with  8 coefficients,  rinner =    1.200   1.200   1.200
                                                       1.200   1.200

     PseudoPot. # 3 for Mo read from file:
     /home/pragov/projects/rrg-bengioy-ad/pragov/crystal_structure_design/SSSP/Mo_ONCV_PBE-1.0.oncvpsp.upf
     MD5 check sum: 1b5d28e075c9ccadda658a603575cd1f
     Pseudo is Norm-conserving, Zval = 14.0
     Generated using ONCVPSP code by D. R. Hamann
     Using radial grid of 1526 points,  6 beta functions with:
                l(1) =   0
                l(2) =   0
                l(3) =   1
                l(4) =   1
                l(5) =   2
                l(6) =   2

     PseudoPot. # 4 for O  read from file:
     /home/pragov/projects/rrg-bengioy-ad/pragov/crystal_structure_design/SSSP/O.pbe-n-kjpaw_psl.0.1.UPF
     MD5 check sum: 0234752ac141de4415c5fc33072bef88
     Pseudo is Projector augmented-wave + core cor, Zval =  6.0
     Generated using "atomic" code by A. Dal Corso  v.5.0.99 svn rev. 10869
     Shape of augmentation charge: BESSEL
     Using radial grid of 1095 points,  4 beta functions with:
                l(1) =   0
                l(2) =   0
                l(3) =   1
                l(4) =   1
     Q(r) pseudized with 0 coefficients

     atomic species   valence    mass     pseudopotential
        Sr            10.00    87.62000     Sr( 1.00)
        Co            17.00    58.93319     Co( 1.00)
        Mo            14.00    95.95000     Mo( 1.00)
        O              6.00    15.99900     O ( 1.00)

      4 Sym. Ops., with inversion, found

                                    s                        frac. trans.

      isym =  1     identity

 cryst.   s( 1) = (     1          0          0      )
                  (     0          1          0      )
                  (     0          0          1      )

 cart.    s( 1) = (  1.0000000  0.0000000  0.0000000 )
                  (  0.0000000  1.0000000  0.0000000 )
                  (  0.0000000  0.0000000  1.0000000 )

      isym =  2     180 deg rotation - cart. axis [0,0,1]

[...]

      isym =  3     inversion

[...]

      isym =  4     inv. 180 deg rotation - cart. axis [0,0,1]

 cryst.   s( 4) = (     1          0          0      )
                  (     0          1          0      )
                  (    -1         -1         -1      )

 cart.    s( 4) = (  1.0000000  0.0000000  0.0000000 )
                  (  0.0000000  1.0000000  0.0000000 )
                  (  0.0000000  0.0000000 -1.0000000 )

   Cartesian axes

     site n.     atom                  positions (alat units)
         1           Sr  tau(   1) = (   0.0360188   0.4987010   0.3405808  )
         2           Sr  tau(   2) = (   0.5000000  -0.0000000   0.3405808  )
         3           Co  tau(   3) = (   0.0000000   0.0000000   0.0000000  )
         4           Mo  tau(   4) = (   0.5360188   0.4987010   0.0000000  )
         5           O   tau(   5) = (   0.2848072   0.2649788   0.0000000  )
         6           O   tau(   6) = (  -0.0000000  -0.0000000   0.3408478  )
         7           O   tau(   7) = (   0.5360188   0.4987010   0.3403138  )
         8           O   tau(   8) = (   0.7872305   0.7324231   0.0000000  )
         9           O   tau(   9) = (   0.3042101   0.7478559   0.0000000  )
        10           O   tau(  10) = (   0.7678275   0.2495460   0.0000000  )

   Crystallographic axes

     site n.     atom                  positions (cryst. coord.)
         1           Sr  tau(   1) = (  0.2500000  0.7500000  0.5000000  )
         2           Sr  tau(   2) = (  0.7500000  0.2500000  0.5000000  )
         3           Co  tau(   3) = (  0.0000000  0.0000000  0.0000000  )
         4           Mo  tau(   4) = (  0.5000000  0.5000000  0.0000000  )
         5           O   tau(   5) = (  0.2656690  0.2656690  0.0000000  )
         6           O   tau(   6) = (  0.2501960  0.2501960  0.5003920  )
         7           O   tau(   7) = (  0.7498040  0.7498040  0.4996080  )
         8           O   tau(   8) = (  0.7343310  0.7343310  0.0000000  )
         9           O   tau(   9) = (  0.2501960  0.7498040  0.0000000  )
        10           O   tau(  10) = (  0.7498040  0.2501960  0.0000000  )

     number of k points=     1  Methfessel-Paxton smearing, width (Ry)=  0.0010
                       cart. coord. in units 2pi/alat
        k(    1) = (   0.0000000   0.0000000   0.0000000), wk =   2.0000000

                       cryst. coord.
        k(    1) = (   0.0000000   0.0000000   0.0000000), wk =   2.0000000

     Check: negative core charge=   -0.000017

     Initial potential from superposition of free atoms

     starting charge      85.9317, renormalised to      87.0000

     negative rho (up, down):  1.274E-01 0.000E+00
     Starting wfcs are   73 randomized atomic wfcs
     Checking if some PAW data can be deallocated...

     Self-consistent Calculation

     iteration #  1     ecut=    30.00 Ry     beta= 0.70
     Davidson diagonalization with overlap

     ethr =  1.00E-02,  avg # of iterations =  2.0

     negative rho (up, down):  1.287E-01 0.000E+00

     total energy              =    -823.24329753 Ry
     estimated scf accuracy    <       4.47884406 Ry

[...]

     total energy              =    -825.65730330 Ry
     estimated scf accuracy    <       0.00000775 Ry

     iteration # 28     ecut=    30.00 Ry     beta= 0.70
     Davidson diagonalization with overlap

     ethr =  6.06E-09,  avg # of iterations =  1.0

[...]

     End of self-consistent calculation

          k = 0.0000 0.0000 0.0000 (  1171 PWs)   bands (ev):

   -84.9865 -51.1391 -48.4521 -48.4521 -47.6184 -25.3501 -25.3501 -25.1541
   -23.6248 -23.5778  -7.1302  -6.2594  -5.9322  -5.8437  -5.8437  -5.7853
    -5.7853  -5.6937  -5.6098  -5.5280  -5.5280  -5.3879   4.9438   5.0769
     5.7967   6.1107   6.2464   6.2464   7.4270   7.4314   7.4314   9.0922
     9.2416   9.3166   9.3166   9.4927   9.4927   9.9875   9.9875  10.1644
    10.6275  10.6275  10.6838  10.6938  10.8813  13.0337  13.0684  13.0684
    14.8432  15.4693  15.7750  16.3752  16.3752

     occupation numbers
     1.0000   1.0000   1.0000   1.0000   1.0000   1.0000   1.0000   1.0000
     1.0000   1.0000   1.0000   1.0000   1.0000   1.0000   1.0000   1.0000
     1.0000   1.0000   1.0000   1.0000   1.0000   1.0000   1.0000   1.0000
     1.0000   1.0000   1.0000   1.0000   1.0000   1.0000   1.0000   1.0000
     1.0000   1.0000   1.0000   1.0000   1.0000   1.0000   1.0000   1.0000
     1.0000   1.0000   0.9790   0.5210  -0.0000  -0.0000  -0.0000  -0.0000
    -0.0000  -0.0000  -0.0000  -0.0000  -0.0000

     the Fermi energy is    10.6942 ev

!    total energy              =    -825.65730323 Ry
     estimated scf accuracy    <       0.00000009 Ry
     smearing contrib. (-TS)   =      -0.00025708 Ry
     internal energy E=F+TS    =    -825.65704615 Ry

     The total energy is F=E-TS. E is the sum of the following terms:
     one-electron contribution =    -357.30910066 Ry
     hartree contribution      =     227.89589314 Ry
     xc contribution           =    -129.79320474 Ry
     ewald contribution        =    -509.41234431 Ry
     one-center paw contrib.   =     -57.03828959 Ry
      -> PAW hartree energy AE =     182.98809886 Ry
      -> PAW hartree energy PS =    -182.28579242 Ry
      -> PAW xc energy AE      =    -103.78328154 Ry
      -> PAW xc energy PS      =      46.04268551 Ry
      -> total E_H with PAW    =     228.59819958 Ry
      -> total E_XC with PAW   =    -187.53380076 Ry

     convergence has been achieved in  28 iterations

     negative rho (up, down):  1.351E-01 0.000E+00

     Forces acting on atoms (cartesian axes, Ry/au):

     atom    1 type  1   force =     0.00000000    0.00000000    0.00000001
     atom    2 type  1   force =     0.00000000    0.00000000   -0.00000001
     atom    3 type  2   force =     0.00000000    0.00000000    0.00000000
     atom    4 type  3   force =     0.00000000    0.00000000    0.00000000
     atom    5 type  4   force =     0.00953204    0.00886843    0.00000000
     atom    6 type  4   force =     0.00000000    0.00000000   -0.01572595
     atom    7 type  4   force =     0.00000000    0.00000000    0.01572595
     atom    8 type  4   force =    -0.00953204   -0.00886843   -0.00000000
     atom    9 type  4   force =    -0.01071186    0.01151342    0.00000000
     atom   10 type  4   force =     0.01071186   -0.01151342   -0.00000000
     The non-local contrib.  to forces
     atom    1 type  1   force =     0.00000000    0.00000000    0.00000001
     atom    2 type  1   force =     0.00000000    0.00000000   -0.00000001
     atom    3 type  2   force =     0.00000000    0.00000000    0.00000000
     atom    4 type  3   force =     0.00000000    0.00000000    0.00000000
     atom    5 type  4   force =     0.13319573    0.12392264    0.00000000
     atom    6 type  4   force =     0.00000000    0.00000000   -0.08588751
     atom    7 type  4   force =     0.00000000    0.00000000    0.08588751
     atom    8 type  4   force =    -0.13319573   -0.12392264   -0.00000000
     atom    9 type  4   force =    -0.05850229    0.06288002   -0.00000000
     atom   10 type  4   force =     0.05850229   -0.06288002   -0.00000000
     The ionic contribution  to forces
     atom    1 type  1   force =     0.00000000   -0.00000000    0.00000000
     atom    2 type  1   force =     0.00000000    0.00000000   -0.00000000
     atom    3 type  2   force =    -0.00000000    0.00000000    0.00000000
     atom    4 type  3   force =     0.00000000   -0.00000000    0.00000000
     atom    5 type  4   force =    -1.50250676   -1.39790162    0.00000000
     atom    6 type  4   force =    -0.00000000   -0.00000000    1.48331935
     atom    7 type  4   force =    -0.00000000   -0.00000000   -1.48331935
     atom    8 type  4   force =     1.50250676    1.39790162   -0.00000000
     atom    9 type  4   force =     1.01038025   -1.08598713   -0.00000000
     atom   10 type  4   force =    -1.01038026    1.08598713    0.00000000
     The local contribution  to forces
     atom    1 type  1   force =    -0.00000006    0.00000001    0.00000000
     atom    2 type  1   force =     0.00000001    0.00000003   -0.00000008
     atom    3 type  2   force =     0.00000033    0.00000073    0.00000022
     atom    4 type  3   force =     0.00000002   -0.00000086    0.00000004
     atom    5 type  4   force =     1.37877760    1.28278648    0.00000008
     atom    6 type  4   force =     0.00000004    0.00000004   -1.41596114
     atom    7 type  4   force =     0.00000003   -0.00000004    1.41596093
     atom    8 type  4   force =    -1.37877798   -1.28278678    0.00000006
     atom    9 type  4   force =    -0.96449911    1.03667277    0.00000004
     atom   10 type  4   force =     0.96449925   -1.03667277    0.00000016
     The core correction contribution to forces
     atom    1 type  1   force =     0.00000000    0.00000000    0.00000000
     atom    2 type  1   force =     0.00000000   -0.00000000    0.00000000
     atom    3 type  2   force =     0.00000000    0.00000000   -0.00000000
     atom    4 type  3   force =     0.00000000    0.00000000    0.00000000
     atom    5 type  4   force =     0.00018109    0.00016848    0.00000000
     atom    6 type  4   force =    -0.00000000    0.00000000    0.00298820
     atom    7 type  4   force =    -0.00000000    0.00000000   -0.00298820
     atom    8 type  4   force =    -0.00018109   -0.00016848    0.00000000
     atom    9 type  4   force =     0.00203542   -0.00218773   -0.00000000
     atom   10 type  4   force =    -0.00203542    0.00218773    0.00000000
     The Hubbard contrib.    to forces
     atom    1 type  1   force =     0.00000000    0.00000000    0.00000000
     atom    2 type  1   force =     0.00000000    0.00000000    0.00000000
     atom    3 type  2   force =     0.00000000    0.00000000    0.00000000
     atom    4 type  3   force =     0.00000000    0.00000000    0.00000000
     atom    5 type  4   force =     0.00000000    0.00000000    0.00000000
     atom    6 type  4   force =     0.00000000    0.00000000    0.00000000
     atom    7 type  4   force =     0.00000000    0.00000000    0.00000000
     atom    8 type  4   force =     0.00000000    0.00000000    0.00000000
     atom    9 type  4   force =     0.00000000    0.00000000    0.00000000
     atom   10 type  4   force =     0.00000000    0.00000000    0.00000000
     The SCF correction term to forces
     atom    1 type  1   force =     0.00000005   -0.00000002   -0.00000001
     atom    2 type  1   force =     0.00000000   -0.00000002    0.00000007
     atom    3 type  2   force =    -0.00000032   -0.00000090   -0.00000033
     atom    4 type  3   force =    -0.00000004    0.00000090   -0.00000008
     atom    5 type  4   force =    -0.00011575   -0.00010760    0.00000001
     atom    6 type  4   force =    -0.00000005    0.00000003   -0.00018480
     atom    7 type  4   force =    -0.00000005    0.00000006    0.00018511
     atom    8 type  4   force =     0.00011587    0.00010782   -0.00000004
     atom    9 type  4   force =    -0.00012604    0.00013545   -0.00000008
     atom   10 type  4   force =     0.00012609   -0.00013554   -0.00000014

     Total force =     0.036445     Total SCF correction =     0.000432

     Computing stress (Cartesian axis) and pressure

     negative rho (up, down):  1.351E-01 0.000E+00
          total   stress  (Ry/bohr**3)                   (kbar)     P=     -333.17
  -0.00224259   0.00005479  -0.00000000         -329.90        8.06       -0.00
   0.00005479  -0.00225051  -0.00000000            8.06     -331.06       -0.00
  -0.00000000  -0.00000000  -0.00230149           -0.00       -0.00     -338.56

     kinetic stress (kbar)  26769.09    178.94      0.00
                              178.94  26743.24      0.00
                                0.00      0.00  26576.76

     local   stress (kbar) -13524.62   3870.38      0.00
                             3870.38 -14083.70      0.00
                                0.00      0.00 -17684.63

     nonloc. stress (kbar)  10963.72     87.91      0.00
                               87.91  10951.02      0.00
                                0.00      0.00  10869.23

     hartree stress (kbar)  12597.52  -1574.41     -0.00
                            -1574.41  12824.94     -0.00
                               -0.00     -0.00  14289.74

     exc-cor stress (kbar)  -2184.21     -1.44     -0.00
                               -1.44  -2184.00     -0.00
                               -0.00     -0.00  -2182.66

     corecor stress (kbar)  -4324.78     -1.23     -0.00
                               -1.23  -4324.60      0.00
                               -0.00      0.00  -4323.46

     ewald   stress (kbar) -30626.61  -2552.10     -0.00
                            -2552.10 -30257.96     -0.00
                               -0.00     -0.00 -27883.54

     hubbard stress (kbar)      0.00      0.00      0.00
                                0.00      0.00      0.00
                                0.00      0.00      0.00

     DFT-D   stress (kbar)      0.00      0.00      0.00
                                0.00      0.00      0.00
                                0.00      0.00      0.00

     XDM     stress (kbar)      0.00      0.00      0.00
                                0.00      0.00      0.00
                                0.00      0.00      0.00

     dft-nl  stress (kbar)      0.00      0.00      0.00
                                0.00      0.00      0.00
                                0.00      0.00      0.00

     TS-vdW  stress (kbar)      0.00      0.00      0.00
                                0.00      0.00      0.00
                                0.00      0.00      0.00

[...]

                                0.00      0.00      0.00

     Writing all to output data dir new_calculations/myprefix.save/

     General routines

     Parallel routines

     PAW routines

   This run was terminated on:  20:29:28  20May2023

   JOB DONE.