     Program PWSCF v.7.0 starts on 20May2023 at 14:13:56

     Reading input from espresso_1467.pwi
Warning: card &CELL ignored
Warning: card / ignored

     Current dimensions of program PWSCF are:
     Max number of different atomic species (ntypx) = 10
     Max number of k-points (npk) =  40000
     Max angular momentum in pseudopotentials (lmaxx) =  4
     file Ba.pbe-spn-kjpaw_psl.1.0.0.UPF: wavefunction(s)  5S 6S renormalized

     gamma-point specific algorithms are used
     Message from routine setup:
     using ibrav=0 with symmetry is DISCOURAGED, use correct ibrav instead

     Subspace diagonalization in iterative solution of the eigenvalue problem:
     a serial algorithm will be used

     Using Slab Decomposition

     bravais-lattice index     =            0
     lattice parameter (alat)  =      13.9718  a.u.
     unit-cell volume          =    2313.7834 (a.u.)^3
     number of atoms/cell      =           14
     number of atomic types    =            4
     number of electrons       =       162.00
     number of Kohn-Sham states=           97
     kinetic-energy cutoff     =      30.0000  Ry
     charge density cutoff     =     240.0000  Ry
     scf convergence threshold =      1.0E-06
     mixing beta               =       0.7000
     number of iterations used =            8  plain     mixing
     Exchange-correlation=  SLA  PW   PBX  PBC
                           (   1   4   3   4   0   0   0)

     celldm(1)=  13.971836  celldm(2)=   0.000000  celldm(3)=   0.000000
     celldm(4)=   0.000000  celldm(5)=   0.000000  celldm(6)=   0.000000

     crystal axes: (cart. coord. in units of alat)
               a(1) = (   1.000000   0.000000   0.000000 )
               a(2) = (   0.831724   0.555190   0.000000 )
               a(3) = (   0.132391   0.040127   1.527991 )

     reciprocal axes: (cart. coord. in units 2 pi/alat)
               b(1) = (  1.000000 -1.498089 -0.047302 )
               b(2) = (  0.000000  1.801186 -0.047302 )
               b(3) = (  0.000000  0.000000  0.654454 )

     PseudoPot. # 1 for Ba read from file:
     /home/pragov/projects/rrg-bengioy-ad/pragov/crystal_structure_design/SSSP/Ba.pbe-spn-kjpaw_psl.1.0.0.UPF
     MD5 check sum: c432291d3e53af55f19d5e8866385beb
     Pseudo is Projector augmented-wave + core cor, Zval = 10.0
     Generated using "atomic" code by A. Dal Corso  v.5.1
     Shape of augmentation charge: PSQ
     Using radial grid of 1251 points,  7 beta functions with:
                l(1) =   0
                l(2) =   0
                l(3) =   0
                l(4) =   1
                l(5) =   1
                l(6) =   2
                l(7) =   2
     Q(r) pseudized with 0 coefficients

     PseudoPot. # 2 for La read from file:
     /home/pragov/projects/rrg-bengioy-ad/pragov/crystal_structure_design/SSSP/La.GGA-PBE-paw-v1.0.UPF
     MD5 check sum: 436541e95c1ad8901025bd0b0ed42ae2
     Pseudo is Projector augmented-wave + core cor, Zval = 11.0
     Generated using ATOMPAW code
     Shape of augmentation charge: BESSEL
     Using radial grid of 1101 points,  8 beta functions with:
                l(1) =   0
                l(2) =   0
                l(3) =   1
                l(4) =   1
                l(5) =   2
                l(6) =   2
                l(7) =   3
                l(8) =   3
     Q(r) pseudized with 0 coefficients

     PseudoPot. # 3 for Ag read from file:
     /home/pragov/projects/rrg-bengioy-ad/pragov/crystal_structure_design/SSSP/Ag_ONCV_PBE-1.0.oncvpsp.upf
     MD5 check sum: 94f47bd0669c641108e45594df92fabc
     Pseudo is Norm-conserving, Zval = 19.0
     Generated using ONCVPSP code by D. R. Hamann
     Using radial grid of 1398 points,  6 beta functions with:
                l(1) =   0
                l(2) =   0
                l(3) =   1
                l(4) =   1
                l(5) =   2
                l(6) =   2

     PseudoPot. # 4 for S  read from file:
     /home/pragov/projects/rrg-bengioy-ad/pragov/crystal_structure_design/SSSP/s_pbe_v1.4.uspp.F.UPF
     MD5 check sum: 88d86576ff6df21479756cfb9bdac1df
     Pseudo is Ultrasoft + core correction, Zval =  6.0
     Generated by new atomic code, or converted to UPF format
     Using radial grid of  907 points,  6 beta functions with:
                l(1) =   0
                l(2) =   0
                l(3) =   1
                l(4) =   1
                l(5) =   2
                l(6) =   2
     Q(r) pseudized with  8 coefficients,  rinner =    1.300   1.300   1.300
                                                       1.300   1.300

     atomic species   valence    mass     pseudopotential
        Ba            10.00   137.32700     Ba( 1.00)
        La            11.00   138.90547     La( 1.00)
        Ag            19.00   107.86820     Ag( 1.00)
        S              6.00    32.06000     S ( 1.00)

      2 Sym. Ops., with inversion, found

                                    s                        frac. trans.

      isym =  1     identity

 cryst.   s( 1) = (     1          0          0      )
                  (     0          1          0      )
                  (     0          0          1      )

 cart.    s( 1) = (  1.0000000  0.0000000  0.0000000 )
                  (  0.0000000  1.0000000  0.0000000 )
                  (  0.0000000  0.0000000  1.0000000 )

      isym =  2     inversion

 cryst.   s( 2) = (    -1          0          0      )
                  (     0         -1          0      )
                  (     0          0         -1      )

 cart.    s( 2) = ( -1.0000000 -0.0000000 -0.0000000 )
                  (  0.0000000 -1.0000000 -0.0000000 )
                  (  0.0000000  0.0000000 -1.0000000 )

   Cartesian axes

     site n.     atom                  positions (alat units)
         1           Ba  tau(   1) = (   1.4658621   0.4442983   1.0807357  )
         2           Ba  tau(   2) = (   0.4982526   0.1510189   0.4472551  )
         3           La  tau(   3) = (   0.9820574   0.2976586   0.7639954  )
         4           Ag  tau(   4) = (   1.1927791   0.3615277   0.0537089  )
         5           Ag  tau(   5) = (   0.7713356   0.2337895   1.4742819  )
         6           Ag  tau(   6) = (   0.1334970   0.0404625   1.1375571  )
         7           Ag  tau(   7) = (   1.8306177   0.5548546   0.3904337  )
         8           Ag  tau(   8) = (   0.0000000   0.0000000   0.0000000  )
         9           S   tau(   9) = (   0.8559645   0.2594402   1.1340580  )
        10           S   tau(  10) = (   0.4072343   0.1234315   1.3733291  )
        11           S   tau(  11) = (   1.5568804   0.4718857   0.1546617  )
        12           S   tau(  12) = (   1.1081502   0.3358770   0.3939328  )
        13           S   tau(  13) = (   1.6508593   0.5003704   0.6857669  )
        14           S   tau(  14) = (   0.3132554   0.0949468   0.8422239  )

   Crystallographic axes

     site n.     atom                  positions (cryst. coord.)
         1           Ba  tau(   1) = (  0.7491430  0.7491430  0.7072920  )
         2           Ba  tau(   2) = (  0.2508570  0.2508570  0.2927080  )
         3           La  tau(   3) = (  0.5000000  0.5000000  0.5000000  )
         4           Ag  tau(   4) = (  0.6486380  0.6486380  0.0351500  )
         5           Ag  tau(   5) = (  0.3513620  0.3513620  0.9648500  )
         6           Ag  tau(   6) = (  0.0190720  0.0190720  0.7444790  )
         7           Ag  tau(   7) = (  0.9809280  0.9809280  0.2555210  )
         8           Ag  tau(   8) = (  0.0000000  0.0000000  0.0000000  )
         9           S   tau(   9) = (  0.4136570  0.4136570  0.7421890  )
        10           S   tau(  10) = (  0.1573620  0.1573620  0.8987810  )
        11           S   tau(  11) = (  0.8426380  0.8426380  0.1012190  )
        12           S   tau(  12) = (  0.5863430  0.5863430  0.2578110  )
        13           S   tau(  13) = (  0.8688220  0.8688220  0.4488030  )
        14           S   tau(  14) = (  0.1311780  0.1311780  0.5511970  )

     number of k points=     1  Methfessel-Paxton smearing, width (Ry)=  0.0010
                       cart. coord. in units 2pi/alat
        k(    1) = (   0.0000000   0.0000000   0.0000000), wk =   2.0000000

                       cryst. coord.
        k(    1) = (   0.0000000   0.0000000   0.0000000), wk =   2.0000000

     Initial potential from superposition of free atoms

     starting charge     161.9558, renormalised to     162.0000
     Starting wfcs are  116 randomized atomic wfcs
     Checking if some PAW data can be deallocated...

     Self-consistent Calculation

     iteration #  1     ecut=    30.00 Ry     beta= 0.70
     Davidson diagonalization with overlap

     ethr =  1.00E-02,  avg # of iterations =  5.0

     Threshold (ethr) on eigenvalues was too large:
     Diagonalizing with lowered threshold

     Davidson diagonalization with overlap

[...]

     negative rho (up, down):  4.829E-02 0.000E+00

     total energy              =   -2911.10811512 Ry
     estimated scf accuracy    <       0.85308324 Ry

[...]

     negative rho (up, down):  3.595E-04 0.000E+00

[...]

     total energy              =   -2911.33336485 Ry
     estimated scf accuracy    <       0.00000129 Ry

     iteration # 21     ecut=    30.00 Ry     beta= 0.70
     Davidson diagonalization with overlap

     ethr =  7.94E-10,  avg # of iterations =  2.0

     End of self-consistent calculation

          k = 0.0000 0.0000 0.0000 (  3213 PWs)   bands (ev):

   -83.6707 -83.0528 -83.0528 -82.8714 -82.8713 -46.8663 -46.6290 -46.6105
   -46.1146 -46.1132 -46.1126 -46.1125 -46.0781 -46.0771 -45.9387 -45.9355
   -45.9280 -45.9253 -45.8928 -45.8902 -22.5375 -17.8682 -17.8652  -6.6397
    -6.5562  -6.1413  -3.7376  -3.5286  -3.5048  -3.3804  -2.9815  -2.8840
    -2.8735  -2.3826  -2.2417  -2.1613  -1.9208  -1.6014   3.8183   4.1231
     4.4164   4.5622   4.7906   4.8009   4.8125   4.8507   4.9750   5.0705
     5.0913   5.2188   5.2274   5.3639   5.3854   5.5038   5.6088   5.6138
     5.6288   5.7984   5.8597   5.8790   6.0075   6.0642   6.0674   6.2183
     6.2936   6.4738   6.8299   6.8586   6.9997   7.3977   7.4874   7.6272
     7.9395   8.0745   8.3710   8.4043   8.6154   8.6800   8.7535   8.8461
     9.2818  10.5976  11.4155  11.5415  12.1352  12.2616  12.3253  12.3669
    12.3704  12.4185  12.5324  12.7421  12.7620  12.8738  12.8943  12.9411
    12.9822

     occupation numbers
     1.0000   1.0000   1.0000   1.0000   1.0000   1.0000   1.0000   1.0000
     1.0000   1.0000   1.0000   1.0000   1.0000   1.0000   1.0000   1.0000
     1.0000   1.0000   1.0000   1.0000   1.0000   1.0000   1.0000   1.0000
     1.0000   1.0000   1.0000   1.0000   1.0000   1.0000   1.0000   1.0000
     1.0000   1.0000   1.0000   1.0000   1.0000   1.0000   1.0000   1.0000
     1.0000   1.0000   1.0000   1.0000   1.0000   1.0000   1.0000   1.0000
     1.0000   1.0000   1.0000   1.0000   1.0000   1.0000   1.0000   1.0000
     1.0000   1.0000   1.0000   1.0000   1.0000   1.0000   1.0000   1.0000
     1.0000   1.0000   1.0000   1.0000   1.0000   1.0000   1.0000   1.0000
     1.0000   1.0000   1.0000   1.0000   1.0000   1.0000   1.0000   1.0000
     1.0000  -0.0000  -0.0000  -0.0000  -0.0000  -0.0000  -0.0000  -0.0000
    -0.0000  -0.0000  -0.0000  -0.0000  -0.0000  -0.0000  -0.0000  -0.0000
    -0.0000

     the Fermi energy is    10.0893 ev

!    total energy              =   -2911.33336455 Ry
     estimated scf accuracy    <       0.00000088 Ry
     smearing contrib. (-TS)   =       0.00000000 Ry
     internal energy E=F+TS    =   -2911.33336455 Ry

     The total energy is F=E-TS. E is the sum of the following terms:
     one-electron contribution =   -1295.20201640 Ry
     hartree contribution      =     704.68494979 Ry
     xc contribution           =    -235.71771197 Ry
     ewald contribution        =    -937.07015397 Ry
     one-center paw contrib.   =   -1148.02843200 Ry
      -> PAW hartree energy AE =      92.48819923 Ry
      -> PAW hartree energy PS =     -92.31277376 Ry
      -> PAW xc energy AE      =   -1193.84264745 Ry
      -> PAW xc energy PS      =      45.63878998 Ry
      -> total E_H with PAW    =     704.86037526 Ry
      -> total E_XC with PAW   =   -1383.92156944 Ry

     convergence has been achieved in  21 iterations

     Forces acting on atoms (cartesian axes, Ry/au):

     atom    1 type  1   force =     0.00801027    0.00242548    0.02327793
     atom    2 type  1   force =    -0.00801027   -0.00242548   -0.02327793
     atom    3 type  2   force =     0.00000000    0.00000000    0.00000000
     atom    4 type  3   force =    -0.00142048   -0.00043111    0.05783467
     atom    5 type  3   force =     0.00142048    0.00043111   -0.05783467
     atom    6 type  3   force =     0.05268084    0.01596740    0.00789782
     atom    7 type  3   force =    -0.05268084   -0.01596740   -0.00789782
     atom    8 type  3   force =     0.00000000    0.00000000    0.00000000
     atom    9 type  4   force =    -0.08385628   -0.02541625   -0.02027267
     atom   10 type  4   force =     0.00629867    0.00190943   -0.06189832
     atom   11 type  4   force =    -0.00629867   -0.00190943    0.06189832
     atom   12 type  4   force =     0.08385628    0.02541625    0.02027267
     atom   13 type  4   force =     0.04977882    0.01508796    0.00547381
     atom   14 type  4   force =    -0.04977882   -0.01508796   -0.00547381
     The non-local contrib.  to forces
     atom    1 type  1   force =     0.00276400    0.00084242    0.02677242
     atom    2 type  1   force =    -0.00276400   -0.00084242   -0.02677242
     atom    3 type  2   force =     0.00000000    0.00000000    0.00000000
     atom    4 type  3   force =     0.01406380    0.00426250   -0.13221659
     atom    5 type  3   force =    -0.01406380   -0.00426250    0.13221659
     atom    6 type  3   force =    -0.13463315   -0.04080619    0.04778772
     atom    7 type  3   force =     0.13463315    0.04080619   -0.04778772
     atom    8 type  3   force =     0.00000000    0.00000000    0.00000000
     atom    9 type  4   force =     0.12689723    0.03846204    0.16383786
     atom   10 type  4   force =    -0.21111434   -0.06398827    0.26824865
     atom   11 type  4   force =     0.21111434    0.06398827   -0.26824865
     atom   12 type  4   force =    -0.12689723   -0.03846204   -0.16383786
     atom   13 type  4   force =     0.03664681    0.01110777   -0.11040943
     atom   14 type  4   force =    -0.03664681   -0.01110777    0.11040943
     The ionic contribution  to forces
     atom    1 type  1   force =     0.12655121    0.03835729  -18.37577487
     atom    2 type  1   force =    -0.12655121   -0.03835729   18.37577487
     atom    3 type  2   force =     0.00000000   -0.00000000    0.00000000
     atom    4 type  3   force =    14.35223434    4.35011846    8.43665385
     atom    5 type  3   force =   -14.35223434   -4.35011846   -8.43665385
     atom    6 type  3   force =     3.40743377    1.03278278  -40.01175992
     atom    7 type  3   force =    -3.40743377   -1.03278278   40.01175993
     atom    8 type  3   force =     0.00000000    0.00000000   -0.00000000
     atom    9 type  4   force =    -6.31340660   -1.91357429  -13.71746291
     atom   10 type  4   force =     7.40229986    2.24361451  -12.32100573
     atom   11 type  4   force =    -7.40229986   -2.24361451   12.32100573
     atom   12 type  4   force =     6.31340660    1.91357429   13.71746291
     atom   13 type  4   force =    -6.72732100   -2.03903048    6.76892889
     atom   14 type  4   force =     6.72732100    2.03903048   -6.76892889
     The local contribution  to forces
     atom    1 type  1   force =    -0.12020935   -0.03563729   18.37414377
     atom    2 type  1   force =     0.12026982    0.03725468  -18.37563920
     atom    3 type  2   force =     0.00000811    0.00000189   -0.00001658
     atom    4 type  3   force =   -14.36775423   -4.35482363   -8.24656389
     atom    5 type  3   force =    14.36776170    4.35482469    8.24661150
     atom    6 type  3   force =    -3.22011171   -0.97600734   39.97209193
     atom    7 type  3   force =     3.22011848    0.97600652  -39.97209634
     atom    8 type  3   force =    -0.00000295   -0.00000105    0.00003760
     atom    9 type  4   force =     6.10990265    1.85189319   13.54303420
     atom   10 type  4   force =    -7.19683771   -2.18133789   12.00617230
     atom   11 type  4   force =     7.19683951    2.18134089  -12.00616503
     atom   12 type  4   force =    -6.10991281   -1.85189686  -13.54302732
     atom   13 type  4   force =     6.74229642    2.04356805   -6.65941323
     atom   14 type  4   force =    -6.74229256   -2.04356962    6.65939581
     The core correction contribution to forces
     atom    1 type  1   force =    -0.00106945   -0.00030811   -0.00257486
     atom    2 type  1   force =     0.00105779    0.00033633    0.00255069
     atom    3 type  2   force =     0.00000000    0.00000000   -0.00000000
     atom    4 type  3   force =     0.00000000    0.00000000    0.00000000
     atom    5 type  3   force =     0.00000000    0.00000000    0.00000000
     atom    6 type  3   force =     0.00000000    0.00000000    0.00000000
     atom    7 type  3   force =     0.00000000    0.00000000    0.00000000
     atom    8 type  3   force =     0.00000000    0.00000000    0.00000000
     atom    9 type  4   force =    -0.00726607   -0.00220238   -0.00960916
     atom   10 type  4   force =     0.01194875    0.00362160   -0.01528413
     atom   11 type  4   force =    -0.01194868   -0.00362167    0.01528394
     atom   12 type  4   force =     0.00726574    0.00220215    0.00960918
     atom   13 type  4   force =    -0.00187940   -0.00056967    0.00633465
     atom   14 type  4   force =     0.00187929    0.00056967   -0.00633450
     The Hubbard contrib.    to forces
     atom    1 type  1   force =     0.00000000    0.00000000    0.00000000
     atom    2 type  1   force =     0.00000000    0.00000000    0.00000000
     atom    3 type  2   force =     0.00000000    0.00000000    0.00000000
     atom    4 type  3   force =     0.00000000    0.00000000    0.00000000
     atom    5 type  3   force =     0.00000000    0.00000000    0.00000000
     atom    6 type  3   force =     0.00000000    0.00000000    0.00000000
     atom    7 type  3   force =     0.00000000    0.00000000    0.00000000
     atom    8 type  3   force =     0.00000000    0.00000000    0.00000000
     atom    9 type  4   force =     0.00000000    0.00000000    0.00000000
     atom   10 type  4   force =     0.00000000    0.00000000    0.00000000
     atom   11 type  4   force =     0.00000000    0.00000000    0.00000000
     atom   12 type  4   force =     0.00000000    0.00000000    0.00000000
     atom   13 type  4   force =     0.00000000    0.00000000    0.00000000
     atom   14 type  4   force =     0.00000000    0.00000000    0.00000000
     The SCF correction term to forces
     atom    1 type  1   force =    -0.00001061   -0.00011340    0.00005221
     atom    2 type  1   force =    -0.00000713   -0.00010135    0.00014888
     atom    3 type  2   force =    -0.00000745   -0.00000200    0.00001697
     atom    4 type  3   force =     0.00003613    0.00001161   -0.00004702
     atom    5 type  3   force =    -0.00004254   -0.00001257   -0.00001723
     atom    6 type  3   force =    -0.00001000   -0.00000321   -0.00021976
     atom    7 type  3   force =    -0.00000064    0.00000133    0.00022845
     atom    8 type  3   force =     0.00000089    0.00000106   -0.00004604
     atom    9 type  4   force =     0.00001321    0.00000385   -0.00007230
     atom   10 type  4   force =     0.00000260   -0.00000008   -0.00003278
     atom   11 type  4   force =    -0.00000350   -0.00000195    0.00001895
     atom   12 type  4   force =    -0.00000934   -0.00000263    0.00006611
     atom   13 type  4   force =     0.00003658    0.00001200    0.00003429
     atom   14 type  4   force =    -0.00003916   -0.00001100   -0.00001428

     Total force =     0.208570     Total SCF correction =     0.000416

     Computing stress (Cartesian axis) and pressure

          total   stress  (Ry/bohr**3)                   (kbar)     P=     -420.09
  -0.00313004  -0.00019478  -0.00003802         -460.44      -28.65       -5.59
  -0.00019478  -0.00254645  -0.00001152          -28.65     -374.60       -1.69
  -0.00003802  -0.00001152  -0.00289066           -5.59       -1.69     -425.23

     kinetic stress (kbar)  24417.44    -62.35     73.07
                              -62.35  24604.26     22.15
                               73.07     22.15  24422.05

     local   stress (kbar) -24110.23   2790.43    959.69
                             2790.43 -32470.86    290.88
                              959.69    290.88   2895.02

     nonloc. stress (kbar)   1944.83    -12.16    -20.23
                              -12.16   1981.26     -6.13
                              -20.23     -6.13   1933.45

     hartree stress (kbar)  18165.78  -1376.60   -242.01
                            -1376.60  22290.32    -73.35
                             -242.01    -73.35   4346.17

     exc-cor stress (kbar)   -903.90      0.15     -2.29
                                0.15   -904.36     -0.69
                               -2.29     -0.69   -902.33

     corecor stress (kbar)  -3129.96      1.24     -0.18
                                1.24  -3133.69     -0.05
                               -0.18     -0.05  -3128.74

     ewald   stress (kbar) -16844.39  -1369.37   -773.65
                            -1369.37 -12741.53   -234.49
                             -773.65   -234.49 -29990.86

     hubbard stress (kbar)      0.00      0.00      0.00
                                0.00      0.00      0.00
                                0.00      0.00      0.00

     DFT-D   stress (kbar)      0.00      0.00      0.00
                                0.00      0.00      0.00
                                0.00      0.00      0.00

     XDM     stress (kbar)      0.00      0.00      0.00
                                0.00      0.00      0.00
                                0.00      0.00      0.00

     dft-nl  stress (kbar)      0.00      0.00      0.00
                                0.00      0.00      0.00
                                0.00      0.00      0.00

     TS-vdW  stress (kbar)      0.00      0.00      0.00
                                0.00      0.00      0.00
                                0.00      0.00      0.00

[...]

                                0.00      0.00      0.00

     Writing all to output data dir new_calculations/myprefix.save/

     General routines

     Parallel routines

     PAW routines

   This run was terminated on:  14:14:58  20May2023

   JOB DONE.