     Program PWSCF v.7.0 starts on 20May2023 at  4:40:33

     Reading input from espresso_11068.pwi
Warning: card &CELL ignored
Warning: card / ignored

     Current dimensions of program PWSCF are:
     Max number of different atomic species (ntypx) = 10
     Max number of k-points (npk) =  40000
     Max angular momentum in pseudopotentials (lmaxx) =  4
     file K.pbe-spn-kjpaw_psl.1.0.0.UPF: wavefunction(s)  3S renormalized

     gamma-point specific algorithms are used
     Message from routine setup:
     using ibrav=0 with symmetry is DISCOURAGED, use correct ibrav instead

     Subspace diagonalization in iterative solution of the eigenvalue problem:
     a serial algorithm will be used

     Using Slab Decomposition

     bravais-lattice index     =            0
     lattice parameter (alat)  =      15.8172  a.u.
     unit-cell volume          =    2798.1828 (a.u.)^3
     number of atoms/cell      =           10
     number of atomic types    =            4
     number of electrons       =        90.00
     number of Kohn-Sham states=           54
     kinetic-energy cutoff     =      30.0000  Ry
     charge density cutoff     =     240.0000  Ry
     scf convergence threshold =      1.0E-06
     mixing beta               =       0.7000
     number of iterations used =            8  plain     mixing
     Exchange-correlation= SLA  PW   PBX  PBC
                           (   1   4   3   4   0   0   0)

     celldm(1)=  15.817227  celldm(2)=   0.000000  celldm(3)=   0.000000
     celldm(4)=   0.000000  celldm(5)=   0.000000  celldm(6)=   0.000000

     crystal axes: (cart. coord. in units of alat)
               a(1) = (   1.000000   0.000000   0.000000 )
               a(2) = (   0.500000   0.866025   0.000000 )
               a(3) = (   0.500000   0.288675   0.816497 )

     reciprocal axes: (cart. coord. in units 2 pi/alat)
               b(1) = (  1.000000 -0.577350 -0.408248 )
               b(2) = (  0.000000  1.154701 -0.408248 )
               b(3) = (  0.000000  0.000000  1.224745 )

     PseudoPot. # 1 for K  read from file:
     /home/pragov/projects/rrg-bengioy-ad/pragov/crystal_structure_design/SSSP/K.pbe-spn-kjpaw_psl.1.0.0.UPF
     MD5 check sum: 7d58810084cac21f60fbe77ea2b688fd
     Pseudo is Projector augmented-wave + core cor, Zval =  9.0
     Generated using "atomic" code by A. Dal Corso  v.5.1
     Shape of augmentation charge: PSQ
     Using radial grid of 1165 points,  6 beta functions with:
                l(1) =   0
                l(2) =   0
                l(3) =   1
                l(4) =   1
                l(5) =   2
                l(6) =   2
     Q(r) pseudized with 0 coefficients

     PseudoPot. # 2 for Sc read from file:
     /home/pragov/projects/rrg-bengioy-ad/pragov/crystal_structure_design/SSSP/Sc_ONCV_PBE-1.0.oncvpsp.upf
     MD5 check sum: e21af8023abb52e52cb7cd3133e4a229
     Pseudo is Norm-conserving, Zval = 11.0
     Generated using ONCVPSP code by D. R. Hamann
     Using radial grid of 1662 points,  6 beta functions with:
                l(1) =   0
                l(2) =   0
                l(3) =   1
                l(4) =   1
                l(5) =   2
                l(6) =   2

     PseudoPot. # 3 for Ag read from file:
     /home/pragov/projects/rrg-bengioy-ad/pragov/crystal_structure_design/SSSP/Ag_ONCV_PBE-1.0.oncvpsp.upf
     MD5 check sum: 94f47bd0669c641108e45594df92fabc
     Pseudo is Norm-conserving, Zval = 19.0
     Generated using ONCVPSP code by D. R. Hamann
     Using radial grid of 1398 points,  6 beta functions with:
                l(1) =   0
                l(2) =   0
                l(3) =   1
                l(4) =   1
                l(5) =   2
                l(6) =   2

     PseudoPot. # 4 for I  read from file:
     /home/pragov/projects/rrg-bengioy-ad/pragov/crystal_structure_design/SSSP/I.pbe-n-kjpaw_psl.0.2.UPF
     MD5 check sum: d4ef18d9c8f18dc85e5843bca1e50dc0
     Pseudo is Projector augmented-wave + core cor, Zval =  7.0
     Generated using "atomic" code by A. Dal Corso  v.5.0.99 svn rev. 10869
     Shape of augmentation charge: PSQ
     Using radial grid of 1247 points,  4 beta functions with:
                l(1) =   0
                l(2) =   0
                l(3) =   1
                l(4) =   1
     Q(r) pseudized with 0 coefficients

     atomic species   valence    mass     pseudopotential
        K              9.00    39.09830     K ( 1.00)
        Sc            11.00    44.95591     Sc( 1.00)
        Ag            19.00   107.86820     Ag( 1.00)
        I              7.00   126.90447     I ( 1.00)

     12 Sym. Ops., with inversion, found

                                    s                        frac. trans.

      isym =  1     identity

 cryst.   s( 1) = (     1          0          0      )
                  (     0          1          0      )
                  (     0          0          1      )

 cart.    s( 1) = (  1.0000000  0.0000000  0.0000000 )
                  (  0.0000000  1.0000000  0.0000000 )
                  (  0.0000000  0.0000000  1.0000000 )

      isym =  2     180 deg rotation - cart. axis [1,0,0]

[...]

      isym =  3     120 deg rotation - cryst. axis [0,0,1]

[...]

      isym =  6     180 deg rotation - cryst. axis [1,1,0]

[...]

      isym =  7     inversion

[...]

      isym =  8     inv. 180 deg rotation - cart. axis [1,0,0]

[...]

      isym =  9     inv. 120 deg rotation - cryst. axis [0,0,1]

 cryst.   s( 9) = (     1         -1          0      )
                  (     1          0          0      )
                  (     1          0         -1      )

 cart.    s( 9) = (  0.5000000  0.8660254 -0.0000000 )
                  ( -0.8660254  0.5000000 -0.0000000 )
                  (  0.0000000  0.0000000 -1.0000000 )

[...]

 cryst.   s(10) = (     0          1          0      )
                  (    -1          1          0      )
                  (     0          1         -1      )

 cart.    s(10) = (  0.5000000 -0.8660254  0.0000000 )
                  (  0.8660254  0.5000000 -0.0000000 )
                  (  0.0000000  0.0000000 -1.0000000 )

[...]

      isym = 12     inv. 180 deg rotation - cryst. axis [1,1,0]

 cryst.   s(12) = (     1         -1          0      )
                  (     0         -1          0      )
                  (     0         -1          1      )

 cart.    s(12) = (  0.5000000 -0.8660254  0.0000000 )
                  ( -0.8660254 -0.5000000  0.0000000 )
                  (  0.0000000  0.0000000  1.0000000 )

   Cartesian axes

     site n.     atom                  positions (alat units)
         1           K   tau(   1) = (   1.5000000   0.8660254   0.6123724  )
         2           K   tau(   2) = (   0.5000000   0.2886751   0.2041241  )
         3           Sc  tau(   3) = (   0.0000000   0.0000000   0.0000000  )
         4           Ag  tau(   4) = (   1.0000000   0.5773503   0.4082483  )
         5           I   tau(   5) = (   0.9999990   0.2824952   0.1997543  )
         6           I   tau(   6) = (   0.7446480   0.4299233   0.6167415  )
         7           I   tau(   7) = (   0.9999990   0.8722042   0.6167415  )
         8           I   tau(   8) = (   0.7446485   0.7247781   0.1997551  )
         9           I   tau(   9) = (   1.2553505   0.4299224   0.6167415  )
        10           I   tau(  10) = (   1.2553510   0.7247778   0.1997543  )

   Crystallographic axes

     site n.     atom                  positions (cryst. coord.)
         1           K   tau(   1) = (  0.7500000  0.7500000  0.7500000  )
         2           K   tau(   2) = (  0.2500000  0.2500000  0.2500000  )
         3           Sc  tau(   3) = (  0.0000000  0.0000000  0.0000000  )
         4           Ag  tau(   4) = (  0.5000000  0.5000000  0.5000000  )
         5           I   tau(   5) = (  0.7553510  0.2446480  0.2446480  )
         6           I   tau(   6) = (  0.2446480  0.2446490  0.7553510  )
         7           I   tau(   7) = (  0.2446480  0.7553510  0.7553510  )
         8           I   tau(   8) = (  0.2446480  0.7553520  0.2446490  )
         9           I   tau(   9) = (  0.7553510  0.2446480  0.7553510  )
        10           I   tau(  10) = (  0.7553510  0.7553520  0.2446480  )

     number of k points=     1  Methfessel-Paxton smearing, width (Ry)=  0.0010
                       cart. coord. in units 2pi/alat
        k(    1) = (   0.0000000   0.0000000   0.0000000), wk =   2.0000000

                       cryst. coord.
        k(    1) = (   0.0000000   0.0000000   0.0000000), wk =   2.0000000

     Check: negative core charge=   -0.000002

     Initial potential from superposition of free atoms

     starting charge      89.9590, renormalised to      90.0000
     Starting wfcs are   60 randomized atomic wfcs
     Checking if some PAW data can be deallocated...

     Self-consistent Calculation

     iteration #  1     ecut=    30.00 Ry     beta= 0.70
     Davidson diagonalization with overlap

     ethr =  1.00E-02,  avg # of iterations =  4.0

     Threshold (ethr) on eigenvalues was too large:
     Diagonalizing with lowered threshold

     Davidson diagonalization with overlap

[...]

     total energy              =   -2878.88718013 Ry
     estimated scf accuracy    <       0.27103733 Ry

[...]

     negative rho (up, down):  5.979E-07 0.000E+00

[...]

     total energy              =   -2878.96245768 Ry
     estimated scf accuracy    <       0.00000736 Ry

     iteration #  8     ecut=    30.00 Ry     beta= 0.70
     Davidson diagonalization with overlap

     ethr =  8.17E-09,  avg # of iterations =  2.0

     End of self-consistent calculation

          k = 0.0000 0.0000 0.0000 (  3900 PWs)   bands (ev):

   -88.9898 -52.0335 -52.0335 -52.0335 -46.5424 -27.1359 -27.1358 -25.1039
   -25.1038 -25.1038 -10.5914 -10.5914 -10.5914 -10.5893 -10.5893 -10.5893
    -8.5497  -8.0331  -8.0328  -8.0327  -7.9024  -7.9022  -1.0849  -0.6298
    -0.6297  -0.3150  -0.3150  -0.3149   0.5054   0.5055   0.5055   1.0717
     1.0717   1.0718   2.2569   2.2570   2.3752   2.3752   2.3753   2.7368
     2.7369   2.7369   3.1647   3.1648   3.1649   5.1632   5.4652   5.4652
     5.4652   6.3232   6.7444   7.1394   7.1394   8.0742

     occupation numbers
     1.0000   1.0000   1.0000   1.0000   1.0000   1.0000   1.0000   1.0000
     1.0000   1.0000   1.0000   1.0000   1.0000   1.0000   1.0000   1.0000
     1.0000   1.0000   1.0000   1.0000   1.0000   1.0000   1.0000   1.0000
     1.0000   1.0000   1.0000   1.0000   1.0000   1.0000   1.0000   1.0000
     1.0000   1.0000   1.0000   1.0000   1.0000   1.0000   1.0000   1.0000
     1.0000   1.0000   1.0000   1.0000   1.0000  -0.0000  -0.0000  -0.0000
    -0.0000  -0.0000  -0.0000  -0.0000  -0.0000  -0.0000

     the Fermi energy is     3.6476 ev

!    total energy              =   -2878.96245861 Ry
     estimated scf accuracy    <       0.00000042 Ry
     smearing contrib. (-TS)   =       0.00000000 Ry
     internal energy E=F+TS    =   -2878.96245861 Ry

     The total energy is F=E-TS. E is the sum of the following terms:
     one-electron contribution =    -403.10774536 Ry
     hartree contribution      =     226.53496397 Ry
     xc contribution           =    -312.38244423 Ry
     ewald contribution        =    -356.00073977 Ry
     one-center paw contrib.   =   -2034.00649322 Ry
      -> PAW hartree energy AE =     135.22866528 Ry
      -> PAW hartree energy PS =    -135.19547035 Ry
      -> PAW xc energy AE      =   -2298.59482580 Ry
      -> PAW xc energy PS      =     264.55513765 Ry
      -> total E_H with PAW    =     226.56815889 Ry
      -> total E_XC with PAW   =   -2346.42213238 Ry

     convergence has been achieved in   8 iterations

     Forces acting on atoms (cartesian axes, Ry/au):

     atom    1 type  1   force =     0.00000000    0.00000000    0.00000256
     atom    2 type  1   force =     0.00000000    0.00000000   -0.00000256
     atom    3 type  2   force =    -0.00000000   -0.00000000    0.00000000
     atom    4 type  3   force =     0.00000000    0.00000000   -0.00000000
     atom    5 type  4   force =     0.00000000   -0.00099179   -0.00070140
     atom    6 type  4   force =    -0.00085891   -0.00049589    0.00070140
     atom    7 type  4   force =     0.00000000    0.00099179    0.00070140
     atom    8 type  4   force =    -0.00085891    0.00049589   -0.00070140
     atom    9 type  4   force =     0.00085891   -0.00049589    0.00070140
     atom   10 type  4   force =     0.00085891    0.00049589   -0.00070140
     The non-local contrib.  to forces
     atom    1 type  1   force =     0.00000000    0.00000000    0.00000217
     atom    2 type  1   force =     0.00000000   -0.00000000   -0.00000217
     atom    3 type  2   force =     0.00000000    0.00000000    0.00000000
     atom    4 type  3   force =     0.00000000    0.00000000    0.00000000
     atom    5 type  4   force =     0.00000000   -0.04436457   -0.03137097
     atom    6 type  4   force =    -0.03842084   -0.02218228    0.03137097
     atom    7 type  4   force =     0.00000000    0.04436457    0.03137097
     atom    8 type  4   force =    -0.03842084    0.02218228   -0.03137097
     atom    9 type  4   force =     0.03842084   -0.02218228    0.03137097
     atom   10 type  4   force =     0.03842084    0.02218228   -0.03137097
     The ionic contribution  to forces
     atom    1 type  1   force =    -0.00002993   -0.00000738    0.00000562
     atom    2 type  1   force =    -0.00000935    0.00001639   -0.00000278
     atom    3 type  2   force =     0.00002058   -0.00003053   -0.00003467
     atom    4 type  3   force =     0.00002747   -0.00004620   -0.00005328
     atom    5 type  4   force =    -0.00001525   -1.46251335   -1.03416432
     atom    6 type  4   force =    -1.26663995   -0.73129093    1.03418997
     atom    7 type  4   force =     0.00000083    1.46262176    1.03423824
     atom    8 type  4   force =    -1.26662994    0.73128752   -1.03420345
     atom    9 type  4   force =     1.26665811   -0.73131390    1.03421758
     atom   10 type  4   force =     1.26661743    0.73127662   -1.03419290
     The local contribution  to forces
     atom    1 type  1   force =     0.00007156    0.00002943    0.00000591
     atom    2 type  1   force =    -0.00001852   -0.00005351    0.00003096
     atom    3 type  2   force =    -0.00007150    0.00004103   -0.00003575
     atom    4 type  3   force =    -0.00011293    0.00006218   -0.00002477
     atom    5 type  4   force =     0.00002586    1.50735295    1.06587580
     atom    6 type  4   force =     1.30547361    0.75372339   -1.06591038
     atom    7 type  4   force =    -0.00003116   -1.50742567   -1.06594688
     atom    8 type  4   force =     1.30546793   -0.75367548    1.06590176
     atom    9 type  4   force =    -1.30544364    0.75366268   -1.06588961
     atom   10 type  4   force =    -1.30548681   -0.75370256    1.06587752
     The core correction contribution to forces
     atom    1 type  1   force =    -0.00000003    0.00000024   -0.00000010
     atom    2 type  1   force =     0.00000011   -0.00000032    0.00000026
     atom    3 type  2   force =     0.00000000    0.00000000    0.00000000
     atom    4 type  3   force =     0.00000000    0.00000000    0.00000000
     atom    5 type  4   force =     0.00000042   -0.00196702   -0.00138845
     atom    6 type  4   force =    -0.00170004   -0.00097986    0.00138595
     atom    7 type  4   force =    -0.00000229    0.00196746    0.00138966
     atom    8 type  4   force =    -0.00170496    0.00098764   -0.00139400
     atom    9 type  4   force =     0.00170946   -0.00099161    0.00139582
     atom   10 type  4   force =     0.00169609    0.00098102   -0.00138961
     The Hubbard contrib.    to forces
     atom    1 type  1   force =     0.00000000    0.00000000    0.00000000
     atom    2 type  1   force =     0.00000000    0.00000000    0.00000000
     atom    3 type  2   force =     0.00000000    0.00000000    0.00000000
     atom    4 type  3   force =     0.00000000    0.00000000    0.00000000
     atom    5 type  4   force =     0.00000000    0.00000000    0.00000000
     atom    6 type  4   force =     0.00000000    0.00000000    0.00000000
     atom    7 type  4   force =     0.00000000    0.00000000    0.00000000
     atom    8 type  4   force =     0.00000000    0.00000000    0.00000000
     atom    9 type  4   force =     0.00000000    0.00000000    0.00000000
     atom   10 type  4   force =     0.00000000    0.00000000    0.00000000
     The SCF correction term to forces
     atom    1 type  1   force =    -0.00006781    0.00000057   -0.00001260
     atom    2 type  1   force =     0.00004147    0.00003485   -0.00003038
     atom    3 type  2   force =     0.00005328   -0.00001009    0.00007618
     atom    4 type  3   force =     0.00009452   -0.00000238    0.00007659
     atom    5 type  4   force =    -0.00001497    0.00050547    0.00035057
     atom    6 type  4   force =     0.00043353    0.00023890   -0.00034011
     atom    7 type  4   force =     0.00004125   -0.00053872   -0.00034776
     atom    8 type  4   force =     0.00042233   -0.00028320    0.00036179
     atom    9 type  4   force =    -0.00047872    0.00032796   -0.00038298
     atom   10 type  4   force =    -0.00038705   -0.00024261    0.00038223

     Total force =     0.002976     Total SCF correction =     0.001553
     SCF correction compared to forces is large: reduce conv_thr to get better values

     Computing stress (Cartesian axis) and pressure

          total   stress  (Ry/bohr**3)                   (kbar)     P=      -48.78
  -0.00033162  -0.00000000  -0.00000000          -48.78       -0.00       -0.00
   0.00000000  -0.00033162   0.00000000            0.00      -48.78        0.00
   0.00000000   0.00000000  -0.00033162            0.00        0.00      -48.78

     kinetic stress (kbar)   7416.94     -0.00     -0.00
                               -0.00   7416.94     -0.00
                               -0.00     -0.00   7416.94

     local   stress (kbar)  -2754.58     -0.01      0.02
                               -0.01  -2754.58      0.01
                                0.02      0.01  -2754.58

     nonloc. stress (kbar)   -658.56     -0.00     -0.00
                               -0.00   -658.56      0.00
                               -0.00      0.00   -658.56

     hartree stress (kbar)   3969.77      0.01     -0.02
                                0.01   3969.77     -0.01
                               -0.02     -0.01   3969.77

     exc-cor stress (kbar)  10025.79     -0.00     -0.00
                               -0.00  10025.79     -0.00
                               -0.00     -0.00  10025.79

     corecor stress (kbar) -11809.63      0.00     -0.00
                                0.00 -11809.63     -0.00
                               -0.00     -0.00 -11809.63

     ewald   stress (kbar)  -6238.52     -0.00     -0.00
                               -0.00  -6238.51     -0.00
                               -0.00     -0.00  -6238.52

     hubbard stress (kbar)      0.00      0.00      0.00
                                0.00      0.00      0.00
                                0.00      0.00      0.00

     DFT-D   stress (kbar)      0.00      0.00      0.00
                                0.00      0.00      0.00
                                0.00      0.00      0.00

     XDM     stress (kbar)      0.00      0.00      0.00
                                0.00      0.00      0.00
                                0.00      0.00      0.00

     dft-nl  stress (kbar)      0.00      0.00      0.00
                                0.00      0.00      0.00
                                0.00      0.00      0.00

     TS-vdW  stress (kbar)      0.00      0.00      0.00
                                0.00      0.00      0.00
                                0.00      0.00      0.00

[...]

                                0.00      0.00      0.00

     Writing all to output data dir new_calculations/myprefix.save/

     General routines

     Parallel routines

     PAW routines

   This run was terminated on:   4:41:40  20May2023

   JOB DONE.