     Program PWSCF v.7.0 starts on 20May2023 at  9: 0:35

     Reading input from espresso_1294.pwi
Warning: card &CELL ignored
Warning: card / ignored

     Current dimensions of program PWSCF are:
     Max number of different atomic species (ntypx) = 10
     Max number of k-points (npk) =  40000
     Max angular momentum in pseudopotentials (lmaxx) =  4

     gamma-point specific algorithms are used
     Message from routine setup:
     using ibrav=0 with symmetry is DISCOURAGED, use correct ibrav instead

     Subspace diagonalization in iterative solution of the eigenvalue problem:
     a serial algorithm will be used

     Using Slab Decomposition

     bravais-lattice index     =            0
     lattice parameter (alat)  =       7.4826  a.u.
     unit-cell volume          =     296.2446 (a.u.)^3
     number of atoms/cell      =            4
     number of atomic types    =            3
     number of electrons       =        48.00
     number of Kohn-Sham states=           29
     kinetic-energy cutoff     =      30.0000  Ry
     charge density cutoff     =     240.0000  Ry
     scf convergence threshold =      1.0E-06
     mixing beta               =       0.7000
     number of iterations used =            8  plain     mixing
     Exchange-correlation= PBE
                           (   1   4   3   4   0   0   0)

     celldm(1)=   7.482645  celldm(2)=   0.000000  celldm(3)=   0.000000
     celldm(4)=   0.000000  celldm(5)=   0.000000  celldm(6)=   0.000000

     crystal axes: (cart. coord. in units of alat)
               a(1) = (   1.000000   0.000000   0.000000 )
               a(2) = (   0.500000   0.866025   0.000000 )
               a(3) = (   0.500000   0.288675   0.816497 )

     reciprocal axes: (cart. coord. in units 2 pi/alat)
               b(1) = (  1.000000 -0.577350 -0.408248 )
               b(2) = (  0.000000  1.154701 -0.408248 )
               b(3) = (  0.000000  0.000000  1.224745 )

     PseudoPot. # 1 for Mn read from file:
     /home/pragov/projects/rrg-bengioy-ad/pragov/crystal_structure_design/SSSP/mn_pbe_v1.5.uspp.F.UPF
     MD5 check sum: 82ef2b46521d7a7d9e736dc3972e4928
     Pseudo is Ultrasoft + core correction, Zval = 15.0
     Generated by new atomic code, or converted to UPF format
     Using radial grid of  859 points,  6 beta functions with:
                l(1) =   0
                l(2) =   0
                l(3) =   1
                l(4) =   1
                l(5) =   2
                l(6) =   2
     Q(r) pseudized with  8 coefficients,  rinner =    0.950   0.950   0.950
                                                       0.950   0.950

     PseudoPot. # 2 for Cr read from file:
     /home/pragov/projects/rrg-bengioy-ad/pragov/crystal_structure_design/SSSP/cr_pbe_v1.5.uspp.F.UPF
     MD5 check sum: 0d52af634a40206e4dee301ad30da4bf
     Pseudo is Ultrasoft + core correction, Zval = 14.0
     Generated by new atomic code, or converted to UPF format
     Using radial grid of  857 points,  6 beta functions with:
                l(1) =   0
                l(2) =   0
                l(3) =   1
                l(4) =   1
                l(5) =   2
                l(6) =   2
     Q(r) pseudized with  8 coefficients,  rinner =    0.950   0.950   0.950
                                                       0.950   0.950

     PseudoPot. # 3 for Si read from file:
     /home/pragov/projects/rrg-bengioy-ad/pragov/crystal_structure_design/SSSP/Si.pbe-n-rrkjus_psl.1.0.0.UPF
     MD5 check sum: 0b0bb1205258b0d07b9f9672cf965d36
     Pseudo is Ultrasoft + core correction, Zval =  4.0
     Generated using "atomic" code by A. Dal Corso  v.5.1
     Using radial grid of 1141 points,  6 beta functions with:
                l(1) =   0
                l(2) =   0
                l(3) =   1
                l(4) =   1
                l(5) =   2
                l(6) =   2
     Q(r) pseudized with 0 coefficients

     atomic species   valence    mass     pseudopotential
        Mn            15.00    54.93804     Mn( 1.00)
        Cr            14.00    51.99610     Cr( 1.00)
        Si             4.00    28.08500     Si( 1.00)

     12 Sym. Ops., with inversion, found

                                    s                        frac. trans.

      isym =  1     identity

 cryst.   s( 1) = (     1          0          0      )
                  (     0          1          0      )
                  (     0          0          1      )

 cart.    s( 1) = (  1.0000000  0.0000000  0.0000000 )
                  (  0.0000000  1.0000000 -0.0000000 )
                  (  0.0000000  0.0000000  1.0000000 )

      isym =  2     180 deg rotation - cart. axis [1,0,0]

[...]

      isym =  3     120 deg rotation - cryst. axis [0,0,1]

[...]

      isym =  6     180 deg rotation - cryst. axis [1,1,0]

[...]

      isym =  7     inversion

[...]

      isym =  8     inv. 180 deg rotation - cart. axis [1,0,0]

[...]

      isym =  9     inv. 120 deg rotation - cryst. axis [0,0,1]

 cryst.   s( 9) = (     1         -1          0      )
                  (     1          0          0      )
                  (     1          0         -1      )

 cart.    s( 9) = (  0.5000000  0.8660254  0.0000000 )
                  ( -0.8660254  0.5000000  0.0000000 )
                  (  0.0000000  0.0000000 -1.0000000 )

[...]

 cryst.   s(10) = (     0          1          0      )
                  (    -1          1          0      )
                  (     0          1         -1      )

 cart.    s(10) = (  0.5000000 -0.8660254  0.0000000 )
                  (  0.8660254  0.5000000  0.0000000 )
                  (  0.0000000  0.0000000 -1.0000000 )

[...]

      isym = 12     inv. 180 deg rotation - cryst. axis [1,1,0]

 cryst.   s(12) = (     1         -1          0      )
                  (     0         -1          0      )
                  (     0         -1          1      )

 cart.    s(12) = (  0.5000000 -0.8660254  0.0000000 )
                  ( -0.8660254 -0.5000000 -0.0000000 )
                  (  0.0000000  0.0000000  1.0000000 )

   Cartesian axes

     site n.     atom                  positions (alat units)
         1           Mn  tau(   1) = (   0.5000000   0.2886751   0.2041241  )
         2           Mn  tau(   2) = (   1.5000000   0.8660254   0.6123724  )
         3           Cr  tau(   3) = (   1.0000000   0.5773503   0.4082483  )
         4           Si  tau(   4) = (   0.0000000   0.0000000   0.0000000  )

   Crystallographic axes

     site n.     atom                  positions (cryst. coord.)
         1           Mn  tau(   1) = (  0.2500000  0.2500000  0.2500000  )
         2           Mn  tau(   2) = (  0.7500000  0.7500000  0.7500000  )
         3           Cr  tau(   3) = (  0.5000000  0.5000000  0.5000000  )
         4           Si  tau(   4) = (  0.0000000  0.0000000  0.0000000  )

     number of k points=     1  Methfessel-Paxton smearing, width (Ry)=  0.0010
                       cart. coord. in units 2pi/alat
        k(    1) = (   0.0000000   0.0000000   0.0000000), wk =   2.0000000

                       cryst. coord.
        k(    1) = (   0.0000000   0.0000000   0.0000000), wk =   2.0000000

     Check: negative core charge=   -0.000034

     Initial potential from superposition of free atoms

     starting charge      45.9993, renormalised to      48.0000

     negative rho (up, down):  1.528E-03 0.000E+00
     Starting wfcs are   40 randomized atomic wfcs

     Self-consistent Calculation

     iteration #  1     ecut=    30.00 Ry     beta= 0.70
     Davidson diagonalization with overlap

     ethr =  1.00E-02,  avg # of iterations =  3.0

     negative rho (up, down):  1.439E-03 0.000E+00

     total energy              =    -602.14422546 Ry
     estimated scf accuracy    <       9.98599079 Ry

[...]

     total energy              =    -609.16322877 Ry
     estimated scf accuracy    <       0.00000232 Ry

     iteration # 31     ecut=    30.00 Ry     beta= 0.70
     Davidson diagonalization with overlap

     ethr =  4.83E-09,  avg # of iterations =  4.0

[...]

     End of self-consistent calculation

          k = 0.0000 0.0000 0.0000 (   435 PWs)   bands (ev):

   -59.8549 -59.8163 -51.7912 -28.6964 -28.6963 -28.6963 -28.5989 -28.5988
   -28.5988 -23.2116 -23.2115 -23.2113   7.1675  14.6970  14.6971  14.6971
    15.1335  15.1336  17.4157  17.4158  17.4159  19.3855  19.3855  19.3856
    20.1878  20.1879  20.6733  20.6735  23.1451

     occupation numbers
     1.0000   1.0000   1.0000   1.0000   1.0000   1.0000   1.0000   1.0000
     1.0000   1.0000   1.0000   1.0000   1.0000   1.0000   1.0000   1.0000
     1.0000   1.0000   1.0000   1.0000   1.0000   1.0000   1.0000   1.0000
    -0.0000  -0.0000  -0.0000  -0.0000  -0.0000

     the Fermi energy is    20.0284 ev

!    total energy              =    -609.16322866 Ry
     estimated scf accuracy    <       0.00000062 Ry
     smearing contrib. (-TS)   =       0.00000000 Ry
     internal energy E=F+TS    =    -609.16322866 Ry

     The total energy is F=E-TS. E is the sum of the following terms:
     one-electron contribution =    -260.73646907 Ry
     hartree contribution      =     160.39214425 Ry
     xc contribution           =     -82.27622455 Ry
     ewald contribution        =    -426.54267929 Ry

     convergence has been achieved in  31 iterations

     negative rho (up, down):  1.433E-03 0.000E+00

     Forces acting on atoms (cartesian axes, Ry/au):

     atom    1 type  1   force =    -0.00000000   -0.00000000   -0.00000687
     atom    2 type  1   force =     0.00000000    0.00000000    0.00000687
     atom    3 type  2   force =     0.00000000    0.00000000   -0.00000000
     atom    4 type  3   force =    -0.00000000   -0.00000000   -0.00000000
     The non-local contrib.  to forces
     atom    1 type  1   force =    -0.00000000    0.00000000    0.00003626
     atom    2 type  1   force =     0.00000000   -0.00000000   -0.00003626
     atom    3 type  2   force =     0.00000000    0.00000000    0.00000000
     atom    4 type  3   force =     0.00000000    0.00000000    0.00000000
     The ionic contribution  to forces
     atom    1 type  1   force =    -0.00000000   -0.00000000    0.00000000
     atom    2 type  1   force =     0.00000000    0.00000000    0.00000000
     atom    3 type  2   force =    -0.00000000    0.00000000   -0.00000000
     atom    4 type  3   force =    -0.00000000   -0.00000000   -0.00000000
     The local contribution  to forces
     atom    1 type  1   force =    -0.00024742    0.00006374    0.00015267
     atom    2 type  1   force =    -0.00007201   -0.00012376    0.00010543
     atom    3 type  2   force =    -0.00009432   -0.00015287    0.00028368
     atom    4 type  3   force =     0.00005338    0.00001931   -0.00008539
     The core correction contribution to forces
     atom    1 type  1   force =    -0.00000302   -0.00000150    0.00000328
     atom    2 type  1   force =     0.00000031   -0.00000084    0.00000424
     atom    3 type  2   force =    -0.00000064   -0.00000083   -0.00000017
     atom    4 type  3   force =     0.00000223    0.00000032   -0.00000265
     The Hubbard contrib.    to forces
     atom    1 type  1   force =     0.00000000    0.00000000    0.00000000
     atom    2 type  1   force =     0.00000000    0.00000000    0.00000000
     atom    3 type  2   force =     0.00000000    0.00000000    0.00000000
     atom    4 type  3   force =     0.00000000    0.00000000    0.00000000
     The SCF correction term to forces
     atom    1 type  1   force =     0.00029313   -0.00009614   -0.00018557
     atom    2 type  1   force =     0.00008459    0.00011329   -0.00005302
     atom    3 type  2   force =     0.00012995    0.00018328   -0.00031274
     atom    4 type  3   force =    -0.00003136   -0.00001907    0.00005758

     Total force =     0.000010     Total SCF correction =     0.000553
     SCF correction compared to forces is large: reduce conv_thr to get better values

     Computing stress (Cartesian axis) and pressure

     negative rho (up, down):  1.433E-03 0.000E+00
          total   stress  (Ry/bohr**3)                   (kbar)     P=     -364.96
  -0.00248083  -0.00000000   0.00000000         -364.94       -0.00        0.00
  -0.00000000  -0.00248083  -0.00000000           -0.00     -364.94       -0.00
  -0.00000000  -0.00000000  -0.00248122           -0.00       -0.00     -365.00

     kinetic stress (kbar)  42689.35     -0.00     -0.00
                                0.00  42689.35      0.00
                                0.00     -0.00  42689.34

     local   stress (kbar)  -6605.30      0.17     -0.16
                                0.17  -6604.90      0.06
                               -0.16      0.06  -6605.23

     nonloc. stress (kbar)  19839.35      0.00     -0.00
                                0.00  19839.35     -0.00
                               -0.00      0.00  19839.38

     hartree stress (kbar)  26548.52     -0.07      0.07
                               -0.07  26548.35     -0.03
                                0.07     -0.03  26548.46

     exc-cor stress (kbar)  -5597.79     -0.00      0.00
                               -0.00  -5597.79     -0.00
                                0.00     -0.00  -5597.79

     corecor stress (kbar)  -6636.94      0.00     -0.00
                                0.00  -6636.94      0.00
                               -0.00      0.00  -6636.94

     ewald   stress (kbar) -70602.24     -0.00      0.00
                               -0.00 -70602.24      0.00
                                0.00      0.00 -70602.24

     hubbard stress (kbar)      0.00      0.00      0.00
                                0.00      0.00      0.00
                                0.00      0.00      0.00

     DFT-D   stress (kbar)      0.00      0.00      0.00
                                0.00      0.00      0.00
                                0.00      0.00      0.00

     XDM     stress (kbar)      0.00      0.00      0.00
                                0.00      0.00      0.00
                                0.00      0.00      0.00

     dft-nl  stress (kbar)      0.00      0.00      0.00
                                0.00      0.00      0.00
                                0.00      0.00      0.00

     TS-vdW  stress (kbar)      0.00      0.00      0.00
                                0.00      0.00      0.00
                                0.00      0.00      0.00

[...]

                                0.00      0.00      0.00

     Writing all to output data dir new_calculations/myprefix.save/

     General routines

     Parallel routines

   This run was terminated on:   9: 0:45  20May2023

   JOB DONE.