     Program PWSCF v.7.0 starts on 20May2023 at 13:30:49

     Reading input from espresso_14406.pwi
Warning: card &CELL ignored
Warning: card / ignored

     Current dimensions of program PWSCF are:
     Max number of different atomic species (ntypx) = 10
     Max number of k-points (npk) =  40000
     Max angular momentum in pseudopotentials (lmaxx) =  4
     file In.pbe-dn-rrkjus_psl.0.2.2.UPF: wavefunction(s)  5S renormalized

     gamma-point specific algorithms are used

     Subspace diagonalization in iterative solution of the eigenvalue problem:
     a serial algorithm will be used

     Using Slab Decomposition

     bravais-lattice index     =            0
     lattice parameter (alat)  =      17.2075  a.u.
     unit-cell volume          =    1767.7340 (a.u.)^3
     number of atoms/cell      =           14
     number of atomic types    =            3
     number of electrons       =       121.00
     number of Kohn-Sham states=           73
     kinetic-energy cutoff     =      30.0000  Ry
     charge density cutoff     =     240.0000  Ry
     scf convergence threshold =      1.0E-06
     mixing beta               =       0.7000
     number of iterations used =            8  plain     mixing
     Exchange-correlation=  SLA  PW   PBX  PBC
                           (   1   4   3   4   0   0   0)

     celldm(1)=  17.207500  celldm(2)=   0.000000  celldm(3)=   0.000000
     celldm(4)=   0.000000  celldm(5)=   0.000000  celldm(6)=   0.000000

     crystal axes: (cart. coord. in units of alat)
               a(1) = (   1.000000   0.000000   0.000000 )
               a(2) = (   0.929883   0.367855   0.000000 )
               a(3) = (   0.234964   0.044787   0.943162 )

     reciprocal axes: (cart. coord. in units 2 pi/alat)
               b(1) = (  1.000000 -2.527850 -0.129088 )
               b(2) = (  0.000000  2.718460 -0.129088 )
               b(3) = (  0.000000  0.000000  1.060263 )

     PseudoPot. # 1 for Ti read from file:
     /home/pragov/projects/rrg-bengioy-ad/pragov/crystal_structure_design/SSSP/ti_pbe_v1.4.uspp.F.UPF
     MD5 check sum: 88a00a6731bd790ddea75d31a80cb452
     Pseudo is Ultrasoft + core correction, Zval = 12.0
     Generated by new atomic code, or converted to UPF format
     Using radial grid of  851 points,  6 beta functions with:
                l(1) =   0
                l(2) =   0
                l(3) =   1
                l(4) =   1
                l(5) =   2
                l(6) =   2
     Q(r) pseudized with  6 coefficients,  rinner =    1.000   1.000   1.000
                                                       1.000   1.000

     PseudoPot. # 2 for In read from file:
     /home/pragov/projects/rrg-bengioy-ad/pragov/crystal_structure_design/SSSP/In.pbe-dn-rrkjus_psl.0.2.2.UPF
     MD5 check sum: 25e7c42c3b55b68f4bf926be2e7201a4
     Pseudo is Ultrasoft + core correction, Zval = 13.0
     Generated using "atomic" code by A. Dal Corso  v.5.0.99 svn rev. 10869
     Using radial grid of 1241 points,  6 beta functions with:
                l(1) =   0
                l(2) =   0
                l(3) =   1
                l(4) =   1
                l(5) =   2
                l(6) =   2
     Q(r) pseudized with 0 coefficients

     PseudoPot. # 3 for S  read from file:
     /home/pragov/projects/rrg-bengioy-ad/pragov/crystal_structure_design/SSSP/s_pbe_v1.4.uspp.F.UPF
     MD5 check sum: 88d86576ff6df21479756cfb9bdac1df
     Pseudo is Ultrasoft + core correction, Zval =  6.0
     Generated by new atomic code, or converted to UPF format
     Using radial grid of  907 points,  6 beta functions with:
                l(1) =   0
                l(2) =   0
                l(3) =   1
                l(4) =   1
                l(5) =   2
                l(6) =   2
     Q(r) pseudized with  8 coefficients,  rinner =    1.300   1.300   1.300
                                                       1.300   1.300

     atomic species   valence    mass     pseudopotential
        Ti            12.00    47.86700     Ti( 1.00)
        In            13.00   114.81800     In( 1.00)
        S              6.00    32.06000     S ( 1.00)

     No symmetry found

                                    s                        frac. trans.

      isym =  1     identity

 cryst.   s( 1) = (     1          0          0      )
                  (     0          1          0      )
                  (     0          0          1      )

 cart.    s( 1) = (  1.0000000  0.0000000 -0.0000000 )
                  (  0.0000000  1.0000000  0.0000000 )
                  (  0.0000000  0.0000000  1.0000000 )

   Cartesian axes

     site n.     atom                  positions (alat units)
         1           Ti  tau(   1) = (   1.7298213   0.3297215   0.7993934  )
         2           Ti  tau(   2) = (   0.4364331   0.0831886   0.1442265  )
         3           Ti  tau(   3) = (   1.0812432   0.2060959   0.4705070  )
         4           Ti  tau(   4) = (   0.4279380   0.0815693   0.4766375  )
         5           Ti  tau(   5) = (   1.7392338   0.3315156   0.4654516  )
         6           In  tau(   6) = (   0.2529000   0.0482053   0.9221894  )
         7           S   tau(   7) = (   0.6567944   0.1251917   0.6278340  )
         8           S   tau(   8) = (   1.5084703   0.2875298   0.3149814  )
         9           S   tau(   9) = (   1.9413427   0.3700396   0.6305409  )
        10           S   tau(  10) = (   0.2241755   0.0427301   0.3124480  )
        11           S   tau(  11) = (   1.2924927   0.2463622   0.6366913  )
        12           S   tau(  12) = (   0.8715364   0.1661237   0.3065410  )
        13           S   tau(  13) = (   1.2786053   0.2437152   0.0008903  )
        14           S   tau(  14) = (   0.8852082   0.1687297   0.9419024  )

   Crystallographic axes

     site n.     atom                  positions (cryst. coord.)
         1           Ti  tau(   1) = (  0.7931430  0.7931430  0.8475670  )
         2           Ti  tau(   2) = (  0.2075270  0.2075270  0.1529180  )
         3           Ti  tau(   3) = (  0.4995270  0.4995270  0.4988610  )
         4           Ti  tau(   4) = (  0.1602150  0.1602150  0.5053610  )
         5           Ti  tau(   5) = (  0.8411280  0.8411280  0.4935010  )
         6           In  tau(   6) = (  0.0120010  0.0120010  0.9777630  )
         7           S   tau(   7) = (  0.2592830  0.2592830  0.6656690  )
         8           S   tau(   8) = (  0.7409780  0.7409780  0.3339630  )
         9           S   tau(   9) = (  0.9245430  0.9245430  0.6685390  )
        10           S   tau(  10) = (  0.0758270  0.0758270  0.3312770  )
        11           S   tau(  11) = (  0.5875370  0.5875370  0.6750600  )
        12           S   tau(  12) = (  0.4120300  0.4120300  0.3250140  )
        13           S   tau(  13) = (  0.6624150  0.6624150  0.0009440  )
        14           S   tau(  14) = (  0.3370970  0.3370970  0.9986640  )

     number of k points=     1  Methfessel-Paxton smearing, width (Ry)=  0.0010
                       cart. coord. in units 2pi/alat
        k(    1) = (   0.0000000   0.0000000   0.0000000), wk =   2.0000000

                       cryst. coord.
        k(    1) = (   0.0000000   0.0000000   0.0000000), wk =   2.0000000

     Check: negative core charge=   -0.000004

     Initial potential from superposition of free atoms

     starting charge     115.9958, renormalised to     121.0000

     negative rho (up, down):  6.848E-03 0.000E+00
     Starting wfcs are   91 randomized atomic wfcs

     Self-consistent Calculation

     iteration #  1     ecut=    30.00 Ry     beta= 0.70
     Davidson diagonalization with overlap

     ethr =  1.00E-02,  avg # of iterations =  3.0

     negative rho (up, down):  2.689E-03 0.000E+00

     total energy              =    -923.89335891 Ry
     estimated scf accuracy    <      14.52449870 Ry

[...]

     total energy              =    -934.51028028 Ry
     estimated scf accuracy    <       0.00000116 Ry

     iteration # 25     ecut=    30.00 Ry     beta= 0.70
     Davidson diagonalization with overlap

     ethr =  9.56E-10,  avg # of iterations =  6.0

[...]

     End of self-consistent calculation

          k = 0.0000 0.0000 0.0000 (  2468 PWs)   bands (ev):

   -47.8076 -47.7870 -47.7368 -47.7248 -47.6257 -24.4115 -24.3859 -24.3139
   -24.2830 -24.2484 -23.9723 -23.9530 -23.8639 -23.8504 -23.8440 -23.8372
   -23.8083 -23.8065 -23.7868 -23.6291  -5.3074  -5.1788  -5.1488  -5.1176
    -5.1058  -4.7351  -3.7713  -3.6880  -3.5198  -3.4206  -3.3119  -3.0828
    -3.0137   2.9873   3.9233   4.3192   4.4414   4.6486   4.9345   4.9697
     5.2929   5.5628   5.7860   6.1128   6.3148   6.3821   6.5025   6.6388
     6.8002   7.0184   7.1247   7.3197   7.4319   7.4774   7.6100   8.1604
     8.6577   8.8640   9.2223   9.2923   9.7023   9.9892  10.0305  10.0780
    10.2252  10.5172  10.9263  10.9284  11.0169  11.1932  11.3500  11.4554
    11.5435

     occupation numbers
     1.0000   1.0000   1.0000   1.0000   1.0000   1.0000   1.0000   1.0000
     1.0000   1.0000   1.0000   1.0000   1.0000   1.0000   1.0000   1.0000
     1.0000   1.0000   1.0000   1.0000   1.0000   1.0000   1.0000   1.0000
     1.0000   1.0000   1.0000   1.0000   1.0000   1.0000   1.0000   1.0000
     1.0000   1.0000   1.0000   1.0000   1.0000   1.0000   1.0000   1.0000
     1.0000   1.0000   1.0000   1.0000   1.0000   1.0000   1.0000   1.0000
     1.0000   1.0000   1.0000   1.0000   1.0000   1.0000   1.0000   1.0000
     1.0000   1.0000   1.0000   1.0000   0.5000  -0.0000  -0.0000  -0.0000
    -0.0000  -0.0000  -0.0000  -0.0000  -0.0000  -0.0000  -0.0000  -0.0000
    -0.0000

     the Fermi energy is     9.7023 ev

!    total energy              =    -934.51028022 Ry
     estimated scf accuracy    <       0.00000025 Ry
     smearing contrib. (-TS)   =      -0.00028209 Ry
     internal energy E=F+TS    =    -934.50999813 Ry

     The total energy is F=E-TS. E is the sum of the following terms:
     one-electron contribution =    -394.23978084 Ry
     hartree contribution      =     249.05405198 Ry
     xc contribution           =    -206.18951206 Ry
     ewald contribution        =    -583.13475721 Ry

     convergence has been achieved in  25 iterations

     negative rho (up, down):  3.851E-03 0.000E+00

     Forces acting on atoms (cartesian axes, Ry/au):

     atom    1 type  1   force =     0.02153846    0.00410502   -0.02851145
     atom    2 type  1   force =    -0.01453012   -0.00276968    0.03631582
     atom    3 type  1   force =     0.00005644    0.00001010   -0.00125793
     atom    4 type  1   force =    -0.02538227   -0.00483774    0.00060882
     atom    5 type  1   force =     0.03697580    0.00704781   -0.00892485
     atom    6 type  2   force =    -0.01530725   -0.00291578    0.01758468
     atom    7 type  3   force =     0.04416084    0.00841788    0.00617949
     atom    8 type  3   force =    -0.05425711   -0.01034209   -0.00829091
     atom    9 type  3   force =    -0.00418122   -0.00079683   -0.03529339
     atom   10 type  3   force =     0.00116356    0.00021994    0.03580984
     atom   11 type  3   force =     0.02863968    0.00545879   -0.07044788
     atom   12 type  3   force =    -0.02763016   -0.00526472    0.05903336
     atom   13 type  3   force =     0.05203654    0.00991899    0.02129591
     atom   14 type  3   force =    -0.04328319   -0.00825169   -0.02410151
     The non-local contrib.  to forces
     atom    1 type  1   force =     0.01737824    0.00331311   -0.00075141
     atom    2 type  1   force =    -0.02147674   -0.00409259    0.01066729
     atom    3 type  1   force =     0.00286022    0.00054538    0.00482595
     atom    4 type  1   force =    -0.00455694   -0.00086869    0.00561055
     atom    5 type  1   force =     0.01160662    0.00221308   -0.01071199
     atom    6 type  2   force =     0.08958132    0.01707825   -0.10610384
     atom    7 type  3   force =     0.01660323    0.00316883   -0.04382074
     atom    8 type  3   force =    -0.01168035   -0.00222678    0.04500827
     atom    9 type  3   force =    -0.02430215   -0.00463331    0.00077423
     atom   10 type  3   force =     0.02713364    0.00517359   -0.00431744
     atom   11 type  3   force =    -0.05067188   -0.00965769    0.04627893
     atom   12 type  3   force =     0.05498223    0.01048068   -0.02604740
     atom   13 type  3   force =    -0.05396307   -0.01028526   -0.01055185
     atom   14 type  3   force =     0.04194135    0.00799465    0.00270223
     The ionic contribution  to forces
     atom    1 type  1   force =     2.44100001    0.46527940    3.33580377
     atom    2 type  1   force =    -1.16023204   -0.22115201   -2.93288481
     atom    3 type  1   force =    -0.29538122   -0.05630266   -0.80990362
     atom    4 type  1   force =     0.15969310    0.03043913    6.11771477
     atom    5 type  1   force =     0.07406427    0.01411740   -7.46316592
     atom    6 type  2   force =    -2.63351134   -0.50197402    3.25985012
     atom    7 type  3   force =    -3.84149881   -0.73222871    3.23921507
     atom    8 type  3   force =     4.47459646    0.85290355   -3.62557424
     atom    9 type  3   force =     4.49224734    0.85626799    6.93497986
     atom   10 type  3   force =    -4.97837916   -0.94892965   -7.01945369
     atom   11 type  3   force =    -0.52930745   -0.10089138    9.45268192
     atom   12 type  3   force =     0.48982350    0.09336534  -11.26301768
     atom   13 type  3   force =    -8.71205529   -1.66060626   -2.05611454
     atom   14 type  3   force =    10.01894063    1.90971188    2.82986899
     The local contribution  to forces
     atom    1 type  1   force =    -2.43606101   -0.46434016   -3.36166491
     atom    2 type  1   force =     1.16648641    0.22234205    2.95822642
     atom    3 type  1   force =     0.29204603    0.05566436    0.80318520
     atom    4 type  1   force =    -0.18362276   -0.03499640   -6.12501355
     atom    5 type  1   force =    -0.04445772   -0.00847578    7.46496446
     atom    6 type  2   force =     2.52653686    0.48158369   -3.13439665
     atom    7 type  3   force =     3.86964218    0.73759167   -3.19188027
     atom    8 type  3   force =    -4.51751838   -0.86108391    3.57462189
     atom    9 type  3   force =    -4.47298168   -0.85259422   -6.97094913
     atom   10 type  3   force =     4.95350998    0.94418556    7.05896815
     atom   11 type  3   force =     0.60564928    0.11544006   -9.56644273
     atom   12 type  3   force =    -0.56919629   -0.10849293   11.34586587
     atom   13 type  3   force =     8.81414711    1.68006593    2.08745709
     atom   14 type  3   force =   -10.10078371   -1.92531270   -2.85596271
     The core correction contribution to forces
     atom    1 type  1   force =    -0.00082843   -0.00015798   -0.00198378
     atom    2 type  1   force =     0.00075876    0.00014446    0.00102167
     atom    3 type  1   force =     0.00046309    0.00008824    0.00021028
     atom    4 type  1   force =     0.00286253    0.00054569    0.00174985
     atom    5 type  1   force =    -0.00391413   -0.00074611   -0.00051779
     atom    6 type  2   force =     0.00199371    0.00038004   -0.00133820
     atom    7 type  3   force =    -0.00059102   -0.00011298    0.00226192
     atom    8 type  3   force =     0.00026594    0.00005068   -0.00234593
     atom    9 type  3   force =     0.00098706    0.00018822   -0.00070266
     atom   10 type  3   force =    -0.00116662   -0.00022255    0.00088997
     atom   11 type  3   force =     0.00282969    0.00053933   -0.00341557
     atom   12 type  3   force =    -0.00309488   -0.00059006    0.00245564
     atom   13 type  3   force =     0.00394485    0.00075187    0.00082627
     atom   14 type  3   force =    -0.00338799   -0.00064572   -0.00040936
     The Hubbard contrib.    to forces
     atom    1 type  1   force =     0.00000000    0.00000000    0.00000000
     atom    2 type  1   force =     0.00000000    0.00000000    0.00000000
     atom    3 type  1   force =     0.00000000    0.00000000    0.00000000
     atom    4 type  1   force =     0.00000000    0.00000000    0.00000000
     atom    5 type  1   force =     0.00000000    0.00000000    0.00000000
     atom    6 type  2   force =     0.00000000    0.00000000    0.00000000
     atom    7 type  3   force =     0.00000000    0.00000000    0.00000000
     atom    8 type  3   force =     0.00000000    0.00000000    0.00000000
     atom    9 type  3   force =     0.00000000    0.00000000    0.00000000
     atom   10 type  3   force =     0.00000000    0.00000000    0.00000000
     atom   11 type  3   force =     0.00000000    0.00000000    0.00000000
     atom   12 type  3   force =     0.00000000    0.00000000    0.00000000
     atom   13 type  3   force =     0.00000000    0.00000000    0.00000000
     atom   14 type  3   force =     0.00000000    0.00000000    0.00000000
     The SCF correction term to forces
     atom    1 type  1   force =     0.00005011    0.00001089    0.00007484
     atom    2 type  1   force =    -0.00006606   -0.00001134   -0.00072480
     atom    3 type  1   force =     0.00006878    0.00001503    0.00041422
     atom    4 type  1   force =     0.00024226    0.00004277    0.00053716
     atom    5 type  1   force =    -0.00032279   -0.00006054    0.00049634
     atom    6 type  2   force =     0.00009266    0.00001648   -0.00043680
     atom    7 type  3   force =     0.00000572   -0.00000070    0.00039346
     atom    8 type  3   force =     0.00007968    0.00001461   -0.00001094
     atom    9 type  3   force =    -0.00013134   -0.00002527    0.00059427
     atom   10 type  3   force =     0.00006618    0.00001323   -0.00028718
     atom   11 type  3   force =     0.00014051    0.00002870    0.00043953
     atom   12 type  3   force =    -0.00014426   -0.00002751   -0.00023311
     atom   13 type  3   force =    -0.00003660   -0.00000706   -0.00033110
     atom   14 type  3   force =     0.00000699    0.00000043   -0.00031070

     Total force =     0.170724     Total SCF correction =     0.001654

     Computing stress (Cartesian axis) and pressure

     negative rho (up, down):  3.851E-03 0.000E+00
          total   stress  (Ry/bohr**3)                   (kbar)     P=       57.58
   0.00010775  -0.00021105  -0.00013851           15.85      -31.05      -20.38
  -0.00021105   0.00117474  -0.00002640          -31.05      172.81       -3.88
  -0.00013851  -0.00002640  -0.00010822          -20.38       -3.88      -15.92

     kinetic stress (kbar)  11837.91   -114.94    -66.28
                             -114.94  12419.00    -12.63
                              -66.28    -12.63  12076.16

     local   stress (kbar)  -1425.80   2025.31   2131.44
                             2025.31 -11665.16    406.27
                             2131.44    406.27   -586.25

     nonloc. stress (kbar)   5785.87    -20.81    -11.40
                              -20.81   5891.07     -2.17
                              -11.40     -2.17   5820.71

     hartree stress (kbar)   5595.40   -897.03   -905.43
                             -897.03  10130.52   -172.58
                             -905.43   -172.58   4999.54

     exc-cor stress (kbar)   2494.17     -0.71     -1.27
                               -0.71   2497.73     -0.24
                               -1.27     -0.24   2500.36

     corecor stress (kbar)  -6551.10      2.51      1.60
                                2.51  -6563.80      0.31
                                1.60      0.31  -6557.03

     ewald   stress (kbar) -17720.61  -1025.39  -1169.05
                            -1025.39 -12536.56   -222.83
                            -1169.05   -222.83 -18269.41

     hubbard stress (kbar)      0.00      0.00      0.00
                                0.00      0.00      0.00
                                0.00      0.00      0.00

     DFT-D   stress (kbar)      0.00      0.00      0.00
                                0.00      0.00      0.00
                                0.00      0.00      0.00

     XDM     stress (kbar)      0.00      0.00      0.00
                                0.00      0.00      0.00
                                0.00      0.00      0.00

     dft-nl  stress (kbar)      0.00      0.00      0.00
                                0.00      0.00      0.00
                                0.00      0.00      0.00

     TS-vdW  stress (kbar)      0.00      0.00      0.00
                                0.00      0.00      0.00
                                0.00      0.00      0.00

[...]

                                0.00      0.00      0.00

     Writing all to output data dir new_calculations/myprefix.save/

     General routines

     Parallel routines

   This run was terminated on:  13:31:30  20May2023

   JOB DONE.