     Program PWSCF v.7.0 starts on 20May2023 at 20:43:11

     Reading input from espresso_18582.pwi
Warning: card &CELL ignored
Warning: card / ignored

     Current dimensions of program PWSCF are:
     Max number of different atomic species (ntypx) = 10
     Max number of k-points (npk) =  40000
     Max angular momentum in pseudopotentials (lmaxx) =  4

     gamma-point specific algorithms are used
     Message from routine setup:
     using ibrav=0 with symmetry is DISCOURAGED, use correct ibrav instead

     Subspace diagonalization in iterative solution of the eigenvalue problem:
     a serial algorithm will be used

     Using Slab Decomposition

     bravais-lattice index     =            0
     lattice parameter (alat)  =      10.6867  a.u.
     unit-cell volume          =     524.6246 (a.u.)^3
     number of atoms/cell      =            5
     number of atomic types    =            4
     number of electrons       =        56.00
     number of Kohn-Sham states=           34
     kinetic-energy cutoff     =      30.0000  Ry
     charge density cutoff     =     240.0000  Ry
     scf convergence threshold =      1.0E-06
     mixing beta               =       0.7000
     number of iterations used =            8  plain     mixing
     Exchange-correlation=  SLA  PW   PBX  PBC
                           (   1   4   3   4   0   0   0)

     celldm(1)=  10.686672  celldm(2)=   0.000000  celldm(3)=   0.000000
     celldm(4)=   0.000000  celldm(5)=   0.000000  celldm(6)=   0.000000

     crystal axes: (cart. coord. in units of alat)
               a(1) = (   1.000000   0.000000   0.000000 )
               a(2) = (   0.504368   0.863489   0.000000 )
               a(3) = (  -0.752184  -0.431744   0.497811 )

     reciprocal axes: (cart. coord. in units 2 pi/alat)
               b(1) = (  1.000000 -0.584105  1.004397 )
               b(2) = (  0.000000  1.158093  1.004397 )
               b(3) = (  0.000000  0.000000  2.008794 )

     PseudoPot. # 1 for Y  read from file:
     /home/pragov/projects/rrg-bengioy-ad/pragov/crystal_structure_design/SSSP/Y_pbe_v1.uspp.F.UPF
     MD5 check sum: 2cf71db95cafeb975fc457bd7f14888e
     Pseudo is Ultrasoft + core correction, Zval = 11.0
     Generated by new atomic code, or converted to UPF format
     Using radial grid of  885 points,  6 beta functions with:
                l(1) =   0
                l(2) =   0
                l(3) =   1
                l(4) =   1
                l(5) =   2
                l(6) =   2
     Q(r) pseudized with  6 coefficients,  rinner =    1.200   1.200   1.200
                                                       1.200   1.200

     PseudoPot. # 2 for Cu read from file:
     /home/pragov/projects/rrg-bengioy-ad/pragov/crystal_structure_design/SSSP/Cu_pbe_v1.2.uspp.F.UPF
     MD5 check sum: 6e991ff952a84172a2a52a1c1e996048
     Pseudo is Ultrasoft + core correction, Zval = 19.0
     Generated by new atomic code, or converted to UPF format
     Using radial grid of  867 points,  6 beta functions with:
                l(1) =   0
                l(2) =   0
                l(3) =   1
                l(4) =   1
                l(5) =   2
                l(6) =   2
     Q(r) pseudized with  8 coefficients,  rinner =    1.150   1.150   1.150
                                                       1.150   1.150

     PseudoPot. # 3 for Si read from file:
     /home/pragov/projects/rrg-bengioy-ad/pragov/crystal_structure_design/SSSP/Si.pbe-n-rrkjus_psl.1.0.0.UPF
     MD5 check sum: 0b0bb1205258b0d07b9f9672cf965d36
     Pseudo is Ultrasoft + core correction, Zval =  4.0
     Generated using "atomic" code by A. Dal Corso  v.5.1
     Using radial grid of 1141 points,  6 beta functions with:
                l(1) =   0
                l(2) =   0
                l(3) =   1
                l(4) =   1
                l(5) =   2
                l(6) =   2
     Q(r) pseudized with 0 coefficients

     PseudoPot. # 4 for Ni read from file:
     /home/pragov/projects/rrg-bengioy-ad/pragov/crystal_structure_design/SSSP/ni_pbe_v1.4.uspp.F.UPF
     MD5 check sum: 1ee80287db30b12d2bc1f57a5b5d6409
     Pseudo is Ultrasoft + core correction, Zval = 18.0
     Generated by new atomic code, or converted to UPF format
     Using radial grid of  865 points,  6 beta functions with:
                l(1) =   0
                l(2) =   0
                l(3) =   1
                l(4) =   1
                l(5) =   2
                l(6) =   2
     Q(r) pseudized with 10 coefficients,  rinner =    0.980   0.980   0.980
                                                       0.980   0.980

     atomic species   valence    mass     pseudopotential
        Y             11.00    88.90584     Y ( 1.00)
        Cu            19.00    63.54600     Cu( 1.00)
        Si             4.00    28.08500     Si( 1.00)
        Ni            18.00    58.69340     Ni( 1.00)

      2 Sym. Ops. (no inversion) found

                                    s                        frac. trans.

      isym =  1     identity

 cryst.   s( 1) = (     1          0          0      )
                  (     0          1          0      )
                  (     0          0          1      )

 cart.    s( 1) = (  1.0000000  0.0000000  0.0000000 )
                  (  0.0000000  1.0000000  0.0000000 )
                  (  0.0000000  0.0000000  1.0000000 )

      isym =  2     180 deg rotation - cart. axis [0,0,1]

 cryst.   s( 2) = (    -1          0          0      )
                  (     0         -1          0      )
                  (     1          1          1      )

 cart.    s( 2) = ( -1.0000000 -0.0000000 -0.0000000 )
                  (  0.0000000 -1.0000000 -0.0000000 )
                  (  0.0000000  0.0000000  1.0000000 )

   Cartesian axes

     site n.     atom                  positions (alat units)
         1           Y   tau(   1) = (   0.0000000   0.0000000   0.0000000  )
         2           Cu  tau(   2) = (   0.2521842   0.4317443   0.2489055  )
         3           Si  tau(   3) = (   0.9358344   0.5371573   0.0000000  )
         4           Si  tau(   4) = (   0.5685339   0.3263313   0.0000000  )
         5           Ni  tau(   5) = (   0.5000000  -0.0000000   0.2489055  )

   Crystallographic axes

     site n.     atom                  positions (cryst. coord.)
         1           Y   tau(   1) = (  0.0000000  0.0000000  0.0000000  )
         2           Cu  tau(   2) = (  0.2500000  0.7500000  0.5000000  )
         3           Si  tau(   3) = (  0.6220780  0.6220780  0.0000000  )
         4           Si  tau(   4) = (  0.3779220  0.3779220  0.0000000  )
         5           Ni  tau(   5) = (  0.7500000  0.2500000  0.5000000  )

     number of k points=     1  Methfessel-Paxton smearing, width (Ry)=  0.0010
                       cart. coord. in units 2pi/alat
        k(    1) = (   0.0000000   0.0000000   0.0000000), wk =   2.0000000

                       cryst. coord.
        k(    1) = (   0.0000000   0.0000000   0.0000000), wk =   2.0000000

     Check: negative core charge=   -0.000005

     Initial potential from superposition of free atoms

     starting charge      52.9944, renormalised to      56.0000

     negative rho (up, down):  4.546E-02 0.000E+00
     Starting wfcs are   47 randomized atomic wfcs

     Self-consistent Calculation

     iteration #  1     ecut=    30.00 Ry     beta= 0.70
     Davidson diagonalization with overlap

     ethr =  1.00E-02,  avg # of iterations =  6.0

     negative rho (up, down):  3.426E-02 0.000E+00

     total energy              =    -802.93253308 Ry
     estimated scf accuracy    <      68.66152527 Ry

[...]

     total energy              =    -856.60238575 Ry
     estimated scf accuracy    <       0.00000313 Ry

     iteration # 17     ecut=    30.00 Ry     beta= 0.70
     Davidson diagonalization with overlap

     ethr =  5.59E-09,  avg # of iterations =  2.0

[...]

     End of self-consistent calculation

          k = 0.0000 0.0000 0.0000 (   747 PWs)   bands (ev):

  -101.4290 -91.6929 -58.7773 -58.5098 -58.2603 -52.0726 -51.6165 -51.2676
   -28.2168  -8.7873  -8.4740  -8.4036   1.4939   5.8248   6.4921   8.2429
     8.4454   8.9958   9.2018   9.3127   9.8047   9.9739  10.5819  10.6267
    11.1817  11.2091  11.7213  12.5729  13.6835  13.7747  15.6846  16.0399
    16.8425  17.1534

     occupation numbers
     1.0000   1.0000   1.0000   1.0000   1.0000   1.0000   1.0000   1.0000
     1.0000   1.0000   1.0000   1.0000   1.0000   1.0000   1.0000   1.0000
     1.0000   1.0000   1.0000   1.0000   1.0000   1.0000   1.0000   1.0000
     1.0000   1.0000   1.0000   1.0000  -0.0000  -0.0000  -0.0000  -0.0000
    -0.0000  -0.0000

     the Fermi energy is    13.5752 ev

!    total energy              =    -856.60238596 Ry
     estimated scf accuracy    <       0.00000014 Ry
     smearing contrib. (-TS)   =       0.00000000 Ry
     internal energy E=F+TS    =    -856.60238596 Ry

     The total energy is F=E-TS. E is the sum of the following terms:
     one-electron contribution =    -682.98405854 Ry
     hartree contribution      =     367.66071174 Ry
     xc contribution           =    -108.67620057 Ry
     ewald contribution        =    -432.60283858 Ry

     convergence has been achieved in  17 iterations

     negative rho (up, down):  3.854E-02 0.000E+00

     Forces acting on atoms (cartesian axes, Ry/au):

     atom    1 type  1   force =     0.00000000    0.00000000    0.00089194
     atom    2 type  2   force =     0.00000000    0.00000000   -0.00319110
     atom    3 type  3   force =     0.11433087    0.06585696   -0.00185434
     atom    4 type  3   force =    -0.11433087   -0.06585696   -0.00185434
     atom    5 type  4   force =     0.00000000    0.00000000    0.00600785
     The non-local contrib.  to forces
     atom    1 type  1   force =     0.00000000    0.00000000   -0.00172668
     atom    2 type  2   force =     0.00000000    0.00000000    0.00175684
     atom    3 type  3   force =     0.02691001    0.01278144    0.00050197
     atom    4 type  3   force =    -0.02691001   -0.01278144    0.00050197
     atom    5 type  4   force =     0.00000000    0.00000000   -0.00693558
     The ionic contribution  to forces
     atom    1 type  1   force =    -0.00000000   -0.00000000    0.00000000
     atom    2 type  2   force =     0.00000000   -0.00000000   -0.00000000
     atom    3 type  3   force =    -7.21746492   -4.14273472   -0.00000000
     atom    4 type  3   force =     7.21746492    4.14273472    0.00000000
     atom    5 type  4   force =    -0.00000000    0.00000000   -0.00000000
     The local contribution  to forces
     atom    1 type  1   force =    -0.00033130    0.00235761    0.00236044
     atom    2 type  2   force =     0.00563695    0.00326788   -0.00523737
     atom    3 type  3   force =     7.30869329    4.19735513   -0.00204011
     atom    4 type  3   force =    -7.30731514   -4.19765605   -0.00348668
     atom    5 type  4   force =    -0.00812597   -0.00764299    0.01243882
     The core correction contribution to forces
     atom    1 type  1   force =     0.00013900    0.00009234   -0.00011026
     atom    2 type  2   force =    -0.00000820   -0.00000896   -0.00000778
     atom    3 type  3   force =    -0.00301588   -0.00165482    0.00014173
     atom    4 type  3   force =     0.00295571    0.00158906    0.00000373
     atom    5 type  4   force =     0.00017986    0.00015804    0.00017411
     The Hubbard contrib.    to forces
     atom    1 type  1   force =     0.00000000    0.00000000    0.00000000
     atom    2 type  2   force =     0.00000000    0.00000000    0.00000000
     atom    3 type  3   force =     0.00000000    0.00000000    0.00000000
     atom    4 type  3   force =     0.00000000    0.00000000    0.00000000
     atom    5 type  4   force =     0.00000000    0.00000000    0.00000000
     The SCF correction term to forces
     atom    1 type  1   force =    -0.00027567   -0.00023662    0.00002881
     atom    2 type  2   force =     0.00076355    0.00028218   -0.00004242
     atom    3 type  3   force =    -0.00015495   -0.00006657   -0.00000756
     atom    4 type  3   force =     0.00011032    0.00008024   -0.00000297
     atom    5 type  4   force =     0.00111431    0.00054753   -0.00000912

     Total force =     0.186739     Total SCF correction =     0.001545

     Computing stress (Cartesian axis) and pressure

     negative rho (up, down):  3.854E-02 0.000E+00
          total   stress  (Ry/bohr**3)                   (kbar)     P=     -817.67
  -0.00450262   0.00225501  -0.00000000         -662.36      331.72       -0.00
   0.00225501  -0.00588254  -0.00000000          331.72     -865.35       -0.00
  -0.00000000  -0.00000000  -0.00629000           -0.00       -0.00     -925.29

     kinetic stress (kbar)  22148.71      9.92      0.00
                                9.92  22157.48      0.00
                                0.00      0.00  22313.10

     local   stress (kbar)   4423.00  27302.89     26.23
                            27302.89 -27567.27      0.46
                               26.23      0.46 -43638.23

     nonloc. stress (kbar)  13772.52    221.16      0.00
                              221.16  13749.71      0.00
                                0.00      0.00  13792.56

     hartree stress (kbar)  21646.86 -13022.77    -12.40
                           -13022.77  36885.93      9.59
                              -12.40      9.59  44559.52

     exc-cor stress (kbar)  -2384.39     -0.80     -0.63
                               -0.80  -2383.79      0.56
                               -0.63      0.56  -2379.79

     corecor stress (kbar)  -6077.79      2.04      0.74
                                2.04  -6082.20     -0.23
                                0.74     -0.23  -6086.79

     ewald   stress (kbar) -54191.26 -14180.71     -0.00
                           -14180.71 -37625.20     -0.00
                               -0.00     -0.00 -29485.65

     hubbard stress (kbar)      0.00      0.00      0.00
                                0.00      0.00      0.00
                                0.00      0.00      0.00

     DFT-D   stress (kbar)      0.00      0.00      0.00
                                0.00      0.00      0.00
                                0.00      0.00      0.00

     XDM     stress (kbar)      0.00      0.00      0.00
                                0.00      0.00      0.00
                                0.00      0.00      0.00

     dft-nl  stress (kbar)      0.00      0.00      0.00
                                0.00      0.00      0.00
                                0.00      0.00      0.00

     TS-vdW  stress (kbar)      0.00      0.00      0.00
                                0.00      0.00      0.00
                                0.00      0.00      0.00

[...]

                                0.00      0.00      0.00

     Writing all to output data dir new_calculations/myprefix.save/

     General routines

     Parallel routines

   This run was terminated on:  20:43:27  20May2023

   JOB DONE.