     Program PWSCF v.7.0 starts on 20May2023 at 12:31:36

     Reading input from espresso_6316.pwi
Warning: card &CELL ignored
Warning: card / ignored

     Current dimensions of program PWSCF are:
     Max number of different atomic species (ntypx) = 10
     Max number of k-points (npk) =  40000
     Max angular momentum in pseudopotentials (lmaxx) =  4
     file Fe.pbe-spn-kjpaw_psl.0.2.1.UPF: wavefunction(s)  3D renormalized

     gamma-point specific algorithms are used
     Message from routine setup:
     using ibrav=0 with symmetry is DISCOURAGED, use correct ibrav instead

     Subspace diagonalization in iterative solution of the eigenvalue problem:
     a serial algorithm will be used

     Using Slab Decomposition

     bravais-lattice index     =            0
     lattice parameter (alat)  =      10.9546  a.u.
     unit-cell volume          =    1465.9509 (a.u.)^3
     number of atoms/cell      =           14
     number of atomic types    =            4
     number of electrons       =       129.00
     number of Kohn-Sham states=           78
     kinetic-energy cutoff     =      30.0000  Ry
     charge density cutoff     =     240.0000  Ry
     scf convergence threshold =      1.0E-06
     mixing beta               =       0.7000
     number of iterations used =            8  plain     mixing
     Exchange-correlation=  SLA  PW   PBX  PBC
                           (   1   4   3   4   0   0   0)

     celldm(1)=  10.954599  celldm(2)=   0.000000  celldm(3)=   0.000000
     celldm(4)=   0.000000  celldm(5)=   0.000000  celldm(6)=   0.000000

     crystal axes: (cart. coord. in units of alat)
               a(1) = (   1.000000   0.000000   0.000000 )
               a(2) = (  -0.497601   1.001062   0.000000 )
               a(3) = (   0.000274  -0.338007   1.113958 )

     reciprocal axes: (cart. coord. in units 2 pi/alat)
               b(1) = (  1.000000  0.497073  0.150580 )
               b(2) = (  0.000000  0.998939  0.303106 )
               b(3) = (  0.000000  0.000000  0.897700 )

     PseudoPot. # 1 for Ti read from file:
     /home/pragov/projects/rrg-bengioy-ad/pragov/crystal_structure_design/SSSP/ti_pbe_v1.4.uspp.F.UPF
     MD5 check sum: 88a00a6731bd790ddea75d31a80cb452
     Pseudo is Ultrasoft + core correction, Zval = 12.0
     Generated by new atomic code, or converted to UPF format
     Using radial grid of  851 points,  6 beta functions with:
                l(1) =   0
                l(2) =   0
                l(3) =   1
                l(4) =   1
                l(5) =   2
                l(6) =   2
     Q(r) pseudized with  6 coefficients,  rinner =    1.000   1.000   1.000
                                                       1.000   1.000

     PseudoPot. # 2 for Fe read from file:
     /home/pragov/projects/rrg-bengioy-ad/pragov/crystal_structure_design/SSSP/Fe.pbe-spn-kjpaw_psl.0.2.1.UPF
     MD5 check sum: e86618425769142926afa95317d90200
     Pseudo is Projector augmented-wave + core cor, Zval = 16.0
     Generated using "atomic" code by A. Dal Corso  v.5.0.99 svn rev. 10869
     Shape of augmentation charge: PSQ
     Using radial grid of 1191 points,  6 beta functions with:
                l(1) =   0
                l(2) =   0
                l(3) =   1
                l(4) =   1
                l(5) =   2
                l(6) =   2
     Q(r) pseudized with 0 coefficients

     PseudoPot. # 3 for Co read from file:
     /home/pragov/projects/rrg-bengioy-ad/pragov/crystal_structure_design/SSSP/Co_pbe_v1.2.uspp.F.UPF
     MD5 check sum: 5f91765df6ddd3222702df6e7b74a16d
     Pseudo is Ultrasoft + core correction, Zval = 17.0
     Generated by new atomic code, or converted to UPF format
     Using radial grid of  863 points,  6 beta functions with:
                l(1) =   0
                l(2) =   0
                l(3) =   1
                l(4) =   1
                l(5) =   2
                l(6) =   2
     Q(r) pseudized with  8 coefficients,  rinner =    1.200   1.200   1.200
                                                       1.200   1.200

     PseudoPot. # 4 for S  read from file:
     /home/pragov/projects/rrg-bengioy-ad/pragov/crystal_structure_design/SSSP/s_pbe_v1.4.uspp.F.UPF
     MD5 check sum: 88d86576ff6df21479756cfb9bdac1df
     Pseudo is Ultrasoft + core correction, Zval =  6.0
     Generated by new atomic code, or converted to UPF format
     Using radial grid of  907 points,  6 beta functions with:
                l(1) =   0
                l(2) =   0
                l(3) =   1
                l(4) =   1
                l(5) =   2
                l(6) =   2
     Q(r) pseudized with  8 coefficients,  rinner =    1.300   1.300   1.300
                                                       1.300   1.300

     atomic species   valence    mass     pseudopotential
        Ti            12.00    47.86700     Ti( 1.00)
        Fe            16.00    55.84500     Fe( 1.00)
        Co            17.00    58.93319     Co( 1.00)
        S              6.00    32.06000     S ( 1.00)

      2 Sym. Ops., with inversion, found

                                    s                        frac. trans.

      isym =  1     identity

 cryst.   s( 1) = (     1          0          0      )
                  (     0          1          0      )
                  (     0          0          1      )

 cart.    s( 1) = (  1.0000000  0.0000000 -0.0000000 )
                  (  0.0000000  1.0000000  0.0000000 )
                  (  0.0000000  0.0000000  1.0000000 )

      isym =  2     inversion

 cryst.   s( 2) = (    -1          0          0      )
                  (     0         -1          0      )
                  (     0          0         -1      )

 cart.    s( 2) = ( -1.0000000 -0.0000000  0.0000000 )
                  (  0.0000000 -1.0000000 -0.0000000 )
                  (  0.0000000  0.0000000 -1.0000000 )

   Cartesian axes

     site n.     atom                  positions (alat units)
         1           Ti  tau(   1) = (   0.2443398   0.8652096   0.4153548  )
         2           Ti  tau(   2) = (   0.2583331  -0.2021536   0.6986032  )
         3           Ti  tau(   3) = (   0.2447237   0.6956340   0.9701917  )
         4           Ti  tau(   4) = (   0.2579493  -0.0325781   0.1437663  )
         5           Fe  tau(   5) = (  -0.2488003   0.5005312   0.0000000  )
         6           Co  tau(   6) = (  -0.2486635   0.3315280   0.5569790  )
         7           S   tau(   7) = (   0.5885534   0.6331170   0.3407052  )
         8           S   tau(   8) = (   0.0801939   0.7102338   0.0643868  )
         9           S   tau(   9) = (   0.5900669   0.4600243   0.9033297  )
        10           S   tau(  10) = (   0.0815362   0.5429890   0.6216342  )
        11           S   tau(  11) = (  -0.0873940   0.2030317   0.2106283  )
        12           S   tau(  12) = (   0.4224790  -0.0471778   1.0495712  )
        13           S   tau(  13) = (  -0.0858805   0.0299389   0.7732528  )
        14           S   tau(  14) = (   0.4211367   0.1200670   0.4923238  )

   Crystallographic axes

     site n.     atom                  positions (cryst. coord.)
         1           Ti  tau(   1) = (  0.7369560  0.9901880  0.3728640  )
         2           Ti  tau(   2) = (  0.2630440  0.0098120  0.6271360  )
         3           Ti  tau(   3) = (  0.7365960  0.9889670  0.8709410  )
         4           Ti  tau(   4) = (  0.2634040  0.0110330  0.1290590  )
         5           Fe  tau(   5) = ( -0.0000000  0.5000000  0.0000000  )
         6           Co  tau(   6) = ( -0.0000000  0.5000000  0.5000000  )
         7           S   tau(   7) = (  0.9545620  0.7357150  0.3058510  )
         8           S   tau(   8) = (  0.4429270  0.7289960  0.0578000  )
         9           S   tau(   9) = (  0.9547560  0.7333410  0.8109190  )
        10           S   tau(  10) = (  0.4450470  0.7308340  0.5580410  )
        11           S   tau(  11) = (  0.0452440  0.2666590  0.1890810  )
        12           S   tau(  12) = (  0.5570730  0.2710040  0.9422000  )
        13           S   tau(  13) = (  0.0454380  0.2642850  0.6941490  )
        14           S   tau(  14) = (  0.5549530  0.2691660  0.4419590  )

     number of k points=     1  Methfessel-Paxton smearing, width (Ry)=  0.0010
                       cart. coord. in units 2pi/alat
        k(    1) = (   0.0000000   0.0000000   0.0000000), wk =   2.0000000

                       cryst. coord.
        k(    1) = (   0.0000000   0.0000000   0.0000000), wk =   2.0000000

     Check: negative core charge=   -0.000041

     Initial potential from superposition of free atoms

     starting charge     123.9991, renormalised to     129.0000

     negative rho (up, down):  6.068E-03 0.000E+00
     Starting wfcs are   98 randomized atomic wfcs
     Checking if some PAW data can be deallocated...

     Self-consistent Calculation

     iteration #  1     ecut=    30.00 Ry     beta= 0.70
     Davidson diagonalization with overlap

     ethr =  1.00E-02,  avg # of iterations =  7.0

     negative rho (up, down):  1.533E-03 0.000E+00

     total energy              =   -1222.30430216 Ry
     estimated scf accuracy    <      94.98522778 Ry

[...]

     total energy              =   -1298.08884681 Ry
     estimated scf accuracy    <       0.00000222 Ry

     iteration # 34     ecut=    30.00 Ry     beta= 0.70
     Davidson diagonalization with overlap

     ethr =  1.20E-09,  avg # of iterations =  2.0

[...]

     End of self-consistent calculation

          k = 0.0000 0.0000 0.0000 (  2040 PWs)   bands (ev):

   -83.5329 -75.5911 -47.0708 -46.7092 -46.6241 -46.0365 -46.0274 -45.9369
   -45.9298 -41.4273 -41.1343 -41.0600 -22.5031 -22.4257 -22.3484 -22.2932
   -22.2742 -22.2701 -22.2292 -22.2216 -22.1697 -22.1499 -22.1409 -22.1297
    -3.4584  -1.6816  -1.5864  -1.5494  -1.3786  -1.3558  -1.1521  -1.0470
     4.4208   5.2004   5.2511   5.5921   5.9023   6.0411   6.2410   6.8022
     7.1708   7.3875   7.4198   7.4783   7.5152   7.7197   7.7722   7.9938
     8.0089   8.4330   8.7764   8.8255   8.8334   9.5498  10.1044  10.2839
    10.3874  10.5816  10.6877  10.7648  10.8212  10.8781  10.9353  11.1476
    11.4463  11.5818  12.0412  12.2647  12.3539  12.4562  12.5562  12.6067
    12.7788  13.0926  13.3492  13.3700  13.4615  13.5656

     occupation numbers
     1.0000   1.0000   1.0000   1.0000   1.0000   1.0000   1.0000   1.0000
     1.0000   1.0000   1.0000   1.0000   1.0000   1.0000   1.0000   1.0000
     1.0000   1.0000   1.0000   1.0000   1.0000   1.0000   1.0000   1.0000
     1.0000   1.0000   1.0000   1.0000   1.0000   1.0000   1.0000   1.0000
     1.0000   1.0000   1.0000   1.0000   1.0000   1.0000   1.0000   1.0000
     1.0000   1.0000   1.0000   1.0000   1.0000   1.0000   1.0000   1.0000
     1.0000   1.0000   1.0000   1.0000   1.0000   1.0000   1.0000   1.0000
     1.0000   1.0000   1.0000   1.0000   1.0000   1.0000   1.0000   1.0000
     0.5000  -0.0000  -0.0000  -0.0000  -0.0000  -0.0000  -0.0000  -0.0000
    -0.0000  -0.0000  -0.0000  -0.0000  -0.0000  -0.0000

     the Fermi energy is    11.4463 ev

!    total energy              =   -1298.08884610 Ry
     estimated scf accuracy    <       0.00000096 Ry
     smearing contrib. (-TS)   =      -0.00028209 Ry
     internal energy E=F+TS    =   -1298.08856401 Ry

     The total energy is F=E-TS. E is the sum of the following terms:
     one-electron contribution =    -648.50913110 Ry
     hartree contribution      =     381.87774964 Ry
     xc contribution           =    -208.04004937 Ry
     ewald contribution        =    -747.34452639 Ry
     one-center paw contrib.   =     -76.07260678 Ry
      -> PAW hartree energy AE =     213.60540501 Ry
      -> PAW hartree energy PS =    -212.82050091 Ry
      -> PAW xc energy AE      =    -111.31218556 Ry
      -> PAW xc energy PS      =      34.45467467 Ry
      -> total E_H with PAW    =     382.66265374 Ry
      -> total E_XC with PAW   =    -284.89756025 Ry

     convergence has been achieved in  34 iterations

     negative rho (up, down):  3.113E-03 0.000E+00

     Forces acting on atoms (cartesian axes, Ry/au):

     atom    1 type  1   force =     0.00042054   -0.01385033   -0.00266852
     atom    2 type  1   force =    -0.00042054    0.01385033    0.00266852
     atom    3 type  1   force =     0.00251550   -0.02142324    0.00550278
     atom    4 type  1   force =    -0.00251550    0.02142324   -0.00550278
     atom    5 type  2   force =     0.00000000    0.00000000    0.00000000
     atom    6 type  3   force =     0.00000000    0.00000000    0.00000000
     atom    7 type  4   force =    -0.00685754   -0.00937538    0.00874167
     atom    8 type  4   force =    -0.00828028    0.02015981    0.00490669
     atom    9 type  4   force =    -0.01270076    0.01122367   -0.02489375
     atom   10 type  4   force =    -0.02461023    0.00024469   -0.00498575
     atom   11 type  4   force =     0.01270076   -0.01122367    0.02489375
     atom   12 type  4   force =     0.00828028   -0.02015981   -0.00490669
     atom   13 type  4   force =     0.00685754    0.00937538   -0.00874167
     atom   14 type  4   force =     0.02461023   -0.00024469    0.00498575
     The non-local contrib.  to forces
     atom    1 type  1   force =     0.01702615    0.01297848    0.00777288
     atom    2 type  1   force =    -0.01702615   -0.01297848   -0.00777288
     atom    3 type  1   force =     0.01786112    0.01810611   -0.00668485
     atom    4 type  1   force =    -0.01786112   -0.01810611    0.00668485
     atom    5 type  2   force =     0.00000000    0.00000000    0.00000000
     atom    6 type  3   force =     0.00000000    0.00000000    0.00000000
     atom    7 type  4   force =     0.07302173   -0.01203528    0.06222880
     atom    8 type  4   force =    -0.06147218    0.08044715   -0.00217291
     atom    9 type  4   force =     0.07801486    0.01851477   -0.03145462
     atom   10 type  4   force =    -0.10779855    0.05953528   -0.01408033
     atom   11 type  4   force =    -0.07801486   -0.01851477    0.03145462
     atom   12 type  4   force =     0.06147218   -0.08044715    0.00217291
     atom   13 type  4   force =    -0.07302173    0.01203528   -0.06222880
     atom   14 type  4   force =     0.10779855   -0.05953528    0.01408033
     The ionic contribution  to forces
     atom    1 type  1   force =     1.35903693   -7.23261162   -2.39964396
     atom    2 type  1   force =    -1.35903693    7.23261162    2.39964396
     atom    3 type  1   force =     1.24342119   -7.12884093   -1.86144484
     atom    4 type  1   force =    -1.24342119    7.12884094    1.86144484
     atom    5 type  2   force =     0.00000000    0.00000000    0.00000000
     atom    6 type  3   force =     0.00000000    0.00000000   -0.00000000
     atom    7 type  4   force =    -6.08282498    0.64814882    0.09435002
     atom    8 type  4   force =     6.53166118   -3.59966745   -1.13713149
     atom    9 type  4   force =    -6.10012099    0.77470829    0.40749414
     atom   10 type  4   force =     6.66284255   -3.60558276   -1.08935167
     atom   11 type  4   force =     6.10012099   -0.77470829   -0.40749414
     atom   12 type  4   force =    -6.53166118    3.59966745    1.13713149
     atom   13 type  4   force =     6.08282498   -0.64814882   -0.09435002
     atom   14 type  4   force =    -6.66284255    3.60558276    1.08935167
     The local contribution  to forces
     atom    1 type  1   force =    -1.37875038    7.20440019    2.38898598
     atom    2 type  1   force =     1.37877319   -7.20437639   -2.38908857
     atom    3 type  1   force =    -1.26078935    7.08941016    1.87368823
     atom    4 type  1   force =     1.26082257   -7.08945828   -1.87359464
     atom    5 type  2   force =    -0.00012570   -0.00007893    0.00002597
     atom    6 type  3   force =    -0.00022117   -0.00013155   -0.00009070
     atom    7 type  4   force =     6.00675980   -0.64650023   -0.14475526
     atom    8 type  4   force =    -6.48152825    3.54327719    1.14377033
     atom    9 type  4   force =     6.01353710   -0.78140590   -0.40238282
     atom   10 type  4   force =    -6.58522663    3.54909038    1.09757948
     atom   11 type  4   force =    -6.01369120    0.78133682    0.40235806
     atom   12 type  4   force =     6.48169428   -3.54316655   -1.14373608
     atom   13 type  4   force =    -6.00692753    0.64645143    0.14473652
     atom   14 type  4   force =     6.58541302   -3.54899872   -1.09758354
     The core correction contribution to forces
     atom    1 type  1   force =     0.00321795    0.00120276   -0.00024436
     atom    2 type  1   force =    -0.00321822   -0.00120241    0.00024383
     atom    3 type  1   force =     0.00196265    0.00030954    0.00048075
     atom    4 type  1   force =    -0.00196255   -0.00031013   -0.00048036
     atom    5 type  2   force =    -0.00000069   -0.00000042    0.00000048
     atom    6 type  3   force =     0.00000034   -0.00000004   -0.00000004
     atom    7 type  4   force =    -0.00378313    0.00095010   -0.00376482
     atom    8 type  4   force =     0.00283248   -0.00409687    0.00027204
     atom    9 type  4   force =    -0.00406021   -0.00093381    0.00201593
     atom   10 type  4   force =     0.00571707   -0.00267185    0.00098765
     atom   11 type  4   force =     0.00405973    0.00093495   -0.00201684
     atom   12 type  4   force =    -0.00283182    0.00409865   -0.00027284
     atom   13 type  4   force =     0.00378287   -0.00095019    0.00376576
     atom   14 type  4   force =    -0.00571629    0.00267285   -0.00098696
     The Hubbard contrib.    to forces
     atom    1 type  1   force =     0.00000000    0.00000000    0.00000000
     atom    2 type  1   force =     0.00000000    0.00000000    0.00000000
     atom    3 type  1   force =     0.00000000    0.00000000    0.00000000
     atom    4 type  1   force =     0.00000000    0.00000000    0.00000000
     atom    5 type  2   force =     0.00000000    0.00000000    0.00000000
     atom    6 type  3   force =     0.00000000    0.00000000    0.00000000
     atom    7 type  4   force =     0.00000000    0.00000000    0.00000000
     atom    8 type  4   force =     0.00000000    0.00000000    0.00000000
     atom    9 type  4   force =     0.00000000    0.00000000    0.00000000
     atom   10 type  4   force =     0.00000000    0.00000000    0.00000000
     atom   11 type  4   force =     0.00000000    0.00000000    0.00000000
     atom   12 type  4   force =     0.00000000    0.00000000    0.00000000
     atom   13 type  4   force =     0.00000000    0.00000000    0.00000000
     atom   14 type  4   force =     0.00000000    0.00000000    0.00000000
     The SCF correction term to forces
     atom    1 type  1   force =    -0.00010876    0.00017655    0.00045780
     atom    2 type  1   force =     0.00008893   -0.00020732   -0.00036096
     atom    3 type  1   force =     0.00006001   -0.00040843   -0.00053943
     atom    4 type  1   force =    -0.00009311    0.00045651    0.00043962
     atom    5 type  2   force =     0.00015485    0.00009954   -0.00003854
     atom    6 type  3   force =     0.00024972    0.00014745    0.00010077
     atom    7 type  4   force =    -0.00003964    0.00005983    0.00068950
     atom    8 type  4   force =     0.00023557    0.00021550    0.00016013
     atom    9 type  4   force =    -0.00007617    0.00034551   -0.00057493
     atom   10 type  4   force =    -0.00013390   -0.00011624   -0.00011593
     atom   11 type  4   force =     0.00022144   -0.00026718    0.00058351
     atom   12 type  4   force =    -0.00038411   -0.00029651   -0.00021076
     atom   13 type  4   force =     0.00019027   -0.00001371   -0.00065857
     atom   14 type  4   force =    -0.00003174    0.00004381    0.00012918

     Total force =     0.076716     Total SCF correction =     0.001943

     Computing stress (Cartesian axis) and pressure

     negative rho (up, down):  3.113E-03 0.000E+00
          total   stress  (Ry/bohr**3)                   (kbar)     P=      -43.93
  -0.00061199   0.00013428   0.00010369          -90.03       19.75       15.25
   0.00013428  -0.00027292   0.00012040           19.75      -40.15       17.71
   0.00010369   0.00012040  -0.00001099           15.25       17.71       -1.62

     kinetic stress (kbar)  17046.09     55.84      4.26
                               55.84  17109.11      6.23
                                4.26      6.23  17224.62

     local   stress (kbar)   7172.53  -1652.22   -470.06
                            -1652.22 -10598.17   -360.69
                             -470.06   -360.69  -9936.97

     nonloc. stress (kbar)   5120.70     18.55     -2.56
                               18.55   5094.44     17.96
                               -2.56     17.96   5169.81

     hartree stress (kbar)   7525.78    715.41    207.62
                              715.41  15402.51     54.81
                              207.62     54.81  15392.33

     exc-cor stress (kbar)     76.80      1.22      0.06
                                1.22     80.97      1.37
                                0.06      1.37     77.78

     corecor stress (kbar)  -5696.80     -1.40      0.27
                               -1.40  -5696.82     -0.78
                                0.27     -0.78  -5702.05

     ewald   stress (kbar) -31335.14    882.36    275.67
                              882.36 -21432.18    298.81
                              275.67    298.81 -22227.13

     hubbard stress (kbar)      0.00      0.00      0.00
                                0.00      0.00      0.00
                                0.00      0.00      0.00

     DFT-D   stress (kbar)      0.00      0.00      0.00
                                0.00      0.00      0.00
                                0.00      0.00      0.00

     XDM     stress (kbar)      0.00      0.00      0.00
                                0.00      0.00      0.00
                                0.00      0.00      0.00

     dft-nl  stress (kbar)      0.00      0.00      0.00
                                0.00      0.00      0.00
                                0.00      0.00      0.00

     TS-vdW  stress (kbar)      0.00      0.00      0.00
                                0.00      0.00      0.00
                                0.00      0.00      0.00

[...]

                                0.00      0.00      0.00

     Writing all to output data dir new_calculations/myprefix.save/

     General routines

     Parallel routines

     PAW routines

   This run was terminated on:  12:33: 0  20May2023

   JOB DONE.