     Program PWSCF v.7.0 starts on 20May2023 at 19:30:27

     Reading input from espresso_18549.pwi
Warning: card &CELL ignored
Warning: card / ignored

     Current dimensions of program PWSCF are:
     Max number of different atomic species (ntypx) = 10
     Max number of k-points (npk) =  40000
     Max angular momentum in pseudopotentials (lmaxx) =  4

     gamma-point specific algorithms are used
     Message from routine setup:
     using ibrav=0 with symmetry is DISCOURAGED, use correct ibrav instead

     Subspace diagonalization in iterative solution of the eigenvalue problem:
     a serial algorithm will be used

     Using Slab Decomposition

     bravais-lattice index     =            0
     lattice parameter (alat)  =      14.9594  a.u.
     unit-cell volume          =    2168.3968 (a.u.)^3
     number of atoms/cell      =           12
     number of atomic types    =            2
     number of electrons       =        90.00
     number of Kohn-Sham states=           54
     kinetic-energy cutoff     =      30.0000  Ry
     charge density cutoff     =     240.0000  Ry
     scf convergence threshold =      1.0E-06
     mixing beta               =       0.7000
     number of iterations used =            8  plain     mixing
     Exchange-correlation= PBE
                           (   1   4   3   4   0   0   0)

     celldm(1)=  14.959375  celldm(2)=   0.000000  celldm(3)=   0.000000
     celldm(4)=   0.000000  celldm(5)=   0.000000  celldm(6)=   0.000000

     crystal axes: (cart. coord. in units of alat)
               a(1) = (   1.000000   0.000000   0.000000 )
               a(2) = (  -0.500000   0.866025   0.000000 )
               a(3) = (   0.000000   0.000000   0.747942 )

     reciprocal axes: (cart. coord. in units 2 pi/alat)
               b(1) = (  1.000000  0.577350  0.000000 )
               b(2) = (  0.000000  1.154701  0.000000 )
               b(3) = (  0.000000  0.000000  1.337002 )

     PseudoPot. # 1 for Ca read from file:
     /home/pragov/projects/rrg-bengioy-ad/pragov/crystal_structure_design/SSSP/Ca_pbe_v1.uspp.F.UPF
     MD5 check sum: 403a4c14b9e4d4dfdc3024c9a3812218
     Pseudo is Ultrasoft + core correction, Zval = 10.0
     Generated by new atomic code, or converted to UPF format
     Using radial grid of  845 points,  6 beta functions with:
                l(1) =   0
                l(2) =   0
                l(3) =   1
                l(4) =   1
                l(5) =   2
                l(6) =   2
     Q(r) pseudized with  8 coefficients,  rinner =    1.500   1.500   1.500
                                                       1.500   1.500

     PseudoPot. # 2 for As read from file:
     /home/pragov/projects/rrg-bengioy-ad/pragov/crystal_structure_design/SSSP/As.pbe-n-rrkjus_psl.0.2.UPF
     MD5 check sum: 767315de957beeeb34f87d97bf945c8f
     Pseudo is Ultrasoft + core correction, Zval =  5.0
     Generated using "atomic" code by A. Dal Corso  v.5.0.99 svn rev. 10869
     Using radial grid of 1209 points,  4 beta functions with:
                l(1) =   0
                l(2) =   0
                l(3) =   1
                l(4) =   1
     Q(r) pseudized with 0 coefficients

     atomic species   valence    mass     pseudopotential
        Ca            10.00    40.07800     Ca( 1.00)
        As             5.00    74.92159     As( 1.00)

     12 Sym. Ops. (no inversion) found

                                    s                        frac. trans.

      isym =  1     identity

 cryst.   s( 1) = (     1          0          0      )
                  (     0          1          0      )
                  (     0          0          1      )

 cart.    s( 1) = (  1.0000000 -0.0000000  0.0000000 )
                  (  0.0000000  1.0000000  0.0000000 )
                  (  0.0000000  0.0000000  1.0000000 )

      isym =  2     180 deg rotation - cart. axis [1,0,0]

[...]

      isym =  3     120 deg rotation - cryst. axis [0,0,1]

[...]

      isym =  6     180 deg rotation - cryst. axis [1,1,0]

[...]

      isym =  7     inv. 180 deg rotation - cart. axis [0,0,1]

[...]

      isym =  8     inv. 180 deg rotation - cart. axis [0,1,0]

[...]

      isym =  9     inv.  60 deg rotation - cryst. axis [0,0,1]

 cryst.   s( 9) = (    -1         -1          0      )
                  (     1          0          0      )
                  (     0          0         -1      )

 cart.    s( 9) = ( -0.5000000  0.8660254  0.0000000 )
                  ( -0.8660254 -0.5000000  0.0000000 )
                  (  0.0000000  0.0000000 -1.0000000 )

[...]

 cryst.   s(10) = (     0          1          0      )
                  (    -1         -1          0      )
                  (     0          0         -1      )

 cart.    s(10) = ( -0.5000000 -0.8660254  0.0000000 )
                  (  0.8660254 -0.5000000  0.0000000 )
                  (  0.0000000  0.0000000 -1.0000000 )

[...]

      isym = 12     inv. 180 deg rotation - cryst. axis [2,1,0]

 cryst.   s(12) = (    -1         -1          0      )
                  (     0          1          0      )
                  (     0          0          1      )

 cart.    s(12) = ( -0.5000000 -0.8660255  0.0000000 )
                  ( -0.8660254  0.5000000  0.0000000 )
                  (  0.0000000  0.0000000  1.0000000 )

   Cartesian axes

     site n.     atom                  positions (alat units)
         1           Ca  tau(   1) = (   0.3169410   0.0000000   0.0000000  )
         2           Ca  tau(   2) = (   0.3415295   0.5915464   0.0000000  )
         3           Ca  tau(   3) = (   0.8415295   0.2744790   0.0000000  )
         4           Ca  tau(   4) = (   0.6508230   0.0000000   0.3739709  )
         5           Ca  tau(   5) = (   0.1745885   0.3023961   0.3739709  )
         6           Ca  tau(   6) = (   0.6745885   0.5636292   0.3739709  )
         7           As  tau(   7) = (   0.0000000   0.0000000   0.2138223  )
         8           As  tau(   8) = (   0.0000000   0.0000000   0.5341194  )
         9           As  tau(   9) = (  -0.0000005   0.5773505   0.1637028  )
        10           As  tau(  10) = (  -0.0000005   0.5773505   0.5842390  )
        11           As  tau(  11) = (   0.5000005   0.2886748   0.5842390  )
        12           As  tau(  12) = (   0.5000005   0.2886748   0.1637028  )

   Crystallographic axes

     site n.     atom                  positions (cryst. coord.)
         1           Ca  tau(   1) = (  0.3169410  0.0000000  0.0000000  )
         2           Ca  tau(   2) = (  0.6830590  0.6830590  0.0000000  )
         3           Ca  tau(   3) = (  1.0000000  0.3169410  0.0000000  )
         4           Ca  tau(   4) = (  0.6508230  0.0000000  0.5000000  )
         5           Ca  tau(   5) = (  0.3491770  0.3491770  0.5000000  )
         6           Ca  tau(   6) = (  1.0000000  0.6508230  0.5000000  )
         7           As  tau(   7) = (  0.0000000  0.0000000  0.2858810  )
         8           As  tau(   8) = (  0.0000000  0.0000000  0.7141190  )
         9           As  tau(   9) = (  0.3333330  0.6666670  0.2188710  )
        10           As  tau(  10) = (  0.3333330  0.6666670  0.7811290  )
        11           As  tau(  11) = (  0.6666670  0.3333330  0.7811290  )
        12           As  tau(  12) = (  0.6666670  0.3333330  0.2188710  )

     number of k points=     1  Methfessel-Paxton smearing, width (Ry)=  0.0010
                       cart. coord. in units 2pi/alat
        k(    1) = (   0.0000000   0.0000000   0.0000000), wk =   2.0000000

                       cryst. coord.
        k(    1) = (   0.0000000   0.0000000   0.0000000), wk =   2.0000000

     Initial potential from superposition of free atoms

     starting charge      89.9658, renormalised to      90.0000
     Starting wfcs are   84 randomized atomic wfcs

     Self-consistent Calculation

     iteration #  1     ecut=    30.00 Ry     beta= 0.70
     Davidson diagonalization with overlap

     ethr =  1.00E-02,  avg # of iterations =  2.0

     Threshold (ethr) on eigenvalues was too large:
     Diagonalizing with lowered threshold

     Davidson diagonalization with overlap

[...]

     total energy              =    -559.79037269 Ry
     estimated scf accuracy    <       0.32366720 Ry

[...]

     total energy              =    -559.84635641 Ry
     estimated scf accuracy    <       0.00000164 Ry

     iteration #  8     ecut=    30.00 Ry     beta= 0.70
     Davidson diagonalization with overlap

     ethr =  1.82E-09,  avg # of iterations =  4.0

     End of self-consistent calculation

          k = 0.0000 0.0000 0.0000 (  3001 PWs)   bands (ev):

   -34.2538 -34.2522 -34.2519 -34.0677 -34.0662 -34.0657 -15.3371 -15.3328
   -15.3197 -15.3195 -15.2968 -15.2966 -15.2527 -15.2260 -15.2257 -15.1528
   -15.1523 -15.1471 -15.1468 -15.1219 -15.1216 -15.0593 -15.0588 -15.0482
    -4.9109  -4.5148  -4.4331  -1.8814  -1.8419  -1.8259   2.2171   2.6630
     2.7822   3.4802   3.4803   3.5000   3.5000   4.5761   4.5761   5.5207
     5.5207   5.5540   5.5541   6.8180   6.8180   7.7358   8.4526   8.4527
     8.5735   8.5736   9.2186   9.2186   9.3805   9.3806

     occupation numbers
     1.0000   1.0000   1.0000   1.0000   1.0000   1.0000   1.0000   1.0000
     1.0000   1.0000   1.0000   1.0000   1.0000   1.0000   1.0000   1.0000
     1.0000   1.0000   1.0000   1.0000   1.0000   1.0000   1.0000   1.0000
     1.0000   1.0000   1.0000   1.0000   1.0000   1.0000   1.0000   1.0000
     1.0000   1.0000   1.0000   1.0000   1.0000   1.0000   1.0000   1.0000
     1.0000   1.0000   1.0000   1.0000   1.0000  -0.0000  -0.0000  -0.0000
    -0.0000  -0.0000  -0.0000  -0.0000  -0.0000  -0.0000

     the Fermi energy is     7.4585 ev

!    total energy              =    -559.84635699 Ry
     estimated scf accuracy    <       0.00000025 Ry
     smearing contrib. (-TS)   =       0.00000000 Ry
     internal energy E=F+TS    =    -559.84635699 Ry

     The total energy is F=E-TS. E is the sum of the following terms:
     one-electron contribution =    -191.30644708 Ry
     hartree contribution      =     119.12763598 Ry
     xc contribution           =    -127.11397028 Ry
     ewald contribution        =    -360.55357561 Ry

     convergence has been achieved in   8 iterations

     Forces acting on atoms (cartesian axes, Ry/au):

     atom    1 type  1   force =     0.00188359    0.00000000   -0.00000000
     atom    2 type  1   force =    -0.00094179   -0.00163123    0.00000000
     atom    3 type  1   force =    -0.00094179    0.00163123   -0.00000000
     atom    4 type  1   force =     0.00173824    0.00000000    0.00000000
     atom    5 type  1   force =    -0.00086912   -0.00150536   -0.00000000
     atom    6 type  1   force =    -0.00086912    0.00150536   -0.00000000
     atom    7 type  2   force =     0.00000000   -0.00000000   -0.05226471
     atom    8 type  2   force =     0.00000000    0.00000000    0.05226471
     atom    9 type  2   force =     0.00000000    0.00000000    0.04954175
     atom   10 type  2   force =     0.00000000   -0.00000000   -0.04954175
     atom   11 type  2   force =    -0.00000000    0.00000000   -0.04954175
     atom   12 type  2   force =    -0.00000000   -0.00000000    0.04954175
     The non-local contrib.  to forces
     atom    1 type  1   force =    -0.00769434   -0.00000000    0.00000000
     atom    2 type  1   force =     0.00384717    0.00666349    0.00000000
     atom    3 type  1   force =     0.00384717   -0.00666349   -0.00000000
     atom    4 type  1   force =    -0.00776185   -0.00000000    0.00000000
     atom    5 type  1   force =     0.00388092    0.00672196   -0.00000000
     atom    6 type  1   force =     0.00388092   -0.00672196    0.00000000
     atom    7 type  2   force =     0.00000000   -0.00000000    0.06915590
     atom    8 type  2   force =     0.00000000    0.00000000   -0.06915590
     atom    9 type  2   force =     0.00000000    0.00000000   -0.05578697
     atom   10 type  2   force =    -0.00000000   -0.00000000    0.05578697
     atom   11 type  2   force =    -0.00000000   -0.00000000    0.05578697
     atom   12 type  2   force =    -0.00000000   -0.00000000   -0.05578697
     The ionic contribution  to forces
     atom    1 type  1   force =    -0.26507994    0.00001989   -0.00000000
     atom    2 type  1   force =     0.13252236    0.22953548   -0.00000000
     atom    3 type  1   force =     0.13255720   -0.22955601   -0.00000000
     atom    4 type  1   force =    -0.34282538   -0.00001519    0.00000000
     atom    5 type  1   force =     0.17142616    0.29691883    0.00000000
     atom    6 type  1   force =     0.17139955   -0.29690308    0.00000000
     atom    7 type  2   force =    -0.00000002   -0.00000003   -0.34167569
     atom    8 type  2   force =    -0.00000002   -0.00000003    0.34167569
     atom    9 type  2   force =     0.00001764   -0.00001014    0.64621952
     atom   10 type  2   force =     0.00001764   -0.00001014   -0.64621952
     atom   11 type  2   force =    -0.00001760    0.00001021   -0.64621952
     atom   12 type  2   force =    -0.00001760    0.00001021    0.64621952
     The local contribution  to forces
     atom    1 type  1   force =     0.27405100   -0.00023365   -0.00002957
     atom    2 type  1   force =    -0.13687032   -0.23711299    0.00001048
     atom    3 type  1   force =    -0.13716637    0.23729224   -0.00001352
     atom    4 type  1   force =     0.35283696   -0.00017232   -0.00001157
     atom    5 type  1   force =    -0.17620291   -0.30499642    0.00006762
     atom    6 type  1   force =    -0.17654379    0.30520630   -0.00001949
     atom    7 type  2   force =    -0.00015311   -0.00017118    0.22526972
     atom    8 type  2   force =    -0.00014403   -0.00015124   -0.22526422
     atom    9 type  2   force =     0.00007725    0.00002827   -0.54377390
     atom   10 type  2   force =     0.00007721    0.00002966    0.54377092
     atom   11 type  2   force =     0.00006424    0.00014057    0.54377215
     atom   12 type  2   force =     0.00007465    0.00014185   -0.54376699
     The core correction contribution to forces
     atom    1 type  1   force =    -0.00003935   -0.00000271   -0.00000036
     atom    2 type  1   force =     0.00002196    0.00003695   -0.00000020
     atom    3 type  1   force =     0.00001935   -0.00003446   -0.00000025
     atom    4 type  1   force =     0.00002141   -0.00000135    0.00000014
     atom    5 type  1   force =    -0.00000888   -0.00001392    0.00000178
     atom    6 type  1   force =    -0.00001125    0.00001439   -0.00000058
     atom    7 type  2   force =    -0.00000360   -0.00000467   -0.00510177
     atom    8 type  2   force =    -0.00000280   -0.00000288    0.00510275
     atom    9 type  2   force =     0.00000219    0.00000050    0.00308735
     atom   10 type  2   force =     0.00000203    0.00000121   -0.00308735
     atom   11 type  2   force =     0.00000042    0.00000369   -0.00308735
     atom   12 type  2   force =     0.00000100    0.00000359    0.00308818
     The Hubbard contrib.    to forces
     atom    1 type  1   force =     0.00000000    0.00000000    0.00000000
     atom    2 type  1   force =     0.00000000    0.00000000    0.00000000
     atom    3 type  1   force =     0.00000000    0.00000000    0.00000000
     atom    4 type  1   force =     0.00000000    0.00000000    0.00000000
     atom    5 type  1   force =     0.00000000    0.00000000    0.00000000
     atom    6 type  1   force =     0.00000000    0.00000000    0.00000000
     atom    7 type  2   force =     0.00000000    0.00000000    0.00000000
     atom    8 type  2   force =     0.00000000    0.00000000    0.00000000
     atom    9 type  2   force =     0.00000000    0.00000000    0.00000000
     atom   10 type  2   force =     0.00000000    0.00000000    0.00000000
     atom   11 type  2   force =     0.00000000    0.00000000    0.00000000
     atom   12 type  2   force =     0.00000000    0.00000000    0.00000000
     The SCF correction term to forces
     atom    1 type  1   force =     0.00065564    0.00020298    0.00002367
     atom    2 type  1   force =    -0.00045247   -0.00074014   -0.00000994
     atom    3 type  1   force =    -0.00020085    0.00060119    0.00001151
     atom    4 type  1   force =    -0.00051208    0.00019548    0.00001144
     atom    5 type  1   force =     0.00004006   -0.00012913   -0.00005432
     atom    6 type  1   force =     0.00040487   -0.00010539    0.00002046
     atom    7 type  2   force =     0.00014428    0.00015850    0.00009047
     atom    8 type  2   force =     0.00013807    0.00014782   -0.00009026
     atom    9 type  2   force =    -0.00008773   -0.00001776   -0.00020551
     atom   10 type  2   force =    -0.00008775   -0.00001531    0.00020883
     atom   11 type  2   force =    -0.00004794   -0.00013827    0.00020684
     atom   12 type  2   force =    -0.00005521   -0.00014030   -0.00020831

     Total force =     0.123695     Total SCF correction =     0.001568

     Computing stress (Cartesian axis) and pressure

          total   stress  (Ry/bohr**3)                   (kbar)     P=       -5.77
  -0.00009654  -0.00000000   0.00000000          -14.20       -0.00        0.00
  -0.00000000  -0.00009654   0.00000000           -0.00      -14.20        0.00
   0.00000000   0.00000000   0.00007535            0.00        0.00       11.08

     kinetic stress (kbar)   6983.03      0.00     -0.00
                                0.00   6983.04     -0.00
                               -0.00     -0.00   6843.94

     local   stress (kbar)  -1729.35      0.01      0.00
                                0.01  -1729.34     -0.00
                                0.00     -0.00  -1605.47

     nonloc. stress (kbar)   2331.91      0.00     -0.00
                                0.00   2331.91      0.00
                               -0.00      0.00   2349.33

     hartree stress (kbar)   2706.24     -0.00     -0.00
                               -0.00   2706.24      0.00
                               -0.00      0.00   2669.20

     exc-cor stress (kbar)   1028.96     -0.00      0.00
                               -0.00   1028.96      0.00
                                0.00      0.00   1027.56

     corecor stress (kbar)  -3167.61      0.00      0.00
                                0.00  -3167.61      0.00
                                0.00      0.00  -3148.15

     ewald   stress (kbar)  -8167.40     -0.00      0.00
                               -0.00  -8167.40     -0.00
                                0.00     -0.00  -8125.34

     hubbard stress (kbar)      0.00      0.00      0.00
                                0.00      0.00      0.00
                                0.00      0.00      0.00

     DFT-D   stress (kbar)      0.00      0.00      0.00
                                0.00      0.00      0.00
                                0.00      0.00      0.00

     XDM     stress (kbar)      0.00      0.00      0.00
                                0.00      0.00      0.00
                                0.00      0.00      0.00

     dft-nl  stress (kbar)      0.00      0.00      0.00
                                0.00      0.00      0.00
                                0.00      0.00      0.00

     TS-vdW  stress (kbar)      0.00      0.00      0.00
                                0.00      0.00      0.00
                                0.00      0.00      0.00

[...]

                                0.00      0.00      0.00

     Writing all to output data dir new_calculations/myprefix.save/

     General routines

     Parallel routines

   This run was terminated on:  19:30:46  20May2023

   JOB DONE.