     Program PWSCF v.7.0 starts on 20May2023 at 20:49:39

     Reading input from espresso_22223.pwi
Warning: card &CELL ignored
Warning: card / ignored

     Current dimensions of program PWSCF are:
     Max number of different atomic species (ntypx) = 10
     Max number of k-points (npk) =  40000
     Max angular momentum in pseudopotentials (lmaxx) =  4

     gamma-point specific algorithms are used
     Message from routine setup:
     using ibrav=0 with symmetry is DISCOURAGED, use correct ibrav instead

     Subspace diagonalization in iterative solution of the eigenvalue problem:
     a serial algorithm will be used

     Using Slab Decomposition

     bravais-lattice index     =            0
     lattice parameter (alat)  =      13.1531  a.u.
     unit-cell volume          =    3480.5164 (a.u.)^3
     number of atoms/cell      =           20
     number of atomic types    =            3
     number of electrons       =       188.00
     number of Kohn-Sham states=          113
     kinetic-energy cutoff     =      30.0000  Ry
     charge density cutoff     =     240.0000  Ry
     scf convergence threshold =      1.0E-06
     mixing beta               =       0.7000
     number of iterations used =            8  plain     mixing
     Exchange-correlation=  SLA  PW   PBX  PBC
                           (   1   4   3   4   0   0   0)

     celldm(1)=  13.153112  celldm(2)=   0.000000  celldm(3)=   0.000000
     celldm(4)=   0.000000  celldm(5)=   0.000000  celldm(6)=   0.000000

     crystal axes: (cart. coord. in units of alat)
               a(1) = (   1.000000   0.000000   0.000000 )
               a(2) = (   0.000000   1.043575   0.000000 )
               a(3) = (  -0.013267   0.000000   1.465665 )

     reciprocal axes: (cart. coord. in units 2 pi/alat)
               b(1) = (  1.000000  0.000000  0.009052 )
               b(2) = (  0.000000  0.958245  0.000000 )
               b(3) = (  0.000000  0.000000  0.682284 )

     PseudoPot. # 1 for Na read from file:
     /home/pragov/projects/rrg-bengioy-ad/pragov/crystal_structure_design/SSSP/na_pbe_v1.5.uspp.F.UPF
     MD5 check sum: 44600605ef58000f06b90626533354dc
     Pseudo is Ultrasoft, Zval =  9.0
     Generated by new atomic code, or converted to UPF format
     Using radial grid of  819 points,  5 beta functions with:
                l(1) =   0
                l(2) =   0
                l(3) =   1
                l(4) =   1
                l(5) =   2
     Q(r) pseudized with  8 coefficients,  rinner =    1.250   1.250   1.250
                                                       1.250   1.250

     PseudoPot. # 2 for Lu read from file:
     /home/pragov/projects/rrg-bengioy-ad/pragov/crystal_structure_design/SSSP/Lu.GGA-PBE-paw-v1.0.UPF
     MD5 check sum: 9ceca61ee0c17e9380a83635bfffa61d
     Pseudo is Projector augmented-wave + core cor, Zval = 25.0
     Generated using ATOMPAW code
     Shape of augmentation charge: BESSEL
     Using radial grid of 1118 points,  8 beta functions with:
                l(1) =   0
                l(2) =   0
                l(3) =   1
                l(4) =   1
                l(5) =   2
                l(6) =   2
                l(7) =   3
                l(8) =   3
     Q(r) pseudized with 0 coefficients

     PseudoPot. # 3 for Cl read from file:
     /home/pragov/projects/rrg-bengioy-ad/pragov/crystal_structure_design/SSSP/cl_pbe_v1.4.uspp.F.UPF
     MD5 check sum: fc6f6913ecf08c9257cb748ef0700058
     Pseudo is Ultrasoft + core correction, Zval =  7.0
     Generated by new atomic code, or converted to UPF format
     Using radial grid of  909 points,  6 beta functions with:
                l(1) =   0
                l(2) =   0
                l(3) =   1
                l(4) =   1
                l(5) =   2
                l(6) =   2
     Q(r) pseudized with  8 coefficients,  rinner =    1.300   1.300   1.300
                                                       1.300   1.300

     atomic species   valence    mass     pseudopotential
        Na             9.00    22.98977     Na( 1.00)
        Lu            25.00   174.96680     Lu( 1.00)
        Cl             7.00    35.45000     Cl( 1.00)

      4 Sym. Ops., with inversion, found ( 2 have fractional translation)

                                    s                        frac. trans.

      isym =  1     identity

 cryst.   s( 1) = (     1          0          0      )
                  (     0          1          0      )
                  (     0          0          1      )

 cart.    s( 1) = (  1.0000000  0.0000000 -0.0000000 )
                  (  0.0000000  1.0000000  0.0000000 )
                  (  0.0000000  0.0000000  1.0000000 )

      isym =  2     180 deg rotation - cart. axis [0,1,0]

 cryst.   s( 2) = (    -1          0          0      )    f =(  0.5000000 )
                  (     0          1          0      )       ( -0.5000000 )
                  (     0          0         -1      )       (  0.5000000 )

 cart.    s( 2) = ( -1.0000000  0.0000000  0.0000000 )    f =(  0.4933667 )
                  (  0.0000000  1.0000000  0.0000000 )       ( -0.5217873 )
                  (  0.0000000  0.0000000 -1.0000000 )       (  0.7328323 )

      isym =  3     inversion

 cryst.   s( 3) = (    -1          0          0      )
                  (     0         -1          0      )
                  (     0          0         -1      )

 cart.    s( 3) = ( -1.0000000  0.0000000  0.0000000 )
                  (  0.0000000 -1.0000000  0.0000000 )
                  (  0.0000000  0.0000000 -1.0000000 )

      isym =  4     inv. 180 deg rotation - cart. axis [0,1,0]

 cryst.   s( 4) = (     1          0          0      )    f =(  0.5000000 )
                  (     0         -1          0      )       (  0.5000000 )
                  (     0          0          1      )       (  0.5000000 )

 cart.    s( 4) = (  1.0000000  0.0000000 -0.0000000 )    f =(  0.4933667 )
                  (  0.0000000 -1.0000000  0.0000000 )       (  0.5217873 )
                  (  0.0000000  0.0000000  1.0000000 )       (  0.7328323 )

   Cartesian axes

     site n.     atom                  positions (alat units)
         1           Na  tau(   1) = (  -0.0066333   0.0000000   0.7328323  )
         2           Na  tau(   2) = (   0.5000000   0.5217873   0.0000000  )
         3           Na  tau(   3) = (   0.9822510   0.5825213   0.3786134  )
         4           Na  tau(   4) = (   0.0044825   0.4610534   1.0870512  )
         5           Na  tau(   5) = (   0.5111158   0.0607340   0.3542189  )
         6           Na  tau(   6) = (   0.4756177   0.9828407   1.1114457  )
         7           Lu  tau(   7) = (   0.0000000   0.0000000   0.0000000  )
         8           Lu  tau(   8) = (   0.4933667   0.5217873   0.7328323  )
         9           Cl  tau(   9) = (   0.8297953   0.3117512   0.1117686  )
        10           Cl  tau(  10) = (   0.1569382   0.7318234   1.3538959  )
        11           Cl  tau(  11) = (   0.6635714   0.8335385   0.6210636  )
        12           Cl  tau(  12) = (   0.3231621   0.2100361   0.8446009  )
        13           Cl  tau(  13) = (   0.1269760   0.9766189   0.3458001  )
        14           Cl  tau(  14) = (   0.8597575   0.0669557   1.1198645  )
        15           Cl  tau(  15) = (   0.3663908   0.4548316   0.3870322  )
        16           Cl  tau(  16) = (   0.6203427   0.5887431   1.0786324  )
        17           Cl  tau(  17) = (   0.6927976   0.8568958   0.0887636  )
        18           Cl  tau(  18) = (   0.2939359   0.1866788   1.3769010  )
        19           Cl  tau(  19) = (   0.8005692   0.3351085   0.6440687  )
        20           Cl  tau(  20) = (   0.1861643   0.7084661   0.8215959  )

   Crystallographic axes

     site n.     atom                  positions (cryst. coord.)
         1           Na  tau(   1) = (  0.0000000  0.0000000  0.5000000  )
         2           Na  tau(   2) = (  0.5000000  0.5000000  0.0000000  )
         3           Na  tau(   3) = (  0.9856780  0.5581980  0.2583220  )
         4           Na  tau(   4) = (  0.0143220  0.4418020  0.7416780  )
         5           Na  tau(   5) = (  0.5143220  0.0581980  0.2416780  )
         6           Na  tau(   6) = (  0.4856780  0.9418020  0.7583220  )
         7           Lu  tau(   7) = (  0.0000000  0.0000000  0.0000000  )
         8           Lu  tau(   8) = (  0.5000000  0.5000000  0.5000000  )
         9           Cl  tau(   9) = (  0.8308070  0.2987340  0.0762580  )
        10           Cl  tau(  10) = (  0.1691930  0.7012660  0.9237420  )
        11           Cl  tau(  11) = (  0.6691930  0.7987340  0.4237420  )
        12           Cl  tau(  12) = (  0.3308070  0.2012660  0.5762580  )
        13           Cl  tau(  13) = (  0.1301060  0.9358400  0.2359340  )
        14           Cl  tau(  14) = (  0.8698940  0.0641600  0.7640660  )
        15           Cl  tau(  15) = (  0.3698940  0.4358400  0.2640660  )
        16           Cl  tau(  16) = (  0.6301060  0.5641600  0.7359340  )
        17           Cl  tau(  17) = (  0.6936010  0.8211160  0.0605620  )
        18           Cl  tau(  18) = (  0.3063990  0.1788840  0.9394380  )
        19           Cl  tau(  19) = (  0.8063990  0.3211160  0.4394380  )
        20           Cl  tau(  20) = (  0.1936010  0.6788840  0.5605620  )

     number of k points=     1  Methfessel-Paxton smearing, width (Ry)=  0.0010
                       cart. coord. in units 2pi/alat
        k(    1) = (   0.0000000   0.0000000   0.0000000), wk =   2.0000000

                       cryst. coord.
        k(    1) = (   0.0000000   0.0000000   0.0000000), wk =   2.0000000

     Initial potential from superposition of free atoms

     starting charge     187.9546, renormalised to     188.0000

     negative rho (up, down):  1.790E-01 0.000E+00
     Starting wfcs are  142 randomized atomic wfcs
     Checking if some PAW data can be deallocated...

     Self-consistent Calculation

     iteration #  1     ecut=    30.00 Ry     beta= 0.70
     Davidson diagonalization with overlap

     ethr =  1.00E-02,  avg # of iterations =  5.0

     Threshold (ethr) on eigenvalues was too large:
     Diagonalizing with lowered threshold

     Davidson diagonalization with overlap

[...]

     negative rho (up, down):  1.853E-01 0.000E+00

     total energy              =   -3134.48926277 Ry
     estimated scf accuracy    <       0.66601928 Ry

[...]

     total energy              =   -3134.71494277 Ry
     estimated scf accuracy    <       0.00001864 Ry

     iteration #  7     ecut=    30.00 Ry     beta= 0.70
     Davidson diagonalization with overlap

     ethr =  9.91E-09,  avg # of iterations =  4.0

[...]

     End of self-consistent calculation

          k = 0.0000 0.0000 0.0000 (  4840 PWs)   bands (ev):

   -52.2852 -52.2849 -47.7990 -47.7988 -47.7987 -47.7986 -47.5231 -47.5227
   -22.9902 -22.9900 -22.9828 -22.9826 -22.9717 -22.9715 -19.7086 -19.7082
   -19.7078 -19.7073 -19.7028 -19.7027 -19.7026 -19.7020 -19.6900 -19.6899
   -19.6896 -19.6878 -19.4343 -19.4336 -19.4325 -19.4323 -19.4301 -19.4286
   -11.3493 -11.1570 -10.9689 -10.9424 -10.9256 -10.8913 -10.8854 -10.8683
   -10.8135 -10.8129 -10.7475 -10.7367  -0.9637  -0.8408  -0.8278  -0.8268
    -0.8253  -0.8171  -0.8141  -0.8131  -0.7729  -0.7711  -0.7689  -0.7642
    -0.7639  -0.7605  -0.7453  -0.7451  -0.4116  -0.3318  -0.1898  -0.1460
    -0.1021  -0.0592   0.0663   0.1468   0.2061   0.2345   0.2503   0.3152
     0.3404   0.4084   0.5835   0.5900   0.6259   0.7189   0.8238   0.9406
     1.0049   1.0275   1.2409   1.2994   1.3663   1.3695   1.4490   1.5039
     1.5257   1.5303   1.5364   1.5722   1.5754   1.7073   6.8433   7.3245
     7.4487   7.5656   7.6123   7.6234   7.6547   8.6794   8.8891   9.0507
     9.5470   9.5540   9.7048   9.8174   9.9634  10.0175  10.0486  10.1185
    10.2467

     occupation numbers
     1.0000   1.0000   1.0000   1.0000   1.0000   1.0000   1.0000   1.0000
     1.0000   1.0000   1.0000   1.0000   1.0000   1.0000   1.0000   1.0000
     1.0000   1.0000   1.0000   1.0000   1.0000   1.0000   1.0000   1.0000
     1.0000   1.0000   1.0000   1.0000   1.0000   1.0000   1.0000   1.0000
     1.0000   1.0000   1.0000   1.0000   1.0000   1.0000   1.0000   1.0000
     1.0000   1.0000   1.0000   1.0000   1.0000   1.0000   1.0000   1.0000
     1.0000   1.0000   1.0000   1.0000   1.0000   1.0000   1.0000   1.0000
     1.0000   1.0000   1.0000   1.0000   1.0000   1.0000   1.0000   1.0000
     1.0000   1.0000   1.0000   1.0000   1.0000   1.0000   1.0000   1.0000
     1.0000   1.0000   1.0000   1.0000   1.0000   1.0000   1.0000   1.0000
     1.0000   1.0000   1.0000   1.0000   1.0000   1.0000   1.0000   1.0000
     1.0000   1.0000   1.0000   1.0000   1.0000   1.0000  -0.0000  -0.0000
    -0.0000  -0.0000  -0.0000  -0.0000  -0.0000  -0.0000  -0.0000  -0.0000
    -0.0000  -0.0000  -0.0000  -0.0000  -0.0000  -0.0000  -0.0000  -0.0000
    -0.0000

     the Fermi energy is     2.5322 ev

!    total energy              =   -3134.71494979 Ry
     estimated scf accuracy    <       0.00000094 Ry
     smearing contrib. (-TS)   =       0.00000000 Ry
     internal energy E=F+TS    =   -3134.71494979 Ry

     The total energy is F=E-TS. E is the sum of the following terms:
     one-electron contribution =   -1749.81352983 Ry
     hartree contribution      =     851.44643351 Ry
     xc contribution           =    -282.95748379 Ry
     ewald contribution        =    -971.83698078 Ry
     one-center paw contrib.   =    -981.55338889 Ry
      -> PAW hartree energy AE =     979.41132025 Ry
      -> PAW hartree energy PS =    -842.26289390 Ry
      -> PAW xc energy AE      =   -1198.62215404 Ry
      -> PAW xc energy PS      =      79.92033880 Ry
      -> total E_H with PAW    =     988.59485986 Ry
      -> total E_XC with PAW   =   -1401.65929904 Ry

     convergence has been achieved in   7 iterations

     negative rho (up, down):  1.779E-01 0.000E+00

     Forces acting on atoms (cartesian axes, Ry/au):

     atom    1 type  1   force =     0.00000000    0.00000000    0.00000000
     atom    2 type  1   force =     0.00000000    0.00000000    0.00000000
     atom    3 type  1   force =    -0.00062744    0.00257115    0.00044734
     atom    4 type  1   force =     0.00062744   -0.00257115   -0.00044734
     atom    5 type  1   force =     0.00062744    0.00257115   -0.00044734
     atom    6 type  1   force =    -0.00062744   -0.00257115    0.00044734
     atom    7 type  2   force =    -0.00000000    0.00000000    0.00000000
     atom    8 type  2   force =     0.00000000   -0.00000000    0.00000000
     atom    9 type  3   force =     0.00495999    0.00406910    0.00405954
     atom   10 type  3   force =    -0.00495999   -0.00406910   -0.00405954
     atom   11 type  3   force =    -0.00495999    0.00406910   -0.00405954
     atom   12 type  3   force =     0.00495999   -0.00406910    0.00405954
     atom   13 type  3   force =    -0.00049373   -0.00088461    0.00276346
     atom   14 type  3   force =     0.00049373    0.00088461   -0.00276346
     atom   15 type  3   force =     0.00049373   -0.00088461   -0.00276346
     atom   16 type  3   force =    -0.00049373    0.00088461    0.00276346
     atom   17 type  3   force =    -0.00797641   -0.00014113    0.00045064
     atom   18 type  3   force =     0.00797641    0.00014113   -0.00045064
     atom   19 type  3   force =     0.00797641   -0.00014113   -0.00045064
     atom   20 type  3   force =    -0.00797641    0.00014113    0.00045064
     The non-local contrib.  to forces
     atom    1 type  1   force =    -0.00000000    0.00000000   -0.00000000
     atom    2 type  1   force =     0.00000000    0.00000000    0.00000000
     atom    3 type  1   force =    -0.04426997    0.08918526   -0.02440866
     atom    4 type  1   force =     0.04426997   -0.08918526    0.02440866
     atom    5 type  1   force =     0.04426997    0.08918526    0.02440866
     atom    6 type  1   force =    -0.04426997   -0.08918526   -0.02440866
     atom    7 type  2   force =     0.00000000    0.00000000    0.00000000
     atom    8 type  2   force =     0.00000000    0.00000000    0.00000000
     atom    9 type  3   force =     0.00843301   -0.04933557   -0.01605715
     atom   10 type  3   force =    -0.00843301    0.04933557    0.01605715
     atom   11 type  3   force =    -0.00843301   -0.04933557    0.01605715
     atom   12 type  3   force =     0.00843301    0.04933557   -0.01605715
     atom   13 type  3   force =    -0.01062995    0.00219987   -0.05364042
     atom   14 type  3   force =     0.01062995   -0.00219987    0.05364042
     atom   15 type  3   force =     0.01062995    0.00219987    0.05364042
     atom   16 type  3   force =    -0.01062995   -0.00219987   -0.05364042
     atom   17 type  3   force =     0.05589982    0.02662709   -0.01447164
     atom   18 type  3   force =    -0.05589982   -0.02662709    0.01447164
     atom   19 type  3   force =    -0.05589982    0.02662709    0.01447164
     atom   20 type  3   force =     0.05589982   -0.02662709   -0.01447164
     The ionic contribution  to forces
     atom    1 type  1   force =     0.00000000    0.00000000   -0.00000000
     atom    2 type  1   force =    -0.00000000    0.00000000    0.00000000
     atom    3 type  1   force =     0.28861971   -0.49395863   -0.84790750
     atom    4 type  1   force =    -0.28861970    0.49395863    0.84790750
     atom    5 type  1   force =    -0.28861970   -0.49395863    0.84790750
     atom    6 type  1   force =     0.28861970    0.49395863   -0.84790750
     atom    7 type  2   force =     0.00000000    0.00000000    0.00000000
     atom    8 type  2   force =    -0.00000000    0.00000000   -0.00000000
     atom    9 type  3   force =    -3.17576838    7.13756497    1.99786825
     atom   10 type  3   force =     3.17576838   -7.13756497   -1.99786825
     atom   11 type  3   force =     3.17576838    7.13756497   -1.99786825
     atom   12 type  3   force =    -3.17576838   -7.13756497    1.99786825
     atom   13 type  3   force =     2.92576113   -0.91526730    7.71686525
     atom   14 type  3   force =    -2.92576113    0.91526730   -7.71686525
     atom   15 type  3   force =    -2.92576113   -0.91526730   -7.71686525
     atom   16 type  3   force =     2.92576113    0.91526730    7.71686525
     atom   17 type  3   force =    -6.93543403   -4.83277401    1.76068490
     atom   18 type  3   force =     6.93543403    4.83277401   -1.76068490
     atom   19 type  3   force =     6.93543403   -4.83277401   -1.76068490
     atom   20 type  3   force =    -6.93543403    4.83277401    1.76068490
     The local contribution  to forces
     atom    1 type  1   force =     0.00001371   -0.00000326    0.00001437
     atom    2 type  1   force =     0.00001271   -0.00001039    0.00000658
     atom    3 type  1   force =    -0.24496170    0.40721948    0.87281448
     atom    4 type  1   force =     0.24497192   -0.40722648   -0.87280350
     atom    5 type  1   force =     0.24495848    0.40721317   -0.87281155
     atom    6 type  1   force =    -0.24495945   -0.40722532    0.87282069
     atom    7 type  2   force =    -0.00011366   -0.00003826    0.00014524
     atom    8 type  2   force =     0.00010541   -0.00006777   -0.00021869
     atom    9 type  3   force =     3.17158367   -7.08423298   -1.97778678
     atom   10 type  3   force =    -3.17157770    7.08424804    1.97778365
     atom   11 type  3   force =    -3.17159148   -7.08424583    1.97769411
     atom   12 type  3   force =     3.17151890    7.08414961   -1.97777680
     atom   13 type  3   force =    -2.91512874    0.91207319   -7.66027391
     atom   14 type  3   force =     2.91524110   -0.91199118    7.66030641
     atom   15 type  3   force =     2.91520032    0.91198185    7.66023676
     atom   16 type  3   force =    -2.91524823   -0.91198413   -7.66022263
     atom   17 type  3   force =     6.87156467    4.80576389   -1.74576809
     atom   18 type  3   force =    -6.87155640   -4.80578156    1.74580692
     atom   19 type  3   force =    -6.87158661    4.80583006    1.74576692
     atom   20 type  3   force =     6.87151026   -4.80570335   -1.74578724
     The core correction contribution to forces
     atom    1 type  1   force =     0.00000000    0.00000000    0.00000000
     atom    2 type  1   force =     0.00000000    0.00000000    0.00000000
     atom    3 type  1   force =     0.00000000    0.00000000    0.00000000
     atom    4 type  1   force =     0.00000000    0.00000000    0.00000000
     atom    5 type  1   force =     0.00000000    0.00000000    0.00000000
     atom    6 type  1   force =     0.00000000    0.00000000    0.00000000
     atom    7 type  2   force =    -0.00000000   -0.00000000    0.00000000
     atom    8 type  2   force =     0.00000000   -0.00000000   -0.00000000
     atom    9 type  3   force =     0.00028642    0.00054334    0.00020367
     atom   10 type  3   force =    -0.00028777   -0.00054287   -0.00020306
     atom   11 type  3   force =    -0.00028749    0.00054301   -0.00020514
     atom   12 type  3   force =     0.00028626   -0.00054345    0.00020417
     atom   13 type  3   force =    -0.00009466    0.00010899    0.00051789
     atom   14 type  3   force =     0.00009648   -0.00010719   -0.00051724
     atom   15 type  3   force =     0.00009627    0.00010741   -0.00051774
     atom   16 type  3   force =    -0.00009690   -0.00010739    0.00051793
     atom   17 type  3   force =    -0.00070071   -0.00010949    0.00017752
     atom   18 type  3   force =     0.00070096    0.00011007   -0.00017615
     atom   19 type  3   force =     0.00069986   -0.00010824   -0.00017617
     atom   20 type  3   force =    -0.00070116    0.00011101    0.00017671
     The Hubbard contrib.    to forces
     atom    1 type  1   force =     0.00000000    0.00000000    0.00000000
     atom    2 type  1   force =     0.00000000    0.00000000    0.00000000
     atom    3 type  1   force =     0.00000000    0.00000000    0.00000000
     atom    4 type  1   force =     0.00000000    0.00000000    0.00000000
     atom    5 type  1   force =     0.00000000    0.00000000    0.00000000
     atom    6 type  1   force =     0.00000000    0.00000000    0.00000000
     atom    7 type  2   force =     0.00000000    0.00000000    0.00000000
     atom    8 type  2   force =     0.00000000    0.00000000    0.00000000
     atom    9 type  3   force =     0.00000000    0.00000000    0.00000000
     atom   10 type  3   force =     0.00000000    0.00000000    0.00000000
     atom   11 type  3   force =     0.00000000    0.00000000    0.00000000
     atom   12 type  3   force =     0.00000000    0.00000000    0.00000000
     atom   13 type  3   force =     0.00000000    0.00000000    0.00000000
     atom   14 type  3   force =     0.00000000    0.00000000    0.00000000
     atom   15 type  3   force =     0.00000000    0.00000000    0.00000000
     atom   16 type  3   force =     0.00000000    0.00000000    0.00000000
     atom   17 type  3   force =     0.00000000    0.00000000    0.00000000
     atom   18 type  3   force =     0.00000000    0.00000000    0.00000000
     atom   19 type  3   force =     0.00000000    0.00000000    0.00000000
     atom   20 type  3   force =     0.00000000    0.00000000    0.00000000
     The SCF correction term to forces
     atom    1 type  1   force =    -0.00010573   -0.00000223    0.00002477
     atom    2 type  1   force =    -0.00004400    0.00002020   -0.00000462
     atom    3 type  1   force =    -0.00000251    0.00014390   -0.00002334
     atom    4 type  1   force =     0.00002501   -0.00008281    0.00004548
     atom    5 type  1   force =     0.00005616    0.00011475    0.00007051
     atom    6 type  1   force =     0.00002651   -0.00015217   -0.00005688
     atom    7 type  2   force =     0.00013918    0.00004054   -0.00020483
     atom    8 type  2   force =    -0.00011584    0.00011563    0.00022844
     atom    9 type  3   force =     0.00042503   -0.00047474   -0.00017615
     atom   10 type  3   force =    -0.00043395    0.00046415    0.00017132
     atom   11 type  3   force =    -0.00042492   -0.00045861    0.00025691
     atom   12 type  3   force =     0.00047782    0.00053994   -0.00017654
     atom   13 type  3   force =    -0.00038306    0.00001531   -0.00071404
     atom   14 type  3   force =     0.00028664   -0.00007547    0.00067753
     atom   15 type  3   force =     0.00031894    0.00008725    0.00074234
     atom   16 type  3   force =    -0.00030833   -0.00009188   -0.00074268
     atom   17 type  3   force =     0.00070054    0.00034927   -0.00016518
     atom   18 type  3   force =    -0.00069570   -0.00033232    0.00014091
     atom   19 type  3   force =    -0.00068180    0.00030131    0.00017705
     atom   20 type  3   force =     0.00073790   -0.00040020   -0.00014478

     Total force =     0.023440     Total SCF correction =     0.002683
     SCF correction compared to forces is large: reduce conv_thr to get better values

     Computing stress (Cartesian axis) and pressure

     negative rho (up, down):  1.779E-01 0.000E+00
          total   stress  (Ry/bohr**3)                   (kbar)     P=      -14.78
  -0.00011575   0.00000000   0.00000130          -17.03        0.00        0.19
   0.00000000  -0.00007987   0.00000000            0.00      -11.75        0.00
   0.00000130   0.00000000  -0.00010570            0.19        0.00      -15.55

     kinetic stress (kbar)   8159.46      0.00      1.85
                                0.00   8170.42      0.00
                                1.85      0.00   8170.01

     local   stress (kbar)    104.07      0.00    696.87
                                0.00   1365.62      0.00
                              696.87      0.00   1537.58

     nonloc. stress (kbar)  -4041.28      0.00     -2.37
                                0.00  -4038.42      0.00
                               -2.37      0.00  -4047.19

     hartree stress (kbar)  12388.85     -0.00   -302.82
                               -0.00  11797.63     -0.00
                             -302.82     -0.00  11800.16

     exc-cor stress (kbar)  -1539.32     -0.00     -0.19
                               -0.00  -1539.19     -0.00
                               -0.19     -0.00  -1539.78

     corecor stress (kbar)  -1906.00      0.00      0.01
                                0.00  -1906.17     -0.00
                                0.01     -0.00  -1905.80

     ewald   stress (kbar) -13182.81      0.00   -393.15
                                0.00 -13861.64      0.00
                             -393.15      0.00 -14030.54

     hubbard stress (kbar)      0.00      0.00      0.00
                                0.00      0.00      0.00
                                0.00      0.00      0.00

     DFT-D   stress (kbar)      0.00      0.00      0.00
                                0.00      0.00      0.00
                                0.00      0.00      0.00

     XDM     stress (kbar)      0.00      0.00      0.00
                                0.00      0.00      0.00
                                0.00      0.00      0.00

     dft-nl  stress (kbar)      0.00      0.00      0.00
                                0.00      0.00      0.00
                                0.00      0.00      0.00

     TS-vdW  stress (kbar)      0.00      0.00      0.00
                                0.00      0.00      0.00
                                0.00      0.00      0.00

[...]

                                0.00      0.00      0.00

     Writing all to output data dir new_calculations/myprefix.save/

     General routines

     Parallel routines

     PAW routines

   This run was terminated on:  20:50:20  20May2023

   JOB DONE.