     Program PWSCF v.7.0 starts on 21May2023 at 19: 5:53

     Reading input from espresso_20796.pwi
Warning: card &CELL ignored
Warning: card / ignored

     Current dimensions of program PWSCF are:
     Max number of different atomic species (ntypx) = 10
     Max number of k-points (npk) =  40000
     Max angular momentum in pseudopotentials (lmaxx) =  4
     file O.pbe-n-kjpaw_psl.0.1.UPF: wavefunction(s)  2P renormalized

     gamma-point specific algorithms are used
     Message from routine setup:
     using ibrav=0 with symmetry is DISCOURAGED, use correct ibrav instead

     Subspace diagonalization in iterative solution of the eigenvalue problem:
     a serial algorithm will be used

     Using Slab Decomposition

     bravais-lattice index     =            0
     lattice parameter (alat)  =       9.9429  a.u.
     unit-cell volume          =    1158.3314 (a.u.)^3
     number of atoms/cell      =           16
     number of atomic types    =            3
     number of electrons       =       140.00
     number of Kohn-Sham states=           84
     kinetic-energy cutoff     =      30.0000  Ry
     charge density cutoff     =     240.0000  Ry
     scf convergence threshold =      1.0E-06
     mixing beta               =       0.7000
     number of iterations used =            8  plain     mixing
     Exchange-correlation= SLA  PW   PBX  PBC
                           (   1   4   3   4   0   0   0)

     celldm(1)=   9.942909  celldm(2)=   0.000000  celldm(3)=   0.000000
     celldm(4)=   0.000000  celldm(5)=   0.000000  celldm(6)=   0.000000

     crystal axes: (cart. coord. in units of alat)
               a(1) = (   1.000000   0.000000   0.000000 )
               a(2) = (   0.168346   1.063739   0.000000 )
               a(3) = (  -0.000019  -0.310990   1.107790 )

     reciprocal axes: (cart. coord. in units 2 pi/alat)
               b(1) = (  1.000000 -0.158258 -0.044410 )
               b(2) = (  0.000000  0.940080  0.263909 )
               b(3) = (  0.000000  0.000000  0.902698 )

     PseudoPot. # 1 for Na read from file:
     /home/pragov/projects/rrg-bengioy-ad/pragov/crystal_structure_design/SSSP/na_pbe_v1.5.uspp.F.UPF
     MD5 check sum: 44600605ef58000f06b90626533354dc
     Pseudo is Ultrasoft, Zval =  9.0
     Generated by new atomic code, or converted to UPF format
     Using radial grid of  819 points,  5 beta functions with:
                l(1) =   0
                l(2) =   0
                l(3) =   1
                l(4) =   1
                l(5) =   2
     Q(r) pseudized with  8 coefficients,  rinner =    1.250   1.250   1.250
                                                       1.250   1.250

     PseudoPot. # 2 for Cr read from file:
     /home/pragov/projects/rrg-bengioy-ad/pragov/crystal_structure_design/SSSP/cr_pbe_v1.5.uspp.F.UPF
     MD5 check sum: 0d52af634a40206e4dee301ad30da4bf
     Pseudo is Ultrasoft + core correction, Zval = 14.0
     Generated by new atomic code, or converted to UPF format
     Using radial grid of  857 points,  6 beta functions with:
                l(1) =   0
                l(2) =   0
                l(3) =   1
                l(4) =   1
                l(5) =   2
                l(6) =   2
     Q(r) pseudized with  8 coefficients,  rinner =    0.950   0.950   0.950
                                                       0.950   0.950

     PseudoPot. # 3 for O  read from file:
     /home/pragov/projects/rrg-bengioy-ad/pragov/crystal_structure_design/SSSP/O.pbe-n-kjpaw_psl.0.1.UPF
     MD5 check sum: 0234752ac141de4415c5fc33072bef88
     Pseudo is Projector augmented-wave + core cor, Zval =  6.0
     Generated using "atomic" code by A. Dal Corso  v.5.0.99 svn rev. 10869
     Shape of augmentation charge: BESSEL
     Using radial grid of 1095 points,  4 beta functions with:
                l(1) =   0
                l(2) =   0
                l(3) =   1
                l(4) =   1
     Q(r) pseudized with 0 coefficients

     atomic species   valence    mass     pseudopotential
        Na             9.00    22.98977     Na( 1.00)
        Cr            14.00    51.99610     Cr( 1.00)
        O              6.00    15.99900     O ( 1.00)

      2 Sym. Ops., with inversion, found ( 1 have fractional translation)

                                    s                        frac. trans.

      isym =  1     identity

 cryst.   s( 1) = (     1          0          0      )
                  (     0          1          0      )
                  (     0          0          1      )

 cart.    s( 1) = (  1.0000000 -0.0000000  0.0000000 )
                  (  0.0000000  1.0000000 -0.0000000 )
                  (  0.0000000  0.0000000  1.0000000 )

      isym =  2     inversion

 cryst.   s( 2) = (    -1          0          0      )    f =( -0.0000000 )
                  (     0         -1          0      )       ( -0.0000020 )
                  (     0          0         -1      )       ( -0.5000000 )

 cart.    s( 2) = ( -1.0000000  0.0000000 -0.0000000 )    f =(  0.0000093 )
                  (  0.0000000 -1.0000000  0.0000000 )       (  0.1554927 )
                  (  0.0000000  0.0000000 -1.0000000 )       ( -0.5538950 )

   Cartesian axes

     site n.     atom                  positions (alat units)
         1           Na  tau(   1) = (   0.4999857  -0.2332411   0.8308425  )
         2           Na  tau(   2) = (   0.4999944  -0.0777463   0.2769475  )
         3           Na  tau(   3) = (  -0.0000071  -0.1554919   0.5538961  )
         4           Na  tau(   4) = (   1.1683231   0.7527474   1.1077889  )
         5           Cr  tau(   5) = (   0.8341638   0.2591994   0.9713092  )
         6           Cr  tau(   6) = (   0.3341540   0.3380487   0.6903758  )
         7           Cr  tau(   7) = (   0.8341883   0.4147010   0.4174086  )
         8           Cr  tau(   8) = (   0.3341498   0.4935436   0.1364842  )
         9           O   tau(   9) = (   0.1667472   0.0637889   0.9128932  )
        10           O   tau(  10) = (   0.1667531   0.2192858   0.3589982  )
        11           O   tau(  11) = (   0.6667509   0.1408100   0.6385556  )
        12           O   tau(  12) = (   0.6667614   0.2963037   0.0846606  )
        13           O   tau(  13) = (   0.5015660   0.4564455   1.0231294  )
        14           O   tau(  14) = (   0.5015730   0.6119421   0.4692355  )
        15           O   tau(  15) = (   1.0015698   0.5334666   0.7487918  )
        16           O   tau(  16) = (   1.0015823   0.6889600   0.1948979  )

   Crystallographic axes

     site n.     atom                  positions (cryst. coord.)
         1           Na  tau(   1) = (  0.5000000  0.0000010  0.7500000  )
         2           Na  tau(   2) = (  0.4999990  0.0000010  0.2500000  )
         3           Na  tau(   3) = (  0.0000020  0.0000030  0.5000010  )
         4           Na  tau(   4) = (  0.9999970  0.9999980  0.9999990  )
         5           Cr  tau(   5) = (  0.7500070  0.5000050  0.8767990  )
         6           Cr  tau(   6) = (  0.2499950  0.4999890  0.6232010  )
         7           Cr  tau(   7) = (  0.7500210  0.5000100  0.3767940  )
         8           Cr  tau(   8) = (  0.2499810  0.4999900  0.1232040  )
         9           O   tau(   9) = (  0.1161100  0.3008870  0.8240670  )
        10           O   tau(  10) = (  0.1161060  0.3008890  0.3240670  )
        11           O   tau(  11) = (  0.6161080  0.3008930  0.5764230  )
        12           O   tau(  12) = (  0.6161090  0.3008920  0.0764230  )
        13           O   tau(  13) = (  0.3838920  0.6991080  0.9235770  )
        14           O   tau(  14) = (  0.3838890  0.6991100  0.4235780  )
        15           O   tau(  15) = (  0.8838900  0.6991140  0.6759330  )
        16           O   tau(  16) = (  0.8838930  0.6991130  0.1759340  )

     number of k points=     1  Methfessel-Paxton smearing, width (Ry)=  0.0010
                       cart. coord. in units 2pi/alat
        k(    1) = (   0.0000000   0.0000000   0.0000000), wk =   2.0000000

                       cryst. coord.
        k(    1) = (   0.0000000   0.0000000   0.0000000), wk =   2.0000000

     Check: negative core charge=   -0.000018

     Initial potential from superposition of free atoms

     starting charge     135.9748, renormalised to     140.0000
     Starting wfcs are   92 randomized atomic wfcs
     Checking if some PAW data can be deallocated...

     Self-consistent Calculation

     iteration #  1     ecut=    30.00 Ry     beta= 0.70
     Davidson diagonalization with overlap

     ethr =  1.00E-02,  avg # of iterations =  2.0

     negative rho (up, down):  1.949E-03 0.000E+00

     total energy              =   -1415.03334543 Ry
     estimated scf accuracy    <       3.61438521 Ry

[...]

     total energy              =   -1416.75392775 Ry
     estimated scf accuracy    <       0.00001001 Ry

     iteration # 35     ecut=    30.00 Ry     beta= 0.70
     Davidson diagonalization with overlap

     ethr =  7.77E-10,  avg # of iterations =  1.0

     End of self-consistent calculation

          k = 0.0000 0.0000 0.0000 (  1616 PWs)   bands (ev):

   -62.1539 -62.1389 -62.1388 -62.1382 -41.7717 -41.7522 -41.7514 -41.7505
   -33.8288 -33.8284 -33.7392 -33.7079 -33.5286 -33.4447 -33.4389 -33.3776
   -33.1945 -33.1659 -33.1652 -33.1640 -13.8634 -13.8148 -13.8107 -13.7226
   -13.7182 -13.7178 -13.6622 -13.6324 -13.6310 -13.6304 -13.6191 -13.6161
    -9.6059  -8.5817  -8.5640  -8.5474  -8.4671  -8.4429  -8.4399  -8.3102
     3.5001   3.5033   4.1225   4.1265   4.2905   4.3346   4.6223   5.0569
     5.0774   5.1857   5.2225   5.4116   5.4233   5.5379   5.5636   5.7306
     5.7464   6.2303   6.4706   6.4932   6.5149   7.1234   7.4711   7.5015
     9.7053   9.7444   9.8233  10.2257  10.2449  10.3987  10.4207  10.4582
    10.4848  10.4994  10.6809  10.8294  12.2637  12.2876  12.3345  12.3476
    12.3908  12.5379  12.6231  12.6266

     occupation numbers
     1.0000   1.0000   1.0000   1.0000   1.0000   1.0000   1.0000   1.0000
     1.0000   1.0000   1.0000   1.0000   1.0000   1.0000   1.0000   1.0000
     1.0000   1.0000   1.0000   1.0000   1.0000   1.0000   1.0000   1.0000
     1.0000   1.0000   1.0000   1.0000   1.0000   1.0000   1.0000   1.0000
     1.0000   1.0000   1.0000   1.0000   1.0000   1.0000   1.0000   1.0000
     1.0000   1.0000   1.0000   1.0000   1.0000   1.0000   1.0000   1.0000
     1.0000   1.0000   1.0000   1.0000   1.0000   1.0000   1.0000   1.0000
     1.0000   1.0000   1.0000   1.0000   1.0000   1.0000   1.0000   1.0000
     1.0000   1.0000   1.0000   1.0000   1.0000   0.9925   0.0075  -0.0000
    -0.0000  -0.0000  -0.0000  -0.0000  -0.0000  -0.0000  -0.0000  -0.0000
    -0.0000  -0.0000  -0.0000  -0.0000

     the Fermi energy is    10.4097 ev

!    total energy              =   -1416.75392773 Ry
     estimated scf accuracy    <       0.00000008 Ry
     smearing contrib. (-TS)   =       0.00009135 Ry
     internal energy E=F+TS    =   -1416.75401908 Ry

     The total energy is F=E-TS. E is the sum of the following terms:
     one-electron contribution =    -676.83126011 Ry
     hartree contribution      =     403.37043979 Ry
     xc contribution           =    -206.54202875 Ry
     ewald contribution        =    -860.59581517 Ry
     one-center paw contrib.   =     -76.15535484 Ry
      -> PAW hartree energy AE =     233.60854701 Ry
      -> PAW hartree energy PS =    -232.77065564 Ry
      -> PAW xc energy AE      =    -136.79522160 Ry
      -> PAW xc energy PS      =      59.80197538 Ry
      -> total E_H with PAW    =     404.20833116 Ry
      -> total E_XC with PAW   =    -283.53527496 Ry

     convergence has been achieved in  35 iterations

     Forces acting on atoms (cartesian axes, Ry/au):

     atom    1 type  1   force =     0.00000000    0.00000000    0.00000000
     atom    2 type  1   force =     0.00000000    0.00000000    0.00000000
     atom    3 type  1   force =     0.00000110   -0.00000489   -0.00000037
     atom    4 type  1   force =    -0.00000110    0.00000489    0.00000037
     atom    5 type  2   force =    -0.00274161   -0.01238419    0.02994231
     atom    6 type  2   force =     0.00274161    0.01238419   -0.02994231
     atom    7 type  2   force =    -0.00277569   -0.01237841    0.02996425
     atom    8 type  2   force =     0.00277569    0.01237841   -0.02996425
     atom    9 type  3   force =     0.00009792    0.03234172   -0.00919602
     atom   10 type  3   force =     0.00010601    0.03233683   -0.00919333
     atom   11 type  3   force =     0.00603207    0.01990277    0.02399322
     atom   12 type  3   force =     0.00602678    0.01990880    0.02400614
     atom   13 type  3   force =    -0.00603207   -0.01990277   -0.02399322
     atom   14 type  3   force =    -0.00602678   -0.01990880   -0.02400614
     atom   15 type  3   force =    -0.00009792   -0.03234172    0.00919602
     atom   16 type  3   force =    -0.00010601   -0.03233683    0.00919333
     The non-local contrib.  to forces
     atom    1 type  1   force =     0.00000000    0.00000000    0.00000000
     atom    2 type  1   force =     0.00000000    0.00000000    0.00000000
     atom    3 type  1   force =    -0.00001064    0.00000374   -0.00003725
     atom    4 type  1   force =     0.00001064   -0.00000374    0.00003725
     atom    5 type  2   force =     0.00614421    0.00810554   -0.02706776
     atom    6 type  2   force =    -0.00614421   -0.00810554    0.02706776
     atom    7 type  2   force =     0.00613883    0.00809924   -0.02709912
     atom    8 type  2   force =    -0.00613883   -0.00809924    0.02709912
     atom    9 type  3   force =     0.01412280    0.56337988    0.16636926
     atom   10 type  3   force =     0.01412092    0.56345792    0.16631874
     atom   11 type  3   force =     0.03657517    0.54735947    0.16235939
     atom   12 type  3   force =     0.03663017    0.54735294    0.16229911
     atom   13 type  3   force =    -0.03657517   -0.54735947   -0.16235939
     atom   14 type  3   force =    -0.03663017   -0.54735294   -0.16229911
     atom   15 type  3   force =    -0.01412280   -0.56337988   -0.16636926
     atom   16 type  3   force =    -0.01412092   -0.56345792   -0.16631874
     The ionic contribution  to forces
     atom    1 type  1   force =    -0.00001341   -0.00035625   -0.00004575
     atom    2 type  1   force =     0.00002818   -0.00017771   -0.00009057
     atom    3 type  1   force =    -0.00011615   -0.00021642    0.00001805
     atom    4 type  1   force =     0.00012448   -0.00016256   -0.00011812
     atom    5 type  2   force =    -0.00310185    0.01372513   -0.04788844
     atom    6 type  2   force =     0.00311988   -0.01316570    0.04760513
     atom    7 type  2   force =    -0.00564296    0.01344974   -0.04620617
     atom    8 type  2   force =     0.00532420   -0.01310012    0.04680728
     atom    9 type  3   force =    -0.00142574  -10.03465910   -2.87226956
     atom   10 type  3   force =    -0.00092609  -10.03558696   -2.87177948
     atom   11 type  3   force =    -0.00122784  -10.06128399   -2.77137807
     atom   12 type  3   force =    -0.00223769  -10.06149109   -2.77043984
     atom   13 type  3   force =     0.00146251   10.06152929    2.77113794
     atom   14 type  3   force =     0.00221824   10.06126711    2.77064657
     atom   15 type  3   force =     0.00141807   10.03449580    2.87239772
     atom   16 type  3   force =     0.00099616   10.03573281    2.87160331
     The local contribution  to forces
     atom    1 type  1   force =    -0.00002679    0.00038192    0.00012108
     atom    2 type  1   force =    -0.00009626    0.00018803    0.00001549
     atom    3 type  1   force =     0.00017171    0.00017764    0.00001521
     atom    4 type  1   force =    -0.00006989    0.00010797    0.00006540
     atom    5 type  2   force =    -0.00544298   -0.03339233    0.10256754
     atom    6 type  2   force =     0.00542374    0.03285603   -0.10203135
     atom    7 type  2   force =    -0.00285708   -0.03312779    0.10076056
     atom    8 type  2   force =     0.00325747    0.03284711   -0.10158939
     atom    9 type  3   force =    -0.01240816    9.50958970    2.69856553
     atom   10 type  3   force =    -0.01286591    9.51047029    2.69791649
     atom   11 type  3   force =    -0.02893221    9.53948725    2.63479245
     atom   12 type  3   force =    -0.02810285    9.53978949    2.63381794
     atom   13 type  3   force =     0.02856718   -9.53985561   -2.63441237
     atom   14 type  3   force =     0.02783536   -9.53956361   -2.63415188
     atom   15 type  3   force =     0.01254375   -9.50936613   -2.69848541
     atom   16 type  3   force =     0.01305412   -9.51055742   -2.69794625
     The core correction contribution to forces
     atom    1 type  1   force =     0.00000000    0.00000000    0.00000000
     atom    2 type  1   force =     0.00000000    0.00000000    0.00000000
     atom    3 type  1   force =     0.00000000    0.00000000    0.00000000
     atom    4 type  1   force =     0.00000000    0.00000000    0.00000000
     atom    5 type  2   force =    -0.00017823   -0.00075304    0.00243221
     atom    6 type  2   force =     0.00017879    0.00075498   -0.00243142
     atom    7 type  2   force =    -0.00017998   -0.00075366    0.00243503
     atom    8 type  2   force =     0.00018067    0.00075484   -0.00243470
     atom    9 type  3   force =    -0.00013071   -0.00593068   -0.00175271
     atom   10 type  3   force =    -0.00013087   -0.00593127   -0.00175225
     atom   11 type  3   force =    -0.00041911   -0.00571661   -0.00172553
     atom   12 type  3   force =    -0.00041969   -0.00571672   -0.00172474
     atom   13 type  3   force =     0.00041926    0.00571696    0.00172536
     atom   14 type  3   force =     0.00041952    0.00571666    0.00172509
     atom   15 type  3   force =     0.00013060    0.00593089    0.00175288
     atom   16 type  3   force =     0.00013067    0.00593166    0.00175238
     The Hubbard contrib.    to forces
     atom    1 type  1   force =     0.00000000    0.00000000    0.00000000
     atom    2 type  1   force =     0.00000000    0.00000000    0.00000000
     atom    3 type  1   force =     0.00000000    0.00000000    0.00000000
     atom    4 type  1   force =     0.00000000    0.00000000    0.00000000
     atom    5 type  2   force =     0.00000000    0.00000000    0.00000000
     atom    6 type  2   force =     0.00000000    0.00000000    0.00000000
     atom    7 type  2   force =     0.00000000    0.00000000    0.00000000
     atom    8 type  2   force =     0.00000000    0.00000000    0.00000000
     atom    9 type  3   force =     0.00000000    0.00000000    0.00000000
     atom   10 type  3   force =     0.00000000    0.00000000    0.00000000
     atom   11 type  3   force =     0.00000000    0.00000000    0.00000000
     atom   12 type  3   force =     0.00000000    0.00000000    0.00000000
     atom   13 type  3   force =     0.00000000    0.00000000    0.00000000
     atom   14 type  3   force =     0.00000000    0.00000000    0.00000000
     atom   15 type  3   force =     0.00000000    0.00000000    0.00000000
     atom   16 type  3   force =     0.00000000    0.00000000    0.00000000
     The SCF correction term to forces
     atom    1 type  1   force =     0.00003504   -0.00004585   -0.00008742
     atom    2 type  1   force =     0.00006468   -0.00003004    0.00007773
     atom    3 type  1   force =    -0.00003779    0.00000891   -0.00000472
     atom    4 type  1   force =    -0.00006029    0.00004199    0.00000750
     atom    5 type  2   force =    -0.00016215   -0.00004436   -0.00009190
     atom    6 type  2   force =     0.00016401    0.00006957   -0.00014308
     atom    7 type  2   force =    -0.00022839   -0.00002434    0.00007728
     atom    8 type  2   force =     0.00015828   -0.00000259    0.00015675
     atom    9 type  3   force =    -0.00006375   -0.00004164   -0.00010326
     atom   10 type  3   force =    -0.00009777   -0.00006364    0.00010308
     atom   11 type  3   force =     0.00004701    0.00006998   -0.00006409
     atom   12 type  3   force =     0.00015177   -0.00003664    0.00006546
     atom   13 type  3   force =     0.00010508    0.00007941   -0.00009383
     atom   14 type  3   force =     0.00012521    0.00001317    0.00008497
     atom   15 type  3   force =    -0.00007100   -0.00002598   -0.00009464
     atom   16 type  3   force =    -0.00017177    0.00002353    0.00010257

     Total force =     0.113085     Total SCF correction =     0.000641

     Computing stress (Cartesian axis) and pressure

          total   stress  (Ry/bohr**3)                   (kbar)     P=     -524.88
  -0.00332544  -0.00010049  -0.00004075         -489.19      -14.78       -6.00
  -0.00010049  -0.00325688   0.00027340          -14.78     -479.10       40.22
  -0.00004075   0.00027340  -0.00412194           -6.00       40.22     -606.36

     kinetic stress (kbar)  30452.54      8.96     24.03
                                8.96  30877.33    229.86
                               24.03    229.86  30108.35

     local   stress (kbar)    599.63    -47.07    -45.51
                              -47.07  29002.20   7801.38
                              -45.51   7801.38   3445.11

     nonloc. stress (kbar) -14395.83    -23.17     -4.35
                              -23.17 -14304.57     55.25
                               -4.35     55.25 -14487.90

     hartree stress (kbar)  21587.35     13.89     12.34
                               13.89   9213.22  -3421.12
                               12.34  -3421.12  20426.43

     exc-cor stress (kbar)  -6531.86      0.71      0.38
                                0.71  -6536.41     -0.31
                                0.38     -0.31  -6535.85

     corecor stress (kbar)  -1733.64      0.54     -0.08
                                0.54  -1737.24     -2.14
                               -0.08     -2.14  -1730.08

     ewald   stress (kbar) -30467.38     31.37      7.19
                               31.37 -46993.64  -4622.69
                                7.19  -4622.69 -31832.41

     hubbard stress (kbar)      0.00      0.00      0.00
                                0.00      0.00      0.00
                                0.00      0.00      0.00

     DFT-D   stress (kbar)      0.00      0.00      0.00
                                0.00      0.00      0.00
                                0.00      0.00      0.00

     XDM     stress (kbar)      0.00      0.00      0.00
                                0.00      0.00      0.00
                                0.00      0.00      0.00

     dft-nl  stress (kbar)      0.00      0.00      0.00
                                0.00      0.00      0.00
                                0.00      0.00      0.00

     TS-vdW  stress (kbar)      0.00      0.00      0.00
                                0.00      0.00      0.00
                                0.00      0.00      0.00

[...]

                                0.00      0.00      0.00

     Writing all to output data dir new_calculations/myprefix.save/

     General routines

     Parallel routines

     PAW routines

   This run was terminated on:  19: 6:32  21May2023

   JOB DONE.