     Program PWSCF v.7.0 starts on 20May2023 at 17:42:38

     Reading input from espresso_14611.pwi
Warning: card &CELL ignored
Warning: card / ignored

     Current dimensions of program PWSCF are:
     Max number of different atomic species (ntypx) = 10
     Max number of k-points (npk) =  40000
     Max angular momentum in pseudopotentials (lmaxx) =  4
     file Ba.pbe-spn-kjpaw_psl.1.0.0.UPF: wavefunction(s)  5S 6S renormalized
     file O.pbe-n-kjpaw_psl.0.1.UPF: wavefunction(s)  2P renormalized

     gamma-point specific algorithms are used
     Message from routine setup:
     using ibrav=0 with symmetry is DISCOURAGED, use correct ibrav instead

     Subspace diagonalization in iterative solution of the eigenvalue problem:
     a serial algorithm will be used

     Using Slab Decomposition

     bravais-lattice index     =            0
     lattice parameter (alat)  =       9.3113  a.u.
     unit-cell volume          =    2418.8486 (a.u.)^3
     number of atoms/cell      =           20
     number of atomic types    =            4
     number of electrons       =       152.00
     number of Kohn-Sham states=           91
     kinetic-energy cutoff     =      30.0000  Ry
     charge density cutoff     =     240.0000  Ry
     scf convergence threshold =      1.0E-06
     mixing beta               =       0.7000
     number of iterations used =            8  plain     mixing
     Exchange-correlation= SLA  PW   PBX  PBC
                           (   1   4   3   4   0   0   0)

     celldm(1)=   9.311278  celldm(2)=   0.000000  celldm(3)=   0.000000
     celldm(4)=   0.000000  celldm(5)=   0.000000  celldm(6)=   0.000000

     crystal axes: (cart. coord. in units of alat)
               a(1) = (   1.000000   0.000000   0.000000 )
               a(2) = (   0.418514   0.908210   0.000000 )
               a(3) = (   0.074782   0.047879   3.299092 )

     reciprocal axes: (cart. coord. in units 2 pi/alat)
               b(1) = (  1.000000 -0.460812 -0.015980 )
               b(2) = (  0.000000  1.101067 -0.015980 )
               b(3) = (  0.000000  0.000000  0.303114 )

     PseudoPot. # 1 for Ba read from file:
     /home/pragov/projects/rrg-bengioy-ad/pragov/crystal_structure_design/SSSP/Ba.pbe-spn-kjpaw_psl.1.0.0.UPF
     MD5 check sum: c432291d3e53af55f19d5e8866385beb
     Pseudo is Projector augmented-wave + core cor, Zval = 10.0
     Generated using "atomic" code by A. Dal Corso  v.5.1
     Shape of augmentation charge: PSQ
     Using radial grid of 1251 points,  7 beta functions with:
                l(1) =   0
                l(2) =   0
                l(3) =   0
                l(4) =   1
                l(5) =   1
                l(6) =   2
                l(7) =   2
     Q(r) pseudized with 0 coefficients

     PseudoPot. # 2 for Pd read from file:
     /home/pragov/projects/rrg-bengioy-ad/pragov/crystal_structure_design/SSSP/Pd_ONCV_PBE-1.0.oncvpsp.upf
     MD5 check sum: eb77f42b51d86fb18e25f68156a31cf1
     Pseudo is Norm-conserving, Zval = 18.0
     Generated using ONCVPSP code by D. R. Hamann
     Using radial grid of 1410 points,  6 beta functions with:
                l(1) =   0
                l(2) =   0
                l(3) =   1
                l(4) =   1
                l(5) =   2
                l(6) =   2

     PseudoPot. # 3 for Se read from file:
     /home/pragov/projects/rrg-bengioy-ad/pragov/crystal_structure_design/SSSP/Se_pbe_v1.uspp.F.UPF
     MD5 check sum: 1b3568f3a8ae88f9a2a0ad0698632c85
     Pseudo is Ultrasoft + core correction, Zval =  6.0
     Generated by new atomic code, or converted to UPF format
     Using radial grid of  877 points,  6 beta functions with:
                l(1) =   0
                l(2) =   0
                l(3) =   1
                l(4) =   1
                l(5) =   2
                l(6) =   2
     Q(r) pseudized with  8 coefficients,  rinner =    1.300   1.300   1.300
                                                       1.300   1.300

     PseudoPot. # 4 for O  read from file:
     /home/pragov/projects/rrg-bengioy-ad/pragov/crystal_structure_design/SSSP/O.pbe-n-kjpaw_psl.0.1.UPF
     MD5 check sum: 0234752ac141de4415c5fc33072bef88
     Pseudo is Projector augmented-wave + core cor, Zval =  6.0
     Generated using "atomic" code by A. Dal Corso  v.5.0.99 svn rev. 10869
     Shape of augmentation charge: BESSEL
     Using radial grid of 1095 points,  4 beta functions with:
                l(1) =   0
                l(2) =   0
                l(3) =   1
                l(4) =   1
     Q(r) pseudized with 0 coefficients

     atomic species   valence    mass     pseudopotential
        Ba            10.00   137.32700     Ba( 1.00)
        Pd            18.00   106.42000     Pd( 1.00)
        Se             6.00    78.97100     Se( 1.00)
        O              6.00    15.99900     O ( 1.00)

      2 Sym. Ops., with inversion, found

                                    s                        frac. trans.

      isym =  1     identity

 cryst.   s( 1) = (     1          0          0      )
                  (     0          1          0      )
                  (     0          0          1      )

 cart.    s( 1) = (  1.0000000  0.0000000 -0.0000000 )
                  (  0.0000000  1.0000000 -0.0000000 )
                  (  0.0000000  0.0000000  1.0000000 )

      isym =  2     inversion

 cryst.   s( 2) = (    -1          0          0      )
                  (     0         -1          0      )
                  (     0          0         -1      )

 cart.    s( 2) = ( -1.0000000 -0.0000000  0.0000000 )
                  (  0.0000000 -1.0000000  0.0000000 )
                  (  0.0000000  0.0000000 -1.0000000 )

   Cartesian axes

     site n.     atom                  positions (alat units)
         1           Ba  tau(   1) = (   0.7510964   0.5122665   2.4743191  )
         2           Ba  tau(   2) = (   0.7421996   0.4438228   0.8247730  )
         3           Pd  tau(   3) = (   0.7466480   0.4780447   1.6495461  )
         4           Pd  tau(   4) = (   0.7092572   0.4541051   0.0000000  )
         5           Se  tau(   5) = (   1.2818335   0.8114255   1.9574108  )
         6           Se  tau(   6) = (   0.2572760   0.1554480   2.9912275  )
         7           Se  tau(   7) = (   0.2114624   0.1446638   1.3416814  )
         8           Se  tau(   8) = (   1.2360199   0.8006413   0.3078647  )
         9           O   tau(   9) = (   1.2457828   0.7353264   2.2920080  )
        10           O   tau(  10) = (   0.3414778   0.1563410   2.6566302  )
        11           O   tau(  11) = (   0.2475131   0.2207630   1.0070842  )
        12           O   tau(  12) = (   1.1518182   0.7997483   0.6424619  )
        13           O   tau(  13) = (   0.6377538   0.7749824   1.9200947  )
        14           O   tau(  14) = (   0.5599306   0.7251558   3.0285435  )
        15           O   tau(  15) = (   0.8555421   0.1811069   1.3789974  )
        16           O   tau(  16) = (   0.9333653   0.2309336   0.2705487  )
        17           O   tau(  17) = (   0.8474932   0.2590240   1.9842621  )
        18           O   tau(  18) = (   0.9407503   0.3187323   2.9643762  )
        19           O   tau(  19) = (   0.6458027   0.6970653   1.3148301  )
        20           O   tau(  20) = (   0.5525456   0.6373570   0.3347160  )

   Crystallographic axes

     site n.     atom                  positions (cryst. coord.)
         1           Ba  tau(   1) = (  0.4754990  0.5245010  0.7500000  )
         2           Ba  tau(   2) = (  0.5245010  0.4754990  0.2500000  )
         3           Pd  tau(   3) = (  0.5000000  0.5000000  0.5000000  )
         4           Pd  tau(   4) = (  0.5000000  0.5000000  0.0000000  )
         5           Se  tau(   5) = (  0.8766400  0.8621550  0.5933180  )
         6           Se  tau(   6) = (  0.1378450  0.1233600  0.9066820  )
         7           Se  tau(   7) = (  0.1233600  0.1378450  0.4066820  )
         8           Se  tau(   8) = (  0.8621550  0.8766400  0.0933180  )
         9           O   tau(   9) = (  0.8703100  0.7730180  0.6947390  )
        10           O   tau(  10) = (  0.2269820  0.1296900  0.8052610  )
        11           O   tau(  11) = (  0.1296900  0.2269820  0.3052610  )
        12           O   tau(  12) = (  0.7730180  0.8703100  0.1947390  )
        13           O   tau(  13) = (  0.2499500  0.8226250  0.5820070  )
        14           O   tau(  14) = (  0.1773750  0.7500500  0.9179930  )
        15           O   tau(  15) = (  0.7500500  0.1773750  0.4179930  )
        16           O   tau(  16) = (  0.8226250  0.2499500  0.0820070  )
        17           O   tau(  17) = (  0.6964240  0.2534950  0.6014570  )
        18           O   tau(  18) = (  0.7465050  0.3035760  0.8985430  )
        19           O   tau(  19) = (  0.3035760  0.7465050  0.3985430  )
        20           O   tau(  20) = (  0.2534950  0.6964240  0.1014570  )

     number of k points=     1  Methfessel-Paxton smearing, width (Ry)=  0.0010
                       cart. coord. in units 2pi/alat
        k(    1) = (   0.0000000   0.0000000   0.0000000), wk =   2.0000000

                       cryst. coord.
        k(    1) = (   0.0000000   0.0000000   0.0000000), wk =   2.0000000

     Check: negative core charge=   -0.000009

     Initial potential from superposition of free atoms

     starting charge     151.9650, renormalised to     152.0000
     Starting wfcs are   94 randomized atomic wfcs
     Checking if some PAW data can be deallocated...

     Self-consistent Calculation

     iteration #  1     ecut=    30.00 Ry     beta= 0.70
     Davidson diagonalization with overlap

     ethr =  1.00E-02,  avg # of iterations =  3.0

     negative rho (up, down):  1.586E-02 0.000E+00

     total energy              =   -2049.86199134 Ry
     estimated scf accuracy    <       5.12240486 Ry

[...]

     negative rho (up, down):  5.504E-03 0.000E+00

[...]

     total energy              =   -2052.40846425 Ry
     estimated scf accuracy    <       0.00000108 Ry

     iteration # 18     ecut=    30.00 Ry     beta= 0.70
     Davidson diagonalization with overlap

     ethr =  7.10E-10,  avg # of iterations =  4.0

     End of self-consistent calculation

          k = 0.0000 0.0000 0.0000 (  3349 PWs)   bands (ev):

   -79.4298 -79.4298 -45.2073 -45.2070 -45.0970 -45.0969 -44.1364 -44.1364
   -20.3596 -20.3594 -15.4837 -15.4550 -15.3031 -15.2737 -13.0265 -13.0261
   -12.9575 -12.9556 -12.7773 -12.7317 -12.6518 -12.6086  -6.2857  -6.2017
    -5.8780  -5.7441  -5.5438  -5.5384  -5.4919  -5.4912  -5.0755  -5.0186
    -1.2793  -1.2733  -1.2121  -1.1282  -0.7210  -0.7188  -0.5689  -0.5386
    -0.5054  -0.5051   0.3413   0.5084   0.7653   0.7891   1.8273   1.8309
     1.9502   1.9925   2.1310   2.2492   2.5022   2.5310   2.7332   3.0583
     3.0626   3.1451   3.2375   3.2514   3.3399   3.4536   3.5248   3.7313
     3.7435   3.7964   3.8916   4.1564   4.1911   4.1969   4.7001   4.7408
     5.0098   5.0413   5.3290   5.4643   7.6157   7.6401   9.3122   9.3939
     9.7984   9.8741  10.0053  10.0977  10.3006  10.4182  10.4926  10.8189
    11.2728  11.3207  11.4995

     occupation numbers
     1.0000   1.0000   1.0000   1.0000   1.0000   1.0000   1.0000   1.0000
     1.0000   1.0000   1.0000   1.0000   1.0000   1.0000   1.0000   1.0000
     1.0000   1.0000   1.0000   1.0000   1.0000   1.0000   1.0000   1.0000
     1.0000   1.0000   1.0000   1.0000   1.0000   1.0000   1.0000   1.0000
     1.0000   1.0000   1.0000   1.0000   1.0000   1.0000   1.0000   1.0000
     1.0000   1.0000   1.0000   1.0000   1.0000   1.0000   1.0000   1.0000
     1.0000   1.0000   1.0000   1.0000   1.0000   1.0000   1.0000   1.0000
     1.0000   1.0000   1.0000   1.0000   1.0000   1.0000   1.0000   1.0000
     1.0000   1.0000   1.0000   1.0000   1.0000   1.0000   1.0000   1.0000
     1.0000   1.0000   1.0000   1.0000  -0.0000  -0.0000  -0.0000  -0.0000
    -0.0000  -0.0000  -0.0000  -0.0000  -0.0000  -0.0000  -0.0000  -0.0000
    -0.0000  -0.0000  -0.0000

     the Fermi energy is     5.9355 ev

!    total energy              =   -2052.40846430 Ry
     estimated scf accuracy    <       0.00000019 Ry
     smearing contrib. (-TS)   =       0.00000000 Ry
     internal energy E=F+TS    =   -2052.40846430 Ry

     The total energy is F=E-TS. E is the sum of the following terms:
     one-electron contribution =    -667.17155064 Ry
     hartree contribution      =     403.59535492 Ry
     xc contribution           =    -297.50113317 Ry
     ewald contribution        =    -627.04746209 Ry
     one-center paw contrib.   =    -864.28367333 Ry
      -> PAW hartree energy AE =     406.81323087 Ry
      -> PAW hartree energy PS =    -405.41424777 Ry
      -> PAW xc energy AE      =    -993.60707907 Ry
      -> PAW xc energy PS      =     127.92442265 Ry
      -> total E_H with PAW    =     404.99433802 Ry
      -> total E_XC with PAW   =   -1163.18378959 Ry

     convergence has been achieved in  18 iterations

     Forces acting on atoms (cartesian axes, Ry/au):

     atom    1 type  1   force =     0.00307145   -0.00479059    0.00000284
     atom    2 type  1   force =    -0.00307145    0.00479059   -0.00000284
     atom    3 type  2   force =     0.00000000    0.00000000    0.00000000
     atom    4 type  2   force =     0.00000000    0.00000000    0.00000000
     atom    5 type  3   force =    -0.05222482    0.00155724    0.03884832
     atom    6 type  3   force =     0.02044190    0.04808175   -0.03884905
     atom    7 type  3   force =     0.05222482   -0.00155724   -0.03884832
     atom    8 type  3   force =    -0.02044190   -0.04808175    0.03884905
     atom    9 type  4   force =     0.00750151    0.00176702    0.01317369
     atom   10 type  4   force =    -0.00474417   -0.00607396   -0.01317381
     atom   11 type  4   force =    -0.00750151   -0.00176702   -0.01317369
     atom   12 type  4   force =     0.00474417    0.00607396    0.01317381
     atom   13 type  4   force =     0.03396540   -0.00120146   -0.03618898
     atom   14 type  4   force =    -0.01312312   -0.03135084    0.03619264
     atom   15 type  4   force =    -0.03396540    0.00120146    0.03618898
     atom   16 type  4   force =     0.01312312    0.03135084   -0.03619264
     atom   17 type  4   force =     0.00815577   -0.00551551   -0.02493753
     atom   18 type  4   force =     0.00159577   -0.00971511    0.02494016
     atom   19 type  4   force =    -0.00815577    0.00551551    0.02493753
     atom   20 type  4   force =    -0.00159577    0.00971511   -0.02494016
     The non-local contrib.  to forces
     atom    1 type  1   force =    -0.01228332    0.01918632    0.00000352
     atom    2 type  1   force =     0.01228332   -0.01918632   -0.00000352
     atom    3 type  2   force =     0.00000000    0.00000000    0.00000000
     atom    4 type  2   force =     0.00000000    0.00000000    0.00000000
     atom    5 type  3   force =     0.37764306    0.31772984    0.48252383
     atom    6 type  3   force =    -0.44661544   -0.21000429   -0.48252440
     atom    7 type  3   force =    -0.37764306   -0.31772984   -0.48252383
     atom    8 type  3   force =     0.44661544    0.21000429    0.48252440
     atom    9 type  4   force =     0.21249483    0.22752789   -1.44665216
     atom   10 type  4   force =    -0.29557745   -0.09776666    1.44665228
     atom   11 type  4   force =    -0.21249483   -0.22752789    1.44665216
     atom   12 type  4   force =     0.29557745    0.09776666   -1.44665228
     atom   13 type  4   force =    -1.11139666   -0.43258783   -0.26350831
     atom   14 type  4   force =     0.85801754    0.82833685    0.26350746
     atom   15 type  4   force =     1.11139666    0.43258783    0.26350831
     atom   16 type  4   force =    -0.85801754   -0.82833685   -0.26350746
     atom   17 type  4   force =    -0.10644694   -0.96714317   -0.63084831
     atom   18 type  4   force =     0.92291978   -0.30808673    0.63084695
     atom   19 type  4   force =     0.10644694    0.96714317    0.63084831
     atom   20 type  4   force =    -0.92291978    0.30808673   -0.63084695
     The ionic contribution  to forces
     atom    1 type  1   force =     0.30634561   -0.47847478   -0.00000000
     atom    2 type  1   force =    -0.30634561    0.47847478   -0.00000000
     atom    3 type  2   force =     0.00000000   -0.00000000    0.00000000
     atom    4 type  2   force =    -0.00000000   -0.00000000    0.00000000
     atom    5 type  3   force =    -3.86487984   -3.19427461    0.31675918
     atom    6 type  3   force =     4.51858053    2.17327320   -0.31675918
     atom    7 type  3   force =     3.86487984    3.19427461   -0.31675918
     atom    8 type  3   force =    -4.51858053   -2.17327320    0.31675918
     atom    9 type  4   force =    -1.11615829   -1.34908219    8.12855149
     atom   10 type  4   force =     1.69237847    0.44909596   -8.12855149
     atom   11 type  4   force =     1.11615829    1.34908219   -8.12855149
     atom   12 type  4   force =    -1.69237847   -0.44909596    8.12855149
     atom   13 type  4   force =     2.58566144    6.93162625    8.24763642
     atom   14 type  4   force =    -7.37750994    0.55266144   -8.24763642
     atom   15 type  4   force =    -2.58566144   -6.93162625   -8.24763642
     atom   16 type  4   force =     7.37750994   -0.55266144    8.24763642
     atom   17 type  4   force =     2.16491583   -0.75990995   10.76882342
     atom   18 type  4   force =    -0.21589052   -2.28423181  -10.76882342
     atom   19 type  4   force =    -2.16491583    0.75990995  -10.76882342
     atom   20 type  4   force =     0.21589053    2.28423181   10.76882342
     The local contribution  to forces
     atom    1 type  1   force =    -0.29284812    0.45670120   -0.00027442
     atom    2 type  1   force =     0.29234370   -0.45729622   -0.00026372
     atom    3 type  2   force =    -0.00000133   -0.00000842    0.00006845
     atom    4 type  2   force =     0.00000880   -0.00000401   -0.00003695
     atom    5 type  3   force =     3.48458627    2.91960045   -0.70067699
     atom    6 type  3   force =    -4.10996682   -1.94283568    0.70069788
     atom    7 type  3   force =    -3.48458135   -2.91960977    0.70070710
     atom    8 type  3   force =     4.10996272    1.94284417   -0.70067024
     atom    9 type  4   force =     0.91335749    1.12532627   -6.68250304
     atom   10 type  4   force =    -1.40430332   -0.35855913    6.68251400
     atom   11 type  4   force =    -0.91337624   -1.12534541    6.68252563
     atom   12 type  4   force =     1.40429228    0.35856154   -6.68248940
     atom   13 type  4   force =    -1.45081328   -6.50507070   -8.02336058
     atom   14 type  4   force =     6.51514011   -1.40481483    8.02336524
     atom   15 type  4   force =     1.45082593    6.50505101    8.02337038
     atom   16 type  4   force =    -6.51515885    1.40481707   -8.02337061
     atom   17 type  4   force =    -2.05132832    1.71255937  -10.16996980
     atom   18 type  4   force =    -0.69683993    2.57975817   10.16997378
     atom   19 type  4   force =     2.05133283   -1.71252844   10.16997805
     atom   20 type  4   force =     0.69684696   -2.57977050  -10.16996718
     The core correction contribution to forces
     atom    1 type  1   force =     0.00159157   -0.00249690   -0.00000440
     atom    2 type  1   force =    -0.00159921    0.00248750   -0.00000401
     atom    3 type  2   force =     0.00000000    0.00000000    0.00000000
     atom    4 type  2   force =     0.00000000    0.00000000    0.00000000
     atom    5 type  3   force =    -0.04955631   -0.04152515   -0.05979630
     atom    6 type  3   force =     0.05845315    0.02762895    0.05979462
     atom    7 type  3   force =     0.04955606    0.04152442    0.05979478
     atom    8 type  3   force =    -0.05845324   -0.02762832   -0.05979622
     atom    9 type  4   force =    -0.00220480   -0.00202626    0.01373678
     atom   10 type  4   force =     0.00276305    0.00115447   -0.01373680
     atom   11 type  4   force =     0.00220477    0.00202617   -0.01373676
     atom   12 type  4   force =    -0.00276301   -0.00115442    0.01373674
     atom   13 type  4   force =     0.01051322    0.00479239    0.00299726
     atom   14 type  4   force =    -0.00875254   -0.00754241   -0.00299729
     atom   15 type  4   force =    -0.01051312   -0.00479247   -0.00299720
     atom   16 type  4   force =     0.00875241    0.00754244    0.00299715
     atom   17 type  4   force =     0.00101189    0.00901059    0.00699457
     atom   18 type  4   force =    -0.00860682    0.00285192   -0.00699454
     atom   19 type  4   force =    -0.00101185   -0.00901036   -0.00699450
     atom   20 type  4   force =     0.00860701   -0.00285216    0.00699444
     The Hubbard contrib.    to forces
     atom    1 type  1   force =     0.00000000    0.00000000    0.00000000
     atom    2 type  1   force =     0.00000000    0.00000000    0.00000000
     atom    3 type  2   force =     0.00000000    0.00000000    0.00000000
     atom    4 type  2   force =     0.00000000    0.00000000    0.00000000
     atom    5 type  3   force =     0.00000000    0.00000000    0.00000000
     atom    6 type  3   force =     0.00000000    0.00000000    0.00000000
     atom    7 type  3   force =     0.00000000    0.00000000    0.00000000
     atom    8 type  3   force =     0.00000000    0.00000000    0.00000000
     atom    9 type  4   force =     0.00000000    0.00000000    0.00000000
     atom   10 type  4   force =     0.00000000    0.00000000    0.00000000
     atom   11 type  4   force =     0.00000000    0.00000000    0.00000000
     atom   12 type  4   force =     0.00000000    0.00000000    0.00000000
     atom   13 type  4   force =     0.00000000    0.00000000    0.00000000
     atom   14 type  4   force =     0.00000000    0.00000000    0.00000000
     atom   15 type  4   force =     0.00000000    0.00000000    0.00000000
     atom   16 type  4   force =     0.00000000    0.00000000    0.00000000
     atom   17 type  4   force =     0.00000000    0.00000000    0.00000000
     atom   18 type  4   force =     0.00000000    0.00000000    0.00000000
     atom   19 type  4   force =     0.00000000    0.00000000    0.00000000
     atom   20 type  4   force =     0.00000000    0.00000000    0.00000000
     The SCF correction term to forces
     atom    1 type  1   force =     0.00003370    0.00002958    0.00005276
     atom    2 type  1   force =     0.00001432    0.00004687    0.00004305
     atom    3 type  2   force =     0.00000304    0.00000612   -0.00009841
     atom    4 type  2   force =    -0.00001390    0.00000743    0.00003401
     atom    5 type  3   force =    -0.00001860    0.00002516    0.00002982
     atom    6 type  3   force =    -0.00000721    0.00002197   -0.00006402
     atom    7 type  3   force =     0.00001273   -0.00001822   -0.00007597
     atom    8 type  3   force =     0.00001603   -0.00002628    0.00002590
     atom    9 type  4   force =     0.00001122    0.00001805    0.00004193
     atom   10 type  4   force =    -0.00000527    0.00000228   -0.00004888
     atom   11 type  4   force =     0.00000545   -0.00000535   -0.00006192
     atom   12 type  4   force =     0.00001557   -0.00000298    0.00003017
     atom   13 type  4   force =     0.00000231    0.00003438    0.00004051
     atom   14 type  4   force =    -0.00002048    0.00001055   -0.00004862
     atom   15 type  4   force =    -0.00001178   -0.00002271   -0.00006182
     atom   16 type  4   force =     0.00003496   -0.00000792    0.00004958
     atom   17 type  4   force =     0.00000386   -0.00002825    0.00006156
     atom   18 type  4   force =     0.00001729   -0.00001079   -0.00006251
     atom   19 type  4   force =    -0.00000731    0.00000529   -0.00007195
     atom   20 type  4   force =    -0.00001645    0.00001511    0.00005620

     Total force =     0.175179     Total SCF correction =     0.000276

     Computing stress (Cartesian axis) and pressure

          total   stress  (Ry/bohr**3)                   (kbar)     P=     -409.53
  -0.00305883  -0.00029363   0.00002804         -449.97      -43.19        4.13
  -0.00029363  -0.00278820   0.00001795          -43.19     -410.16        2.64
   0.00002804   0.00001795  -0.00250479            4.13        2.64     -368.47

     kinetic stress (kbar)  17814.10    302.57     94.90
                              302.57  17535.24     60.76
                               94.90     60.76  17309.05

     local   stress (kbar)  -8311.32  10318.83   2125.73
                            10318.83 -17821.41   1361.01
                             2125.73   1361.01 -17545.17

     nonloc. stress (kbar)   4667.66    -43.75      7.01
                              -43.75   4707.98      4.49
                                7.01      4.49   4775.05

     hartree stress (kbar)   5894.73  -4196.41   -689.74
                            -4196.41   9762.24   -441.61
                             -689.74   -441.61   8888.15

     exc-cor stress (kbar)   4385.57     -4.38     -2.88
                               -4.38   4389.61     -1.84
                               -2.88     -1.84   4395.40

     corecor stress (kbar)  -7978.20     -0.25     -0.90
                               -0.25  -7977.97     -0.57
                               -0.90     -0.57  -7984.68

     ewald   stress (kbar) -16922.50  -6419.80  -1530.01
                            -6419.80 -11005.85   -979.59
                            -1530.01   -979.59 -10206.27

     hubbard stress (kbar)      0.00      0.00      0.00
                                0.00      0.00      0.00
                                0.00      0.00      0.00

     DFT-D   stress (kbar)      0.00      0.00      0.00
                                0.00      0.00      0.00
                                0.00      0.00      0.00

     XDM     stress (kbar)      0.00      0.00      0.00
                                0.00      0.00      0.00
                                0.00      0.00      0.00

     dft-nl  stress (kbar)      0.00      0.00      0.00
                                0.00      0.00      0.00
                                0.00      0.00      0.00

     TS-vdW  stress (kbar)      0.00      0.00      0.00
                                0.00      0.00      0.00
                                0.00      0.00      0.00

[...]

                                0.00      0.00      0.00

     Writing all to output data dir new_calculations/myprefix.save/

     General routines

     Parallel routines

     PAW routines

   This run was terminated on:  17:43:15  20May2023

   JOB DONE.