     Program PWSCF v.7.0 starts on 20May2023 at 11: 7:51

     Reading input from espresso_9353.pwi
Warning: card &CELL ignored
Warning: card / ignored

     Current dimensions of program PWSCF are:
     Max number of different atomic species (ntypx) = 10
     Max number of k-points (npk) =  40000
     Max angular momentum in pseudopotentials (lmaxx) =  4
     file Fe.pbe-spn-kjpaw_psl.0.2.1.UPF: wavefunction(s)  3D renormalized

     gamma-point specific algorithms are used
     Message from routine setup:
     using ibrav=0 with symmetry is DISCOURAGED, use correct ibrav instead

     Subspace diagonalization in iterative solution of the eigenvalue problem:
     a serial algorithm will be used

     Using Slab Decomposition

     bravais-lattice index     =            0
     lattice parameter (alat)  =      11.8927  a.u.
     unit-cell volume          =    1628.0678 (a.u.)^3
     number of atoms/cell      =           20
     number of atomic types    =            3
     number of electrons       =       160.00
     number of Kohn-Sham states=           96
     kinetic-energy cutoff     =      30.0000  Ry
     charge density cutoff     =     240.0000  Ry
     scf convergence threshold =      1.0E-06
     mixing beta               =       0.7000
     number of iterations used =            8  plain     mixing
     Exchange-correlation=  SLA  PW   PBX  PBC
                           (   1   4   3   4   0   0   0)

     celldm(1)=  11.892698  celldm(2)=   0.000000  celldm(3)=   0.000000
     celldm(4)=   0.000000  celldm(5)=   0.000000  celldm(6)=   0.000000

     crystal axes: (cart. coord. in units of alat)
               a(1) = (   1.000000   0.000000   0.000000 )
               a(2) = (  -0.330104   0.943945   0.000000 )
               a(3) = (   0.000000   0.000000   1.025380 )

     reciprocal axes: (cart. coord. in units 2 pi/alat)
               b(1) = (  1.000000  0.349706  0.000000 )
               b(2) = (  0.000000  1.059384  0.000000 )
               b(3) = (  0.000000  0.000000  0.975248 )

     PseudoPot. # 1 for Li read from file:
     /home/pragov/projects/rrg-bengioy-ad/pragov/crystal_structure_design/SSSP/li_pbe_v1.4.uspp.F.UPF
     MD5 check sum: e912e257baa3777c20ea3d68f190483c
     Pseudo is Ultrasoft, Zval =  3.0
     Generated by new atomic code, or converted to UPF format
     Using radial grid of  751 points,  5 beta functions with:
                l(1) =   0
                l(2) =   0
                l(3) =   0
                l(4) =   1
                l(5) =   1
     Q(r) pseudized with 10 coefficients,  rinner =    1.150   1.150   1.150

     PseudoPot. # 2 for Fe read from file:
     /home/pragov/projects/rrg-bengioy-ad/pragov/crystal_structure_design/SSSP/Fe.pbe-spn-kjpaw_psl.0.2.1.UPF
     MD5 check sum: e86618425769142926afa95317d90200
     Pseudo is Projector augmented-wave + core cor, Zval = 16.0
     Generated using "atomic" code by A. Dal Corso  v.5.0.99 svn rev. 10869
     Shape of augmentation charge: PSQ
     Using radial grid of 1191 points,  6 beta functions with:
                l(1) =   0
                l(2) =   0
                l(3) =   1
                l(4) =   1
                l(5) =   2
                l(6) =   2
     Q(r) pseudized with 0 coefficients

     PseudoPot. # 3 for F  read from file:
     /home/pragov/projects/rrg-bengioy-ad/pragov/crystal_structure_design/SSSP/f_pbe_v1.4.uspp.F.UPF
     MD5 check sum: 4c38b6a325caf53ec0e86aed9459de46
     Pseudo is Ultrasoft, Zval =  7.0
     Generated by new atomic code, or converted to UPF format
     Using radial grid of  799 points,  4 beta functions with:
                l(1) =   0
                l(2) =   0
                l(3) =   1
                l(4) =   1
     Q(r) pseudized with  8 coefficients,  rinner =    0.950   0.950   0.950

     atomic species   valence    mass     pseudopotential
        Li             3.00     6.94000     Li( 1.00)
        Fe            16.00    55.84500     Fe( 1.00)
        F              7.00    18.99840     F ( 1.00)

      4 Sym. Ops., with inversion, found ( 2 have fractional translation)

                                    s                        frac. trans.

      isym =  1     identity

 cryst.   s( 1) = (     1          0          0      )
                  (     0          1          0      )
                  (     0          0          1      )

 cart.    s( 1) = (  1.0000000  0.0000000  0.0000000 )
                  (  0.0000000  1.0000000  0.0000000 )
                  (  0.0000000  0.0000000  1.0000000 )

      isym =  2     180 deg rotation - cart. axis [0,0,1]

 cryst.   s( 2) = (    -1          0          0      )    f =(  0.0000000 )
                  (     0         -1          0      )       (  0.0000000 )
                  (     0          0          1      )       ( -0.5000000 )

 cart.    s( 2) = ( -1.0000000 -0.0000000  0.0000000 )    f =( -0.0000000 )
                  (  0.0000000 -1.0000000  0.0000000 )       (  0.0000000 )
                  (  0.0000000  0.0000000  1.0000000 )       ( -0.5126899 )

      isym =  3     inversion

 cryst.   s( 3) = (    -1          0          0      )
                  (     0         -1          0      )
                  (     0          0         -1      )

 cart.    s( 3) = ( -1.0000000 -0.0000000  0.0000000 )
                  (  0.0000000 -1.0000000  0.0000000 )
                  (  0.0000000  0.0000000 -1.0000000 )

      isym =  4     inv. 180 deg rotation - cart. axis [0,0,1]

 cryst.   s( 4) = (     1          0          0      )    f =(  0.0000000 )
                  (     0          1          0      )       (  0.0000000 )
                  (     0          0         -1      )       (  0.5000000 )

 cart.    s( 4) = (  1.0000000  0.0000000  0.0000000 )    f =(  0.0000000 )
                  (  0.0000000  1.0000000  0.0000000 )       (  0.0000000 )
                  (  0.0000000  0.0000000 -1.0000000 )       (  0.5126899 )

   Cartesian axes

     site n.     atom                  positions (alat units)
         1           Li  tau(   1) = (   0.3387058   0.4693057   0.2563450  )
         2           Li  tau(   2) = (   0.9997100   0.0002058   0.7690349  )
         3           Li  tau(   3) = (  -0.3298136   0.9437389   0.2563450  )
         4           Li  tau(   4) = (   0.3311907   0.4746390   0.7690349  )
         5           Fe  tau(   5) = (  -0.1650518   0.4719724   0.0000000  )
         6           Fe  tau(   6) = (  -0.1650518   0.4719724   0.5126899  )
         7           Fe  tau(   7) = (   0.5000000   0.0000000   0.0000000  )
         8           Fe  tau(   8) = (   0.5000000   0.0000000   0.5126899  )
         9           F   tau(   9) = (   0.7219806   0.6468438   0.7690349  )
        10           F   tau(  10) = (   0.3722564   0.8950352   0.2563450  )
        11           F   tau(  11) = (   0.7097559   0.6447926   0.2563450  )
        12           F   tau(  12) = (   0.3743556   0.8828186   0.7690349  )
        13           F   tau(  13) = (   0.5208661   0.3400306   0.5191386  )
        14           F   tau(  14) = (   0.5208661   0.3400306   1.0189313  )
        15           F   tau(  15) = (   0.1490303   0.6039141   0.0064486  )
        16           F   tau(  16) = (   0.1490303   0.6039141   0.5062413  )
        17           F   tau(  17) = (  -0.0398594   0.2991521   0.7690349  )
        18           F   tau(  18) = (   0.2955408   0.0611261   0.2563450  )
        19           F   tau(  19) = (  -0.0520841   0.2971009   0.2563450  )
        20           F   tau(  20) = (   0.2976400   0.0489096   0.7690349  )

   Crystallographic axes

     site n.     atom                  positions (cryst. coord.)
         1           Li  tau(   1) = (  0.5028250  0.4971750  0.2500000  )
         2           Li  tau(   2) = (  0.9997820  0.0002180  0.7500000  )
         3           Li  tau(   3) = (  0.0002180  0.9997820  0.2500000  )
         4           Li  tau(   4) = (  0.4971750  0.5028250  0.7500000  )
         5           Fe  tau(   5) = ( -0.0000000  0.5000000  0.0000000  )
         6           Fe  tau(   6) = ( -0.0000000  0.5000000  0.5000000  )
         7           Fe  tau(   7) = (  0.5000000  0.0000000  0.0000000  )
         8           Fe  tau(   8) = (  0.5000000  0.0000000  0.5000000  )
         9           F   tau(   9) = (  0.9481860  0.6852560  0.7500000  )
        10           F   tau(  10) = (  0.6852560  0.9481860  0.2500000  )
        11           F   tau(  11) = (  0.9352440  0.6830830  0.2500000  )
        12           F   tau(  12) = (  0.6830830  0.9352440  0.7500000  )
        13           F   tau(  13) = (  0.6397770  0.3602230  0.5062890  )
        14           F   tau(  14) = (  0.6397770  0.3602230  0.9937110  )
        15           F   tau(  15) = (  0.3602230  0.6397770  0.0062890  )
        16           F   tau(  16) = (  0.3602230  0.6397770  0.4937110  )
        17           F   tau(  17) = (  0.0647560  0.3169170  0.7500000  )
        18           F   tau(  18) = (  0.3169170  0.0647560  0.2500000  )
        19           F   tau(  19) = (  0.0518140  0.3147440  0.2500000  )
        20           F   tau(  20) = (  0.3147440  0.0518140  0.7500000  )

     number of k points=     1  Methfessel-Paxton smearing, width (Ry)=  0.0010
                       cart. coord. in units 2pi/alat
        k(    1) = (   0.0000000   0.0000000   0.0000000), wk =   2.0000000

                       cryst. coord.
        k(    1) = (   0.0000000   0.0000000   0.0000000), wk =   2.0000000

     Check: negative core charge=   -0.000113

     Initial potential from superposition of free atoms

     starting charge     158.1953, renormalised to     160.0000
     Starting wfcs are  120 randomized atomic wfcs
     Checking if some PAW data can be deallocated...

     Self-consistent Calculation

     iteration #  1     ecut=    30.00 Ry     beta= 0.70
     Davidson diagonalization with overlap

     ethr =  1.00E-02,  avg # of iterations =  2.0

     negative rho (up, down):  7.257E-07 0.000E+00

     total energy              =   -1956.48469319 Ry
     estimated scf accuracy    <       3.14743544 Ry

[...]

     total energy              =   -1958.25925699 Ry
     estimated scf accuracy    <       0.00000126 Ry

     iteration # 14     ecut=    30.00 Ry     beta= 0.70
     Davidson diagonalization with overlap

     ethr =  7.90E-10,  avg # of iterations =  2.0

[...]

     End of self-consistent calculation

          k = 0.0000 0.0000 0.0000 (  2256 PWs)   bands (ev):

   -81.9008 -81.8915 -81.8902 -81.8892 -47.6560 -47.6504 -47.6363 -47.5982
   -47.5444 -47.5278 -47.5047 -47.5005 -47.3694 -47.3466 -47.3209 -47.3180
   -40.2980 -40.2933 -39.7902 -39.7864 -18.8353 -18.5756 -18.4868 -18.3873
   -18.3845 -18.3831 -18.3636 -18.3115 -18.2255 -18.1861 -18.0991 -18.0593
    -1.7774  -1.5389  -1.2992  -1.1160  -1.0991  -1.0939  -0.8613  -0.7124
    -0.5979  -0.5548  -0.5413  -0.4696  -0.4626  -0.4444  -0.3775  -0.3758
    -0.1765  -0.1111  -0.0958  -0.0837  -0.0328   0.2397   0.3320   0.3406
     0.3429   0.4665   0.5416   0.5591   0.7734   0.8381   0.9639   0.9886
     0.9980   1.1115   1.1618   1.2622   4.1645   4.2667   4.3048   4.3546
     4.3990   4.4553   4.4651   4.4794   4.4951   4.4980   4.5726   4.7267
     5.7929   5.7951   5.8351   5.8924   6.2035   6.2325   6.2762   6.3405
     7.3603   9.6669  11.4179  11.7140  12.1481  12.3423  12.5125  12.7533

     occupation numbers
     1.0000   1.0000   1.0000   1.0000   1.0000   1.0000   1.0000   1.0000
     1.0000   1.0000   1.0000   1.0000   1.0000   1.0000   1.0000   1.0000
     1.0000   1.0000   1.0000   1.0000   1.0000   1.0000   1.0000   1.0000
     1.0000   1.0000   1.0000   1.0000   1.0000   1.0000   1.0000   1.0000
     1.0000   1.0000   1.0000   1.0000   1.0000   1.0000   1.0000   1.0000
     1.0000   1.0000   1.0000   1.0000   1.0000   1.0000   1.0000   1.0000
     1.0000   1.0000   1.0000   1.0000   1.0000   1.0000   1.0000   1.0000
     1.0000   1.0000   1.0000   1.0000   1.0000   1.0000   1.0000   1.0000
     1.0000   1.0000   1.0000   1.0000   1.0000   1.0000   1.0000   1.0000
     1.0000   1.0000   1.0000   1.0000   1.0000   1.0000   1.0000   1.0000
    -0.0000  -0.0000  -0.0000  -0.0000  -0.0000  -0.0000  -0.0000  -0.0000
    -0.0000  -0.0000  -0.0000  -0.0000  -0.0000  -0.0000  -0.0000  -0.0000

     the Fermi energy is     5.4732 ev

!    total energy              =   -1958.25925715 Ry
     estimated scf accuracy    <       0.00000042 Ry
     smearing contrib. (-TS)   =       0.00000000 Ry
     internal energy E=F+TS    =   -1958.25925715 Ry

     The total energy is F=E-TS. E is the sum of the following terms:
     one-electron contribution =   -1159.84962634 Ry
     hartree contribution      =     645.15014202 Ry
     xc contribution           =    -264.92254583 Ry
     ewald contribution        =    -874.37216542 Ry
     one-center paw contrib.   =    -304.26506158 Ry
      -> PAW hartree energy AE =     828.40897028 Ry
      -> PAW hartree energy PS =    -825.26931176 Ry
      -> PAW xc energy AE      =    -444.36826559 Ry
      -> PAW xc energy PS      =     136.96354549 Ry
      -> total E_H with PAW    =     648.28980054 Ry
      -> total E_XC with PAW   =    -572.32726593 Ry

     convergence has been achieved in  14 iterations

     negative rho (up, down):  3.865E-03 0.000E+00

     Forces acting on atoms (cartesian axes, Ry/au):

     atom    1 type  1   force =    -0.00064235    0.00045720   -0.00000000
     atom    2 type  1   force =     0.00109413   -0.00077494   -0.00000000
     atom    3 type  1   force =    -0.00109413    0.00077494    0.00000000
     atom    4 type  1   force =     0.00064235   -0.00045720   -0.00000000
     atom    5 type  2   force =     0.00000000    0.00000000    0.00000000
     atom    6 type  2   force =     0.00000000   -0.00000000    0.00000000
     atom    7 type  2   force =     0.00000000    0.00000000    0.00000000
     atom    8 type  2   force =     0.00000000    0.00000000    0.00000000
     atom    9 type  3   force =     0.01284899   -0.01716199    0.00000000
     atom   10 type  3   force =    -0.02038597    0.00645220    0.00000000
     atom   11 type  3   force =     0.01715631   -0.01699213    0.00000000
     atom   12 type  3   force =    -0.02165351    0.01056403    0.00000000
     atom   13 type  3   force =     0.02106762   -0.01491581   -0.00303019
     atom   14 type  3   force =     0.02106762   -0.01491581    0.00303019
     atom   15 type  3   force =    -0.02106762    0.01491581   -0.00303019
     atom   16 type  3   force =    -0.02106762    0.01491581    0.00303019
     atom   17 type  3   force =    -0.01715631    0.01699213    0.00000000
     atom   18 type  3   force =     0.02165351   -0.01056403    0.00000000
     atom   19 type  3   force =    -0.01284899    0.01716199    0.00000000
     atom   20 type  3   force =     0.02038597   -0.00645220    0.00000000
     The non-local contrib.  to forces
     atom    1 type  1   force =     0.00409407   -0.00290321    0.00000000
     atom    2 type  1   force =    -0.00214415    0.00152372    0.00000000
     atom    3 type  1   force =     0.00214415   -0.00152372    0.00000000
     atom    4 type  1   force =    -0.00409407    0.00290321    0.00000000
     atom    5 type  2   force =     0.00000000   -0.00000000    0.00000000
     atom    6 type  2   force =     0.00000000    0.00000000    0.00000000
     atom    7 type  2   force =     0.00000000    0.00000000    0.00000000
     atom    8 type  2   force =    -0.00000000   -0.00000000    0.00000000
     atom    9 type  3   force =     0.33995123   -0.31151805    0.00000000
     atom   10 type  3   force =    -0.40624520    0.21801488   -0.00000000
     atom   11 type  3   force =     0.37403866   -0.26557368    0.00000000
     atom   12 type  3   force =    -0.37414029    0.26536065    0.00000000
     atom   13 type  3   force =     0.27435565   -0.19470708   -0.03234037
     atom   14 type  3   force =     0.27435565   -0.19470708    0.03234037
     atom   15 type  3   force =    -0.27435565    0.19470708   -0.03234037
     atom   16 type  3   force =    -0.27435565    0.19470708    0.03234037
     atom   17 type  3   force =    -0.37403866    0.26557368    0.00000000
     atom   18 type  3   force =     0.37414029   -0.26536065    0.00000000
     atom   19 type  3   force =    -0.33995123    0.31151805    0.00000000
     atom   20 type  3   force =     0.40624520   -0.21801488    0.00000000
     The ionic contribution  to forces
     atom    1 type  1   force =    -0.03887795    0.02759081   -0.00000000
     atom    2 type  1   force =    -0.09705503    0.06887778   -0.00000000
     atom    3 type  1   force =     0.09705503   -0.06887778   -0.00000000
     atom    4 type  1   force =     0.03887795   -0.02759081   -0.00000000
     atom    5 type  2   force =     0.00000000    0.00000000    0.00000000
     atom    6 type  2   force =     0.00000000    0.00000000   -0.00000000
     atom    7 type  2   force =    -0.00000000    0.00000000    0.00000000
     atom    8 type  2   force =    -0.00000000    0.00000000   -0.00000000
     atom    9 type  3   force =    -8.21724958   10.19949497    0.00000000
     atom   10 type  3   force =    12.34030280   -4.38973975   -0.00000000
     atom   11 type  3   force =    -8.35229459    9.91633436   -0.00000000
     atom   12 type  3   force =    12.11759368   -4.61068711    0.00000000
     atom   13 type  3   force =    -8.06478364    5.72339641    0.19442157
     atom   14 type  3   force =    -8.06478364    5.72339641   -0.19442157
     atom   15 type  3   force =     8.06478364   -5.72339641    0.19442157
     atom   16 type  3   force =     8.06478364   -5.72339641   -0.19442157
     atom   17 type  3   force =     8.35229459   -9.91633436    0.00000000
     atom   18 type  3   force =   -12.11759368    4.61068711   -0.00000000
     atom   19 type  3   force =     8.21724958  -10.19949497   -0.00000000
     atom   20 type  3   force =   -12.34030280    4.38973975    0.00000000
     The local contribution  to forces
     atom    1 type  1   force =     0.03413731   -0.02422485   -0.00001881
     atom    2 type  1   force =     0.10028384   -0.07116745    0.00001436
     atom    3 type  1   force =    -0.10028641    0.07116438   -0.00001466
     atom    4 type  1   force =    -0.03415023    0.02423560    0.00001838
     atom    5 type  2   force =     0.00003448    0.00000996   -0.00009368
     atom    6 type  2   force =     0.00002651    0.00001329    0.00009092
     atom    7 type  2   force =     0.00000479   -0.00004637   -0.00006710
     atom    8 type  2   force =     0.00000014   -0.00004523    0.00006427
     atom    9 type  3   force =     7.89015995   -9.90511402    0.00005812
     atom   10 type  3   force =   -11.95459476    4.17818176   -0.00006590
     atom   11 type  3   force =     7.99540564   -9.66770041   -0.00005143
     atom   12 type  3   force =   -11.76524729    4.35592418    0.00006328
     atom   13 type  3   force =     7.81140644   -5.54367504   -0.16508758
     atom   14 type  3   force =     7.81142915   -5.54371017    0.16509361
     atom   15 type  3   force =    -7.81143636    5.54372065   -0.16512587
     atom   16 type  3   force =    -7.81142066    5.54368431    0.16512517
     atom   17 type  3   force =    -7.99541111    9.66772080    0.00004888
     atom   18 type  3   force =    11.76523810   -4.35593047   -0.00006639
     atom   19 type  3   force =    -7.89014011    9.90510902   -0.00005673
     atom   20 type  3   force =    11.95459873   -4.17820025    0.00006497
     The core correction contribution to forces
     atom    1 type  1   force =     0.00000000    0.00000000    0.00000000
     atom    2 type  1   force =     0.00000000    0.00000000    0.00000000
     atom    3 type  1   force =     0.00000000    0.00000000    0.00000000
     atom    4 type  1   force =     0.00000000    0.00000000    0.00000000
     atom    5 type  2   force =     0.00000074    0.00000014   -0.00000094
     atom    6 type  2   force =    -0.00000015   -0.00000016    0.00000096
     atom    7 type  2   force =     0.00000028    0.00000083   -0.00000048
     atom    8 type  2   force =     0.00000021   -0.00000099    0.00000054
     atom    9 type  3   force =     0.00000000    0.00000000    0.00000000
     atom   10 type  3   force =     0.00000000    0.00000000    0.00000000
     atom   11 type  3   force =     0.00000000    0.00000000    0.00000000
     atom   12 type  3   force =     0.00000000    0.00000000    0.00000000
     atom   13 type  3   force =     0.00000000    0.00000000    0.00000000
     atom   14 type  3   force =     0.00000000    0.00000000    0.00000000
     atom   15 type  3   force =     0.00000000    0.00000000    0.00000000
     atom   16 type  3   force =     0.00000000    0.00000000    0.00000000
     atom   17 type  3   force =     0.00000000    0.00000000    0.00000000
     atom   18 type  3   force =     0.00000000    0.00000000    0.00000000
     atom   19 type  3   force =     0.00000000    0.00000000    0.00000000
     atom   20 type  3   force =     0.00000000    0.00000000    0.00000000
     The Hubbard contrib.    to forces
     atom    1 type  1   force =     0.00000000    0.00000000    0.00000000
     atom    2 type  1   force =     0.00000000    0.00000000    0.00000000
     atom    3 type  1   force =     0.00000000    0.00000000    0.00000000
     atom    4 type  1   force =     0.00000000    0.00000000    0.00000000
     atom    5 type  2   force =     0.00000000    0.00000000    0.00000000
     atom    6 type  2   force =     0.00000000    0.00000000    0.00000000
     atom    7 type  2   force =     0.00000000    0.00000000    0.00000000
     atom    8 type  2   force =     0.00000000    0.00000000    0.00000000
     atom    9 type  3   force =     0.00000000    0.00000000    0.00000000
     atom   10 type  3   force =     0.00000000    0.00000000    0.00000000
     atom   11 type  3   force =     0.00000000    0.00000000    0.00000000
     atom   12 type  3   force =     0.00000000    0.00000000    0.00000000
     atom   13 type  3   force =     0.00000000    0.00000000    0.00000000
     atom   14 type  3   force =     0.00000000    0.00000000    0.00000000
     atom   15 type  3   force =     0.00000000    0.00000000    0.00000000
     atom   16 type  3   force =     0.00000000    0.00000000    0.00000000
     atom   17 type  3   force =     0.00000000    0.00000000    0.00000000
     atom   18 type  3   force =     0.00000000    0.00000000    0.00000000
     atom   19 type  3   force =     0.00000000    0.00000000    0.00000000
     atom   20 type  3   force =     0.00000000    0.00000000    0.00000000
     The SCF correction term to forces
     atom    1 type  1   force =     0.00000512   -0.00000617    0.00002089
     atom    2 type  1   force =     0.00001076   -0.00000976   -0.00001345
     atom    3 type  1   force =    -0.00000562    0.00001130    0.00001506
     atom    4 type  1   force =     0.00000961   -0.00000582   -0.00002052
     atom    5 type  2   force =    -0.00005624   -0.00001455    0.00013593
     atom    6 type  2   force =    -0.00002443    0.00000290   -0.00012589
     atom    7 type  2   force =    -0.00001080    0.00006315    0.00010395
     atom    8 type  2   force =     0.00000755    0.00006574   -0.00008668
     atom    9 type  3   force =    -0.00001166   -0.00003030   -0.00007787
     atom   10 type  3   force =     0.00015694   -0.00000188    0.00007568
     atom   11 type  3   force =     0.00000467   -0.00005141    0.00007258
     atom   12 type  3   force =     0.00013550   -0.00003244   -0.00007334
     atom   13 type  3   force =     0.00009010    0.00008073   -0.00003142
     atom   14 type  3   force =     0.00005919    0.00009966    0.00002522
     atom   15 type  3   force =    -0.00005683   -0.00010341    0.00002156
     atom   16 type  3   force =    -0.00008371   -0.00008581   -0.00002176
     atom   17 type  3   force =    -0.00000306    0.00003301   -0.00007016
     atom   18 type  3   force =    -0.00013609    0.00004123    0.00007988
     atom   19 type  3   force =    -0.00000626    0.00002449    0.00007491
     atom   20 type  3   force =    -0.00014941    0.00002598   -0.00007909

     Total force =     0.082871     Total SCF correction =     0.000514

     Computing stress (Cartesian axis) and pressure

     negative rho (up, down):  3.865E-03 0.000E+00
          total   stress  (Ry/bohr**3)                   (kbar)     P=     -359.40
  -0.00249261   0.00009497   0.00000000         -366.68       13.97        0.00
   0.00009497  -0.00242640   0.00000000           13.97     -356.94        0.00
   0.00000000   0.00000000  -0.00241046            0.00        0.00     -354.59

     kinetic stress (kbar)  25172.85     94.22      0.00
                               94.22  25238.77      0.00
                                0.00      0.00  24971.96

     local   stress (kbar)   7583.87  -8079.84     -0.00
                            -8079.84   1932.71      0.00
                               -0.00      0.00 -21164.08

     nonloc. stress (kbar)  -7461.88     19.75      0.00
                               19.75  -7448.11      0.00
                                0.00      0.00  -7460.78

     hartree stress (kbar)  14133.59   4073.34      0.00
                             4073.34  16982.56     -0.00
                                0.00     -0.00  27176.80

     exc-cor stress (kbar)  -4106.81     -1.65      0.00
                               -1.65  -4107.97     -0.00
                                0.00     -0.00  -4107.02

     corecor stress (kbar)  -3138.66     -2.17     -0.00
                               -2.17  -3140.17     -0.00
                               -0.00     -0.00  -3131.38

     ewald   stress (kbar) -32549.64   3910.33     -0.00
                             3910.33 -29814.71      0.00
                               -0.00      0.00 -16640.08

     hubbard stress (kbar)      0.00      0.00      0.00
                                0.00      0.00      0.00
                                0.00      0.00      0.00

     DFT-D   stress (kbar)      0.00      0.00      0.00
                                0.00      0.00      0.00
                                0.00      0.00      0.00

     XDM     stress (kbar)      0.00      0.00      0.00
                                0.00      0.00      0.00
                                0.00      0.00      0.00

     dft-nl  stress (kbar)      0.00      0.00      0.00
                                0.00      0.00      0.00
                                0.00      0.00      0.00

     TS-vdW  stress (kbar)      0.00      0.00      0.00
                                0.00      0.00      0.00
                                0.00      0.00      0.00

[...]

                                0.00      0.00      0.00

     Writing all to output data dir new_calculations/myprefix.save/

     General routines

     Parallel routines

     PAW routines

   This run was terminated on:  11: 8:16  20May2023

   JOB DONE.