     Program PWSCF v.7.0 starts on 21May2023 at  1:29:45

     Reading input from espresso_23269.pwi
Warning: card &CELL ignored
Warning: card / ignored

     Current dimensions of program PWSCF are:
     Max number of different atomic species (ntypx) = 10
     Max number of k-points (npk) =  40000
     Max angular momentum in pseudopotentials (lmaxx) =  4
     file Ba.pbe-spn-kjpaw_psl.1.0.0.UPF: wavefunction(s)  5S 6S renormalized
     file Ga.pbe-dn-kjpaw_psl.1.0.0.UPF: wavefunction(s)  4S renormalized

     gamma-point specific algorithms are used
     Message from routine setup:
     using ibrav=0 with symmetry is DISCOURAGED, use correct ibrav instead

     Subspace diagonalization in iterative solution of the eigenvalue problem:
     a serial algorithm will be used

     Using Slab Decomposition

     bravais-lattice index     =            0
     lattice parameter (alat)  =       8.0731  a.u.
     unit-cell volume          =     547.4365 (a.u.)^3
     number of atoms/cell      =            3
     number of atomic types    =            3
     number of electrons       =        27.00
     number of Kohn-Sham states=           18
     kinetic-energy cutoff     =      30.0000  Ry
     charge density cutoff     =     240.0000  Ry
     scf convergence threshold =      1.0E-06
     mixing beta               =       0.7000
     number of iterations used =            8  plain     mixing
     Exchange-correlation= PBE
                           (   1   4   3   4   0   0   0)

     celldm(1)=   8.073066  celldm(2)=   0.000000  celldm(3)=   0.000000
     celldm(4)=   0.000000  celldm(5)=   0.000000  celldm(6)=   0.000000

     crystal axes: (cart. coord. in units of alat)
               a(1) = (   1.000000   0.000000   0.000000 )
               a(2) = (  -0.500000   0.866025   0.000000 )
               a(3) = (   0.000000   0.000000   1.201400 )

     reciprocal axes: (cart. coord. in units 2 pi/alat)
               b(1) = (  1.000000  0.577350  0.000000 )
               b(2) = (  0.000000  1.154701  0.000000 )
               b(3) = (  0.000000  0.000000  0.832362 )

     PseudoPot. # 1 for Ba read from file:
     /home/pragov/projects/rrg-bengioy-ad/pragov/crystal_structure_design/SSSP/Ba.pbe-spn-kjpaw_psl.1.0.0.UPF
     MD5 check sum: c432291d3e53af55f19d5e8866385beb
     Pseudo is Projector augmented-wave + core cor, Zval = 10.0
     Generated using "atomic" code by A. Dal Corso  v.5.1
     Shape of augmentation charge: PSQ
     Using radial grid of 1251 points,  7 beta functions with:
                l(1) =   0
                l(2) =   0
                l(3) =   0
                l(4) =   1
                l(5) =   1
                l(6) =   2
                l(7) =   2
     Q(r) pseudized with 0 coefficients

     PseudoPot. # 2 for Ga read from file:
     /home/pragov/projects/rrg-bengioy-ad/pragov/crystal_structure_design/SSSP/Ga.pbe-dn-kjpaw_psl.1.0.0.UPF
     MD5 check sum: a27b4342b1af7e5f338de752e9ed7044
     Pseudo is Projector augmented-wave + core cor, Zval = 13.0
     Generated using "atomic" code by A. Dal Corso  v.5.1
     Shape of augmentation charge: PSQ
     Using radial grid of 1205 points,  6 beta functions with:
                l(1) =   0
                l(2) =   0
                l(3) =   1
                l(4) =   1
                l(5) =   2
                l(6) =   2
     Q(r) pseudized with 0 coefficients

     PseudoPot. # 3 for Si read from file:
     /home/pragov/projects/rrg-bengioy-ad/pragov/crystal_structure_design/SSSP/Si.pbe-n-rrkjus_psl.1.0.0.UPF
     MD5 check sum: 0b0bb1205258b0d07b9f9672cf965d36
     Pseudo is Ultrasoft + core correction, Zval =  4.0
     Generated using "atomic" code by A. Dal Corso  v.5.1
     Using radial grid of 1141 points,  6 beta functions with:
                l(1) =   0
                l(2) =   0
                l(3) =   1
                l(4) =   1
                l(5) =   2
                l(6) =   2
     Q(r) pseudized with 0 coefficients

     atomic species   valence    mass     pseudopotential
        Ba            10.00   137.32700     Ba( 1.00)
        Ga            13.00    69.72300     Ga( 1.00)
        Si             4.00    28.08500     Si( 1.00)

     12 Sym. Ops. (no inversion) found

                                    s                        frac. trans.

      isym =  1     identity

 cryst.   s( 1) = (     1          0          0      )
                  (     0          1          0      )
                  (     0          0          1      )

 cart.    s( 1) = (  1.0000000 -0.0000000  0.0000000 )
                  (  0.0000000  1.0000000  0.0000000 )
                  (  0.0000000  0.0000000  1.0000000 )

      isym =  2     180 deg rotation - cart. axis [0,1,0]

[...]

      isym =  3     120 deg rotation - cryst. axis [0,0,1]

[...]

      isym =  6     180 deg rotation - cryst. axis [2,1,0]

[...]

      isym =  7     inv. 180 deg rotation - cart. axis [0,0,1]

[...]

      isym =  8     inv. 180 deg rotation - cart. axis [1,0,0]

[...]

      isym =  9     inv.  60 deg rotation - cryst. axis [0,0,1]

 cryst.   s( 9) = (    -1         -1          0      )
                  (     1          0          0      )
                  (     0          0         -1      )

 cart.    s( 9) = ( -0.4999999  0.8660255  0.0000000 )
                  ( -0.8660253 -0.5000001  0.0000000 )
                  (  0.0000000  0.0000000 -1.0000000 )

[...]

 cryst.   s(10) = (     0          1          0      )
                  (    -1         -1          0      )
                  (     0          0         -1      )

 cart.    s(10) = ( -0.5000001 -0.8660255  0.0000000 )
                  (  0.8660253 -0.4999999  0.0000000 )
                  (  0.0000000  0.0000000 -1.0000000 )

[...]

      isym = 12     inv. 180 deg rotation - cryst. axis [1,1,0]

 cryst.   s(12) = (     0         -1          0      )
                  (    -1          0          0      )
                  (     0          0          1      )

 cart.    s(12) = (  0.5000001 -0.8660253  0.0000000 )
                  ( -0.8660253 -0.5000001  0.0000000 )
                  (  0.0000000  0.0000000  1.0000000 )

   Cartesian axes

     site n.     atom                  positions (alat units)
         1           Ba  tau(   1) = (  -0.0000006   0.5773505   0.0000000  )
         2           Ga  tau(   2) = (   0.5000005   0.2886748   0.6007000  )
         3           Si  tau(   3) = (   0.0000000   0.0000000   0.6007000  )

   Crystallographic axes

     site n.     atom                  positions (cryst. coord.)
         1           Ba  tau(   1) = (  0.3333330  0.6666670  0.0000000  )
         2           Ga  tau(   2) = (  0.6666670  0.3333330  0.5000000  )
         3           Si  tau(   3) = (  0.0000000  0.0000000  0.5000000  )

     number of k points=     1  Methfessel-Paxton smearing, width (Ry)=  0.0010
                       cart. coord. in units 2pi/alat
        k(    1) = (   0.0000000   0.0000000   0.0000000), wk =   2.0000000

                       cryst. coord.
        k(    1) = (   0.0000000   0.0000000   0.0000000), wk =   2.0000000

     Check: negative core charge=   -0.000001

     Initial potential from superposition of free atoms

     starting charge      26.9795, renormalised to      27.0000
     Starting wfcs are   18 randomized atomic wfcs
     Checking if some PAW data can be deallocated...

     Self-consistent Calculation

     iteration #  1     ecut=    30.00 Ry     beta= 0.70
     Davidson diagonalization with overlap

     ethr =  1.00E-02,  avg # of iterations =  7.0

     Threshold (ethr) on eigenvalues was too large:
     Diagonalizing with lowered threshold

     Davidson diagonalization with overlap

[...]

     total energy              =    -724.86109064 Ry
     estimated scf accuracy    <       0.15231997 Ry

[...]

     negative rho (up, down):  4.600E-05 0.000E+00

[...]

     total energy              =    -724.90512550 Ry
     estimated scf accuracy    <       0.00000106 Ry

     iteration # 16     ecut=    30.00 Ry     beta= 0.70
     Davidson diagonalization with overlap

     ethr =  3.93E-09,  avg # of iterations =  4.0

[...]

     End of self-consistent calculation

          k = 0.0000 0.0000 0.0000 (   744 PWs)   bands (ev):

   -18.9189  -6.4266  -6.3376  -6.3375  -6.2959  -6.2959  -4.3806  -3.9320
    -3.9320  -1.1845   7.1847   7.6892   7.6893   8.5796   8.6819  11.7746
    11.7747  12.5895

     occupation numbers
     1.0000   1.0000   1.0000   1.0000   1.0000   1.0000   1.0000   1.0000
     1.0000   1.0000   1.0000   1.0000   1.0000   0.5000  -0.0000  -0.0000
    -0.0000  -0.0000

     the Fermi energy is     8.5796 ev

!    total energy              =    -724.90512532 Ry
     estimated scf accuracy    <       0.00000044 Ry
     smearing contrib. (-TS)   =      -0.00028209 Ry
     internal energy E=F+TS    =    -724.90484322 Ry

     The total energy is F=E-TS. E is the sum of the following terms:
     one-electron contribution =    -125.01765254 Ry
     hartree contribution      =      82.77205381 Ry
     xc contribution           =     -64.60643744 Ry
     ewald contribution        =    -132.25042632 Ry
     one-center paw contrib.   =    -485.80238073 Ry
      -> PAW hartree energy AE =     172.17547356 Ry
      -> PAW hartree energy PS =    -169.73996119 Ry
      -> PAW xc energy AE      =    -545.25295278 Ry
      -> PAW xc energy PS      =      57.01505968 Ry
      -> total E_H with PAW    =      85.20756617 Ry
      -> total E_XC with PAW   =    -552.84433053 Ry

     convergence has been achieved in  16 iterations

     negative rho (up, down):  9.264E-05 0.000E+00

     Forces acting on atoms (cartesian axes, Ry/au):

     atom    1 type  1   force =     0.00000000    0.00000000    0.00000000
     atom    2 type  2   force =     0.00000000   -0.00000000    0.00000000
     atom    3 type  3   force =     0.00000000    0.00000000    0.00000000
     The non-local contrib.  to forces
     atom    1 type  1   force =     0.00000000    0.00000000    0.00000000
     atom    2 type  2   force =     0.00000000   -0.00000000    0.00000000
     atom    3 type  3   force =     0.00000000   -0.00000000    0.00000000
     The ionic contribution  to forces
     atom    1 type  1   force =     0.00000862   -0.00000498   -0.00000000
     atom    2 type  2   force =    -0.00001595    0.00000921   -0.00000000
     atom    3 type  3   force =     0.00000732   -0.00000423   -0.00000000
     The local contribution  to forces
     atom    1 type  1   force =    -0.00017712    0.00005310   -0.00036786
     atom    2 type  2   force =     0.00002609   -0.00012954   -0.00015856
     atom    3 type  3   force =     0.00001221    0.00005619   -0.00001925
     The core correction contribution to forces
     atom    1 type  1   force =     0.00001204   -0.00000545   -0.00001634
     atom    2 type  2   force =     0.00000012   -0.00000695   -0.00000571
     atom    3 type  3   force =     0.00000155    0.00000620   -0.00000308
     The Hubbard contrib.    to forces
     atom    1 type  1   force =     0.00000000    0.00000000    0.00000000
     atom    2 type  2   force =     0.00000000    0.00000000    0.00000000
     atom    3 type  3   force =     0.00000000    0.00000000    0.00000000
     The SCF correction term to forces
     atom    1 type  1   force =     0.00003162    0.00003151    0.00007480
     atom    2 type  2   force =     0.00001712    0.00033365    0.00019572
     atom    3 type  3   force =    -0.00000611   -0.00001514   -0.00001003

     Total force =     0.000000     Total SCF correction =     0.000397

     Computing stress (Cartesian axis) and pressure

     negative rho (up, down):  9.264E-05 0.000E+00
          total   stress  (Ry/bohr**3)                   (kbar)     P=      126.28
   0.00130102   0.00000000  -0.00000000          191.39        0.00       -0.00
   0.00000000   0.00130102   0.00000000            0.00      191.39        0.00
  -0.00000000   0.00000000  -0.00002667           -0.00        0.00       -3.92

     kinetic stress (kbar)   6605.13      0.00      0.00
                                0.00   6605.13     -0.00
                                0.00     -0.00   6376.81

     local   stress (kbar)  -3551.14     -0.02     -0.01
                               -0.02  -3551.08      0.00
                               -0.01      0.00   1934.13

     nonloc. stress (kbar)   3094.85      0.00      0.00
                                0.00   3094.85      0.00
                                0.00      0.00   3119.05

     hartree stress (kbar)   8165.66      0.01      0.00
                                0.01   8165.61      0.00
                                0.00      0.00   5910.93

     exc-cor stress (kbar)   4989.61     -0.00      0.00
                               -0.00   4989.61      0.00
                                0.00      0.00   4984.20

     corecor stress (kbar)  -8337.69     -0.00     -0.00
                               -0.00  -8337.69      0.00
                               -0.00      0.00  -8341.27

     ewald   stress (kbar) -10775.03     -0.00      0.00
                               -0.00 -10775.04     -0.00
                                0.00     -0.00 -13987.77

     hubbard stress (kbar)      0.00      0.00      0.00
                                0.00      0.00      0.00
                                0.00      0.00      0.00

     DFT-D   stress (kbar)      0.00      0.00      0.00
                                0.00      0.00      0.00
                                0.00      0.00      0.00

     XDM     stress (kbar)      0.00      0.00      0.00
                                0.00      0.00      0.00
                                0.00      0.00      0.00

     dft-nl  stress (kbar)      0.00      0.00      0.00
                                0.00      0.00      0.00
                                0.00      0.00      0.00

     TS-vdW  stress (kbar)      0.00      0.00      0.00
                                0.00      0.00      0.00
                                0.00      0.00      0.00

[...]

                                0.00      0.00      0.00

     Writing all to output data dir new_calculations/myprefix.save/

     General routines

     Parallel routines

     PAW routines

   This run was terminated on:   1:30: 4  21May2023

   JOB DONE.