     Program PWSCF v.7.0 starts on 20May2023 at 15:59:43

     Reading input from espresso_11454.pwi
Warning: card &CELL ignored
Warning: card / ignored

     Current dimensions of program PWSCF are:
     Max number of different atomic species (ntypx) = 10
     Max number of k-points (npk) =  40000
     Max angular momentum in pseudopotentials (lmaxx) =  4
     file O.pbe-n-kjpaw_psl.0.1.UPF: wavefunction(s)  2P renormalized

     gamma-point specific algorithms are used
     Message from routine setup:
     using ibrav=0 with symmetry is DISCOURAGED, use correct ibrav instead

     Subspace diagonalization in iterative solution of the eigenvalue problem:
     a serial algorithm will be used

     Using Slab Decomposition

     bravais-lattice index     =            0
     lattice parameter (alat)  =      12.5189  a.u.
     unit-cell volume          =    1473.4040 (a.u.)^3
     number of atoms/cell      =           20
     number of atomic types    =            4
     number of electrons       =       120.00
     number of Kohn-Sham states=           72
     kinetic-energy cutoff     =      30.0000  Ry
     charge density cutoff     =     240.0000  Ry
     scf convergence threshold =      1.0E-06
     mixing beta               =       0.7000
     number of iterations used =            8  plain     mixing
     Exchange-correlation= SLA  PW   PBX  PBC
                           (   1   4   3   4   0   0   0)

     celldm(1)=  12.518879  celldm(2)=   0.000000  celldm(3)=   0.000000
     celldm(4)=   0.000000  celldm(5)=   0.000000  celldm(6)=   0.000000

     crystal axes: (cart. coord. in units of alat)
               a(1) = (   1.000000   0.000000   0.000000 )
               a(2) = (   0.109135   0.994027   0.000000 )
               a(3) = (   0.217566   0.194987   0.755488 )

     reciprocal axes: (cart. coord. in units 2 pi/alat)
               b(1) = (  1.000000 -0.109791 -0.259645 )
               b(2) = (  0.000000  1.006009 -0.259645 )
               b(3) = (  0.000000  0.000000  1.323648 )

     PseudoPot. # 1 for Li read from file:
     /home/pragov/projects/rrg-bengioy-ad/pragov/crystal_structure_design/SSSP/li_pbe_v1.4.uspp.F.UPF
     MD5 check sum: e912e257baa3777c20ea3d68f190483c
     Pseudo is Ultrasoft, Zval =  3.0
     Generated by new atomic code, or converted to UPF format
     Using radial grid of  751 points,  5 beta functions with:
                l(1) =   0
                l(2) =   0
                l(3) =   0
                l(4) =   1
                l(5) =   1
     Q(r) pseudized with 10 coefficients,  rinner =    1.150   1.150   1.150

     PseudoPot. # 2 for V  read from file:
     /home/pragov/projects/rrg-bengioy-ad/pragov/crystal_structure_design/SSSP/v_pbe_v1.4.uspp.F.UPF
     MD5 check sum: 22b79981416ebb76fdaf5b1b8640f6fb
     Pseudo is Ultrasoft + core correction, Zval = 13.0
     Generated by new atomic code, or converted to UPF format
     Using radial grid of  853 points,  6 beta functions with:
                l(1) =   0
                l(2) =   0
                l(3) =   1
                l(4) =   1
                l(5) =   2
                l(6) =   2
     Q(r) pseudized with  8 coefficients,  rinner =    1.100   1.100   1.100
                                                       1.100   1.100

     PseudoPot. # 3 for Si read from file:
     /home/pragov/projects/rrg-bengioy-ad/pragov/crystal_structure_design/SSSP/Si.pbe-n-rrkjus_psl.1.0.0.UPF
     MD5 check sum: 0b0bb1205258b0d07b9f9672cf965d36
     Pseudo is Ultrasoft + core correction, Zval =  4.0
     Generated using "atomic" code by A. Dal Corso  v.5.1
     Using radial grid of 1141 points,  6 beta functions with:
                l(1) =   0
                l(2) =   0
                l(3) =   1
                l(4) =   1
                l(5) =   2
                l(6) =   2
     Q(r) pseudized with 0 coefficients

     PseudoPot. # 4 for O  read from file:
     /home/pragov/projects/rrg-bengioy-ad/pragov/crystal_structure_design/SSSP/O.pbe-n-kjpaw_psl.0.1.UPF
     MD5 check sum: 0234752ac141de4415c5fc33072bef88
     Pseudo is Projector augmented-wave + core cor, Zval =  6.0
     Generated using "atomic" code by A. Dal Corso  v.5.0.99 svn rev. 10869
     Shape of augmentation charge: BESSEL
     Using radial grid of 1095 points,  4 beta functions with:
                l(1) =   0
                l(2) =   0
                l(3) =   1
                l(4) =   1
     Q(r) pseudized with 0 coefficients

     atomic species   valence    mass     pseudopotential
        Li             3.00     6.94000     Li( 1.00)
        V             13.00    50.94150     V ( 1.00)
        Si             4.00    28.08500     Si( 1.00)
        O              6.00    15.99900     O ( 1.00)

      2 Sym. Ops., with inversion, found

                                    s                        frac. trans.

      isym =  1     identity

 cryst.   s( 1) = (     1          0          0      )
                  (     0          1          0      )
                  (     0          0          1      )

 cart.    s( 1) = (  1.0000000  0.0000000  0.0000000 )
                  (  0.0000000  1.0000000 -0.0000000 )
                  (  0.0000000  0.0000000  1.0000000 )

      isym =  2     inversion

 cryst.   s( 2) = (    -1          0          0      )
                  (     0         -1          0      )
                  (     0          0         -1      )

 cart.    s( 2) = ( -1.0000000 -0.0000000 -0.0000000 )
                  (  0.0000000 -1.0000000  0.0000000 )
                  (  0.0000000  0.0000000 -1.0000000 )

   Cartesian axes

     site n.     atom                  positions (alat units)
         1           Li  tau(   1) = (   0.9347816   0.4010806   0.5666157  )
         2           Li  tau(   2) = (   0.3919193   0.7879329   0.1888719  )
         3           V   tau(   3) = (   0.3594886   1.0429924   0.5666157  )
         4           V   tau(   4) = (   0.9672123   0.1460211   0.1888719  )
         5           Si  tau(   5) = (   0.4096567   0.5273265   0.5521247  )
         6           Si  tau(   6) = (   0.9170442   0.6616870   0.2033629  )
         7           Si  tau(   7) = (   0.4601016   0.2521668   0.1743809  )
         8           Si  tau(   8) = (   0.8665993   0.9368467   0.5811067  )
         9           O   tau(   9) = (   0.2825274   0.1002361   0.2650908  )
        10           O   tau(  10) = (   0.7264323   0.6586866   0.0499128  )
        11           O   tau(  11) = (   0.4838866   0.4413127   0.3278310  )
        12           O   tau(  12) = (   0.6002687   0.5303270   0.7055748  )
        13           O   tau(  13) = (   0.8428143   0.7477008   0.4276566  )
        14           O   tau(  14) = (   0.9981860   0.4369933   0.2516756  )
        15           O   tau(  15) = (   1.0441735   1.0887775   0.4903968  )
        16           O   tau(  16) = (   0.2392540   0.3673939   0.6428346  )
        17           O   tau(  17) = (   0.6745978   0.1469877   0.1260682  )
        18           O   tau(  18) = (   0.3285149   0.7520202   0.5038120  )
        19           O   tau(  19) = (   0.6521031   1.0420259   0.6294194  )
        20           O   tau(  20) = (   1.0874470   0.8216197   0.1126530  )

   Crystallographic axes

     site n.     atom                  positions (cryst. coord.)
         1           Li  tau(   1) = (  0.7436280  0.2563720  0.7500000  )
         2           Li  tau(   2) = (  0.2563720  0.7436280  0.2500000  )
         3           V   tau(   3) = (  0.0978590  0.9021410  0.7500000  )
         4           V   tau(   4) = (  0.9021410  0.0978590  0.2500000  )
         5           Si  tau(   5) = (  0.2084050  0.3871390  0.7308190  )
         6           Si  tau(   6) = (  0.7915950  0.6128610  0.2691810  )
         7           Si  tau(   7) = (  0.3871390  0.2084050  0.2308190  )
         8           Si  tau(   8) = (  0.6128610  0.7915950  0.7691810  )
         9           O   tau(   9) = (  0.2026930  0.0320090  0.3508870  )
        10           O   tau(  10) = (  0.6411550  0.6496850  0.0660670  )
        11           O   tau(  11) = (  0.3503150  0.3588450  0.4339330  )
        12           O   tau(  12) = (  0.3588450  0.3503150  0.9339330  )
        13           O   tau(  13) = (  0.6496850  0.6411550  0.5660670  )
        14           O   tau(  14) = (  0.8848620  0.3742730  0.3331300  )
        15           O   tau(  15) = (  0.7973070  0.9679910  0.6491130  )
        16           O   tau(  16) = (  0.0320090  0.2026930  0.8508870  )
        17           O   tau(  17) = (  0.6257270  0.1151380  0.1668700  )
        18           O   tau(  18) = (  0.1151380  0.6257270  0.6668700  )
        19           O   tau(  19) = (  0.3742730  0.8848620  0.8331300  )
        20           O   tau(  20) = (  0.9679910  0.7973070  0.1491130  )

     number of k points=     1  Methfessel-Paxton smearing, width (Ry)=  0.0010
                       cart. coord. in units 2pi/alat
        k(    1) = (   0.0000000   0.0000000   0.0000000), wk =   2.0000000

                       cryst. coord.
        k(    1) = (   0.0000000   0.0000000   0.0000000), wk =   2.0000000

     Check: negative core charge=   -0.000013

     Initial potential from superposition of free atoms

     starting charge     119.0938, renormalised to     120.0000

     negative rho (up, down):  2.993E-04 0.000E+00
     Starting wfcs are   94 randomized atomic wfcs
     Checking if some PAW data can be deallocated...

     Self-consistent Calculation

     iteration #  1     ecut=    30.00 Ry     beta= 0.70
     Davidson diagonalization with overlap

     ethr =  1.00E-02,  avg # of iterations =  2.0

     negative rho (up, down):  2.305E-03 0.000E+00

     total energy              =    -863.69936085 Ry
     estimated scf accuracy    <       4.23029497 Ry

[...]

     total energy              =    -865.72419030 Ry
     estimated scf accuracy    <       0.00000247 Ry

     iteration # 54     ecut=    30.00 Ry     beta= 0.70
     Davidson diagonalization with overlap

     ethr =  2.06E-09,  avg # of iterations =  1.0

[...]

     End of self-consistent calculation

          k = 0.0000 0.0000 0.0000 (  2034 PWs)   bands (ev):

   -57.2995 -57.2919 -37.8935 -37.8933 -31.3637 -31.3418 -31.0621 -31.0275
   -31.0098 -30.9874 -14.1575 -13.8224 -12.6188 -12.5469 -12.4640 -12.4582
   -12.4570 -12.0296 -11.7642 -11.6839 -11.5497 -11.5375  -3.0612  -2.9710
    -1.0092  -0.2744  -0.0394   0.0292   0.3266   0.4205   0.7472   0.7883
     1.1224   1.2309   1.7121   1.8962   2.1374   2.3118   2.4584   2.5843
     2.6615   2.9422   2.9566   3.2407   3.3867   3.3908   3.4360   3.7707
     3.8474   3.8992   4.0909   4.1001   4.2787   4.3031   4.3864   4.6843
     4.8099   4.9781   8.2856   8.2962   8.2966   8.5370   8.5440   8.6205
     9.8716   9.9644  10.1806  10.4969  10.7047  13.5811  13.9045  14.1233

     occupation numbers
     1.0000   1.0000   1.0000   1.0000   1.0000   1.0000   1.0000   1.0000
     1.0000   1.0000   1.0000   1.0000   1.0000   1.0000   1.0000   1.0000
     1.0000   1.0000   1.0000   1.0000   1.0000   1.0000   1.0000   1.0000
     1.0000   1.0000   1.0000   1.0000   1.0000   1.0000   1.0000   1.0000
     1.0000   1.0000   1.0000   1.0000   1.0000   1.0000   1.0000   1.0000
     1.0000   1.0000   1.0000   1.0000   1.0000   1.0000   1.0000   1.0000
     1.0000   1.0000   1.0000   1.0000   1.0000   1.0000   1.0000   1.0000
     1.0000   1.0000   0.9898   0.5158   0.4945  -0.0000  -0.0000  -0.0000
    -0.0000  -0.0000  -0.0000  -0.0000  -0.0000  -0.0000  -0.0000  -0.0000

     the Fermi energy is     8.2965 ev

!    total energy              =    -865.72418996 Ry
     estimated scf accuracy    <       0.00000083 Ry
     smearing contrib. (-TS)   =      -0.00052263 Ry
     internal energy E=F+TS    =    -865.72366732 Ry

     The total energy is F=E-TS. E is the sum of the following terms:
     one-electron contribution =    -366.02075025 Ry
     hartree contribution      =     242.82002321 Ry
     xc contribution           =    -161.52391776 Ry
     ewald contribution        =    -466.89355866 Ry
     one-center paw contrib.   =    -114.10546387 Ry
      -> PAW hartree energy AE =     377.87471286 Ry
      -> PAW hartree energy PS =    -376.48721593 Ry
      -> PAW xc energy AE      =    -209.37201402 Ry
      -> PAW xc energy PS      =      93.87905322 Ry
      -> total E_H with PAW    =     244.20752014 Ry
      -> total E_XC with PAW   =    -277.01687856 Ry

     convergence has been achieved in  54 iterations

     negative rho (up, down):  1.257E-03 0.000E+00

     Forces acting on atoms (cartesian axes, Ry/au):

     atom    1 type  1   force =     0.00180714   -0.00200730   -0.00000461
     atom    2 type  1   force =    -0.00180714    0.00200730    0.00000461
     atom    3 type  2   force =    -0.01493074    0.01674710    0.00010974
     atom    4 type  2   force =     0.01493074   -0.01674710   -0.00010974
     atom    5 type  3   force =    -0.00411684   -0.00927553   -0.02735751
     atom    6 type  3   force =     0.00411684    0.00927553    0.02735751
     atom    7 type  3   force =    -0.00968369   -0.00305910   -0.02735582
     atom    8 type  3   force =     0.00968369    0.00305910    0.02735582
     atom    9 type  4   force =    -0.00112077   -0.00334669    0.00755583
     atom   10 type  4   force =    -0.02157636    0.00937489   -0.03018392
     atom   11 type  4   force =    -0.00696048    0.02246523    0.03018166
     atom   12 type  4   force =     0.02157636   -0.00937489    0.03018392
     atom   13 type  4   force =     0.00696048   -0.02246523   -0.03018166
     atom   14 type  4   force =    -0.01079992   -0.02620120    0.00943797
     atom   15 type  4   force =     0.00112077    0.00334669   -0.00755583
     atom   16 type  4   force =    -0.00343019   -0.00069888    0.00755533
     atom   17 type  4   force =     0.02723984    0.00787957   -0.00940743
     atom   18 type  4   force =     0.01079992    0.02620120   -0.00943797
     atom   19 type  4   force =    -0.02723984   -0.00787957    0.00940743
     atom   20 type  4   force =     0.00343019    0.00069888   -0.00755533
     The non-local contrib.  to forces
     atom    1 type  1   force =    -0.05175361    0.05774780    0.00000144
     atom    2 type  1   force =     0.05175361   -0.05774780   -0.00000144
     atom    3 type  2   force =    -0.05156639    0.05755781    0.00002089
     atom    4 type  2   force =     0.05156639   -0.05755781   -0.00002089
     atom    5 type  3   force =     0.05206895   -0.06738247   -0.04528556
     atom    6 type  3   force =    -0.05206895    0.06738247    0.04528556
     atom    7 type  3   force =    -0.06129868    0.05908562   -0.04527252
     atom    8 type  3   force =     0.06129868   -0.05908562    0.04527252
     atom    9 type  4   force =     0.49790637    0.64924596   -0.15006799
     atom   10 type  4   force =     0.69371041    0.49462083   -0.36087856
     atom   11 type  4   force =    -0.56736713   -0.63559268    0.36088001
     atom   12 type  4   force =    -0.69371041   -0.49462083    0.36087856
     atom   13 type  4   force =     0.56736713    0.63559268   -0.36088001
     atom   14 type  4   force =    -0.57753263    0.67397484   -0.43219951
     atom   15 type  4   force =    -0.49790637   -0.64924596    0.15006799
     atom   16 type  4   force =     0.69970646    0.42413283   -0.15009520
     atom   17 type  4   force =    -0.60694002    0.64763712    0.43213709
     atom   18 type  4   force =     0.57753263   -0.67397484    0.43219951
     atom   19 type  4   force =     0.60694002   -0.64763712   -0.43213709
     atom   20 type  4   force =    -0.69970646   -0.42413283    0.15009520
     The ionic contribution  to forces
     atom    1 type  1   force =    -2.34689408    2.61866364    0.00000000
     atom    2 type  1   force =     2.34689408   -2.61866364   -0.00000000
     atom    3 type  2   force =     3.89340954   -4.34426508    0.00000000
     atom    4 type  2   force =    -3.89340954    4.34426508    0.00000000
     atom    5 type  3   force =     1.09427737    1.14904318   -0.84968353
     atom    6 type  3   force =    -1.09427737   -1.14904318    0.84968353
     atom    7 type  3   force =     1.26160377    0.96234043   -0.84968353
     atom    8 type  3   force =    -1.26160377   -0.96234043    0.84968353
     atom    9 type  4   force =     5.96683552   -1.55235855   -4.31925975
     atom   10 type  4   force =    -4.05826400   -2.95971722    1.83709893
     atom   11 type  4   force =     3.38493705    3.71101521   -1.83709893
     atom   12 type  4   force =     4.05826400    2.95971722   -1.83709893
     atom   13 type  4   force =    -3.38493705   -3.71101521    1.83709893
     atom   14 type  4   force =     1.20777358    5.34062782    1.50624287
     atom   15 type  4   force =    -5.96683552    1.55235855    4.31925975
     atom   16 type  4   force =    -0.89189601    6.10061183   -4.31925975
     atom   17 type  4   force =    -5.44053824   -0.61771040   -1.50624287
     atom   18 type  4   force =    -1.20777358   -5.34062782   -1.50624287
     atom   19 type  4   force =     5.44053824    0.61771040    1.50624287
     atom   20 type  4   force =     0.89189601   -6.10061183    4.31925975
     The local contribution  to forces
     atom    1 type  1   force =     2.40048853   -2.67841878   -0.00003339
     atom    2 type  1   force =    -2.40049131    2.67842124    0.00002250
     atom    3 type  2   force =    -3.85349083    4.29980587    0.00027618
     atom    4 type  2   force =     3.85351510   -4.29978022   -0.00024745
     atom    5 type  3   force =    -1.14569035   -1.10041521    0.86240247
     atom    6 type  3   force =     1.14569269    1.10040440   -0.86238400
     atom    7 type  3   force =    -1.21892972   -1.01863792    0.86237485
     atom    8 type  3   force =     1.21892180    1.01864605   -0.86238755
     atom    9 type  4   force =    -6.46176383    0.90571448    4.47559293
     atom   10 type  4   force =     3.34907219    2.47891522   -1.51009313
     atom   11 type  4   force =    -2.82968451   -3.05843901    1.51013178
     atom   12 type  4   force =    -3.34908157   -2.47892323    1.51009412
     atom   13 type  4   force =     2.82969656    3.05844339   -1.51013424
     atom   14 type  4   force =    -0.64614962   -6.03549019   -1.06908051
     atom   15 type  4   force =     6.46172399   -0.90573873   -4.47570418
     atom   16 type  4   force =     0.19516106   -6.52195598    4.47566988
     atom   17 type  4   force =     6.06999530   -0.01638218    1.06913459
     atom   18 type  4   force =     0.64606841    6.03545254    1.06903379
     atom   19 type  4   force =    -6.06996512    0.01642557   -1.06908580
     atom   20 type  4   force =    -0.19512347    6.52201690   -4.47559584
     The core correction contribution to forces
     atom    1 type  1   force =     0.00000000    0.00000000    0.00000000
     atom    2 type  1   force =     0.00000000    0.00000000    0.00000000
     atom    3 type  2   force =    -0.00339431    0.00379145    0.00000592
     atom    4 type  2   force =     0.00339621   -0.00379269   -0.00000554
     atom    5 type  3   force =    -0.00482438    0.00946273    0.00523608
     atom    6 type  3   force =     0.00482581   -0.00946171   -0.00523677
     atom    7 type  3   force =     0.00887839   -0.00582566    0.00523519
     atom    8 type  3   force =    -0.00887917    0.00582476   -0.00523466
     atom    9 type  4   force =    -0.00420872   -0.00593110    0.00141520
     atom   10 type  4   force =    -0.00601711   -0.00445312    0.00369267
     atom   11 type  4   force =     0.00508316    0.00549522   -0.00369274
     atom   12 type  4   force =     0.00601717    0.00445318   -0.00369268
     atom   13 type  4   force =    -0.00508319   -0.00549524    0.00369271
     atom   14 type  4   force =     0.00517480   -0.00539865    0.00449478
     atom   15 type  4   force =     0.00420861    0.00593074   -0.00141526
     atom   16 type  4   force =    -0.00635467   -0.00353669    0.00141557
     atom   17 type  4   force =     0.00480207   -0.00573317   -0.00449368
     atom   18 type  4   force =    -0.00517537    0.00539868   -0.00449501
     atom   19 type  4   force =    -0.00480204    0.00573342    0.00449370
     atom   20 type  4   force =     0.00635483    0.00353697   -0.00141580
     The Hubbard contrib.    to forces
     atom    1 type  1   force =     0.00000000    0.00000000    0.00000000
     atom    2 type  1   force =     0.00000000    0.00000000    0.00000000
     atom    3 type  2   force =     0.00000000    0.00000000    0.00000000
     atom    4 type  2   force =     0.00000000    0.00000000    0.00000000
     atom    5 type  3   force =     0.00000000    0.00000000    0.00000000
     atom    6 type  3   force =     0.00000000    0.00000000    0.00000000
     atom    7 type  3   force =     0.00000000    0.00000000    0.00000000
     atom    8 type  3   force =     0.00000000    0.00000000    0.00000000
     atom    9 type  4   force =     0.00000000    0.00000000    0.00000000
     atom   10 type  4   force =     0.00000000    0.00000000    0.00000000
     atom   11 type  4   force =     0.00000000    0.00000000    0.00000000
     atom   12 type  4   force =     0.00000000    0.00000000    0.00000000
     atom   13 type  4   force =     0.00000000    0.00000000    0.00000000
     atom   14 type  4   force =     0.00000000    0.00000000    0.00000000
     atom   15 type  4   force =     0.00000000    0.00000000    0.00000000
     atom   16 type  4   force =     0.00000000    0.00000000    0.00000000
     atom   17 type  4   force =     0.00000000    0.00000000    0.00000000
     atom   18 type  4   force =     0.00000000    0.00000000    0.00000000
     atom   19 type  4   force =     0.00000000    0.00000000    0.00000000
     atom   20 type  4   force =     0.00000000    0.00000000    0.00000000
     The SCF correction term to forces
     atom    1 type  1   force =    -0.00003429    0.00000075    0.00002686
     atom    2 type  1   force =     0.00003588   -0.00000177   -0.00001692
     atom    3 type  2   force =     0.00011542   -0.00015076   -0.00019232
     atom    4 type  2   force =    -0.00013327    0.00011072    0.00016506
     atom    5 type  3   force =     0.00005711    0.00001904   -0.00002789
     atom    6 type  3   force =    -0.00004981   -0.00000366    0.00000826
     atom    7 type  3   force =     0.00005935   -0.00002558   -0.00000866
     atom    8 type  3   force =    -0.00005706    0.00001032    0.00002314
     atom    9 type  4   force =     0.00010974   -0.00002720   -0.00012859
     atom   10 type  4   force =    -0.00007478    0.00001060   -0.00000217
     atom   11 type  4   force =     0.00007043   -0.00001479   -0.00004087
     atom   12 type  4   force =     0.00009025    0.00000021    0.00000450
     atom   13 type  4   force =    -0.00008348    0.00000788    0.00003853
     atom   14 type  4   force =    -0.00008788    0.00008680   -0.00002820
     atom   15 type  4   force =    -0.00007009    0.00003237    0.00023184
     atom   16 type  4   force =    -0.00004412    0.00005791   -0.00018192
     atom   17 type  4   force =    -0.00007628    0.00007680    0.00005903
     atom   18 type  4   force =     0.00012600   -0.00004555    0.00005808
     atom   19 type  4   force =     0.00005207   -0.00010322   -0.00010467
     atom   20 type  4   force =     0.00001220   -0.00010157    0.00009462

     Total force =     0.118877     Total SCF correction =     0.000634

     Computing stress (Cartesian axis) and pressure

     negative rho (up, down):  1.257E-03 0.000E+00
          total   stress  (Ry/bohr**3)                   (kbar)     P=     -434.95
  -0.00295749   0.00014812  -0.00002971         -435.06       21.79       -4.37
   0.00014812  -0.00299138  -0.00002690           21.79     -440.05       -3.96
  -0.00002971  -0.00002690  -0.00292125           -4.37       -3.96     -429.73

     kinetic stress (kbar)  20050.14     79.10    -17.96
                               79.10  20033.24    -16.15
                              -17.96    -16.15  20045.18

     local   stress (kbar)  -7753.16  -1284.28  -2167.64
                            -1284.28  -7472.48  -1942.70
                            -2167.64  -1942.70 -17198.03

     nonloc. stress (kbar)   2425.36     10.81     15.92
                               10.81   2423.04     14.28
                               15.92     14.28   2436.37

     hartree stress (kbar)   6781.68    515.94   1012.17
                              515.94   6668.99    907.14
                             1012.17    907.14  10792.54

     exc-cor stress (kbar)  -2169.63      1.06     -0.30
                                1.06  -2169.85     -0.27
                               -0.30     -0.27  -2165.28

     corecor stress (kbar)  -2472.66     -0.63     -0.69
                               -0.63  -2472.53     -0.62
                               -0.69     -0.62  -2473.00

     ewald   stress (kbar) -17296.80    699.79   1154.14
                              699.79 -17450.46   1034.36
                             1154.14   1034.36 -11867.52

     hubbard stress (kbar)      0.00      0.00      0.00
                                0.00      0.00      0.00
                                0.00      0.00      0.00

     DFT-D   stress (kbar)      0.00      0.00      0.00
                                0.00      0.00      0.00
                                0.00      0.00      0.00

     XDM     stress (kbar)      0.00      0.00      0.00
                                0.00      0.00      0.00
                                0.00      0.00      0.00

     dft-nl  stress (kbar)      0.00      0.00      0.00
                                0.00      0.00      0.00
                                0.00      0.00      0.00

     TS-vdW  stress (kbar)      0.00      0.00      0.00
                                0.00      0.00      0.00
                                0.00      0.00      0.00

[...]

                                0.00      0.00      0.00

     Writing all to output data dir new_calculations/myprefix.save/

     General routines

     Parallel routines

     PAW routines

   This run was terminated on:  16: 0:47  20May2023

   JOB DONE.