     Program PWSCF v.7.0 starts on 20May2023 at 13:12:34

     Reading input from espresso_19297.pwi
Warning: card &CELL ignored
Warning: card / ignored

     Current dimensions of program PWSCF are:
     Max number of different atomic species (ntypx) = 10
     Max number of k-points (npk) =  40000
     Max angular momentum in pseudopotentials (lmaxx) =  4
     file O.pbe-n-kjpaw_psl.0.1.UPF: wavefunction(s)  2P renormalized

     gamma-point specific algorithms are used
     Message from routine setup:
     using ibrav=0 with symmetry is DISCOURAGED, use correct ibrav instead

     Subspace diagonalization in iterative solution of the eigenvalue problem:
     a serial algorithm will be used

     Using Slab Decomposition

     bravais-lattice index     =            0
     lattice parameter (alat)  =      12.3948  a.u.
     unit-cell volume          =    1604.8032 (a.u.)^3
     number of atoms/cell      =           18
     number of atomic types    =            4
     number of electrons       =       168.00
     number of Kohn-Sham states=          101
     kinetic-energy cutoff     =      30.0000  Ry
     charge density cutoff     =     240.0000  Ry
     scf convergence threshold =      1.0E-06
     mixing beta               =       0.7000
     number of iterations used =            8  plain     mixing
     Exchange-correlation= SLA  PW   PBX  PBC
                           (   1   4   3   4   0   0   0)

     celldm(1)=  12.394850  celldm(2)=   0.000000  celldm(3)=   0.000000
     celldm(4)=   0.000000  celldm(5)=   0.000000  celldm(6)=   0.000000

     crystal axes: (cart. coord. in units of alat)
               a(1) = (   1.000000   0.000000   0.000000 )
               a(2) = (   0.000000   1.000000   0.000000 )
               a(3) = (   0.000000   0.000000   0.842748 )

     reciprocal axes: (cart. coord. in units 2 pi/alat)
               b(1) = (  1.000000  0.000000  0.000000 )
               b(2) = (  0.000000  1.000000  0.000000 )
               b(3) = (  0.000000  0.000000  1.186594 )

     PseudoPot. # 1 for Ti read from file:
     /home/pragov/projects/rrg-bengioy-ad/pragov/crystal_structure_design/SSSP/ti_pbe_v1.4.uspp.F.UPF
     MD5 check sum: 88a00a6731bd790ddea75d31a80cb452
     Pseudo is Ultrasoft + core correction, Zval = 12.0
     Generated by new atomic code, or converted to UPF format
     Using radial grid of  851 points,  6 beta functions with:
                l(1) =   0
                l(2) =   0
                l(3) =   1
                l(4) =   1
                l(5) =   2
                l(6) =   2
     Q(r) pseudized with  6 coefficients,  rinner =    1.000   1.000   1.000
                                                       1.000   1.000

     PseudoPot. # 2 for Si read from file:
     /home/pragov/projects/rrg-bengioy-ad/pragov/crystal_structure_design/SSSP/Si.pbe-n-rrkjus_psl.1.0.0.UPF
     MD5 check sum: 0b0bb1205258b0d07b9f9672cf965d36
     Pseudo is Ultrasoft + core correction, Zval =  4.0
     Generated using "atomic" code by A. Dal Corso  v.5.1
     Using radial grid of 1141 points,  6 beta functions with:
                l(1) =   0
                l(2) =   0
                l(3) =   1
                l(4) =   1
                l(5) =   2
                l(6) =   2
     Q(r) pseudized with 0 coefficients

     PseudoPot. # 3 for Ag read from file:
     /home/pragov/projects/rrg-bengioy-ad/pragov/crystal_structure_design/SSSP/Ag_ONCV_PBE-1.0.oncvpsp.upf
     MD5 check sum: 94f47bd0669c641108e45594df92fabc
     Pseudo is Norm-conserving, Zval = 19.0
     Generated using ONCVPSP code by D. R. Hamann
     Using radial grid of 1398 points,  6 beta functions with:
                l(1) =   0
                l(2) =   0
                l(3) =   1
                l(4) =   1
                l(5) =   2
                l(6) =   2

     PseudoPot. # 4 for O  read from file:
     /home/pragov/projects/rrg-bengioy-ad/pragov/crystal_structure_design/SSSP/O.pbe-n-kjpaw_psl.0.1.UPF
     MD5 check sum: 0234752ac141de4415c5fc33072bef88
     Pseudo is Projector augmented-wave + core cor, Zval =  6.0
     Generated using "atomic" code by A. Dal Corso  v.5.0.99 svn rev. 10869
     Shape of augmentation charge: BESSEL
     Using radial grid of 1095 points,  4 beta functions with:
                l(1) =   0
                l(2) =   0
                l(3) =   1
                l(4) =   1
     Q(r) pseudized with 0 coefficients

     atomic species   valence    mass     pseudopotential
        Ti            12.00    47.86700     Ti( 1.00)
        Si             4.00    28.08500     Si( 1.00)
        Ag            19.00   107.86820     Ag( 1.00)
        O              6.00    15.99900     O ( 1.00)

     16 Sym. Ops., with inversion, found ( 8 have fractional translation)

                                    s                        frac. trans.

      isym =  1     identity

 cryst.   s( 1) = (     1          0          0      )
                  (     0          1          0      )
                  (     0          0          1      )

 cart.    s( 1) = (  1.0000000  0.0000000  0.0000000 )
                  (  0.0000000  1.0000000  0.0000000 )
                  (  0.0000000  0.0000000  1.0000000 )

      isym =  2     180 deg rotation - cart. axis [0,0,1]

[...]

 cryst.   s( 3) = (    -1          0          0      )    f =(  0.5000000 )
                  (     0          1          0      )       (  0.5000000 )
                  (     0          0         -1      )       (  0.0000000 )

 cart.    s( 3) = ( -1.0000000  0.0000000  0.0000000 )    f =(  0.5000000 )
                  (  0.0000000  1.0000000  0.0000000 )       (  0.5000000 )
                  (  0.0000000  0.0000000 -1.0000000 )       (  0.0000000 )

[...]

 cryst.   s( 6) = (     0         -1          0      )
                  (    -1          0          0      )
                  (     0          0         -1      )

 cart.    s( 6) = (  0.0000000 -1.0000000  0.0000000 )
                  ( -1.0000000  0.0000000  0.0000000 )
                  (  0.0000000  0.0000000 -1.0000000 )

[...]

      isym =  8      90 deg rotation - cart. axis [0,0,1]

[...]

      isym =  9     inversion

 cryst.   s( 9) = (    -1          0          0      )    f =(  0.5000000 )
                  (     0         -1          0      )       (  0.5000000 )
                  (     0          0         -1      )       (  0.0000000 )

 cart.    s( 9) = ( -1.0000000  0.0000000  0.0000000 )    f =(  0.5000000 )
                  (  0.0000000 -1.0000000  0.0000000 )       (  0.5000000 )
                  (  0.0000000  0.0000000 -1.0000000 )       (  0.0000000 )

      isym = 10     inv. 180 deg rotation - cart. axis [0,0,1]

 cryst.   s(10) = (     1          0          0      )    f =( -0.5000000 )
                  (     0          1          0      )       (  0.5000000 )
                  (     0          0         -1      )       (  0.0000000 )

 cart.    s(10) = (  1.0000000  0.0000000  0.0000000 )    f =( -0.5000000 )
                  (  0.0000000  1.0000000  0.0000000 )       (  0.5000000 )
                  (  0.0000000  0.0000000 -1.0000000 )       (  0.0000000 )

[...]

 cryst.   s(11) = (     1          0          0      )
                  (     0         -1          0      )
                  (     0          0          1      )

 cart.    s(11) = (  1.0000000  0.0000000  0.0000000 )
                  (  0.0000000 -1.0000000  0.0000000 )
                  (  0.0000000  0.0000000  1.0000000 )

[...]

 cryst.   s(14) = (     0          1          0      )    f =( -0.5000000 )
                  (     1          0          0      )       (  0.5000000 )
                  (     0          0          1      )       (  0.0000000 )

 cart.    s(14) = (  0.0000000  1.0000000  0.0000000 )    f =( -0.5000000 )
                  (  1.0000000  0.0000000  0.0000000 )       (  0.5000000 )
                  (  0.0000000  0.0000000  1.0000000 )       (  0.0000000 )

[...]

      isym = 16     inv.  90 deg rotation - cart. axis [0,0,1]

 cryst.   s(16) = (     0         -1          0      )
                  (     1          0          0      )
                  (     0          0         -1      )

 cart.    s(16) = (  0.0000000  1.0000000  0.0000000 )
                  ( -1.0000000  0.0000000  0.0000000 )
                  (  0.0000000  0.0000000 -1.0000000 )

   Cartesian axes

     site n.     atom                  positions (alat units)
         1           Ti  tau(   1) = (   0.0000000   0.5000000   0.7895862  )
         2           Ti  tau(   2) = (   0.5000000   0.0000000   0.0531623  )
         3           Si  tau(   3) = (   0.5000000   0.5000000   0.0000000  )
         4           Si  tau(   4) = (   0.0000000   0.0000000   0.0000000  )
         5           Ag  tau(   5) = (   0.2500000   0.2500000   0.4213742  )
         6           Ag  tau(   6) = (   0.7500000   0.7500000   0.4213742  )
         7           Ag  tau(   7) = (   0.2500000   0.7500000   0.4213742  )
         8           Ag  tau(   8) = (   0.7500000   0.2500000   0.4213742  )
         9           O   tau(   9) = (   0.2924930   0.5000000   0.7009181  )
        10           O   tau(  10) = (   0.7075070   0.5000000   0.7009181  )
        11           O   tau(  11) = (   0.7924930   0.0000000   0.1418304  )
        12           O   tau(  12) = (   0.2075070   0.0000000   0.1418304  )
        13           O   tau(  13) = (   0.5000000   0.7075070   0.1418304  )
        14           O   tau(  14) = (   0.5000000   0.2924930   0.1418304  )
        15           O   tau(  15) = (   0.0000000   0.2075070   0.7009181  )
        16           O   tau(  16) = (   0.0000000   0.7924930   0.7009181  )
        17           O   tau(  17) = (   0.0000000   0.5000000   0.2077822  )
        18           O   tau(  18) = (   0.5000000   0.0000000   0.6349663  )

   Crystallographic axes

     site n.     atom                  positions (cryst. coord.)
         1           Ti  tau(   1) = (  0.0000000  0.5000000  0.9369180  )
         2           Ti  tau(   2) = (  0.5000000  0.0000000  0.0630820  )
         3           Si  tau(   3) = (  0.5000000  0.5000000  0.0000000  )
         4           Si  tau(   4) = (  0.0000000  0.0000000  0.0000000  )
         5           Ag  tau(   5) = (  0.2500000  0.2500000  0.5000000  )
         6           Ag  tau(   6) = (  0.7500000  0.7500000  0.5000000  )
         7           Ag  tau(   7) = (  0.2500000  0.7500000  0.5000000  )
         8           Ag  tau(   8) = (  0.7500000  0.2500000  0.5000000  )
         9           O   tau(   9) = (  0.2924930  0.5000000  0.8317050  )
        10           O   tau(  10) = (  0.7075070  0.5000000  0.8317050  )
        11           O   tau(  11) = (  0.7924930  0.0000000  0.1682950  )
        12           O   tau(  12) = (  0.2075070  0.0000000  0.1682950  )
        13           O   tau(  13) = (  0.5000000  0.7075070  0.1682950  )
        14           O   tau(  14) = (  0.5000000  0.2924930  0.1682950  )
        15           O   tau(  15) = (  0.0000000  0.2075070  0.8317050  )
        16           O   tau(  16) = (  0.0000000  0.7924930  0.8317050  )
[...]
        k(    1) = (   0.0000000   0.0000000   0.0000000), wk =   2.0000000

     Check: negative core charge=   -0.000012

     Initial potential from superposition of free atoms

     starting charge     165.9976, renormalised to     168.0000

     negative rho (up, down):  3.858E-03 0.000E+00
     Starting wfcs are  108 randomized atomic wfcs
     Checking if some PAW data can be deallocated...

     Self-consistent Calculation

     iteration #  1     ecut=    30.00 Ry     beta= 0.70
     Davidson diagonalization with overlap

     ethr =  1.00E-02,  avg # of iterations =  7.0

     total energy              =   -1816.96111929 Ry
     estimated scf accuracy    <      12.94238391 Ry

[...]

     negative rho (up, down):  9.437E-04 0.000E+00

[...]

     total energy              =   -1826.68870319 Ry
     estimated scf accuracy    <       0.00001211 Ry

     iteration # 13     ecut=    30.00 Ry     beta= 0.70
     Davidson diagonalization with overlap

     ethr =  7.21E-09,  avg # of iterations =  2.0

[...]

     End of self-consistent calculation

          k = 0.0000 0.0000 0.0000 (  2224 PWs)   bands (ev):

   -82.0062 -82.0055 -82.0055 -82.0047 -48.1820 -48.1814 -45.1202 -45.1165
   -45.1165 -45.1102 -45.0599 -45.0550 -45.0549 -45.0497 -45.0370 -45.0370
   -45.0359 -45.0333 -24.5747 -24.5741 -24.4809 -24.4809 -24.4790 -24.4790
   -10.8021 -10.4613  -9.4819  -9.2742  -9.2740  -9.1979  -9.1978  -9.1802
    -7.9760  -7.9653   0.9620   1.9168   2.9015   3.3136   3.3210   3.3211
     3.3317   3.3317   3.7491   4.0235   4.5080   4.5080   4.7292   4.7968
     5.0417   5.1487   5.3398   5.3398   5.7068   5.7948   5.9522   5.9522
     6.1540   6.1541   6.2102   6.2112   6.3264   6.4483   6.4483   6.5354
     6.5354   6.5809   6.6354   6.7052   6.7052   6.9237   6.9380   6.9380
     7.1219   7.5001   7.5698   7.5698   7.5768   7.6170   7.7998   7.7998
     8.1269   8.1269   8.4077   8.8649  10.1690  11.3247  11.4425  12.1599
    12.1599  12.1783  12.1874  12.3058  12.3059  12.9489  13.0847  14.0480
    14.0480  14.5921  14.7989  15.7032  15.8560

     occupation numbers
     1.0000   1.0000   1.0000   1.0000   1.0000   1.0000   1.0000   1.0000
     1.0000   1.0000   1.0000   1.0000   1.0000   1.0000   1.0000   1.0000
     1.0000   1.0000   1.0000   1.0000   1.0000   1.0000   1.0000   1.0000
     1.0000   1.0000   1.0000   1.0000   1.0000   1.0000   1.0000   1.0000
     1.0000   1.0000   1.0000   1.0000   1.0000   1.0000   1.0000   1.0000
     1.0000   1.0000   1.0000   1.0000   1.0000   1.0000   1.0000   1.0000
     1.0000   1.0000   1.0000   1.0000   1.0000   1.0000   1.0000   1.0000
     1.0000   1.0000   1.0000   1.0000   1.0000   1.0000   1.0000   1.0000
     1.0000   1.0000   1.0000   1.0000   1.0000   1.0000   1.0000   1.0000
     1.0000   1.0000   1.0000   1.0000   1.0000   1.0000   1.0000   1.0000
     1.0000   1.0000   1.0000   1.0000  -0.0000  -0.0000  -0.0000  -0.0000
    -0.0000  -0.0000  -0.0000  -0.0000  -0.0000  -0.0000  -0.0000  -0.0000
    -0.0000  -0.0000  -0.0000  -0.0000  -0.0000

     the Fermi energy is     9.8587 ev

!    total energy              =   -1826.68870482 Ry
     estimated scf accuracy    <       0.00000011 Ry
     smearing contrib. (-TS)   =       0.00000000 Ry
     internal energy E=F+TS    =   -1826.68870482 Ry

     The total energy is F=E-TS. E is the sum of the following terms:
     one-electron contribution =    -837.42523660 Ry
     hartree contribution      =     492.63463646 Ry
     xc contribution           =    -231.75104973 Ry
     ewald contribution        =   -1154.97022261 Ry
     one-center paw contrib.   =     -95.17683235 Ry
      -> PAW hartree energy AE =     303.37670220 Ry
      -> PAW hartree energy PS =    -302.29362668 Ry
      -> PAW xc energy AE      =    -172.75937693 Ry
      -> PAW xc energy PS      =      76.49946906 Ry
      -> total E_H with PAW    =     493.71771198 Ry
      -> total E_XC with PAW   =    -328.01095759 Ry

     convergence has been achieved in  13 iterations

     negative rho (up, down):  3.332E-03 0.000E+00

     Forces acting on atoms (cartesian axes, Ry/au):

     atom    1 type  1   force =     0.00000000    0.00000000    0.06651739
     atom    2 type  1   force =     0.00000000    0.00000000   -0.06651739
     atom    3 type  2   force =     0.00000000    0.00000000    0.00000000
     atom    4 type  2   force =     0.00000000    0.00000000    0.00000000
     atom    5 type  3   force =     0.00000000    0.00000000    0.00000000
     atom    6 type  3   force =    -0.00000000    0.00000000    0.00000000
     atom    7 type  3   force =    -0.00000000    0.00000000   -0.00000000
     atom    8 type  3   force =     0.00000000    0.00000000   -0.00000000
     atom    9 type  4   force =    -0.01169222   -0.00000000   -0.01965125
     atom   10 type  4   force =     0.01169222   -0.00000000   -0.01965125
     atom   11 type  4   force =    -0.01169222   -0.00000000    0.01965125
     atom   12 type  4   force =     0.01169222   -0.00000000    0.01965125
     atom   13 type  4   force =    -0.00000000    0.01169222    0.01965125
     atom   14 type  4   force =     0.00000000   -0.01169222    0.01965125
     atom   15 type  4   force =     0.00000000    0.01169222   -0.01965125
     atom   16 type  4   force =     0.00000000   -0.01169222   -0.01965125
     atom   17 type  4   force =     0.00000000    0.00000000   -0.02497546
     atom   18 type  4   force =     0.00000000    0.00000000    0.02497546
     The non-local contrib.  to forces
     atom    1 type  1   force =     0.00000000    0.00000000    0.07224681
     atom    2 type  1   force =     0.00000000    0.00000000   -0.07224681
     atom    3 type  2   force =     0.00000000    0.00000000   -0.00000000
     atom    4 type  2   force =     0.00000000    0.00000000    0.00000000
     atom    5 type  3   force =     0.00000000   -0.00000000   -0.00000000
     atom    6 type  3   force =     0.00000000    0.00000000   -0.00000000
     atom    7 type  3   force =     0.00000000    0.00000000   -0.00000000
     atom    8 type  3   force =     0.00000000    0.00000000   -0.00000000
     atom    9 type  4   force =     0.55248699    0.00000000    0.58817832
     atom   10 type  4   force =    -0.55248699    0.00000000    0.58817832
     atom   11 type  4   force =     0.55248699    0.00000000   -0.58817832
     atom   12 type  4   force =    -0.55248699   -0.00000000   -0.58817832
     atom   13 type  4   force =     0.00000000   -0.55248699   -0.58817832
     atom   14 type  4   force =     0.00000000    0.55248699   -0.58817832
     atom   15 type  4   force =     0.00000000   -0.55248699    0.58817832
     atom   16 type  4   force =     0.00000000    0.55248699    0.58817832
     atom   17 type  4   force =     0.00000000    0.00000000   -0.60387425
     atom   18 type  4   force =     0.00000000    0.00000000    0.60387425
     The ionic contribution  to forces
     atom    1 type  1   force =    -0.00000000    0.00000000    2.36336185
     atom    2 type  1   force =     0.00000000   -0.00000000   -2.36336185
     atom    3 type  2   force =     0.00000000    0.00000000   -0.00000000
     atom    4 type  2   force =     0.00000000    0.00000000   -0.00000000
     atom    5 type  3   force =    -0.00000000   -0.00000000   -0.00000000
     atom    6 type  3   force =     0.00000000    0.00000000    0.00000000
     atom    7 type  3   force =    -0.00000000    0.00000000    0.00000000
     atom    8 type  3   force =     0.00000000   -0.00000000    0.00000000
     atom    9 type  4   force =     4.23716140   -0.00000000    2.40831605
     atom   10 type  4   force =    -4.23716140   -0.00000000    2.40831605
     atom   11 type  4   force =     4.23716140    0.00000000   -2.40831605
     atom   12 type  4   force =    -4.23716140    0.00000000   -2.40831605
     atom   13 type  4   force =     0.00000000   -4.23716140   -2.40831605
     atom   14 type  4   force =     0.00000000    4.23716140   -2.40831605
     atom   15 type  4   force =     0.00000000   -4.23716140    2.40831605
     atom   16 type  4   force =     0.00000000    4.23716140    2.40831605
     atom   17 type  4   force =     0.00000000    0.00000000    4.02614184
     atom   18 type  4   force =     0.00000000    0.00000000   -4.02614184
     The local contribution  to forces
     atom    1 type  1   force =     0.00009013   -0.00024194   -2.35220338
     atom    2 type  1   force =    -0.00005926   -0.00019742    2.35164682
     atom    3 type  2   force =    -0.00001500    0.00005704   -0.00006791
     atom    4 type  2   force =     0.00000578    0.00003805   -0.00003266
     atom    5 type  3   force =    -0.00033035    0.00001596    0.00016250
     atom    6 type  3   force =    -0.00014254    0.00002287    0.00020111
     atom    7 type  3   force =     0.00012887   -0.00000974    0.00016642
     atom    8 type  3   force =     0.00034274   -0.00000843    0.00019349
     atom    9 type  4   force =    -4.79633924   -0.00000968   -3.01192761
     atom   10 type  4   force =     4.79633247    0.00000390   -3.01192962
     atom   11 type  4   force =    -4.79629399    0.00000042    3.01187153
     atom   12 type  4   force =     4.79630801    0.00000821    3.01186296
     atom   13 type  4   force =    -0.00001195    4.79631618    3.01188672
     atom   14 type  4   force =    -0.00002261   -4.79635491    3.01182994
     atom   15 type  4   force =     0.00001858    4.79632219   -3.01197230
     atom   16 type  4   force =     0.00000507   -4.79624393   -3.01182748
     atom   17 type  4   force =     0.00001929   -0.00005071   -3.44983704
     atom   18 type  4   force =    -0.00000488   -0.00005984    3.44986472
     The core correction contribution to forces
     atom    1 type  1   force =     0.00000170   -0.00000148   -0.01719212
     atom    2 type  1   force =    -0.00000112   -0.00000412    0.01718291
     atom    3 type  2   force =     0.00000008   -0.00000054   -0.00000045
     atom    4 type  2   force =    -0.00000031   -0.00000740   -0.00000076
     atom    5 type  3   force =     0.00000000    0.00000000    0.00000000
     atom    6 type  3   force =     0.00000000    0.00000000    0.00000000
     atom    7 type  3   force =     0.00000000    0.00000000    0.00000000
     atom    8 type  3   force =     0.00000000    0.00000000    0.00000000
     atom    9 type  4   force =    -0.00507905    0.00000009   -0.00440763
     atom   10 type  4   force =     0.00507910    0.00000011   -0.00440747
     atom   11 type  4   force =    -0.00507848   -0.00000022    0.00440801
     atom   12 type  4   force =     0.00507844   -0.00000016    0.00440795
     atom   13 type  4   force =     0.00000005    0.00507793    0.00440810
     atom   14 type  4   force =     0.00000002   -0.00507820    0.00440715
     atom   15 type  4   force =     0.00000001    0.00507859   -0.00440758
     atom   16 type  4   force =    -0.00000005   -0.00507969   -0.00440744
     atom   17 type  4   force =     0.00000000   -0.00000001    0.00281266
     atom   18 type  4   force =     0.00000002   -0.00000005   -0.00281361
     The Hubbard contrib.    to forces
     atom    1 type  1   force =     0.00000000    0.00000000    0.00000000
     atom    2 type  1   force =     0.00000000    0.00000000    0.00000000
     atom    3 type  2   force =     0.00000000    0.00000000    0.00000000
     atom    4 type  2   force =     0.00000000    0.00000000    0.00000000
     atom    5 type  3   force =     0.00000000    0.00000000    0.00000000
     atom    6 type  3   force =     0.00000000    0.00000000    0.00000000
     atom    7 type  3   force =     0.00000000    0.00000000    0.00000000
     atom    8 type  3   force =     0.00000000    0.00000000    0.00000000
     atom    9 type  4   force =     0.00000000    0.00000000    0.00000000
     atom   10 type  4   force =     0.00000000    0.00000000    0.00000000
     atom   11 type  4   force =     0.00000000    0.00000000    0.00000000
     atom   12 type  4   force =     0.00000000    0.00000000    0.00000000
     atom   13 type  4   force =     0.00000000    0.00000000    0.00000000
     atom   14 type  4   force =     0.00000000    0.00000000    0.00000000
     atom   15 type  4   force =     0.00000000    0.00000000    0.00000000
     atom   16 type  4   force =     0.00000000    0.00000000    0.00000000
     atom   17 type  4   force =     0.00000000    0.00000000    0.00000000
     atom   18 type  4   force =     0.00000000    0.00000000    0.00000000
     The SCF correction term to forces
     atom    1 type  1   force =    -0.00009294    0.00022082    0.00029156
     atom    2 type  1   force =     0.00006162    0.00020802    0.00024888
     atom    3 type  2   force =     0.00001568   -0.00005886    0.00005755
     atom    4 type  2   force =    -0.00000785   -0.00007073    0.00002898
     atom    5 type  3   force =     0.00040661   -0.00000789   -0.00020205
     atom    6 type  3   force =     0.00020719   -0.00002828   -0.00029573
     atom    7 type  3   force =    -0.00018578    0.00001752   -0.00024727
     atom    8 type  3   force =    -0.00042743    0.00002285   -0.00025136
     atom    9 type  4   force =     0.00008423   -0.00000415    0.00020001
     atom   10 type  4   force =    -0.00006709   -0.00001681    0.00021744
     atom   11 type  4   force =     0.00003743    0.00000396   -0.00010954
     atom   12 type  4   force =    -0.00005511   -0.00000471   -0.00009932
     atom   13 type  4   force =     0.00001677   -0.00009448   -0.00012201
     atom   14 type  4   force =     0.00002955    0.00010562   -0.00012365
     atom   15 type  4   force =    -0.00002026   -0.00004345    0.00022417
     atom   16 type  4   force =    -0.00000784   -0.00007195    0.00010849
     atom   17 type  4   force =    -0.00002550    0.00005202   -0.00026622
     atom   18 type  4   force =     0.00000707    0.00007321    0.00014440

     Total force =     0.119498     Total SCF correction =     0.001136

     Computing stress (Cartesian axis) and pressure

     negative rho (up, down):  3.332E-03 0.000E+00
          total   stress  (Ry/bohr**3)                   (kbar)     P=     -816.08
  -0.00553530   0.00000000   0.00000000         -814.27        0.00        0.00
   0.00000000  -0.00553530   0.00000000            0.00     -814.27        0.00
   0.00000000   0.00000000  -0.00557227            0.00        0.00     -819.71

     kinetic stress (kbar)  37444.83      0.00      0.00
                                0.00  37444.83      0.00
                                0.00      0.00  37460.55

     local   stress (kbar) -12784.62      0.00      0.00
                                0.00 -12784.60     -0.02
                                0.00     -0.02 -13963.10

     nonloc. stress (kbar)   1603.61      0.00      0.00
                                0.00   1603.61      0.00
                                0.00      0.00   1599.08

     hartree stress (kbar)  15041.41     -0.00     -0.00
                               -0.00  15041.40      0.01
                               -0.00      0.01  15074.78

     exc-cor stress (kbar)  -4732.26     -0.00     -0.00
                               -0.00  -4732.26      0.00
                               -0.00      0.00  -4724.42

     corecor stress (kbar)  -1723.72      0.00      0.00
                                0.00  -1723.72     -0.00
                                0.00     -0.00  -1722.75

     ewald   stress (kbar) -35663.53      0.00      0.00
                                0.00 -35663.53     -0.00
                                0.00     -0.00 -34543.86

     hubbard stress (kbar)      0.00      0.00      0.00
                                0.00      0.00      0.00
                                0.00      0.00      0.00

     DFT-D   stress (kbar)      0.00      0.00      0.00
                                0.00      0.00      0.00
                                0.00      0.00      0.00

     XDM     stress (kbar)      0.00      0.00      0.00
                                0.00      0.00      0.00
                                0.00      0.00      0.00

     dft-nl  stress (kbar)      0.00      0.00      0.00
                                0.00      0.00      0.00
                                0.00      0.00      0.00

     TS-vdW  stress (kbar)      0.00      0.00      0.00
                                0.00      0.00      0.00
                                0.00      0.00      0.00

[...]

                                0.00      0.00      0.00

     Writing all to output data dir new_calculations/myprefix.save/

     General routines

     Parallel routines

     PAW routines

   This run was terminated on:  13:15: 3  20May2023

   JOB DONE.