     Program PWSCF v.7.0 starts on 21May2023 at  3:37:53

     Reading input from espresso_22444.pwi
Warning: card &CELL ignored
Warning: card / ignored

     Current dimensions of program PWSCF are:
     Max number of different atomic species (ntypx) = 10
     Max number of k-points (npk) =  40000
     Max angular momentum in pseudopotentials (lmaxx) =  4

     gamma-point specific algorithms are used
     Message from routine setup:
     using ibrav=0 with symmetry is DISCOURAGED, use correct ibrav instead

     Subspace diagonalization in iterative solution of the eigenvalue problem:
     a serial algorithm will be used

     Using Slab Decomposition

     bravais-lattice index     =            0
     lattice parameter (alat)  =       7.1573  a.u.
     unit-cell volume          =     915.6819 (a.u.)^3
     number of atoms/cell      =           12
     number of atomic types    =            2
     number of electrons       =        48.00
     number of Kohn-Sham states=           29
     kinetic-energy cutoff     =      30.0000  Ry
     charge density cutoff     =     240.0000  Ry
     scf convergence threshold =      1.0E-06
     mixing beta               =       0.7000
     number of iterations used =            8  plain     mixing
     Exchange-correlation= PBE
                           (   1   4   3   4   0   0   0)

     celldm(1)=   7.157341  celldm(2)=   0.000000  celldm(3)=   0.000000
     celldm(4)=   0.000000  celldm(5)=   0.000000  celldm(6)=   0.000000

     crystal axes: (cart. coord. in units of alat)
               a(1) = (   1.000000   0.000000   0.000000 )
               a(2) = (   0.000000   1.415369   0.000000 )
               a(3) = (   0.000000   0.000000   1.764493 )

     reciprocal axes: (cart. coord. in units 2 pi/alat)
               b(1) = (  1.000000  0.000000  0.000000 )
               b(2) = (  0.000000  0.706530  0.000000 )
               b(3) = (  0.000000  0.000000  0.566735 )

     PseudoPot. # 1 for Ca read from file:
     /home/pragov/projects/rrg-bengioy-ad/pragov/crystal_structure_design/SSSP/Ca_pbe_v1.uspp.F.UPF
     MD5 check sum: 403a4c14b9e4d4dfdc3024c9a3812218
     Pseudo is Ultrasoft + core correction, Zval = 10.0
     Generated by new atomic code, or converted to UPF format
     Using radial grid of  845 points,  6 beta functions with:
                l(1) =   0
                l(2) =   0
                l(3) =   1
                l(4) =   1
                l(5) =   2
                l(6) =   2
     Q(r) pseudized with  8 coefficients,  rinner =    1.500   1.500   1.500
                                                       1.500   1.500

     PseudoPot. # 2 for H  read from file:
     /home/pragov/projects/rrg-bengioy-ad/pragov/crystal_structure_design/SSSP/H.pbe-rrkjus_psl.1.0.0.UPF
     MD5 check sum: f52b6d4d1c606e5624b1dc7b2218f220
     Pseudo is Ultrasoft, Zval =  1.0
     Generated using "atomic" code by A. Dal Corso  v.5.1
     Using radial grid of  929 points,  2 beta functions with:
                l(1) =   0
                l(2) =   0
     Q(r) pseudized with 0 coefficients

     atomic species   valence    mass     pseudopotential
        Ca            10.00    40.07800     Ca( 1.00)
        H              1.00     1.00800     H ( 1.00)

      8 Sym. Ops., with inversion, found ( 6 have fractional translation)

                                    s                        frac. trans.

      isym =  1     identity

 cryst.   s( 1) = (     1          0          0      )
                  (     0          1          0      )
                  (     0          0          1      )

 cart.    s( 1) = (  1.0000000  0.0000000  0.0000000 )
                  (  0.0000000  1.0000000  0.0000000 )
                  (  0.0000000  0.0000000  1.0000000 )

      isym =  2     180 deg rotation - cart. axis [0,0,1]

 cryst.   s( 2) = (    -1          0          0      )    f =(  0.0000000 )
                  (     0         -1          0      )       (  0.5000000 )
                  (     0          0          1      )       (  0.5000000 )

 cart.    s( 2) = ( -1.0000000  0.0000000  0.0000000 )    f =(  0.0000000 )
                  (  0.0000000 -1.0000000  0.0000000 )       (  0.7076844 )
                  (  0.0000000  0.0000000  1.0000000 )       (  0.8822463 )

[...]

      isym =  4     180 deg rotation - cart. axis [1,0,0]

[...]

      isym =  5     inversion

 cryst.   s( 5) = (    -1          0          0      )
                  (     0         -1          0      )
                  (     0          0         -1      )

 cart.    s( 5) = ( -1.0000000  0.0000000  0.0000000 )
                  (  0.0000000 -1.0000000  0.0000000 )
                  (  0.0000000  0.0000000 -1.0000000 )

      isym =  6     inv. 180 deg rotation - cart. axis [0,0,1]

[...]

      isym =  8     inv. 180 deg rotation - cart. axis [1,0,0]

 cryst.   s( 8) = (    -1          0          0      )    f =(  0.5000000 )
                  (     0          1          0      )       (  0.0000000 )
                  (     0          0          1      )       (  0.0000000 )

 cart.    s( 8) = ( -1.0000000  0.0000000  0.0000000 )    f =(  0.5000000 )
                  (  0.0000000  1.0000000  0.0000000 )       (  0.0000000 )
                  (  0.0000000  0.0000000  1.0000000 )       (  0.0000000 )

   Cartesian axes

     site n.     atom                  positions (alat units)
         1           Ca  tau(   1) = (   0.2500000   1.0593469   1.0398331  )
         2           Ca  tau(   2) = (   0.2500000   0.3516625   1.6069057  )
         3           Ca  tau(   3) = (   0.7500000   0.3560219   0.7246594  )
         4           Ca  tau(   4) = (   0.7500000   1.0637062   0.1575868  )
         5           H   tau(   5) = (   0.2500000   1.0757609   1.6219956  )
         6           H   tau(   6) = (   0.2500000   0.3680766   1.0247432  )
         7           H   tau(   7) = (   0.7500000   0.3396078   0.1424969  )
         8           H   tau(   8) = (   0.7500000   1.0472922   0.7397494  )
         9           H   tau(   9) = (   0.2500000   1.4128480   0.4508667  )
        10           H   tau(  10) = (   0.2500000   0.7051636   0.4313796  )
        11           H   tau(  11) = (   0.7500000   0.0025208   1.3136259  )
        12           H   tau(  12) = (   0.7500000   0.7102052   1.3331129  )

   Crystallographic axes

     site n.     atom                  positions (cryst. coord.)
         1           Ca  tau(   1) = (  0.2500000  0.7484600  0.5893100  )
         2           Ca  tau(   2) = (  0.2500000  0.2484600  0.9106900  )
         3           Ca  tau(   3) = (  0.7500000  0.2515400  0.4106900  )
         4           Ca  tau(   4) = (  0.7500000  0.7515400  0.0893100  )
         5           H   tau(   5) = (  0.2500000  0.7600570  0.9192420  )
         6           H   tau(   6) = (  0.2500000  0.2600570  0.5807580  )
         7           H   tau(   7) = (  0.7500000  0.2399430  0.0807580  )
         8           H   tau(   8) = (  0.7500000  0.7399430  0.4192420  )
         9           H   tau(   9) = (  0.2500000  0.9982190  0.2555220  )
        10           H   tau(  10) = (  0.2500000  0.4982190  0.2444780  )
        11           H   tau(  11) = (  0.7500000  0.0017810  0.7444780  )
        12           H   tau(  12) = (  0.7500000  0.5017810  0.7555220  )

     number of k points=     1  Methfessel-Paxton smearing, width (Ry)=  0.0010
                       cart. coord. in units 2pi/alat
        k(    1) = (   0.0000000   0.0000000   0.0000000), wk =   2.0000000

                       cryst. coord.
        k(    1) = (   0.0000000   0.0000000   0.0000000), wk =   2.0000000

     Check: negative core charge=   -0.000001

     Initial potential from superposition of free atoms

     starting charge      47.9781, renormalised to      48.0000
     Starting wfcs are   48 randomized atomic wfcs

     Self-consistent Calculation

     iteration #  1     ecut=    30.00 Ry     beta= 0.70
     Davidson diagonalization with overlap

     ethr =  1.00E-02,  avg # of iterations =  3.0

     total energy              =    -309.29232616 Ry
     estimated scf accuracy    <       0.51604845 Ry

[...]

     c_bands:  1 eigenvalues not converged
     ethr =  1.12E-06,  avg # of iterations = 20.0

[...]

     total energy              =    -309.36605310 Ry
     estimated scf accuracy    <       0.00000729 Ry

     iteration #  6     ecut=    30.00 Ry     beta= 0.70
     Davidson diagonalization with overlap

     ethr =  1.52E-08,  avg # of iterations =  2.0

     End of self-consistent calculation

          k = 0.0000 0.0000 0.0000 (  1278 PWs)   bands (ev):

   -34.2520 -34.2128 -34.1978 -34.1861 -15.4746 -15.3586 -15.2979 -15.2724
   -15.2503 -15.2062 -15.1922 -15.1903 -15.1259 -15.1205 -15.0967 -15.0698
    -0.3494   2.4813   2.4877   2.5953   3.4734   4.3677   4.4870   7.0607
     9.0134   9.1604   9.3200   9.4187   9.5970

     occupation numbers
     1.0000   1.0000   1.0000   1.0000   1.0000   1.0000   1.0000   1.0000
     1.0000   1.0000   1.0000   1.0000   1.0000   1.0000   1.0000   1.0000
     1.0000   1.0000   1.0000   1.0000   1.0000   1.0000   1.0000   1.0000
    -0.0000  -0.0000  -0.0000  -0.0000  -0.0000

     the Fermi energy is     8.3542 ev

!    total energy              =    -309.36605411 Ry
     estimated scf accuracy    <       0.00000095 Ry
     smearing contrib. (-TS)   =       0.00000000 Ry
     internal energy E=F+TS    =    -309.36605411 Ry

     The total energy is F=E-TS. E is the sum of the following terms:
     one-electron contribution =    -112.95023554 Ry
     hartree contribution      =      66.13666588 Ry
     xc contribution           =     -53.49748441 Ry
     ewald contribution        =    -209.05500004 Ry

     convergence has been achieved in   6 iterations

     Forces acting on atoms (cartesian axes, Ry/au):

     atom    1 type  1   force =     0.00000000    0.00002457   -0.04035264
     atom    2 type  1   force =     0.00000000    0.00002457    0.04035264
     atom    3 type  1   force =     0.00000000   -0.00002457    0.04035264
     atom    4 type  1   force =    -0.00000000   -0.00002457   -0.04035264
     atom    5 type  2   force =     0.00000000    0.01247976    0.02381034
     atom    6 type  2   force =     0.00000000    0.01247976   -0.02381034
     atom    7 type  2   force =     0.00000000   -0.01247976   -0.02381034
     atom    8 type  2   force =     0.00000000   -0.01247976    0.02381034
     atom    9 type  2   force =     0.00000000   -0.00193916    0.00973360
     atom   10 type  2   force =     0.00000000   -0.00193916   -0.00973360
     atom   11 type  2   force =     0.00000000    0.00193916   -0.00973360
     atom   12 type  2   force =     0.00000000    0.00193916    0.00973360
     The non-local contrib.  to forces
     atom    1 type  1   force =     0.00000000    0.00606109    0.06670155
     atom    2 type  1   force =     0.00000000    0.00606109   -0.06670155
     atom    3 type  1   force =     0.00000000   -0.00606109   -0.06670155
     atom    4 type  1   force =    -0.00000000   -0.00606109    0.06670155
     atom    5 type  2   force =     0.00000000    0.00117477    0.00112002
     atom    6 type  2   force =     0.00000000    0.00117477   -0.00112002
     atom    7 type  2   force =    -0.00000000   -0.00117477   -0.00112002
     atom    8 type  2   force =     0.00000000   -0.00117477    0.00112002
     atom    9 type  2   force =     0.00000000   -0.00020804    0.00105543
     atom   10 type  2   force =     0.00000000   -0.00020804   -0.00105543
     atom   11 type  2   force =     0.00000000    0.00020804   -0.00105543
     atom   12 type  2   force =    -0.00000000    0.00020804    0.00105543
     The ionic contribution  to forces
     atom    1 type  1   force =     0.00000000    0.09491108   -0.06534645
     atom    2 type  1   force =    -0.00000000    0.09491108    0.06534645
     atom    3 type  1   force =    -0.00000000   -0.09491108    0.06534645
     atom    4 type  1   force =    -0.00000000   -0.09491108   -0.06534645
     atom    5 type  2   force =     0.00000000   -0.02237400   -0.00193007
     atom    6 type  2   force =    -0.00000000   -0.02237400    0.00193007
     atom    7 type  2   force =    -0.00000000    0.02237400    0.00193007
     atom    8 type  2   force =     0.00000000    0.02237400   -0.00193007
     atom    9 type  2   force =    -0.00000000    0.00219448   -0.01103522
     atom   10 type  2   force =     0.00000000    0.00219448    0.01103522
     atom   11 type  2   force =     0.00000000   -0.00219448    0.01103522
     atom   12 type  2   force =    -0.00000000   -0.00219448   -0.01103522
     The local contribution  to forces
     atom    1 type  1   force =    -0.00032398   -0.10109803   -0.03851834
     atom    2 type  1   force =    -0.00025852   -0.10030153    0.03808193
     atom    3 type  1   force =    -0.00008681    0.10104466    0.03808541
     atom    4 type  1   force =     0.00010370    0.10023549   -0.03746151
     atom    5 type  2   force =    -0.00000472    0.03364094    0.02458790
     atom    6 type  2   force =    -0.00000743    0.03369978   -0.02468473
     atom    7 type  2   force =     0.00000164   -0.03362807   -0.02455285
     atom    8 type  2   force =     0.00000971   -0.03370685    0.02464854
     atom    9 type  2   force =     0.00000244   -0.00392322    0.01982003
     atom   10 type  2   force =    -0.00000544   -0.00392799   -0.01962537
     atom   11 type  2   force =     0.00001405    0.00391702   -0.01981998
     atom   12 type  2   force =     0.00000689    0.00393872    0.01962959
     The core correction contribution to forces
     atom    1 type  1   force =    -0.00000577   -0.00016343   -0.00413041
     atom    2 type  1   force =    -0.00000271   -0.00013072    0.00412937
     atom    3 type  1   force =    -0.00000323    0.00016208    0.00412268
     atom    4 type  1   force =     0.00000140    0.00013295   -0.00411782
     atom    5 type  2   force =     0.00000000    0.00000000    0.00000000
     atom    6 type  2   force =     0.00000000    0.00000000    0.00000000
     atom    7 type  2   force =     0.00000000    0.00000000    0.00000000
     atom    8 type  2   force =     0.00000000    0.00000000    0.00000000
     atom    9 type  2   force =     0.00000000    0.00000000    0.00000000
     atom   10 type  2   force =     0.00000000    0.00000000    0.00000000
     atom   11 type  2   force =     0.00000000    0.00000000    0.00000000
     atom   12 type  2   force =     0.00000000    0.00000000    0.00000000
     The Hubbard contrib.    to forces
     atom    1 type  1   force =     0.00000000    0.00000000    0.00000000
     atom    2 type  1   force =     0.00000000    0.00000000    0.00000000
     atom    3 type  1   force =     0.00000000    0.00000000    0.00000000
     atom    4 type  1   force =     0.00000000    0.00000000    0.00000000
     atom    5 type  2   force =     0.00000000    0.00000000    0.00000000
     atom    6 type  2   force =     0.00000000    0.00000000    0.00000000
     atom    7 type  2   force =     0.00000000    0.00000000    0.00000000
     atom    8 type  2   force =     0.00000000    0.00000000    0.00000000
     atom    9 type  2   force =     0.00000000    0.00000000    0.00000000
     atom   10 type  2   force =     0.00000000    0.00000000    0.00000000
     atom   11 type  2   force =     0.00000000    0.00000000    0.00000000
     atom   12 type  2   force =     0.00000000    0.00000000    0.00000000
     The SCF correction term to forces
     atom    1 type  1   force =     0.00025548    0.00045152    0.00103353
     atom    2 type  1   force =     0.00020357   -0.00066610   -0.00041779
     atom    3 type  1   force =     0.00005937   -0.00042439   -0.00055460
     atom    4 type  1   force =    -0.00007518    0.00073132   -0.00018944
     atom    5 type  2   force =     0.00000587    0.00004603    0.00002867
     atom    6 type  2   force =     0.00000460   -0.00002767    0.00005736
     atom    7 type  2   force =    -0.00000414   -0.00005490   -0.00006016
     atom    8 type  2   force =    -0.00000878    0.00003292   -0.00002395
     atom    9 type  2   force =    -0.00000246   -0.00000022   -0.00008924
     atom   10 type  2   force =     0.00000454    0.00000146   -0.00006907
     atom   11 type  2   force =    -0.00000967    0.00000487    0.00008888
     atom   12 type  2   force =    -0.00000404   -0.00000814    0.00006767

     Total force =     0.098985     Total SCF correction =     0.001762

     Computing stress (Cartesian axis) and pressure

          total   stress  (Ry/bohr**3)                   (kbar)     P=       26.80
  -0.00022328   0.00000000   0.00000000          -32.85        0.00        0.00
   0.00000000   0.00036997   0.00000000            0.00       54.42        0.00
   0.00000000   0.00000000   0.00039987            0.00        0.00       58.82

     kinetic stress (kbar)   9831.56      0.00      0.00
                                0.00   9817.50      0.00
                                0.00      0.00   9853.90

     local   stress (kbar)  -2345.38      0.00     -0.00
                                0.00  -2474.90     -0.03
                               -0.00     -0.03  -2347.32

     nonloc. stress (kbar)   2817.15      0.00      0.00
                                0.00   2914.05      0.00
                                0.00      0.00   2911.31

     hartree stress (kbar)   3561.97     -0.00      0.00
                               -0.00   3555.74      0.01
                                0.00      0.01   3507.19

     exc-cor stress (kbar)  -1551.41     -0.00      0.00
                               -0.00  -1556.84      0.00
                                0.00      0.00  -1552.91

     corecor stress (kbar)  -1089.80      0.00      0.00
                                0.00  -1093.35     -0.00
                                0.00     -0.00  -1093.23

     ewald   stress (kbar) -11256.95     -0.00     -0.00
                               -0.00 -11107.79     -0.00
                               -0.00     -0.00 -11220.13

     hubbard stress (kbar)      0.00      0.00      0.00
                                0.00      0.00      0.00
                                0.00      0.00      0.00

     DFT-D   stress (kbar)      0.00      0.00      0.00
                                0.00      0.00      0.00
                                0.00      0.00      0.00

     XDM     stress (kbar)      0.00      0.00      0.00
                                0.00      0.00      0.00
                                0.00      0.00      0.00

     dft-nl  stress (kbar)      0.00      0.00      0.00
                                0.00      0.00      0.00
                                0.00      0.00      0.00

     TS-vdW  stress (kbar)      0.00      0.00      0.00
                                0.00      0.00      0.00
                                0.00      0.00      0.00

[...]

                                0.00      0.00      0.00

     Writing all to output data dir new_calculations/myprefix.save/

     General routines

     Parallel routines

   This run was terminated on:   3:38: 9  21May2023

   JOB DONE.