     Program PWSCF v.7.0 starts on 20May2023 at  1:30:57

     Reading input from espresso_4051.pwi
Warning: card &CELL ignored
Warning: card / ignored

     Current dimensions of program PWSCF are:
     Max number of different atomic species (ntypx) = 10
     Max number of k-points (npk) =  40000
     Max angular momentum in pseudopotentials (lmaxx) =  4
     file Ba.pbe-spn-kjpaw_psl.1.0.0.UPF: wavefunction(s)  5S 6S renormalized
     file O.pbe-n-kjpaw_psl.0.1.UPF: wavefunction(s)  2P renormalized

     gamma-point specific algorithms are used
     Message from routine setup:
     using ibrav=0 with symmetry is DISCOURAGED, use correct ibrav instead

     Subspace diagonalization in iterative solution of the eigenvalue problem:
     a serial algorithm will be used

     Using Slab Decomposition

     bravais-lattice index     =            0
     lattice parameter (alat)  =       9.6377  a.u.
     unit-cell volume          =    1244.3436 (a.u.)^3
     number of atoms/cell      =           12
     number of atomic types    =            4
     number of electrons       =        80.00
     number of Kohn-Sham states=           48
     kinetic-energy cutoff     =      30.0000  Ry
     charge density cutoff     =     240.0000  Ry
     scf convergence threshold =      1.0E-06
     mixing beta               =       0.7000
     number of iterations used =            8  plain     mixing
     Exchange-correlation= SLA  PW   PBX  PBC
                           (   1   4   3   4   0   0   0)

     celldm(1)=   9.637683  celldm(2)=   0.000000  celldm(3)=   0.000000
     celldm(4)=   0.000000  celldm(5)=   0.000000  celldm(6)=   0.000000

     crystal axes: (cart. coord. in units of alat)
               a(1) = (   1.000000   0.000000   0.000000 )
               a(2) = (   0.450479   0.892787   0.000000 )
               a(3) = (   0.083296   0.051270   1.556949 )

     reciprocal axes: (cart. coord. in units 2 pi/alat)
               b(1) = (  1.000000 -0.504575 -0.036884 )
               b(2) = (  0.000000  1.120088 -0.036884 )
               b(3) = (  0.000000  0.000000  0.642282 )

     PseudoPot. # 1 for Ba read from file:
     /home/pragov/projects/rrg-bengioy-ad/pragov/crystal_structure_design/SSSP/Ba.pbe-spn-kjpaw_psl.1.0.0.UPF
     MD5 check sum: c432291d3e53af55f19d5e8866385beb
     Pseudo is Projector augmented-wave + core cor, Zval = 10.0
     Generated using "atomic" code by A. Dal Corso  v.5.1
     Shape of augmentation charge: PSQ
     Using radial grid of 1251 points,  7 beta functions with:
                l(1) =   0
                l(2) =   0
                l(3) =   0
                l(4) =   1
                l(5) =   1
                l(6) =   2
                l(7) =   2
     Q(r) pseudized with 0 coefficients

     PseudoPot. # 2 for Hf read from file:
     /home/pragov/projects/rrg-bengioy-ad/pragov/crystal_structure_design/SSSP/Hf-sp.oncvpsp.upf
     MD5 check sum: 417ed15784afe83d2e06dacf143de3f8
     Pseudo is Norm-conserving + core correction, Zval = 12.0
     Generated using ONCVPSP code by D. R. Hamann
     Using radial grid of 1656 points,  8 beta functions with:
                l(1) =   0
                l(2) =   0
                l(3) =   1
                l(4) =   1
                l(5) =   2
                l(6) =   2
                l(7) =   3
                l(8) =   3

     PseudoPot. # 3 for P  read from file:
     /home/pragov/projects/rrg-bengioy-ad/pragov/crystal_structure_design/SSSP/P.pbe-n-rrkjus_psl.1.0.0.UPF
     MD5 check sum: 8b930f418f0a4573dca56cd030ffe088
     Pseudo is Ultrasoft + core correction, Zval =  5.0
     Generated using "atomic" code by A. Dal Corso  v.5.1
     Using radial grid of 1147 points,  6 beta functions with:
                l(1) =   0
                l(2) =   0
                l(3) =   1
                l(4) =   1
                l(5) =   2
                l(6) =   2
     Q(r) pseudized with 0 coefficients

     PseudoPot. # 4 for O  read from file:
     /home/pragov/projects/rrg-bengioy-ad/pragov/crystal_structure_design/SSSP/O.pbe-n-kjpaw_psl.0.1.UPF
     MD5 check sum: 0234752ac141de4415c5fc33072bef88
     Pseudo is Projector augmented-wave + core cor, Zval =  6.0
     Generated using "atomic" code by A. Dal Corso  v.5.0.99 svn rev. 10869
     Shape of augmentation charge: BESSEL
     Using radial grid of 1095 points,  4 beta functions with:
                l(1) =   0
                l(2) =   0
                l(3) =   1
                l(4) =   1
     Q(r) pseudized with 0 coefficients

     atomic species   valence    mass     pseudopotential
        Ba            10.00   137.32700     Ba( 1.00)
        Hf            12.00   178.49000     Hf( 1.00)
        P              5.00    30.97376     P ( 1.00)
        O              6.00    15.99900     O ( 1.00)

      2 Sym. Ops., with inversion, found

                                    s                        frac. trans.

      isym =  1     identity

 cryst.   s( 1) = (     1          0          0      )
                  (     0          1          0      )
                  (     0          0          1      )

 cart.    s( 1) = (  1.0000000  0.0000000  0.0000000 )
                  (  0.0000000  1.0000000 -0.0000000 )
                  (  0.0000000  0.0000000  1.0000000 )

      isym =  2     inversion

 cryst.   s( 2) = (    -1          0          0      )
                  (     0         -1          0      )
                  (     0          0         -1      )

 cart.    s( 2) = ( -1.0000000 -0.0000000 -0.0000000 )
                  (  0.0000000 -1.0000000  0.0000000 )
                  (  0.0000000  0.0000000 -1.0000000 )

   Cartesian axes

     site n.     atom                  positions (alat units)
         1           Ba  tau(   1) = (   0.0416481   0.0256349   0.7784745  )
         2           Hf  tau(   2) = (   0.0000000   0.0000000   0.0000000  )
         3           P   tau(   3) = (   0.5903867   0.3633902   1.2139065  )
         4           P   tau(   4) = (   0.9433881   0.5806669   0.3430426  )
         5           O   tau(   5) = (   0.6663042   0.7015400   0.2906762  )
         6           O   tau(   6) = (   0.3998225   0.2460956   1.4175383  )
         7           O   tau(   7) = (   0.5109051   0.3144683   0.9301587  )
         8           O   tau(   8) = (   1.0228697   0.6295888   0.6267903  )
         9           O   tau(   9) = (   1.1339523   0.6979615   0.1394108  )
        10           O   tau(  10) = (   0.9264818   0.2788392   0.2906762  )
        11           O   tau(  11) = (   0.6072930   0.6652179   1.2662729  )
        12           O   tau(  12) = (   0.8674706   0.2425171   1.2662729  )

   Crystallographic axes

     site n.     atom                  positions (cryst. coord.)
         1           Ba  tau(   1) = ( -0.0000000  0.0000000  0.5000000  )
         2           Hf  tau(   2) = (  0.0000000  0.0000000  0.0000000  )
         3           P   tau(   3) = (  0.3622550  0.3622550  0.7796700  )
         4           P   tau(   4) = (  0.6377450  0.6377450  0.2203300  )
         5           O   tau(   5) = (  0.3016030  0.7750650  0.1866960  )
         6           O   tau(   6) = (  0.2233640  0.2233640  0.9104590  )
         7           O   tau(   7) = (  0.3179240  0.3179240  0.5974240  )
         8           O   tau(   8) = (  0.6820760  0.6820760  0.4025760  )
         9           O   tau(   9) = (  0.7766360  0.7766360  0.0895410  )
        10           O   tau(  10) = (  0.7750650  0.3016030  0.1866960  )
        11           O   tau(  11) = (  0.2249350  0.6983970  0.8133040  )
        12           O   tau(  12) = (  0.6983970  0.2249350  0.8133040  )

     number of k points=     1  Methfessel-Paxton smearing, width (Ry)=  0.0010
                       cart. coord. in units 2pi/alat
        k(    1) = (   0.0000000   0.0000000   0.0000000), wk =   2.0000000

                       cryst. coord.
        k(    1) = (   0.0000000   0.0000000   0.0000000), wk =   2.0000000

     Check: negative core charge=   -0.000011

     Initial potential from superposition of free atoms

     starting charge      79.9808, renormalised to      80.0000
     Starting wfcs are   55 randomized atomic wfcs
     Checking if some PAW data can be deallocated...

     Self-consistent Calculation

     iteration #  1     ecut=    30.00 Ry     beta= 0.70
     Davidson diagonalization with overlap

     ethr =  1.00E-02,  avg # of iterations =  6.0

     total energy              =    -909.75855309 Ry
     estimated scf accuracy    <       2.93136491 Ry

[...]

     total energy              =    -911.05824727 Ry
     estimated scf accuracy    <       0.00000885 Ry

     iteration # 13     ecut=    30.00 Ry     beta= 0.70
     Davidson diagonalization with overlap

     ethr =  1.11E-08,  avg # of iterations =  4.0

     End of self-consistent calculation

          k = 0.0000 0.0000 0.0000 (  1722 PWs)   bands (ev):

   -56.3737 -25.2664 -25.1713 -25.1479 -20.5319 -15.6981 -15.4311 -13.2806
   -13.2580 -12.9883 -12.8941 -12.8824 -12.7105  -5.8345  -5.6443  -5.6231
    -3.7685  -2.5470  -1.5098  -1.2857  -0.3740  -0.3100  -0.2608   0.3577
     0.9494   1.3268   1.5627   2.2676   2.4351   2.4379   2.5367   3.0107
     3.1310   3.1332   3.7856   4.0328   4.2005   4.3693   4.4856   4.5304
     9.2443   9.7923   9.8724  10.1518  11.4630  11.6954  11.9553  12.5818

     occupation numbers
     1.0000   1.0000   1.0000   1.0000   1.0000   1.0000   1.0000   1.0000
     1.0000   1.0000   1.0000   1.0000   1.0000   1.0000   1.0000   1.0000
     1.0000   1.0000   1.0000   1.0000   1.0000   1.0000   1.0000   1.0000
     1.0000   1.0000   1.0000   1.0000   1.0000   1.0000   1.0000   1.0000
     1.0000   1.0000   1.0000   1.0000   1.0000   1.0000   1.0000   1.0000
    -0.0000  -0.0000  -0.0000  -0.0000  -0.0000  -0.0000  -0.0000  -0.0000

     the Fermi energy is     8.3912 ev

!    total energy              =    -911.05824732 Ry
     estimated scf accuracy    <       0.00000092 Ry
     smearing contrib. (-TS)   =       0.00000000 Ry
     internal energy E=F+TS    =    -911.05824732 Ry

     The total energy is F=E-TS. E is the sum of the following terms:
     one-electron contribution =    -223.22679473 Ry
     hartree contribution      =     152.21070569 Ry
     xc contribution           =    -118.24140073 Ry
     ewald contribution        =    -270.76496666 Ry
     one-center paw contrib.   =    -451.03579090 Ry
      -> PAW hartree energy AE =     282.67108806 Ry
      -> PAW hartree energy PS =    -281.63585358 Ry
      -> PAW xc energy AE      =    -534.13804917 Ry
      -> PAW xc energy PS      =      82.06702379 Ry
      -> total E_H with PAW    =     153.24594018 Ry
      -> total E_XC with PAW   =    -570.31242611 Ry

     convergence has been achieved in  13 iterations

     Forces acting on atoms (cartesian axes, Ry/au):

     atom    1 type  1   force =     0.00000000    0.00000000    0.00000000
     atom    2 type  2   force =     0.00000000    0.00000000    0.00000000
     atom    3 type  3   force =     0.02577933    0.01586797   -0.00134667
     atom    4 type  3   force =    -0.02577933   -0.01586797    0.00134667
     atom    5 type  4   force =     0.00987058   -0.00366572    0.01799097
     atom    6 type  4   force =    -0.00996561   -0.00613498    0.06769141
     atom    7 type  4   force =    -0.00921529   -0.00567054   -0.02445822
     atom    8 type  4   force =     0.00921529    0.00567054    0.02445822
     atom    9 type  4   force =     0.00996561    0.00613498   -0.06769141
     atom   10 type  4   force =     0.00117580    0.01046426    0.01799113
     atom   11 type  4   force =    -0.00117580   -0.01046426   -0.01799113
     atom   12 type  4   force =    -0.00987058    0.00366572   -0.01799097
     The non-local contrib.  to forces
     atom    1 type  1   force =     0.00000000    0.00000000    0.00000000
     atom    2 type  2   force =     0.00000000    0.00000000    0.00000000
     atom    3 type  3   force =     0.07581206    0.04666074    0.12706881
     atom    4 type  3   force =    -0.07581206   -0.04666074   -0.12706881
     atom    5 type  4   force =     1.22972222   -0.34993700   -0.07912840
     atom    6 type  4   force =     0.55915774    0.34416430   -1.11247887
     atom    7 type  4   force =     0.43562225    0.26812998    1.70128610
     atom    8 type  4   force =    -0.43562225   -0.26812998   -1.70128610
     atom    9 type  4   force =    -0.55915774   -0.34416430    1.11247887
     atom   10 type  4   force =     0.24154466    1.25552035   -0.07913014
     atom   11 type  4   force =    -0.24154466   -1.25552035    0.07913014
     atom   12 type  4   force =    -1.22972222    0.34993700    0.07912840
     The ionic contribution  to forces
     atom    1 type  1   force =     0.00000000   -0.00000000   -0.00000000
     atom    2 type  2   force =     0.00000000   -0.00000000    0.00000000
     atom    3 type  3   force =    -0.06398184   -0.03938161   -3.62525282
     atom    4 type  3   force =     0.06398185    0.03938161    3.62525282
     atom    5 type  4   force =    -2.95585054   -0.86341733    6.22118942
     atom    6 type  4   force =     0.78136358    0.48093884    0.76544944
     atom    7 type  4   force =    -2.18630736   -1.34569890  -10.17100945
     atom    8 type  4   force =     2.18630736    1.34569890   10.17100945
     atom    9 type  4   force =    -0.78136358   -0.48093884   -0.76544944
     atom   10 type  4   force =    -2.10239520   -2.24999474    6.22118942
     atom   11 type  4   force =     2.10239520    2.24999474   -6.22118942
     atom   12 type  4   force =     2.95585054    0.86341733   -6.22118942
     The local contribution  to forces
     atom    1 type  1   force =     0.00029386   -0.00103912    0.00098085
     atom    2 type  2   force =     0.00001607    0.00000703   -0.00000479
     atom    3 type  3   force =     0.01885132    0.01160761    3.50446738
     atom    4 type  3   force =    -0.01886415   -0.01160777   -3.50446956
     atom    5 type  4   force =     1.74702330    1.20641057   -6.12454232
     atom    6 type  4   force =    -1.34542102   -0.82812150    0.40420347
     atom    7 type  4   force =     1.74518506    1.07418002    8.45960967
     atom    8 type  4   force =    -1.74518507   -1.07418747   -8.45959501
     atom    9 type  4   force =     1.34542138    0.82812402   -0.40420687
     atom   10 type  4   force =     1.86405858    1.01626267   -6.12454033
     atom   11 type  4   force =    -1.86405728   -1.01626492    6.12454807
     atom   12 type  4   force =    -1.74702559   -1.20639842    6.12454891
     The core correction contribution to forces
     atom    1 type  1   force =     0.00000595   -0.00001644    0.00001541
     atom    2 type  2   force =     0.00000030    0.00000024   -0.00000018
     atom    3 type  3   force =    -0.00488418   -0.00300596   -0.00788957
     atom    4 type  3   force =     0.00488448    0.00300651    0.00788942
     atom    5 type  4   force =    -0.01099683    0.00326696    0.00067036
     atom    6 type  4   force =    -0.00505436   -0.00311097    0.01041560
     atom    7 type  4   force =    -0.00370797   -0.00228230   -0.01453278
     atom    8 type  4   force =     0.00370807    0.00228232    0.01453284
     atom    9 type  4   force =     0.00505434    0.00311095   -0.01041572
     atom   10 type  4   force =    -0.00203718   -0.01128941    0.00067040
     atom   11 type  4   force =     0.00203728    0.01128951   -0.00067028
     atom   12 type  4   force =     0.01099680   -0.00326687   -0.00067030
     The Hubbard contrib.    to forces
     atom    1 type  1   force =     0.00000000    0.00000000    0.00000000
     atom    2 type  2   force =     0.00000000    0.00000000    0.00000000
     atom    3 type  3   force =     0.00000000    0.00000000    0.00000000
     atom    4 type  3   force =     0.00000000    0.00000000    0.00000000
     atom    5 type  4   force =     0.00000000    0.00000000    0.00000000
     atom    6 type  4   force =     0.00000000    0.00000000    0.00000000
     atom    7 type  4   force =     0.00000000    0.00000000    0.00000000
     atom    8 type  4   force =     0.00000000    0.00000000    0.00000000
     atom    9 type  4   force =     0.00000000    0.00000000    0.00000000
     atom   10 type  4   force =     0.00000000    0.00000000    0.00000000
     atom   11 type  4   force =     0.00000000    0.00000000    0.00000000
     atom   12 type  4   force =     0.00000000    0.00000000    0.00000000
     The SCF correction term to forces
     atom    1 type  1   force =    -0.00005149    0.00014205   -0.00012677
     atom    2 type  2   force =    -0.00001914   -0.00000783    0.00000442
     atom    3 type  3   force =    -0.00001504   -0.00000797    0.00025798
     atom    4 type  3   force =     0.00003355    0.00001726   -0.00025874
     atom    5 type  4   force =    -0.00002548    0.00001295   -0.00019632
     atom    6 type  4   force =    -0.00000990   -0.00000437    0.00010211
     atom    7 type  4   force =    -0.00000289   -0.00000083    0.00019045
     atom    8 type  4   force =     0.00001154    0.00000527   -0.00020073
     atom    9 type  4   force =     0.00001286    0.00000442   -0.00009792
     atom   10 type  4   force =     0.00000476   -0.00003350   -0.00019541
     atom   11 type  4   force =    -0.00000653    0.00003785    0.00019317
     atom   12 type  4   force =     0.00003196   -0.00002148    0.00019321

     Total force =     0.120180     Total SCF correction =     0.000654

     Computing stress (Cartesian axis) and pressure

          total   stress  (Ry/bohr**3)                   (kbar)     P=     -326.54
  -0.00227116  -0.00006548  -0.00001107         -334.10       -9.63       -1.63
  -0.00006548  -0.00220509  -0.00000683           -9.63     -324.38       -1.00
  -0.00001107  -0.00000683  -0.00218306           -1.63       -1.00     -321.14

     kinetic stress (kbar)  15593.70     -8.11     14.63
                               -8.11  15601.89      9.01
                               14.63      9.01  15387.71

     local   stress (kbar) -12493.03    885.64    444.68
                              885.64 -13386.77    273.70
                              444.68    273.70  -8971.93

     nonloc. stress (kbar)   4119.52      2.06      1.06
                                2.06   4117.43      0.65
                                1.06      0.65   4125.15

     hartree stress (kbar)   6686.85   -355.78   -167.22
                             -355.78   7045.88   -102.93
                             -167.22   -102.93   4261.48

     exc-cor stress (kbar)    373.21      0.34     -0.55
                                0.34    372.87     -0.34
                               -0.55     -0.34    378.81

     corecor stress (kbar)  -4060.37     -0.08     -0.56
                               -0.08  -4060.29     -0.35
                               -0.56     -0.35  -4062.14

     ewald   stress (kbar) -10553.97   -533.70   -293.67
                             -533.70 -10015.38   -180.76
                             -293.67   -180.76 -11440.22

     hubbard stress (kbar)      0.00      0.00      0.00
                                0.00      0.00      0.00
                                0.00      0.00      0.00

     DFT-D   stress (kbar)      0.00      0.00      0.00
                                0.00      0.00      0.00
                                0.00      0.00      0.00

     XDM     stress (kbar)      0.00      0.00      0.00
                                0.00      0.00      0.00
                                0.00      0.00      0.00

     dft-nl  stress (kbar)      0.00      0.00      0.00
                                0.00      0.00      0.00
                                0.00      0.00      0.00

     TS-vdW  stress (kbar)      0.00      0.00      0.00
                                0.00      0.00      0.00
                                0.00      0.00      0.00

[...]

                                0.00      0.00      0.00

     Writing all to output data dir new_calculations/myprefix.save/

     General routines

     Parallel routines

     PAW routines

   This run was terminated on:   1:31:23  20May2023

   JOB DONE.