     Program PWSCF v.7.0 starts on 20May2023 at  4:57: 4

     Reading input from espresso_19045.pwi
Warning: card &CELL ignored
Warning: card / ignored

     Current dimensions of program PWSCF are:
     Max number of different atomic species (ntypx) = 10
     Max number of k-points (npk) =  40000
     Max angular momentum in pseudopotentials (lmaxx) =  4
     file K.pbe-spn-kjpaw_psl.1.0.0.UPF: wavefunction(s)  3S renormalized
     file O.pbe-n-kjpaw_psl.0.1.UPF: wavefunction(s)  2P renormalized

     gamma-point specific algorithms are used
     Message from routine setup:
     using ibrav=0 with symmetry is DISCOURAGED, use correct ibrav instead

     Subspace diagonalization in iterative solution of the eigenvalue problem:
     a serial algorithm will be used

     Using Slab Decomposition

     bravais-lattice index     =            0
     lattice parameter (alat)  =      13.3880  a.u.
     unit-cell volume          =    1327.2133 (a.u.)^3
     number of atoms/cell      =           12
     number of atomic types    =            3
     number of electrons       =        78.00
     number of Kohn-Sham states=           47
     kinetic-energy cutoff     =      30.0000  Ry
     charge density cutoff     =     240.0000  Ry
     scf convergence threshold =      1.0E-06
     mixing beta               =       0.7000
     number of iterations used =            8  plain     mixing
     Exchange-correlation= SLA  PW   PBX  PBC
                           (   1   4   3   4   0   0   0)

     celldm(1)=  13.388042  celldm(2)=   0.000000  celldm(3)=   0.000000
     celldm(4)=   0.000000  celldm(5)=   0.000000  celldm(6)=   0.000000

     crystal axes: (cart. coord. in units of alat)
               a(1) = (   1.000000   0.000000   0.000000 )
               a(2) = (  -0.325731   0.945463   0.000000 )
               a(3) = (   0.254111   0.356315   0.584986 )

     reciprocal axes: (cart. coord. in units 2 pi/alat)
               b(1) = (  1.000000  0.344520 -0.644235 )
               b(2) = (  0.000000  1.057683 -0.644235 )
               b(3) = (  0.000000  0.000000  1.709444 )

     PseudoPot. # 1 for K  read from file:
     /home/pragov/projects/rrg-bengioy-ad/pragov/crystal_structure_design/SSSP/K.pbe-spn-kjpaw_psl.1.0.0.UPF
     MD5 check sum: 7d58810084cac21f60fbe77ea2b688fd
     Pseudo is Projector augmented-wave + core cor, Zval =  9.0
     Generated using "atomic" code by A. Dal Corso  v.5.1
     Shape of augmentation charge: PSQ
     Using radial grid of 1165 points,  6 beta functions with:
                l(1) =   0
                l(2) =   0
                l(3) =   1
                l(4) =   1
                l(5) =   2
                l(6) =   2
     Q(r) pseudized with 0 coefficients

     PseudoPot. # 2 for Te read from file:
     /home/pragov/projects/rrg-bengioy-ad/pragov/crystal_structure_design/SSSP/Te_pbe_v1.uspp.F.UPF
     MD5 check sum: c319670d6894cc26e93307826a071b75
     Pseudo is Ultrasoft + core correction, Zval =  6.0
     Generated by new atomic code, or converted to UPF format
     Using radial grid of  891 points,  5 beta functions with:
                l(1) =   0
                l(2) =   0
                l(3) =   1
                l(4) =   1
                l(5) =   2
     Q(r) pseudized with  6 coefficients,  rinner =    1.800   1.800   1.800
                                                       1.800   1.800

     PseudoPot. # 3 for O  read from file:
     /home/pragov/projects/rrg-bengioy-ad/pragov/crystal_structure_design/SSSP/O.pbe-n-kjpaw_psl.0.1.UPF
     MD5 check sum: 0234752ac141de4415c5fc33072bef88
     Pseudo is Projector augmented-wave + core cor, Zval =  6.0
     Generated using "atomic" code by A. Dal Corso  v.5.0.99 svn rev. 10869
     Shape of augmentation charge: BESSEL
     Using radial grid of 1095 points,  4 beta functions with:
                l(1) =   0
                l(2) =   0
                l(3) =   1
                l(4) =   1
     Q(r) pseudized with 0 coefficients

     atomic species   valence    mass     pseudopotential
        K              9.00    39.09830     K ( 1.00)
        Te             6.00   127.60000     Te( 1.00)
        O              6.00    15.99900     O ( 1.00)

      2 Sym. Ops., with inversion, found

                                    s                        frac. trans.

      isym =  1     identity

 cryst.   s( 1) = (     1          0          0      )
                  (     0          1          0      )
                  (     0          0          1      )

 cart.    s( 1) = (  1.0000000 -0.0000000  0.0000000 )
                  (  0.0000000  1.0000000  0.0000000 )
                  (  0.0000000  0.0000000  1.0000000 )

      isym =  2     inversion

 cryst.   s( 2) = (    -1          0          0      )
                  (     0         -1          0      )
                  (     0          0         -1      )

 cart.    s( 2) = ( -1.0000000  0.0000000 -0.0000000 )
                  (  0.0000000 -1.0000000 -0.0000000 )
                  (  0.0000000  0.0000000 -1.0000000 )

   Cartesian axes

     site n.     atom                  positions (alat units)
         1           K   tau(   1) = (   0.6150079   0.4089467   0.1462464  )
         2           K   tau(   2) = (   0.3133725   0.8928310   0.4387392  )
         3           Te  tau(   3) = (   1.0894922   0.3393306   0.4387392  )
         4           Te  tau(   4) = (  -0.1611119   0.9624470   0.1462464  )
         5           O   tau(   5) = (   0.5547686   0.9184032   0.1300481  )
         6           O   tau(   6) = (   0.1137141   0.2999552   0.1624446  )
         7           O   tau(   7) = (   0.3736117   0.3833745   0.4549374  )
         8           O   tau(   8) = (   0.8146663   1.0018225   0.4225409  )
         9           O   tau(   9) = (   0.8264779   0.2800100   0.4587047  )
        10           O   tau(  10) = (   1.0599059   0.6073234   0.4187736  )
        11           O   tau(  11) = (   0.1019025   1.0217677   0.1262808  )
        12           O   tau(  12) = (  -0.1315255   0.6944543   0.1662119  )

   Crystallographic axes

     site n.     atom                  positions (cryst. coord.)
         1           K   tau(   1) = (  0.6616810  0.3383190  0.2500000  )
         2           K   tau(   2) = (  0.3383190  0.6616810  0.7500000  )
         3           Te  tau(   3) = (  0.9237470  0.0762530  0.7500000  )
         4           Te  tau(   4) = (  0.0762530  0.9237470  0.2500000  )
         5           O   tau(   5) = (  0.7873950  0.8875980  0.2223100  )
         6           O   tau(   6) = (  0.1124020  0.2126050  0.2776900  )
         7           O   tau(   7) = (  0.2126050  0.1124020  0.7776900  )
         8           O   tau(   8) = (  0.8875980  0.7873950  0.7223100  )
         9           O   tau(   9) = (  0.6274330  0.0006480  0.7841300  )
        10           O   tau(  10) = (  0.9993520  0.3725670  0.7158700  )
        11           O   tau(  11) = (  0.3725670  0.9993520  0.2158700  )
        12           O   tau(  12) = (  0.0006480  0.6274330  0.2841300  )

     number of k points=     1  Methfessel-Paxton smearing, width (Ry)=  0.0010
                       cart. coord. in units 2pi/alat
        k(    1) = (   0.0000000   0.0000000   0.0000000), wk =   2.0000000

                       cryst. coord.
        k(    1) = (   0.0000000   0.0000000   0.0000000), wk =   2.0000000

     Check: negative core charge=   -0.000009

     Initial potential from superposition of free atoms

     starting charge      77.9619, renormalised to      78.0000
     Starting wfcs are   56 randomized atomic wfcs
     Checking if some PAW data can be deallocated...

     Self-consistent Calculation

     iteration #  1     ecut=    30.00 Ry     beta= 0.70
     Davidson diagonalization with overlap

     ethr =  1.00E-02,  avg # of iterations =  2.0

     total energy              =    -610.00066266 Ry
     estimated scf accuracy    <       2.70487767 Ry

[...]

     total energy              =    -611.32087036 Ry
     estimated scf accuracy    <       0.00005598 Ry

     iteration # 29     ecut=    30.00 Ry     beta= 0.70
     Davidson diagonalization with overlap

     ethr =  7.18E-08,  avg # of iterations =  1.0

     End of self-consistent calculation

          k = 0.0000 0.0000 0.0000 (  1831 PWs)   bands (ev):

   -23.7263 -23.7043 -16.9611 -14.7387 -14.3049 -14.2336 -13.7424 -13.5260
   -13.3236 -12.7788  -7.4276  -7.3273  -7.2720  -7.2099  -7.1874  -7.1668
    -7.1361  -4.6400  -2.7065  -1.5725  -1.4975  -1.4327  -1.1486   0.2192
     0.6984   0.7979   0.8726   1.4189   1.8782   1.8816   1.9469   2.0700
     2.2652   2.3558   2.3807   2.8933   3.1591   3.4738   3.8163   3.8181
     5.5991   7.1144   9.8399  10.1817  11.0434  11.2473  11.3101

     occupation numbers
     1.0000   1.0000   1.0000   1.0000   1.0000   1.0000   1.0000   1.0000
     1.0000   1.0000   1.0000   1.0000   1.0000   1.0000   1.0000   1.0000
     1.0000   1.0000   1.0000   1.0000   1.0000   1.0000   1.0000   1.0000
     1.0000   1.0000   1.0000   1.0000   1.0000   1.0000   1.0000   1.0000
     1.0000   1.0000   1.0000   1.0000   1.0000   1.0000   0.5559   0.4441
    -0.0000  -0.0000  -0.0000  -0.0000  -0.0000  -0.0000  -0.0000

     the Fermi energy is     3.8172 ev

!    total energy              =    -611.32087017 Ry
     estimated scf accuracy    <       0.00000032 Ry
     smearing contrib. (-TS)   =      -0.00055681 Ry
     internal energy E=F+TS    =    -611.32031336 Ry

     The total energy is F=E-TS. E is the sum of the following terms:
     one-electron contribution =    -161.52584215 Ry
     hartree contribution      =     122.56994485 Ry
     xc contribution           =    -110.76522767 Ry
     ewald contribution        =    -274.46696693 Ry
     one-center paw contrib.   =    -187.13222147 Ry
      -> PAW hartree energy AE =     305.68906407 Ry
      -> PAW hartree energy PS =    -304.51341933 Ry
      -> PAW xc energy AE      =    -268.82607110 Ry
      -> PAW xc energy PS      =      80.51820489 Ry
      -> total E_H with PAW    =     123.74558959 Ry
      -> total E_XC with PAW   =    -299.07309388 Ry

     convergence has been achieved in  29 iterations

     Forces acting on atoms (cartesian axes, Ry/au):

     atom    1 type  1   force =    -0.00058758    0.00049218   -0.00003294
     atom    2 type  1   force =     0.00058758   -0.00049218    0.00003294
     atom    3 type  2   force =    -0.01695663    0.01223683    0.00001536
     atom    4 type  2   force =     0.01695663   -0.01223683   -0.00001536
     atom    5 type  3   force =    -0.04540232    0.00928264    0.03236652
     atom    6 type  3   force =    -0.02354764    0.03986730   -0.03233503
     atom    7 type  3   force =     0.04540232   -0.00928264   -0.03236652
     atom    8 type  3   force =     0.02354764   -0.03986730    0.03233503
     atom    9 type  3   force =    -0.03637244   -0.00632831    0.00093797
     atom   10 type  3   force =    -0.00581665    0.03645592   -0.00085062
     atom   11 type  3   force =     0.03637244    0.00632831   -0.00093797
     atom   12 type  3   force =     0.00581665   -0.03645592    0.00085062
     The non-local contrib.  to forces
     atom    1 type  1   force =    -0.01045132    0.00750192   -0.00002210
     atom    2 type  1   force =     0.01045132   -0.00750192    0.00002210
     atom    3 type  2   force =    -0.17710704    0.12636903    0.00001012
     atom    4 type  2   force =     0.17710704   -0.12636903   -0.00001012
     atom    5 type  3   force =     0.83654612    0.15901878   -1.11018233
     atom    6 type  3   force =     0.12218622   -0.84275995    1.11019710
     atom    7 type  3   force =    -0.83654612   -0.15901878    1.11018233
     atom    8 type  3   force =    -0.12218622    0.84275995   -1.11019710
     atom    9 type  3   force =     1.36724687    0.38839998   -0.06133298
     atom   10 type  3   force =     0.07861589   -1.41913758    0.06186338
     atom   11 type  3   force =    -1.36724687   -0.38839998    0.06133298
     atom   12 type  3   force =    -0.07861589    1.41913758   -0.06186338
     The ionic contribution  to forces
     atom    1 type  1   force =    -2.28160573    1.62715799    0.00000000
     atom    2 type  1   force =     2.28160573   -1.62715799   -0.00000000
     atom    3 type  2   force =    -1.26154199    0.89968573   -0.00000000
     atom    4 type  2   force =     1.26154199   -0.89968573    0.00000000
     atom    5 type  3   force =    -4.59085263   -2.39181271    4.93637985
     atom    6 type  3   force =     0.76598878    5.11956610   -4.93637985
     atom    7 type  3   force =     4.59085263    2.39181271   -4.93637985
     atom    8 type  3   force =    -0.76598878   -5.11956610    4.93637985
     atom    9 type  3   force =    -4.24348645   -1.16937962    0.73261420
     atom   10 type  3   force =    -0.27662829    4.39296059   -0.73261420
     atom   11 type  3   force =     4.24348645    1.16937962   -0.73261420
     atom   12 type  3   force =     0.27662829   -4.39296059    0.73261420
     The local contribution  to forces
     atom    1 type  1   force =     2.29097141   -1.63342624   -0.00017338
     atom    2 type  1   force =    -2.29094012    1.63344452    0.00017786
     atom    3 type  2   force =     1.44132916   -1.02741453    0.00003131
     atom    4 type  2   force =    -1.44139814    1.02739152   -0.00001812
     atom    5 type  3   force =     3.71749332    2.24346329   -3.80505212
     atom    6 type  3   force =    -0.91047495   -4.24522805    3.80497624
     atom    7 type  3   force =    -3.71750523   -2.24346045    3.80505391
     atom    8 type  3   force =     0.91043391    4.24523656   -3.80495494
     atom    9 type  3   force =     2.85398308    0.77899492   -0.67076193
     atom   10 type  3   force =     0.19255050   -2.95195783    0.66997156
     atom   11 type  3   force =    -2.85391849   -0.77896061    0.67071346
     atom   12 type  3   force =    -0.19257048    2.95194383   -0.66995481
     The core correction contribution to forces
     atom    1 type  1   force =     0.00069282   -0.00049441    0.00000002
     atom    2 type  1   force =    -0.00069314    0.00049426   -0.00000013
     atom    3 type  2   force =    -0.01947465    0.01389322    0.00000120
     atom    4 type  2   force =     0.01947474   -0.01389312   -0.00000114
     atom    5 type  3   force =    -0.00843307   -0.00144417    0.01117770
     atom    6 type  3   force =    -0.00138191    0.00844385   -0.01117767
     atom    7 type  3   force =     0.00843314    0.00144418   -0.01117767
     atom    8 type  3   force =     0.00138196   -0.00844385    0.01117762
     atom    9 type  3   force =    -0.01400608   -0.00435895    0.00021978
     atom   10 type  3   force =    -0.00044777    0.01466213   -0.00022728
     atom   11 type  3   force =     0.01400639    0.00435951   -0.00021982
     atom   12 type  3   force =     0.00044774   -0.01466209    0.00022736
     The Hubbard contrib.    to forces
     atom    1 type  1   force =     0.00000000    0.00000000    0.00000000
     atom    2 type  1   force =     0.00000000    0.00000000    0.00000000
     atom    3 type  2   force =     0.00000000    0.00000000    0.00000000
     atom    4 type  2   force =     0.00000000    0.00000000    0.00000000
     atom    5 type  3   force =     0.00000000    0.00000000    0.00000000
     atom    6 type  3   force =     0.00000000    0.00000000    0.00000000
     atom    7 type  3   force =     0.00000000    0.00000000    0.00000000
     atom    8 type  3   force =     0.00000000    0.00000000    0.00000000
     atom    9 type  3   force =     0.00000000    0.00000000    0.00000000
     atom   10 type  3   force =     0.00000000    0.00000000    0.00000000
     atom   11 type  3   force =     0.00000000    0.00000000    0.00000000
     atom   12 type  3   force =     0.00000000    0.00000000    0.00000000
     The SCF correction term to forces
     atom    1 type  1   force =    -0.00019504   -0.00024711    0.00016251
     atom    2 type  1   force =     0.00016352    0.00022892   -0.00016690
     atom    3 type  2   force =    -0.00016503   -0.00029791   -0.00002767
     atom    4 type  2   force =     0.00022807    0.00031823    0.00001363
     atom    5 type  3   force =    -0.00015615    0.00005725    0.00004569
     atom    6 type  3   force =     0.00013659   -0.00015526    0.00004874
     atom    7 type  3   force =     0.00016780   -0.00006051   -0.00004298
     atom    8 type  3   force =    -0.00009085    0.00014555   -0.00007080
     atom    9 type  3   force =    -0.00010491    0.00003179    0.00019674
     atom   10 type  3   force =     0.00009190   -0.00007058    0.00015820
     atom   11 type  3   force =     0.00004991   -0.00003382   -0.00015256
     atom   12 type  3   force =    -0.00007412    0.00008615   -0.00017046

     Total force =     0.138202     Total SCF correction =     0.000897

     Computing stress (Cartesian axis) and pressure

          total   stress  (Ry/bohr**3)                   (kbar)     P=     -230.88
  -0.00148387  -0.00006227   0.00003676         -218.29       -9.16        5.41
  -0.00006227  -0.00152848   0.00005221           -9.16     -224.85        7.68
   0.00003676   0.00005221  -0.00169613            5.41        7.68     -249.51

     kinetic stress (kbar)  14117.76     64.33    -90.03
                               64.33  14161.96   -126.63
                              -90.03   -126.63  14084.31

     local   stress (kbar)  -6431.25    307.12  -1931.87
                              307.12  -6220.15  -2707.97
                            -1931.87  -2707.97  -7764.32

     nonloc. stress (kbar)   1281.46    -19.30      0.99
                              -19.30   1268.14      1.41
                                0.99      1.41   1297.91

     hartree stress (kbar)   4403.72   -251.36    827.56
                             -251.36   4230.95   1159.96
                              827.56   1159.96   4950.68

     exc-cor stress (kbar)    166.60      1.60      0.51
                                1.60    167.70      0.72
                                0.51      0.72    166.68

     corecor stress (kbar)  -3384.99     -2.38     -0.43
                               -2.38  -3386.63     -0.60
                               -0.43     -0.60  -3381.94

     ewald   stress (kbar) -10371.60   -109.17   1198.68
                             -109.17 -10446.82   1680.80
                             1198.68   1680.80  -9602.83

     hubbard stress (kbar)      0.00      0.00      0.00
                                0.00      0.00      0.00
                                0.00      0.00      0.00

     DFT-D   stress (kbar)      0.00      0.00      0.00
                                0.00      0.00      0.00
                                0.00      0.00      0.00

     XDM     stress (kbar)      0.00      0.00      0.00
                                0.00      0.00      0.00
                                0.00      0.00      0.00

     dft-nl  stress (kbar)      0.00      0.00      0.00
                                0.00      0.00      0.00
                                0.00      0.00      0.00

     TS-vdW  stress (kbar)      0.00      0.00      0.00
                                0.00      0.00      0.00
                                0.00      0.00      0.00

[...]

                                0.00      0.00      0.00

     Writing all to output data dir new_calculations/myprefix.save/

     General routines

     Parallel routines

     PAW routines

   This run was terminated on:   4:58: 7  20May2023

   JOB DONE.