     Program PWSCF v.7.0 starts on 21May2023 at  5:20:59

     Reading input from espresso_26457.pwi
Warning: card &CELL ignored
Warning: card / ignored

     Current dimensions of program PWSCF are:
     Max number of different atomic species (ntypx) = 10
     Max number of k-points (npk) =  40000
     Max angular momentum in pseudopotentials (lmaxx) =  4
     file K.pbe-spn-kjpaw_psl.1.0.0.UPF: wavefunction(s)  3S renormalized
     file Nb.pbe-spn-kjpaw_psl.0.3.0.UPF: wavefunction(s)  4S 4P renormalized
     file O.pbe-n-kjpaw_psl.0.1.UPF: wavefunction(s)  2P renormalized

     gamma-point specific algorithms are used
     Message from routine setup:
     using ibrav=0 with symmetry is DISCOURAGED, use correct ibrav instead

     Subspace diagonalization in iterative solution of the eigenvalue problem:
     a serial algorithm will be used

     Using Slab Decomposition

     bravais-lattice index     =            0
     lattice parameter (alat)  =      18.6704  a.u.
     unit-cell volume          =    1771.2718 (a.u.)^3
     number of atoms/cell      =           20
     number of atomic types    =            4
     number of electrons       =       160.00
     number of Kohn-Sham states=           96
     kinetic-energy cutoff     =      30.0000  Ry
     charge density cutoff     =     240.0000  Ry
     scf convergence threshold =      1.0E-06
     mixing beta               =       0.7000
     number of iterations used =            8  plain     mixing
     Exchange-correlation= SLA  PW   PBX  PBC
                           (   1   4   3   4   0   0   0)

     celldm(1)=  18.670434  celldm(2)=   0.000000  celldm(3)=   0.000000
     celldm(4)=   0.000000  celldm(5)=   0.000000  celldm(6)=   0.000000

     crystal axes: (cart. coord. in units of alat)
               a(1) = (   1.000000   0.000000   0.000000 )
               a(2) = (   0.833338   0.552764   0.000000 )
               a(3) = (   0.833338   0.251257   0.492359 )

     reciprocal axes: (cart. coord. in units 2 pi/alat)
               b(1) = (  1.000000 -1.507584 -0.923201 )
               b(2) = (  0.000000  1.809091 -0.923201 )
               b(3) = (  0.000000  0.000000  2.031036 )

     PseudoPot. # 1 for K  read from file:
     /home/pragov/projects/rrg-bengioy-ad/pragov/crystal_structure_design/SSSP/K.pbe-spn-kjpaw_psl.1.0.0.UPF
     MD5 check sum: 7d58810084cac21f60fbe77ea2b688fd
     Pseudo is Projector augmented-wave + core cor, Zval =  9.0
     Generated using "atomic" code by A. Dal Corso  v.5.1
     Shape of augmentation charge: PSQ
     Using radial grid of 1165 points,  6 beta functions with:
                l(1) =   0
                l(2) =   0
                l(3) =   1
                l(4) =   1
                l(5) =   2
                l(6) =   2
     Q(r) pseudized with 0 coefficients

     PseudoPot. # 2 for Ta read from file:
     /home/pragov/projects/rrg-bengioy-ad/pragov/crystal_structure_design/SSSP/Ta_pbe_v1.uspp.F.UPF
     MD5 check sum: f8bbe9446314a3b8ea5d9f3e3836c939
     Pseudo is Ultrasoft + core correction, Zval = 13.0
     Generated by new atomic code, or converted to UPF format
     Using radial grid of  921 points,  7 beta functions with:
                l(1) =   0
                l(2) =   0
                l(3) =   1
                l(4) =   1
                l(5) =   2
                l(6) =   2
                l(7) =   3
     Q(r) pseudized with  6 coefficients,  rinner =    1.300   1.300   1.300
                                                       1.300   1.300   1.300
                                                       1.300

     PseudoPot. # 3 for Nb read from file:
     /home/pragov/projects/rrg-bengioy-ad/pragov/crystal_structure_design/SSSP/Nb.pbe-spn-kjpaw_psl.0.3.0.UPF
     MD5 check sum: 411d72ad547312f8017e2943ceca08cc
     Pseudo is Projector augmented-wave + core cor, Zval = 13.0
     Generated using "atomic" code by A. Dal Corso  v.5.0.99 svn rev. 10869
     Shape of augmentation charge: PSQ
     Using radial grid of 1227 points,  6 beta functions with:
                l(1) =   0
                l(2) =   0
                l(3) =   1
                l(4) =   1
                l(5) =   2
                l(6) =   2
     Q(r) pseudized with 0 coefficients

     PseudoPot. # 4 for O  read from file:
     /home/pragov/projects/rrg-bengioy-ad/pragov/crystal_structure_design/SSSP/O.pbe-n-kjpaw_psl.0.1.UPF
     MD5 check sum: 0234752ac141de4415c5fc33072bef88
     Pseudo is Projector augmented-wave + core cor, Zval =  6.0
     Generated using "atomic" code by A. Dal Corso  v.5.0.99 svn rev. 10869
     Shape of augmentation charge: BESSEL
     Using radial grid of 1095 points,  4 beta functions with:
                l(1) =   0
                l(2) =   0
                l(3) =   1
                l(4) =   1
     Q(r) pseudized with 0 coefficients

     atomic species   valence    mass     pseudopotential
        K              9.00    39.09830     K ( 1.00)
        Ta            13.00   180.94788     Ta( 1.00)
        Nb            13.00    92.90637     Nb( 1.00)
        O              6.00    15.99900     O ( 1.00)

      2 Sym. Ops., with inversion, found

                                    s                        frac. trans.

      isym =  1     identity

 cryst.   s( 1) = (     1          0          0      )
                  (     0          1          0      )
                  (     0          0          1      )

 cart.    s( 1) = (  1.0000000 -0.0000000 -0.0000000 )
                  (  0.0000000  1.0000000 -0.0000000 )
                  (  0.0000000  0.0000000  1.0000000 )

      isym =  2     inversion

 cryst.   s( 2) = (    -1          0          0      )
                  (     0         -1          0      )
                  (     0          0         -1      )

 cart.    s( 2) = ( -1.0000000  0.0000000  0.0000000 )
                  (  0.0000000 -1.0000000  0.0000000 )
                  (  0.0000000  0.0000000 -1.0000000 )

   Cartesian axes

     site n.     atom                  positions (alat units)
         1           K   tau(   1) = (   1.0000407   0.3015191   0.1846417  )
         2           K   tau(   2) = (   0.3333718   0.1005139   0.0615518  )
         3           K   tau(   3) = (   2.3333039   0.7035071   0.4308077  )
         4           K   tau(   4) = (   1.6666350   0.5025018   0.3077178  )
         5           Ta  tau(   5) = (   0.6671623   0.2011540   0.1231810  )
         6           Ta  tau(   6) = (   0.0000000   0.0000000   0.0000000  )
         7           Ta  tau(   7) = (   1.9995135   0.6028670   0.3691785  )
         8           Nb  tau(   8) = (   1.3333379   0.4020105   0.2461797  )
         9           O   tau(   9) = (   0.7500449   0.3769806   0.0615100  )
        10           O   tau(  10) = (   1.9166308   0.4270404   0.4308495  )
        11           O   tau(  11) = (   1.2496409   0.2253552   0.3079979  )
        12           O   tau(  12) = (   1.4170349   0.5786657   0.1843615  )
        13           O   tau(  13) = (   1.9166308   0.5778773   0.1845334  )
        14           O   tau(  14) = (   1.2496409   0.3767753   0.0607296  )
        15           O   tau(  15) = (   1.4170348   0.4272457   0.4316299  )
        16           O   tau(  16) = (   0.7500449   0.2261437   0.3078261  )
        17           O   tau(  17) = (   1.8332536   0.7035754   0.4308495  )
        18           O   tau(  18) = (   1.1659413   0.5029593   0.3079979  )
        19           O   tau(  19) = (   1.5007344   0.3010616   0.1843615  )
        20           O   tau(  20) = (   0.8334221   0.1004455   0.0615100  )

   Crystallographic axes

     site n.     atom                  positions (cryst. coord.)
         1           K   tau(   1) = (  0.3750140  0.3750140  0.3750140  )
         2           K   tau(   2) = (  0.1250140  0.1250140  0.1250140  )
         3           K   tau(   3) = (  0.8749860  0.8749860  0.8749860  )
         4           K   tau(   4) = (  0.6249860  0.6249860  0.6249860  )
         5           Ta  tau(   5) = (  0.2501850  0.2501850  0.2501850  )
         6           Ta  tau(   6) = (  0.0000000  0.0000000  0.0000000  )
         7           Ta  tau(   7) = (  0.7498150  0.7498150  0.7498150  )
         8           Nb  tau(   8) = (  0.5000000  0.5000000  0.5000000  )
         9           O   tau(   9) = (  0.1249290  0.6252060  0.1249290  )
        10           O   tau(  10) = (  0.8750710  0.3747940  0.8750710  )
        11           O   tau(  11) = (  0.6255550  0.1233440  0.6255550  )
        12           O   tau(  12) = (  0.3744450  0.8766560  0.3744450  )
        13           O   tau(  13) = (  0.8750710  0.8750710  0.3747940  )
        14           O   tau(  14) = (  0.6255550  0.6255550  0.1233440  )
        15           O   tau(  15) = (  0.3744450  0.3744450  0.8766560  )
        16           O   tau(  16) = (  0.1249290  0.1249290  0.6252060  )
        17           O   tau(  17) = (  0.3747940  0.8750710  0.8750710  )
        18           O   tau(  18) = (  0.1233440  0.6255550  0.6255550  )
        19           O   tau(  19) = (  0.8766560  0.3744450  0.3744450  )
        20           O   tau(  20) = (  0.6252060  0.1249290  0.1249290  )

     number of k points=     1  Methfessel-Paxton smearing, width (Ry)=  0.0010
                       cart. coord. in units 2pi/alat
        k(    1) = (   0.0000000   0.0000000   0.0000000), wk =   2.0000000

                       cryst. coord.
        k(    1) = (   0.0000000   0.0000000   0.0000000), wk =   2.0000000

     Check: negative core charge=   -0.000011

     Initial potential from superposition of free atoms

     starting charge     159.9192, renormalised to     160.0000

     negative rho (up, down):  2.814E-01 0.000E+00
     Starting wfcs are  129 randomized atomic wfcs
     Checking if some PAW data can be deallocated...

     Self-consistent Calculation

     iteration #  1     ecut=    30.00 Ry     beta= 0.70
     Davidson diagonalization with overlap

     ethr =  1.00E-02,  avg # of iterations =  2.0

     negative rho (up, down):  2.823E-01 0.000E+00

     total energy              =   -1708.75728933 Ry
     estimated scf accuracy    <       7.71331708 Ry

[...]

     total energy              =   -1712.68871813 Ry
     estimated scf accuracy    <       0.00000160 Ry

     iteration # 13     ecut=    30.00 Ry     beta= 0.70
     Davidson diagonalization with overlap

     ethr =  1.00E-09,  avg # of iterations =  3.0

[...]

     End of self-consistent calculation

          k = 0.0000 0.0000 0.0000 (  2449 PWs)   bands (ev):

   -59.6344 -59.6017 -59.6015 -47.0403 -26.1434 -26.1041 -26.0899 -26.0885
   -26.0885 -26.0497 -26.0497 -26.0352 -26.0352 -23.1270 -23.0728 -23.0728
   -19.0692 -19.0424 -19.0393 -19.0188  -8.8088  -8.2306  -8.1620  -8.1619
    -8.1268  -7.7815  -7.7815  -7.7675  -7.7674  -7.3105  -7.3079  -7.3079
    -2.8245  -2.8154  -2.8154  -2.6493  -2.6493  -2.6464  -2.6464  -2.6089
    -2.5988  -2.5988  -2.4916  -2.4915   3.2806   3.2806   3.3421   4.6930
     4.7488   4.7526   4.7526   4.7699   4.7700   4.8079   4.8079   4.8413
     5.4963   5.6275   5.6714   5.6714   5.6815   5.6815   6.2663   6.2821
     6.2821   7.6948   7.6948   7.7108   7.8984   7.8984   7.9174   7.9174
     8.0103   8.0117   8.0117   8.1877   8.1965   8.7631   8.7632   8.7823
    10.1490  10.1864  10.1865  12.1625  12.3462  12.3463  12.6417  12.8269
    12.8269  14.2115  14.2115  14.3760  14.4134  14.4134  14.8694  16.4448

     occupation numbers
     1.0000   1.0000   1.0000   1.0000   1.0000   1.0000   1.0000   1.0000
     1.0000   1.0000   1.0000   1.0000   1.0000   1.0000   1.0000   1.0000
     1.0000   1.0000   1.0000   1.0000   1.0000   1.0000   1.0000   1.0000
     1.0000   1.0000   1.0000   1.0000   1.0000   1.0000   1.0000   1.0000
     1.0000   1.0000   1.0000   1.0000   1.0000   1.0000   1.0000   1.0000
     1.0000   1.0000   1.0000   1.0000   1.0000   1.0000   1.0000   1.0000
     1.0000   1.0000   1.0000   1.0000   1.0000   1.0000   1.0000   1.0000
     1.0000   1.0000   1.0000   1.0000   1.0000   1.0000   1.0000   1.0000
     1.0000   1.0000   1.0000   1.0000   1.0000   1.0000   1.0000   1.0000
     1.0000   1.0000   1.0000   1.0000   1.0000   1.0000   1.0000   1.0000
    -0.0000  -0.0000  -0.0000  -0.0000  -0.0000  -0.0000  -0.0000  -0.0000
    -0.0000  -0.0000  -0.0000  -0.0000  -0.0000  -0.0000  -0.0000  -0.0000

     the Fermi energy is     9.4229 ev

!    total energy              =   -1712.68871852 Ry
     estimated scf accuracy    <       0.00000008 Ry
     smearing contrib. (-TS)   =       0.00000000 Ry
     internal energy E=F+TS    =   -1712.68871852 Ry

     The total energy is F=E-TS. E is the sum of the following terms:
     one-electron contribution =    -289.40048508 Ry
     hartree contribution      =     231.92157436 Ry
     xc contribution           =    -290.71614634 Ry
     ewald contribution        =    -820.16014078 Ry
     one-center paw contrib.   =    -544.33352068 Ry
      -> PAW hartree energy AE =     583.50301156 Ry
      -> PAW hartree energy PS =    -580.94036107 Ry
      -> PAW xc energy AE      =    -708.30031464 Ry
      -> PAW xc energy PS      =     161.40414348 Ry
      -> total E_H with PAW    =     234.48422485 Ry
      -> total E_XC with PAW   =    -837.61231751 Ry

     convergence has been achieved in  13 iterations

     negative rho (up, down):  2.863E-01 0.000E+00

     Forces acting on atoms (cartesian axes, Ry/au):

     atom    1 type  1   force =     0.00071711    0.00021318    0.00012966
     atom    2 type  1   force =     0.00151842    0.00045315    0.00027534
     atom    3 type  1   force =    -0.00151842   -0.00045315   -0.00027534
     atom    4 type  1   force =    -0.00071711   -0.00021318   -0.00012966
     atom    5 type  2   force =     0.00893256    0.00269080    0.00164809
     atom    6 type  2   force =     0.00000000    0.00000000    0.00000000
     atom    7 type  2   force =    -0.00893256   -0.00269080   -0.00164809
     atom    8 type  3   force =     0.00000000    0.00000000    0.00000000
     atom    9 type  4   force =     0.00040364    0.00046584   -0.00010169
     atom   10 type  4   force =    -0.00040364   -0.00046584    0.00010169
     atom   11 type  4   force =     0.00601602    0.00985100   -0.00299106
     atom   12 type  4   force =    -0.00601602   -0.00985100    0.00299106
     atom   13 type  4   force =    -0.00040391   -0.00012154   -0.00046136
     atom   14 type  4   force =     0.00601637    0.00181331    0.01013492
     atom   15 type  4   force =    -0.00601637   -0.00181331   -0.01013492
     atom   16 type  4   force =     0.00040391    0.00012154    0.00046136
     atom   17 type  4   force =    -0.00059469    0.00016368    0.00010052
     atom   18 type  4   force =     0.01045914   -0.00488410   -0.00299125
     atom   19 type  4   force =    -0.01045914    0.00488410    0.00299125
     atom   20 type  4   force =     0.00059469   -0.00016368   -0.00010052
     The non-local contrib.  to forces
     atom    1 type  1   force =     0.00038293    0.00011620    0.00007173
     atom    2 type  1   force =    -0.00003809   -0.00001079   -0.00000596
     atom    3 type  1   force =     0.00003809    0.00001079    0.00000596
     atom    4 type  1   force =    -0.00038293   -0.00011620   -0.00007173
     atom    5 type  2   force =     0.01281261    0.00386255    0.00236591
     atom    6 type  2   force =     0.00000000    0.00000000    0.00000000
     atom    7 type  2   force =    -0.01281261   -0.00386255   -0.00236591
     atom    8 type  3   force =     0.00000000    0.00000000    0.00000000
     atom    9 type  4   force =     0.00553786    0.00080023    0.00146638
     atom   10 type  4   force =    -0.00553786   -0.00080023   -0.00146638
     atom   11 type  4   force =    -0.03560638   -0.04348191    0.01013561
     atom   12 type  4   force =     0.03560638    0.04348191   -0.01013561
     atom   13 type  4   force =    -0.00553734   -0.00166998   -0.00004617
     atom   14 type  4   force =    -0.03560695   -0.01073682   -0.04333719
     atom   15 type  4   force =     0.03560695    0.01073682    0.04333719
     atom   16 type  4   force =     0.00553734    0.00166998    0.00004617
     atom   17 type  4   force =    -0.00505949   -0.00239476   -0.00146666
     atom   18 type  4   force =    -0.05370745    0.01655461    0.01013713
     atom   19 type  4   force =     0.05370745   -0.01655461   -0.01013713
     atom   20 type  4   force =     0.00505949    0.00239476    0.00146666
     The ionic contribution  to forces
     atom    1 type  1   force =     0.06458407    0.01947254    0.01192442
     atom    2 type  1   force =     0.06423479    0.01936723    0.01185997
     atom    3 type  1   force =    -0.06423479   -0.01936723   -0.01185997
     atom    4 type  1   force =    -0.06458407   -0.01947254   -0.01192442
     atom    5 type  2   force =     0.01975855    0.00595734    0.00364810
     atom    6 type  2   force =    -0.00000000   -0.00000000    0.00000000
     atom    7 type  2   force =    -0.01975855   -0.00595734   -0.00364810
     atom    8 type  3   force =     0.00000000    0.00000000    0.00000000
     atom    9 type  4   force =    -0.02768845    0.00949742   -0.01421911
     atom   10 type  4   force =     0.02768845   -0.00949742    0.01421911
     atom   11 type  4   force =     0.14246691    0.23269218   -0.07052108
     atom   12 type  4   force =    -0.14246691   -0.23269218    0.07052108
     atom   13 type  4   force =     0.02768847    0.00834826   -0.01492282
     atom   14 type  4   force =     0.14246689    0.04295474    0.23931941
     atom   15 type  4   force =    -0.14246689   -0.04295474   -0.23931941
     atom   16 type  4   force =    -0.02768847   -0.00834826    0.01492282
     atom   17 type  4   force =     0.01782401    0.02321974    0.01421911
     atom   18 type  4   force =     0.24734692   -0.11516064   -0.07052108
     atom   19 type  4   force =    -0.24734692    0.11516064    0.07052108
     atom   20 type  4   force =    -0.01782401   -0.02321974   -0.01421911
     The local contribution  to forces
     atom    1 type  1   force =    -0.06426218   -0.01938606   -0.01188009
     atom    2 type  1   force =    -0.06264401   -0.01888008   -0.01156239
     atom    3 type  1   force =     0.06262766    0.01887978    0.01156191
     atom    4 type  1   force =     0.06422803    0.01935952    0.01185734
     atom    5 type  2   force =    -0.02286960   -0.00684749   -0.00418197
     atom    6 type  2   force =     0.00020101    0.00005790    0.00002685
     atom    7 type  2   force =     0.02253883    0.00683079    0.00418911
     atom    8 type  3   force =     0.00016946   -0.00003517   -0.00003825
     atom    9 type  4   force =     0.02262601   -0.00987689    0.01270233
     atom   10 type  4   force =    -0.02262204    0.00985092   -0.01267763
     atom   11 type  4   force =    -0.10120197   -0.17961710    0.05740008
     atom   12 type  4   force =     0.10119050    0.17963512   -0.05742408
     atom   13 type  4   force =    -0.02261968   -0.00681565    0.01453850
     atom   14 type  4   force =    -0.10120354   -0.03051517   -0.18608201
     atom   15 type  4   force =     0.10119202    0.03050366    0.18610523
     atom   16 type  4   force =     0.02262549    0.00682499   -0.01457139
     atom   17 type  4   force =    -0.01339585   -0.02071821   -0.01268646
     atom   18 type  4   force =    -0.18362525    0.09373922    0.05740076
     atom   19 type  4   force =     0.18361994   -0.09375694   -0.05741342
     atom   20 type  4   force =     0.01340339    0.02073626    0.01269651
     The core correction contribution to forces
     atom    1 type  1   force =     0.00000214    0.00000059    0.00000018
     atom    2 type  1   force =    -0.00000535   -0.00000173   -0.00000114
     atom    3 type  1   force =     0.00000643    0.00000185    0.00000112
     atom    4 type  1   force =    -0.00000379   -0.00000103   -0.00000058
     atom    5 type  2   force =    -0.00074157   -0.00022264   -0.00013608
     atom    6 type  2   force =     0.00000529    0.00000167    0.00000074
     atom    7 type  2   force =     0.00073390    0.00022244    0.00013640
     atom    8 type  3   force =     0.00000147   -0.00000077   -0.00000068
     atom    9 type  4   force =    -0.00006544   -0.00001864   -0.00001265
     atom   10 type  4   force =     0.00006542    0.00001866    0.00001261
     atom   11 type  4   force =     0.00036701    0.00037251   -0.00006584
     atom   12 type  4   force =    -0.00036695   -0.00037248    0.00006581
     atom   13 type  4   force =     0.00006540    0.00001971    0.00001088
     atom   14 type  4   force =     0.00036701    0.00011069    0.00036171
     atom   15 type  4   force =    -0.00036696   -0.00011068   -0.00036170
     atom   16 type  4   force =    -0.00006544   -0.00001976   -0.00001087
     atom   17 type  4   force =     0.00006486    0.00002056    0.00001259
     atom   18 type  4   force =     0.00051174   -0.00010754   -0.00006585
     atom   19 type  4   force =    -0.00051170    0.00010764    0.00006591
     atom   20 type  4   force =    -0.00006489   -0.00002068   -0.00001268
     The Hubbard contrib.    to forces
     atom    1 type  1   force =     0.00000000    0.00000000    0.00000000
     atom    2 type  1   force =     0.00000000    0.00000000    0.00000000
     atom    3 type  1   force =     0.00000000    0.00000000    0.00000000
     atom    4 type  1   force =     0.00000000    0.00000000    0.00000000
     atom    5 type  2   force =     0.00000000    0.00000000    0.00000000
     atom    6 type  2   force =     0.00000000    0.00000000    0.00000000
     atom    7 type  2   force =     0.00000000    0.00000000    0.00000000
     atom    8 type  3   force =     0.00000000    0.00000000    0.00000000
     atom    9 type  4   force =     0.00000000    0.00000000    0.00000000
     atom   10 type  4   force =     0.00000000    0.00000000    0.00000000
     atom   11 type  4   force =     0.00000000    0.00000000    0.00000000
     atom   12 type  4   force =     0.00000000    0.00000000    0.00000000
     atom   13 type  4   force =     0.00000000    0.00000000    0.00000000
     atom   14 type  4   force =     0.00000000    0.00000000    0.00000000
     atom   15 type  4   force =     0.00000000    0.00000000    0.00000000
     atom   16 type  4   force =     0.00000000    0.00000000    0.00000000
     atom   17 type  4   force =     0.00000000    0.00000000    0.00000000
     atom   18 type  4   force =     0.00000000    0.00000000    0.00000000
     atom   19 type  4   force =     0.00000000    0.00000000    0.00000000
     atom   20 type  4   force =     0.00000000    0.00000000    0.00000000
     The SCF correction term to forces
     atom    1 type  1   force =    -0.00000051    0.00000466    0.00001303
     atom    2 type  1   force =    -0.00002588   -0.00002301   -0.00001813
     atom    3 type  1   force =     0.00004724    0.00002013    0.00001266
     atom    4 type  1   force =     0.00001499    0.00001183    0.00000935
     atom    5 type  2   force =     0.00000837   -0.00005720   -0.00004809
     atom    6 type  2   force =    -0.00026661   -0.00007708   -0.00003548
     atom    7 type  2   force =     0.00040168    0.00007760    0.00004018
     atom    8 type  3   force =    -0.00017526    0.00003377    0.00003688
     atom    9 type  4   force =    -0.00000922    0.00006699   -0.00004296
     atom   10 type  4   force =    -0.00000051   -0.00003451    0.00000965
     atom   11 type  4   force =    -0.00000726   -0.00011536    0.00006135
     atom   12 type  4   force =     0.00002326    0.00009594   -0.00003496
     atom   13 type  4   force =    -0.00000402   -0.00000656   -0.00003816
     atom   14 type  4   force =    -0.00000533   -0.00000010   -0.00012971
     atom   15 type  4   force =     0.00002022    0.00001167    0.00010105
     atom   16 type  4   force =    -0.00000826   -0.00000808    0.00007823
     atom   17 type  4   force =    -0.00003000    0.00003034    0.00001765
     atom   18 type  4   force =    -0.00006486    0.00009397    0.00006011
     atom   19 type  4   force =     0.00007404   -0.00006891   -0.00004286
     atom   20 type  4   force =     0.00001891   -0.00006031   -0.00003618

     Total force =     0.032269     Total SCF correction =     0.000631

     Computing stress (Cartesian axis) and pressure

     negative rho (up, down):  2.863E-01 0.000E+00
          total   stress  (Ry/bohr**3)                   (kbar)     P=     -266.48
  -0.00241990  -0.00029354  -0.00017974         -355.98      -43.18      -26.44
  -0.00029354  -0.00153492  -0.00005418          -43.18     -225.79       -7.97
  -0.00017974  -0.00005418  -0.00147959          -26.44       -7.97     -217.65

     kinetic stress (kbar)  25416.37    -77.47    -47.44
                              -77.47  25649.94    -14.30
                              -47.44    -14.30  25664.54

     local   stress (kbar)  -3644.39     34.14     20.92
                               34.14  -3747.38      6.31
                               20.92      6.31  -3753.81

     nonloc. stress (kbar)    -20.19     -1.99     -1.22
                               -1.99    -14.19     -0.37
                               -1.22     -0.37    -13.81

     hartree stress (kbar)   6423.00      1.26      0.77
                                1.26   6419.23      0.23
                                0.77      0.23   6418.98

     exc-cor stress (kbar)   3943.81      0.44      0.27
                                0.44   3942.49      0.08
                                0.27      0.08   3942.41

     corecor stress (kbar)  -9769.54      0.49      0.30
                                0.49  -9771.03      0.09
                                0.30      0.09  -9771.12

     ewald   stress (kbar) -22705.04     -0.06     -0.04
                               -0.06 -22704.86     -0.01
                               -0.04     -0.01 -22704.85

     hubbard stress (kbar)      0.00      0.00      0.00
                                0.00      0.00      0.00
                                0.00      0.00      0.00

     DFT-D   stress (kbar)      0.00      0.00      0.00
                                0.00      0.00      0.00
                                0.00      0.00      0.00

     XDM     stress (kbar)      0.00      0.00      0.00
                                0.00      0.00      0.00
                                0.00      0.00      0.00

     dft-nl  stress (kbar)      0.00      0.00      0.00
                                0.00      0.00      0.00
                                0.00      0.00      0.00

     TS-vdW  stress (kbar)      0.00      0.00      0.00
                                0.00      0.00      0.00
                                0.00      0.00      0.00

[...]

                                0.00      0.00      0.00

     Writing all to output data dir new_calculations/myprefix.save/

     General routines

     Parallel routines

     PAW routines

   This run was terminated on:   5:21:50  21May2023

   JOB DONE.