     Program PWSCF v.7.0 starts on 21May2023 at  1:41: 3

     Reading input from espresso_22375.pwi
Warning: card &CELL ignored
Warning: card / ignored

     Current dimensions of program PWSCF are:
     Max number of different atomic species (ntypx) = 10
     Max number of k-points (npk) =  40000
     Max angular momentum in pseudopotentials (lmaxx) =  4

     gamma-point specific algorithms are used
     Message from routine setup:
     using ibrav=0 with symmetry is DISCOURAGED, use correct ibrav instead

     Subspace diagonalization in iterative solution of the eigenvalue problem:
     a serial algorithm will be used

     Using Slab Decomposition

     bravais-lattice index     =            0
     lattice parameter (alat)  =       6.1522  a.u.
     unit-cell volume          =    2250.4275 (a.u.)^3
     number of atoms/cell      =           12
     number of atomic types    =            4
     number of electrons       =       104.00
     number of Kohn-Sham states=           62
     kinetic-energy cutoff     =      30.0000  Ry
     charge density cutoff     =     240.0000  Ry
     scf convergence threshold =      1.0E-06
     mixing beta               =       0.7000
     number of iterations used =            8  plain     mixing
     Exchange-correlation=  SLA  PW   PBX  PBC
                           (   1   4   3   4   0   0   0)

     celldm(1)=   6.152152  celldm(2)=   0.000000  celldm(3)=   0.000000
     celldm(4)=   0.000000  celldm(5)=   0.000000  celldm(6)=   0.000000

     crystal axes: (cart. coord. in units of alat)
               a(1) = (   1.000000   0.000000   0.000000 )
               a(2) = (  -0.500000   0.866025   0.000000 )
               a(3) = (   0.000000   0.000000  11.159720 )

     reciprocal axes: (cart. coord. in units 2 pi/alat)
               b(1) = (  1.000000  0.577351  0.000000 )
               b(2) = (  0.000000  1.154701  0.000000 )
               b(3) = (  0.000000  0.000000  0.089608 )

     PseudoPot. # 1 for Mo read from file:
     /home/pragov/projects/rrg-bengioy-ad/pragov/crystal_structure_design/SSSP/Mo_ONCV_PBE-1.0.oncvpsp.upf
     MD5 check sum: 1b5d28e075c9ccadda658a603575cd1f
     Pseudo is Norm-conserving, Zval = 14.0
     Generated using ONCVPSP code by D. R. Hamann
     Using radial grid of 1526 points,  6 beta functions with:
                l(1) =   0
                l(2) =   0
                l(3) =   1
                l(4) =   1
                l(5) =   2
                l(6) =   2

     PseudoPot. # 2 for W  read from file:
     /home/pragov/projects/rrg-bengioy-ad/pragov/crystal_structure_design/SSSP/W_pbe_v1.2.uspp.F.UPF
     MD5 check sum: 9c083fa34c2a2ea0f02f1f893e16e1c8
     Pseudo is Ultrasoft + core correction, Zval = 14.0
     Generated by new atomic code, or converted to UPF format
     Using radial grid of  923 points,  8 beta functions with:
                l(1) =   0
                l(2) =   0
                l(3) =   0
                l(4) =   1
                l(5) =   1
                l(6) =   2
                l(7) =   2
                l(8) =   3
     Q(r) pseudized with  6 coefficients,  rinner =    1.350   1.350   1.350
                                                       1.350   1.350   1.350
                                                       1.350

     PseudoPot. # 3 for Se read from file:
     /home/pragov/projects/rrg-bengioy-ad/pragov/crystal_structure_design/SSSP/Se_pbe_v1.uspp.F.UPF
     MD5 check sum: 1b3568f3a8ae88f9a2a0ad0698632c85
     Pseudo is Ultrasoft + core correction, Zval =  6.0
     Generated by new atomic code, or converted to UPF format
     Using radial grid of  877 points,  6 beta functions with:
                l(1) =   0
                l(2) =   0
                l(3) =   1
                l(4) =   1
                l(5) =   2
                l(6) =   2
     Q(r) pseudized with  8 coefficients,  rinner =    1.300   1.300   1.300
                                                       1.300   1.300

     PseudoPot. # 4 for S  read from file:
     /home/pragov/projects/rrg-bengioy-ad/pragov/crystal_structure_design/SSSP/s_pbe_v1.4.uspp.F.UPF
     MD5 check sum: 88d86576ff6df21479756cfb9bdac1df
     Pseudo is Ultrasoft + core correction, Zval =  6.0
     Generated by new atomic code, or converted to UPF format
     Using radial grid of  907 points,  6 beta functions with:
                l(1) =   0
                l(2) =   0
                l(3) =   1
                l(4) =   1
                l(5) =   2
                l(6) =   2
     Q(r) pseudized with  8 coefficients,  rinner =    1.300   1.300   1.300
                                                       1.300   1.300

     atomic species   valence    mass     pseudopotential
        Mo            14.00    95.95000     Mo( 1.00)
        W             14.00   183.84000     W ( 1.00)
        Se             6.00    78.97100     Se( 1.00)
        S              6.00    32.06000     S ( 1.00)

     12 Sym. Ops., with inversion, found

                                    s                        frac. trans.

      isym =  1     identity

 cryst.   s( 1) = (     1          0          0      )
                  (     0          1          0      )
                  (     0          0          1      )

 cart.    s( 1) = (  1.0000000  0.0000000  0.0000000 )
                  (  0.0000000  1.0000000  0.0000000 )
                  (  0.0000000  0.0000000  1.0000000 )

      isym =  2     180 deg rotation - cart. axis [1,0,0]

[...]

      isym =  3     120 deg rotation - cryst. axis [0,0,1]

[...]

      isym =  6     180 deg rotation - cryst. axis [1,1,0]

[...]

      isym =  7     inversion

[...]

      isym =  8     inv. 180 deg rotation - cart. axis [1,0,0]

[...]

      isym =  9     inv. 120 deg rotation - cryst. axis [0,0,1]

 cryst.   s( 9) = (     0         -1          0      )
                  (     1          1          0      )
                  (     0          0         -1      )

 cart.    s( 9) = (  0.5000002  0.8660255  0.0000000 )
                  ( -0.8660253  0.4999998  0.0000000 )
                  (  0.0000000  0.0000000 -1.0000000 )

[...]

 cryst.   s(10) = (     1          1          0      )
                  (    -1          0          0      )
                  (     0          0         -1      )

 cart.    s(10) = (  0.4999998 -0.8660255  0.0000000 )
                  (  0.8660253  0.5000002  0.0000000 )
                  (  0.0000000  0.0000000 -1.0000000 )

[...]

      isym = 12     inv. 180 deg rotation - cryst. axis [1,1,0]

 cryst.   s(12) = (     0         -1          0      )
                  (    -1          0          0      )
                  (     0          0          1      )

 cart.    s(12) = (  0.5000002 -0.8660253  0.0000000 )
                  ( -0.8660253 -0.5000002  0.0000000 )
                  (  0.0000000  0.0000000  1.0000000 )

   Cartesian axes

     site n.     atom                  positions (alat units)
         1           Mo  tau(   1) = (  -0.0000006   0.5773505   8.0144977  )
         2           Mo  tau(   2) = (   0.5000004   0.2886748   3.1452219  )
         3           W   tau(   3) = (  -0.0000006   0.5773505   1.0481320  )
         4           W   tau(   4) = (   0.5000004   0.2886748  10.1115876  )
         5           Se  tau(   5) = (  -0.0000006   0.5773505   3.6667268  )
         6           Se  tau(   6) = (   0.5000004   0.2886748   7.4929929  )
         7           Se  tau(   7) = (   0.5000004   0.2886748   8.5361365  )
         8           Se  tau(   8) = (  -0.0000006   0.5773505   2.6235831  )
         9           S   tau(   9) = (  -0.0000006   0.5773505  10.5877059  )
        10           S   tau(  10) = (   0.5000004   0.2886748   0.5720137  )
        11           S   tau(  11) = (   0.5000004   0.2886748   1.5242838  )
        12           S   tau(  12) = (  -0.0000006   0.5773505   9.6354359  )

   Crystallographic axes

     site n.     atom                  positions (cryst. coord.)
         1           Mo  tau(   1) = (  0.3333330  0.6666670  0.7181630  )
         2           Mo  tau(   2) = (  0.6666670  0.3333330  0.2818370  )
         3           W   tau(   3) = (  0.3333330  0.6666670  0.0939210  )
         4           W   tau(   4) = (  0.6666670  0.3333330  0.9060790  )
         5           Se  tau(   5) = (  0.3333330  0.6666670  0.3285680  )
         6           Se  tau(   6) = (  0.6666670  0.3333330  0.6714320  )
         7           Se  tau(   7) = (  0.6666670  0.3333330  0.7649060  )
         8           Se  tau(   8) = (  0.3333330  0.6666670  0.2350940  )
         9           S   tau(   9) = (  0.3333330  0.6666670  0.9487430  )
        10           S   tau(  10) = (  0.6666670  0.3333330  0.0512570  )
        11           S   tau(  11) = (  0.6666670  0.3333330  0.1365880  )
        12           S   tau(  12) = (  0.3333330  0.6666670  0.8634120  )

     number of k points=     1  Methfessel-Paxton smearing, width (Ry)=  0.0010
                       cart. coord. in units 2pi/alat
        k(    1) = (   0.0000000   0.0000000   0.0000000), wk =   2.0000000

                       cryst. coord.
        k(    1) = (   0.0000000   0.0000000   0.0000000), wk =   2.0000000

     Check: negative core charge=   -0.000001

     Initial potential from superposition of free atoms

     starting charge     103.7969, renormalised to     104.0000

     negative rho (up, down):  1.287E-01 0.000E+00
     Starting wfcs are   78 randomized atomic wfcs

     Self-consistent Calculation

     iteration #  1     ecut=    30.00 Ry     beta= 0.70
     Davidson diagonalization with overlap

     ethr =  1.00E-02,  avg # of iterations =  3.0

     negative rho (up, down):  1.386E-01 0.000E+00

     total energy              =    -562.67770986 Ry
     estimated scf accuracy    <     332.07466631 Ry

[...]

     c_bands:  4 eigenvalues not converged
     ethr =  1.00E-02,  avg # of iterations = 20.0

[...]

     total energy              =    -861.45147364 Ry
     estimated scf accuracy    <       0.00000141 Ry

     iteration # 56     ecut=    30.00 Ry     beta= 0.70
     Davidson diagonalization with overlap

     ethr =  1.36E-09,  avg # of iterations =  5.0

[...]

     End of self-consistent calculation

          k = 0.0000 0.0000 0.0000 (  3168 PWs)   bands (ev):

   -67.3329 -67.3323 -53.2526 -53.2516 -31.6502 -31.6502 -31.6496 -31.6496
   -31.4993 -31.4987 -27.4063 -27.4053 -27.3481 -27.3481 -27.3471 -27.3470
    -9.6100  -9.5793  -9.1569  -9.1563  -8.3685  -8.3653  -8.1854  -8.1306
    -1.0078  -0.8033   0.3558   0.3673   2.4184   2.4184   2.4210   2.4210
     2.6778   3.0048   3.4341   3.4341   3.4416   3.4416   3.5493   3.7881
     4.1847   4.1848   4.1854   4.1854   4.9397   4.9397   4.9402   4.9403
     5.5688   5.7774   6.0259   6.1336   8.0183   8.0183   8.0220   8.0220
     8.0573   8.0573   8.0798   8.0799   8.7129   8.7131

     occupation numbers
     1.0000   1.0000   1.0000   1.0000   1.0000   1.0000   1.0000   1.0000
     1.0000   1.0000   1.0000   1.0000   1.0000   1.0000   1.0000   1.0000
     1.0000   1.0000   1.0000   1.0000   1.0000   1.0000   1.0000   1.0000
     1.0000   1.0000   1.0000   1.0000   1.0000   1.0000   1.0000   1.0000
     1.0000   1.0000   1.0000   1.0000   1.0000   1.0000   1.0000   1.0000
     1.0000   1.0000   1.0000   1.0000   1.0000   1.0000   1.0000   1.0000
     1.0000   1.0000   1.0000   1.0000  -0.0000  -0.0000  -0.0000  -0.0000
    -0.0000  -0.0000  -0.0000  -0.0000  -0.0000  -0.0000

     the Fermi energy is     6.4642 ev

!    total energy              =    -861.45147348 Ry
     estimated scf accuracy    <       0.00000029 Ry
     smearing contrib. (-TS)   =       0.00000000 Ry
     internal energy E=F+TS    =    -861.45147348 Ry

     The total energy is F=E-TS. E is the sum of the following terms:
     one-electron contribution =   -3719.56890064 Ry
     hartree contribution      =    1886.72781564 Ry
     xc contribution           =    -267.38437404 Ry
     ewald contribution        =    1238.77398556 Ry

     convergence has been achieved in  56 iterations

     negative rho (up, down):  1.247E-01 0.000E+00

     Forces acting on atoms (cartesian axes, Ry/au):

     atom    1 type  1   force =     0.00000000    0.00000000   -0.00424137
     atom    2 type  1   force =     0.00000000    0.00000000    0.00424137
     atom    3 type  2   force =    -0.00000000    0.00000000   -0.00222496
     atom    4 type  2   force =     0.00000000   -0.00000000    0.00222496
     atom    5 type  3   force =     0.00000000    0.00000000   -0.10222741
     atom    6 type  3   force =     0.00000000    0.00000000    0.10222741
     atom    7 type  3   force =     0.00000000    0.00000000   -0.12304425
     atom    8 type  3   force =    -0.00000000   -0.00000000    0.12304425
     atom    9 type  4   force =     0.00000000    0.00000000   -0.08836786
     atom   10 type  4   force =     0.00000000    0.00000000    0.08836786
     atom   11 type  4   force =    -0.00000000   -0.00000000   -0.09797195
     atom   12 type  4   force =     0.00000000    0.00000000    0.09797195
     The non-local contrib.  to forces
     atom    1 type  1   force =     0.00000000   -0.00000000   -0.00154781
     atom    2 type  1   force =     0.00000000    0.00000000    0.00154781
     atom    3 type  2   force =     0.00000000    0.00000000   -0.00194504
     atom    4 type  2   force =     0.00000000   -0.00000000    0.00194504
     atom    5 type  3   force =    -0.00000000   -0.00000000    0.13178719
     atom    6 type  3   force =     0.00000000    0.00000000   -0.13178719
     atom    7 type  3   force =     0.00000000   -0.00000000    0.09285091
     atom    8 type  3   force =     0.00000000   -0.00000000   -0.09285091
     atom    9 type  4   force =     0.00000000    0.00000000    0.05585176
     atom   10 type  4   force =    -0.00000000   -0.00000000   -0.05585176
     atom   11 type  4   force =    -0.00000000   -0.00000000    0.03536170
     atom   12 type  4   force =     0.00000000    0.00000000   -0.03536170
     The ionic contribution  to forces
     atom    1 type  1   force =     0.00001533   -0.00000885 -104.00962430
     atom    2 type  1   force =    -0.00001533    0.00000885  104.00962430
     atom    3 type  2   force =     0.00002027   -0.00001170   34.69515955
     atom    4 type  2   force =    -0.00002027    0.00001170  -34.69515955
     atom    5 type  3   force =     0.00000767   -0.00000443   66.28586784
     atom    6 type  3   force =    -0.00000767    0.00000443  -66.28586784
     atom    7 type  3   force =    -0.00000772    0.00000446  -22.85434676
     atom    8 type  3   force =     0.00000772   -0.00000446   22.85434676
     atom    9 type  4   force =     0.00001018   -0.00000588    8.13721008
     atom   10 type  4   force =    -0.00001018    0.00000588   -8.13721008
     atom   11 type  4   force =    -0.00001020    0.00000589   37.88000160
     atom   12 type  4   force =     0.00001020   -0.00000589  -37.88000160
     The local contribution  to forces
     atom    1 type  1   force =     0.00000154    0.00003167  104.00889449
     atom    2 type  1   force =     0.00000809    0.00000288 -104.00671871
     atom    3 type  2   force =    -0.00001583    0.00000970  -34.69473748
     atom    4 type  2   force =     0.00002706   -0.00002296   34.69552194
     atom    5 type  3   force =    -0.00000515    0.00000233  -66.49975924
     atom    6 type  3   force =     0.00000534    0.00000564   66.49960985
     atom    7 type  3   force =     0.00000676   -0.00001092   22.65445666
     atom    8 type  3   force =    -0.00000669    0.00000673  -22.65366609
     atom    9 type  4   force =    -0.00002699    0.00002153   -8.27607542
     atom   10 type  4   force =     0.00001425    0.00001599    8.27573007
     atom   11 type  4   force =     0.00000909   -0.00000485  -38.00873552
     atom   12 type  4   force =    -0.00000136   -0.00000963   38.00898928
     The core correction contribution to forces
     atom    1 type  1   force =     0.00000000    0.00000000    0.00000000
     atom    2 type  1   force =     0.00000000    0.00000000    0.00000000
     atom    3 type  2   force =     0.00000039   -0.00000019   -0.00009564
     atom    4 type  2   force =     0.00000013   -0.00000048    0.00009693
     atom    5 type  3   force =     0.00000010    0.00000020   -0.02011993
     atom    6 type  3   force =     0.00000081    0.00000015    0.02012051
     atom    7 type  3   force =     0.00000035   -0.00000088   -0.01507499
     atom    8 type  3   force =    -0.00000025    0.00000052    0.01507786
     atom    9 type  4   force =    -0.00000080    0.00000067   -0.00545975
     atom   10 type  4   force =     0.00000028    0.00000070    0.00546072
     atom   11 type  4   force =     0.00000014    0.00000011   -0.00425844
     atom   12 type  4   force =     0.00000029   -0.00000059    0.00425635
     The Hubbard contrib.    to forces
     atom    1 type  1   force =     0.00000000    0.00000000    0.00000000
     atom    2 type  1   force =     0.00000000    0.00000000    0.00000000
     atom    3 type  2   force =     0.00000000    0.00000000    0.00000000
     atom    4 type  2   force =     0.00000000    0.00000000    0.00000000
     atom    5 type  3   force =     0.00000000    0.00000000    0.00000000
     atom    6 type  3   force =     0.00000000    0.00000000    0.00000000
     atom    7 type  3   force =     0.00000000    0.00000000    0.00000000
     atom    8 type  3   force =     0.00000000    0.00000000    0.00000000
     atom    9 type  4   force =     0.00000000    0.00000000    0.00000000
     atom   10 type  4   force =     0.00000000    0.00000000    0.00000000
     atom   11 type  4   force =     0.00000000    0.00000000    0.00000000
     atom   12 type  4   force =     0.00000000    0.00000000    0.00000000
     The SCF correction term to forces
     atom    1 type  1   force =    -0.00001018   -0.00001355   -0.00192913
     atom    2 type  1   force =     0.00000113   -0.00000882   -0.00017743
     atom    3 type  2   force =    -0.00000190   -0.00000058   -0.00062322
     atom    4 type  2   force =    -0.00000929    0.00001377   -0.00019626
     atom    5 type  3   force =    -0.00000060    0.00000122   -0.00001022
     atom    6 type  3   force =    -0.00000037    0.00000122    0.00014512
     atom    7 type  3   force =     0.00000021   -0.00000033   -0.00091711
     atom    8 type  3   force =    -0.00000060    0.00000065    0.00014961
     atom    9 type  4   force =     0.00000690   -0.00000681    0.00011478
     atom   10 type  4   force =    -0.00000168   -0.00000823    0.00024824
     atom   11 type  4   force =     0.00000033   -0.00000057   -0.00036135
     atom   12 type  4   force =    -0.00000238    0.00000425    0.00006956

     Total force =     0.293328     Total SCF correction =     0.002297

     Computing stress (Cartesian axis) and pressure

     negative rho (up, down):  1.247E-01 0.000E+00
          total   stress  (Ry/bohr**3)                   (kbar)     P=      101.78
   0.00143550   0.00000000   0.00000000          211.17        0.00        0.00
   0.00000000   0.00143550   0.00000000            0.00      211.17        0.00
   0.00000000  -0.00000000  -0.00079543            0.00       -0.00     -117.01

     kinetic stress (kbar)  10419.11      0.00      0.00
                                0.00  10419.11      0.00
                                0.00      0.00  10614.76

     local   stress (kbar)-235680.53     -0.03      0.00
                               -0.03-235680.55      0.01
                                0.00      0.01 237696.42

     nonloc. stress (kbar)   2145.04      0.00      0.00
                                0.00   2145.04      0.00
                                0.00      0.00   2121.31

     hartree stress (kbar) 118743.86      0.01     -0.00
                                0.01 118743.86     -0.00
                               -0.00     -0.00-114156.83

     exc-cor stress (kbar)   8267.14      0.00     -0.00
                                0.00   8267.14     -0.00
                               -0.00     -0.00   8277.87

     corecor stress (kbar) -11000.92      0.00      0.00
                                0.00 -11000.92     -0.00
                                0.00     -0.00 -11011.30

     ewald   stress (kbar) 107317.47      0.02      0.00
                                0.02 107317.49     -0.00
                                0.00     -0.00-133659.25

     hubbard stress (kbar)      0.00      0.00      0.00
                                0.00      0.00      0.00
                                0.00      0.00      0.00

     DFT-D   stress (kbar)      0.00      0.00      0.00
                                0.00      0.00      0.00
                                0.00      0.00      0.00

     XDM     stress (kbar)      0.00      0.00      0.00
                                0.00      0.00      0.00
                                0.00      0.00      0.00

     dft-nl  stress (kbar)      0.00      0.00      0.00
                                0.00      0.00      0.00
                                0.00      0.00      0.00

     TS-vdW  stress (kbar)      0.00      0.00      0.00
                                0.00      0.00      0.00
                                0.00      0.00      0.00

[...]

                                0.00      0.00      0.00

     Writing all to output data dir new_calculations/myprefix.save/

     General routines

     Parallel routines

   This run was terminated on:   1:42:25  21May2023

   JOB DONE.