     Program PWSCF v.7.0 starts on 20May2023 at 10:47:33

     Reading input from espresso_4360.pwi
Warning: card &CELL ignored
Warning: card / ignored

     Current dimensions of program PWSCF are:
     Max number of different atomic species (ntypx) = 10
     Max number of k-points (npk) =  40000
     Max angular momentum in pseudopotentials (lmaxx) =  4

     gamma-point specific algorithms are used
     Message from routine setup:
     using ibrav=0 with symmetry is DISCOURAGED, use correct ibrav instead

     Subspace diagonalization in iterative solution of the eigenvalue problem:
     a serial algorithm will be used

     Using Slab Decomposition

     bravais-lattice index     =            0
     lattice parameter (alat)  =       8.0873  a.u.
     unit-cell volume          =     374.0179 (a.u.)^3
     number of atoms/cell      =            4
     number of atomic types    =            3
     number of electrons       =        57.00
     number of Kohn-Sham states=           35
     kinetic-energy cutoff     =      30.0000  Ry
     charge density cutoff     =     240.0000  Ry
     scf convergence threshold =      1.0E-06
     mixing beta               =       0.7000
     number of iterations used =            8  plain     mixing
     Exchange-correlation= PBE
                           (   1   4   3   4   0   0   0)

     celldm(1)=   8.087279  celldm(2)=   0.000000  celldm(3)=   0.000000
     celldm(4)=   0.000000  celldm(5)=   0.000000  celldm(6)=   0.000000

     crystal axes: (cart. coord. in units of alat)
               a(1) = (   1.000000   0.000000   0.000000 )
               a(2) = (   0.500000   0.866025   0.000000 )
               a(3) = (   0.500000   0.288675   0.816497 )

     reciprocal axes: (cart. coord. in units 2 pi/alat)
               b(1) = (  1.000000 -0.577350 -0.408248 )
               b(2) = (  0.000000  1.154701 -0.408248 )
               b(3) = (  0.000000  0.000000  1.224745 )

     PseudoPot. # 1 for V  read from file:
     /home/pragov/projects/rrg-bengioy-ad/pragov/crystal_structure_design/SSSP/v_pbe_v1.4.uspp.F.UPF
     MD5 check sum: 22b79981416ebb76fdaf5b1b8640f6fb
     Pseudo is Ultrasoft + core correction, Zval = 13.0
     Generated by new atomic code, or converted to UPF format
     Using radial grid of  853 points,  6 beta functions with:
                l(1) =   0
                l(2) =   0
                l(3) =   1
                l(4) =   1
                l(5) =   2
                l(6) =   2
     Q(r) pseudized with  8 coefficients,  rinner =    1.100   1.100   1.100
                                                       1.100   1.100

     PseudoPot. # 2 for Re read from file:
     /home/pragov/projects/rrg-bengioy-ad/pragov/crystal_structure_design/SSSP/Re_pbe_v1.2.uspp.F.UPF
     MD5 check sum: 85f993410f3e006da9d71c142b4ad953
     Pseudo is Ultrasoft + core correction, Zval = 15.0
     Generated by new atomic code, or converted to UPF format
     Using radial grid of  981 points,  8 beta functions with:
                l(1) =   0
                l(2) =   0
                l(3) =   1
                l(4) =   1
                l(5) =   2
                l(6) =   2
                l(7) =   3
                l(8) =   3
     Q(r) pseudized with  8 coefficients,  rinner =    1.150   1.150   1.150
                                                       1.150   1.150   1.150
                                                       1.150

     PseudoPot. # 3 for Ru read from file:
     /home/pragov/projects/rrg-bengioy-ad/pragov/crystal_structure_design/SSSP/Ru_ONCV_PBE-1.0.oncvpsp.upf
     MD5 check sum: be037bb81c227cfb9b1461a9f099f4bd
     Pseudo is Norm-conserving, Zval = 16.0
     Generated using ONCVPSP code by D. R. Hamann
     Using radial grid of 1458 points,  6 beta functions with:
                l(1) =   0
                l(2) =   0
                l(3) =   1
                l(4) =   1
                l(5) =   2
                l(6) =   2

     atomic species   valence    mass     pseudopotential
        V             13.00    50.94150     V ( 1.00)
        Re            15.00   186.20700     Re( 1.00)
        Ru            16.00   101.07000     Ru( 1.00)

     12 Sym. Ops., with inversion, found

                                    s                        frac. trans.

      isym =  1     identity

 cryst.   s( 1) = (     1          0          0      )
                  (     0          1          0      )
                  (     0          0          1      )

 cart.    s( 1) = (  1.0000000  0.0000000  0.0000000 )
                  (  0.0000000  1.0000000 -0.0000000 )
                  (  0.0000000  0.0000000  1.0000000 )

      isym =  2     180 deg rotation - cart. axis [1,0,0]

[...]

      isym =  3     120 deg rotation - cryst. axis [0,0,1]

[...]

      isym =  6     180 deg rotation - cryst. axis [1,1,0]

[...]

      isym =  7     inversion

[...]

      isym =  8     inv. 180 deg rotation - cart. axis [1,0,0]

[...]

      isym =  9     inv. 120 deg rotation - cryst. axis [0,0,1]

 cryst.   s( 9) = (     1         -1          0      )
                  (     1          0          0      )
                  (     1          0         -1      )

 cart.    s( 9) = (  0.5000000  0.8660254 -0.0000000 )
                  ( -0.8660254  0.5000000 -0.0000000 )
                  (  0.0000000  0.0000000 -1.0000000 )

[...]

 cryst.   s(10) = (     0          1          0      )
                  (    -1          1          0      )
                  (     0          1         -1      )

 cart.    s(10) = (  0.5000000 -0.8660254  0.0000000 )
                  (  0.8660254  0.5000000 -0.0000000 )
                  (  0.0000000  0.0000000 -1.0000000 )

[...]

      isym = 12     inv. 180 deg rotation - cryst. axis [1,1,0]

 cryst.   s(12) = (     1         -1          0      )
                  (     0         -1          0      )
                  (     0         -1          1      )

 cart.    s(12) = (  0.5000000 -0.8660254  0.0000000 )
                  ( -0.8660254 -0.5000000  0.0000000 )
                  (  0.0000000  0.0000000  1.0000000 )

   Cartesian axes

     site n.     atom                  positions (alat units)
         1           V   tau(   1) = (   0.5000000   0.2886751   0.2041241  )
         2           V   tau(   2) = (   1.5000000   0.8660254   0.6123724  )
         3           Re  tau(   3) = (   1.0000000   0.5773503   0.4082483  )
         4           Ru  tau(   4) = (   0.0000000   0.0000000   0.0000000  )

   Crystallographic axes

     site n.     atom                  positions (cryst. coord.)
         1           V   tau(   1) = (  0.2500000  0.2500000  0.2500000  )
         2           V   tau(   2) = (  0.7500000  0.7500000  0.7500000  )
         3           Re  tau(   3) = (  0.5000000  0.5000000  0.5000000  )
         4           Ru  tau(   4) = (  0.0000000  0.0000000  0.0000000  )

     number of k points=     1  Methfessel-Paxton smearing, width (Ry)=  0.0010
                       cart. coord. in units 2pi/alat
        k(    1) = (   0.0000000   0.0000000   0.0000000), wk =   2.0000000

                       cryst. coord.
        k(    1) = (   0.0000000   0.0000000   0.0000000), wk =   2.0000000

     Check: negative core charge=   -0.000005

     Initial potential from superposition of free atoms

     starting charge      56.4969, renormalised to      57.0000

     negative rho (up, down):  1.323E-01 0.000E+00
     Starting wfcs are   43 randomized atomic wfcs

     Self-consistent Calculation

     iteration #  1     ecut=    30.00 Ry     beta= 0.70
     Davidson diagonalization with overlap

     ethr =  1.00E-02,  avg # of iterations =  2.0

     Threshold (ethr) on eigenvalues was too large:
     Diagonalizing with lowered threshold

     Davidson diagonalization with overlap

[...]

     negative rho (up, down):  1.297E-01 0.000E+00

     total energy              =    -669.56347519 Ry
     estimated scf accuracy    <       0.28265657 Ry

[...]

     total energy              =    -669.66470053 Ry
     estimated scf accuracy    <       0.00000318 Ry

     iteration # 17     ecut=    30.00 Ry     beta= 0.70
     Davidson diagonalization with overlap

     ethr =  5.57E-09,  avg # of iterations =  2.0

[...]

     End of self-consistent calculation

          k = 0.0000 0.0000 0.0000 (   519 PWs)   bands (ev):

   -58.9368 -52.1027 -42.5767 -42.5368 -22.1215 -22.1214 -22.1213 -20.8393
   -20.8393 -20.8392 -16.5427 -16.5426 -16.5425 -16.3664 -16.3663 -16.3662
    12.5611  15.6213  15.6213  17.0766  17.0766  17.0766  19.4601  19.4602
    19.4602  19.7318  19.7319  19.7319  21.8690  21.8690  23.2446  23.2446
    23.6177  23.6177  24.3577

     occupation numbers
     1.0000   1.0000   1.0000   1.0000   1.0000   1.0000   1.0000   1.0000
     1.0000   1.0000   1.0000   1.0000   1.0000   1.0000   1.0000   1.0000
     1.0000   1.0000   1.0000   1.0000   1.0000   1.0000   1.0000   1.0000
     1.0000   1.0000   1.0000   1.0000   0.2503   0.2497  -0.0000  -0.0000
    -0.0000  -0.0000  -0.0000

     the Fermi energy is    21.8648 ev

!    total energy              =    -669.66470056 Ry
     estimated scf accuracy    <       0.00000006 Ry
     smearing contrib. (-TS)   =      -0.00041261 Ry
     internal energy E=F+TS    =    -669.66428794 Ry

     The total energy is F=E-TS. E is the sum of the following terms:
     one-electron contribution =    -144.96124296 Ry
     hartree contribution      =     106.60076482 Ry
     xc contribution           =    -112.01977839 Ry
     ewald contribution        =    -519.28403141 Ry

     convergence has been achieved in  17 iterations

     negative rho (up, down):  1.291E-01 0.000E+00

     Forces acting on atoms (cartesian axes, Ry/au):

     atom    1 type  1   force =     0.00000000    0.00000000    0.00000788
     atom    2 type  1   force =     0.00000000    0.00000000   -0.00000788
     atom    3 type  2   force =     0.00000000    0.00000000    0.00000000
     atom    4 type  3   force =     0.00000000    0.00000000   -0.00000000
     The non-local contrib.  to forces
     atom    1 type  1   force =     0.00000000    0.00000000   -0.00000652
     atom    2 type  1   force =     0.00000000    0.00000000    0.00000652
     atom    3 type  2   force =    -0.00000000   -0.00000000    0.00000000
     atom    4 type  3   force =    -0.00000000   -0.00000000    0.00000000
     The ionic contribution  to forces
     atom    1 type  1   force =     0.00000000    0.00000000    0.00000000
     atom    2 type  1   force =     0.00000000   -0.00000000   -0.00000000
     atom    3 type  2   force =    -0.00000000   -0.00000000   -0.00000000
     atom    4 type  3   force =    -0.00000000    0.00000000    0.00000000
     The local contribution  to forces
     atom    1 type  1   force =    -0.00004500   -0.00002924    0.00003460
     atom    2 type  1   force =     0.00001896    0.00000923   -0.00002604
     atom    3 type  2   force =     0.00003367    0.00001211    0.00001451
     atom    4 type  3   force =    -0.00005754    0.00000362    0.00003784
     The core correction contribution to forces
     atom    1 type  1   force =    -0.00000072   -0.00000066    0.00000073
     atom    2 type  1   force =     0.00000052    0.00000036   -0.00000051
     atom    3 type  2   force =    -0.00000148   -0.00000109    0.00000272
     atom    4 type  3   force =     0.00000000    0.00000000    0.00000000
     The Hubbard contrib.    to forces
     atom    1 type  1   force =     0.00000000    0.00000000    0.00000000
     atom    2 type  1   force =     0.00000000    0.00000000    0.00000000
     atom    3 type  2   force =     0.00000000    0.00000000    0.00000000
     atom    4 type  3   force =     0.00000000    0.00000000    0.00000000
     The SCF correction term to forces
     atom    1 type  1   force =     0.00003310    0.00002412   -0.00001782
     atom    2 type  1   force =    -0.00000114   -0.00000011    0.00001526
     atom    3 type  2   force =    -0.00003969    0.00000119   -0.00001088
     atom    4 type  3   force =     0.00004914    0.00001202   -0.00004747

     Total force =     0.000011     Total SCF correction =     0.000093
     SCF correction compared to forces is large: reduce conv_thr to get better values

     Computing stress (Cartesian axis) and pressure

     negative rho (up, down):  1.291E-01 0.000E+00
          total   stress  (Ry/bohr**3)                   (kbar)     P=     -214.08
  -0.00145517   0.00000000   0.00000000         -214.06        0.00        0.00
   0.00000000  -0.00145517   0.00000000            0.00     -214.06        0.00
   0.00000000   0.00000000  -0.00145544            0.00        0.00     -214.10

     kinetic stress (kbar)  48595.65     -0.00     -0.00
                               -0.00  48595.65     -0.00
                               -0.00     -0.00  48595.54

     local   stress (kbar)  21673.66      0.78     -1.10
                                0.78  21673.11     -0.39
                               -1.10     -0.39  21673.40

     nonloc. stress (kbar)  -5332.04     -0.00      0.00
                               -0.00  -5332.04      0.00
                                0.00      0.00  -5331.99

     hartree stress (kbar)  13975.66     -0.20      0.28
                               -0.20  13975.79      0.10
                                0.28      0.10  13975.73

     exc-cor stress (kbar)   5208.70     -0.00      0.01
                               -0.00   5208.71      0.00
                                0.01      0.00   5208.70

     corecor stress (kbar) -16255.57      0.00     -0.00
                                0.00 -16255.57     -0.00
                               -0.00     -0.00 -16255.57

     ewald   stress (kbar) -68079.92      0.00      0.00
                                0.00 -68079.92      0.00
                                0.00      0.00 -68079.92

     hubbard stress (kbar)      0.00      0.00      0.00
                                0.00      0.00      0.00
                                0.00      0.00      0.00

     DFT-D   stress (kbar)      0.00      0.00      0.00
                                0.00      0.00      0.00
                                0.00      0.00      0.00

     XDM     stress (kbar)      0.00      0.00      0.00
                                0.00      0.00      0.00
                                0.00      0.00      0.00

     dft-nl  stress (kbar)      0.00      0.00      0.00
                                0.00      0.00      0.00
                                0.00      0.00      0.00

     TS-vdW  stress (kbar)      0.00      0.00      0.00
                                0.00      0.00      0.00
                                0.00      0.00      0.00

[...]

                                0.00      0.00      0.00

     Writing all to output data dir new_calculations/myprefix.save/

     General routines

     Parallel routines

   This run was terminated on:  10:47:52  20May2023

   JOB DONE.