     Program PWSCF v.7.0 starts on 21May2023 at  5: 5:59

     Reading input from espresso_23404.pwi
Warning: card &CELL ignored
Warning: card / ignored

     Current dimensions of program PWSCF are:
     Max number of different atomic species (ntypx) = 10
     Max number of k-points (npk) =  40000
     Max angular momentum in pseudopotentials (lmaxx) =  4
     file O.pbe-n-kjpaw_psl.0.1.UPF: wavefunction(s)  2P renormalized

     gamma-point specific algorithms are used
     Message from routine setup:
     using ibrav=0 with symmetry is DISCOURAGED, use correct ibrav instead

     Subspace diagonalization in iterative solution of the eigenvalue problem:
     a serial algorithm will be used

     Using Slab Decomposition

     bravais-lattice index     =            0
     lattice parameter (alat)  =      10.7480  a.u.
     unit-cell volume          =     805.7284 (a.u.)^3
     number of atoms/cell      =           10
     number of atomic types    =            3
     number of electrons       =       104.00
     number of Kohn-Sham states=           62
     kinetic-energy cutoff     =      30.0000  Ry
     charge density cutoff     =     240.0000  Ry
     scf convergence threshold =      1.0E-06
     mixing beta               =       0.7000
     number of iterations used =            8  plain     mixing
     Exchange-correlation= SLA  PW   PBX  PBC
                           (   1   4   3   4   0   0   0)

     celldm(1)=  10.748033  celldm(2)=   0.000000  celldm(3)=   0.000000
     celldm(4)=   0.000000  celldm(5)=   0.000000  celldm(6)=   0.000000

     crystal axes: (cart. coord. in units of alat)
               a(1) = (   1.000000   0.000000   0.000000 )
               a(2) = (   0.552784   0.833324   0.000000 )
               a(3) = (   0.552784   0.296660   0.778731 )

     reciprocal axes: (cart. coord. in units 2 pi/alat)
               b(1) = (  1.000000 -0.663348 -0.457148 )
               b(2) = (  0.000000  1.200013 -0.457148 )
               b(3) = (  0.000000  0.000000  1.284140 )

     PseudoPot. # 1 for Zn read from file:
     /home/pragov/projects/rrg-bengioy-ad/pragov/crystal_structure_design/SSSP/Zn_pbe_v1.uspp.F.UPF
     MD5 check sum: df62231357ef9e81f77b2b3087fa5675
     Pseudo is Ultrasoft, Zval = 20.0
     Generated by new atomic code, or converted to UPF format
     Using radial grid of  943 points,  6 beta functions with:
                l(1) =   0
                l(2) =   0
                l(3) =   1
                l(4) =   1
                l(5) =   2
                l(6) =   2
     Q(r) pseudized with  8 coefficients,  rinner =    1.100   1.100   1.100
                                                       1.100   1.100

     PseudoPot. # 2 for Sn read from file:
     /home/pragov/projects/rrg-bengioy-ad/pragov/crystal_structure_design/SSSP/Sn_pbe_v1.uspp.F.UPF
     MD5 check sum: 4cf58ce39ec5d5d420df3dd08604eb00
     Pseudo is Ultrasoft + core correction, Zval = 14.0
     Generated by new atomic code, or converted to UPF format
     Using radial grid of  891 points,  6 beta functions with:
                l(1) =   0
                l(2) =   0
                l(3) =   1
                l(4) =   1
                l(5) =   2
                l(6) =   2
     Q(r) pseudized with  6 coefficients,  rinner =    1.200   1.200   1.200
                                                       1.200   1.200

     PseudoPot. # 3 for O  read from file:
     /home/pragov/projects/rrg-bengioy-ad/pragov/crystal_structure_design/SSSP/O.pbe-n-kjpaw_psl.0.1.UPF
     MD5 check sum: 0234752ac141de4415c5fc33072bef88
     Pseudo is Projector augmented-wave + core cor, Zval =  6.0
     Generated using "atomic" code by A. Dal Corso  v.5.0.99 svn rev. 10869
     Shape of augmentation charge: BESSEL
     Using radial grid of 1095 points,  4 beta functions with:
                l(1) =   0
                l(2) =   0
                l(3) =   1
                l(4) =   1
     Q(r) pseudized with 0 coefficients

     atomic species   valence    mass     pseudopotential
        Zn            20.00    65.38000     Zn( 1.00)
        Sn            14.00   118.71000     Sn( 1.00)
        O              6.00    15.99900     O ( 1.00)

      2 Sym. Ops., with inversion, found

                                    s                        frac. trans.

      isym =  1     identity

 cryst.   s( 1) = (     1          0          0      )
                  (     0          1          0      )
                  (     0          0          1      )

 cart.    s( 1) = (  1.0000000  0.0000000  0.0000000 )
                  (  0.0000000  1.0000000 -0.0000000 )
                  (  0.0000000  0.0000000  1.0000000 )

      isym =  2     inversion

 cryst.   s( 2) = (    -1          0          0      )
                  (     0         -1          0      )
                  (     0          0         -1      )

 cart.    s( 2) = ( -1.0000000 -0.0000000 -0.0000000 )
                  (  0.0000000 -1.0000000  0.0000000 )
                  (  0.0000000  0.0000000 -1.0000000 )

   Cartesian axes

     site n.     atom                  positions (alat units)
         1           Zn  tau(   1) = (   0.7695053   0.4129663   0.2845967  )
         2           Zn  tau(   2) = (   1.3360633   0.7170179   0.4941346  )
         3           Sn  tau(   3) = (   0.3157553   0.1694547   0.1167801  )
         4           Sn  tau(   4) = (   1.7898134   0.9605295   0.6619512  )
         5           O   tau(   5) = (   1.0338883   0.1738951   0.3471288  )
         6           O   tau(   6) = (   0.8934250   0.6480273   0.0389264  )
         7           O   tau(   7) = (   0.7164282   0.5968801   0.5917159  )
         8           O   tau(   8) = (   1.0716803   0.9560891   0.4316025  )
         9           O   tau(   9) = (   1.3891404   0.5331041   0.1870154  )
        10           O   tau(  10) = (   1.2121437   0.4819569   0.7398048  )

   Crystallographic axes

     site n.     atom                  positions (cryst. coord.)
         1           Zn  tau(   1) = (  0.3654620  0.3654620  0.3654620  )
         2           Zn  tau(   2) = (  0.6345380  0.6345380  0.6345380  )
         3           Sn  tau(   3) = (  0.1499620  0.1499620  0.1499620  )
         4           Sn  tau(   4) = (  0.8500380  0.8500380  0.8500380  )
         5           O   tau(   5) = (  0.7598460  0.0499870  0.4457620  )
         6           O   tau(   6) = (  0.4457620  0.7598460  0.0499870  )
         7           O   tau(   7) = (  0.0499870  0.4457620  0.7598460  )
         8           O   tau(   8) = (  0.2401540  0.9500130  0.5542380  )
         9           O   tau(   9) = (  0.9500130  0.5542380  0.2401540  )
        10           O   tau(  10) = (  0.5542380  0.2401540  0.9500130  )

     number of k points=     1  Methfessel-Paxton smearing, width (Ry)=  0.0010
                       cart. coord. in units 2pi/alat
        k(    1) = (   0.0000000   0.0000000   0.0000000), wk =   2.0000000

                       cryst. coord.
        k(    1) = (   0.0000000   0.0000000   0.0000000), wk =   2.0000000

     Check: negative core charge=   -0.000012

     Initial potential from superposition of free atoms

     starting charge     101.9996, renormalised to     104.0000
     Starting wfcs are   68 randomized atomic wfcs
     Checking if some PAW data can be deallocated...

     Self-consistent Calculation

     iteration #  1     ecut=    30.00 Ry     beta= 0.70
     Davidson diagonalization with overlap

     ethr =  1.00E-02,  avg # of iterations =  3.0

     total energy              =   -1482.73054389 Ry
     estimated scf accuracy    <      21.45832271 Ry

[...]

     total energy              =   -1499.17044966 Ry
     estimated scf accuracy    <       0.00000463 Ry

     iteration # 12     ecut=    30.00 Ry     beta= 0.70
     Davidson diagonalization with overlap

     ethr =  4.45E-09,  avg # of iterations =  2.0

     End of self-consistent calculation

          k = 0.0000 0.0000 0.0000 (  1133 PWs)   bands (ev):

  -114.2367-114.2357 -68.4227 -68.4211 -68.3673 -68.3673 -68.3617 -68.3617
   -11.5144 -11.5142 -11.2863 -11.2862 -11.0427 -10.9708 -10.9408 -10.9408
   -10.9125 -10.9125  -9.2319  -7.5565  -7.2974  -7.2964  -6.6021  -6.6011
     2.3195   2.4602   3.9879   3.9883   4.2656   4.2656   4.4026   4.5369
     4.5370   4.6682   4.6683   4.8229   5.1152   5.1152   5.5397   5.9875
     6.2898   6.2900   6.4088   8.1879   8.1885   8.4190   8.4198   8.6878
     8.6976   8.6978   8.9664   8.9671  10.1847  14.2901  14.9760  16.4468
    17.7906  17.8319  17.8322  18.5483  18.7349  18.7350

     occupation numbers
     1.0000   1.0000   1.0000   1.0000   1.0000   1.0000   1.0000   1.0000
     1.0000   1.0000   1.0000   1.0000   1.0000   1.0000   1.0000   1.0000
     1.0000   1.0000   1.0000   1.0000   1.0000   1.0000   1.0000   1.0000
     1.0000   1.0000   1.0000   1.0000   1.0000   1.0000   1.0000   1.0000
     1.0000   1.0000   1.0000   1.0000   1.0000   1.0000   1.0000   1.0000
     1.0000   1.0000   1.0000   1.0000   1.0000   1.0000   1.0000   1.0000
     1.0000   1.0000   1.0000   1.0000  -0.0000  -0.0000  -0.0000  -0.0000
    -0.0000  -0.0000  -0.0000  -0.0000  -0.0000  -0.0000

     the Fermi energy is     9.5023 ev

!    total energy              =   -1499.17045080 Ry
     estimated scf accuracy    <       0.00000065 Ry
     smearing contrib. (-TS)   =       0.00000000 Ry
     internal energy E=F+TS    =   -1499.17045080 Ry

     The total energy is F=E-TS. E is the sum of the following terms:
     one-electron contribution =    -957.46368059 Ry
     hartree contribution      =     543.18600975 Ry
     xc contribution           =    -224.87037954 Ry
     ewald contribution        =    -802.95206468 Ry
     one-center paw contrib.   =     -57.07033574 Ry
      -> PAW hartree energy AE =     177.26878264 Ry
      -> PAW hartree energy PS =    -176.59933550 Ry
      -> PAW xc energy AE      =    -102.91094259 Ry
      -> PAW xc energy PS      =      45.17115971 Ry
      -> total E_H with PAW    =     543.85545689 Ry
      -> total E_XC with PAW   =    -282.61016242 Ry

     convergence has been achieved in  12 iterations

     Forces acting on atoms (cartesian axes, Ry/au):

     atom    1 type  1   force =     0.01356967    0.00702645    0.00477956
     atom    2 type  1   force =    -0.01356967   -0.00702645   -0.00477956
     atom    3 type  2   force =    -0.00259514   -0.00163720   -0.00097352
     atom    4 type  2   force =     0.00259514    0.00163720    0.00097352
     atom    5 type  3   force =     0.00772090    0.00950551   -0.00221181
     atom    6 type  3   force =     0.00538482    0.00570073    0.00966529
     atom    7 type  3   force =     0.01215994   -0.00164655    0.00185589
     atom    8 type  3   force =    -0.00772090   -0.00950551    0.00221181
     atom    9 type  3   force =    -0.01215994    0.00164655   -0.00185589
     atom   10 type  3   force =    -0.00538482   -0.00570073   -0.00966529
     The non-local contrib.  to forces
     atom    1 type  1   force =    -0.35272662   -0.18942507   -0.13055555
     atom    2 type  1   force =     0.35272662    0.18942507    0.13055555
     atom    3 type  2   force =     0.00973498    0.00514457    0.00356918
     atom    4 type  2   force =    -0.00973498   -0.00514457   -0.00356918
     atom    5 type  3   force =     0.68096238    0.10428887   -0.01321151
     atom    6 type  3   force =     0.39722655    0.55367025    0.10209475
     atom    7 type  3   force =     0.46326838    0.16921561    0.48093878
     atom    8 type  3   force =    -0.68096238   -0.10428887    0.01321151
     atom    9 type  3   force =    -0.46326838   -0.16921561   -0.48093878
     atom   10 type  3   force =    -0.39722655   -0.55367025   -0.10209475
     The ionic contribution  to forces
     atom    1 type  1   force =     4.94429257    2.65342518    1.82861863
     atom    2 type  1   force =    -4.94429257   -2.65342519   -1.82861863
     atom    3 type  2   force =    -5.73058389   -3.07540227   -2.11942164
     atom    4 type  2   force =     5.73058390    3.07540227    2.11942164
     atom    5 type  3   force =     2.62231143   -0.88956855   -2.18365863
     atom    6 type  3   force =    -0.51480955    3.48830991   -0.05391988
     atom    7 type  3   force =     0.70827305   -1.08760902    3.27897543
     atom    8 type  3   force =    -2.62231143    0.88956855    2.18365863
     atom    9 type  3   force =    -0.70827305    1.08760902   -3.27897543
     atom   10 type  3   force =     0.51480955   -3.48830991    0.05391988
     The local contribution  to forces
     atom    1 type  1   force =    -4.57809157   -2.45633298   -1.69292502
     atom    2 type  1   force =     4.57843269    2.45681606    1.69275784
     atom    3 type  2   force =     5.72032817    3.07018858    2.11570922
     atom    4 type  2   force =    -5.72057096   -3.07044121   -2.11568500
     atom    5 type  3   force =    -3.28839272    0.79599812    2.19433776
     atom    6 type  3   force =     0.12709065   -4.03027655   -0.03717381
     atom    7 type  3   force =    -1.15439918    0.91831627   -3.75306462
     atom    8 type  3   force =     3.28845642   -0.79592390   -2.19426391
     atom    9 type  3   force =     1.15452648   -0.91827916    3.75300768
     atom   10 type  3   force =    -0.12678683    4.03063288    0.03720741
     The core correction contribution to forces
     atom    1 type  1   force =     0.00000000    0.00000000    0.00000000
     atom    2 type  1   force =     0.00000000    0.00000000    0.00000000
     atom    3 type  2   force =    -0.00253400   -0.00136745   -0.00093750
     atom    4 type  2   force =     0.00254365    0.00137848    0.00093582
     atom    5 type  3   force =    -0.00716596   -0.00120637    0.00031511
     atom    6 type  3   force =    -0.00407432   -0.00589313   -0.00123888
     atom    7 type  3   force =    -0.00496561   -0.00159544   -0.00506691
     atom    8 type  3   force =     0.00716690    0.00120776   -0.00031474
     atom    9 type  3   force =     0.00496743    0.00159502    0.00506650
     atom   10 type  3   force =     0.00407881    0.00589825    0.00123915
     The Hubbard contrib.    to forces
     atom    1 type  1   force =     0.00000000    0.00000000    0.00000000
     atom    2 type  1   force =     0.00000000    0.00000000    0.00000000
     atom    3 type  2   force =     0.00000000    0.00000000    0.00000000
     atom    4 type  2   force =     0.00000000    0.00000000    0.00000000
     atom    5 type  3   force =     0.00000000    0.00000000    0.00000000
     atom    6 type  3   force =     0.00000000    0.00000000    0.00000000
     atom    7 type  3   force =     0.00000000    0.00000000    0.00000000
     atom    8 type  3   force =     0.00000000    0.00000000    0.00000000
     atom    9 type  3   force =     0.00000000    0.00000000    0.00000000
     atom   10 type  3   force =     0.00000000    0.00000000    0.00000000
     The SCF correction term to forces
     atom    1 type  1   force =     0.00003847   -0.00071989   -0.00033590
     atom    2 type  1   force =    -0.00049324    0.00007840    0.00054827
     atom    3 type  2   force =     0.00053375   -0.00013924    0.00011117
     atom    4 type  2   force =    -0.00015233    0.00050361   -0.00012581
     atom    5 type  3   force =     0.00003835    0.00003093    0.00001422
     atom    6 type  3   force =     0.00007366    0.00002970   -0.00008476
     atom    7 type  3   force =     0.00003859    0.00001553    0.00006319
     atom    8 type  3   force =    -0.00003782   -0.00003154   -0.00007092
     atom    9 type  3   force =    -0.00005713   -0.00007321   -0.00002588
     atom   10 type  3   force =    -0.00013764   -0.00011225    0.00007514

     Total force =     0.038223     Total SCF correction =     0.001367

     Computing stress (Cartesian axis) and pressure

          total   stress  (Ry/bohr**3)                   (kbar)     P=     -508.50
  -0.00338069   0.00007749   0.00005300         -497.32       11.40        7.80
   0.00007749  -0.00348360   0.00002853           11.40     -512.46        4.20
   0.00005300   0.00002853  -0.00350578            7.80        4.20     -515.72

     kinetic stress (kbar)  27623.59    154.07    106.20
                              154.07  27419.22     56.98
                              106.20     56.98  27375.77

     local   stress (kbar)  -2181.11   3288.39   2265.86
                             3288.39  -6543.48   1215.93
                             2265.86   1215.93  -7470.18

     nonloc. stress (kbar)   3804.04    -27.57    -19.01
                              -27.57   3840.61    -10.20
                              -19.01    -10.20   3848.37

     hartree stress (kbar)  31793.66  -1291.69   -889.91
                            -1291.69  33506.98   -477.47
                             -889.91   -477.47  33871.02

     exc-cor stress (kbar)    366.75     -3.64     -2.51
                               -3.64    371.58     -1.35
                               -2.51     -1.35    372.61

     corecor stress (kbar) -10975.30      0.28      0.19
                                0.28 -10975.67      0.10
                                0.19      0.10 -10975.75

     ewald   stress (kbar) -50928.94  -2108.43  -1453.03
                            -2108.43 -48131.69   -779.79
                            -1453.03   -779.79 -47537.56

     hubbard stress (kbar)      0.00      0.00      0.00
                                0.00      0.00      0.00
                                0.00      0.00      0.00

     DFT-D   stress (kbar)      0.00      0.00      0.00
                                0.00      0.00      0.00
                                0.00      0.00      0.00

     XDM     stress (kbar)      0.00      0.00      0.00
                                0.00      0.00      0.00
                                0.00      0.00      0.00

     dft-nl  stress (kbar)      0.00      0.00      0.00
                                0.00      0.00      0.00
                                0.00      0.00      0.00

     TS-vdW  stress (kbar)      0.00      0.00      0.00
                                0.00      0.00      0.00
                                0.00      0.00      0.00

[...]

                                0.00      0.00      0.00

     Writing all to output data dir new_calculations/myprefix.save/

     General routines

     Parallel routines

     PAW routines

   This run was terminated on:   5: 6:58  21May2023

   JOB DONE.