     Program PWSCF v.7.0 starts on 20May2023 at  6: 1: 9

     Reading input from espresso_10173.pwi
Warning: card &CELL ignored
Warning: card / ignored

     Current dimensions of program PWSCF are:
     Max number of different atomic species (ntypx) = 10
     Max number of k-points (npk) =  40000
     Max angular momentum in pseudopotentials (lmaxx) =  4
     file K.pbe-spn-kjpaw_psl.1.0.0.UPF: wavefunction(s)  3S renormalized

     gamma-point specific algorithms are used
     Message from routine setup:
     using ibrav=0 with symmetry is DISCOURAGED, use correct ibrav instead

     Subspace diagonalization in iterative solution of the eigenvalue problem:
     a serial algorithm will be used

     Using Slab Decomposition

     bravais-lattice index     =            0
     lattice parameter (alat)  =       9.9942  a.u.
     unit-cell volume          =    1882.3033 (a.u.)^3
     number of atoms/cell      =           16
     number of atomic types    =            3
     number of electrons       =       128.00
     number of Kohn-Sham states=           77
     kinetic-energy cutoff     =      30.0000  Ry
     charge density cutoff     =     240.0000  Ry
     scf convergence threshold =      1.0E-06
     mixing beta               =       0.7000
     number of iterations used =            8  plain     mixing
     Exchange-correlation=  SLA  PW   PBX  PBC
                           (   1   4   3   4   0   0   0)

     celldm(1)=   9.994183  celldm(2)=   0.000000  celldm(3)=   0.000000
     celldm(4)=   0.000000  celldm(5)=   0.000000  celldm(6)=   0.000000

     crystal axes: (cart. coord. in units of alat)
               a(1) = (   1.000000   0.000000   0.000000 )
               a(2) = (   0.000000   1.000000   0.000000 )
               a(3) = (   0.000000   0.000000   1.885592 )

     reciprocal axes: (cart. coord. in units 2 pi/alat)
               b(1) = (  1.000000  0.000000  0.000000 )
               b(2) = (  0.000000  1.000000  0.000000 )
               b(3) = (  0.000000  0.000000  0.530337 )

     PseudoPot. # 1 for K  read from file:
     /home/pragov/projects/rrg-bengioy-ad/pragov/crystal_structure_design/SSSP/K.pbe-spn-kjpaw_psl.1.0.0.UPF
     MD5 check sum: 7d58810084cac21f60fbe77ea2b688fd
     Pseudo is Projector augmented-wave + core cor, Zval =  9.0
     Generated using "atomic" code by A. Dal Corso  v.5.1
     Shape of augmentation charge: PSQ
     Using radial grid of 1165 points,  6 beta functions with:
                l(1) =   0
                l(2) =   0
                l(3) =   1
                l(4) =   1
                l(5) =   2
                l(6) =   2
     Q(r) pseudized with 0 coefficients

     PseudoPot. # 2 for Ta read from file:
     /home/pragov/projects/rrg-bengioy-ad/pragov/crystal_structure_design/SSSP/Ta_pbe_v1.uspp.F.UPF
     MD5 check sum: f8bbe9446314a3b8ea5d9f3e3836c939
     Pseudo is Ultrasoft + core correction, Zval = 13.0
     Generated by new atomic code, or converted to UPF format
     Using radial grid of  921 points,  7 beta functions with:
                l(1) =   0
                l(2) =   0
                l(3) =   1
                l(4) =   1
                l(5) =   2
                l(6) =   2
                l(7) =   3
     Q(r) pseudized with  6 coefficients,  rinner =    1.300   1.300   1.300
                                                       1.300   1.300   1.300
                                                       1.300

     PseudoPot. # 3 for F  read from file:
     /home/pragov/projects/rrg-bengioy-ad/pragov/crystal_structure_design/SSSP/f_pbe_v1.4.uspp.F.UPF
     MD5 check sum: 4c38b6a325caf53ec0e86aed9459de46
     Pseudo is Ultrasoft, Zval =  7.0
     Generated by new atomic code, or converted to UPF format
     Using radial grid of  799 points,  4 beta functions with:
                l(1) =   0
                l(2) =   0
                l(3) =   1
                l(4) =   1
     Q(r) pseudized with  8 coefficients,  rinner =    0.950   0.950   0.950

     atomic species   valence    mass     pseudopotential
        K              9.00    39.09830     K ( 1.00)
        Ta            13.00   180.94788     Ta( 1.00)
        F              7.00    18.99840     F ( 1.00)

      8 Sym. Ops. (no inversion) found ( 4 have fractional translation)

                                    s                        frac. trans.

      isym =  1     identity

 cryst.   s( 1) = (     1          0          0      )
                  (     0          1          0      )
                  (     0          0          1      )

 cart.    s( 1) = (  1.0000000  0.0000000  0.0000000 )
                  (  0.0000000  1.0000000  0.0000000 )
                  (  0.0000000  0.0000000  1.0000000 )

      isym =  2     180 deg rotation - cart. axis [0,0,1]

[...]

 cryst.   s( 3) = (     0          1          0      )    f =(  0.0000000 )
                  (     1          0          0      )       (  0.0000000 )
                  (     0          0         -1      )       (  0.5000000 )

 cart.    s( 3) = (  0.0000000  1.0000000  0.0000000 )    f =(  0.0000000 )
                  (  1.0000000  0.0000000  0.0000000 )       (  0.0000000 )
                  (  0.0000000  0.0000000 -1.0000000 )       (  0.9427959 )

      isym =  4     180 deg rotation - cart. axis [1,-1,0]

[...]

      isym =  5     inv. 180 deg rotation - cart. axis [0,1,0]

[...]

 cryst.   s( 6) = (    -1          0          0      )    f =(  0.0000000 )
                  (     0          1          0      )       (  0.0000000 )
                  (     0          0          1      )       ( -0.5000000 )

 cart.    s( 6) = ( -1.0000000  0.0000000  0.0000000 )    f =(  0.0000000 )
                  (  0.0000000  1.0000000  0.0000000 )       (  0.0000000 )
                  (  0.0000000  0.0000000  1.0000000 )       ( -0.9427959 )

[...]

      isym =  8     inv.  90 deg rotation - cart. axis [0,0,1]

 cryst.   s( 8) = (     0         -1          0      )
                  (     1          0          0      )
                  (     0          0         -1      )

 cart.    s( 8) = (  0.0000000  1.0000000  0.0000000 )
                  ( -1.0000000  0.0000000  0.0000000 )
                  (  0.0000000  0.0000000 -1.0000000 )

   Cartesian axes

     site n.     atom                  positions (alat units)
         1           K   tau(   1) = (   0.0000000   0.0000000   0.0000000  )
         2           K   tau(   2) = (   0.0000000   0.0000000   0.9427959  )
         3           Ta  tau(   3) = (   0.5000000   0.5000000   0.4713979  )
         4           Ta  tau(   4) = (   0.5000000   0.5000000   1.4141938  )
         5           F   tau(   5) = (   0.2418200   0.2418200   0.4713979  )
         6           F   tau(   6) = (   0.7581800   0.7581800   0.4713979  )
         7           F   tau(   7) = (   0.2418200   0.7581800   1.4141938  )
         8           F   tau(   8) = (   0.7581800   0.2418200   1.4141938  )
         9           F   tau(   9) = (   0.3071570   0.6723610   0.2151272  )
        10           F   tau(  10) = (   0.6928430   0.3276390   0.2151272  )
        11           F   tau(  11) = (   0.6723610   0.6928430   1.6704646  )
        12           F   tau(  12) = (   0.3071570   0.3276390   1.1579231  )
        13           F   tau(  13) = (   0.3276390   0.3071570   1.6704646  )
        14           F   tau(  14) = (   0.6928430   0.6723610   1.1579231  )
        15           F   tau(  15) = (   0.6723610   0.3071570   0.7276687  )
        16           F   tau(  16) = (   0.3276390   0.6928430   0.7276687  )

   Crystallographic axes

     site n.     atom                  positions (cryst. coord.)
         1           K   tau(   1) = (  0.0000000  0.0000000  0.0000000  )
         2           K   tau(   2) = (  0.0000000  0.0000000  0.5000000  )
         3           Ta  tau(   3) = (  0.5000000  0.5000000  0.2500000  )
         4           Ta  tau(   4) = (  0.5000000  0.5000000  0.7500000  )
         5           F   tau(   5) = (  0.2418200  0.2418200  0.2500000  )
         6           F   tau(   6) = (  0.7581800  0.7581800  0.2500000  )
         7           F   tau(   7) = (  0.2418200  0.7581800  0.7500000  )
         8           F   tau(   8) = (  0.7581800  0.2418200  0.7500000  )
         9           F   tau(   9) = (  0.3071570  0.6723610  0.1140900  )
        10           F   tau(  10) = (  0.6928430  0.3276390  0.1140900  )
        11           F   tau(  11) = (  0.6723610  0.6928430  0.8859100  )
        12           F   tau(  12) = (  0.3071570  0.3276390  0.6140900  )
        13           F   tau(  13) = (  0.3276390  0.3071570  0.8859100  )
        14           F   tau(  14) = (  0.6928430  0.6723610  0.6140900  )
        15           F   tau(  15) = (  0.6723610  0.3071570  0.3859100  )
        16           F   tau(  16) = (  0.3276390  0.6928430  0.3859100  )

     number of k points=     1  Methfessel-Paxton smearing, width (Ry)=  0.0010
                       cart. coord. in units 2pi/alat
        k(    1) = (   0.0000000   0.0000000   0.0000000), wk =   2.0000000

                       cryst. coord.
        k(    1) = (   0.0000000   0.0000000   0.0000000), wk =   2.0000000

     Check: negative core charge=   -0.000003

     Initial potential from superposition of free atoms

     starting charge     127.9601, renormalised to     128.0000

     negative rho (up, down):  1.871E-01 0.000E+00
     Starting wfcs are   90 randomized atomic wfcs
     Checking if some PAW data can be deallocated...

     Self-consistent Calculation

     iteration #  1     ecut=    30.00 Ry     beta= 0.70
     Davidson diagonalization with overlap

     ethr =  1.00E-02,  avg # of iterations =  5.0

     negative rho (up, down):  1.876E-01 0.000E+00

     total energy              =   -1093.42860958 Ry
     estimated scf accuracy    <       2.95047692 Ry

[...]

     total energy              =   -1094.91719426 Ry
     estimated scf accuracy    <       0.00000294 Ry

     iteration #  9     ecut=    30.00 Ry     beta= 0.70
     Davidson diagonalization with overlap

     ethr =  2.30E-09,  avg # of iterations =  1.0

[...]

     End of self-consistent calculation

          k = 0.0000 0.0000 0.0000 (  2633 PWs)   bands (ev):

   -66.7404 -66.7400 -33.3601 -33.3600 -33.3390 -33.3389 -33.3386 -33.3365
   -25.3018 -25.2998 -20.6217 -20.5511 -20.3959 -20.3959 -20.3303 -20.3101
   -19.7963 -19.7510 -19.7509 -19.6993 -19.6771 -19.6770  -8.8241  -8.8241
    -8.8088  -8.8018  -8.8018  -8.7902  -3.5019  -3.4599  -3.4599  -3.4335
    -3.1888  -3.1277  -2.9967  -2.9406  -2.8832  -2.6256  -2.6255  -2.3567
    -1.7307  -1.7307  -1.7283  -1.7192  -1.4843  -1.4843  -1.4613  -1.3047
    -1.2553  -1.2415  -1.2414  -1.1513  -1.0016  -0.8576  -0.8576  -0.8367
    -0.8367  -0.6715  -0.6715  -0.6562  -0.5298  -0.5298  -0.4898  -0.3753
     5.9424   5.9707   6.0002   6.0300   6.0301   6.0433   7.4713   9.2101
     9.5645  10.0892  10.5634  10.5635  10.7735

     occupation numbers
     1.0000   1.0000   1.0000   1.0000   1.0000   1.0000   1.0000   1.0000
     1.0000   1.0000   1.0000   1.0000   1.0000   1.0000   1.0000   1.0000
     1.0000   1.0000   1.0000   1.0000   1.0000   1.0000   1.0000   1.0000
     1.0000   1.0000   1.0000   1.0000   1.0000   1.0000   1.0000   1.0000
     1.0000   1.0000   1.0000   1.0000   1.0000   1.0000   1.0000   1.0000
     1.0000   1.0000   1.0000   1.0000   1.0000   1.0000   1.0000   1.0000
     1.0000   1.0000   1.0000   1.0000   1.0000   1.0000   1.0000   1.0000
     1.0000   1.0000   1.0000   1.0000   1.0000   1.0000   1.0000   1.0000
    -0.0000  -0.0000  -0.0000  -0.0000  -0.0000  -0.0000  -0.0000  -0.0000
    -0.0000  -0.0000  -0.0000  -0.0000  -0.0000

     the Fermi energy is     1.1863 ev

!    total energy              =   -1094.91719367 Ry
     estimated scf accuracy    <       0.00000092 Ry
     smearing contrib. (-TS)   =       0.00000000 Ry
     internal energy E=F+TS    =   -1094.91719367 Ry

     The total energy is F=E-TS. E is the sum of the following terms:
     one-electron contribution =    -591.59815097 Ry
     hartree contribution      =     347.70711622 Ry
     xc contribution           =    -219.14168540 Ry
     ewald contribution        =    -521.04921513 Ry
     one-center paw contrib.   =    -110.83525838 Ry
      -> PAW hartree energy AE =      75.43003136 Ry
      -> PAW hartree energy PS =     -75.00926099 Ry
      -> PAW xc energy AE      =    -132.44373064 Ry
      -> PAW xc energy PS      =      21.18770189 Ry
      -> total E_H with PAW    =     348.12788659 Ry
      -> total E_XC with PAW   =    -330.39771415 Ry

     convergence has been achieved in   9 iterations

     negative rho (up, down):  1.904E-01 0.000E+00

     Forces acting on atoms (cartesian axes, Ry/au):

     atom    1 type  1   force =     0.00000000    0.00000000    0.00000000
     atom    2 type  1   force =     0.00000000    0.00000000   -0.00000000
     atom    3 type  2   force =     0.00000000    0.00000000    0.00000000
     atom    4 type  2   force =     0.00000000    0.00000000    0.00000000
     atom    5 type  3   force =     0.00192352    0.00192352    0.00000000
     atom    6 type  3   force =    -0.00192352   -0.00192352    0.00000000
     atom    7 type  3   force =     0.00192352   -0.00192352    0.00000000
     atom    8 type  3   force =    -0.00192352    0.00192352    0.00000000
     atom    9 type  3   force =     0.00479272    0.00013332    0.00092646
     atom   10 type  3   force =    -0.00479272   -0.00013332    0.00092646
     atom   11 type  3   force =     0.00013332   -0.00479272   -0.00092646
     atom   12 type  3   force =     0.00479272   -0.00013332    0.00092646
     atom   13 type  3   force =    -0.00013332    0.00479272   -0.00092646
     atom   14 type  3   force =    -0.00479272    0.00013332    0.00092646
     atom   15 type  3   force =     0.00013332    0.00479272   -0.00092646
     atom   16 type  3   force =    -0.00013332   -0.00479272   -0.00092646
     The non-local contrib.  to forces
     atom    1 type  1   force =     0.00000000    0.00000000    0.00000000
     atom    2 type  1   force =     0.00000000    0.00000000    0.00000000
     atom    3 type  2   force =     0.00000000    0.00000000    0.00000000
     atom    4 type  2   force =     0.00000000    0.00000000    0.00000000
     atom    5 type  3   force =     0.90747621    0.90747621    0.00000000
     atom    6 type  3   force =    -0.90747621   -0.90747621    0.00000000
     atom    7 type  3   force =     0.90747621   -0.90747621    0.00000000
     atom    8 type  3   force =    -0.90747621    0.90747621    0.00000000
     atom    9 type  3   force =     0.63008085   -0.52871173    0.89498773
     atom   10 type  3   force =    -0.63008085    0.52871173    0.89498773
     atom   11 type  3   force =    -0.52871173   -0.63008085   -0.89498773
     atom   12 type  3   force =     0.63008085    0.52871173    0.89498773
     atom   13 type  3   force =     0.52871173    0.63008085   -0.89498773
     atom   14 type  3   force =    -0.63008085   -0.52871173    0.89498773
     atom   15 type  3   force =    -0.52871173    0.63008085   -0.89498773
     atom   16 type  3   force =     0.52871173   -0.63008085   -0.89498773
     The ionic contribution  to forces
     atom    1 type  1   force =    -0.00000000    0.00000000    0.00000000
     atom    2 type  1   force =     0.00000000   -0.00000000    0.00000000
     atom    3 type  2   force =     0.00000000    0.00000000   -0.00000000
     atom    4 type  2   force =    -0.00000000   -0.00000000    0.00000000
     atom    5 type  3   force =    -9.37886895   -9.37886895    0.00000000
     atom    6 type  3   force =     9.37886895    9.37886895    0.00000000
     atom    7 type  3   force =    -9.37886895    9.37886895    0.00000000
     atom    8 type  3   force =     9.37886895   -9.37886895    0.00000000
     atom    9 type  3   force =    -7.14948950    6.57125238   -8.36500791
     atom   10 type  3   force =     7.14948950   -6.57125238   -8.36500791
     atom   11 type  3   force =     6.57125238    7.14948950    8.36500791
     atom   12 type  3   force =    -7.14948950   -6.57125238   -8.36500791
     atom   13 type  3   force =    -6.57125238   -7.14948950    8.36500791
     atom   14 type  3   force =     7.14948950    6.57125238   -8.36500791
     atom   15 type  3   force =     6.57125238   -7.14948950    8.36500791
     atom   16 type  3   force =    -6.57125238    7.14948950    8.36500791
     The local contribution  to forces
     atom    1 type  1   force =    -0.00013494    0.00006167    0.00002740
     atom    2 type  1   force =    -0.00009135   -0.00003609   -0.00002974
     atom    3 type  2   force =    -0.00000899    0.00000673    0.00039757
     atom    4 type  2   force =    -0.00000927    0.00000865   -0.00038240
     atom    5 type  3   force =     8.47259878    8.47260153    0.00014822
     atom    6 type  3   force =    -8.47260662   -8.47260234    0.00014994
     atom    7 type  3   force =     8.47263027   -8.47263343   -0.00015128
     atom    8 type  3   force =    -8.47264037    8.47264380   -0.00014619
     atom    9 type  3   force =     6.52365957   -6.04191500    7.47038676
     atom   10 type  3   force =    -6.52365569    6.04191634    7.47039408
     atom   11 type  3   force =    -6.04193285   -6.52367277   -7.47041174
     atom   12 type  3   force =     6.52369520    6.04195346    7.47022025
     atom   13 type  3   force =     6.04193481    6.52367740   -7.47041188
     atom   14 type  3   force =    -6.52368904   -6.04194479    7.47020926
     atom   15 type  3   force =    -6.04193052    6.52367448   -7.47018652
     atom   16 type  3   force =     6.04193338   -6.52367217   -7.47018909
     The core correction contribution to forces
     atom    1 type  1   force =    -0.00000250    0.00000118    0.00000048
     atom    2 type  1   force =    -0.00000187   -0.00000054   -0.00000038
     atom    3 type  2   force =    -0.00000028    0.00000014    0.00001379
     atom    4 type  2   force =    -0.00000078    0.00000022   -0.00001268
     atom    5 type  3   force =     0.00000000    0.00000000    0.00000000
     atom    6 type  3   force =     0.00000000    0.00000000    0.00000000
     atom    7 type  3   force =     0.00000000    0.00000000    0.00000000
     atom    8 type  3   force =     0.00000000    0.00000000    0.00000000
     atom    9 type  3   force =     0.00000000    0.00000000    0.00000000
     atom   10 type  3   force =     0.00000000    0.00000000    0.00000000
     atom   11 type  3   force =     0.00000000    0.00000000    0.00000000
     atom   12 type  3   force =     0.00000000    0.00000000    0.00000000
     atom   13 type  3   force =     0.00000000    0.00000000    0.00000000
     atom   14 type  3   force =     0.00000000    0.00000000    0.00000000
     atom   15 type  3   force =     0.00000000    0.00000000    0.00000000
     atom   16 type  3   force =     0.00000000    0.00000000    0.00000000
     The Hubbard contrib.    to forces
     atom    1 type  1   force =     0.00000000    0.00000000    0.00000000
     atom    2 type  1   force =     0.00000000    0.00000000    0.00000000
     atom    3 type  2   force =     0.00000000    0.00000000    0.00000000
     atom    4 type  2   force =     0.00000000    0.00000000    0.00000000
     atom    5 type  3   force =     0.00000000    0.00000000    0.00000000
     atom    6 type  3   force =     0.00000000    0.00000000    0.00000000
     atom    7 type  3   force =     0.00000000    0.00000000    0.00000000
     atom    8 type  3   force =     0.00000000    0.00000000    0.00000000
     atom    9 type  3   force =     0.00000000    0.00000000    0.00000000
     atom   10 type  3   force =     0.00000000    0.00000000    0.00000000
     atom   11 type  3   force =     0.00000000    0.00000000    0.00000000
     atom   12 type  3   force =     0.00000000    0.00000000    0.00000000
     atom   13 type  3   force =     0.00000000    0.00000000    0.00000000
     atom   14 type  3   force =     0.00000000    0.00000000    0.00000000
     atom   15 type  3   force =     0.00000000    0.00000000    0.00000000
     atom   16 type  3   force =     0.00000000    0.00000000    0.00000000
     The SCF correction term to forces
     atom    1 type  1   force =     0.00008559   -0.00003786   -0.00001697
     atom    2 type  1   force =     0.00005634    0.00002911    0.00002174
     atom    3 type  2   force =     0.00001378   -0.00000826   -0.00054782
     atom    4 type  2   force =     0.00001642   -0.00001528    0.00052385
     atom    5 type  3   force =     0.00072199    0.00071980   -0.00020345
     atom    6 type  3   force =    -0.00070959   -0.00071965   -0.00020977
     atom    7 type  3   force =     0.00068245   -0.00067807    0.00020889
     atom    8 type  3   force =    -0.00067491    0.00066655    0.00020308
     atom    9 type  3   force =     0.00054572   -0.00049926    0.00051454
     atom   10 type  3   force =    -0.00054676    0.00049468    0.00050111
     atom   11 type  3   force =    -0.00046939   -0.00053123   -0.00048371
     atom   12 type  3   force =     0.00050070    0.00044708    0.00077080
     atom   13 type  3   force =     0.00047059    0.00052203   -0.00048210
     atom   14 type  3   force =    -0.00050720   -0.00046030    0.00078463
     atom   15 type  3   force =    -0.00047862    0.00052942   -0.00081372
     atom   16 type  3   force =     0.00047751   -0.00053157   -0.00081300

     Total force =     0.014845     Total SCF correction =     0.003491
     SCF correction compared to forces is large: reduce conv_thr to get better values

     Computing stress (Cartesian axis) and pressure

     negative rho (up, down):  1.904E-01 0.000E+00
          total   stress  (Ry/bohr**3)                   (kbar)     P=      -98.31
  -0.00064794   0.00000000   0.00000000          -95.31        0.00        0.00
  -0.00000000  -0.00064794   0.00000000           -0.00      -95.31        0.00
   0.00000000   0.00000000  -0.00070902            0.00        0.00     -104.30

     kinetic stress (kbar)  17718.64      0.00      0.00
                                0.00  17718.64      0.00
                                0.00      0.00  17702.92

     local   stress (kbar)  -6498.56      0.00      0.00
                                0.00  -6498.56     -0.00
                                0.00     -0.00 -10100.80

     nonloc. stress (kbar)  -1103.69      0.00      0.00
                                0.00  -1103.69      0.00
                                0.00      0.00  -1110.86

     hartree stress (kbar)   8507.89     -0.00     -0.00
                               -0.00   8507.89      0.00
                               -0.00      0.00  10158.09

     exc-cor stress (kbar)    441.54     -0.00      0.00
                               -0.00    441.54     -0.00
                                0.00     -0.00    441.33

     corecor stress (kbar)  -4931.97      0.00     -0.00
                                0.00  -4931.97      0.00
                               -0.00      0.00  -4932.49

     ewald   stress (kbar) -14229.18     -0.00      0.00
                               -0.00 -14229.18     -0.00
                                0.00     -0.00 -12262.50

     hubbard stress (kbar)      0.00      0.00      0.00
                                0.00      0.00      0.00
                                0.00      0.00      0.00

     DFT-D   stress (kbar)      0.00      0.00      0.00
                                0.00      0.00      0.00
                                0.00      0.00      0.00

     XDM     stress (kbar)      0.00      0.00      0.00
                                0.00      0.00      0.00
                                0.00      0.00      0.00

     dft-nl  stress (kbar)      0.00      0.00      0.00
                                0.00      0.00      0.00
                                0.00      0.00      0.00

     TS-vdW  stress (kbar)      0.00      0.00      0.00
                                0.00      0.00      0.00
                                0.00      0.00      0.00

[...]

                                0.00      0.00      0.00

     Writing all to output data dir new_calculations/myprefix.save/

     General routines

     Parallel routines

     PAW routines

   This run was terminated on:   6: 1:31  20May2023

   JOB DONE.