     Program PWSCF v.7.0 starts on 20May2023 at 23:45:47

     Reading input from espresso_932.pwi
Warning: card &CELL ignored
Warning: card / ignored

     Current dimensions of program PWSCF are:
     Max number of different atomic species (ntypx) = 10
     Max number of k-points (npk) =  40000
     Max angular momentum in pseudopotentials (lmaxx) =  4

     gamma-point specific algorithms are used
     Message from routine setup:
     using ibrav=0 with symmetry is DISCOURAGED, use correct ibrav instead

     Subspace diagonalization in iterative solution of the eigenvalue problem:
     a serial algorithm will be used

     Using Slab Decomposition

     bravais-lattice index     =            0
     lattice parameter (alat)  =       6.1498  a.u.
     unit-cell volume          =    2283.5200 (a.u.)^3
     number of atoms/cell      =           12
     number of atomic types    =            3
     number of electrons       =       104.00
     number of Kohn-Sham states=           62
     kinetic-energy cutoff     =      30.0000  Ry
     charge density cutoff     =     240.0000  Ry
     scf convergence threshold =      1.0E-06
     mixing beta               =       0.7000
     number of iterations used =            8  plain     mixing
     Exchange-correlation=  SLA  PW   PBX  PBC
                           (   1   4   3   4   0   0   0)

     celldm(1)=   6.149781  celldm(2)=   0.000000  celldm(3)=   0.000000
     celldm(4)=   0.000000  celldm(5)=   0.000000  celldm(6)=   0.000000

     crystal axes: (cart. coord. in units of alat)
               a(1) = (   1.000000   0.000000   0.000000 )
               a(2) = (  -0.500000   0.866025   0.000000 )
               a(3) = (   0.000000   0.000000  11.336925 )

     reciprocal axes: (cart. coord. in units 2 pi/alat)
               b(1) = (  1.000000  0.577350  0.000000 )
               b(2) = (  0.000000  1.154700  0.000000 )
               b(3) = (  0.000000  0.000000  0.088207 )

     PseudoPot. # 1 for W  read from file:
     /home/pragov/projects/rrg-bengioy-ad/pragov/crystal_structure_design/SSSP/W_pbe_v1.2.uspp.F.UPF
     MD5 check sum: 9c083fa34c2a2ea0f02f1f893e16e1c8
     Pseudo is Ultrasoft + core correction, Zval = 14.0
     Generated by new atomic code, or converted to UPF format
     Using radial grid of  923 points,  8 beta functions with:
                l(1) =   0
                l(2) =   0
                l(3) =   0
                l(4) =   1
                l(5) =   1
                l(6) =   2
                l(7) =   2
                l(8) =   3
     Q(r) pseudized with  6 coefficients,  rinner =    1.350   1.350   1.350
                                                       1.350   1.350   1.350
                                                       1.350

     PseudoPot. # 2 for Se read from file:
     /home/pragov/projects/rrg-bengioy-ad/pragov/crystal_structure_design/SSSP/Se_pbe_v1.uspp.F.UPF
     MD5 check sum: 1b3568f3a8ae88f9a2a0ad0698632c85
     Pseudo is Ultrasoft + core correction, Zval =  6.0
     Generated by new atomic code, or converted to UPF format
     Using radial grid of  877 points,  6 beta functions with:
                l(1) =   0
                l(2) =   0
                l(3) =   1
                l(4) =   1
                l(5) =   2
                l(6) =   2
     Q(r) pseudized with  8 coefficients,  rinner =    1.300   1.300   1.300
                                                       1.300   1.300

     PseudoPot. # 3 for S  read from file:
     /home/pragov/projects/rrg-bengioy-ad/pragov/crystal_structure_design/SSSP/s_pbe_v1.4.uspp.F.UPF
     MD5 check sum: 88d86576ff6df21479756cfb9bdac1df
     Pseudo is Ultrasoft + core correction, Zval =  6.0
     Generated by new atomic code, or converted to UPF format
     Using radial grid of  907 points,  6 beta functions with:
                l(1) =   0
                l(2) =   0
                l(3) =   1
                l(4) =   1
                l(5) =   2
                l(6) =   2
     Q(r) pseudized with  8 coefficients,  rinner =    1.300   1.300   1.300
                                                       1.300   1.300

     atomic species   valence    mass     pseudopotential
        W             14.00   183.84000     W ( 1.00)
        Se             6.00    78.97100     Se( 1.00)
        S              6.00    32.06000     S ( 1.00)

     12 Sym. Ops., with inversion, found

                                    s                        frac. trans.

      isym =  1     identity

 cryst.   s( 1) = (     1          0          0      )
                  (     0          1          0      )
                  (     0          0          1      )

 cart.    s( 1) = (  1.0000000  0.0000000  0.0000000 )
                  (  0.0000000  1.0000000  0.0000000 )
                  (  0.0000000  0.0000000  1.0000000 )

      isym =  2     180 deg rotation - cart. axis [1,0,0]

[...]

      isym =  3     120 deg rotation - cryst. axis [0,0,1]

[...]

      isym =  6     180 deg rotation - cryst. axis [1,1,0]

[...]

      isym =  7     inversion

[...]

      isym =  8     inv. 180 deg rotation - cart. axis [1,0,0]

[...]

      isym =  9     inv. 120 deg rotation - cryst. axis [0,0,1]

 cryst.   s( 9) = (     0         -1          0      )
                  (     1          1          0      )
                  (     0          0         -1      )

 cart.    s( 9) = (  0.4999999  0.8660254  0.0000000 )
                  ( -0.8660254  0.5000001  0.0000000 )
                  (  0.0000000  0.0000000 -1.0000000 )

[...]

 cryst.   s(10) = (     1          1          0      )
                  (    -1          0          0      )
                  (     0          0         -1      )

 cart.    s(10) = (  0.5000001 -0.8660254  0.0000000 )
                  (  0.8660254  0.4999999  0.0000000 )
                  (  0.0000000  0.0000000 -1.0000000 )

[...]

      isym = 12     inv. 180 deg rotation - cryst. axis [1,1,0]

 cryst.   s(12) = (     0         -1          0      )
                  (    -1          0          0      )
                  (     0          0          1      )

 cart.    s(12) = (  0.4999999 -0.8660254  0.0000000 )
                  ( -0.8660254 -0.4999999  0.0000000 )
                  (  0.0000000  0.0000000  1.0000000 )

   Cartesian axes

     site n.     atom                  positions (alat units)
         1           W   tau(   1) = (  -0.0000005   0.5773506   8.1418624  )
         2           W   tau(   2) = (  -0.0000005   0.5773506   1.0648661  )
         3           W   tau(   3) = (   0.5000005   0.2886749  10.2720594  )
         4           W   tau(   4) = (   0.5000005   0.2886749   3.1950630  )
         5           Se  tau(   5) = (  -0.0000005   0.5773506   3.7193731  )
         6           Se  tau(   6) = (   0.5000005   0.2886749   7.6175523  )
         7           Se  tau(   7) = (   0.5000005   0.2886749   8.6662859  )
         8           Se  tau(   8) = (  -0.0000005   0.5773506   2.6706395  )
         9           S   tau(   9) = (  -0.0000005   0.5773506  10.7478928  )
        10           S   tau(  10) = (   0.5000005   0.2886749   0.5890326  )
        11           S   tau(  11) = (   0.5000005   0.2886749   1.5407108  )
        12           S   tau(  12) = (  -0.0000005   0.5773506   9.7962146  )

   Crystallographic axes

     site n.     atom                  positions (cryst. coord.)
         1           W   tau(   1) = (  0.3333330  0.6666670  0.7181720  )
         2           W   tau(   2) = (  0.3333330  0.6666670  0.0939290  )
         3           W   tau(   3) = (  0.6666670  0.3333330  0.9060710  )
         4           W   tau(   4) = (  0.6666670  0.3333330  0.2818280  )
         5           Se  tau(   5) = (  0.3333330  0.6666670  0.3280760  )
         6           Se  tau(   6) = (  0.6666670  0.3333330  0.6719240  )
         7           Se  tau(   7) = (  0.6666670  0.3333330  0.7644300  )
         8           Se  tau(   8) = (  0.3333330  0.6666670  0.2355700  )
         9           S   tau(   9) = (  0.3333330  0.6666670  0.9480430  )
        10           S   tau(  10) = (  0.6666670  0.3333330  0.0519570  )
        11           S   tau(  11) = (  0.6666670  0.3333330  0.1359020  )
        12           S   tau(  12) = (  0.3333330  0.6666670  0.8640980  )

     number of k points=     1  Methfessel-Paxton smearing, width (Ry)=  0.0010
                       cart. coord. in units 2pi/alat
        k(    1) = (   0.0000000   0.0000000   0.0000000), wk =   2.0000000

                       cryst. coord.
        k(    1) = (   0.0000000   0.0000000   0.0000000), wk =   2.0000000

     Check: negative core charge=   -0.000002

     Initial potential from superposition of free atoms

     starting charge     103.5982, renormalised to     104.0000

     negative rho (up, down):  2.575E-01 0.000E+00
     Starting wfcs are   84 randomized atomic wfcs

     Self-consistent Calculation

     iteration #  1     ecut=    30.00 Ry     beta= 0.70
     Davidson diagonalization with overlap

     ethr =  1.00E-02,  avg # of iterations =  2.0

     negative rho (up, down):  2.606E-01 0.000E+00

     total energy              =    -902.55150832 Ry
     estimated scf accuracy    <       4.22800932 Ry

[...]

     total energy              =    -905.30554489 Ry
     estimated scf accuracy    <       0.00000185 Ry

     iteration # 26     ecut=    30.00 Ry     beta= 0.70
     Davidson diagonalization with overlap

     ethr =  1.78E-09,  avg # of iterations =  4.0

[...]

     End of self-consistent calculation

          k = 0.0000 0.0000 0.0000 (  3205 PWs)   bands (ev):

   -67.3715 -67.3701 -66.1888 -66.1883 -31.6892 -31.6891 -31.6877 -31.6877
   -31.5414 -31.5399 -30.5574 -30.5570 -30.4528 -30.4528 -30.4524 -30.4524
    -9.6566  -9.6325  -9.4438  -9.4433  -8.4525  -8.4514  -8.2270  -8.1820
    -1.0327  -0.8656  -0.2861  -0.2727   2.3680   2.3680   2.3706   2.3706
     2.6698   2.9336   3.3885   3.3885   3.3944   3.3944   3.4076   3.6405
     4.1098   4.1098   4.1099   4.1099   4.9313   4.9313   4.9314   4.9314
     5.5372   5.7360   5.9844   6.0796   7.9808   7.9809   7.9839   7.9840
     8.0282   8.0283   8.0457   8.0457   8.9503   8.9504

     occupation numbers
     1.0000   1.0000   1.0000   1.0000   1.0000   1.0000   1.0000   1.0000
     1.0000   1.0000   1.0000   1.0000   1.0000   1.0000   1.0000   1.0000
     1.0000   1.0000   1.0000   1.0000   1.0000   1.0000   1.0000   1.0000
     1.0000   1.0000   1.0000   1.0000   1.0000   1.0000   1.0000   1.0000
     1.0000   1.0000   1.0000   1.0000   1.0000   1.0000   1.0000   1.0000
     1.0000   1.0000   1.0000   1.0000   1.0000   1.0000   1.0000   1.0000
     1.0000   1.0000   1.0000   1.0000  -0.0000  -0.0000  -0.0000  -0.0000
    -0.0000  -0.0000  -0.0000  -0.0000  -0.0000  -0.0000

     the Fermi energy is     6.6929 ev

!    total energy              =    -905.30554474 Ry
     estimated scf accuracy    <       0.00000039 Ry
     smearing contrib. (-TS)   =       0.00000000 Ry
     internal energy E=F+TS    =    -905.30554474 Ry

     The total energy is F=E-TS. E is the sum of the following terms:
     one-electron contribution =   -3783.94510982 Ry
     hartree contribution      =    1917.93283926 Ry
     xc contribution           =    -318.61736085 Ry
     ewald contribution        =    1279.32408667 Ry

     convergence has been achieved in  26 iterations

     negative rho (up, down):  2.495E-01 0.000E+00

     Forces acting on atoms (cartesian axes, Ry/au):

     atom    1 type  1   force =     0.00000000   -0.00000000   -0.00325285
     atom    2 type  1   force =     0.00000000    0.00000000   -0.00194541
     atom    3 type  1   force =     0.00000000    0.00000000    0.00194541
     atom    4 type  1   force =     0.00000000    0.00000000    0.00325285
     atom    5 type  2   force =     0.00000000    0.00000000   -0.08135499
     atom    6 type  2   force =     0.00000000    0.00000000    0.08135499
     atom    7 type  2   force =    -0.00000000   -0.00000000   -0.09744633
     atom    8 type  2   force =     0.00000000    0.00000000    0.09744633
     atom    9 type  3   force =     0.00000000   -0.00000000   -0.08480820
     atom   10 type  3   force =     0.00000000    0.00000000    0.08480820
     atom   11 type  3   force =     0.00000000    0.00000000   -0.09251880
     atom   12 type  3   force =    -0.00000000   -0.00000000    0.09251880
     The non-local contrib.  to forces
     atom    1 type  1   force =     0.00000000    0.00000000   -0.00376936
     atom    2 type  1   force =     0.00000000   -0.00000000   -0.00173524
     atom    3 type  1   force =    -0.00000000    0.00000000    0.00173524
     atom    4 type  1   force =    -0.00000000    0.00000000    0.00376936
     atom    5 type  2   force =     0.00000000    0.00000000    0.06878658
     atom    6 type  2   force =     0.00000000    0.00000000   -0.06878658
     atom    7 type  2   force =     0.00000000   -0.00000000    0.03784734
     atom    8 type  2   force =    -0.00000000    0.00000000   -0.03784734
     atom    9 type  3   force =    -0.00000000   -0.00000000    0.06313914
     atom   10 type  3   force =     0.00000000   -0.00000000   -0.06313914
     atom   11 type  3   force =     0.00000000    0.00000000    0.04689910
     atom   12 type  3   force =    -0.00000000    0.00000000   -0.04689910
     The ionic contribution  to forces
     atom    1 type  1   force =     0.00001241   -0.00000716 -104.09927491
     atom    2 type  1   force =     0.00001685   -0.00000973   34.71345418
     atom    3 type  1   force =    -0.00001685    0.00000973  -34.71345418
     atom    4 type  1   force =    -0.00001241    0.00000716  104.09927491
     atom    5 type  2   force =     0.00000621   -0.00000358   66.60790926
     atom    6 type  2   force =    -0.00000621    0.00000358  -66.60790926
     atom    7 type  2   force =    -0.00000624    0.00000360  -22.61141203
     atom    8 type  2   force =     0.00000624   -0.00000360   22.61141203
     atom    9 type  3   force =     0.00000845   -0.00000488    8.47206616
     atom   10 type  3   force =    -0.00000845    0.00000488   -8.47206616
     atom   11 type  3   force =    -0.00000846    0.00000489   38.23011864
     atom   12 type  3   force =     0.00000846   -0.00000489  -38.23011864
     The local contribution  to forces
     atom    1 type  1   force =     0.00000605    0.00001909  104.10159575
     atom    2 type  1   force =    -0.00001389    0.00000260  -34.71527965
     atom    3 type  1   force =     0.00001681   -0.00000726   34.71442779
     atom    4 type  1   force =     0.00001326   -0.00000602 -104.09970459
     atom    5 type  2   force =    -0.00000979   -0.00002129  -66.74441346
     atom    6 type  2   force =     0.00002083    0.00000574   66.74485302
     atom    7 type  2   force =     0.00001026   -0.00000251   22.48627719
     atom    8 type  2   force =     0.00000693    0.00001138  -22.48580724
     atom    9 type  3   force =    -0.00001069    0.00000241   -8.61419267
     atom   10 type  3   force =     0.00001160   -0.00000487    8.61387281
     atom   11 type  3   force =     0.00000969   -0.00001737  -38.36534710
     atom   12 type  3   force =    -0.00001256    0.00000001   38.36507003
     The core correction contribution to forces
     atom    1 type  1   force =     0.00000110    0.00000059   -0.00009963
     atom    2 type  1   force =     0.00000036   -0.00000097   -0.00006615
     atom    3 type  1   force =     0.00000013    0.00000010    0.00006567
     atom    4 type  1   force =    -0.00000031   -0.00000025    0.00010374
     atom    5 type  2   force =    -0.00000078   -0.00000273   -0.01308084
     atom    6 type  2   force =     0.00000177    0.00000032    0.01308104
     atom    7 type  2   force =     0.00000045   -0.00000025   -0.00907509
     atom    8 type  2   force =     0.00000059    0.00000108    0.00907052
     atom    9 type  3   force =    -0.00000016    0.00000008   -0.00589675
     atom   10 type  3   force =     0.00000021   -0.00000007    0.00590330
     atom   11 type  3   force =     0.00000025   -0.00000058   -0.00495383
     atom   12 type  3   force =    -0.00000037   -0.00000017    0.00495026
     The Hubbard contrib.    to forces
     atom    1 type  1   force =     0.00000000    0.00000000    0.00000000
     atom    2 type  1   force =     0.00000000    0.00000000    0.00000000
     atom    3 type  1   force =     0.00000000    0.00000000    0.00000000
     atom    4 type  1   force =     0.00000000    0.00000000    0.00000000
     atom    5 type  2   force =     0.00000000    0.00000000    0.00000000
     atom    6 type  2   force =     0.00000000    0.00000000    0.00000000
     atom    7 type  2   force =     0.00000000    0.00000000    0.00000000
     atom    8 type  2   force =     0.00000000    0.00000000    0.00000000
     atom    9 type  3   force =     0.00000000    0.00000000    0.00000000
     atom   10 type  3   force =     0.00000000    0.00000000    0.00000000
     atom   11 type  3   force =     0.00000000    0.00000000    0.00000000
     atom   12 type  3   force =     0.00000000    0.00000000    0.00000000
     The SCF correction term to forces
     atom    1 type  1   force =    -0.00002174   -0.00001836   -0.00164353
     atom    2 type  1   force =    -0.00000036    0.00001128    0.00168462
     atom    3 type  1   force =    -0.00000407   -0.00000090   -0.00082594
     atom    4 type  1   force =    -0.00000171    0.00000446   -0.00012941
     atom    5 type  2   force =     0.00000091    0.00000696   -0.00055116
     atom    6 type  2   force =    -0.00000467   -0.00000296    0.00012213
     atom    7 type  2   force =    -0.00000152   -0.00000096   -0.00111943
     atom    8 type  2   force =    -0.00000226   -0.00000322    0.00058267
     atom    9 type  3   force =     0.00000228    0.00000033    0.00015247
     atom   10 type  3   force =    -0.00000192   -0.00000042    0.00031395
     atom   11 type  3   force =    -0.00000176    0.00000544    0.00071667
     atom   12 type  3   force =     0.00000264    0.00000129   -0.00053148

     Total force =     0.252511     Total SCF correction =     0.003011

     Computing stress (Cartesian axis) and pressure

     negative rho (up, down):  2.495E-01 0.000E+00
          total   stress  (Ry/bohr**3)                   (kbar)     P=      106.59
   0.00143090  -0.00000000   0.00000000          210.49       -0.00        0.00
  -0.00000000   0.00143090   0.00000000           -0.00      210.49        0.00
   0.00000000   0.00000000  -0.00068815            0.00        0.00     -101.23

     kinetic stress (kbar)  10645.89     -0.00      0.00
                               -0.00  10645.89      0.00
                                0.00      0.00  10769.92

     local   stress (kbar)-233839.71     -0.02      0.00
                               -0.02-233839.73      0.00
                                0.00      0.00 242909.01

     nonloc. stress (kbar)  -1157.63      0.00      0.00
                                0.00  -1157.63      0.00
                                0.00      0.00  -1253.74

     hartree stress (kbar) 119312.69      0.01      0.00
                                0.01 119312.69     -0.00
                                0.00     -0.00-115071.55

     exc-cor stress (kbar)  11088.98      0.00     -0.00
                                0.00  11088.98     -0.00
                               -0.00     -0.00  11099.56

     corecor stress (kbar) -14210.40     -0.00      0.00
                               -0.00 -14210.40      0.00
                                0.00      0.00 -14227.56

     ewald   stress (kbar) 108370.66      0.02      0.00
                                0.02 108370.68     -0.00
                                0.00     -0.00-134326.89

     hubbard stress (kbar)      0.00      0.00      0.00
                                0.00      0.00      0.00
                                0.00      0.00      0.00

     DFT-D   stress (kbar)      0.00      0.00      0.00
                                0.00      0.00      0.00
                                0.00      0.00      0.00

     XDM     stress (kbar)      0.00      0.00      0.00
                                0.00      0.00      0.00
                                0.00      0.00      0.00

     dft-nl  stress (kbar)      0.00      0.00      0.00
                                0.00      0.00      0.00
                                0.00      0.00      0.00

     TS-vdW  stress (kbar)      0.00      0.00      0.00
                                0.00      0.00      0.00
                                0.00      0.00      0.00

[...]

                                0.00      0.00      0.00

     Writing all to output data dir new_calculations/myprefix.save/

     General routines

     Parallel routines

   This run was terminated on:  23:46:31  20May2023

   JOB DONE.