     Program PWSCF v.7.0 starts on 20May2023 at 12:18:10

     Reading input from espresso_7357.pwi
Warning: card &CELL ignored
Warning: card / ignored

     Current dimensions of program PWSCF are:
     Max number of different atomic species (ntypx) = 10
     Max number of k-points (npk) =  40000
     Max angular momentum in pseudopotentials (lmaxx) =  4
     file Al.pbe-n-kjpaw_psl.1.0.0.UPF: wavefunction(s)  3S 3P renormalized

     gamma-point specific algorithms are used
     Message from routine setup:
     using ibrav=0 with symmetry is DISCOURAGED, use correct ibrav instead

     Subspace diagonalization in iterative solution of the eigenvalue problem:
     a serial algorithm will be used

     Using Slab Decomposition

     bravais-lattice index     =            0
     lattice parameter (alat)  =       7.9452  a.u.
     unit-cell volume          =     683.6081 (a.u.)^3
     number of atoms/cell      =            5
     number of atomic types    =            3
     number of electrons       =        32.00
     number of Kohn-Sham states=           20
     kinetic-energy cutoff     =      30.0000  Ry
     charge density cutoff     =     240.0000  Ry
     scf convergence threshold =      1.0E-06
     mixing beta               =       0.7000
     number of iterations used =            8  plain     mixing
     Exchange-correlation= PBE
                           (   1   4   3   4   0   0   0)

     celldm(1)=   7.945153  celldm(2)=   0.000000  celldm(3)=   0.000000
     celldm(4)=   0.000000  celldm(5)=   0.000000  celldm(6)=   0.000000

     crystal axes: (cart. coord. in units of alat)
               a(1) = (   1.000000   0.000000   0.000000 )
               a(2) = (  -0.500000   0.866025   0.000000 )
               a(3) = (   0.000000   0.000000   1.573873 )

     reciprocal axes: (cart. coord. in units 2 pi/alat)
               b(1) = (  1.000000  0.577350  0.000000 )
               b(2) = (  0.000000  1.154701  0.000000 )
               b(3) = (  0.000000  0.000000  0.635375 )

     PseudoPot. # 1 for Gd read from file:
     /home/pragov/projects/rrg-bengioy-ad/pragov/crystal_structure_design/SSSP/Gd.GGA-PBE-paw-v1.0.UPF
     MD5 check sum: 3e8e0d208da550914ae52eaf991d13de
     Pseudo is Projector augmented-wave + core cor, Zval = 18.0
     Generated using ATOMPAW code
     Shape of augmentation charge: BESSEL
     Using radial grid of 1110 points,  8 beta functions with:
                l(1) =   0
                l(2) =   0
                l(3) =   1
                l(4) =   1
                l(5) =   2
                l(6) =   2
                l(7) =   3
                l(8) =   3
     Q(r) pseudized with 0 coefficients

     PseudoPot. # 2 for Al read from file:
     /home/pragov/projects/rrg-bengioy-ad/pragov/crystal_structure_design/SSSP/Al.pbe-n-kjpaw_psl.1.0.0.UPF
     MD5 check sum: cfc449ca30b5f3223ec38ddd88ac046d
     Pseudo is Projector augmented-wave + core cor, Zval =  3.0
     Generated using "atomic" code by A. Dal Corso  v.5.1
     Shape of augmentation charge: PSQ
     Using radial grid of 1135 points,  6 beta functions with:
                l(1) =   0
                l(2) =   0
                l(3) =   1
                l(4) =   1
                l(5) =   2
                l(6) =   2
     Q(r) pseudized with 0 coefficients

     PseudoPot. # 3 for Si read from file:
     /home/pragov/projects/rrg-bengioy-ad/pragov/crystal_structure_design/SSSP/Si.pbe-n-rrkjus_psl.1.0.0.UPF
     MD5 check sum: 0b0bb1205258b0d07b9f9672cf965d36
     Pseudo is Ultrasoft + core correction, Zval =  4.0
     Generated using "atomic" code by A. Dal Corso  v.5.1
     Using radial grid of 1141 points,  6 beta functions with:
                l(1) =   0
                l(2) =   0
                l(3) =   1
                l(4) =   1
                l(5) =   2
                l(6) =   2
     Q(r) pseudized with 0 coefficients

     atomic species   valence    mass     pseudopotential
        Gd            18.00   157.25000     Gd( 1.00)
        Al             3.00    26.98154     Al( 1.00)
        Si             4.00    28.08500     Si( 1.00)

     12 Sym. Ops., with inversion, found

                                    s                        frac. trans.

      isym =  1     identity

 cryst.   s( 1) = (     1          0          0      )
                  (     0          1          0      )
                  (     0          0          1      )

 cart.    s( 1) = (  1.0000000  0.0000000  0.0000000 )
                  (  0.0000000  1.0000000  0.0000000 )
                  (  0.0000000  0.0000000  1.0000000 )

      isym =  2     180 deg rotation - cart. axis [1,0,0]

[...]

      isym =  3     120 deg rotation - cryst. axis [0,0,1]

[...]

      isym =  6     180 deg rotation - cryst. axis [1,1,0]

[...]

      isym =  7     inversion

[...]

      isym =  8     inv. 180 deg rotation - cart. axis [1,0,0]

[...]

      isym =  9     inv. 120 deg rotation - cryst. axis [0,0,1]

 cryst.   s( 9) = (     0         -1          0      )
                  (     1          1          0      )
                  (     0          0         -1      )

 cart.    s( 9) = (  0.5000000  0.8660254  0.0000000 )
                  ( -0.8660254  0.5000000  0.0000000 )
                  (  0.0000000  0.0000000 -1.0000000 )

[...]

 cryst.   s(10) = (     1          1          0      )
                  (    -1          0          0      )
                  (     0          0         -1      )

 cart.    s(10) = (  0.5000000 -0.8660254  0.0000000 )
                  (  0.8660254  0.5000000  0.0000000 )
                  (  0.0000000  0.0000000 -1.0000000 )

[...]

      isym = 12     inv. 180 deg rotation - cryst. axis [1,1,0]

 cryst.   s(12) = (     0         -1          0      )
                  (    -1          0          0      )
                  (     0          0          1      )

 cart.    s(12) = (  0.5000000 -0.8660254  0.0000000 )
                  ( -0.8660254 -0.5000000  0.0000000 )
                  (  0.0000000  0.0000000  1.0000000 )

   Cartesian axes

     site n.     atom                  positions (alat units)
         1           Gd  tau(   1) = (   0.0000000   0.0000000   0.0000000  )
         2           Al  tau(   2) = (   0.5000005   0.2886748   0.5624126  )
         3           Al  tau(   3) = (  -0.0000005   0.5773506   1.0114606  )
         4           Si  tau(   4) = (   0.5000005   0.2886748   1.1643325  )
         5           Si  tau(   5) = (  -0.0000005   0.5773506   0.4095407  )

   Crystallographic axes

     site n.     atom                  positions (cryst. coord.)
         1           Gd  tau(   1) = (  0.0000000  0.0000000  0.0000000  )
         2           Al  tau(   2) = (  0.6666670  0.3333330  0.3573430  )
         3           Al  tau(   3) = (  0.3333330  0.6666670  0.6426570  )
         4           Si  tau(   4) = (  0.6666670  0.3333330  0.7397880  )
         5           Si  tau(   5) = (  0.3333330  0.6666670  0.2602120  )

     number of k points=     1  Methfessel-Paxton smearing, width (Ry)=  0.0010
                       cart. coord. in units 2pi/alat
        k(    1) = (   0.0000000   0.0000000   0.0000000), wk =   2.0000000

                       cryst. coord.
        k(    1) = (   0.0000000   0.0000000   0.0000000), wk =   2.0000000

     Initial potential from superposition of free atoms

     starting charge      31.9891, renormalised to      32.0000
     Starting wfcs are   48 randomized atomic wfcs
     Checking if some PAW data can be deallocated...

     Self-consistent Calculation

     iteration #  1     ecut=    30.00 Ry     beta= 0.70
     Davidson diagonalization with overlap

     ethr =  1.00E-02,  avg # of iterations =  2.0

     total energy              =    -755.30810657 Ry
     estimated scf accuracy    <      26.00374374 Ry

[...]

     c_bands:  1 eigenvalues not converged
     ethr =  8.48E-08,  avg # of iterations = 20.0

[...]

     total energy              =    -784.47973368 Ry
     estimated scf accuracy    <       0.00000424 Ry

     iteration # 66     ecut=    30.00 Ry     beta= 0.70
     Davidson diagonalization with overlap

     ethr =  1.33E-08,  avg # of iterations =  2.0

     End of self-consistent calculation

          k = 0.0000 0.0000 0.0000 (   947 PWs)   bands (ev):

   -32.5550 -11.1047 -10.5258 -10.5256  -1.4478   1.2742   4.0499   7.2441
     7.2444   8.9170   8.9172   8.9766   9.5023   9.7584   9.7585  10.2259
    10.2429  10.3501  10.3595  10.4782

     occupation numbers
     1.0000   1.0000   1.0000   1.0000   1.0000   1.0000   1.0000   1.0000
     1.0000   1.0000   1.0000   1.0000   1.0000   1.0000   1.0000   0.9300
     0.0700  -0.0000  -0.0000  -0.0000

     the Fermi energy is    10.2344 ev

!    total energy              =    -784.47973349 Ry
     estimated scf accuracy    <       0.00000028 Ry
     smearing contrib. (-TS)   =      -0.00008576 Ry
     internal energy E=F+TS    =    -784.47964773 Ry

     The total energy is F=E-TS. E is the sum of the following terms:
     one-electron contribution =    -149.63729610 Ry
     hartree contribution      =      94.37222283 Ry
     xc contribution           =     -40.44414818 Ry
     ewald contribution        =    -153.51779985 Ry
     one-center paw contrib.   =    -535.25262645 Ry
      -> PAW hartree energy AE =     190.73421658 Ry
      -> PAW hartree energy PS =    -181.19398257 Ry
      -> PAW xc energy AE      =    -570.37677618 Ry
      -> PAW xc energy PS      =      25.58391572 Ry
      -> total E_H with PAW    =     103.91245684 Ry
      -> total E_XC with PAW   =    -585.23700863 Ry

     convergence has been achieved in  66 iterations

     Forces acting on atoms (cartesian axes, Ry/au):

     atom    1 type  1   force =     0.00000000    0.00000000    0.00000000
     atom    2 type  2   force =     0.00000000    0.00000000   -0.00580099
     atom    3 type  2   force =    -0.00000000   -0.00000000    0.00580099
     atom    4 type  3   force =     0.00000000    0.00000000   -0.00055409
     atom    5 type  3   force =     0.00000000    0.00000000    0.00055409
     The non-local contrib.  to forces
     atom    1 type  1   force =     0.00000000    0.00000000    0.00000000
     atom    2 type  2   force =     0.00000000    0.00000000   -0.04328601
     atom    3 type  2   force =     0.00000000    0.00000000    0.04328601
     atom    4 type  3   force =     0.00000000    0.00000000    0.10222736
     atom    5 type  3   force =     0.00000000    0.00000000   -0.10222736
     The ionic contribution  to forces
     atom    1 type  1   force =     0.00000000   -0.00000000   -0.00000000
     atom    2 type  2   force =    -0.00000524    0.00000303    2.16481594
     atom    3 type  2   force =     0.00000524   -0.00000303   -2.16481594
     atom    4 type  3   force =    -0.00000720    0.00000416   -4.12048192
     atom    5 type  3   force =     0.00000720   -0.00000416    4.12048192
     The local contribution  to forces
     atom    1 type  1   force =     0.00016604    0.00013783    0.00234946
     atom    2 type  2   force =     0.00005603    0.00000783   -2.13173460
     atom    3 type  2   force =    -0.00005520   -0.00002281    2.13139538
     atom    4 type  3   force =     0.00010003   -0.00004956    4.02938364
     atom    5 type  3   force =    -0.00002923   -0.00005494   -4.02935544
     The core correction contribution to forces
     atom    1 type  1   force =     0.00000001    0.00000000    0.00000006
     atom    2 type  2   force =     0.00000191    0.00000143    0.00431434
     atom    3 type  2   force =    -0.00000153   -0.00000157   -0.00432101
     atom    4 type  3   force =     0.00000701   -0.00000409   -0.01184764
     atom    5 type  3   force =    -0.00000043   -0.00000441    0.01184973
     The Hubbard contrib.    to forces
     atom    1 type  1   force =     0.00000000    0.00000000    0.00000000
     atom    2 type  2   force =     0.00000000    0.00000000    0.00000000
     atom    3 type  2   force =     0.00000000    0.00000000    0.00000000
     atom    4 type  3   force =     0.00000000    0.00000000    0.00000000
     atom    5 type  3   force =     0.00000000    0.00000000    0.00000000
     The SCF correction term to forces
     atom    1 type  1   force =    -0.00003501   -0.00030907   -0.00198769
     atom    2 type  2   force =    -0.00000550    0.00001294    0.00004462
     atom    3 type  2   force =    -0.00001537    0.00000021    0.00021182
     atom    4 type  3   force =     0.00002465    0.00000947    0.00019091
     atom    5 type  3   force =     0.00002041   -0.00001045   -0.00016832

     Total force =     0.008241     Total SCF correction =     0.002040
     SCF correction compared to forces is large: reduce conv_thr to get better values

     Computing stress (Cartesian axis) and pressure

          total   stress  (Ry/bohr**3)                   (kbar)     P=      160.10
   0.00248083  -0.00000000   0.00000000          364.94       -0.00        0.00
  -0.00000000   0.00248083   0.00000000           -0.00      364.94        0.00
   0.00000000   0.00000000  -0.00169671            0.00        0.00     -249.59

     kinetic stress (kbar)   4930.97     -0.00      0.00
                               -0.00   4930.97      0.00
                               -0.00     -0.00   4242.68

     local   stress (kbar)  -8391.38     -0.04     -0.00
                               -0.04  -8391.38     -0.02
                               -0.00     -0.02   8260.43

     nonloc. stress (kbar)   4772.91     -0.00      0.00
                               -0.00   4772.91      0.00
                                0.00      0.00   4703.76

     hartree stress (kbar)   9470.70     -0.02     -0.01
                               -0.02   9470.71      0.01
                               -0.01      0.01   1366.47

     exc-cor stress (kbar)   -219.92      0.00      0.00
                                0.00   -219.92      0.00
                                0.00      0.00   -220.52

     corecor stress (kbar)  -1988.28     -0.00     -0.00
                               -0.00  -1988.28      0.00
                               -0.00      0.00  -1987.17

     ewald   stress (kbar)  -8210.06     -0.00      0.00
                               -0.00  -8210.07     -0.00
                                0.00     -0.00 -16615.24

     hubbard stress (kbar)      0.00      0.00      0.00
                                0.00      0.00      0.00
                                0.00      0.00      0.00

     DFT-D   stress (kbar)      0.00      0.00      0.00
                                0.00      0.00      0.00
                                0.00      0.00      0.00

     XDM     stress (kbar)      0.00      0.00      0.00
                                0.00      0.00      0.00
                                0.00      0.00      0.00

     dft-nl  stress (kbar)      0.00      0.00      0.00
                                0.00      0.00      0.00
                                0.00      0.00      0.00

     TS-vdW  stress (kbar)      0.00      0.00      0.00
                                0.00      0.00      0.00
                                0.00      0.00      0.00

[...]

                                0.00      0.00      0.00

     Writing all to output data dir new_calculations/myprefix.save/

     General routines

     Parallel routines

     PAW routines

   This run was terminated on:  12:19: 9  20May2023

   JOB DONE.