     Program PWSCF v.7.0 starts on 20May2023 at 16:58:50

     Reading input from espresso_10517.pwi
Warning: card &CELL ignored
Warning: card / ignored

     Current dimensions of program PWSCF are:
     Max number of different atomic species (ntypx) = 10
     Max number of k-points (npk) =  40000
     Max angular momentum in pseudopotentials (lmaxx) =  4
     file O.pbe-n-kjpaw_psl.0.1.UPF: wavefunction(s)  2P renormalized

     gamma-point specific algorithms are used
     Message from routine setup:
     using ibrav=0 with symmetry is DISCOURAGED, use correct ibrav instead

     Subspace diagonalization in iterative solution of the eigenvalue problem:
     a serial algorithm will be used

     Using Slab Decomposition

     bravais-lattice index     =            0
     lattice parameter (alat)  =       9.5953  a.u.
     unit-cell volume          =    1238.3288 (a.u.)^3
     number of atoms/cell      =           16
     number of atomic types    =            3
     number of electrons       =       126.00
     number of Kohn-Sham states=           76
     kinetic-energy cutoff     =      30.0000  Ry
     charge density cutoff     =     240.0000  Ry
     scf convergence threshold =      1.0E-06
     mixing beta               =       0.7000
     number of iterations used =            8  plain     mixing
     Exchange-correlation= SLA  PW   PBX  PBC
                           (   1   4   3   4   0   0   0)

     celldm(1)=   9.595323  celldm(2)=   0.000000  celldm(3)=   0.000000
     celldm(4)=   0.000000  celldm(5)=   0.000000  celldm(6)=   0.000000

     crystal axes: (cart. coord. in units of alat)
               a(1) = (   1.000000   0.000000   0.000000 )
               a(2) = (  -0.207210   1.243773   0.000000 )
               a(3) = (  -0.341228  -0.470024   1.126980 )

     reciprocal axes: (cart. coord. in units 2 pi/alat)
               b(1) = (  1.000000  0.166598  0.372263 )
               b(2) = (  0.000000  0.804005  0.335323 )
               b(3) = (  0.000000  0.000000  0.887327 )

     PseudoPot. # 1 for Cr read from file:
     /home/pragov/projects/rrg-bengioy-ad/pragov/crystal_structure_design/SSSP/cr_pbe_v1.5.uspp.F.UPF
     MD5 check sum: 0d52af634a40206e4dee301ad30da4bf
     Pseudo is Ultrasoft + core correction, Zval = 14.0
     Generated by new atomic code, or converted to UPF format
     Using radial grid of  857 points,  6 beta functions with:
                l(1) =   0
                l(2) =   0
                l(3) =   1
                l(4) =   1
                l(5) =   2
                l(6) =   2
     Q(r) pseudized with  8 coefficients,  rinner =    0.950   0.950   0.950
                                                       0.950   0.950

     PseudoPot. # 2 for P  read from file:
     /home/pragov/projects/rrg-bengioy-ad/pragov/crystal_structure_design/SSSP/P.pbe-n-rrkjus_psl.1.0.0.UPF
     MD5 check sum: 8b930f418f0a4573dca56cd030ffe088
     Pseudo is Ultrasoft + core correction, Zval =  5.0
     Generated using "atomic" code by A. Dal Corso  v.5.1
     Using radial grid of 1147 points,  6 beta functions with:
                l(1) =   0
                l(2) =   0
                l(3) =   1
                l(4) =   1
                l(5) =   2
                l(6) =   2
     Q(r) pseudized with 0 coefficients

     PseudoPot. # 3 for O  read from file:
     /home/pragov/projects/rrg-bengioy-ad/pragov/crystal_structure_design/SSSP/O.pbe-n-kjpaw_psl.0.1.UPF
     MD5 check sum: 0234752ac141de4415c5fc33072bef88
     Pseudo is Projector augmented-wave + core cor, Zval =  6.0
     Generated using "atomic" code by A. Dal Corso  v.5.0.99 svn rev. 10869
     Shape of augmentation charge: BESSEL
     Using radial grid of 1095 points,  4 beta functions with:
                l(1) =   0
                l(2) =   0
                l(3) =   1
                l(4) =   1
     Q(r) pseudized with 0 coefficients

     atomic species   valence    mass     pseudopotential
        Cr            14.00    51.99610     Cr( 1.00)
        P              5.00    30.97376     P ( 1.00)
        O              6.00    15.99900     O ( 1.00)

      2 Sym. Ops., with inversion, found

                                    s                        frac. trans.

      isym =  1     identity

 cryst.   s( 1) = (     1          0          0      )
                  (     0          1          0      )
                  (     0          0          1      )

 cart.    s( 1) = (  1.0000000  0.0000000 -0.0000000 )
                  (  0.0000000  1.0000000 -0.0000000 )
                  (  0.0000000  0.0000000  1.0000000 )

      isym =  2     inversion

 cryst.   s( 2) = (    -1          0          0      )
                  (     0         -1          0      )
                  (     0          0         -1      )

 cart.    s( 2) = ( -1.0000000 -0.0000000  0.0000000 )
                  (  0.0000000 -1.0000000  0.0000000 )
                  (  0.0000000  0.0000000 -1.0000000 )

   Cartesian axes

     site n.     atom                  positions (alat units)
         1           Cr  tau(   1) = (   0.0022232  -0.1469725   1.0654589  )
         2           Cr  tau(   2) = (   0.4493399   0.9207192   0.0615196  )
         3           Cr  tau(   3) = (  -0.0524427   0.6618633   0.2847686  )
         4           Cr  tau(   4) = (   0.5040071   0.1118854   0.8422110  )
         5           P   tau(   5) = (  -0.0045562   0.0470966   0.4376501  )
         6           P   tau(   6) = (   0.4561175   0.7266521   0.6893295  )
         7           O   tau(   7) = (  -0.2565815   0.6623432   0.6271766  )
         8           O   tau(   8) = (   0.7081430   0.1114072   0.4998019  )
         9           O   tau(   9) = (  -0.2130531   0.2410367   1.0728057  )
        10           O   tau(  10) = (   0.6646167   0.5327107   0.0541739  )
        11           O   tau(  11) = (  -0.2016466   1.0501917   0.2431966  )
        12           O   tau(  12) = (   0.6532067  -0.2764417   0.8837830  )
        13           O   tau(  13) = (   0.1571580  -0.0284348   0.6884223  )
        14           O   tau(  14) = (   0.2944040   0.8021830   0.4385585  )
        15           O   tau(  15) = (   0.1267215   0.2886740   0.2991703  )
        16           O   tau(  16) = (   0.3248428   0.4850747   0.8278093  )

   Crystallographic axes

     site n.     atom                  positions (cryst. coord.)
         1           Cr  tau(   1) = (  0.3743690  0.2391060  0.9454110  )
         2           Cr  tau(   2) = (  0.6256310  0.7608920  0.0545880  )
         3           Cr  tau(   3) = (  0.1638310  0.6276310  0.2526830  )
         4           Cr  tau(   4) = (  0.8361710  0.3723690  0.7473170  )
         5           P   tau(   5) = (  0.1662110  0.1846200  0.3883390  )
         6           P   tau(   6) = (  0.8337880  0.8153800  0.6116610  )
         7           O   tau(   7) = (  0.0872380  0.7428340  0.5565110  )
         8           O   tau(   8) = (  0.9127610  0.2571670  0.4434880  )
         9           O   tau(   9) = (  0.2264690  0.5535310  0.9519300  )
        10           O   tau(  10) = (  0.7735320  0.4464680  0.0480700  )
        11           O   tau(  11) = (  0.0638460  0.9259090  0.2157950  )
        12           O   tau(  12) = (  0.9361520  0.0740920  0.7842050  )
        13           O   tau(  13) = (  0.4086950  0.2079820  0.6108560  )
        14           O   tau(  14) = (  0.5913050  0.7920180  0.3891450  )
        15           O   tau(  15) = (  0.2861840  0.3324140  0.2654620  )
        16           O   tau(  16) = (  0.7138180  0.6675860  0.7345380  )

     number of k points=     1  Methfessel-Paxton smearing, width (Ry)=  0.0010
                       cart. coord. in units 2pi/alat
        k(    1) = (   0.0000000   0.0000000   0.0000000), wk =   2.0000000

                       cryst. coord.
        k(    1) = (   0.0000000   0.0000000   0.0000000), wk =   2.0000000

     Check: negative core charge=   -0.000018

     Initial potential from superposition of free atoms

     starting charge     121.9996, renormalised to     126.0000

     negative rho (up, down):  3.115E-03 0.000E+00
     Starting wfcs are   88 randomized atomic wfcs
     Checking if some PAW data can be deallocated...

     Self-consistent Calculation

     iteration #  1     ecut=    30.00 Ry     beta= 0.70
     Davidson diagonalization with overlap

     ethr =  1.00E-02,  avg # of iterations =  2.0

     negative rho (up, down):  9.975E-03 0.000E+00

     total energy              =   -1135.65681711 Ry
     estimated scf accuracy    <      13.52343706 Ry

[...]

     total energy              =   -1146.20884855 Ry
     estimated scf accuracy    <       0.00000112 Ry

     iteration # 54     ecut=    30.00 Ry     beta= 0.70
     Davidson diagonalization with overlap

     ethr =  8.85E-10,  avg # of iterations =  1.0

[...]

     End of self-consistent calculation

          k = 0.0000 0.0000 0.0000 (  1719 PWs)   bands (ev):

   -63.2902 -63.2847 -62.9633 -62.9612 -34.7324 -34.6669 -34.6564 -34.6428
   -34.5159 -34.5136 -34.4529 -34.4414 -34.3004 -34.2999 -34.1396 -34.1172
   -14.0174 -13.6231 -11.5806 -11.5321 -11.4643 -11.4376 -11.1162 -11.0994
   -10.5281 -10.0232  -1.5582  -1.2210   0.7274   0.8646   0.8854   1.0672
     1.1575   1.2730   2.2532   2.7695   3.0417   3.1947   3.3773   3.4606
     3.6153   3.6643   3.8260   3.8734   3.9926   4.2566   4.4235   4.7483
     4.9528   5.2634   5.3594   5.5513   5.7292   5.7864   5.9465   6.0110
     8.6240   8.6968   8.9526   9.0142   9.0799   9.1097   9.2136   9.2236
     9.2432   9.2805   9.4095   9.4235   9.7275  10.1248  10.2272  10.3416
    10.6894  10.8281  11.3263  11.4203

     occupation numbers
     1.0000   1.0000   1.0000   1.0000   1.0000   1.0000   1.0000   1.0000
     1.0000   1.0000   1.0000   1.0000   1.0000   1.0000   1.0000   1.0000
     1.0000   1.0000   1.0000   1.0000   1.0000   1.0000   1.0000   1.0000
     1.0000   1.0000   1.0000   1.0000   1.0000   1.0000   1.0000   1.0000
     1.0000   1.0000   1.0000   1.0000   1.0000   1.0000   1.0000   1.0000
     1.0000   1.0000   1.0000   1.0000   1.0000   1.0000   1.0000   1.0000
     1.0000   1.0000   1.0000   1.0000   1.0000   1.0000   1.0000   1.0000
     1.0000   1.0000   1.0000   1.0000   1.0000   1.0000   0.7972   0.2174
    -0.0146  -0.0000  -0.0000  -0.0000  -0.0000  -0.0000  -0.0000  -0.0000
    -0.0000  -0.0000  -0.0000  -0.0000

     the Fermi energy is     9.2187 ev

!    total energy              =   -1146.20884838 Ry
     estimated scf accuracy    <       0.00000025 Ry
     smearing contrib. (-TS)   =      -0.00029710 Ry
     internal energy E=F+TS    =   -1146.20855127 Ry

     The total energy is F=E-TS. E is the sum of the following terms:
     one-electron contribution =    -564.01760279 Ry
     hartree contribution      =     341.24907088 Ry
     xc contribution           =    -172.93629003 Ry
     ewald contribution        =    -655.33807592 Ry
     one-center paw contrib.   =     -95.16565342 Ry
      -> PAW hartree energy AE =     306.48431162 Ry
      -> PAW hartree energy PS =    -305.39197259 Ry
      -> PAW xc energy AE      =    -173.23030602 Ry
      -> PAW xc energy PS      =      76.97231357 Ry
      -> total E_H with PAW    =     342.34140991 Ry
      -> total E_XC with PAW   =    -269.19428247 Ry

     convergence has been achieved in  54 iterations

     negative rho (up, down):  2.619E-03 0.000E+00

     Forces acting on atoms (cartesian axes, Ry/au):

     atom    1 type  1   force =    -0.01571140    0.10274591    0.01041439
     atom    2 type  1   force =     0.01571140   -0.10274591   -0.01041439
     atom    3 type  1   force =    -0.01430514   -0.01491306   -0.05166696
     atom    4 type  1   force =     0.01430514    0.01491306    0.05166696
     atom    5 type  2   force =    -0.01343851   -0.01006712   -0.01116546
     atom    6 type  2   force =     0.01343851    0.01006712    0.01116546
     atom    7 type  3   force =     0.01080874   -0.00070129   -0.02037960
     atom    8 type  3   force =    -0.01080874    0.00070129    0.02037960
     atom    9 type  3   force =     0.01798032   -0.00621952    0.00149334
     atom   10 type  3   force =    -0.01798032    0.00621952   -0.00149334
     atom   11 type  3   force =    -0.03510866    0.00198407   -0.00935703
     atom   12 type  3   force =     0.03510866   -0.00198407    0.00935703
     atom   13 type  3   force =     0.01042960   -0.00964515    0.03618585
     atom   14 type  3   force =    -0.01042960    0.00964515   -0.03618585
     atom   15 type  3   force =     0.01891646    0.03541119   -0.02806903
     atom   16 type  3   force =    -0.01891646   -0.03541119    0.02806903
     The non-local contrib.  to forces
     atom    1 type  1   force =     0.09431658   -0.12920320    0.03038467
     atom    2 type  1   force =    -0.09431658    0.12920320   -0.03038467
     atom    3 type  1   force =     0.01824832   -0.01473188   -0.03082627
     atom    4 type  1   force =    -0.01824832    0.01473188    0.03082627
     atom    5 type  2   force =     0.08809933   -0.01248139   -0.03091471
     atom    6 type  2   force =    -0.08809933    0.01248139    0.03091471
     atom    7 type  3   force =    -1.56238060    0.44931431   -0.17332920
     atom    8 type  3   force =     1.56238060   -0.44931431    0.17332920
     atom    9 type  3   force =    -0.07984722   -0.37856271    0.36153707
     atom   10 type  3   force =     0.07984722    0.37856271   -0.36153707
     atom   11 type  3   force =    -0.32167149    0.77948666    1.03372335
     atom   12 type  3   force =     0.32167149   -0.77948666   -1.03372335
     atom   13 type  3   force =    -0.71453371    0.57153078   -0.86680262
     atom   14 type  3   force =     0.71453371   -0.57153078    0.86680262
     atom   15 type  3   force =    -0.76180118   -1.01381414    0.36892917
     atom   16 type  3   force =     0.76180118    1.01381414   -0.36892917
     The ionic contribution  to forces
     atom    1 type  1   force =     5.48207143  -19.41544004    2.15346065
     atom    2 type  1   force =    -5.48206718   19.41536695   -2.15340227
     atom    3 type  1   force =    -0.18368329   -0.33589612   14.29919901
     atom    4 type  1   force =     0.18352720    0.33605125  -14.29923116
     atom    5 type  2   force =     0.53249643    0.29749842   -1.11326589
     atom    6 type  2   force =    -0.53244383   -0.29745801    1.11332250
     atom    7 type  3   force =     4.07140532   -1.86371272    6.22105654
     atom    8 type  3   force =    -4.07139892    1.86372651   -6.22111909
     atom    9 type  3   force =     2.85477176    6.98014192   -5.30683141
     atom   10 type  3   force =    -2.85476846   -6.98015834    5.30687487
     atom   11 type  3   force =     3.04193961    5.50148876   -1.77485728
     atom   12 type  3   force =    -3.04192289   -5.50163006    1.77485156
     atom   13 type  3   force =     0.46922815   -3.44505541   -4.13155062
     atom   14 type  3   force =    -0.46918675    3.44515704    4.13142228
     atom   15 type  3   force =     3.37301148   -3.75704457    3.03060401
     atom   16 type  3   force =    -3.37298004    3.75696442   -3.03053371
     The local contribution  to forces
     atom    1 type  1   force =    -5.58708544   19.64200631   -2.16940167
     atom    2 type  1   force =     5.58706068  -19.64197346    2.16943804
     atom    3 type  1   force =     0.15096846    0.33446639  -14.32266780
     atom    4 type  1   force =    -0.15083239   -0.33466238   14.32281941
     atom    5 type  2   force =    -0.62719364   -0.29617842    1.13116536
     atom    6 type  2   force =     0.62717907    0.29612915   -1.13126515
     atom    7 type  3   force =    -2.51169759    1.41779781   -6.07024810
     atom    8 type  3   force =     2.51181217   -1.41775160    6.07022739
     atom    9 type  3   force =    -2.75691248   -6.61184337    4.95051369
     atom   10 type  3   force =     2.75693460    6.61186699   -4.95036816
     atom   11 type  3   force =    -2.75861093   -6.27250581    0.74114862
     atom   12 type  3   force =     2.75865225    6.27253160   -0.74111214
     atom   13 type  3   force =     0.24908725    2.86915822    5.02744037
     atom   14 type  3   force =    -0.24921389   -2.86935266   -5.02731640
     atom   15 type  3   force =    -2.59901049    4.79717475   -3.42510446
     atom   16 type  3   force =     2.59896651   -4.79700065    3.42494135
     The core correction contribution to forces
     atom    1 type  1   force =    -0.00491889    0.00515902   -0.00392922
     atom    2 type  1   force =     0.00491999   -0.00515774    0.00393102
     atom    3 type  1   force =     0.00018854    0.00131594    0.00261158
     atom    4 type  1   force =    -0.00018911   -0.00131580   -0.00261153
     atom    5 type  2   force =    -0.00682687    0.00103506    0.00176555
     atom    6 type  2   force =     0.00682633   -0.00103639   -0.00176673
     atom    7 type  3   force =     0.01347280   -0.00398251    0.00229329
     atom    8 type  3   force =    -0.01347250    0.00398282   -0.00229310
     atom    9 type  3   force =     0.00038466    0.00411892   -0.00362542
     atom   10 type  3   force =    -0.00038467   -0.00411891    0.00362542
     atom   11 type  3   force =     0.00312708   -0.00637565   -0.00947689
     atom   12 type  3   force =    -0.00312716    0.00637544    0.00947692
     atom   13 type  3   force =     0.00644337   -0.00542499    0.00718196
     atom   14 type  3   force =    -0.00644307    0.00542488   -0.00718203
     atom   15 type  3   force =     0.00684845    0.00895157   -0.00272489
     atom   16 type  3   force =    -0.00684830   -0.00895154    0.00272462
     The Hubbard contrib.    to forces
     atom    1 type  1   force =     0.00000000    0.00000000    0.00000000
     atom    2 type  1   force =     0.00000000    0.00000000    0.00000000
     atom    3 type  1   force =     0.00000000    0.00000000    0.00000000
     atom    4 type  1   force =     0.00000000    0.00000000    0.00000000
     atom    5 type  2   force =     0.00000000    0.00000000    0.00000000
     atom    6 type  2   force =     0.00000000    0.00000000    0.00000000
     atom    7 type  3   force =     0.00000000    0.00000000    0.00000000
     atom    8 type  3   force =     0.00000000    0.00000000    0.00000000
     atom    9 type  3   force =     0.00000000    0.00000000    0.00000000
     atom   10 type  3   force =     0.00000000    0.00000000    0.00000000
     atom   11 type  3   force =     0.00000000    0.00000000    0.00000000
     atom   12 type  3   force =     0.00000000    0.00000000    0.00000000
     atom   13 type  3   force =     0.00000000    0.00000000    0.00000000
     atom   14 type  3   force =     0.00000000    0.00000000    0.00000000
     atom   15 type  3   force =     0.00000000    0.00000000    0.00000000
     atom   16 type  3   force =     0.00000000    0.00000000    0.00000000
     The SCF correction term to forces
     atom    1 type  1   force =    -0.00009259    0.00022945   -0.00008660
     atom    2 type  1   force =     0.00011698   -0.00017923    0.00001694
     atom    3 type  1   force =    -0.00002655   -0.00007125    0.00001959
     atom    4 type  1   force =     0.00004838    0.00010424   -0.00013297
     atom    5 type  2   force =    -0.00001070    0.00005492    0.00007887
     atom    6 type  2   force =    -0.00002068   -0.00005330   -0.00004524
     atom    7 type  3   force =     0.00001626   -0.00010539   -0.00014630
     atom    8 type  3   force =    -0.00012262    0.00007066    0.00024102
     atom    9 type  3   force =    -0.00041901   -0.00007566   -0.00009938
     atom   10 type  3   force =     0.00038839    0.00006570   -0.00008719
     atom   11 type  3   force =     0.00010737   -0.00012075    0.00010513
     atom   12 type  3   force =    -0.00016473    0.00021476   -0.00013599
     atom   13 type  3   force =     0.00021202    0.00014735   -0.00009017
     atom   14 type  3   force =    -0.00011212   -0.00005224    0.00008074
     atom   15 type  3   force =    -0.00012602    0.00013833    0.00021980
     atom   16 type  3   force =     0.00014999   -0.00024280   -0.00014141

     Total force =     0.202716     Total SCF correction =     0.001021

     Computing stress (Cartesian axis) and pressure

     negative rho (up, down):  2.619E-03 0.000E+00
          total   stress  (Ry/bohr**3)                   (kbar)     P=     -541.16
  -0.00379966  -0.00001486   0.00006350         -558.95       -2.19        9.34
  -0.00001486  -0.00356168  -0.00018895           -2.19     -523.94      -27.80
   0.00006350  -0.00018895  -0.00367493            9.34      -27.80     -540.60

     kinetic stress (kbar)  26619.71    -50.90     51.93
                              -50.90  26983.71   -105.82
                               51.93   -105.82  26761.01

     local   stress (kbar) -25402.97  -3245.45   2161.30
                            -3245.45  -2311.70  -5695.80
                             2161.30  -5695.80 -16956.81

     nonloc. stress (kbar)   6429.04    -28.71    -32.08
                              -28.71   6398.07     -4.09
                              -32.08     -4.09   6382.02

     hartree stress (kbar)  18065.08   1182.21   -869.40
                             1182.21   8152.23   2517.75
                             -869.40   2517.75  14320.77

     exc-cor stress (kbar)  -4434.14      3.72     -0.05
                                3.72  -4443.33     -0.11
                               -0.05     -0.11  -4437.10

     corecor stress (kbar)  -1967.14      1.24      0.92
                                1.24  -1966.91      0.51
                                0.92      0.51  -1965.29

     ewald   stress (kbar) -19868.53   2135.70  -1303.28
                             2135.70 -33336.00   3259.77
                            -1303.28   3259.77 -24645.19

     hubbard stress (kbar)      0.00      0.00      0.00
                                0.00      0.00      0.00
                                0.00      0.00      0.00

     DFT-D   stress (kbar)      0.00      0.00      0.00
                                0.00      0.00      0.00
                                0.00      0.00      0.00

     XDM     stress (kbar)      0.00      0.00      0.00
                                0.00      0.00      0.00
                                0.00      0.00      0.00

     dft-nl  stress (kbar)      0.00      0.00      0.00
                                0.00      0.00      0.00
                                0.00      0.00      0.00

     TS-vdW  stress (kbar)      0.00      0.00      0.00
                                0.00      0.00      0.00
                                0.00      0.00      0.00

[...]

                                0.00      0.00      0.00

     Writing all to output data dir new_calculations/myprefix.save/

     General routines

     Parallel routines

     PAW routines

   This run was terminated on:  16:59:45  20May2023

   JOB DONE.