     Program PWSCF v.7.0 starts on 21May2023 at 20:37:17

     Reading input from espresso_27103.pwi
Warning: card &CELL ignored
Warning: card / ignored

     Current dimensions of program PWSCF are:
     Max number of different atomic species (ntypx) = 10
     Max number of k-points (npk) =  40000
     Max angular momentum in pseudopotentials (lmaxx) =  4
     file O.pbe-n-kjpaw_psl.0.1.UPF: wavefunction(s)  2P renormalized

     gamma-point specific algorithms are used
     Message from routine setup:
     using ibrav=0 with symmetry is DISCOURAGED, use correct ibrav instead

     Subspace diagonalization in iterative solution of the eigenvalue problem:
     a serial algorithm will be used

     Using Slab Decomposition

     bravais-lattice index     =            0
     lattice parameter (alat)  =      11.1119  a.u.
     unit-cell volume          =     958.3106 (a.u.)^3
     number of atoms/cell      =           16
     number of atomic types    =            3
     number of electrons       =       108.00
     number of Kohn-Sham states=           65
     kinetic-energy cutoff     =      30.0000  Ry
     charge density cutoff     =     240.0000  Ry
     scf convergence threshold =      1.0E-06
     mixing beta               =       0.7000
     number of iterations used =            8  plain     mixing
     Exchange-correlation= SLA  PW   PBX  PBC
                           (   1   4   3   4   0   0   0)

     celldm(1)=  11.111873  celldm(2)=   0.000000  celldm(3)=   0.000000
     celldm(4)=   0.000000  celldm(5)=   0.000000  celldm(6)=   0.000000

     crystal axes: (cart. coord. in units of alat)
               a(1) = (   1.000000   0.000000   0.000000 )
               a(2) = (   0.521759   0.853093   0.000000 )
               a(3) = (   0.277761   0.155712   0.818744 )

     reciprocal axes: (cart. coord. in units 2 pi/alat)
               b(1) = (  1.000000 -0.611609 -0.222934 )
               b(2) = (  0.000000  1.172206 -0.222934 )
               b(3) = (  0.000000  0.000000  1.221383 )

     PseudoPot. # 1 for Li read from file:
     /home/pragov/projects/rrg-bengioy-ad/pragov/crystal_structure_design/SSSP/li_pbe_v1.4.uspp.F.UPF
     MD5 check sum: e912e257baa3777c20ea3d68f190483c
     Pseudo is Ultrasoft, Zval =  3.0
     Generated by new atomic code, or converted to UPF format
     Using radial grid of  751 points,  5 beta functions with:
                l(1) =   0
                l(2) =   0
                l(3) =   0
                l(4) =   1
                l(5) =   1
     Q(r) pseudized with 10 coefficients,  rinner =    1.150   1.150   1.150

     PseudoPot. # 2 for Mn read from file:
     /home/pragov/projects/rrg-bengioy-ad/pragov/crystal_structure_design/SSSP/mn_pbe_v1.5.uspp.F.UPF
     MD5 check sum: 82ef2b46521d7a7d9e736dc3972e4928
     Pseudo is Ultrasoft + core correction, Zval = 15.0
     Generated by new atomic code, or converted to UPF format
     Using radial grid of  859 points,  6 beta functions with:
                l(1) =   0
                l(2) =   0
                l(3) =   1
                l(4) =   1
                l(5) =   2
                l(6) =   2
     Q(r) pseudized with  8 coefficients,  rinner =    0.950   0.950   0.950
                                                       0.950   0.950

     PseudoPot. # 3 for O  read from file:
     /home/pragov/projects/rrg-bengioy-ad/pragov/crystal_structure_design/SSSP/O.pbe-n-kjpaw_psl.0.1.UPF
     MD5 check sum: 0234752ac141de4415c5fc33072bef88
     Pseudo is Projector augmented-wave + core cor, Zval =  6.0
     Generated using "atomic" code by A. Dal Corso  v.5.0.99 svn rev. 10869
     Shape of augmentation charge: BESSEL
     Using radial grid of 1095 points,  4 beta functions with:
                l(1) =   0
                l(2) =   0
                l(3) =   1
                l(4) =   1
     Q(r) pseudized with 0 coefficients

     atomic species   valence    mass     pseudopotential
        Li             3.00     6.94000     Li( 1.00)
        Mn            15.00    54.93804     Mn( 1.00)
        O              6.00    15.99900     O ( 1.00)

      2 Sym. Ops., with inversion, found

                                    s                        frac. trans.

      isym =  1     identity

 cryst.   s( 1) = (     1          0          0      )
                  (     0          1          0      )
                  (     0          0          1      )

 cart.    s( 1) = (  1.0000000 -0.0000000  0.0000000 )
                  (  0.0000000  1.0000000 -0.0000000 )
                  (  0.0000000  0.0000000  1.0000000 )

      isym =  2     inversion

 cryst.   s( 2) = (    -1          0          0      )
                  (     0         -1          0      )
                  (     0          0         -1      )

 cart.    s( 2) = ( -1.0000000  0.0000000 -0.0000000 )
                  (  0.0000000 -1.0000000  0.0000000 )
                  (  0.0000000  0.0000000 -1.0000000 )

   Cartesian axes

     site n.     atom                  positions (alat units)
         1           Li  tau(   1) = (   0.5000000   0.0000000   0.0000000  )
         2           Li  tau(   2) = (   0.2608797   0.4265463   0.0000000  )
         3           Li  tau(   3) = (   1.2780384   0.7164635   0.4154341  )
         4           Li  tau(   4) = (   0.5214822   0.2923410   0.4033101  )
         5           Li  tau(   5) = (   0.7608797   0.4265463   0.0000000  )
         6           Mn  tau(   6) = (   0.0000000   0.0000000   0.0000000  )
         7           Mn  tau(   7) = (   0.7816071   0.7151656   0.4093721  )
         8           Mn  tau(   8) = (   1.0179134   0.2936389   0.4093721  )
         9           O   tau(   9) = (   1.0058432   0.8550265   0.6077612  )
        10           O   tau(  10) = (   1.2542250   0.4119592   0.6077612  )
        11           O   tau(  11) = (   1.0146947   0.5688341   0.2303480  )
        12           O   tau(  12) = (   0.2582734   0.1447871   0.2268839  )
        13           O   tau(  13) = (   0.7936774   0.1537780   0.2109830  )
        14           O   tau(  14) = (   0.5452955   0.5968453   0.2109830  )
        15           O   tau(  15) = (   1.5412472   0.8640174   0.5918604  )
        16           O   tau(  16) = (   0.7848258   0.4399704   0.5883963  )

   Crystallographic axes

     site n.     atom                  positions (cryst. coord.)
         1           Li  tau(   1) = (  0.5000000  0.0000000  0.0000000  )
         2           Li  tau(   2) = (  0.0000000  0.5000000  0.0000000  )
         3           Li  tau(   3) = (  0.7472280  0.7472280  0.5074040  )
         4           Li  tau(   4) = (  0.2527720  0.2527720  0.4925960  )
         5           Li  tau(   5) = (  0.5000000  0.5000000  0.0000000  )
         6           Mn  tau(   6) = (  0.0000000  0.0000000  0.0000000  )
         7           Mn  tau(   7) = (  0.2529420  0.7470580  0.5000000  )
         8           Mn  tau(   8) = (  0.7470580  0.2529420  0.5000000  )
         9           O   tau(   9) = (  0.3474100  0.8667760  0.7423090  )
        10           O   tau(  10) = (  0.8667760  0.3474100  0.7423090  )
        11           O   tau(  11) = (  0.6154380  0.6154380  0.2813430  )
        12           O   tau(  12) = (  0.1191400  0.1191400  0.2771120  )
        13           O   tau(  13) = (  0.6525900  0.1332240  0.2576910  )
        14           O   tau(  14) = (  0.1332240  0.6525900  0.2576910  )
        15           O   tau(  15) = (  0.8808600  0.8808600  0.7228880  )
        16           O   tau(  16) = (  0.3845620  0.3845620  0.7186570  )

     number of k points=     1  Methfessel-Paxton smearing, width (Ry)=  0.0010
                       cart. coord. in units 2pi/alat
        k(    1) = (   0.0000000   0.0000000   0.0000000), wk =   2.0000000

                       cryst. coord.
        k(    1) = (   0.0000000   0.0000000   0.0000000), wk =   2.0000000

     Check: negative core charge=   -0.000027

     Initial potential from superposition of free atoms

     starting charge     104.2460, renormalised to     108.0000
     Starting wfcs are   96 randomized atomic wfcs
     Checking if some PAW data can be deallocated...

     Self-consistent Calculation

     iteration #  1     ecut=    30.00 Ry     beta= 0.70
     Davidson diagonalization with overlap

     ethr =  1.00E-02,  avg # of iterations =  3.0

     total energy              =   -1024.38328820 Ry
     estimated scf accuracy    <      21.69336133 Ry

[...]

     ethr =  4.85E-05,  avg # of iterations =  1.0
     Minimization algorithm failed to find Fermi energy: reverting to bisection
     Possible cause: smearing is larger than the electronic band-gap.

[...]

     total energy              =   -1039.50366368 Ry
     estimated scf accuracy    <       0.00001227 Ry

     iteration # 69     ecut=    30.00 Ry     beta= 0.70
     Davidson diagonalization with overlap

     ethr =  2.21E-09,  avg # of iterations =  1.0

     End of self-consistent calculation

          k = 0.0000 0.0000 0.0000 (  1339 PWs)   bands (ev):

   -71.6462 -71.6365 -71.4662 -40.5821 -40.5509 -40.4855 -40.3302 -40.3151
   -40.2204 -40.1947 -40.1698 -39.7925 -36.7129 -36.6977 -35.9258 -35.9102
   -35.5832 -10.9541  -9.9842  -9.8379  -9.7646  -9.4880  -9.2983  -9.2627
    -9.1279   1.9353   2.3204   2.3463   2.6516   2.8410   2.9328   3.1193
     3.5887   3.7145   3.7728   3.9220   4.1056   4.4392   4.9131   5.0412
     5.3345   5.3395   5.4251   5.6803   5.8381   6.2750   6.5470   6.6749
     6.7871   7.5958   8.2333   8.2398   8.2495   8.3567   8.3600   8.3634
     8.5978   8.8326   9.8565  10.4476  10.8709  10.8772  10.9160  11.1195
    13.8416

     occupation numbers
     1.0000   1.0000   1.0000   1.0000   1.0000   1.0000   1.0000   1.0000
     1.0000   1.0000   1.0000   1.0000   1.0000   1.0000   1.0000   1.0000
     1.0000   1.0000   1.0000   1.0000   1.0000   1.0000   1.0000   1.0000
     1.0000   1.0000   1.0000   1.0000   1.0000   1.0000   1.0000   1.0000
     1.0000   1.0000   1.0000   1.0000   1.0000   1.0000   1.0000   1.0000
     1.0000   1.0000   1.0000   1.0000   1.0000   1.0000   1.0000   1.0000
     1.0000   1.0000   1.0000   1.0000   1.0000   0.5246   0.3243   0.1511
    -0.0000  -0.0000  -0.0000  -0.0000  -0.0000  -0.0000  -0.0000  -0.0000
    -0.0000

     the Fermi energy is     8.3571 ev

!    total energy              =   -1039.50366354 Ry
     estimated scf accuracy    <       0.00000061 Ry
     smearing contrib. (-TS)   =      -0.00065675 Ry
     internal energy E=F+TS    =   -1039.50300679 Ry

     The total energy is F=E-TS. E is the sum of the following terms:
     one-electron contribution =    -566.43194894 Ry
     hartree contribution      =     327.28419307 Ry
     xc contribution           =    -155.90108808 Ry
     ewald contribution        =    -568.29802028 Ry
     one-center paw contrib.   =     -76.15614256 Ry
      -> PAW hartree energy AE =     233.82613759 Ry
      -> PAW hartree energy PS =    -232.97843805 Ry
      -> PAW xc energy AE      =    -136.85143586 Ry
      -> PAW xc energy PS      =      59.84759376 Ry
      -> total E_H with PAW    =     328.13189260 Ry
      -> total E_XC with PAW   =    -232.90493018 Ry

     convergence has been achieved in  69 iterations

     Forces acting on atoms (cartesian axes, Ry/au):

     atom    1 type  1   force =     0.00000000    0.00000000    0.00000000
     atom    2 type  1   force =     0.00000000    0.00000000    0.00000000
     atom    3 type  1   force =     0.00046133    0.00026885   -0.00577219
     atom    4 type  1   force =    -0.00046133   -0.00026885    0.00577219
     atom    5 type  1   force =     0.00000000    0.00000000    0.00000000
     atom    6 type  2   force =     0.00000000    0.00000000    0.00000000
     atom    7 type  2   force =     0.00759230   -0.01361784   -0.00001013
     atom    8 type  2   force =    -0.00759230    0.01361784    0.00001013
     atom    9 type  3   force =    -0.01297886    0.00555077    0.04757054
     atom   10 type  3   force =    -0.00204374   -0.01400729    0.04758889
     atom   11 type  3   force =    -0.01708543   -0.00958381    0.04235201
     atom   12 type  3   force =    -0.04398527   -0.02465664   -0.01049381
     atom   13 type  3   force =     0.01297886   -0.00555077   -0.04757054
     atom   14 type  3   force =     0.00204374    0.01400729   -0.04758889
     atom   15 type  3   force =     0.04398527    0.02465664    0.01049381
     atom   16 type  3   force =     0.01708543    0.00958381   -0.04235201
     The non-local contrib.  to forces
     atom    1 type  1   force =     0.00000000    0.00000000    0.00000000
     atom    2 type  1   force =     0.00000000    0.00000000    0.00000000
     atom    3 type  1   force =    -0.00643420   -0.00360879    0.00706702
     atom    4 type  1   force =     0.00643420    0.00360879   -0.00706702
     atom    5 type  1   force =     0.00000000    0.00000000    0.00000000
     atom    6 type  2   force =     0.00000000    0.00000000    0.00000000
     atom    7 type  2   force =     0.01719165   -0.03072400   -0.00002987
     atom    8 type  2   force =    -0.01719165    0.03072400    0.00002987
     atom    9 type  3   force =    -0.67406638    0.10322603    0.02586812
     atom   10 type  3   force =    -0.26368055   -0.62893548    0.02588991
     atom   11 type  3   force =    -0.38459649   -0.21559726    0.47647409
     atom   12 type  3   force =    -0.63083314   -0.35364468    0.13912000
     atom   13 type  3   force =     0.67406638   -0.10322603   -0.02586812
     atom   14 type  3   force =     0.26368055    0.62893548   -0.02588991
     atom   15 type  3   force =     0.63083314    0.35364468   -0.13912000
     atom   16 type  3   force =     0.38459649    0.21559726   -0.47647409
     The ionic contribution  to forces
     atom    1 type  1   force =     0.00000000    0.00000000   -0.00000000
     atom    2 type  1   force =     0.00000000    0.00000000   -0.00000000
     atom    3 type  1   force =    -0.59447496   -0.33326043    0.85441333
     atom    4 type  1   force =     0.59447496    0.33326043   -0.85441333
     atom    5 type  1   force =    -0.00000000    0.00000000   -0.00000000
     atom    6 type  2   force =    -0.00000000   -0.00000000    0.00000000
     atom    7 type  2   force =     2.54149885   -4.53356374    0.00000000
     atom    8 type  2   force =    -2.54149885    4.53356374    0.00000000
     atom    9 type  3   force =    13.34226628    0.39571165    0.59549724
     atom   10 type  3   force =     7.29903230   11.17572300    0.59549724
     atom   11 type  3   force =     7.59191324    4.25599812  -11.03627939
     atom   12 type  3   force =    11.45501504    6.42163851   -8.26837479
     atom   13 type  3   force =   -13.34226628   -0.39571165   -0.59549724
     atom   14 type  3   force =    -7.29903230  -11.17572300   -0.59549724
     atom   15 type  3   force =   -11.45501504   -6.42163851    8.26837479
     atom   16 type  3   force =    -7.59191324   -4.25599812   11.03627938
     The local contribution  to forces
     atom    1 type  1   force =     0.00003389    0.00002017   -0.00003926
     atom    2 type  1   force =    -0.00001799   -0.00001146    0.00003304
     atom    3 type  1   force =     0.60132783    0.33718460   -0.86724383
     atom    4 type  1   force =    -0.60130430   -0.33717490    0.86723293
     atom    5 type  1   force =     0.00001515   -0.00004719    0.00000837
     atom    6 type  2   force =    -0.00015311    0.00017429    0.00004854
     atom    7 type  2   force =    -2.54898067    4.54723490    0.00012156
     atom    8 type  2   force =     2.54885995   -4.54734755   -0.00011283
     atom    9 type  3   force =   -12.68786676   -0.49204848   -0.57379403
     atom   10 type  3   force =    -7.04007349  -10.56738128   -0.57390612
     atom   11 type  3   force =    -7.22841540   -4.05251646   10.60683254
     atom   12 type  3   force =   -10.87516832   -6.09634386    8.11977753
     atom   13 type  3   force =    12.68810722    0.49220942    0.57393256
     atom   14 type  3   force =     7.03980145   10.56724716    0.57376941
     atom   15 type  3   force =    10.87491959    6.09679604   -8.11977783
     atom   16 type  3   force =     7.22868346    4.05201291  -10.60683851
     The core correction contribution to forces
     atom    1 type  1   force =     0.00000000    0.00000000    0.00000000
     atom    2 type  1   force =     0.00000000    0.00000000    0.00000000
     atom    3 type  1   force =     0.00000000    0.00000000    0.00000000
     atom    4 type  1   force =     0.00000000    0.00000000    0.00000000
     atom    5 type  1   force =     0.00000000    0.00000000    0.00000000
     atom    6 type  2   force =     0.00000080   -0.00000161    0.00000056
     atom    7 type  2   force =    -0.00181701    0.00324070    0.00000171
     atom    8 type  2   force =     0.00181627   -0.00324193   -0.00000171
     atom    9 type  3   force =     0.00701489   -0.00143278   -0.00023781
     atom   10 type  3   force =     0.00243839    0.00673240   -0.00023795
     atom   11 type  3   force =     0.00403695    0.00226295   -0.00452408
     atom   12 type  3   force =     0.00707317    0.00396511   -0.00072699
     atom   13 type  3   force =    -0.00701488    0.00143279    0.00023766
     atom   14 type  3   force =    -0.00243831   -0.00673203    0.00023792
     atom   15 type  3   force =    -0.00707301   -0.00396525    0.00072693
     atom   16 type  3   force =    -0.00403680   -0.00226293    0.00452408
     The Hubbard contrib.    to forces
     atom    1 type  1   force =     0.00000000    0.00000000    0.00000000
     atom    2 type  1   force =     0.00000000    0.00000000    0.00000000
     atom    3 type  1   force =     0.00000000    0.00000000    0.00000000
     atom    4 type  1   force =     0.00000000    0.00000000    0.00000000
     atom    5 type  1   force =     0.00000000    0.00000000    0.00000000
     atom    6 type  2   force =     0.00000000    0.00000000    0.00000000
     atom    7 type  2   force =     0.00000000    0.00000000    0.00000000
     atom    8 type  2   force =     0.00000000    0.00000000    0.00000000
     atom    9 type  3   force =     0.00000000    0.00000000    0.00000000
     atom   10 type  3   force =     0.00000000    0.00000000    0.00000000
     atom   11 type  3   force =     0.00000000    0.00000000    0.00000000
     atom   12 type  3   force =     0.00000000    0.00000000    0.00000000
     atom   13 type  3   force =     0.00000000    0.00000000    0.00000000
     atom   14 type  3   force =     0.00000000    0.00000000    0.00000000
     atom   15 type  3   force =     0.00000000    0.00000000    0.00000000
     atom   16 type  3   force =     0.00000000    0.00000000    0.00000000
     The SCF correction term to forces
     atom    1 type  1   force =    -0.00002809   -0.00001698    0.00003115
     atom    2 type  1   force =     0.00001301    0.00000848   -0.00002622
     atom    3 type  1   force =     0.00004376   -0.00004624   -0.00000857
     atom    4 type  1   force =    -0.00006509    0.00003711    0.00001974
     atom    5 type  1   force =    -0.00001079    0.00003907   -0.00000829
     atom    6 type  2   force =     0.00015545   -0.00017225   -0.00004177
     atom    7 type  2   force =    -0.00030080    0.00018721   -0.00010694
     atom    8 type  2   force =     0.00042168   -0.00008753    0.00009140
     atom    9 type  3   force =    -0.00032519    0.00009468    0.00023174
     atom   10 type  3   force =     0.00023866   -0.00014035    0.00034686
     atom   11 type  3   force =    -0.00002045    0.00026846   -0.00015212
     atom   12 type  3   force =    -0.00006745   -0.00027578   -0.00029023
     atom   13 type  3   force =     0.00008813   -0.00025498   -0.00038067
     atom   14 type  3   force =     0.00003140    0.00028527   -0.00020805
     atom   15 type  3   force =     0.00032516   -0.00018438    0.00028924
     atom   16 type  3   force =    -0.00024120    0.00023431    0.00015616

     Total force =     0.141663     Total SCF correction =     0.001316

     Computing stress (Cartesian axis) and pressure

          total   stress  (Ry/bohr**3)                   (kbar)     P=     -576.86
  -0.00359830   0.00016782  -0.00004796         -529.33       24.69       -7.05
   0.00016782  -0.00380308  -0.00002682           24.69     -559.45       -3.95
  -0.00004796  -0.00002682  -0.00436279           -7.05       -3.95     -641.79

     kinetic stress (kbar)  28738.38    184.16   -140.11
                              184.16  28512.92    -78.57
                             -140.11    -78.57  28633.81

     local   stress (kbar)  -4533.28  17323.55 -11296.69
                            17323.55 -25722.98  -6332.92
                           -11296.69  -6332.92 -24814.97

     nonloc. stress (kbar)   8962.52     60.00     30.94
                               60.00   8888.92     17.34
                               30.94     17.34   9019.45

     hartree stress (kbar)  10643.84  -7659.78   5252.54
                            -7659.78  20013.10   2944.64
                             5252.54   2944.64  19582.69

     exc-cor stress (kbar)  -5303.40     -3.42     -1.87
                               -3.42  -5299.22     -1.05
                               -1.87     -1.05  -5297.56

     corecor stress (kbar)  -2172.96     -1.85     -0.17
                               -1.85  -2170.70     -0.09
                               -0.17     -0.09  -2174.77

     ewald   stress (kbar) -36864.42  -9877.98   6148.30
                            -9877.98 -24781.50   3446.72
                             6148.30   3446.72 -25590.44

     hubbard stress (kbar)      0.00      0.00      0.00
                                0.00      0.00      0.00
                                0.00      0.00      0.00

     DFT-D   stress (kbar)      0.00      0.00      0.00
                                0.00      0.00      0.00
                                0.00      0.00      0.00

     XDM     stress (kbar)      0.00      0.00      0.00
                                0.00      0.00      0.00
                                0.00      0.00      0.00

     dft-nl  stress (kbar)      0.00      0.00      0.00
                                0.00      0.00      0.00
                                0.00      0.00      0.00

     TS-vdW  stress (kbar)      0.00      0.00      0.00
                                0.00      0.00      0.00
                                0.00      0.00      0.00

[...]

                                0.00      0.00      0.00

     Writing all to output data dir new_calculations/myprefix.save/

     General routines

     Parallel routines

     PAW routines

   This run was terminated on:  20:38:16  21May2023

   JOB DONE.