     Program PWSCF v.7.0 starts on 20May2023 at 10:15:49

     Reading input from espresso_19225.pwi
Warning: card &CELL ignored
Warning: card / ignored

     Current dimensions of program PWSCF are:
     Max number of different atomic species (ntypx) = 10
     Max number of k-points (npk) =  40000
     Max angular momentum in pseudopotentials (lmaxx) =  4
     file Ga.pbe-dn-kjpaw_psl.1.0.0.UPF: wavefunction(s)  4S renormalized

     gamma-point specific algorithms are used
     Message from routine setup:
     using ibrav=0 with symmetry is DISCOURAGED, use correct ibrav instead

     Subspace diagonalization in iterative solution of the eigenvalue problem:
     a serial algorithm will be used

     Using Slab Decomposition

     bravais-lattice index     =            0
     lattice parameter (alat)  =       9.0015  a.u.
     unit-cell volume          =     936.4339 (a.u.)^3
     number of atoms/cell      =           12
     number of atomic types    =            3
     number of electrons       =        40.00
     number of Kohn-Sham states=           24
     kinetic-energy cutoff     =      30.0000  Ry
     charge density cutoff     =     240.0000  Ry
     scf convergence threshold =      1.0E-06
     mixing beta               =       0.7000
     number of iterations used =            8  plain     mixing
     Exchange-correlation= PBE
                           (   1   4   3   4   0   0   0)

     celldm(1)=   9.001455  celldm(2)=   0.000000  celldm(3)=   0.000000
     celldm(4)=   0.000000  celldm(5)=   0.000000  celldm(6)=   0.000000

     crystal axes: (cart. coord. in units of alat)
               a(1) = (   1.000000   0.000000   0.000000 )
               a(2) = (  -0.078886   0.996884   0.000000 )
               a(3) = (   0.000000   0.000000   1.287937 )

     reciprocal axes: (cart. coord. in units 2 pi/alat)
               b(1) = (  1.000000  0.079132  0.000000 )
               b(2) = (  0.000000  1.003126  0.000000 )
               b(3) = (  0.000000  0.000000  0.776436 )

     PseudoPot. # 1 for Li read from file:
     /home/pragov/projects/rrg-bengioy-ad/pragov/crystal_structure_design/SSSP/li_pbe_v1.4.uspp.F.UPF
     MD5 check sum: e912e257baa3777c20ea3d68f190483c
     Pseudo is Ultrasoft, Zval =  3.0
     Generated by new atomic code, or converted to UPF format
     Using radial grid of  751 points,  5 beta functions with:
                l(1) =   0
                l(2) =   0
                l(3) =   0
                l(4) =   1
                l(5) =   1
     Q(r) pseudized with 10 coefficients,  rinner =    1.150   1.150   1.150

     PseudoPot. # 2 for Ga read from file:
     /home/pragov/projects/rrg-bengioy-ad/pragov/crystal_structure_design/SSSP/Ga.pbe-dn-kjpaw_psl.1.0.0.UPF
     MD5 check sum: a27b4342b1af7e5f338de752e9ed7044
     Pseudo is Projector augmented-wave + core cor, Zval = 13.0
     Generated using "atomic" code by A. Dal Corso  v.5.1
     Shape of augmentation charge: PSQ
     Using radial grid of 1205 points,  6 beta functions with:
                l(1) =   0
                l(2) =   0
                l(3) =   1
                l(4) =   1
                l(5) =   2
                l(6) =   2
     Q(r) pseudized with 0 coefficients

     PseudoPot. # 3 for H  read from file:
     /home/pragov/projects/rrg-bengioy-ad/pragov/crystal_structure_design/SSSP/H.pbe-rrkjus_psl.1.0.0.UPF
     MD5 check sum: f52b6d4d1c606e5624b1dc7b2218f220
     Pseudo is Ultrasoft, Zval =  1.0
     Generated using "atomic" code by A. Dal Corso  v.5.1
     Using radial grid of  929 points,  2 beta functions with:
                l(1) =   0
                l(2) =   0
     Q(r) pseudized with 0 coefficients

     atomic species   valence    mass     pseudopotential
        Li             3.00     6.94000     Li( 1.00)
        Ga            13.00    69.72300     Ga( 1.00)
        H              1.00     1.00800     H ( 1.00)

      4 Sym. Ops., with inversion, found ( 2 have fractional translation)

                                    s                        frac. trans.

      isym =  1     identity

 cryst.   s( 1) = (     1          0          0      )
                  (     0          1          0      )
                  (     0          0          1      )

 cart.    s( 1) = (  1.0000000  0.0000000  0.0000000 )
                  (  0.0000000  1.0000000  0.0000000 )
                  (  0.0000000  0.0000000  1.0000000 )

      isym =  2     180 deg rotation - cart. axis [0,0,1]

 cryst.   s( 2) = (    -1          0          0      )    f =( -0.0000000 )
                  (     0         -1          0      )       (  0.0000000 )
                  (     0          0          1      )       ( -0.5000000 )

 cart.    s( 2) = ( -1.0000000 -0.0000000  0.0000000 )    f =( -0.0000000 )
                  (  0.0000000 -1.0000000  0.0000000 )       (  0.0000000 )
                  (  0.0000000  0.0000000  1.0000000 )       ( -0.6439683 )

      isym =  3     inversion

 cryst.   s( 3) = (    -1          0          0      )
                  (     0         -1          0      )
                  (     0          0         -1      )

 cart.    s( 3) = ( -1.0000000 -0.0000000  0.0000000 )
                  (  0.0000000 -1.0000000  0.0000000 )
                  (  0.0000000  0.0000000 -1.0000000 )

      isym =  4     inv. 180 deg rotation - cart. axis [0,0,1]

 cryst.   s( 4) = (     1          0          0      )    f =(  0.0000000 )
                  (     0          1          0      )       (  0.0000000 )
                  (     0          0         -1      )       ( -0.5000000 )

 cart.    s( 4) = (  1.0000000  0.0000000  0.0000000 )    f =(  0.0000000 )
                  (  0.0000000  1.0000000  0.0000000 )       (  0.0000000 )
                  (  0.0000000  0.0000000 -1.0000000 )       ( -0.6439683 )

   Cartesian axes

     site n.     atom                  positions (alat units)
         1           Li  tau(   1) = (   0.5432397   0.4220437   0.9659524  )
         2           Li  tau(   2) = (   0.3778745   0.5748400   0.3219841  )
         3           Ga  tau(   3) = (   0.1149943   0.8177397   0.9659524  )
         4           Ga  tau(   4) = (   0.8061199   0.1791440   0.3219841  )
         5           H   tau(   5) = (   0.2740695   0.6707552   0.7043712  )
         6           H   tau(   6) = (   0.6470447   0.3261285   0.5835654  )
         7           H   tau(   7) = (   0.2740695   0.6707552   1.2275337  )
         8           H   tau(   8) = (   0.6470447   0.3261285   0.0604029  )
         9           H   tau(   9) = (   0.7904358   0.7463219   0.9659524  )
        10           H   tau(  10) = (   0.6816420   0.8468467   0.3219841  )
        11           H   tau(  11) = (   0.1306784   0.2505617   0.3219841  )
        12           H   tau(  12) = (   0.2394722   0.1500370   0.9659524  )

   Crystallographic axes

     site n.     atom                  positions (cryst. coord.)
         1           Li  tau(   1) = (  0.5766370  0.4233630  0.7500000  )
         2           Li  tau(   2) = (  0.4233630  0.5766370  0.2500000  )
         3           Ga  tau(   3) = (  0.1797040  0.8202960  0.7500000  )
         4           Ga  tau(   4) = (  0.8202960  0.1797040  0.2500000  )
         5           H   tau(   5) = (  0.3271480  0.6728520  0.5468990  )
         6           H   tau(   6) = (  0.6728520  0.3271480  0.4531010  )
         7           H   tau(   7) = (  0.3271480  0.6728520  0.9531010  )
         8           H   tau(   8) = (  0.6728520  0.3271480  0.0468990  )
         9           H   tau(   9) = (  0.8494940  0.7486550  0.7500000  )
        10           H   tau(  10) = (  0.7486550  0.8494940  0.2500000  )
        11           H   tau(  11) = (  0.1505060  0.2513450  0.2500000  )
        12           H   tau(  12) = (  0.2513450  0.1505060  0.7500000  )

     number of k points=     1  Methfessel-Paxton smearing, width (Ry)=  0.0010
                       cart. coord. in units 2pi/alat
        k(    1) = (   0.0000000   0.0000000   0.0000000), wk =   2.0000000

                       cryst. coord.
        k(    1) = (   0.0000000   0.0000000   0.0000000), wk =   2.0000000

     Check: negative core charge=   -0.000002

     Initial potential from superposition of free atoms

     starting charge      39.0925, renormalised to      40.0000
     Starting wfcs are   36 randomized atomic wfcs
     Checking if some PAW data can be deallocated...

     Self-consistent Calculation

     iteration #  1     ecut=    30.00 Ry     beta= 0.70
     Davidson diagonalization with overlap

     ethr =  1.00E-02,  avg # of iterations =  2.0

     total energy              =    -593.52764156 Ry
     estimated scf accuracy    <       1.09952660 Ry

[...]

     total energy              =    -593.87826839 Ry
     estimated scf accuracy    <       0.00000128 Ry

     iteration #  8     ecut=    30.00 Ry     beta= 0.70
     Davidson diagonalization with overlap

     ethr =  3.20E-09,  avg # of iterations =  5.0

     End of self-consistent calculation

          k = 0.0000 0.0000 0.0000 (  1307 PWs)   bands (ev):

   -44.6429 -44.6395 -12.7242 -12.7153 -12.7102 -12.7092 -12.7082 -12.7051
   -12.5813 -12.5788 -12.5772 -12.5761  -7.0070  -5.5944  -2.5591  -1.3186
    -1.1622  -1.0699  -0.9437  -0.2726   4.4727   5.4910   5.6472   6.0389

     occupation numbers
     1.0000   1.0000   1.0000   1.0000   1.0000   1.0000   1.0000   1.0000
     1.0000   1.0000   1.0000   1.0000   1.0000   1.0000   1.0000   1.0000
     1.0000   1.0000   1.0000   1.0000  -0.0000  -0.0000  -0.0000  -0.0000

     the Fermi energy is    -0.1943 ev

!    total energy              =    -593.87826947 Ry
     estimated scf accuracy    <       0.00000010 Ry
     smearing contrib. (-TS)   =       0.00000000 Ry
     internal energy E=F+TS    =    -593.87826947 Ry

     The total energy is F=E-TS. E is the sum of the following terms:
     one-electron contribution =    -304.45716929 Ry
     hartree contribution      =     173.23308691 Ry
     xc contribution           =     -88.70274717 Ry
     ewald contribution        =    -152.10852973 Ry
     one-center paw contrib.   =    -221.84291020 Ry
      -> PAW hartree energy AE =     288.14255921 Ry
      -> PAW hartree energy PS =    -283.67520727 Ry
      -> PAW xc energy AE      =    -302.02215832 Ry
      -> PAW xc energy PS      =      75.71189618 Ry
      -> total E_H with PAW    =     177.70043885 Ry
      -> total E_XC with PAW   =    -315.01300931 Ry

     convergence has been achieved in   8 iterations

     Forces acting on atoms (cartesian axes, Ry/au):

     atom    1 type  1   force =     0.00365748   -0.00335095    0.00000000
     atom    2 type  1   force =    -0.00365748    0.00335095   -0.00000000
     atom    3 type  2   force =    -0.02769559    0.02564734    0.00000000
     atom    4 type  2   force =     0.02769559   -0.02564734    0.00000000
     atom    5 type  3   force =     0.00477469   -0.00441277   -0.01491809
     atom    6 type  3   force =    -0.00477469    0.00441277    0.01491809
     atom    7 type  3   force =     0.00477469   -0.00441277    0.01491809
     atom    8 type  3   force =    -0.00477469    0.00441277   -0.01491809
     atom    9 type  3   force =     0.01489828   -0.01099372    0.00000000
     atom   10 type  3   force =    -0.01212970    0.01398578   -0.00000000
     atom   11 type  3   force =    -0.01489828    0.01099372    0.00000000
     atom   12 type  3   force =     0.01212970   -0.01398578   -0.00000000
     The non-local contrib.  to forces
     atom    1 type  1   force =    -0.00519338    0.00482285    0.00000000
     atom    2 type  1   force =     0.00519338   -0.00482285    0.00000000
     atom    3 type  2   force =     0.20133418   -0.18596612   -0.00000000
     atom    4 type  2   force =    -0.20133418    0.18596612   -0.00000000
     atom    5 type  3   force =    -0.00809713    0.00748133    0.01560215
     atom    6 type  3   force =     0.00809713   -0.00748133   -0.01560215
     atom    7 type  3   force =    -0.00809713    0.00748133   -0.01560215
     atom    8 type  3   force =     0.00809713   -0.00748133    0.01560215
     atom    9 type  3   force =     0.02446248    0.00050683    0.00000000
     atom   10 type  3   force =    -0.00142397    0.02442619    0.00000000
     atom   11 type  3   force =    -0.02446248   -0.00050683    0.00000000
     atom   12 type  3   force =     0.00142397   -0.02442619    0.00000000
     The ionic contribution  to forces
     atom    1 type  1   force =     0.63885941   -0.59030206    0.00000000
     atom    2 type  1   force =    -0.63885941    0.59030206   -0.00000000
     atom    3 type  2   force =    -0.45625034    0.42157243    0.00000000
     atom    4 type  2   force =     0.45625034   -0.42157243   -0.00000000
     atom    5 type  3   force =     0.84296407   -0.77889347   -1.56789089
     atom    6 type  3   force =    -0.84296407    0.77889347    1.56789089
     atom    7 type  3   force =     0.84296407   -0.77889347    1.56789089
     atom    8 type  3   force =    -0.84296407    0.77889347   -1.56789089
     atom    9 type  3   force =    -2.01048647   -0.34650602   -0.00000000
     atom   10 type  3   force =    -0.18682736   -2.03155552    0.00000000
     atom   11 type  3   force =     2.01048647    0.34650602   -0.00000000
     atom   12 type  3   force =     0.18682736    2.03155552    0.00000000
     The local contribution  to forces
     atom    1 type  1   force =    -0.63001198    0.58215302    0.00004328
     atom    2 type  1   force =     0.63002847   -0.58213152   -0.00003766
     atom    3 type  2   force =     0.22963291   -0.21253461    0.00002796
     atom    4 type  2   force =    -0.23050842    0.21282780   -0.00013108
     atom    5 type  3   force =    -0.83009483    0.76699887    1.53740621
     atom    6 type  3   force =     0.83008179   -0.76697672   -1.53733941
     atom    7 type  3   force =    -0.83009135    0.76699992   -1.53739162
     atom    8 type  3   force =     0.83007028   -0.76696561    1.53731330
     atom    9 type  3   force =     2.00091694    0.33498780    0.00001913
     atom   10 type  3   force =     0.17611222    2.02108729   -0.00001318
     atom   11 type  3   force =    -2.00091291   -0.33499935   -0.00000806
     atom   12 type  3   force =    -0.17611896   -2.02111650    0.00001988
     The core correction contribution to forces
     atom    1 type  1   force =     0.00000000    0.00000000    0.00000000
     atom    2 type  1   force =     0.00000000    0.00000000    0.00000000
     atom    3 type  2   force =    -0.00286013    0.00263419   -0.00000359
     atom    4 type  2   force =     0.00283389   -0.00262363   -0.00000192
     atom    5 type  3   force =     0.00000000    0.00000000    0.00000000
     atom    6 type  3   force =     0.00000000    0.00000000    0.00000000
     atom    7 type  3   force =     0.00000000    0.00000000    0.00000000
     atom    8 type  3   force =     0.00000000    0.00000000    0.00000000
     atom    9 type  3   force =     0.00000000    0.00000000    0.00000000
     atom   10 type  3   force =     0.00000000    0.00000000    0.00000000
     atom   11 type  3   force =     0.00000000    0.00000000    0.00000000
     atom   12 type  3   force =     0.00000000    0.00000000    0.00000000
     The Hubbard contrib.    to forces
     atom    1 type  1   force =     0.00000000    0.00000000    0.00000000
     atom    2 type  1   force =     0.00000000    0.00000000    0.00000000
     atom    3 type  2   force =     0.00000000    0.00000000    0.00000000
     atom    4 type  2   force =     0.00000000    0.00000000    0.00000000
     atom    5 type  3   force =     0.00000000    0.00000000    0.00000000
     atom    6 type  3   force =     0.00000000    0.00000000    0.00000000
     atom    7 type  3   force =     0.00000000    0.00000000    0.00000000
     atom    8 type  3   force =     0.00000000    0.00000000    0.00000000
     atom    9 type  3   force =     0.00000000    0.00000000    0.00000000
     atom   10 type  3   force =     0.00000000    0.00000000    0.00000000
     atom   11 type  3   force =     0.00000000    0.00000000    0.00000000
     atom   12 type  3   force =     0.00000000    0.00000000    0.00000000
     The SCF correction term to forces
     atom    1 type  1   force =    -0.00000722   -0.00003636   -0.00007992
     atom    2 type  1   force =    -0.00003056   -0.00000833    0.00005273
     atom    3 type  2   force =     0.00075434   -0.00010642   -0.00005034
     atom    4 type  2   force =     0.00076049   -0.00029307    0.00023109
     atom    5 type  3   force =    -0.00000166    0.00000683   -0.00002332
     atom    6 type  3   force =     0.00001002   -0.00002159   -0.00002944
     atom    7 type  3   force =    -0.00000649    0.00000307    0.00001745
     atom    8 type  3   force =     0.00001259   -0.00002488    0.00004341
     atom    9 type  3   force =     0.00000107    0.00001482   -0.00001151
     atom   10 type  3   force =     0.00000682    0.00002369    0.00001007
     atom   11 type  3   force =    -0.00001362   -0.00000898    0.00000880
     atom   12 type  3   force =    -0.00000525   -0.00000273   -0.00001533

     Total force =     0.073002     Total SCF correction =     0.001148

     Computing stress (Cartesian axis) and pressure

          total   stress  (Ry/bohr**3)                   (kbar)     P=       28.67
   0.00034599  -0.00014108   0.00000000           50.90      -20.75        0.00
  -0.00014108   0.00032366   0.00000000          -20.75       47.61        0.00
   0.00000000   0.00000000  -0.00008489            0.00        0.00      -12.49

     kinetic stress (kbar)   4729.98     -8.32      0.00
                               -8.32   4728.67      0.00
                                0.00      0.00   4706.05

     local   stress (kbar)  -3766.43    947.12     -0.01
                              947.12  -3616.55     -0.00
                               -0.01     -0.00  -2517.57

     nonloc. stress (kbar)    586.15     -5.09      0.00
                               -5.09    585.33      0.00
                                0.00      0.00    578.08

     hartree stress (kbar)   9229.53   -383.91      0.01
                             -383.91   9168.79     -0.00
                                0.01     -0.00   8814.99

     exc-cor stress (kbar)   1478.68     -0.02     -0.00
                               -0.02   1478.68      0.00
                               -0.00      0.00   1477.44

     corecor stress (kbar)  -4560.49      0.23      0.00
                                0.23  -4560.45     -0.00
                                0.00     -0.00  -4560.02

     ewald   stress (kbar)  -7646.53   -570.77     -0.00
                             -570.77  -7736.86      0.00
                               -0.00      0.00  -8511.46

     hubbard stress (kbar)      0.00      0.00      0.00
                                0.00      0.00      0.00
                                0.00      0.00      0.00

     DFT-D   stress (kbar)      0.00      0.00      0.00
                                0.00      0.00      0.00
                                0.00      0.00      0.00

     XDM     stress (kbar)      0.00      0.00      0.00
                                0.00      0.00      0.00
                                0.00      0.00      0.00

     dft-nl  stress (kbar)      0.00      0.00      0.00
                                0.00      0.00      0.00
                                0.00      0.00      0.00

     TS-vdW  stress (kbar)      0.00      0.00      0.00
                                0.00      0.00      0.00
                                0.00      0.00      0.00

[...]

                                0.00      0.00      0.00

     Writing all to output data dir new_calculations/myprefix.save/

     General routines

     Parallel routines

     PAW routines

   This run was terminated on:  10:15:58  20May2023

   JOB DONE.