     Program PWSCF v.7.0 starts on 21May2023 at  0: 6:32

     Reading input from espresso_952.pwi
Warning: card &CELL ignored
Warning: card / ignored

     Current dimensions of program PWSCF are:
     Max number of different atomic species (ntypx) = 10
     Max number of k-points (npk) =  40000
     Max angular momentum in pseudopotentials (lmaxx) =  4
     file Mg.pbe-n-kjpaw_psl.0.3.0.UPF: wavefunction(s)  3S renormalized

     gamma-point specific algorithms are used
     Message from routine setup:
     using ibrav=0 with symmetry is DISCOURAGED, use correct ibrav instead

     Subspace diagonalization in iterative solution of the eigenvalue problem:
     a serial algorithm will be used

     Using Slab Decomposition

     bravais-lattice index     =            0
     lattice parameter (alat)  =      10.2511  a.u.
     unit-cell volume          =    1585.0015 (a.u.)^3
     number of atoms/cell      =           20
     number of atomic types    =            3
     number of electrons       =       128.00
     number of Kohn-Sham states=           77
     kinetic-energy cutoff     =      30.0000  Ry
     charge density cutoff     =     240.0000  Ry
     scf convergence threshold =      1.0E-06
     mixing beta               =       0.7000
     number of iterations used =            8  plain     mixing
     Exchange-correlation=  SLA  PW   PBX  PBC
                           (   1   4   3   4   0   0   0)

     celldm(1)=  10.251116  celldm(2)=   0.000000  celldm(3)=   0.000000
     celldm(4)=   0.000000  celldm(5)=   0.000000  celldm(6)=   0.000000

     crystal axes: (cart. coord. in units of alat)
               a(1) = (   1.000000   0.000000   0.000000 )
               a(2) = (   0.000000   1.027481   0.000000 )
               a(3) = (   0.000000   0.000000   1.431998 )

     reciprocal axes: (cart. coord. in units 2 pi/alat)
               b(1) = (  1.000000  0.000000  0.000000 )
               b(2) = (  0.000000  0.973254  0.000000 )
               b(3) = (  0.000000  0.000000  0.698325 )

     PseudoPot. # 1 for Na read from file:
     /home/pragov/projects/rrg-bengioy-ad/pragov/crystal_structure_design/SSSP/na_pbe_v1.5.uspp.F.UPF
     MD5 check sum: 44600605ef58000f06b90626533354dc
     Pseudo is Ultrasoft, Zval =  9.0
     Generated by new atomic code, or converted to UPF format
     Using radial grid of  819 points,  5 beta functions with:
                l(1) =   0
                l(2) =   0
                l(3) =   1
                l(4) =   1
                l(5) =   2
     Q(r) pseudized with  8 coefficients,  rinner =    1.250   1.250   1.250
                                                       1.250   1.250

     PseudoPot. # 2 for Mg read from file:
     /home/pragov/projects/rrg-bengioy-ad/pragov/crystal_structure_design/SSSP/Mg.pbe-n-kjpaw_psl.0.3.0.UPF
     MD5 check sum: 24ecedc7f3e3cbe212e682f4413594e4
     Pseudo is Projector augmented-wave + core cor, Zval =  2.0
     Generated using "atomic" code by A. Dal Corso  v.5.0.99 svn rev. 10869
     Shape of augmentation charge: PSQ
     Using radial grid of 1129 points,  4 beta functions with:
                l(1) =   0
                l(2) =   0
                l(3) =   1
                l(4) =   1
     Q(r) pseudized with 0 coefficients

     PseudoPot. # 3 for F  read from file:
     /home/pragov/projects/rrg-bengioy-ad/pragov/crystal_structure_design/SSSP/f_pbe_v1.4.uspp.F.UPF
     MD5 check sum: 4c38b6a325caf53ec0e86aed9459de46
     Pseudo is Ultrasoft, Zval =  7.0
     Generated by new atomic code, or converted to UPF format
     Using radial grid of  799 points,  4 beta functions with:
                l(1) =   0
                l(2) =   0
                l(3) =   1
                l(4) =   1
     Q(r) pseudized with  8 coefficients,  rinner =    0.950   0.950   0.950

     atomic species   valence    mass     pseudopotential
        Na             9.00    22.98977     Na( 1.00)
        Mg             2.00    24.30500     Mg( 1.00)
        F              7.00    18.99840     F ( 1.00)

      8 Sym. Ops., with inversion, found ( 6 have fractional translation)

                                    s                        frac. trans.

      isym =  1     identity

 cryst.   s( 1) = (     1          0          0      )
                  (     0          1          0      )
                  (     0          0          1      )

 cart.    s( 1) = (  1.0000000  0.0000000  0.0000000 )
                  (  0.0000000  1.0000000  0.0000000 )
                  (  0.0000000  0.0000000  1.0000000 )

      isym =  2     180 deg rotation - cart. axis [0,0,1]

 cryst.   s( 2) = (    -1          0          0      )    f =(  0.0000000 )
                  (     0         -1          0      )       ( -0.0000000 )
                  (     0          0          1      )       ( -0.5000000 )

 cart.    s( 2) = ( -1.0000000  0.0000000  0.0000000 )    f =(  0.0000000 )
                  (  0.0000000 -1.0000000  0.0000000 )       ( -0.0000000 )
                  (  0.0000000  0.0000000  1.0000000 )       ( -0.7159989 )

[...]

      isym =  4     180 deg rotation - cart. axis [1,0,0]

[...]

      isym =  5     inversion

 cryst.   s( 5) = (    -1          0          0      )
                  (     0         -1          0      )
                  (     0          0         -1      )

 cart.    s( 5) = ( -1.0000000  0.0000000  0.0000000 )
                  (  0.0000000 -1.0000000  0.0000000 )
                  (  0.0000000  0.0000000 -1.0000000 )

      isym =  6     inv. 180 deg rotation - cart. axis [0,0,1]

[...]

      isym =  8     inv. 180 deg rotation - cart. axis [1,0,0]

 cryst.   s( 8) = (    -1          0          0      )    f =( -0.5000000 )
                  (     0          1          0      )       (  0.5000000 )
                  (     0          0          1      )       (  0.0000000 )

 cart.    s( 8) = ( -1.0000000  0.0000000  0.0000000 )    f =( -0.5000000 )
                  (  0.0000000  1.0000000  0.0000000 )       (  0.5137406 )
                  (  0.0000000  0.0000000  1.0000000 )       (  0.0000000 )

   Cartesian axes

     site n.     atom                  positions (alat units)
         1           Na  tau(   1) = (   0.0119490   0.9784210   1.0739984  )
         2           Na  tau(   2) = (   0.5119490   0.5628008   0.3579995  )
         3           Na  tau(   3) = (   0.4880510   0.4646804   1.0739984  )
         4           Na  tau(   4) = (   0.9880510   0.0490602   0.3579995  )
         5           Mg  tau(   5) = (   0.0000000   0.5137406   0.7159989  )
         6           Mg  tau(   6) = (   0.5000000   0.0000000   0.7159989  )
         7           Mg  tau(   7) = (   0.5000000   0.0000000   0.0000000  )
         8           Mg  tau(   8) = (   0.0000000   0.5137406   0.0000000  )
         9           F   tau(   9) = (   0.7024040   0.3032097   0.6468993  )
        10           F   tau(  10) = (   0.2024040   0.2105309   0.7850985  )
        11           F   tau(  11) = (   0.7975960   0.8169503   0.0690996  )
        12           F   tau(  12) = (   0.2975960   0.7242715   1.3628982  )
        13           F   tau(  13) = (   0.2975960   0.7242715   0.7850985  )
        14           F   tau(  14) = (   0.7975960   0.8169503   0.6468993  )
        15           F   tau(  15) = (   0.2024040   0.2105309   1.3628982  )
        16           F   tau(  16) = (   0.7024040   0.3032097   0.0690996  )
        17           F   tau(  17) = (   0.0922330   0.4828576   0.3579995  )
        18           F   tau(  18) = (   0.5922330   0.0308830   1.0739984  )
        19           F   tau(  19) = (   0.4077670   0.9965982   0.3579995  )
        20           F   tau(  20) = (   0.9077670   0.5446236   1.0739984  )

   Crystallographic axes

     site n.     atom                  positions (cryst. coord.)
         1           Na  tau(   1) = (  0.0119490  0.9522520  0.7500000  )
         2           Na  tau(   2) = (  0.5119490  0.5477480  0.2500000  )
         3           Na  tau(   3) = (  0.4880510  0.4522520  0.7500000  )
         4           Na  tau(   4) = (  0.9880510  0.0477480  0.2500000  )
         5           Mg  tau(   5) = (  0.0000000  0.5000000  0.5000000  )
         6           Mg  tau(   6) = (  0.5000000  0.0000000  0.5000000  )
         7           Mg  tau(   7) = (  0.5000000  0.0000000  0.0000000  )
         8           Mg  tau(   8) = (  0.0000000  0.5000000  0.0000000  )
         9           F   tau(   9) = (  0.7024040  0.2951000  0.4517460  )
        10           F   tau(  10) = (  0.2024040  0.2049000  0.5482540  )
        11           F   tau(  11) = (  0.7975960  0.7951000  0.0482540  )
        12           F   tau(  12) = (  0.2975960  0.7049000  0.9517460  )
        13           F   tau(  13) = (  0.2975960  0.7049000  0.5482540  )
        14           F   tau(  14) = (  0.7975960  0.7951000  0.4517460  )
        15           F   tau(  15) = (  0.2024040  0.2049000  0.9517460  )
        16           F   tau(  16) = (  0.7024040  0.2951000  0.0482540  )
        17           F   tau(  17) = (  0.0922330  0.4699430  0.2500000  )
        18           F   tau(  18) = (  0.5922330  0.0300570  0.7500000  )
        19           F   tau(  19) = (  0.4077670  0.9699430  0.2500000  )
        20           F   tau(  20) = (  0.9077670  0.5300570  0.7500000  )

     number of k points=     1  Methfessel-Paxton smearing, width (Ry)=  0.0010
                       cart. coord. in units 2pi/alat
        k(    1) = (   0.0000000   0.0000000   0.0000000), wk =   2.0000000

                       cryst. coord.
        k(    1) = (   0.0000000   0.0000000   0.0000000), wk =   2.0000000

     Initial potential from superposition of free atoms

     starting charge     127.9711, renormalised to     128.0000
     Starting wfcs are   84 randomized atomic wfcs
     Checking if some PAW data can be deallocated...

     Self-consistent Calculation

     iteration #  1     ecut=    30.00 Ry     beta= 0.70
     Davidson diagonalization with overlap

     ethr =  1.00E-02,  avg # of iterations =  2.0

     total energy              =   -1100.94203771 Ry
     estimated scf accuracy    <       2.06779154 Ry

[...]

     total energy              =   -1101.81899533 Ry
     estimated scf accuracy    <       0.00001407 Ry

     iteration #  7     ecut=    30.00 Ry     beta= 0.70
     Davidson diagonalization with overlap

     ethr =  1.10E-08,  avg # of iterations =  6.0

     End of self-consistent calculation

          k = 0.0000 0.0000 0.0000 (  2192 PWs)   bands (ev):

   -46.6387 -46.6374 -46.6370 -46.6368 -19.3286 -19.2361 -19.1025 -19.0689
   -19.0306 -18.9309 -18.8610 -18.8587 -18.8479 -18.7553 -18.7474 -18.7324
   -18.5554 -18.5507 -18.5471 -18.4845 -18.4464 -18.4337 -18.3870 -18.3423
   -18.3142 -18.2977 -18.2682 -18.2505  -2.6701  -2.1297  -1.6604  -1.5534
    -1.5073  -1.4671  -1.4108  -1.3045  -1.1682  -1.1573  -1.1528  -1.1085
    -0.9161  -0.7917  -0.5398  -0.3151  -0.2853  -0.2601  -0.1984  -0.0398
    -0.0088   0.0429   0.0536   0.1398   0.1856   0.2836   0.3433   0.4057
     0.4618   0.4696   0.5061   0.5318   0.5598   0.6066   0.6296   0.6643
     7.3507  10.5486  10.6984  12.3306  12.4071  12.6509  13.0228  13.5503
    13.6076  13.8063  14.0174  14.4424  14.4815

     occupation numbers
     1.0000   1.0000   1.0000   1.0000   1.0000   1.0000   1.0000   1.0000
     1.0000   1.0000   1.0000   1.0000   1.0000   1.0000   1.0000   1.0000
     1.0000   1.0000   1.0000   1.0000   1.0000   1.0000   1.0000   1.0000
     1.0000   1.0000   1.0000   1.0000   1.0000   1.0000   1.0000   1.0000
     1.0000   1.0000   1.0000   1.0000   1.0000   1.0000   1.0000   1.0000
     1.0000   1.0000   1.0000   1.0000   1.0000   1.0000   1.0000   1.0000
     1.0000   1.0000   1.0000   1.0000   1.0000   1.0000   1.0000   1.0000
     1.0000   1.0000   1.0000   1.0000   1.0000   1.0000   1.0000   1.0000
    -0.0000  -0.0000  -0.0000  -0.0000  -0.0000  -0.0000  -0.0000  -0.0000
    -0.0000  -0.0000  -0.0000  -0.0000  -0.0000

     the Fermi energy is     6.9435 ev

!    total energy              =   -1101.81899964 Ry
     estimated scf accuracy    <       0.00000083 Ry
     smearing contrib. (-TS)   =       0.00000000 Ry
     internal energy E=F+TS    =   -1101.81899964 Ry

     The total energy is F=E-TS. E is the sum of the following terms:
     one-electron contribution =    -556.92760683 Ry
     hartree contribution      =     344.63731368 Ry
     xc contribution           =    -177.93859838 Ry
     ewald contribution        =    -586.49603800 Ry
     one-center paw contrib.   =    -125.09407011 Ry
      -> PAW hartree energy AE =       3.21684365 Ry
      -> PAW hartree energy PS =      -3.21289304 Ry
      -> PAW xc energy AE      =    -130.36936888 Ry
      -> PAW xc energy PS      =       5.27134817 Ry
      -> total E_H with PAW    =     344.64126429 Ry
      -> total E_XC with PAW   =    -303.03661909 Ry

     convergence has been achieved in   7 iterations

     Forces acting on atoms (cartesian axes, Ry/au):

     atom    1 type  1   force =     0.00094179   -0.00092815   -0.00000000
     atom    2 type  1   force =     0.00094179    0.00092815    0.00000000
     atom    3 type  1   force =    -0.00094179   -0.00092815    0.00000000
     atom    4 type  1   force =    -0.00094179    0.00092815    0.00000000
     atom    5 type  2   force =     0.00000000   -0.00000000    0.00000000
     atom    6 type  2   force =     0.00000000    0.00000000   -0.00000000
     atom    7 type  2   force =     0.00000000   -0.00000000   -0.00000000
     atom    8 type  2   force =     0.00000000    0.00000000    0.00000000
     atom    9 type  3   force =    -0.00449776    0.00211252   -0.00367226
     atom   10 type  3   force =    -0.00449776   -0.00211252    0.00367226
     atom   11 type  3   force =     0.00449776    0.00211252    0.00367226
     atom   12 type  3   force =     0.00449776   -0.00211252   -0.00367226
     atom   13 type  3   force =     0.00449776   -0.00211252    0.00367226
     atom   14 type  3   force =     0.00449776    0.00211252   -0.00367226
     atom   15 type  3   force =    -0.00449776   -0.00211252   -0.00367226
     atom   16 type  3   force =    -0.00449776    0.00211252    0.00367226
     atom   17 type  3   force =    -0.00148373   -0.00031161    0.00000000
     atom   18 type  3   force =    -0.00148373    0.00031161    0.00000000
     atom   19 type  3   force =     0.00148373   -0.00031161    0.00000000
     atom   20 type  3   force =     0.00148373    0.00031161    0.00000000
     The non-local contrib.  to forces
     atom    1 type  1   force =     0.03222370   -0.04807318    0.00000000
     atom    2 type  1   force =     0.03222370    0.04807318    0.00000000
     atom    3 type  1   force =    -0.03222370   -0.04807318    0.00000000
     atom    4 type  1   force =    -0.03222370    0.04807318    0.00000000
     atom    5 type  2   force =    -0.00000000   -0.00000000    0.00000000
     atom    6 type  2   force =    -0.00000000    0.00000000   -0.00000000
     atom    7 type  2   force =     0.00000000    0.00000000   -0.00000000
     atom    8 type  2   force =     0.00000000    0.00000000   -0.00000000
     atom    9 type  3   force =     0.10708783   -0.07659512    0.10898948
     atom   10 type  3   force =     0.10708783    0.07659512   -0.10898948
     atom   11 type  3   force =    -0.10708783   -0.07659512   -0.10898948
     atom   12 type  3   force =    -0.10708783    0.07659512    0.10898948
     atom   13 type  3   force =    -0.10708783    0.07659512   -0.10898948
     atom   14 type  3   force =    -0.10708783   -0.07659512    0.10898948
     atom   15 type  3   force =     0.10708783    0.07659512    0.10898948
     atom   16 type  3   force =     0.10708783   -0.07659512   -0.10898948
     atom   17 type  3   force =    -0.14342305    0.00865850   -0.00000000
     atom   18 type  3   force =    -0.14342305   -0.00865850    0.00000000
     atom   19 type  3   force =     0.14342305    0.00865850    0.00000000
     atom   20 type  3   force =     0.14342305   -0.00865850    0.00000000
     The ionic contribution  to forces
     atom    1 type  1   force =    -0.44259710    0.60043640    0.00000000
     atom    2 type  1   force =    -0.44259710   -0.60043640    0.00000000
     atom    3 type  1   force =     0.44259710    0.60043640    0.00000000
     atom    4 type  1   force =     0.44259710   -0.60043640    0.00000000
     atom    5 type  2   force =    -0.00000000   -0.00000000   -0.00000000
     atom    6 type  2   force =    -0.00000000   -0.00000000   -0.00000000
     atom    7 type  2   force =     0.00000000    0.00000000   -0.00000000
     atom    8 type  2   force =    -0.00000000    0.00000000   -0.00000000
     atom    9 type  3   force =    -0.03909328   -0.47427747    0.95233977
     atom   10 type  3   force =    -0.03909328    0.47427747   -0.95233977
     atom   11 type  3   force =     0.03909328   -0.47427747   -0.95233977
     atom   12 type  3   force =     0.03909328    0.47427747    0.95233977
     atom   13 type  3   force =     0.03909328    0.47427747   -0.95233977
     atom   14 type  3   force =     0.03909328   -0.47427747    0.95233977
     atom   15 type  3   force =    -0.03909328    0.47427747    0.95233977
     atom   16 type  3   force =    -0.03909328   -0.47427747   -0.95233977
     atom   17 type  3   force =    -0.32942267    1.23770482   -0.00000000
     atom   18 type  3   force =    -0.32942267   -1.23770482    0.00000000
     atom   19 type  3   force =     0.32942267    1.23770482    0.00000000
     atom   20 type  3   force =     0.32942267   -1.23770482    0.00000000
     The local contribution  to forces
     atom    1 type  1   force =     0.41132408   -0.55341914    0.00000878
     atom    2 type  1   force =     0.41133226    0.55342363   -0.00000723
     atom    3 type  1   force =    -0.41133069   -0.55342137    0.00001151
     atom    4 type  1   force =    -0.41132861    0.55342824   -0.00001246
     atom    5 type  2   force =     0.00000118    0.00000028    0.00000020
     atom    6 type  2   force =     0.00000035    0.00000159   -0.00000085
     atom    7 type  2   force =     0.00000179   -0.00000026   -0.00000170
     atom    8 type  2   force =    -0.00000229   -0.00000196    0.00000148
     atom    9 type  3   force =    -0.07239174    0.55290838   -1.06483247
     atom   10 type  3   force =    -0.07237800   -0.55289924    1.06483475
     atom   11 type  3   force =     0.07236421    0.55289967    1.06480155
     atom   12 type  3   force =     0.07238175   -0.55290844   -1.06482971
     atom   13 type  3   force =     0.07237226   -0.55291550    1.06483384
     atom   14 type  3   force =     0.07239241    0.55290576   -1.06483269
     atom   15 type  3   force =    -0.07239379   -0.55290911   -1.06481870
     atom   16 type  3   force =    -0.07234538    0.55291489    1.06481134
     atom   17 type  3   force =     0.47111656   -1.24671204   -0.00000978
     atom   18 type  3   force =     0.47112813    1.24673269    0.00001303
     atom   19 type  3   force =    -0.47112832   -1.24669702   -0.00000807
     atom   20 type  3   force =    -0.47110559    1.24671802    0.00001653
     The core correction contribution to forces
     atom    1 type  1   force =     0.00000000    0.00000000    0.00000000
     atom    2 type  1   force =     0.00000000    0.00000000    0.00000000
     atom    3 type  1   force =     0.00000000    0.00000000    0.00000000
     atom    4 type  1   force =     0.00000000    0.00000000    0.00000000
     atom    5 type  2   force =    -0.00000015    0.00000023    0.00000012
     atom    6 type  2   force =     0.00000033   -0.00000004   -0.00000021
     atom    7 type  2   force =    -0.00000102   -0.00000023   -0.00000052
     atom    8 type  2   force =     0.00000093   -0.00000026   -0.00000028
     atom    9 type  3   force =     0.00000000    0.00000000    0.00000000
     atom   10 type  3   force =     0.00000000    0.00000000    0.00000000
     atom   11 type  3   force =     0.00000000    0.00000000    0.00000000
     atom   12 type  3   force =     0.00000000    0.00000000    0.00000000
     atom   13 type  3   force =     0.00000000    0.00000000    0.00000000
     atom   14 type  3   force =     0.00000000    0.00000000    0.00000000
     atom   15 type  3   force =     0.00000000    0.00000000    0.00000000
     atom   16 type  3   force =     0.00000000    0.00000000    0.00000000
     atom   17 type  3   force =     0.00000000    0.00000000    0.00000000
     atom   18 type  3   force =     0.00000000    0.00000000    0.00000000
     atom   19 type  3   force =     0.00000000    0.00000000    0.00000000
     atom   20 type  3   force =     0.00000000    0.00000000    0.00000000
     The Hubbard contrib.    to forces
     atom    1 type  1   force =     0.00000000    0.00000000    0.00000000
     atom    2 type  1   force =     0.00000000    0.00000000    0.00000000
     atom    3 type  1   force =     0.00000000    0.00000000    0.00000000
     atom    4 type  1   force =     0.00000000    0.00000000    0.00000000
     atom    5 type  2   force =     0.00000000    0.00000000    0.00000000
     atom    6 type  2   force =     0.00000000    0.00000000    0.00000000
     atom    7 type  2   force =     0.00000000    0.00000000    0.00000000
     atom    8 type  2   force =     0.00000000    0.00000000    0.00000000
     atom    9 type  3   force =     0.00000000    0.00000000    0.00000000
     atom   10 type  3   force =     0.00000000    0.00000000    0.00000000
     atom   11 type  3   force =     0.00000000    0.00000000    0.00000000
     atom   12 type  3   force =     0.00000000    0.00000000    0.00000000
     atom   13 type  3   force =     0.00000000    0.00000000    0.00000000
     atom   14 type  3   force =     0.00000000    0.00000000    0.00000000
     atom   15 type  3   force =     0.00000000    0.00000000    0.00000000
     atom   16 type  3   force =     0.00000000    0.00000000    0.00000000
     atom   17 type  3   force =     0.00000000    0.00000000    0.00000000
     atom   18 type  3   force =     0.00000000    0.00000000    0.00000000
     atom   19 type  3   force =     0.00000000    0.00000000    0.00000000
     atom   20 type  3   force =     0.00000000    0.00000000    0.00000000
     The SCF correction term to forces
     atom    1 type  1   force =     0.00000648    0.00014375   -0.00001813
     atom    2 type  1   force =    -0.00003251   -0.00009710    0.00004776
     atom    3 type  1   force =     0.00000179    0.00013993   -0.00001651
     atom    4 type  1   force =     0.00002710   -0.00014614    0.00003533
     atom    5 type  2   force =    -0.00000236    0.00000205    0.00000096
     atom    6 type  2   force =     0.00000219   -0.00000242   -0.00000111
     atom    7 type  2   force =    -0.00001063   -0.00000223   -0.00000167
     atom    8 type  2   force =     0.00001044    0.00000040   -0.00000398
     atom    9 type  3   force =    -0.00009476    0.00008021   -0.00016527
     atom   10 type  3   force =    -0.00011486   -0.00009008    0.00015812
     atom   11 type  3   force =     0.00013470    0.00008960    0.00021698
     atom   12 type  3   force =     0.00010049   -0.00007226   -0.00016560
     atom   13 type  3   force =     0.00012840   -0.00006356    0.00016312
     atom   14 type  3   force =     0.00008632    0.00008157   -0.00016295
     atom   15 type  3   force =    -0.00008736   -0.00007750   -0.00019283
     atom   16 type  3   force =    -0.00017213    0.00006511    0.00019225
     atom   17 type  3   force =     0.00025505    0.00003638    0.00002910
     atom   18 type  3   force =     0.00022474   -0.00007176   -0.00003382
     atom   19 type  3   force =    -0.00022844    0.00000760    0.00001759
     atom   20 type  3   force =    -0.00026111   -0.00004435   -0.00003757

     Total force =     0.017934     Total SCF correction =     0.000860

     Computing stress (Cartesian axis) and pressure

          total   stress  (Ry/bohr**3)                   (kbar)     P=     -145.92
  -0.00104622   0.00000000   0.00000000         -153.90        0.00        0.00
   0.00000000  -0.00091071   0.00000000            0.00     -133.97        0.00
   0.00000000   0.00000000  -0.00101887            0.00        0.00     -149.88

     kinetic stress (kbar)  17862.88      0.00      0.00
                                0.00  17883.20      0.00
                                0.00      0.00  17839.89

     local   stress (kbar)   8161.68      0.00     -0.00
                                0.00   8214.90     -0.00
                               -0.00     -0.00   8721.54

     nonloc. stress (kbar) -13709.34      0.00      0.00
                                0.00 -13696.98      0.00
                                0.00      0.00 -13700.74

     hartree stress (kbar)  10727.45     -0.00      0.00
                               -0.00  10732.66      0.00
                                0.00      0.00  10525.92

     exc-cor stress (kbar)  -4917.08     -0.00     -0.00
                               -0.00  -4917.46     -0.00
                               -0.00     -0.00  -4917.43

     corecor stress (kbar)   -271.74      0.00      0.00
                                0.00   -271.91      0.00
                                0.00      0.00   -272.09

     ewald   stress (kbar) -18007.75      0.00      0.00
                                0.00 -18078.38     -0.00
                                0.00     -0.00 -18346.97

     hubbard stress (kbar)      0.00      0.00      0.00
                                0.00      0.00      0.00
                                0.00      0.00      0.00

     DFT-D   stress (kbar)      0.00      0.00      0.00
                                0.00      0.00      0.00
                                0.00      0.00      0.00

     XDM     stress (kbar)      0.00      0.00      0.00
                                0.00      0.00      0.00
                                0.00      0.00      0.00

     dft-nl  stress (kbar)      0.00      0.00      0.00
                                0.00      0.00      0.00
                                0.00      0.00      0.00

     TS-vdW  stress (kbar)      0.00      0.00      0.00
                                0.00      0.00      0.00
                                0.00      0.00      0.00

[...]

                                0.00      0.00      0.00

     Writing all to output data dir new_calculations/myprefix.save/

     General routines

     Parallel routines

     PAW routines

   This run was terminated on:   0: 6:44  21May2023

   JOB DONE.