     Program PWSCF v.7.0 starts on 20May2023 at 17:35: 9

     Reading input from espresso_15259.pwi
Warning: card &CELL ignored
Warning: card / ignored

     Current dimensions of program PWSCF are:
     Max number of different atomic species (ntypx) = 10
     Max number of k-points (npk) =  40000
     Max angular momentum in pseudopotentials (lmaxx) =  4

     gamma-point specific algorithms are used
     Message from routine setup:
     using ibrav=0 with symmetry is DISCOURAGED, use correct ibrav instead

     Subspace diagonalization in iterative solution of the eigenvalue problem:
     a serial algorithm will be used

     Using Slab Decomposition

     bravais-lattice index     =            0
     lattice parameter (alat)  =       6.4192  a.u.
     unit-cell volume          =    2621.4699 (a.u.)^3
     number of atoms/cell      =           12
     number of atomic types    =            4
     number of electrons       =       104.00
     number of Kohn-Sham states=           62
     kinetic-energy cutoff     =      30.0000  Ry
     charge density cutoff     =     240.0000  Ry
     scf convergence threshold =      1.0E-06
     mixing beta               =       0.7000
     number of iterations used =            8  plain     mixing
     Exchange-correlation=  SLA  PW   PBX  PBC
                           (   1   4   3   4   0   0   0)

     celldm(1)=   6.419229  celldm(2)=   0.000000  celldm(3)=   0.000000
     celldm(4)=   0.000000  celldm(5)=   0.000000  celldm(6)=   0.000000

     crystal axes: (cart. coord. in units of alat)
               a(1) = (   1.000000   0.000000   0.000000 )
               a(2) = (  -0.500000   0.866025   0.000000 )
               a(3) = (   0.000000   0.000000  11.443678 )

     reciprocal axes: (cart. coord. in units 2 pi/alat)
               b(1) = (  1.000000  0.577350  0.000000 )
               b(2) = (  0.000000  1.154700  0.000000 )
               b(3) = (  0.000000  0.000000  0.087384 )

     PseudoPot. # 1 for Te read from file:
     /home/pragov/projects/rrg-bengioy-ad/pragov/crystal_structure_design/SSSP/Te_pbe_v1.uspp.F.UPF
     MD5 check sum: c319670d6894cc26e93307826a071b75
     Pseudo is Ultrasoft + core correction, Zval =  6.0
     Generated by new atomic code, or converted to UPF format
     Using radial grid of  891 points,  5 beta functions with:
                l(1) =   0
                l(2) =   0
                l(3) =   1
                l(4) =   1
                l(5) =   2
     Q(r) pseudized with  6 coefficients,  rinner =    1.800   1.800   1.800
                                                       1.800   1.800

     PseudoPot. # 2 for W  read from file:
     /home/pragov/projects/rrg-bengioy-ad/pragov/crystal_structure_design/SSSP/W_pbe_v1.2.uspp.F.UPF
     MD5 check sum: 9c083fa34c2a2ea0f02f1f893e16e1c8
     Pseudo is Ultrasoft + core correction, Zval = 14.0
     Generated by new atomic code, or converted to UPF format
     Using radial grid of  923 points,  8 beta functions with:
                l(1) =   0
                l(2) =   0
                l(3) =   0
                l(4) =   1
                l(5) =   1
                l(6) =   2
                l(7) =   2
                l(8) =   3
     Q(r) pseudized with  6 coefficients,  rinner =    1.350   1.350   1.350
                                                       1.350   1.350   1.350
                                                       1.350

     PseudoPot. # 3 for Se read from file:
     /home/pragov/projects/rrg-bengioy-ad/pragov/crystal_structure_design/SSSP/Se_pbe_v1.uspp.F.UPF
     MD5 check sum: 1b3568f3a8ae88f9a2a0ad0698632c85
     Pseudo is Ultrasoft + core correction, Zval =  6.0
     Generated by new atomic code, or converted to UPF format
     Using radial grid of  877 points,  6 beta functions with:
                l(1) =   0
                l(2) =   0
                l(3) =   1
                l(4) =   1
                l(5) =   2
                l(6) =   2
     Q(r) pseudized with  8 coefficients,  rinner =    1.300   1.300   1.300
                                                       1.300   1.300

     PseudoPot. # 4 for S  read from file:
     /home/pragov/projects/rrg-bengioy-ad/pragov/crystal_structure_design/SSSP/s_pbe_v1.4.uspp.F.UPF
     MD5 check sum: 88d86576ff6df21479756cfb9bdac1df
     Pseudo is Ultrasoft + core correction, Zval =  6.0
     Generated by new atomic code, or converted to UPF format
     Using radial grid of  907 points,  6 beta functions with:
                l(1) =   0
                l(2) =   0
                l(3) =   1
                l(4) =   1
                l(5) =   2
                l(6) =   2
     Q(r) pseudized with  8 coefficients,  rinner =    1.300   1.300   1.300
                                                       1.300   1.300

     atomic species   valence    mass     pseudopotential
        Te             6.00   127.60000     Te( 1.00)
        W             14.00   183.84000     W ( 1.00)
        Se             6.00    78.97100     Se( 1.00)
        S              6.00    32.06000     S ( 1.00)

      6 Sym. Ops. (no inversion) found

                                    s                        frac. trans.

      isym =  1     identity

 cryst.   s( 1) = (     1          0          0      )
                  (     0          1          0      )
                  (     0          0          1      )

 cart.    s( 1) = (  1.0000000  0.0000000  0.0000000 )
                  (  0.0000000  1.0000000  0.0000000 )
                  (  0.0000000  0.0000000  1.0000000 )

      isym =  2     120 deg rotation - cryst. axis [0,0,1]

[...]

      isym =  3     120 deg rotation - cryst. axis [0,0,-1]

[...]

      isym =  4     inv. 180 deg rotation - cart. axis [1,0,0]

[...]

      isym =  5     inv. 180 deg rotation - cryst. axis [0,1,0]

[...]

      isym =  6     inv. 180 deg rotation - cryst. axis [1,1,0]

 cryst.   s( 6) = (     0         -1          0      )
                  (    -1          0          0      )
                  (     0          0          1      )

 cart.    s( 6) = (  0.4999999 -0.8660255  0.0000000 )
                  ( -0.8660255 -0.4999999  0.0000000 )
                  (  0.0000000  0.0000000  1.0000000 )

   Cartesian axes

     site n.     atom                  positions (alat units)
         1           Te  tau(   1) = (   0.0000000   0.0000000   8.0793622  )
         2           Te  tau(   2) = (  -0.0000004   0.5773506   4.8196078  )
         3           Te  tau(   3) = (  -0.0000004   0.5773506   5.9281911  )
         4           Te  tau(   4) = (   0.0000000   0.0000000   6.9708704  )
         5           W   tau(   5) = (   0.0000000   0.0000000   1.0748932  )
         6           W   tau(   6) = (   0.0000000   0.0000000   5.3740654  )
         7           W   tau(   7) = (  -0.0000004   0.5773506   3.2248970  )
         8           W   tau(   8) = (  -0.0000004   0.5773506   7.5255225  )
         9           Se  tau(   9) = (  -0.0000004   0.5773506   0.5876901  )
        10           Se  tau(  10) = (  -0.0000004   0.5773506   1.5620162  )
        11           S   tau(  11) = (   0.0000000   0.0000000   3.6688087  )
        12           S   tau(  12) = (   0.0000000   0.0000000   2.7807221  )

   Crystallographic axes

     site n.     atom                  positions (cryst. coord.)
         1           Te  tau(   1) = (  0.0000000  0.0000000  0.7060110  )
         2           Te  tau(   2) = (  0.3333330  0.6666670  0.4211590  )
         3           Te  tau(   3) = (  0.3333330  0.6666670  0.5180320  )
         4           Te  tau(   4) = (  0.0000000  0.0000000  0.6091460  )
         5           W   tau(   5) = (  0.0000000  0.0000000  0.0939290  )
         6           W   tau(   6) = (  0.0000000  0.0000000  0.4696100  )
         7           W   tau(   7) = (  0.3333330  0.6666670  0.2818060  )
         8           W   tau(   8) = (  0.3333330  0.6666670  0.6576140  )
         9           Se  tau(   9) = (  0.3333330  0.6666670  0.0513550  )
        10           Se  tau(  10) = (  0.3333330  0.6666670  0.1364960  )
        11           S   tau(  11) = (  0.0000000  0.0000000  0.3205970  )
        12           S   tau(  12) = (  0.0000000  0.0000000  0.2429920  )

     number of k points=     1  Methfessel-Paxton smearing, width (Ry)=  0.0010
                       cart. coord. in units 2pi/alat
        k(    1) = (   0.0000000   0.0000000   0.0000000), wk =   2.0000000

                       cryst. coord.
        k(    1) = (   0.0000000   0.0000000   0.0000000), wk =   2.0000000

     Check: negative core charge=   -0.000001

     Initial potential from superposition of free atoms

     starting charge     103.5976, renormalised to     104.0000

     negative rho (up, down):  2.547E-01 0.000E+00
     Starting wfcs are   84 randomized atomic wfcs

     Self-consistent Calculation

     iteration #  1     ecut=    30.00 Ry     beta= 0.70
     Davidson diagonalization with overlap

     ethr =  1.00E-02,  avg # of iterations =  2.0

     negative rho (up, down):  2.619E-01 0.000E+00

     total energy              =    -868.75509059 Ry
     estimated scf accuracy    <       9.45536813 Ry

[...]

     total energy              =    -875.42333791 Ry
     estimated scf accuracy    <       0.00000156 Ry

     iteration # 32     ecut=    30.00 Ry     beta= 0.70
     Davidson diagonalization with overlap

     ethr =  1.50E-09,  avg # of iterations =  2.0

[...]

     End of self-consistent calculation

          k = 0.0000 0.0000 0.0000 (  3665 PWs)   bands (ev):

   -68.0762 -67.0974 -65.2442 -65.2387 -32.4523 -32.4523 -32.0452 -31.4348
   -31.4348 -31.2541 -29.6958 -29.6934 -29.5160 -29.5160 -29.5095 -29.5094
    -9.6240  -9.4833  -8.4094  -8.1685  -8.1247  -7.9858  -7.3915  -7.1895
    -0.9303  -0.4600  -0.2789   0.4300   1.6840   1.6840   2.4198   2.8054
     2.8054   3.0522   3.1160   3.1160   3.4012   3.7982   4.0260   4.0261
     5.4712   5.4712   5.4892   5.4892   5.5861   5.7669   5.9412   6.0878
     6.0878   6.1276   6.1276   6.2688   7.3639   7.3639   7.5142   7.5142
     8.1526   8.1526   8.2162   8.2162   8.9739   9.3604

     occupation numbers
     1.0000   1.0000   1.0000   1.0000   1.0000   1.0000   1.0000   1.0000
     1.0000   1.0000   1.0000   1.0000   1.0000   1.0000   1.0000   1.0000
     1.0000   1.0000   1.0000   1.0000   1.0000   1.0000   1.0000   1.0000
     1.0000   1.0000   1.0000   1.0000   1.0000   1.0000   1.0000   1.0000
     1.0000   1.0000   1.0000   1.0000   1.0000   1.0000   1.0000   1.0000
     1.0000   1.0000   1.0000   1.0000   1.0000   1.0000   1.0000   1.0000
     1.0000   1.0000   1.0000   1.0000  -0.0000  -0.0000  -0.0000  -0.0000
    -0.0000  -0.0000  -0.0000  -0.0000  -0.0000  -0.0000

     the Fermi energy is     7.0681 ev

!    total energy              =    -875.42333714 Ry
     estimated scf accuracy    <       0.00000090 Ry
     smearing contrib. (-TS)   =       0.00000000 Ry
     internal energy E=F+TS    =    -875.42333714 Ry

     The total energy is F=E-TS. E is the sum of the following terms:
     one-electron contribution =   -3682.58060352 Ry
     hartree contribution      =    1867.20816651 Ry
     xc contribution           =    -300.03577532 Ry
     ewald contribution        =    1239.98487520 Ry

     convergence has been achieved in  32 iterations

     negative rho (up, down):  2.476E-01 0.000E+00

     Forces acting on atoms (cartesian axes, Ry/au):

     atom    1 type  1   force =     0.00000000    0.00000000   -0.09465299
     atom    2 type  1   force =     0.00000000   -0.00000000    0.10886863
     atom    3 type  1   force =     0.00000000   -0.00000000   -0.15370243
     atom    4 type  1   force =     0.00000000    0.00000000    0.15404746
     atom    5 type  2   force =     0.00000000    0.00000000   -0.00053484
     atom    6 type  2   force =     0.00000000   -0.00000000   -0.01104251
     atom    7 type  2   force =     0.00000000    0.00000000   -0.00239347
     atom    8 type  2   force =    -0.00000000   -0.00000000    0.01332632
     atom    9 type  3   force =     0.00000000    0.00000000    0.06871251
     atom   10 type  3   force =     0.00000000    0.00000000   -0.07349568
     atom   11 type  4   force =     0.00000000    0.00000000   -0.07472012
     atom   12 type  4   force =     0.00000000    0.00000000    0.06558711
     The non-local contrib.  to forces
     atom    1 type  1   force =     0.00000000    0.00000000   -0.26163765
     atom    2 type  1   force =     0.00000000    0.00000000    0.23958857
     atom    3 type  1   force =     0.00000000    0.00000000   -0.16353672
     atom    4 type  1   force =     0.00000000    0.00000000    0.16116970
     atom    5 type  2   force =     0.00000000    0.00000000   -0.00093294
     atom    6 type  2   force =     0.00000000   -0.00000000   -0.01248338
     atom    7 type  2   force =     0.00000000    0.00000000   -0.00206768
     atom    8 type  2   force =     0.00000000   -0.00000000    0.01647792
     atom    9 type  3   force =     0.00000000    0.00000000   -0.00424148
     atom   10 type  3   force =     0.00000000    0.00000000   -0.00700762
     atom   11 type  4   force =     0.00000000   -0.00000000   -0.02776973
     atom   12 type  4   force =     0.00000000    0.00000000    0.00649412
     The ionic contribution  to forces
     atom    1 type  1   force =    -0.00000284    0.00000164   60.47535481
     atom    2 type  1   force =     0.00000284   -0.00000164   -5.86520768
     atom    3 type  1   force =     0.00000287   -0.00000166   33.23981722
     atom    4 type  1   force =    -0.00000286    0.00000165   21.37499819
     atom    5 type  2   force =    -0.00000860    0.00000497  -95.56598328
     atom    6 type  2   force =    -0.00000566    0.00000326   31.91599069
     atom    7 type  2   force =     0.00001114   -0.00000643  -31.85932863
     atom    8 type  2   force =     0.00000566   -0.00000327   95.49565176
     atom    9 type  3   force =     0.00000430   -0.00000248  -62.28377704
     atom   10 type  3   force =     0.00000431   -0.00000249  -19.62402094
     atom   11 type  4   force =    -0.00000559    0.00000323    8.64635158
     atom   12 type  4   force =    -0.00000558    0.00000322  -35.94984668
     The local contribution  to forces
     atom    1 type  1   force =     0.00000901   -0.00000688  -60.28994977
     atom    2 type  1   force =     0.00000854    0.00000029    5.72037623
     atom    3 type  1   force =    -0.00000879    0.00000500  -33.22261744
     atom    4 type  1   force =    -0.00000884    0.00000216  -21.38963512
     atom    5 type  2   force =     0.00000918   -0.00000530   95.56518792
     atom    6 type  2   force =    -0.00000027    0.00000379  -31.91008110
     atom    7 type  2   force =    -0.00001068    0.00000667   31.85936602
     atom    8 type  2   force =    -0.00000498    0.00002083  -95.49896999
     atom    9 type  3   force =    -0.00000298    0.00000253   62.35143313
     atom   10 type  3   force =    -0.00000648    0.00000361   19.56070967
     atom   11 type  4   force =     0.00000628   -0.00000387   -8.69334624
     atom   12 type  4   force =     0.00000510   -0.00000371   36.00779659
     The core correction contribution to forces
     atom    1 type  1   force =    -0.00000085    0.00000078   -0.01737840
     atom    2 type  1   force =    -0.00000161    0.00000036    0.01490652
     atom    3 type  1   force =     0.00000003   -0.00000005   -0.00670382
     atom    4 type  1   force =     0.00000074    0.00000061    0.00644931
     atom    5 type  2   force =    -0.00000013    0.00000011    0.00001460
     atom    6 type  2   force =    -0.00000013   -0.00000005   -0.00070619
     atom    7 type  2   force =     0.00000018    0.00000002   -0.00013470
     atom    8 type  2   force =     0.00000025    0.00000039    0.00068665
     atom    9 type  3   force =     0.00000022    0.00000044    0.00482922
     atom   10 type  3   force =    -0.00000035    0.00000034   -0.00338779
     atom   11 type  4   force =     0.00000007   -0.00000003   -0.00013954
     atom   12 type  4   force =     0.00000006    0.00000000    0.00131917
     The Hubbard contrib.    to forces
     atom    1 type  1   force =     0.00000000    0.00000000    0.00000000
     atom    2 type  1   force =     0.00000000    0.00000000    0.00000000
     atom    3 type  1   force =     0.00000000    0.00000000    0.00000000
     atom    4 type  1   force =     0.00000000    0.00000000    0.00000000
     atom    5 type  2   force =     0.00000000    0.00000000    0.00000000
     atom    6 type  2   force =     0.00000000    0.00000000    0.00000000
     atom    7 type  2   force =     0.00000000    0.00000000    0.00000000
     atom    8 type  2   force =     0.00000000    0.00000000    0.00000000
     atom    9 type  3   force =     0.00000000    0.00000000    0.00000000
     atom   10 type  3   force =     0.00000000    0.00000000    0.00000000
     atom   11 type  4   force =     0.00000000    0.00000000    0.00000000
     atom   12 type  4   force =     0.00000000    0.00000000    0.00000000
     The SCF correction term to forces
     atom    1 type  1   force =     0.00000116   -0.00000251   -0.00100296
     atom    2 type  1   force =     0.00000328   -0.00000110   -0.00075598
     atom    3 type  1   force =     0.00000005    0.00000002   -0.00062265
     atom    4 type  1   force =     0.00000085   -0.00000434    0.00110442
     atom    5 type  2   force =    -0.00000208    0.00000093    0.00121789
     atom    6 type  2   force =    -0.00000205   -0.00000243   -0.00372349
     atom    7 type  2   force =     0.00000029   -0.00000106   -0.00018944
     atom    8 type  2   force =     0.00000029   -0.00001619   -0.00048099
     atom    9 type  3   force =    -0.00000019    0.00000054    0.00050772
     atom   10 type  3   force =     0.00000145   -0.00000028    0.00025003
     atom   11 type  4   force =    -0.00000014    0.00000087    0.00022284
     atom   12 type  4   force =     0.00000023    0.00000062   -0.00013706

     Total force =     0.297456     Total SCF correction =     0.004380

     Computing stress (Cartesian axis) and pressure

     negative rho (up, down):  2.476E-01 0.000E+00
          total   stress  (Ry/bohr**3)                   (kbar)     P=      107.61
   0.00136087  -0.00000000  -0.00000000          200.19       -0.00       -0.00
  -0.00000000   0.00136087   0.00000000           -0.00      200.19        0.00
   0.00000000  -0.00000000  -0.00052712            0.00       -0.00      -77.54

     kinetic stress (kbar)   8911.37     -0.00      0.00
                               -0.00   8911.37     -0.00
                                0.00     -0.00   9026.52

     local   stress (kbar)-194009.81      0.01      0.00
                                0.01-194009.81     -0.00
                                0.00     -0.00 207274.25

     nonloc. stress (kbar)  -3954.51      0.00      0.00
                                0.00  -3954.51      0.00
                                0.00      0.00  -3986.96

     hartree stress (kbar) 100819.93     -0.00     -0.00
                               -0.00 100819.93      0.00
                               -0.00      0.00 -96860.55

     exc-cor stress (kbar)   8838.00     -0.00      0.00
                               -0.00   8838.00      0.00
                                0.00      0.00   8847.40

     corecor stress (kbar) -11585.66     -0.00     -0.00
                               -0.00 -11585.66     -0.00
                               -0.00     -0.00 -11598.84

     ewald   stress (kbar)  91180.87     -0.01     -0.00
                               -0.01  91180.86      0.00
                               -0.00      0.00-112779.37

     hubbard stress (kbar)      0.00      0.00      0.00
                                0.00      0.00      0.00
                                0.00      0.00      0.00

     DFT-D   stress (kbar)      0.00      0.00      0.00
                                0.00      0.00      0.00
                                0.00      0.00      0.00

     XDM     stress (kbar)      0.00      0.00      0.00
                                0.00      0.00      0.00
                                0.00      0.00      0.00

     dft-nl  stress (kbar)      0.00      0.00      0.00
                                0.00      0.00      0.00
                                0.00      0.00      0.00

     TS-vdW  stress (kbar)      0.00      0.00      0.00
                                0.00      0.00      0.00
                                0.00      0.00      0.00

[...]

                                0.00      0.00      0.00

     Writing all to output data dir new_calculations/myprefix.save/

     General routines

     Parallel routines

   This run was terminated on:  17:36:57  20May2023

   JOB DONE.