     Program PWSCF v.7.0 starts on 21May2023 at  2: 0:24

     Reading input from espresso_1926.pwi
Warning: card &CELL ignored
Warning: card / ignored

     Current dimensions of program PWSCF are:
     Max number of different atomic species (ntypx) = 10
     Max number of k-points (npk) =  40000
     Max angular momentum in pseudopotentials (lmaxx) =  4

     gamma-point specific algorithms are used
     Message from routine setup:
     using ibrav=0 with symmetry is DISCOURAGED, use correct ibrav instead

     Subspace diagonalization in iterative solution of the eigenvalue problem:
     a serial algorithm will be used

     Using Slab Decomposition

     bravais-lattice index     =            0
     lattice parameter (alat)  =      14.1243  a.u.
     unit-cell volume          =    1992.4490 (a.u.)^3
     number of atoms/cell      =            9
     number of atomic types    =            3
     number of electrons       =        75.00
     number of Kohn-Sham states=           46
     kinetic-energy cutoff     =      30.0000  Ry
     charge density cutoff     =     240.0000  Ry
     scf convergence threshold =      1.0E-06
     mixing beta               =       0.7000
     number of iterations used =            8  plain     mixing
     Exchange-correlation=  SLA  PW   PBX  PBC
                           (   1   4   3   4   0   0   0)

     celldm(1)=  14.124315  celldm(2)=   0.000000  celldm(3)=   0.000000
     celldm(4)=   0.000000  celldm(5)=   0.000000  celldm(6)=   0.000000

     crystal axes: (cart. coord. in units of alat)
               a(1) = (   1.000000   0.000000   0.000000 )
               a(2) = (   0.500000   0.866025   0.000000 )
               a(3) = (   0.500000   0.288675   0.816497 )

     reciprocal axes: (cart. coord. in units 2 pi/alat)
               b(1) = (  1.000000 -0.577350 -0.408248 )
               b(2) = (  0.000000  1.154701 -0.408248 )
               b(3) = (  0.000000  0.000000  1.224745 )

     PseudoPot. # 1 for Cs read from file:
     /home/pragov/projects/rrg-bengioy-ad/pragov/crystal_structure_design/SSSP/Cs_pbe_v1.uspp.F.UPF
     MD5 check sum: 3476d69cb178dfad3ffaa59df4e07ca4
     Pseudo is Ultrasoft + core correction, Zval =  9.0
     Generated by new atomic code, or converted to UPF format
     Using radial grid of  905 points,  6 beta functions with:
                l(1) =   0
                l(2) =   0
                l(3) =   1
                l(4) =   1
                l(5) =   2
                l(6) =   2
     Q(r) pseudized with  6 coefficients,  rinner =    1.500   1.500   1.500
                                                       1.500   1.500

     PseudoPot. # 2 for Tc read from file:
     /home/pragov/projects/rrg-bengioy-ad/pragov/crystal_structure_design/SSSP/Tc_ONCV_PBE-1.0.oncvpsp.upf
     MD5 check sum: 1c2b1e6c8b361b656073c0c20ed4f60a
     Pseudo is Norm-conserving, Zval = 15.0
     Generated using ONCVPSP code by D. R. Hamann
     Using radial grid of 1492 points,  6 beta functions with:
                l(1) =   0
                l(2) =   0
                l(3) =   1
                l(4) =   1
                l(5) =   2
                l(6) =   2

     PseudoPot. # 3 for Cl read from file:
     /home/pragov/projects/rrg-bengioy-ad/pragov/crystal_structure_design/SSSP/cl_pbe_v1.4.uspp.F.UPF
     MD5 check sum: fc6f6913ecf08c9257cb748ef0700058
     Pseudo is Ultrasoft + core correction, Zval =  7.0
     Generated by new atomic code, or converted to UPF format
     Using radial grid of  909 points,  6 beta functions with:
                l(1) =   0
                l(2) =   0
                l(3) =   1
                l(4) =   1
                l(5) =   2
                l(6) =   2
     Q(r) pseudized with  8 coefficients,  rinner =    1.300   1.300   1.300
                                                       1.300   1.300

     atomic species   valence    mass     pseudopotential
        Cs             9.00   132.90545     Cs( 1.00)
        Tc            15.00    97.90721     Tc( 1.00)
        Cl             7.00    35.45000     Cl( 1.00)

     12 Sym. Ops., with inversion, found

                                    s                        frac. trans.

      isym =  1     identity

 cryst.   s( 1) = (     1          0          0      )
                  (     0          1          0      )
                  (     0          0          1      )

 cart.    s( 1) = (  1.0000000  0.0000000  0.0000000 )
                  (  0.0000000  1.0000000 -0.0000000 )
                  (  0.0000000  0.0000000  1.0000000 )

      isym =  2     180 deg rotation - cart. axis [1,0,0]

[...]

      isym =  3     120 deg rotation - cryst. axis [0,0,1]

[...]

      isym =  6     180 deg rotation - cryst. axis [1,1,0]

[...]

      isym =  7     inversion

[...]

      isym =  8     inv. 180 deg rotation - cart. axis [1,0,0]

[...]

      isym =  9     inv. 120 deg rotation - cryst. axis [0,0,1]

 cryst.   s( 9) = (     1         -1          0      )
                  (     1          0          0      )
                  (     1          0         -1      )

 cart.    s( 9) = (  0.5000000  0.8660254  0.0000000 )
                  ( -0.8660254  0.5000000  0.0000000 )
                  (  0.0000000  0.0000000 -1.0000000 )

[...]

 cryst.   s(10) = (     0          1          0      )
                  (    -1          1          0      )
                  (     0          1         -1      )

 cart.    s(10) = (  0.5000000 -0.8660254  0.0000000 )
                  (  0.8660254  0.5000000  0.0000000 )
                  (  0.0000000  0.0000000 -1.0000000 )

[...]

      isym = 12     inv. 180 deg rotation - cryst. axis [1,1,0]

 cryst.   s(12) = (     1         -1          0      )
                  (     0         -1          0      )
                  (     0         -1          1      )

 cart.    s(12) = (  0.5000000 -0.8660254  0.0000000 )
                  ( -0.8660254 -0.5000000 -0.0000000 )
                  (  0.0000000  0.0000000  1.0000000 )

   Cartesian axes

     site n.     atom                  positions (alat units)
         1           Cs  tau(   1) = (   0.5000000   0.2886751   0.2041241  )
         2           Cs  tau(   2) = (   1.5000000   0.8660254   0.6123724  )
         3           Tc  tau(   3) = (   0.0000000   0.0000000   0.0000000  )
         4           Cl  tau(   4) = (   1.0000000   0.2603157   0.1840710  )
         5           Cl  tau(   5) = (   1.0000000   0.8943848   0.6324256  )
         6           Cl  tau(   6) = (   0.7254400   0.7358676   0.1840710  )
         7           Cl  tau(   7) = (   1.2745600   0.4188330   0.6324256  )
         8           Cl  tau(   8) = (   0.7254400   0.4188330   0.6324256  )
         9           Cl  tau(   9) = (   1.2745600   0.7358676   0.1840710  )

   Crystallographic axes

     site n.     atom                  positions (cryst. coord.)
         1           Cs  tau(   1) = (  0.2500000  0.2500000  0.2500000  )
         2           Cs  tau(   2) = (  0.7500000  0.7500000  0.7500000  )
         3           Tc  tau(   3) = (  0.0000000  0.0000000  0.0000000  )
         4           Cl  tau(   4) = (  0.7745600  0.2254400  0.2254400  )
         5           Cl  tau(   5) = (  0.2254400  0.7745600  0.7745600  )
         6           Cl  tau(   6) = (  0.2254400  0.7745600  0.2254400  )
         7           Cl  tau(   7) = (  0.7745600  0.2254400  0.7745600  )
         8           Cl  tau(   8) = (  0.2254400  0.2254400  0.7745600  )
         9           Cl  tau(   9) = (  0.7745600  0.7745600  0.2254400  )

     number of k points=     1  Methfessel-Paxton smearing, width (Ry)=  0.0010
                       cart. coord. in units 2pi/alat
        k(    1) = (   0.0000000   0.0000000   0.0000000), wk =   2.0000000

                       cryst. coord.
        k(    1) = (   0.0000000   0.0000000   0.0000000), wk =   2.0000000

     Initial potential from superposition of free atoms

     starting charge      74.9205, renormalised to      75.0000

     negative rho (up, down):  8.881E-02 0.000E+00
     Starting wfcs are   60 randomized atomic wfcs

     Self-consistent Calculation

     iteration #  1     ecut=    30.00 Ry     beta= 0.70
     Davidson diagonalization with overlap

     ethr =  1.00E-02,  avg # of iterations =  3.0

     Threshold (ethr) on eigenvalues was too large:
     Diagonalizing with lowered threshold

     Davidson diagonalization with overlap

[...]

     negative rho (up, down):  9.124E-02 0.000E+00

     total energy              =    -487.71126360 Ry
     estimated scf accuracy    <       0.25950208 Ry

[...]

     total energy              =    -487.80963670 Ry
     estimated scf accuracy    <       0.00000633 Ry

     iteration # 19     ecut=    30.00 Ry     beta= 0.70
     Davidson diagonalization with overlap

     ethr =  8.44E-09,  avg # of iterations =  1.0

[...]

     End of self-consistent calculation

          k = 0.0000 0.0000 0.0000 (  2789 PWs)   bands (ev):

   -63.9343 -35.9364 -35.9364 -35.9363 -17.1022 -17.0872 -11.3424 -10.7599
   -10.7599 -10.7574 -10.7574 -10.7573  -4.0806  -4.0805  -4.0805  -3.9499
    -3.9499  -3.9499  -1.2423  -0.7418  -0.7417  -0.2300  -0.2299  -0.2299
     0.1063   0.1063   0.1064   1.3766   1.3766   1.3766   1.7717   1.7717
     1.7717   2.0581   2.0581   2.0582   3.5591   3.5592   3.5592   6.3233
     6.3233   7.8141   8.4118   8.4119   9.1903   9.1903

     occupation numbers
     1.0000   1.0000   1.0000   1.0000   1.0000   1.0000   1.0000   1.0000
     1.0000   1.0000   1.0000   1.0000   1.0000   1.0000   1.0000   1.0000
     1.0000   1.0000   1.0000   1.0000   1.0000   1.0000   1.0000   1.0000
     1.0000   1.0000   1.0000   1.0000   1.0000   1.0000   1.0000   1.0000
     1.0000   1.0000   1.0000   1.0000   0.5018   0.4994   0.4988  -0.0000
    -0.0000  -0.0000  -0.0000  -0.0000  -0.0000  -0.0000

     the Fermi energy is     3.5592 ev

!    total energy              =    -487.80963638 Ry
     estimated scf accuracy    <       0.00000066 Ry
     smearing contrib. (-TS)   =      -0.00084628 Ry
     internal energy E=F+TS    =    -487.80879010 Ry

     The total energy is F=E-TS. E is the sum of the following terms:
     one-electron contribution =    -230.20316328 Ry
     hartree contribution      =     139.26972523 Ry
     xc contribution           =    -134.85608221 Ry
     ewald contribution        =    -262.01926985 Ry

     convergence has been achieved in  19 iterations

     negative rho (up, down):  8.834E-02 0.000E+00

     Forces acting on atoms (cartesian axes, Ry/au):

     atom    1 type  1   force =    -0.00000000    0.00000000    0.00001098
     atom    2 type  1   force =     0.00000000   -0.00000000   -0.00001098
     atom    3 type  2   force =     0.00000000    0.00000000   -0.00000000
     atom    4 type  3   force =     0.00000000   -0.01651769   -0.01167501
     atom    5 type  3   force =     0.00000000    0.01651769    0.01167501
     atom    6 type  3   force =    -0.01430474    0.00825885   -0.01167501
     atom    7 type  3   force =     0.01430474   -0.00825885    0.01167501
     atom    8 type  3   force =    -0.01430474   -0.00825885    0.01167501
     atom    9 type  3   force =     0.01430474    0.00825885   -0.01167501
     The non-local contrib.  to forces
     atom    1 type  1   force =     0.00000000   -0.00000000   -0.00000562
     atom    2 type  1   force =     0.00000000    0.00000000    0.00000562
     atom    3 type  2   force =     0.00000000    0.00000000    0.00000000
     atom    4 type  3   force =     0.00000000   -0.13789677   -0.09750984
     atom    5 type  3   force =     0.00000000    0.13789677    0.09750984
     atom    6 type  3   force =    -0.11942210    0.06894838   -0.09750984
     atom    7 type  3   force =     0.11942210   -0.06894838    0.09750984
     atom    8 type  3   force =    -0.11942210   -0.06894838    0.09750984
     atom    9 type  3   force =     0.11942210    0.06894838   -0.09750984
     The ionic contribution  to forces
     atom    1 type  1   force =    -0.00000000   -0.00000000    0.00000000
     atom    2 type  1   force =    -0.00000000    0.00000000   -0.00000000
     atom    3 type  2   force =     0.00000000    0.00000000    0.00000000
     atom    4 type  3   force =     0.00000000    8.81207309    6.23107664
     atom    5 type  3   force =    -0.00000000   -8.81207309   -6.23107664
     atom    6 type  3   force =     7.63147916   -4.40603655    6.23107664
     atom    7 type  3   force =    -7.63147916    4.40603655   -6.23107664
     atom    8 type  3   force =     7.63147916    4.40603655   -6.23107664
     atom    9 type  3   force =    -7.63147916   -4.40603655    6.23107664
     The local contribution  to forces
     atom    1 type  1   force =     0.00000528   -0.00000585    0.00004318
     atom    2 type  1   force =     0.00003756   -0.00000445   -0.00004407
     atom    3 type  2   force =     0.00000003   -0.00000115    0.00000285
     atom    4 type  3   force =     0.00000685   -8.69377292   -6.14732697
     atom    5 type  3   force =    -0.00000976    8.69376858    6.14732968
     atom    6 type  3   force =    -7.52898666    4.34689582   -6.14731941
     atom    7 type  3   force =     7.52898708   -4.34689597    6.14731953
     atom    8 type  3   force =    -7.52899443   -4.34688801    6.14733614
     atom    9 type  3   force =     7.52899483    4.34688641   -6.14733624
     The core correction contribution to forces
     atom    1 type  1   force =     0.00000311   -0.00000019    0.00000073
     atom    2 type  1   force =     0.00000943   -0.00000379   -0.00000238
     atom    3 type  2   force =     0.00000000    0.00000000    0.00000000
     atom    4 type  3   force =     0.00000006    0.00304270    0.00215163
     atom    5 type  3   force =    -0.00000011   -0.00304287   -0.00215139
     atom    6 type  3   force =     0.00263882   -0.00152378    0.00215554
     atom    7 type  3   force =    -0.00263824    0.00152357   -0.00215490
     atom    8 type  3   force =     0.00263799    0.00152371   -0.00215436
     atom    9 type  3   force =    -0.00263775   -0.00152352    0.00215449
     The Hubbard contrib.    to forces
     atom    1 type  1   force =     0.00000000    0.00000000    0.00000000
     atom    2 type  1   force =     0.00000000    0.00000000    0.00000000
     atom    3 type  2   force =     0.00000000    0.00000000    0.00000000
     atom    4 type  3   force =     0.00000000    0.00000000    0.00000000
     atom    5 type  3   force =     0.00000000    0.00000000    0.00000000
     atom    6 type  3   force =     0.00000000    0.00000000    0.00000000
     atom    7 type  3   force =     0.00000000    0.00000000    0.00000000
     atom    8 type  3   force =     0.00000000    0.00000000    0.00000000
     atom    9 type  3   force =     0.00000000    0.00000000    0.00000000
     The SCF correction term to forces
     atom    1 type  1   force =     0.00000498    0.00000675   -0.00002927
     atom    2 type  1   force =    -0.00000168   -0.00000758    0.00002789
     atom    3 type  2   force =     0.00000117    0.00000088   -0.00000114
     atom    4 type  3   force =    -0.00000609   -0.00005064   -0.00013744
     atom    5 type  3   force =     0.00000666    0.00005109    0.00013676
     atom    6 type  3   force =     0.00003134   -0.00006055   -0.00002945
     atom    7 type  3   force =    -0.00003027    0.00006089    0.00003045
     atom    8 type  3   force =     0.00001325    0.00004276    0.00003569
     atom    9 type  3   force =    -0.00001317   -0.00004213   -0.00003545

     Total force =     0.049546     Total SCF correction =     0.000249

     Computing stress (Cartesian axis) and pressure

     negative rho (up, down):  8.834E-02 0.000E+00
          total   stress  (Ry/bohr**3)                   (kbar)     P=       22.44
   0.00015277  -0.00000000  -0.00000000           22.47       -0.00       -0.00
   0.00000000   0.00015277  -0.00000000            0.00       22.47       -0.00
   0.00000000  -0.00000000   0.00015202            0.00       -0.00       22.36

     kinetic stress (kbar)   6972.40      0.00      0.00
                                0.00   6972.40      0.00
                                0.00      0.00   6972.73

     local   stress (kbar)  -7810.30      0.07     -0.14
                                0.07  -7808.79      0.58
                               -0.14      0.58  -7810.17

     nonloc. stress (kbar)   5824.48      0.00      0.00
                                0.00   5824.48      0.00
                                0.00      0.00   5824.49

     hartree stress (kbar)   3427.69     -0.03      0.05
                               -0.03   3427.17     -0.24
                                0.05     -0.24   3427.60

     exc-cor stress (kbar)   3258.72     -0.00      0.00
                               -0.00   3258.72     -0.00
                                0.00     -0.00   3258.72

     corecor stress (kbar)  -5202.61      0.00     -0.00
                                0.00  -5202.61      0.00
                               -0.00      0.00  -5202.61

     ewald   stress (kbar)  -6448.41     -0.00     -0.00
                               -0.00  -6448.41     -0.00
                               -0.00     -0.00  -6448.41

     hubbard stress (kbar)      0.00      0.00      0.00
                                0.00      0.00      0.00
                                0.00      0.00      0.00

     DFT-D   stress (kbar)      0.00      0.00      0.00
                                0.00      0.00      0.00
                                0.00      0.00      0.00

     XDM     stress (kbar)      0.00      0.00      0.00
                                0.00      0.00      0.00
                                0.00      0.00      0.00

     dft-nl  stress (kbar)      0.00      0.00      0.00
                                0.00      0.00      0.00
                                0.00      0.00      0.00

     TS-vdW  stress (kbar)      0.00      0.00      0.00
                                0.00      0.00      0.00
                                0.00      0.00      0.00

[...]

                                0.00      0.00      0.00

     Writing all to output data dir new_calculations/myprefix.save/

     General routines

     Parallel routines

   This run was terminated on:   2: 0:46  21May2023

   JOB DONE.