     Program PWSCF v.7.0 starts on 20May2023 at 14:56: 8

     Reading input from espresso_16422.pwi
Warning: card &CELL ignored
Warning: card / ignored

     Current dimensions of program PWSCF are:
     Max number of different atomic species (ntypx) = 10
     Max number of k-points (npk) =  40000
     Max angular momentum in pseudopotentials (lmaxx) =  4

     gamma-point specific algorithms are used
     Message from routine setup:
     using ibrav=0 with symmetry is DISCOURAGED, use correct ibrav instead

     Subspace diagonalization in iterative solution of the eigenvalue problem:
     a serial algorithm will be used

     Using Slab Decomposition

     bravais-lattice index     =            0
     lattice parameter (alat)  =      12.4005  a.u.
     unit-cell volume          =    1104.0743 (a.u.)^3
     number of atoms/cell      =           12
     number of atomic types    =            3
     number of electrons       =        84.00
     number of Kohn-Sham states=           50
     kinetic-energy cutoff     =      30.0000  Ry
     charge density cutoff     =     240.0000  Ry
     scf convergence threshold =      1.0E-06
     mixing beta               =       0.7000
     number of iterations used =            8  plain     mixing
     Exchange-correlation= PBE
                           (   1   4   3   4   0   0   0)

     celldm(1)=  12.400488  celldm(2)=   0.000000  celldm(3)=   0.000000
     celldm(4)=   0.000000  celldm(5)=   0.000000  celldm(6)=   0.000000

     crystal axes: (cart. coord. in units of alat)
               a(1) = (   1.000000   0.000000   0.000000 )
               a(2) = (  -0.488436   0.872600   0.000000 )
               a(3) = (   0.000000   0.000000   0.663540 )

     reciprocal axes: (cart. coord. in units 2 pi/alat)
               b(1) = (  1.000000  0.559748  0.000000 )
               b(2) = (  0.000000  1.146001  0.000000 )
               b(3) = (  0.000000  0.000000  1.507069 )

     PseudoPot. # 1 for Li read from file:
     /home/pragov/projects/rrg-bengioy-ad/pragov/crystal_structure_design/SSSP/li_pbe_v1.4.uspp.F.UPF
     MD5 check sum: e912e257baa3777c20ea3d68f190483c
     Pseudo is Ultrasoft, Zval =  3.0
     Generated by new atomic code, or converted to UPF format
     Using radial grid of  751 points,  5 beta functions with:
                l(1) =   0
                l(2) =   0
                l(3) =   0
                l(4) =   1
                l(5) =   1
     Q(r) pseudized with 10 coefficients,  rinner =    1.150   1.150   1.150

     PseudoPot. # 2 for Hf read from file:
     /home/pragov/projects/rrg-bengioy-ad/pragov/crystal_structure_design/SSSP/Hf-sp.oncvpsp.upf
     MD5 check sum: 417ed15784afe83d2e06dacf143de3f8
     Pseudo is Norm-conserving + core correction, Zval = 12.0
     Generated using ONCVPSP code by D. R. Hamann
     Using radial grid of 1656 points,  8 beta functions with:
                l(1) =   0
                l(2) =   0
                l(3) =   1
                l(4) =   1
                l(5) =   2
                l(6) =   2
                l(7) =   3
                l(8) =   3

     PseudoPot. # 3 for N  read from file:
     /home/pragov/projects/rrg-bengioy-ad/pragov/crystal_structure_design/SSSP/N.pbe-n-radius_5.UPF
     MD5 check sum: 16739722b17309cd8fe442a2ace49922
     Pseudo is Ultrasoft + core correction, Zval =  5.0
     Generated using "atomic" code by A. Dal Corso  v.5.1
     Using radial grid of 1085 points,  4 beta functions with:
                l(1) =   0
                l(2) =   0
                l(3) =   1
                l(4) =   1
     Q(r) pseudized with 0 coefficients

     atomic species   valence    mass     pseudopotential
        Li             3.00     6.94000     Li( 1.00)
        Hf            12.00   178.49000     Hf( 1.00)
        N              5.00    14.00700     N ( 1.00)

      4 Sym. Ops., with inversion, found ( 2 have fractional translation)

                                    s                        frac. trans.

      isym =  1     identity

 cryst.   s( 1) = (     1          0          0      )
                  (     0          1          0      )
                  (     0          0          1      )

 cart.    s( 1) = (  1.0000000  0.0000000  0.0000000 )
                  (  0.0000000  1.0000000  0.0000000 )
                  (  0.0000000  0.0000000  1.0000000 )

      isym =  2     180 deg rotation - cart. axis [0,0,1]

 cryst.   s( 2) = (    -1          0          0      )    f =(  0.0000000 )
                  (     0         -1          0      )       ( -0.0000000 )
                  (     0          0          1      )       (  0.5000000 )

 cart.    s( 2) = ( -1.0000000 -0.0000000  0.0000000 )    f =(  0.0000000 )
                  (  0.0000000 -1.0000000  0.0000000 )       ( -0.0000000 )
                  (  0.0000000  0.0000000  1.0000000 )       (  0.3317699 )

      isym =  3     inversion

 cryst.   s( 3) = (    -1          0          0      )
                  (     0         -1          0      )
                  (     0          0         -1      )

 cart.    s( 3) = ( -1.0000000 -0.0000000  0.0000000 )
                  (  0.0000000 -1.0000000  0.0000000 )
                  (  0.0000000  0.0000000 -1.0000000 )

      isym =  4     inv. 180 deg rotation - cart. axis [0,0,1]

 cryst.   s( 4) = (     1          0          0      )    f =(  0.0000000 )
                  (     0          1          0      )       (  0.0000000 )
                  (     0          0         -1      )       (  0.5000000 )

 cart.    s( 4) = (  1.0000000  0.0000000  0.0000000 )    f =(  0.0000000 )
                  (  0.0000000  1.0000000  0.0000000 )       (  0.0000000 )
                  (  0.0000000  0.0000000 -1.0000000 )       (  0.3317699 )

   Cartesian axes

     site n.     atom                  positions (alat units)
         1           Li  tau(   1) = (   0.3233170   0.5514978   0.4976549  )
         2           Li  tau(   2) = (   0.1882468   0.3211018   0.1658850  )
         3           Hf  tau(   3) = (  -0.1479192   0.2926586   0.4976549  )
         4           Hf  tau(   4) = (   0.3276228   0.0138708   0.4976549  )
         5           Hf  tau(   5) = (   0.6594830   0.5799410   0.1658850  )
         6           Hf  tau(   6) = (   0.1839410   0.8587288   0.1658850  )
         7           N   tau(   7) = (   0.8021169   0.2886263   0.1658850  )
         8           N   tau(   8) = (  -0.1399278   0.8409024   0.1658850  )
         9           N   tau(   9) = (  -0.2905531   0.5839733   0.4976549  )
        10           N   tau(  10) = (   0.6514916   0.0316972   0.4976549  )
        11           N   tau(  11) = (   0.3534783   0.6029454   0.1658850  )
        12           N   tau(  12) = (   0.1580855   0.2696542   0.4976549  )

   Crystallographic axes

     site n.     atom                  positions (cryst. coord.)
         1           Li  tau(   1) = (  0.6320170  0.6320170  0.7500000  )
         2           Li  tau(   2) = (  0.3679830  0.3679830  0.2500000  )
         3           Hf  tau(   3) = (  0.0158960  0.3353870  0.7500000  )
         4           Hf  tau(   4) = (  0.3353870  0.0158960  0.7500000  )
         5           Hf  tau(   5) = (  0.9841040  0.6646130  0.2500000  )
         6           Hf  tau(   6) = (  0.6646130  0.9841040  0.2500000  )
         7           N   tau(   7) = (  0.9636750  0.3307660  0.2500000  )
         8           N   tau(   8) = (  0.3307660  0.9636750  0.2500000  )
         9           N   tau(   9) = (  0.0363250  0.6692340  0.7500000  )
        10           N   tau(  10) = (  0.6692340  0.0363250  0.7500000  )
        11           N   tau(  11) = (  0.6909760  0.6909760  0.2500000  )
        12           N   tau(  12) = (  0.3090240  0.3090240  0.7500000  )

     number of k points=     1  Methfessel-Paxton smearing, width (Ry)=  0.0010
                       cart. coord. in units 2pi/alat
        k(    1) = (   0.0000000   0.0000000   0.0000000), wk =   2.0000000

                       cryst. coord.
        k(    1) = (   0.0000000   0.0000000   0.0000000), wk =   2.0000000

     Check: negative core charge=   -0.000002

     Initial potential from superposition of free atoms

     starting charge      83.0911, renormalised to      84.0000
     Starting wfcs are   74 randomized atomic wfcs

     Self-consistent Calculation

     iteration #  1     ecut=    30.00 Ry     beta= 0.70
     Davidson diagonalization with overlap

     ethr =  1.00E-02,  avg # of iterations =  2.0

     total energy              =    -598.53704827 Ry
     estimated scf accuracy    <       5.93062337 Ry

[...]

     c_bands:  1 eigenvalues not converged
     ethr =  1.00E-06,  avg # of iterations = 20.0

[...]

     total energy              =    -601.54879537 Ry
     estimated scf accuracy    <       0.00000282 Ry

     iteration # 13     ecut=    30.00 Ry     beta= 0.70
     Davidson diagonalization with overlap

     ethr =  3.35E-09,  avg # of iterations =  3.0

     End of self-consistent calculation

          k = 0.0000 0.0000 0.0000 (  1518 PWs)   bands (ev):

   -51.6633 -51.6447 -51.6435 -51.6395 -34.7779 -34.7595 -20.7887 -20.7255
   -20.6545 -20.5976 -20.5886 -20.5559 -20.5283 -20.4116 -20.3797 -20.3571
   -20.3189 -20.3038  -4.5521  -3.5920  -3.5754  -3.5307  -2.4801  -2.4626
     5.9232   6.1048   6.2772   6.3197   6.3206   6.7805   6.7864   6.9070
     6.9395   7.2754   7.3913   7.4037   7.5200   7.8316   7.9258   9.1064
     9.2212   9.4706   9.6424  11.2838  11.9541  12.0480  12.6762  13.3189
    13.9877  14.1957

     occupation numbers
     1.0000   1.0000   1.0000   1.0000   1.0000   1.0000   1.0000   1.0000
     1.0000   1.0000   1.0000   1.0000   1.0000   1.0000   1.0000   1.0000
     1.0000   1.0000   1.0000   1.0000   1.0000   1.0000   1.0000   1.0000
     1.0000   1.0000   1.0000   1.0000   1.0000   1.0000   1.0000   1.0000
     1.0000   1.0000   1.0000   1.0000   1.0000   1.0000   1.0000   1.0000
     1.0000   1.0000  -0.0000  -0.0000  -0.0000  -0.0000  -0.0000  -0.0000
    -0.0000  -0.0000

     the Fermi energy is     9.5528 ev

!    total energy              =    -601.54879582 Ry
     estimated scf accuracy    <       0.00000053 Ry
     smearing contrib. (-TS)   =       0.00000000 Ry
     internal energy E=F+TS    =    -601.54879582 Ry

     The total energy is F=E-TS. E is the sum of the following terms:
     one-electron contribution =    -184.80788267 Ry
     hartree contribution      =     123.49956527 Ry
     xc contribution           =    -154.08699143 Ry
     ewald contribution        =    -386.15348699 Ry

     convergence has been achieved in  13 iterations

     Forces acting on atoms (cartesian axes, Ry/au):

     atom    1 type  1   force =     0.00746774    0.01274886    0.00000000
     atom    2 type  1   force =    -0.00746774   -0.01274886    0.00000000
     atom    3 type  2   force =     0.16677734    0.04020272    0.00000000
     atom    4 type  2   force =    -0.04636845    0.16518321    0.00000000
     atom    5 type  2   force =    -0.16677734   -0.04020272    0.00000000
     atom    6 type  2   force =     0.04636845   -0.16518321   -0.00000000
     atom    7 type  3   force =    -0.15273967    0.00409947    0.00000000
     atom    8 type  3   force =     0.07822201   -0.13127642    0.00000000
     atom    9 type  3   force =     0.15273967   -0.00409947    0.00000000
     atom   10 type  3   force =    -0.07822201    0.13127642    0.00000000
     atom   11 type  3   force =    -0.00233671   -0.00391112    0.00000000
     atom   12 type  3   force =     0.00233671    0.00391112    0.00000000
     The non-local contrib.  to forces
     atom    1 type  1   force =     0.02895841    0.04939812    0.00000000
     atom    2 type  1   force =    -0.02895841   -0.04939812   -0.00000000
     atom    3 type  2   force =    -0.08909897    0.00282851    0.00000000
     atom    4 type  2   force =     0.04596028   -0.07637065    0.00000000
     atom    5 type  2   force =     0.08909897   -0.00282851    0.00000000
     atom    6 type  2   force =    -0.04596028    0.07637065    0.00000000
     atom    7 type  3   force =     0.23174822    0.00825967    0.00000000
     atom    8 type  3   force =    -0.10594541    0.20631621   -0.00000000
     atom    9 type  3   force =    -0.23174822   -0.00825967    0.00000000
     atom   10 type  3   force =     0.10594541   -0.20631621    0.00000000
     atom   11 type  3   force =     0.14654222    0.25006732    0.00000000
     atom   12 type  3   force =    -0.14654222   -0.25006732    0.00000000
     The ionic contribution  to forces
     atom    1 type  1   force =    -0.39659216   -0.67648682    0.00000000
     atom    2 type  1   force =     0.39659216    0.67648682   -0.00000000
     atom    3 type  2   force =     5.00418459   -0.18294922    0.00000000
     atom    4 type  2   force =    -2.60386632    4.27729050    0.00000000
     atom    5 type  2   force =    -5.00418459    0.18294922   -0.00000000
     atom    6 type  2   force =     2.60386632   -4.27729050   -0.00000000
     atom    7 type  3   force =     3.01798981   -0.20106835   -0.00000000
     atom    8 type  3   force =    -1.64954764    2.53528767   -0.00000000
     atom    9 type  3   force =    -3.01798981    0.20106835    0.00000000
     atom   10 type  3   force =     1.64954764   -2.53528767    0.00000000
     atom   11 type  3   force =    -2.43776291   -4.15821245   -0.00000000
     atom   12 type  3   force =     2.43776291    4.15821245    0.00000000
     The local contribution  to forces
     atom    1 type  1   force =     0.37504332    0.63961008    0.00000003
     atom    2 type  1   force =    -0.37498385   -0.63978687    0.00000002
     atom    3 type  2   force =    -4.76763501    0.22445690    0.00000184
     atom    4 type  2   force =     2.52416203   -4.05103685    0.00000936
     atom    5 type  2   force =     4.76820329   -0.22350747    0.00000054
     atom    6 type  2   force =    -2.52472415    4.05104732    0.00000515
     atom    7 type  3   force =    -3.39978696    0.19715601   -0.00000019
     atom    8 type  3   force =     1.83237429   -2.87051537    0.00000724
     atom    9 type  3   force =     3.39973628   -0.19691677   -0.00000860
     atom   10 type  3   force =    -1.83296675    2.87030005   -0.00001908
     atom   11 type  3   force =     2.28973470    3.90550313    0.00002406
     atom   12 type  3   force =    -2.28938409   -3.90557771   -0.00001728
     The core correction contribution to forces
     atom    1 type  1   force =     0.00000000    0.00000000    0.00000000
     atom    2 type  1   force =     0.00000000    0.00000000    0.00000000
     atom    3 type  2   force =     0.02004035   -0.00327507    0.00000029
     atom    4 type  2   force =    -0.01263810    0.01587599    0.00000140
     atom    5 type  2   force =    -0.02002008    0.00328901   -0.00000032
     atom    6 type  2   force =     0.01264317   -0.01587473    0.00000148
     atom    7 type  3   force =    -0.00274010   -0.00002064    0.00000010
     atom    8 type  3   force =     0.00132099   -0.00240241    0.00000011
     atom    9 type  3   force =     0.00273924    0.00001978   -0.00000007
     atom   10 type  3   force =    -0.00131968    0.00240024   -0.00000023
     atom   11 type  3   force =    -0.00092973   -0.00158606    0.00000050
     atom   12 type  3   force =     0.00092921    0.00158751   -0.00000004
     The Hubbard contrib.    to forces
     atom    1 type  1   force =     0.00000000    0.00000000    0.00000000
     atom    2 type  1   force =     0.00000000    0.00000000    0.00000000
     atom    3 type  2   force =     0.00000000    0.00000000    0.00000000
     atom    4 type  2   force =     0.00000000    0.00000000    0.00000000
     atom    5 type  2   force =     0.00000000    0.00000000    0.00000000
     atom    6 type  2   force =     0.00000000    0.00000000    0.00000000
     atom    7 type  3   force =     0.00000000    0.00000000    0.00000000
     atom    8 type  3   force =     0.00000000    0.00000000    0.00000000
     atom    9 type  3   force =     0.00000000    0.00000000    0.00000000
     atom   10 type  3   force =     0.00000000    0.00000000    0.00000000
     atom   11 type  3   force =     0.00000000    0.00000000    0.00000000
     atom   12 type  3   force =     0.00000000    0.00000000    0.00000000
     The SCF correction term to forces
     atom    1 type  1   force =     0.00006175    0.00023288    0.00000225
     atom    2 type  1   force =    -0.00011409   -0.00004528    0.00000246
     atom    3 type  2   force =    -0.00068393   -0.00083906   -0.00000515
     atom    4 type  2   force =     0.00006955   -0.00059521    0.00000534
     atom    5 type  2   force =     0.00015475   -0.00008563    0.00000758
     atom    6 type  2   force =     0.00059930    0.00054462   -0.00000796
     atom    7 type  3   force =     0.00001647   -0.00027675    0.00000035
     atom    8 type  3   force =     0.00004116   -0.00004312   -0.00000560
     atom    9 type  3   force =    -0.00003069   -0.00006068    0.00000663
     atom   10 type  3   force =     0.00059276    0.00009941    0.00000484
     atom   11 type  3   force =     0.00008108    0.00039170   -0.00000883
     atom   12 type  3   force =    -0.00042703   -0.00016907    0.00000483

     Total force =     0.460009     Total SCF correction =     0.001763

     Computing stress (Cartesian axis) and pressure

          total   stress  (Ry/bohr**3)                   (kbar)     P=      -97.62
  -0.00122609  -0.00000174   0.00000000         -180.36       -0.26        0.00
  -0.00000174  -0.00122820   0.00000000           -0.26     -180.68        0.00
   0.00000000   0.00000000   0.00046343            0.00        0.00       68.17

     kinetic stress (kbar)  17006.09    -22.39      0.00
                              -22.39  16980.99      0.00
                                0.00      0.00  16899.32

     local   stress (kbar)  -2544.88  -1516.25     -0.00
                            -1516.25  -4242.28     -0.00
                               -0.00     -0.00 -15646.23

     nonloc. stress (kbar)   6956.92     -7.04      0.00
                               -7.04   6949.04      0.00
                                0.00      0.00   7019.60

     hartree stress (kbar)   3377.78    788.47      0.00
                              788.47   4260.44      0.00
                                0.00      0.00   8816.66

     exc-cor stress (kbar)   3957.69     -2.47      0.00
                               -2.47   3954.93      0.00
                                0.00      0.00   3952.83

     corecor stress (kbar)  -8846.71      1.96      0.00
                                1.96  -8844.51      0.00
                                0.00      0.00  -8850.10

     ewald   stress (kbar) -20087.26    757.46      0.00
                              757.46 -19239.29     -0.00
                                0.00     -0.00 -12123.92

     hubbard stress (kbar)      0.00      0.00      0.00
                                0.00      0.00      0.00
                                0.00      0.00      0.00

     DFT-D   stress (kbar)      0.00      0.00      0.00
                                0.00      0.00      0.00
                                0.00      0.00      0.00

     XDM     stress (kbar)      0.00      0.00      0.00
                                0.00      0.00      0.00
                                0.00      0.00      0.00

     dft-nl  stress (kbar)      0.00      0.00      0.00
                                0.00      0.00      0.00
                                0.00      0.00      0.00

     TS-vdW  stress (kbar)      0.00      0.00      0.00
                                0.00      0.00      0.00
                                0.00      0.00      0.00

[...]

                                0.00      0.00      0.00

     Writing all to output data dir new_calculations/myprefix.save/

     General routines

     Parallel routines

   This run was terminated on:  14:56:29  20May2023

   JOB DONE.