     Program PWSCF v.7.0 starts on 21May2023 at  3: 1:22

     Reading input from espresso_3993.pwi
Warning: card &CELL ignored
Warning: card / ignored

     Current dimensions of program PWSCF are:
     Max number of different atomic species (ntypx) = 10
     Max number of k-points (npk) =  40000
     Max angular momentum in pseudopotentials (lmaxx) =  4

     gamma-point specific algorithms are used
     Message from routine setup:
     using ibrav=0 with symmetry is DISCOURAGED, use correct ibrav instead

     Subspace diagonalization in iterative solution of the eigenvalue problem:
     a serial algorithm will be used

     Using Slab Decomposition

     bravais-lattice index     =            0
     lattice parameter (alat)  =       7.8420  a.u.
     unit-cell volume          =    1254.6228 (a.u.)^3
     number of atoms/cell      =           12
     number of atomic types    =            2
     number of electrons       =       188.00
     number of Kohn-Sham states=          113
     kinetic-energy cutoff     =      30.0000  Ry
     charge density cutoff     =     240.0000  Ry
     scf convergence threshold =      1.0E-06
     mixing beta               =       0.7000
     number of iterations used =            8  plain     mixing
     Exchange-correlation= PBE
                           (   1   4   3   4   0   0   0)

     celldm(1)=   7.842018  celldm(2)=   0.000000  celldm(3)=   0.000000
     celldm(4)=   0.000000  celldm(5)=   0.000000  celldm(6)=   0.000000

     crystal axes: (cart. coord. in units of alat)
               a(1) = (   1.000000   0.000000   0.000000 )
               a(2) = (   0.000000   1.320157   0.000000 )
               a(3) = (   0.000000   0.000000   1.970626 )

     reciprocal axes: (cart. coord. in units 2 pi/alat)
               b(1) = (  1.000000  0.000000  0.000000 )
               b(2) = (  0.000000  0.757486  0.000000 )
               b(3) = (  0.000000  0.000000  0.507453 )

     PseudoPot. # 1 for Ta read from file:
     /home/pragov/projects/rrg-bengioy-ad/pragov/crystal_structure_design/SSSP/Ta_pbe_v1.uspp.F.UPF
     MD5 check sum: f8bbe9446314a3b8ea5d9f3e3836c939
     Pseudo is Ultrasoft + core correction, Zval = 13.0
     Generated by new atomic code, or converted to UPF format
     Using radial grid of  921 points,  7 beta functions with:
                l(1) =   0
                l(2) =   0
                l(3) =   1
                l(4) =   1
                l(5) =   2
                l(6) =   2
                l(7) =   3
     Q(r) pseudized with  6 coefficients,  rinner =    1.300   1.300   1.300
                                                       1.300   1.300   1.300
                                                       1.300

     PseudoPot. # 2 for Rh read from file:
     /home/pragov/projects/rrg-bengioy-ad/pragov/crystal_structure_design/SSSP/Rh_ONCV_PBE-1.0.oncvpsp.upf
     MD5 check sum: ba07c69523b14cacd10683cd4c4284c1
     Pseudo is Norm-conserving, Zval = 17.0
     Generated using ONCVPSP code by D. R. Hamann
     Using radial grid of 1442 points,  6 beta functions with:
                l(1) =   0
                l(2) =   0
                l(3) =   1
                l(4) =   1
                l(5) =   2
                l(6) =   2

     atomic species   valence    mass     pseudopotential
        Ta            13.00   180.94788     Ta( 1.00)
        Rh            17.00   102.90550     Rh( 1.00)

      8 Sym. Ops., with inversion, found ( 6 have fractional translation)

                                    s                        frac. trans.

      isym =  1     identity

 cryst.   s( 1) = (     1          0          0      )
                  (     0          1          0      )
                  (     0          0          1      )

 cart.    s( 1) = (  1.0000000  0.0000000  0.0000000 )
                  (  0.0000000  1.0000000  0.0000000 )
                  (  0.0000000  0.0000000  1.0000000 )

      isym =  2     180 deg rotation - cart. axis [0,0,1]

 cryst.   s( 2) = (    -1          0          0      )    f =(  0.0000000 )
                  (     0         -1          0      )       ( -0.5000000 )
                  (     0          0          1      )       ( -0.5000000 )

 cart.    s( 2) = ( -1.0000000  0.0000000  0.0000000 )    f =(  0.0000000 )
                  (  0.0000000 -1.0000000  0.0000000 )       ( -0.6600784 )
                  (  0.0000000  0.0000000  1.0000000 )       ( -0.9853131 )

[...]

      isym =  4     180 deg rotation - cart. axis [1,0,0]

[...]

      isym =  5     inversion

 cryst.   s( 5) = (    -1          0          0      )
                  (     0         -1          0      )
                  (     0          0         -1      )

 cart.    s( 5) = ( -1.0000000  0.0000000  0.0000000 )
                  (  0.0000000 -1.0000000  0.0000000 )
                  (  0.0000000  0.0000000 -1.0000000 )

      isym =  6     inv. 180 deg rotation - cart. axis [0,0,1]

[...]

      isym =  8     inv. 180 deg rotation - cart. axis [1,0,0]

 cryst.   s( 8) = (    -1          0          0      )    f =(  0.5000000 )
                  (     0          1          0      )       (  0.0000000 )
                  (     0          0          1      )       (  0.0000000 )

 cart.    s( 8) = ( -1.0000000  0.0000000  0.0000000 )    f =(  0.5000000 )
                  (  0.0000000  1.0000000  0.0000000 )       (  0.0000000 )
                  (  0.0000000  0.0000000  1.0000000 )       (  0.0000000 )

   Cartesian axes

     site n.     atom                  positions (alat units)
         1           Ta  tau(   1) = (   0.2500000   0.4326299   1.7634326  )
         2           Ta  tau(   2) = (   0.2500000   1.0927083   1.1925067  )
         3           Ta  tau(   3) = (   0.7500000   0.8875269   0.2071936  )
         4           Ta  tau(   4) = (   0.7500000   0.2274485   0.7781195  )
         5           Rh  tau(   5) = (   0.2500000   0.4555663   1.1212272  )
         6           Rh  tau(   6) = (   0.2500000   1.1156447   1.8347121  )
         7           Rh  tau(   7) = (   0.7500000   0.8645905   0.8493990  )
         8           Rh  tau(   8) = (   0.7500000   0.2045121   0.1359141  )
         9           Rh  tau(   9) = (   0.2500000   0.5655354   0.4410320  )
        10           Rh  tau(  10) = (   0.2500000   1.2256137   0.5442810  )
        11           Rh  tau(  11) = (   0.7500000   0.7546214   1.5295941  )
        12           Rh  tau(  12) = (   0.7500000   0.0945430   1.4263451  )

   Crystallographic axes

     site n.     atom                  positions (cryst. coord.)
         1           Ta  tau(   1) = (  0.2500000  0.3277110  0.8948590  )
         2           Ta  tau(   2) = (  0.2500000  0.8277110  0.6051410  )
         3           Ta  tau(   3) = (  0.7500000  0.6722890  0.1051410  )
         4           Ta  tau(   4) = (  0.7500000  0.1722890  0.3948590  )
         5           Rh  tau(   5) = (  0.2500000  0.3450850  0.5689700  )
         6           Rh  tau(   6) = (  0.2500000  0.8450850  0.9310300  )
         7           Rh  tau(   7) = (  0.7500000  0.6549150  0.4310300  )
         8           Rh  tau(   8) = (  0.7500000  0.1549150  0.0689700  )
         9           Rh  tau(   9) = (  0.2500000  0.4283850  0.2238030  )
        10           Rh  tau(  10) = (  0.2500000  0.9283850  0.2761970  )
        11           Rh  tau(  11) = (  0.7500000  0.5716150  0.7761970  )
        12           Rh  tau(  12) = (  0.7500000  0.0716150  0.7238030  )

     number of k points=     1  Methfessel-Paxton smearing, width (Ry)=  0.0010
                       cart. coord. in units 2pi/alat
        k(    1) = (   0.0000000   0.0000000   0.0000000), wk =   2.0000000

                       cryst. coord.
        k(    1) = (   0.0000000   0.0000000   0.0000000), wk =   2.0000000

     Check: negative core charge=   -0.000002

     Initial potential from superposition of free atoms

     starting charge     187.9921, renormalised to     188.0000

     negative rho (up, down):  3.757E-01 0.000E+00
     Starting wfcs are  132 randomized atomic wfcs

     Self-consistent Calculation

     iteration #  1     ecut=    30.00 Ry     beta= 0.70
     Davidson diagonalization with overlap

     ethr =  1.00E-02,  avg # of iterations =  3.0

     negative rho (up, down):  3.750E-01 0.000E+00

     total energy              =   -2301.27692235 Ry
     estimated scf accuracy    <       3.43607552 Ry

[...]

     total energy              =   -2303.53246178 Ry
     estimated scf accuracy    <       0.00000207 Ry

     iteration # 21     ecut=    30.00 Ry     beta= 0.70
     Davidson diagonalization with overlap

     ethr =  7.29E-10,  avg # of iterations =  1.0

[...]

     End of self-consistent calculation

          k = 0.0000 0.0000 0.0000 (  1745 PWs)   bands (ev):

   -57.1684 -57.1661 -57.1529 -57.1525 -56.9875 -56.9861 -56.9623 -56.9618
   -47.2264 -47.2258 -47.2197 -47.2181 -25.2463 -25.2461 -25.2312 -25.2259
   -25.1951 -25.1805 -25.1795 -25.1279 -25.1050 -25.0504 -24.9760 -24.9712
   -24.9699 -24.9667 -24.9583 -24.9487 -24.8933 -24.8799 -24.8745 -24.8372
   -24.6062 -24.5728 -24.5224 -24.5190 -13.7861 -13.7530 -13.7213 -13.7076
   -13.7055 -13.6667 -13.6522 -13.6443 -13.6064 -13.6061 -13.5971 -13.5653
    13.1191  15.4385  15.5633  15.6572  15.9549  16.0117  16.2911  16.2996
    16.4359  16.4639  16.5967  16.6638  16.7600  16.9085  17.0009  17.3717
    17.4177  17.5780  17.9363  17.9508  18.0161  18.0485  18.1521  18.2715
    18.5687  18.7479  18.8416  18.8675  19.0398  19.0459  19.1369  19.1475
    19.4935  19.5557  19.5830  19.9664  20.0109  20.0344  20.5898  20.6452
    20.7623  20.9406  20.9811  20.9978  21.4348  21.4540  21.5382  21.9632
    22.4419  22.6289  23.0872  23.1717  23.3883  23.4071  23.4141  23.5065
    23.6957  23.8533  23.9854  24.2385  24.2634  24.4466  24.6253  25.1128
    25.1206

     occupation numbers
     1.0000   1.0000   1.0000   1.0000   1.0000   1.0000   1.0000   1.0000
     1.0000   1.0000   1.0000   1.0000   1.0000   1.0000   1.0000   1.0000
     1.0000   1.0000   1.0000   1.0000   1.0000   1.0000   1.0000   1.0000
     1.0000   1.0000   1.0000   1.0000   1.0000   1.0000   1.0000   1.0000
     1.0000   1.0000   1.0000   1.0000   1.0000   1.0000   1.0000   1.0000
     1.0000   1.0000   1.0000   1.0000   1.0000   1.0000   1.0000   1.0000
     1.0000   1.0000   1.0000   1.0000   1.0000   1.0000   1.0000   1.0000
     1.0000   1.0000   1.0000   1.0000   1.0000   1.0000   1.0000   1.0000
     1.0000   1.0000   1.0000   1.0000   1.0000   1.0000   1.0000   1.0000
     1.0000   1.0000   1.0000   1.0000   1.0000   1.0000   1.0000   1.0000
     1.0000   1.0000   1.0000   1.0000   1.0000   1.0000   1.0000   1.0000
     1.0000   1.0000   1.0000   1.0000   1.0000   1.0001  -0.0001  -0.0000
    -0.0000  -0.0000  -0.0000  -0.0000  -0.0000  -0.0000  -0.0000  -0.0000
    -0.0000  -0.0000  -0.0000  -0.0000  -0.0000  -0.0000  -0.0000  -0.0000
    -0.0000

     the Fermi energy is    21.4961 ev

!    total energy              =   -2303.53246177 Ry
     estimated scf accuracy    <       0.00000012 Ry
     smearing contrib. (-TS)   =       0.00000071 Ry
     internal energy E=F+TS    =   -2303.53246248 Ry

     The total energy is F=E-TS. E is the sum of the following terms:
     one-electron contribution =    -508.85276774 Ry
     hartree contribution      =     368.96733882 Ry
     xc contribution           =    -345.20759517 Ry
     ewald contribution        =   -1818.43943839 Ry

     convergence has been achieved in  21 iterations

     negative rho (up, down):  3.814E-01 0.000E+00

     Forces acting on atoms (cartesian axes, Ry/au):

     atom    1 type  1   force =    -0.00000000   -0.03641648    0.00126387
     atom    2 type  1   force =     0.00000000   -0.03641648   -0.00126387
     atom    3 type  1   force =     0.00000000    0.03641648   -0.00126387
     atom    4 type  1   force =     0.00000000    0.03641648    0.00126387
     atom    5 type  2   force =     0.00000000   -0.05299339    0.00030790
     atom    6 type  2   force =     0.00000000   -0.05299339   -0.00030790
     atom    7 type  2   force =    -0.00000000    0.05299339   -0.00030790
     atom    8 type  2   force =    -0.00000000    0.05299339    0.00030790
     atom    9 type  2   force =     0.00000000   -0.00654584   -0.05140593
     atom   10 type  2   force =     0.00000000   -0.00654584    0.05140593
     atom   11 type  2   force =     0.00000000    0.00654584    0.05140593
     atom   12 type  2   force =     0.00000000    0.00654584   -0.05140593
     The non-local contrib.  to forces
     atom    1 type  1   force =    -0.00000000   -0.01330489    0.00358044
     atom    2 type  1   force =     0.00000000   -0.01330489   -0.00358044
     atom    3 type  1   force =     0.00000000    0.01330489   -0.00358044
     atom    4 type  1   force =     0.00000000    0.01330489    0.00358044
     atom    5 type  2   force =     0.00000000   -0.10470671    0.02021010
     atom    6 type  2   force =    -0.00000000   -0.10470671   -0.02021010
     atom    7 type  2   force =     0.00000000    0.10470671   -0.02021010
     atom    8 type  2   force =     0.00000000    0.10470671    0.02021010
     atom    9 type  2   force =     0.00000000    0.13645938   -0.00900597
     atom   10 type  2   force =     0.00000000    0.13645938    0.00900597
     atom   11 type  2   force =     0.00000000   -0.13645938    0.00900597
     atom   12 type  2   force =     0.00000000   -0.13645938   -0.00900597
     The ionic contribution  to forces
     atom    1 type  1   force =     0.00000000    1.68674151    1.56975540
     atom    2 type  1   force =    -0.00000000    1.68674151   -1.56975540
     atom    3 type  1   force =    -0.00000000   -1.68674151   -1.56975540
     atom    4 type  1   force =    -0.00000000   -1.68674151    1.56975540
     atom    5 type  2   force =     0.00000000   -1.64859497   -0.57160226
     atom    6 type  2   force =     0.00000000   -1.64859497    0.57160226
     atom    7 type  2   force =    -0.00000000    1.64859497    0.57160226
     atom    8 type  2   force =    -0.00000000    1.64859497   -0.57160226
     atom    9 type  2   force =     0.00000000    0.20887728   -1.22918319
     atom   10 type  2   force =     0.00000000    0.20887728    1.22918319
     atom   11 type  2   force =     0.00000000   -0.20887728    1.22918319
     atom   12 type  2   force =    -0.00000000   -0.20887728   -1.22918319
     The local contribution  to forces
     atom    1 type  1   force =     0.00000004   -1.71425421   -1.56550337
     atom    2 type  1   force =    -0.00000014   -1.71443684    1.56533079
     atom    3 type  1   force =     0.00000017    1.71423515    1.56581448
     atom    4 type  1   force =     0.00000037    1.71435799   -1.56570327
     atom    5 type  2   force =    -0.00000072    1.70054807    0.55148814
     atom    6 type  2   force =     0.00000013    1.70040322   -0.55143901
     atom    7 type  2   force =     0.00000064   -1.70051778   -0.55169140
     atom    8 type  2   force =     0.00000015   -1.70025212    0.55178366
     atom    9 type  2   force =    -0.00000066   -0.35190203    1.18686660
     atom   10 type  2   force =    -0.00000139   -0.35187679   -1.18678911
     atom   11 type  2   force =     0.00000016    0.35167795   -1.18693633
     atom   12 type  2   force =    -0.00000001    0.35204033    1.18668167
     The core correction contribution to forces
     atom    1 type  1   force =    -0.00000001    0.00439493   -0.00645474
     atom    2 type  1   force =    -0.00000001    0.00439295    0.00645675
     atom    3 type  1   force =     0.00000001   -0.00439399    0.00645443
     atom    4 type  1   force =     0.00000002   -0.00439402   -0.00645090
     atom    5 type  2   force =     0.00000000    0.00000000    0.00000000
     atom    6 type  2   force =     0.00000000    0.00000000    0.00000000
     atom    7 type  2   force =     0.00000000    0.00000000    0.00000000
     atom    8 type  2   force =     0.00000000    0.00000000    0.00000000
     atom    9 type  2   force =     0.00000000    0.00000000    0.00000000
     atom   10 type  2   force =     0.00000000    0.00000000    0.00000000
     atom   11 type  2   force =     0.00000000    0.00000000    0.00000000
     atom   12 type  2   force =     0.00000000    0.00000000    0.00000000
     The Hubbard contrib.    to forces
     atom    1 type  1   force =     0.00000000    0.00000000    0.00000000
     atom    2 type  1   force =     0.00000000    0.00000000    0.00000000
     atom    3 type  1   force =     0.00000000    0.00000000    0.00000000
     atom    4 type  1   force =     0.00000000    0.00000000    0.00000000
     atom    5 type  2   force =     0.00000000    0.00000000    0.00000000
     atom    6 type  2   force =     0.00000000    0.00000000    0.00000000
     atom    7 type  2   force =     0.00000000    0.00000000    0.00000000
     atom    8 type  2   force =     0.00000000    0.00000000    0.00000000
     atom    9 type  2   force =     0.00000000    0.00000000    0.00000000
     atom   10 type  2   force =     0.00000000    0.00000000    0.00000000
     atom   11 type  2   force =     0.00000000    0.00000000    0.00000000
     atom   12 type  2   force =     0.00000000    0.00000000    0.00000000
     The SCF correction term to forces
     atom    1 type  1   force =    -0.00000006    0.00000474   -0.00010888
     atom    2 type  1   force =     0.00000015    0.00018849    0.00027847
     atom    3 type  1   force =    -0.00000022    0.00001256   -0.00019238
     atom    4 type  1   force =    -0.00000040   -0.00011527    0.00007581
     atom    5 type  2   force =     0.00000033   -0.00023089    0.00020843
     atom    6 type  2   force =    -0.00000032   -0.00007966   -0.00028543
     atom    7 type  2   force =    -0.00000031    0.00022499   -0.00001035
     atom    8 type  2   force =    -0.00000003   -0.00004751   -0.00010617
     atom    9 type  2   force =     0.00000042    0.00001351   -0.00006825
     atom   10 type  2   force =     0.00000113    0.00000084   -0.00000097
     atom   11 type  2   force =     0.00000017    0.00021479    0.00017627
     atom   12 type  2   force =     0.00000029   -0.00016757    0.00010276

     Total force =     0.165186     Total SCF correction =     0.000742

     Computing stress (Cartesian axis) and pressure

     negative rho (up, down):  3.814E-01 0.000E+00
          total   stress  (Ry/bohr**3)                   (kbar)     P=      -86.48
  -0.00213968   0.00000000   0.00000000         -314.76        0.00        0.00
   0.00000000  -0.00048392   0.00000000            0.00      -71.19        0.00
   0.00000000   0.00000000   0.00085997            0.00        0.00      126.51

     kinetic stress (kbar)  55894.75      0.00      0.00
                                0.00  55797.65      0.00
                                0.00      0.00  57163.05

     local   stress (kbar)  11370.87     -0.00     -0.00
                               -0.00  13221.17      0.02
                               -0.00      0.02  12932.39

     nonloc. stress (kbar)  -2148.11      0.00      0.00
                                0.00  -2031.61      0.00
                                0.00      0.00  -2188.56

     hartree stress (kbar)  14807.86      0.00      0.00
                                0.00  14246.09     -0.01
                                0.00     -0.01  14207.64

     exc-cor stress (kbar)   3434.32      0.00      0.00
                                0.00   3427.93     -0.00
                                0.00     -0.00   3437.29

     corecor stress (kbar) -13533.66      0.00     -0.00
                                0.00 -13541.78      0.00
                               -0.00      0.00 -13543.91

     ewald   stress (kbar) -70140.78      0.00     -0.00
                                0.00 -71190.65     -0.00
                               -0.00     -0.00 -71881.39

     hubbard stress (kbar)      0.00      0.00      0.00
                                0.00      0.00      0.00
                                0.00      0.00      0.00

     DFT-D   stress (kbar)      0.00      0.00      0.00
                                0.00      0.00      0.00
                                0.00      0.00      0.00

     XDM     stress (kbar)      0.00      0.00      0.00
                                0.00      0.00      0.00
                                0.00      0.00      0.00

     dft-nl  stress (kbar)      0.00      0.00      0.00
                                0.00      0.00      0.00
                                0.00      0.00      0.00

     TS-vdW  stress (kbar)      0.00      0.00      0.00
                                0.00      0.00      0.00
                                0.00      0.00      0.00

[...]

                                0.00      0.00      0.00

     Writing all to output data dir new_calculations/myprefix.save/

     General routines

     Parallel routines

   This run was terminated on:   3: 1:45  21May2023

   JOB DONE.