     Program PWSCF v.7.0 starts on 20May2023 at 23:51:35

     Reading input from espresso_9773.pwi
Warning: card &CELL ignored
Warning: card / ignored

     Current dimensions of program PWSCF are:
     Max number of different atomic species (ntypx) = 10
     Max number of k-points (npk) =  40000
     Max angular momentum in pseudopotentials (lmaxx) =  4

     gamma-point specific algorithms are used
     Message from routine setup:
     using ibrav=0 with symmetry is DISCOURAGED, use correct ibrav instead

     Subspace diagonalization in iterative solution of the eigenvalue problem:
     a serial algorithm will be used

     Using Slab Decomposition

     bravais-lattice index     =            0
     lattice parameter (alat)  =      14.2847  a.u.
     unit-cell volume          =    5360.4169 (a.u.)^3
     number of atoms/cell      =           16
     number of atomic types    =            2
     number of electrons       =       192.00
     number of Kohn-Sham states=          115
     kinetic-energy cutoff     =      30.0000  Ry
     charge density cutoff     =     240.0000  Ry
     scf convergence threshold =      1.0E-06
     mixing beta               =       0.7000
     number of iterations used =            8  plain     mixing
     Exchange-correlation=  SLA  PW   PBX  PBC
                           (   1   4   3   4   0   0   0)

     celldm(1)=  14.284657  celldm(2)=   0.000000  celldm(3)=   0.000000
     celldm(4)=   0.000000  celldm(5)=   0.000000  celldm(6)=   0.000000

     crystal axes: (cart. coord. in units of alat)
               a(1) = (   1.000000   0.000000   0.000000 )
               a(2) = (   0.000000   1.030090   0.000000 )
               a(3) = (   0.000000   0.000000   1.785312 )

     reciprocal axes: (cart. coord. in units 2 pi/alat)
               b(1) = (  1.000000  0.000000  0.000000 )
               b(2) = (  0.000000  0.970789  0.000000 )
               b(3) = (  0.000000  0.000000  0.560126 )

     PseudoPot. # 1 for Cs read from file:
     /home/pragov/projects/rrg-bengioy-ad/pragov/crystal_structure_design/SSSP/Cs_pbe_v1.uspp.F.UPF
     MD5 check sum: 3476d69cb178dfad3ffaa59df4e07ca4
     Pseudo is Ultrasoft + core correction, Zval =  9.0
     Generated by new atomic code, or converted to UPF format
     Using radial grid of  905 points,  6 beta functions with:
                l(1) =   0
                l(2) =   0
                l(3) =   1
                l(4) =   1
                l(5) =   2
                l(6) =   2
     Q(r) pseudized with  6 coefficients,  rinner =    1.500   1.500   1.500
                                                       1.500   1.500

     PseudoPot. # 2 for Sb read from file:
     /home/pragov/projects/rrg-bengioy-ad/pragov/crystal_structure_design/SSSP/sb_pbe_v1.4.uspp.F.UPF
     MD5 check sum: 9bc50dfb53373b713f5709b9110fe27f
     Pseudo is Ultrasoft + core correction, Zval = 15.0
     Generated by new atomic code, or converted to UPF format
     Using radial grid of  891 points,  6 beta functions with:
                l(1) =   0
                l(2) =   0
                l(3) =   1
                l(4) =   1
                l(5) =   2
                l(6) =   2
     Q(r) pseudized with  8 coefficients,  rinner =    1.350   1.350   1.350
                                                       1.350   1.350

     atomic species   valence    mass     pseudopotential
        Cs             9.00   132.90545     Cs( 1.00)
        Sb            15.00   121.76000     Sb( 1.00)

      4 Sym. Ops. (no inversion) found ( 3 have fractional translation)

                                    s                        frac. trans.

      isym =  1     identity

 cryst.   s( 1) = (     1          0          0      )
                  (     0          1          0      )
                  (     0          0          1      )

 cart.    s( 1) = (  1.0000000  0.0000000  0.0000000 )
                  (  0.0000000  1.0000000  0.0000000 )
                  (  0.0000000  0.0000000  1.0000000 )

      isym =  2     180 deg rotation - cart. axis [0,0,1]

 cryst.   s( 2) = (    -1          0          0      )    f =(  0.5000000 )
                  (     0         -1          0      )       ( -0.0000000 )
                  (     0          0          1      )       (  0.5000000 )

 cart.    s( 2) = ( -1.0000000  0.0000000  0.0000000 )    f =(  0.5000000 )
                  (  0.0000000 -1.0000000  0.0000000 )       ( -0.0000000 )
                  (  0.0000000  0.0000000  1.0000000 )       (  0.8926558 )

[...]

      isym =  4     180 deg rotation - cart. axis [1,0,0]

 cryst.   s( 4) = (     1          0          0      )    f =(  0.5000000 )
                  (     0         -1          0      )       (  0.5000000 )
                  (     0          0         -1      )       (  0.0000000 )

 cart.    s( 4) = (  1.0000000  0.0000000  0.0000000 )    f =(  0.5000000 )
                  (  0.0000000 -1.0000000  0.0000000 )       (  0.5150449 )
                  (  0.0000000  0.0000000 -1.0000000 )       (  0.0000000 )

   Cartesian axes

     site n.     atom                  positions (alat units)
         1           Cs  tau(   1) = (   0.5928350   0.9214843   1.0415865  )
         2           Cs  tau(   2) = (   0.8259430   0.3465892   1.2797453  )
         3           Cs  tau(   3) = (   0.4071650   0.4064394   1.6363809  )
         4           Cs  tau(   4) = (   0.3259430   0.1684557   0.5055663  )
         5           Cs  tau(   5) = (   0.0928350   0.6236503   0.7437251  )
         6           Cs  tau(   6) = (   0.9071650   0.1086055   0.1489307  )
         7           Cs  tau(   7) = (   0.1740570   0.8616340   1.3982222  )
         8           Cs  tau(   8) = (   0.6740570   0.6835006   0.3870895  )
         9           Sb  tau(   9) = (   0.5892520   0.4470785   0.8382002  )
        10           Sb  tau(  10) = (   0.0892520   0.0679664   0.9471114  )
        11           Sb  tau(  11) = (   0.6759890   0.8488321   1.5835928  )
        12           Sb  tau(  12) = (   0.4107480   0.9621234   0.0544556  )
        13           Sb  tau(  13) = (   0.3240110   0.3337872   1.0943746  )
        14           Sb  tau(  14) = (   0.8240110   0.1812577   0.6909370  )
        15           Sb  tau(  15) = (   0.9107480   0.5830112   1.7308561  )
        16           Sb  tau(  16) = (   0.1759890   0.6963026   0.2017188  )

   Crystallographic axes

     site n.     atom                  positions (cryst. coord.)
         1           Cs  tau(   1) = (  0.5928350  0.8945670  0.5834200  )
         2           Cs  tau(   2) = (  0.8259430  0.3364650  0.7168190  )
         3           Cs  tau(   3) = (  0.4071650  0.3945670  0.9165800  )
         4           Cs  tau(   4) = (  0.3259430  0.1635350  0.2831810  )
         5           Cs  tau(   5) = (  0.0928350  0.6054330  0.4165800  )
         6           Cs  tau(   6) = (  0.9071650  0.1054330  0.0834200  )
         7           Cs  tau(   7) = (  0.1740570  0.8364650  0.7831810  )
         8           Cs  tau(   8) = (  0.6740570  0.6635350  0.2168190  )
         9           Sb  tau(   9) = (  0.5892520  0.4340190  0.4694980  )
        10           Sb  tau(  10) = (  0.0892520  0.0659810  0.5305020  )
        11           Sb  tau(  11) = (  0.6759890  0.8240370  0.8870120  )
        12           Sb  tau(  12) = (  0.4107480  0.9340190  0.0305020  )
        13           Sb  tau(  13) = (  0.3240110  0.3240370  0.6129880  )
        14           Sb  tau(  14) = (  0.8240110  0.1759630  0.3870120  )
        15           Sb  tau(  15) = (  0.9107480  0.5659810  0.9694980  )
        16           Sb  tau(  16) = (  0.1759890  0.6759630  0.1129880  )

     number of k points=     1  Methfessel-Paxton smearing, width (Ry)=  0.0010
                       cart. coord. in units 2pi/alat
        k(    1) = (   0.0000000   0.0000000   0.0000000), wk =   2.0000000

                       cryst. coord.
        k(    1) = (   0.0000000   0.0000000   0.0000000), wk =   2.0000000

     Check: negative core charge=   -0.000003

     Initial potential from superposition of free atoms

     starting charge     183.6848, renormalised to     192.0000
     Starting wfcs are  176 randomized atomic wfcs

     Self-consistent Calculation

     iteration #  1     ecut=    30.00 Ry     beta= 0.70
     Davidson diagonalization with overlap

     ethr =  1.00E-02,  avg # of iterations =  3.0

     total energy              =   -1983.21129569 Ry
     estimated scf accuracy    <       3.98048588 Ry

[...]

     total energy              =   -1984.34348724 Ry
     estimated scf accuracy    <       0.00000508 Ry

     iteration #  9     ecut=    30.00 Ry     beta= 0.70
     Davidson diagonalization with overlap

     ethr =  2.65E-09,  avg # of iterations =  2.0

     End of self-consistent calculation

          k = 0.0000 0.0000 0.0000 (  7435 PWs)   bands (ev):

   -22.9763 -22.9746 -22.9421 -22.9377 -22.9199 -22.9182 -22.9175 -22.9149
   -22.8454 -22.8446 -22.8430 -22.8412 -22.8208 -22.8199 -22.7713 -22.7681
   -22.7557 -22.7547 -22.7447 -22.7432 -22.7337 -22.7330 -22.7321 -22.7311
   -22.7107 -22.7086 -22.6912 -22.6903 -22.6799 -22.6786 -22.6772 -22.6769
   -22.6753 -22.6740 -22.6696 -22.6664 -22.6232 -22.6221 -22.6220 -22.6166
   -16.9916 -16.9873 -16.9671 -16.9666 -16.8998 -16.8909 -16.8884 -16.8838
    -4.7706  -4.5757  -4.1549  -4.1378  -4.0935  -4.0670  -4.0457  -3.9898
    -3.9553  -3.9252  -3.9212  -3.8814  -3.8177  -3.8039  -3.7820  -3.7721
    -3.6975  -3.6957  -3.6864  -3.6724  -3.6683  -3.6599  -3.6497  -3.6247
    -3.5575  -3.3728  -2.9385  -2.8741  -2.8025  -2.7879  -0.8721  -0.8218
     2.5036   2.5120   3.2641   3.3976   3.5786   3.6137   3.6651   3.7360
     4.3484   4.4665   4.8508   4.9048   5.0343   5.1563   5.5509   5.5669
     6.1042   6.6360   6.8548   7.0342   7.0778   7.0855   7.2160   7.9292
     8.1162   8.1195   8.3788   8.3927   8.4052   8.4430   8.7086   8.8661
     8.9036   9.0081   9.1555

     occupation numbers
     1.0000   1.0000   1.0000   1.0000   1.0000   1.0000   1.0000   1.0000
     1.0000   1.0000   1.0000   1.0000   1.0000   1.0000   1.0000   1.0000
     1.0000   1.0000   1.0000   1.0000   1.0000   1.0000   1.0000   1.0000
     1.0000   1.0000   1.0000   1.0000   1.0000   1.0000   1.0000   1.0000
     1.0000   1.0000   1.0000   1.0000   1.0000   1.0000   1.0000   1.0000
     1.0000   1.0000   1.0000   1.0000   1.0000   1.0000   1.0000   1.0000
     1.0000   1.0000   1.0000   1.0000   1.0000   1.0000   1.0000   1.0000
     1.0000   1.0000   1.0000   1.0000   1.0000   1.0000   1.0000   1.0000
     1.0000   1.0000   1.0000   1.0000   1.0000   1.0000   1.0000   1.0000
     1.0000   1.0000   1.0000   1.0000   1.0000   1.0000   1.0000   1.0000
     1.0000   1.0000   1.0000   1.0000   1.0000   1.0000   1.0000   1.0000
     1.0000   1.0000   1.0000   1.0000   1.0000   1.0000   1.0000   1.0000
    -0.0000  -0.0000  -0.0000  -0.0000  -0.0000  -0.0000  -0.0000  -0.0000
    -0.0000  -0.0000  -0.0000  -0.0000  -0.0000  -0.0000  -0.0000  -0.0000
    -0.0000  -0.0000  -0.0000

     the Fermi energy is     5.7474 ev

!    total energy              =   -1984.34348839 Ry
     estimated scf accuracy    <       0.00000040 Ry
     smearing contrib. (-TS)   =       0.00000000 Ry
     internal energy E=F+TS    =   -1984.34348839 Ry

     The total energy is F=E-TS. E is the sum of the following terms:
     one-electron contribution =   -1129.91015246 Ry
     hartree contribution      =     638.42063145 Ry
     xc contribution           =    -594.20796852 Ry
     ewald contribution        =    -898.64599887 Ry

     convergence has been achieved in   9 iterations

     Forces acting on atoms (cartesian axes, Ry/au):

     atom    1 type  1   force =     0.00113864   -0.00974489    0.00622744
     atom    2 type  1   force =     0.00097069    0.00104609    0.00798322
     atom    3 type  1   force =    -0.00113864   -0.00974489   -0.00622744
     atom    4 type  1   force =     0.00097069   -0.00104609   -0.00798322
     atom    5 type  1   force =     0.00113864    0.00974489   -0.00622744
     atom    6 type  1   force =    -0.00113864    0.00974489    0.00622744
     atom    7 type  1   force =    -0.00097069    0.00104609   -0.00798322
     atom    8 type  1   force =    -0.00097069   -0.00104609    0.00798322
     atom    9 type  2   force =     0.00460684    0.00064612   -0.00469250
     atom   10 type  2   force =     0.00460684   -0.00064612    0.00469250
     atom   11 type  2   force =     0.00680683    0.00859026    0.00211946
     atom   12 type  2   force =    -0.00460684    0.00064612    0.00469250
     atom   13 type  2   force =    -0.00680683    0.00859026   -0.00211946
     atom   14 type  2   force =    -0.00680683   -0.00859026    0.00211946
     atom   15 type  2   force =    -0.00460684   -0.00064612   -0.00469250
     atom   16 type  2   force =     0.00680683   -0.00859026   -0.00211946
     The non-local contrib.  to forces
     atom    1 type  1   force =    -0.01216488    0.03012615   -0.00371383
     atom    2 type  1   force =    -0.00842392    0.00893995   -0.00669288
     atom    3 type  1   force =     0.01216488    0.03012615    0.00371383
     atom    4 type  1   force =    -0.00842392   -0.00893995    0.00669288
     atom    5 type  1   force =    -0.01216488   -0.03012615    0.00371383
     atom    6 type  1   force =     0.01216488   -0.03012615   -0.00371383
     atom    7 type  1   force =     0.00842392    0.00893995    0.00669288
     atom    8 type  1   force =     0.00842392   -0.00893995   -0.00669288
     atom    9 type  2   force =     0.01282429   -0.37726632    0.14566042
     atom   10 type  2   force =     0.01282429    0.37726632   -0.14566042
     atom   11 type  2   force =    -0.03393419   -0.15768903    0.33959233
     atom   12 type  2   force =    -0.01282429   -0.37726632   -0.14566042
     atom   13 type  2   force =     0.03393419   -0.15768903   -0.33959233
     atom   14 type  2   force =     0.03393419    0.15768903    0.33959233
     atom   15 type  2   force =    -0.01282429    0.37726632    0.14566042
     atom   16 type  2   force =    -0.03393419    0.15768903   -0.33959233
     The ionic contribution  to forces
     atom    1 type  1   force =     0.16372698   -3.21501806    1.30315940
     atom    2 type  1   force =     0.35064745    0.38954095    3.22911714
     atom    3 type  1   force =    -0.16372698   -3.21501806   -1.30315940
     atom    4 type  1   force =     0.35064745   -0.38954095   -3.22911714
     atom    5 type  1   force =     0.16372698    3.21501806   -1.30315940
     atom    6 type  1   force =    -0.16372698    3.21501806    1.30315940
     atom    7 type  1   force =    -0.35064745    0.38954095   -3.22911714
     atom    8 type  1   force =    -0.35064745   -0.38954095    3.22911714
     atom    9 type  2   force =     0.49818460   11.47252151   -2.94165005
     atom   10 type  2   force =     0.49818460  -11.47252151    2.94165005
     atom   11 type  2   force =     0.83375687    5.10921822  -12.17709419
     atom   12 type  2   force =    -0.49818460   11.47252151    2.94165005
     atom   13 type  2   force =    -0.83375687    5.10921822   12.17709419
     atom   14 type  2   force =    -0.83375687   -5.10921822  -12.17709419
     atom   15 type  2   force =    -0.49818460  -11.47252151   -2.94165005
     atom   16 type  2   force =     0.83375687   -5.10921822   12.17709419
     The local contribution  to forces
     atom    1 type  1   force =    -0.15188258    3.17724404   -1.29169819
     atom    2 type  1   force =    -0.34257817   -0.39652338   -3.21347686
     atom    3 type  1   force =     0.15195692    3.17734842    1.29173155
     atom    4 type  1   force =    -0.34247165    0.39668210    3.21375613
     atom    5 type  1   force =    -0.15191232   -3.17732176    1.29261994
     atom    6 type  1   force =     0.15181175   -3.17717168   -1.29270959
     atom    7 type  1   force =     0.34252249   -0.39667284    3.21374839
     atom    8 type  1   force =     0.34257799    0.39655845   -3.21387661
     atom    9 type  2   force =    -0.50582082  -11.09661228    2.79300025
     atom   10 type  2   force =    -0.50592758   11.09667238   -2.79190863
     atom   11 type  2   force =    -0.79326592   -4.94379974   11.84080260
     atom   12 type  2   force =     0.50605720  -11.09657917   -2.79317706
     atom   13 type  2   force =     0.79355351   -4.94335103  -11.84057898
     atom   14 type  2   force =     0.79319802    4.94363581   11.84147517
     atom   15 type  2   force =     0.50577016   11.09654595    2.79183487
     atom   16 type  2   force =    -0.79358951    4.94324706  -11.84191186
     The core correction contribution to forces
     atom    1 type  1   force =     0.00137551   -0.00218468   -0.00089961
     atom    2 type  1   force =     0.00114836   -0.00072665   -0.00066041
     atom    3 type  1   force =    -0.00137342   -0.00218429    0.00089953
     atom    4 type  1   force =     0.00114827    0.00072773    0.00066575
     atom    5 type  1   force =     0.00137688    0.00218367    0.00092236
     atom    6 type  1   force =    -0.00137804    0.00218487   -0.00092170
     atom    7 type  1   force =    -0.00114725   -0.00072641    0.00065964
     atom    8 type  1   force =    -0.00114850    0.00072742   -0.00066652
     atom    9 type  2   force =    -0.00046628    0.00183527   -0.00089093
     atom   10 type  2   force =    -0.00046728   -0.00183618    0.00089390
     atom   11 type  2   force =    -0.00013241    0.00020206   -0.00150550
     atom   12 type  2   force =     0.00046791    0.00183599    0.00088988
     atom   13 type  2   force =     0.00013322    0.00020493    0.00150714
     atom   14 type  2   force =     0.00013136   -0.00020240   -0.00149955
     atom   15 type  2   force =     0.00046600   -0.00183721   -0.00089498
     atom   16 type  2   force =    -0.00013373   -0.00020538    0.00149766
     The Hubbard contrib.    to forces
     atom    1 type  1   force =     0.00000000    0.00000000    0.00000000
     atom    2 type  1   force =     0.00000000    0.00000000    0.00000000
     atom    3 type  1   force =     0.00000000    0.00000000    0.00000000
     atom    4 type  1   force =     0.00000000    0.00000000    0.00000000
     atom    5 type  1   force =     0.00000000    0.00000000    0.00000000
     atom    6 type  1   force =     0.00000000    0.00000000    0.00000000
     atom    7 type  1   force =     0.00000000    0.00000000    0.00000000
     atom    8 type  1   force =     0.00000000    0.00000000    0.00000000
     atom    9 type  2   force =     0.00000000    0.00000000    0.00000000
     atom   10 type  2   force =     0.00000000    0.00000000    0.00000000
     atom   11 type  2   force =     0.00000000    0.00000000    0.00000000
     atom   12 type  2   force =     0.00000000    0.00000000    0.00000000
     atom   13 type  2   force =     0.00000000    0.00000000    0.00000000
     atom   14 type  2   force =     0.00000000    0.00000000    0.00000000
     atom   15 type  2   force =     0.00000000    0.00000000    0.00000000
     atom   16 type  2   force =     0.00000000    0.00000000    0.00000000
     The SCF correction term to forces
     atom    1 type  1   force =     0.00007711    0.00008827   -0.00048675
     atom    2 type  1   force =     0.00018197   -0.00018297   -0.00027688
     atom    3 type  1   force =    -0.00013076   -0.00001072    0.00044869
     atom    4 type  1   force =     0.00007098    0.00003431    0.00005272
     atom    5 type  1   force =     0.00012772   -0.00001020   -0.00018622
     atom    6 type  1   force =    -0.00003028   -0.00015196    0.00027916
     atom    7 type  1   force =    -0.00011031   -0.00001617   -0.00000897
     atom    8 type  1   force =    -0.00018331    0.00016080    0.00006678
     atom    9 type  2   force =    -0.00010188    0.00016178   -0.00084334
     atom   10 type  2   force =    -0.00002138   -0.00024567   -0.00031971
     atom   11 type  2   force =     0.00035590    0.00069668    0.00037236
     atom   12 type  2   force =    -0.00016389    0.00011648    0.00104602
     atom   13 type  2   force =    -0.00069880    0.00019097   -0.00062423
     atom   14 type  2   force =    -0.00028848   -0.00050228   -0.00037387
     atom   15 type  2   force =     0.00020565   -0.00010490    0.00040706
     atom   16 type  2   force =     0.00073107   -0.00007324    0.00089617

     Total force =     0.038423     Total SCF correction =     0.002569

     Computing stress (Cartesian axis) and pressure

          total   stress  (Ry/bohr**3)                   (kbar)     P=      -65.40
  -0.00050309   0.00000000   0.00000000          -74.01        0.00        0.00
   0.00000000  -0.00043180   0.00000000            0.00      -63.52        0.00
   0.00000000   0.00000000  -0.00039878            0.00        0.00      -58.66

     kinetic stress (kbar)   6894.38      0.00      0.00
                                0.00   6930.64      0.00
                                0.00      0.00   6939.12

     local   stress (kbar)  -9638.92      0.00     -0.01
                                0.00  -2440.88     -0.02
                               -0.01     -0.02  -3291.66

     nonloc. stress (kbar)   3137.12      0.00      0.00
                                0.00   3138.74      0.00
                                0.00      0.00   3133.90

     hartree stress (kbar)   7888.76     -0.01      0.01
                               -0.01   4646.82      0.01
                                0.01      0.01   4984.50

     exc-cor stress (kbar)   7685.46      0.00     -0.00
                                0.00   7684.67      0.00
                               -0.00      0.00   7685.41

     corecor stress (kbar) -10304.34     -0.00      0.00
                               -0.00 -10304.62     -0.00
                                0.00     -0.00 -10303.89

     ewald   stress (kbar)  -5736.46      0.00      0.00
                                0.00  -9718.89      0.00
                                0.00      0.00  -9206.05

     hubbard stress (kbar)      0.00      0.00      0.00
                                0.00      0.00      0.00
                                0.00      0.00      0.00

     DFT-D   stress (kbar)      0.00      0.00      0.00
                                0.00      0.00      0.00
                                0.00      0.00      0.00

     XDM     stress (kbar)      0.00      0.00      0.00
                                0.00      0.00      0.00
                                0.00      0.00      0.00

     dft-nl  stress (kbar)      0.00      0.00      0.00
                                0.00      0.00      0.00
                                0.00      0.00      0.00

     TS-vdW  stress (kbar)      0.00      0.00      0.00
                                0.00      0.00      0.00
                                0.00      0.00      0.00

[...]

                                0.00      0.00      0.00

     Writing all to output data dir new_calculations/myprefix.save/

     General routines

     Parallel routines

   This run was terminated on:  23:52:19  20May2023

   JOB DONE.