     Program PWSCF v.7.0 starts on 20May2023 at 22:24: 6

     Reading input from espresso_26160.pwi
Warning: card &CELL ignored
Warning: card / ignored

     Current dimensions of program PWSCF are:
     Max number of different atomic species (ntypx) = 10
     Max number of k-points (npk) =  40000
     Max angular momentum in pseudopotentials (lmaxx) =  4
     file In.pbe-dn-rrkjus_psl.0.2.2.UPF: wavefunction(s)  5S renormalized
     file O.pbe-n-kjpaw_psl.0.1.UPF: wavefunction(s)  2P renormalized

     gamma-point specific algorithms are used
     Message from routine setup:
     using ibrav=0 with symmetry is DISCOURAGED, use correct ibrav instead

     Subspace diagonalization in iterative solution of the eigenvalue problem:
     a serial algorithm will be used

     Using Slab Decomposition

     bravais-lattice index     =            0
     lattice parameter (alat)  =      10.8409  a.u.
     unit-cell volume          =    1489.7965 (a.u.)^3
     number of atoms/cell      =           18
     number of atomic types    =            5
     number of electrons       =       114.00
     number of Kohn-Sham states=           68
     kinetic-energy cutoff     =      30.0000  Ry
     charge density cutoff     =     240.0000  Ry
     scf convergence threshold =      1.0E-06
     mixing beta               =       0.7000
     number of iterations used =            8  plain     mixing
     Exchange-correlation= SLA  PW   PBX  PBC
                           (   1   4   3   4   0   0   0)

     celldm(1)=  10.840852  celldm(2)=   0.000000  celldm(3)=   0.000000
     celldm(4)=   0.000000  celldm(5)=   0.000000  celldm(6)=   0.000000

     crystal axes: (cart. coord. in units of alat)
               a(1) = (   1.000000   0.000000   0.000000 )
               a(2) = (  -0.500000   0.977971   0.000000 )
               a(3) = (   0.000000  -0.499741   1.195669 )

     reciprocal axes: (cart. coord. in units 2 pi/alat)
               b(1) = (  1.000000  0.511263  0.213687 )
               b(2) = (  0.000000  1.022526  0.427374 )
               b(3) = (  0.000000  0.000000  0.836352 )

     PseudoPot. # 1 for Na read from file:
     /home/pragov/projects/rrg-bengioy-ad/pragov/crystal_structure_design/SSSP/na_pbe_v1.5.uspp.F.UPF
     MD5 check sum: 44600605ef58000f06b90626533354dc
     Pseudo is Ultrasoft, Zval =  9.0
     Generated by new atomic code, or converted to UPF format
     Using radial grid of  819 points,  5 beta functions with:
                l(1) =   0
                l(2) =   0
                l(3) =   1
                l(4) =   1
                l(5) =   2
     Q(r) pseudized with  8 coefficients,  rinner =    1.250   1.250   1.250
                                                       1.250   1.250

     PseudoPot. # 2 for Cr read from file:
     /home/pragov/projects/rrg-bengioy-ad/pragov/crystal_structure_design/SSSP/cr_pbe_v1.5.uspp.F.UPF
     MD5 check sum: 0d52af634a40206e4dee301ad30da4bf
     Pseudo is Ultrasoft + core correction, Zval = 14.0
     Generated by new atomic code, or converted to UPF format
     Using radial grid of  857 points,  6 beta functions with:
                l(1) =   0
                l(2) =   0
                l(3) =   1
                l(4) =   1
                l(5) =   2
                l(6) =   2
     Q(r) pseudized with  8 coefficients,  rinner =    0.950   0.950   0.950
                                                       0.950   0.950

     PseudoPot. # 3 for In read from file:
     /home/pragov/projects/rrg-bengioy-ad/pragov/crystal_structure_design/SSSP/In.pbe-dn-rrkjus_psl.0.2.2.UPF
     MD5 check sum: 25e7c42c3b55b68f4bf926be2e7201a4
     Pseudo is Ultrasoft + core correction, Zval = 13.0
     Generated using "atomic" code by A. Dal Corso  v.5.0.99 svn rev. 10869
     Using radial grid of 1241 points,  6 beta functions with:
                l(1) =   0
                l(2) =   0
                l(3) =   1
                l(4) =   1
                l(5) =   2
                l(6) =   2
     Q(r) pseudized with 0 coefficients

     PseudoPot. # 4 for H  read from file:
     /home/pragov/projects/rrg-bengioy-ad/pragov/crystal_structure_design/SSSP/H.pbe-rrkjus_psl.1.0.0.UPF
     MD5 check sum: f52b6d4d1c606e5624b1dc7b2218f220
     Pseudo is Ultrasoft, Zval =  1.0
     Generated using "atomic" code by A. Dal Corso  v.5.1
     Using radial grid of  929 points,  2 beta functions with:
                l(1) =   0
                l(2) =   0
     Q(r) pseudized with 0 coefficients

     PseudoPot. # 5 for O  read from file:
     /home/pragov/projects/rrg-bengioy-ad/pragov/crystal_structure_design/SSSP/O.pbe-n-kjpaw_psl.0.1.UPF
     MD5 check sum: 0234752ac141de4415c5fc33072bef88
     Pseudo is Projector augmented-wave + core cor, Zval =  6.0
     Generated using "atomic" code by A. Dal Corso  v.5.0.99 svn rev. 10869
     Shape of augmentation charge: BESSEL
     Using radial grid of 1095 points,  4 beta functions with:
                l(1) =   0
                l(2) =   0
                l(3) =   1
                l(4) =   1
     Q(r) pseudized with 0 coefficients

     atomic species   valence    mass     pseudopotential
        Na             9.00    22.98977     Na( 1.00)
        Cr            14.00    51.99610     Cr( 1.00)
        In            13.00   114.81800     In( 1.00)
        H              1.00     1.00800     H ( 1.00)
        O              6.00    15.99900     O ( 1.00)

      4 Sym. Ops., with inversion, found

                                    s                        frac. trans.

      isym =  1     identity

 cryst.   s( 1) = (     1          0          0      )
                  (     0          1          0      )
                  (     0          0          1      )

 cart.    s( 1) = (  1.0000000 -0.0000000 -0.0000000 )
                  (  0.0000000  1.0000000 -0.0000000 )
                  (  0.0000000  0.0000000  1.0000000 )

      isym =  2     180 deg rotation - cart. axis [1,0,0]

[...]

      isym =  3     inversion

[...]

      isym =  4     inv. 180 deg rotation - cart. axis [1,0,0]

 cryst.   s( 4) = (    -1          0          0      )
                  (     1          1          0      )
                  (     0          0          1      )

 cart.    s( 4) = ( -1.0000000  0.0000000  0.0000000 )
                  (  0.0000000  1.0000000 -0.0000000 )
                  (  0.0000000  0.0000000  1.0000000 )

   Cartesian axes

     site n.     atom                  positions (alat units)
         1           Na  tau(   1) = (   0.5000000   0.7281003   0.5978343  )
         2           Cr  tau(   2) = (   0.4999995   0.0607290   0.3774260  )
         3           Cr  tau(   3) = (   0.0000005   0.4175009   0.8182427  )
         4           In  tau(   4) = (   0.0000000   0.0000000   0.0000000  )
         5           H   tau(   5) = (   0.0000005   0.4313385   0.2419436  )
         6           H   tau(   6) = (   0.4999995   0.0468915   0.9537251  )
         7           H   tau(   7) = (   0.0000005  -0.0068035   1.1536026  )
         8           H   tau(   8) = (   0.4999995   0.4850334   0.0420660  )
         9           O   tau(   9) = (   0.0000005   0.3703833   0.0794354  )
        10           O   tau(  10) = (   0.4999995   0.1078467   1.1162332  )
        11           O   tau(  11) = (   0.4999995   0.3403955   0.3196309  )
        12           O   tau(  12) = (   0.0000005   0.1378345   0.8760377  )
        13           O   tau(  13) = (   0.5000000   0.0201052   0.6587859  )
        14           O   tau(  14) = (   0.0000000   0.4581248   0.5368827  )
        15           O   tau(  15) = (   0.7447470  -0.0671110   0.2669342  )
        16           O   tau(  16) = (   0.2552530  -0.0671110   0.2669342  )
        17           O   tau(  17) = (  -0.2447470   0.5453410   0.9287344  )
        18           O   tau(  18) = (   0.2447470   0.5453410   0.9287344  )

   Crystallographic axes

     site n.     atom                  positions (cryst. coord.)
         1           Na  tau(   1) = (  1.0000000  1.0000000  0.5000000  )
         2           Cr  tau(   2) = (  0.6116990  0.2233990  0.3156610  )
         3           Cr  tau(   3) = (  0.3883010  0.7766010  0.6843390  )
         4           In  tau(   4) = (  0.0000000  0.0000000  0.0000000  )
         5           H   tau(   5) = (  0.2722280  0.5444550  0.2023500  )
         6           H   tau(   6) = (  0.7277720  0.4555450  0.7976500  )
         7           H   tau(   7) = (  0.2430320  0.4860630  0.9648180  )
         8           H   tau(   8) = (  0.7569680  0.5139370  0.0351820  )
         9           O   tau(   9) = (  0.2063380  0.4126750  0.0664360  )
        10           O   tau(  10) = (  0.7936620  0.5873250  0.9335640  )
        11           O   tau(  11) = (  0.7423320  0.4846650  0.2673240  )
        12           O   tau(  12) = (  0.2576680  0.5153350  0.7326760  )
        13           O   tau(  13) = (  0.6510530  0.3021060  0.5509770  )
        14           O   tau(  14) = (  0.3489470  0.6978940  0.4490230  )
        15           O   tau(  15) = (  0.7674760  0.0454580  0.2232510  )
        16           O   tau(  16) = (  0.2779820  0.0454580  0.2232510  )
        17           O   tau(  17) = (  0.2325240  0.9545420  0.7767490  )
        18           O   tau(  18) = (  0.7220180  0.9545420  0.7767490  )

     number of k points=     1  Methfessel-Paxton smearing, width (Ry)=  0.0010
                       cart. coord. in units 2pi/alat
        k(    1) = (   0.0000000   0.0000000   0.0000000), wk =   2.0000000

                       cryst. coord.
        k(    1) = (   0.0000000   0.0000000   0.0000000), wk =   2.0000000

     Check: negative core charge=   -0.000015

     Initial potential from superposition of free atoms

     starting charge     111.9899, renormalised to     114.0000

     negative rho (up, down):  6.892E-04 0.000E+00
     Starting wfcs are   78 randomized atomic wfcs
     Checking if some PAW data can be deallocated...

     Self-consistent Calculation

     iteration #  1     ecut=    30.00 Ry     beta= 0.70
     Davidson diagonalization with overlap

     ethr =  1.00E-02,  avg # of iterations =  2.0

     negative rho (up, down):  7.089E-03 0.000E+00

     total energy              =   -1010.17764453 Ry
     estimated scf accuracy    <       3.97515119 Ry

[...]

     total energy              =   -1012.43305741 Ry
     estimated scf accuracy    <       0.00001090 Ry

     iteration # 13     ecut=    30.00 Ry     beta= 0.70
     Davidson diagonalization with overlap

     ethr =  4.67E-09,  avg # of iterations =  2.0

[...]

     End of self-consistent calculation

          k = 0.0000 0.0000 0.0000 (  2078 PWs)   bands (ev):

   -69.5338 -69.5331 -46.9410 -41.0109 -41.0079 -40.9051 -40.9031 -40.8441
   -40.8420 -18.8477 -18.8467 -18.8305 -16.9655 -16.7430 -14.5726 -14.2535
   -14.1333 -13.9043 -13.8917 -13.7511 -13.7414 -13.6535  -9.9548  -9.9351
    -9.9191  -9.9046  -9.6620  -4.9799  -4.9176  -3.3717  -2.4611  -1.4343
    -1.3450  -1.0581  -0.7897  -0.7670  -0.7582  -0.7353  -0.6060  -0.5906
    -0.5433  -0.5052  -0.4008   0.1557   0.3836   0.6412   0.8550   0.9289
     0.9553   1.2668   1.3422   1.7527   1.9692   2.0353   2.1832   2.2109
     2.3180   5.0300   5.1780   5.2802   5.5891   6.4291   6.8205   6.8476
     6.8610   6.9643   7.1531   7.3767

     occupation numbers
     1.0000   1.0000   1.0000   1.0000   1.0000   1.0000   1.0000   1.0000
     1.0000   1.0000   1.0000   1.0000   1.0000   1.0000   1.0000   1.0000
     1.0000   1.0000   1.0000   1.0000   1.0000   1.0000   1.0000   1.0000
     1.0000   1.0000   1.0000   1.0000   1.0000   1.0000   1.0000   1.0000
     1.0000   1.0000   1.0000   1.0000   1.0000   1.0000   1.0000   1.0000
     1.0000   1.0000   1.0000   1.0000   1.0000   1.0000   1.0000   1.0000
     1.0000   1.0000   1.0000   1.0000   1.0000   1.0000   1.0000   1.0000
     1.0000  -0.0000  -0.0000  -0.0000  -0.0000  -0.0000  -0.0000  -0.0000
    -0.0000  -0.0000  -0.0000  -0.0000

     the Fermi energy is     2.6888 ev

!    total energy              =   -1012.43305834 Ry
     estimated scf accuracy    <       0.00000072 Ry
     smearing contrib. (-TS)   =       0.00000000 Ry
     internal energy E=F+TS    =   -1012.43305834 Ry

     The total energy is F=E-TS. E is the sum of the following terms:
     one-electron contribution =    -607.02235223 Ry
     hartree contribution      =     349.99343409 Ry
     xc contribution           =    -183.26830568 Ry
     ewald contribution        =    -476.87784162 Ry
     one-center paw contrib.   =     -95.25799290 Ry
      -> PAW hartree energy AE =     296.24092140 Ry
      -> PAW hartree energy PS =    -295.21040163 Ry
      -> PAW xc energy AE      =    -171.71655475 Ry
      -> PAW xc energy PS      =      75.42804208 Ry
      -> total E_H with PAW    =     351.02395386 Ry
      -> total E_XC with PAW   =    -279.55681835 Ry

     convergence has been achieved in  13 iterations

     negative rho (up, down):  3.331E-03 0.000E+00

     Forces acting on atoms (cartesian axes, Ry/au):

     atom    1 type  1   force =     0.00000000    0.00000000    0.00000000
     atom    2 type  2   force =     0.00000000   -0.00082350   -0.00594194
     atom    3 type  2   force =     0.00000000    0.00082350    0.00594194
     atom    4 type  3   force =     0.00000000    0.00000000    0.00000000
     atom    5 type  4   force =     0.00000000    0.00496257    0.01820709
     atom    6 type  4   force =     0.00000000   -0.00496257   -0.01820709
     atom    7 type  4   force =     0.00000000    0.01253368   -0.01145004
     atom    8 type  4   force =     0.00000000   -0.01253368    0.01145004
     atom    9 type  5   force =     0.00000000   -0.00483257   -0.00450538
     atom   10 type  5   force =     0.00000000    0.00483257    0.00450538
     atom   11 type  5   force =     0.00000000   -0.02903251    0.01366657
     atom   12 type  5   force =     0.00000000    0.02903251   -0.01366657
     atom   13 type  5   force =     0.00000000    0.00574883   -0.03128265
     atom   14 type  5   force =     0.00000000   -0.00574883    0.03128265
     atom   15 type  5   force =    -0.02171458    0.01000987    0.02637575
     atom   16 type  5   force =     0.02171458    0.01000987    0.02637575
     atom   17 type  5   force =     0.02171458   -0.01000987   -0.02637575
     atom   18 type  5   force =    -0.02171458   -0.01000987   -0.02637575
     The non-local contrib.  to forces
     atom    1 type  1   force =     0.00000000    0.00000000    0.00000000
     atom    2 type  2   force =     0.00000000    0.07187460    0.11647472
     atom    3 type  2   force =     0.00000000   -0.07187460   -0.11647472
     atom    4 type  3   force =     0.00000000    0.00000000    0.00000000
     atom    5 type  4   force =     0.00000000   -0.03362729   -0.09465590
     atom    6 type  4   force =     0.00000000    0.03362729    0.09465590
     atom    7 type  4   force =     0.00000000   -0.07262270    0.07464717
     atom    8 type  4   force =     0.00000000    0.07262270   -0.07464717
     atom    9 type  5   force =     0.00000000    1.17749410    0.20264375
     atom   10 type  5   force =     0.00000000   -1.17749410   -0.20264375
     atom   11 type  5   force =     0.00000000   -0.98293843    0.06976809
     atom   12 type  5   force =     0.00000000    0.98293843   -0.06976809
     atom   13 type  5   force =     0.00000000    0.18296705   -0.92041089
     atom   14 type  5   force =     0.00000000   -0.18296705    0.92041089
     atom   15 type  5   force =    -0.37991699    0.57957092   -0.08470077
     atom   16 type  5   force =     0.37991699    0.57957092   -0.08470077
     atom   17 type  5   force =     0.37991699   -0.57957092    0.08470077
     atom   18 type  5   force =    -0.37991699   -0.57957092    0.08470077
     The ionic contribution  to forces
     atom    1 type  1   force =     0.00000000   -0.00000000    0.00000000
     atom    2 type  2   force =     0.00007933    0.04178609   -0.57637593
     atom    3 type  2   force =    -0.00007933   -0.04178609    0.57637593
     atom    4 type  3   force =    -0.00000000    0.00000000    0.00000000
     atom    5 type  4   force =    -0.00000413    1.37795263    2.08678427
     atom    6 type  4   force =     0.00000413   -1.37795263   -2.08678427
     atom    7 type  4   force =    -0.00000492    2.05657229   -1.62369378
     atom    8 type  4   force =     0.00000492   -2.05657229    1.62369378
     atom    9 type  5   force =    -0.00002305    3.78609691   -0.16186068
     atom   10 type  5   force =     0.00002305   -3.78609691    0.16186068
     atom   11 type  5   force =     0.00002657   15.04540555   -3.36016677
     atom   12 type  5   force =    -0.00002657  -15.04540555    3.36016677
     atom   13 type  5   force =     0.00004324   -1.96914461   14.80514274
     atom   14 type  5   force =    -0.00004324    1.96914461  -14.80514275
     atom   15 type  5   force =     6.43736844   -7.33313705   -1.61656388
     atom   16 type  5   force =    -6.43743382   -7.33321635   -1.61662091
     atom   17 type  5   force =    -6.43736844    7.33313705    1.61656388
     atom   18 type  5   force =     6.43743382    7.33321635    1.61662091
     The local contribution  to forces
     atom    1 type  1   force =     0.00000432    0.00015862    0.00046516
     atom    2 type  2   force =    -0.00049229   -0.10960206    0.46229800
     atom    3 type  2   force =     0.00045553    0.10888989   -0.45891728
     atom    4 type  3   force =     0.00002569    0.00014711   -0.00081755
     atom    5 type  4   force =     0.00000306   -1.33935267   -1.97399425
     atom    6 type  4   force =    -0.00000322    1.33933801    1.97383322
     atom    7 type  4   force =     0.00000272   -1.97138932    1.53751340
     atom    8 type  4   force =    -0.00000269    1.97139919   -1.53765100
     atom    9 type  5   force =     0.00002511   -4.95746276   -0.04392295
     atom   10 type  5   force =    -0.00001913    4.95743407    0.04319025
     atom   11 type  5   force =    -0.00005421  -14.09934091    3.30425313
     atom   12 type  5   force =     0.00004850   14.09890724   -3.30410650
     atom   13 type  5   force =    -0.00006060    1.79340897  -13.92267038
     atom   14 type  5   force =     0.00006699   -1.79341670   13.92331333
     atom   15 type  5   force =    -6.08201303    6.76897253    1.72607567
     atom   16 type  5   force =     6.08199631    6.76903849    1.72607101
     atom   17 type  5   force =     6.08168513   -6.76881917   -1.72589631
     atom   18 type  5   force =    -6.08167210   -6.76888970   -1.72591511
     The core correction contribution to forces
     atom    1 type  1   force =     0.00000000    0.00000000    0.00000000
     atom    2 type  2   force =     0.00000417   -0.00572184   -0.00699185
     atom    3 type  2   force =    -0.00000462    0.00571331    0.00702438
     atom    4 type  3   force =     0.00000047    0.00000149   -0.00000074
     atom    5 type  4   force =     0.00000000    0.00000000    0.00000000
     atom    6 type  4   force =     0.00000000    0.00000000    0.00000000
     atom    7 type  4   force =     0.00000000    0.00000000    0.00000000
     atom    8 type  4   force =     0.00000000    0.00000000    0.00000000
     atom    9 type  5   force =    -0.00000215   -0.01092825   -0.00181398
     atom   10 type  5   force =     0.00000218    0.01092888    0.00181379
     atom   11 type  5   force =    -0.00000258    0.00735920   -0.00009164
     atom   12 type  5   force =     0.00000258   -0.00735756    0.00009114
     atom   13 type  5   force =    -0.00000326   -0.00152930    0.00659702
     atom   14 type  5   force =     0.00000334    0.00152896   -0.00659786
     atom   15 type  5   force =     0.00238086   -0.00527801    0.00180179
     atom   16 type  5   force =    -0.00238130   -0.00527646    0.00180117
     atom   17 type  5   force =    -0.00238005    0.00527731   -0.00180185
     atom   18 type  5   force =     0.00238071    0.00527573   -0.00180131
     The Hubbard contrib.    to forces
     atom    1 type  1   force =     0.00000000    0.00000000    0.00000000
     atom    2 type  2   force =     0.00000000    0.00000000    0.00000000
     atom    3 type  2   force =     0.00000000    0.00000000    0.00000000
     atom    4 type  3   force =     0.00000000    0.00000000    0.00000000
     atom    5 type  4   force =     0.00000000    0.00000000    0.00000000
     atom    6 type  4   force =     0.00000000    0.00000000    0.00000000
     atom    7 type  4   force =     0.00000000    0.00000000    0.00000000
     atom    8 type  4   force =     0.00000000    0.00000000    0.00000000
     atom    9 type  5   force =     0.00000000    0.00000000    0.00000000
     atom   10 type  5   force =     0.00000000    0.00000000    0.00000000
     atom   11 type  5   force =     0.00000000    0.00000000    0.00000000
     atom   12 type  5   force =     0.00000000    0.00000000    0.00000000
     atom   13 type  5   force =     0.00000000    0.00000000    0.00000000
     atom   14 type  5   force =     0.00000000    0.00000000    0.00000000
     atom   15 type  5   force =     0.00000000    0.00000000    0.00000000
     atom   16 type  5   force =     0.00000000    0.00000000    0.00000000
     atom   17 type  5   force =     0.00000000    0.00000000    0.00000000
     atom   18 type  5   force =     0.00000000    0.00000000    0.00000000
     The SCF correction term to forces
     atom    1 type  1   force =    -0.00000734   -0.00012976   -0.00055425
     atom    2 type  2   force =     0.00038626    0.00078435   -0.00117300
     atom    3 type  2   force =    -0.00035455   -0.00017435   -0.00189250
     atom    4 type  3   force =    -0.00002773   -0.00011689    0.00089916
     atom    5 type  4   force =     0.00000086   -0.00001172    0.00007288
     atom    6 type  4   force =    -0.00000083    0.00002315    0.00008798
     atom    7 type  4   force =     0.00000326   -0.00002521    0.00008212
     atom    8 type  4   force =    -0.00000328    0.00001808    0.00005337
     atom    9 type  5   force =     0.00000776   -0.00002443    0.00049386
     atom   10 type  5   force =    -0.00000935    0.00006878    0.00032977
     atom   11 type  5   force =     0.00002433    0.00048284   -0.00010981
     atom   12 type  5   force =    -0.00002246   -0.00004929   -0.00006347
     atom   13 type  5   force =     0.00002534    0.00002079    0.00009642
     atom   14 type  5   force =    -0.00002911   -0.00006458   -0.00066339
     atom   15 type  5   force =     0.00044860   -0.00012640   -0.00021062
     atom   16 type  5   force =    -0.00039591   -0.00010792   -0.00019180
     atom   17 type  5   force =    -0.00012417   -0.00003684    0.00004559
     atom   18 type  5   force =     0.00008010   -0.00004767    0.00004053

     Total force =     0.102957     Total SCF correction =     0.002935

     Computing stress (Cartesian axis) and pressure

     negative rho (up, down):  3.331E-03 0.000E+00
          total   stress  (Ry/bohr**3)                   (kbar)     P=     -379.21
  -0.00253996   0.00000000   0.00000000         -373.64        0.00        0.00
   0.00000000  -0.00260394  -0.00003216            0.00     -383.05       -4.73
   0.00000000  -0.00003216  -0.00258963            0.00       -4.73     -380.95

     kinetic stress (kbar)  19970.69     -0.00     -0.00
                               -0.00  19735.18     86.92
                               -0.00     86.92  19386.88

     local   stress (kbar) -13049.16     -0.07     -0.16
                               -0.07  -5331.30   1882.20
                               -0.16   1882.20 -14200.82

     nonloc. stress (kbar)    -48.16      0.00      0.00
                                0.00    -96.87     12.00
                                0.00     12.00   -106.98

     hartree stress (kbar)  12855.28      0.05      0.11
                                0.05   9033.46   -657.99
                                0.11   -657.99  12670.21

     exc-cor stress (kbar)  -1149.96     -0.00     -0.00
                               -0.00  -1143.96     -4.19
                               -0.00     -4.19  -1132.88

     corecor stress (kbar)  -3814.53     -0.00     -0.00
                               -0.00  -3814.02     -0.33
                               -0.00     -0.33  -3812.96

     ewald   stress (kbar) -15137.80      0.02      0.04
                                0.02 -18765.54  -1323.34
                                0.04  -1323.34 -13184.40

     hubbard stress (kbar)      0.00      0.00      0.00
                                0.00      0.00      0.00
                                0.00      0.00      0.00

     DFT-D   stress (kbar)      0.00      0.00      0.00
                                0.00      0.00      0.00
                                0.00      0.00      0.00

     XDM     stress (kbar)      0.00      0.00      0.00
                                0.00      0.00      0.00
                                0.00      0.00      0.00

     dft-nl  stress (kbar)      0.00      0.00      0.00
                                0.00      0.00      0.00
                                0.00      0.00      0.00

     TS-vdW  stress (kbar)      0.00      0.00      0.00
                                0.00      0.00      0.00
                                0.00      0.00      0.00

[...]

                                0.00      0.00      0.00

     Writing all to output data dir new_calculations/myprefix.save/

     General routines

     Parallel routines

     PAW routines

   This run was terminated on:  22:24:45  20May2023

   JOB DONE.