     Program PWSCF v.7.0 starts on 21May2023 at  7:47:16

     Reading input from espresso_17958.pwi
Warning: card &CELL ignored
Warning: card / ignored

     Current dimensions of program PWSCF are:
     Max number of different atomic species (ntypx) = 10
     Max number of k-points (npk) =  40000
     Max angular momentum in pseudopotentials (lmaxx) =  4

     gamma-point specific algorithms are used
     Message from routine setup:
     using ibrav=0 with symmetry is DISCOURAGED, use correct ibrav instead

     Subspace diagonalization in iterative solution of the eigenvalue problem:
     a serial algorithm will be used

     Using Slab Decomposition

     bravais-lattice index     =            0
     lattice parameter (alat)  =      11.9462  a.u.
     unit-cell volume          =    1000.2377 (a.u.)^3
     number of atoms/cell      =           11
     number of atomic types    =            3
     number of electrons       =        79.00
     number of Kohn-Sham states=           48
     kinetic-energy cutoff     =      30.0000  Ry
     charge density cutoff     =     240.0000  Ry
     scf convergence threshold =      1.0E-06
     mixing beta               =       0.7000
     number of iterations used =            8  plain     mixing
     Exchange-correlation= PBE
                           (   1   4   3   4   0   0   0)

     celldm(1)=  11.946199  celldm(2)=   0.000000  celldm(3)=   0.000000
     celldm(4)=   0.000000  celldm(5)=   0.000000  celldm(6)=   0.000000

     crystal axes: (cart. coord. in units of alat)
               a(1) = (   1.000000   0.000000   0.000000 )
               a(2) = (   0.842632   0.538490   0.000000 )
               a(3) = (   0.860561   0.251490   1.089524 )

     reciprocal axes: (cart. coord. in units 2 pi/alat)
               b(1) = (  1.000000 -1.564807 -0.428653 )
               b(2) = (  0.000000  1.857046 -0.428653 )
               b(3) = (  0.000000  0.000000  0.917832 )

     PseudoPot. # 1 for Ce read from file:
     /home/pragov/projects/rrg-bengioy-ad/pragov/crystal_structure_design/SSSP/Ce.GGA-PBE-paw-v1.0.UPF
     MD5 check sum: f2b950f613061344c13339c8d844425d
     Pseudo is Projector augmented-wave + core cor, Zval = 12.0
     Generated using ATOMPAW code
     Shape of augmentation charge: BESSEL
     Using radial grid of 1102 points,  8 beta functions with:
                l(1) =   0
                l(2) =   0
                l(3) =   1
                l(4) =   1
                l(5) =   2
                l(6) =   2
                l(7) =   3
                l(8) =   3
     Q(r) pseudized with 0 coefficients

     PseudoPot. # 2 for B  read from file:
     /home/pragov/projects/rrg-bengioy-ad/pragov/crystal_structure_design/SSSP/b_pbe_v1.4.uspp.F.UPF
     MD5 check sum: cc6de2960df11db49a60e589f9ebb39b
     Pseudo is Ultrasoft + core correction, Zval =  3.0
     Generated by new atomic code, or converted to UPF format
     Using radial grid of  781 points,  4 beta functions with:
                l(1) =   0
                l(2) =   0
                l(3) =   1
                l(4) =   1
     Q(r) pseudized with  8 coefficients,  rinner =    1.100   1.100   1.100

     PseudoPot. # 3 for N  read from file:
     /home/pragov/projects/rrg-bengioy-ad/pragov/crystal_structure_design/SSSP/N.pbe-n-radius_5.UPF
     MD5 check sum: 16739722b17309cd8fe442a2ace49922
     Pseudo is Ultrasoft + core correction, Zval =  5.0
     Generated using "atomic" code by A. Dal Corso  v.5.1
     Using radial grid of 1085 points,  4 beta functions with:
                l(1) =   0
                l(2) =   0
                l(3) =   1
                l(4) =   1
     Q(r) pseudized with 0 coefficients

     atomic species   valence    mass     pseudopotential
        Ce            12.00   140.11600     Ce( 1.00)
        B              3.00    10.81000     B ( 1.00)
        N              5.00    14.00700     N ( 1.00)

      2 Sym. Ops., with inversion, found

                                    s                        frac. trans.

      isym =  1     identity

 cryst.   s( 1) = (     1          0          0      )
                  (     0          1          0      )
                  (     0          0          1      )

 cart.    s( 1) = (  1.0000000 -0.0000000  0.0000000 )
                  (  0.0000000  1.0000000  0.0000000 )
                  (  0.0000000  0.0000000  1.0000000 )

      isym =  2     inversion

 cryst.   s( 2) = (    -1          0          0      )
                  (     0         -1          0      )
                  (     0          0         -1      )

 cart.    s( 2) = ( -1.0000000  0.0000000 -0.0000000 )
                  (  0.0000000 -1.0000000 -0.0000000 )
                  (  0.0000000  0.0000000 -1.0000000 )

   Cartesian axes

     site n.     atom                  positions (alat units)
         1           Ce  tau(   1) = (   0.6987981   0.2042163   0.7105394  )
         2           Ce  tau(   2) = (   2.0043948   0.5857630   0.3789843  )
         3           Ce  tau(   3) = (   2.0301409   0.5932871   0.9666701  )
         4           Ce  tau(   4) = (   0.6730520   0.1966923   0.1228536  )
         5           B   tau(   5) = (   1.2821319   0.3746894   0.6641181  )
         6           B   tau(   6) = (   1.4210610   0.4152899   0.4254056  )
         7           N   tau(   7) = (   1.0564942   0.3087492   0.6573271  )
         8           N   tau(   8) = (   1.6466987   0.4812301   0.4321966  )
         9           N   tau(   9) = (   0.0000000   0.0000000   0.0000000  )
        10           N   tau(  10) = (   1.3890146   0.4059247   0.8729078  )
        11           N   tau(  11) = (   1.3141783   0.3840546   0.2166158  )

   Crystallographic axes

     site n.     atom                  positions (cryst. coord.)
         1           Ce  tau(   1) = (  0.0746640  0.0746640  0.6521560  )
         2           Ce  tau(   2) = (  0.9253360  0.9253360  0.3478440  )
         3           Ce  tau(   3) = (  0.6873950  0.6873950  0.8872410  )
         4           Ce  tau(   4) = (  0.3126050  0.3126050  0.1127590  )
         5           B   tau(   5) = (  0.4111390  0.4111390  0.6095490  )
         6           B   tau(   6) = (  0.5888610  0.5888610  0.3904510  )
         7           N   tau(   7) = (  0.2915960  0.2915960  0.6033160  )
         8           N   tau(   8) = (  0.7084040  0.7084040  0.3966840  )
         9           N   tau(   9) = (  0.0000000  0.0000000  0.0000000  )
        10           N   tau(  10) = (  0.3796460  0.3796460  0.8011830  )
        11           N   tau(  11) = (  0.6203540  0.6203540  0.1988170  )

     number of k points=     1  Methfessel-Paxton smearing, width (Ry)=  0.0010
                       cart. coord. in units 2pi/alat
        k(    1) = (   0.0000000   0.0000000   0.0000000), wk =   2.0000000

                       cryst. coord.
        k(    1) = (   0.0000000   0.0000000   0.0000000), wk =   2.0000000

     Check: negative core charge=   -0.000002

     Initial potential from superposition of free atoms

     starting charge      78.9714, renormalised to      79.0000
     Starting wfcs are  156 randomized atomic wfcs
     Checking if some PAW data can be deallocated...

     Self-consistent Calculation

     iteration #  1     ecut=    30.00 Ry     beta= 0.70
     Davidson diagonalization with overlap

     ethr =  1.00E-02,  avg # of iterations =  2.0

     total energy              =   -2039.06576473 Ry
     estimated scf accuracy    <       4.55478161 Ry

[...]

     c_bands:  1 eigenvalues not converged
     ethr =  2.17E-06,  avg # of iterations = 20.0

[...]

     total energy              =   -2042.62340872 Ry
     estimated scf accuracy    <       0.00000385 Ry

     iteration # 49     ecut=    30.00 Ry     beta= 0.70
     Davidson diagonalization with overlap

     ethr =  4.87E-09,  avg # of iterations =  8.0

     End of self-consistent calculation

          k = 0.0000 0.0000 0.0000 (  1398 PWs)   bands (ev):

   -19.6654 -19.4453 -19.4307 -19.4236  -4.3215  -4.1217  -3.9888  -3.2812
    -2.6511  -2.2921  -2.0497  -1.9505  -1.7915  -1.7276  -1.6948  -1.5913
    -1.1974   0.1165   0.6838   1.7314   2.4920   6.8773   8.5239   8.7455
     8.9488   9.9389  10.1076  10.1771  10.6121  11.3783  11.4091  11.6479
    11.8625  11.9145  12.2534  12.4214  12.5978  14.6788  14.8276  14.9730
    14.9829  15.1271  15.1752  15.1827  15.2517  15.3408  15.3642  15.4467

     occupation numbers
     1.0000   1.0000   1.0000   1.0000   1.0000   1.0000   1.0000   1.0000
     1.0000   1.0000   1.0000   1.0000   1.0000   1.0000   1.0000   1.0000
     1.0000   1.0000   1.0000   1.0000   1.0000   1.0000   1.0000   1.0000
     1.0000   1.0000   1.0000   1.0000   1.0000   1.0000   1.0000   1.0000
     1.0000   1.0000   1.0000   1.0000   1.0000   1.0000   1.0000   0.4776
     0.0224  -0.0000  -0.0000  -0.0000  -0.0000  -0.0000  -0.0000  -0.0000

     the Fermi energy is    14.9726 ev

!    total energy              =   -2042.62340868 Ry
     estimated scf accuracy    <       0.00000047 Ry
     smearing contrib. (-TS)   =      -0.00025921 Ry
     internal energy E=F+TS    =   -2042.62314947 Ry

     The total energy is F=E-TS. E is the sum of the following terms:
     one-electron contribution =      24.71912280 Ry
     hartree contribution      =      49.72501183 Ry
     xc contribution           =     -74.97603922 Ry
     ewald contribution        =    -408.87284707 Ry
     one-center paw contrib.   =   -1633.21839781 Ry
      -> PAW hartree energy AE =     177.68420962 Ry
      -> PAW hartree energy PS =    -176.68442869 Ry
      -> PAW xc energy AE      =   -1668.71645724 Ry
      -> PAW xc energy PS      =      34.49827850 Ry
      -> total E_H with PAW    =      50.72479276 Ry
      -> total E_XC with PAW   =   -1709.19421796 Ry

     convergence has been achieved in  49 iterations

     Forces acting on atoms (cartesian axes, Ry/au):

     atom    1 type  1   force =    -0.07074061   -0.02067802   -0.05846289
     atom    2 type  1   force =     0.07074061    0.02067802    0.05846289
     atom    3 type  1   force =    -0.05953208   -0.01740494   -0.01870638
     atom    4 type  1   force =     0.05953208    0.01740494    0.01870638
     atom    5 type  2   force =    -0.01945668   -0.00568795    0.04175809
     atom    6 type  2   force =     0.01945668    0.00568795   -0.04175809
     atom    7 type  3   force =     0.04664284    0.01364393   -0.06225743
     atom    8 type  3   force =    -0.04664284   -0.01364393    0.06225743
     atom    9 type  3   force =     0.00000000    0.00000000    0.00000000
     atom   10 type  3   force =    -0.01702064   -0.00496820   -0.04781673
     atom   11 type  3   force =     0.01702064    0.00496820    0.04781673
     The non-local contrib.  to forces
     atom    1 type  1   force =     0.16401631    0.04796722    0.07027091
     atom    2 type  1   force =    -0.16401631   -0.04796722   -0.07027091
     atom    3 type  1   force =     0.05099550    0.01494622   -0.10101455
     atom    4 type  1   force =    -0.05099550   -0.01494622    0.10101455
     atom    5 type  2   force =    -0.01150389   -0.00336427    0.06134447
     atom    6 type  2   force =     0.01150389    0.00336427   -0.06134447
     atom    7 type  3   force =     0.61532886    0.17982285   -0.08493864
     atom    8 type  3   force =    -0.61532886   -0.17982285    0.08493864
     atom    9 type  3   force =     0.00000000    0.00000000    0.00000000
     atom   10 type  3   force =    -0.29714183   -0.08683171   -0.58938337
     atom   11 type  3   force =     0.29714183    0.08683171    0.58938337
     The ionic contribution  to forces
     atom    1 type  1   force =    -0.47076798   -0.13757693    0.96638227
     atom    2 type  1   force =     0.47076798    0.13757693   -0.96638227
     atom    3 type  1   force =    -1.01480971   -0.29656733   -0.01784694
     atom    4 type  1   force =     1.01480971    0.29656733    0.01784694
     atom    5 type  2   force =     0.98039225    0.28650919   -1.47100357
     atom    6 type  2   force =    -0.98039225   -0.28650919    1.47100357
     atom    7 type  3   force =    -1.55454690   -0.45429977    0.03415508
     atom    8 type  3   force =     1.55454690    0.45429977   -0.03415508
     atom    9 type  3   force =    -0.00000000   -0.00000000    0.00000000
     atom   10 type  3   force =     0.86674272    0.25329633    1.31704201
     atom   11 type  3   force =    -0.86674272   -0.25329633   -1.31704201
     The local contribution  to forces
     atom    1 type  1   force =     0.23529647    0.06871993   -1.09525418
     atom    2 type  1   force =    -0.23546169   -0.06880095    1.09532862
     atom    3 type  1   force =     0.90455747    0.26439451    0.10017197
     atom    4 type  1   force =    -0.90498645   -0.26427460   -0.10048804
     atom    5 type  2   force =    -0.98602026   -0.28814382    1.44969991
     atom    6 type  2   force =     0.98612610    0.28819347   -1.44975002
     atom    7 type  3   force =     0.99112052    0.28965569   -0.01243759
     atom    8 type  3   force =    -0.99120487   -0.28968554    0.01235625
     atom    9 type  3   force =    -0.00017952   -0.00008611    0.00001310
     atom   10 type  3   force =    -0.58885137   -0.17205374   -0.78067168
     atom   11 type  3   force =     0.58920209    0.17221026    0.78071046
     The core correction contribution to forces
     atom    1 type  1   force =    -0.00023930   -0.00006997   -0.00014718
     atom    2 type  1   force =     0.00023926    0.00006993    0.00014723
     atom    3 type  1   force =    -0.00013206   -0.00003855   -0.00010278
     atom    4 type  1   force =     0.00013170    0.00003865    0.00010249
     atom    5 type  2   force =    -0.00208326   -0.00060851    0.00149432
     atom    6 type  2   force =     0.00208328    0.00060910   -0.00149404
     atom    7 type  3   force =    -0.00492170   -0.00143836    0.00070233
     atom    8 type  3   force =     0.00492259    0.00143850   -0.00070270
     atom    9 type  3   force =     0.00000102    0.00000012   -0.00000036
     atom   10 type  3   force =     0.00248106    0.00072513    0.00486298
     atom   11 type  3   force =    -0.00248152   -0.00072493   -0.00486286
     The Hubbard contrib.    to forces
     atom    1 type  1   force =     0.00000000    0.00000000    0.00000000
     atom    2 type  1   force =     0.00000000    0.00000000    0.00000000
     atom    3 type  1   force =     0.00000000    0.00000000    0.00000000
     atom    4 type  1   force =     0.00000000    0.00000000    0.00000000
     atom    5 type  2   force =     0.00000000    0.00000000    0.00000000
     atom    6 type  2   force =     0.00000000    0.00000000    0.00000000
     atom    7 type  3   force =     0.00000000    0.00000000    0.00000000
     atom    8 type  3   force =     0.00000000    0.00000000    0.00000000
     atom    9 type  3   force =     0.00000000    0.00000000    0.00000000
     atom   10 type  3   force =     0.00000000    0.00000000    0.00000000
     atom   11 type  3   force =     0.00000000    0.00000000    0.00000000
     The SCF correction term to forces
     atom    1 type  1   force =     0.00094187    0.00028780    0.00026451
     atom    2 type  1   force =    -0.00080065   -0.00019459   -0.00038057
     atom    3 type  1   force =    -0.00032805   -0.00009115   -0.00001742
     atom    4 type  1   force =     0.00038784    0.00006842    0.00012711
     atom    5 type  2   force =    -0.00023485   -0.00007240    0.00021476
     atom    6 type  2   force =     0.00014232    0.00003844   -0.00018135
     atom    7 type  3   force =    -0.00033409   -0.00010613    0.00025149
     atom    8 type  3   force =     0.00042528    0.00011652   -0.00018959
     atom    9 type  3   force =     0.00021529    0.00009277   -0.00001484
     atom   10 type  3   force =    -0.00024954   -0.00008520    0.00033653
     atom   11 type  3   force =    -0.00009736   -0.00003351   -0.00036903

     Total force =     0.219271     Total SCF correction =     0.001765

     Computing stress (Cartesian axis) and pressure

          total   stress  (Ry/bohr**3)                   (kbar)     P=      -20.25
  -0.00114695  -0.00113220   0.00064310         -168.72     -166.55       94.60
  -0.00113220   0.00239620   0.00018793         -166.55      352.49       27.65
   0.00064310   0.00018793  -0.00166223           94.60       27.65     -244.52

     kinetic stress (kbar)  14511.65   -321.17     -0.57
                             -321.17  15516.78     -0.16
                               -0.57     -0.16  14339.45

     local   stress (kbar)  -4663.27   -450.31    180.80
                             -450.31  -3254.03     52.83
                              180.80     52.83  -4610.02

     nonloc. stress (kbar)  10336.03      3.35     19.48
                                3.35  10325.56      5.69
                               19.48      5.69  10339.52

     hartree stress (kbar)   2504.66    101.59   -173.48
                              101.59   2186.73    -50.69
                             -173.48    -50.69   2621.68

     exc-cor stress (kbar)  -2801.18      2.84      0.12
                                2.84  -2810.06      0.03
                                0.12      0.03  -2801.55

     corecor stress (kbar)   -558.39     -1.62     -0.33
                               -1.62   -553.33     -0.10
                               -0.33     -0.10   -557.99

     ewald   stress (kbar) -19498.22    498.76     68.58
                              498.76 -21059.16     20.04
                               68.58     20.04 -19575.60

     hubbard stress (kbar)      0.00      0.00      0.00
                                0.00      0.00      0.00
                                0.00      0.00      0.00

     DFT-D   stress (kbar)      0.00      0.00      0.00
                                0.00      0.00      0.00
                                0.00      0.00      0.00

     XDM     stress (kbar)      0.00      0.00      0.00
                                0.00      0.00      0.00
                                0.00      0.00      0.00

     dft-nl  stress (kbar)      0.00      0.00      0.00
                                0.00      0.00      0.00
                                0.00      0.00      0.00

     TS-vdW  stress (kbar)      0.00      0.00      0.00
                                0.00      0.00      0.00
                                0.00      0.00      0.00

[...]

                                0.00      0.00      0.00

     Writing all to output data dir new_calculations/myprefix.save/

     General routines

     Parallel routines

     PAW routines

   This run was terminated on:   7:48:58  21May2023

   JOB DONE.