     Program PWSCF v.7.0 starts on 21May2023 at  4:42:18

     Reading input from espresso_23386.pwi
Warning: card &CELL ignored
Warning: card / ignored

     Current dimensions of program PWSCF are:
     Max number of different atomic species (ntypx) = 10
     Max number of k-points (npk) =  40000
     Max angular momentum in pseudopotentials (lmaxx) =  4

     gamma-point specific algorithms are used
     Message from routine setup:
     using ibrav=0 with symmetry is DISCOURAGED, use correct ibrav instead

     Subspace diagonalization in iterative solution of the eigenvalue problem:
     a serial algorithm will be used

     Using Slab Decomposition

     bravais-lattice index     =            0
     lattice parameter (alat)  =       8.8471  a.u.
     unit-cell volume          =    1269.9589 (a.u.)^3
     number of atoms/cell      =           16
     number of atomic types    =            4
     number of electrons       =        40.00
     number of Kohn-Sham states=           24
     kinetic-energy cutoff     =      30.0000  Ry
     charge density cutoff     =     240.0000  Ry
     scf convergence threshold =      1.0E-06
     mixing beta               =       0.7000
     number of iterations used =            8  plain     mixing
     Exchange-correlation=  SLA  PW   PBX  PBC
                           (   1   4   3   4   0   0   0)

     celldm(1)=   8.847145  celldm(2)=   0.000000  celldm(3)=   0.000000
     celldm(4)=   0.000000  celldm(5)=   0.000000  celldm(6)=   0.000000

     crystal axes: (cart. coord. in units of alat)
               a(1) = (   1.000000   0.000000   0.000000 )
               a(2) = (  -0.139383   0.990239   0.000000 )
               a(3) = (   0.000000   0.000000   1.851998 )

     reciprocal axes: (cart. coord. in units 2 pi/alat)
               b(1) = (  1.000000  0.140757  0.000000 )
               b(2) = (  0.000000  1.009858  0.000000 )
               b(3) = (  0.000000  0.000000  0.539958 )

     PseudoPot. # 1 for B  read from file:
     /home/pragov/projects/rrg-bengioy-ad/pragov/crystal_structure_design/SSSP/b_pbe_v1.4.uspp.F.UPF
     MD5 check sum: cc6de2960df11db49a60e589f9ebb39b
     Pseudo is Ultrasoft + core correction, Zval =  3.0
     Generated by new atomic code, or converted to UPF format
     Using radial grid of  781 points,  4 beta functions with:
                l(1) =   0
                l(2) =   0
                l(3) =   1
                l(4) =   1
     Q(r) pseudized with  8 coefficients,  rinner =    1.100   1.100   1.100

     PseudoPot. # 2 for H  read from file:
     /home/pragov/projects/rrg-bengioy-ad/pragov/crystal_structure_design/SSSP/H.pbe-rrkjus_psl.1.0.0.UPF
     MD5 check sum: f52b6d4d1c606e5624b1dc7b2218f220
     Pseudo is Ultrasoft, Zval =  1.0
     Generated using "atomic" code by A. Dal Corso  v.5.1
     Using radial grid of  929 points,  2 beta functions with:
                l(1) =   0
                l(2) =   0
     Q(r) pseudized with 0 coefficients

     PseudoPot. # 3 for N  read from file:
     /home/pragov/projects/rrg-bengioy-ad/pragov/crystal_structure_design/SSSP/N.pbe-n-radius_5.UPF
     MD5 check sum: 16739722b17309cd8fe442a2ace49922
     Pseudo is Ultrasoft + core correction, Zval =  5.0
     Generated using "atomic" code by A. Dal Corso  v.5.1
     Using radial grid of 1085 points,  4 beta functions with:
                l(1) =   0
                l(2) =   0
                l(3) =   1
                l(4) =   1
     Q(r) pseudized with 0 coefficients

     PseudoPot. # 4 for Cl read from file:
     /home/pragov/projects/rrg-bengioy-ad/pragov/crystal_structure_design/SSSP/cl_pbe_v1.4.uspp.F.UPF
     MD5 check sum: fc6f6913ecf08c9257cb748ef0700058
     Pseudo is Ultrasoft + core correction, Zval =  7.0
     Generated by new atomic code, or converted to UPF format
     Using radial grid of  909 points,  6 beta functions with:
                l(1) =   0
                l(2) =   0
                l(3) =   1
                l(4) =   1
                l(5) =   2
                l(6) =   2
     Q(r) pseudized with  8 coefficients,  rinner =    1.300   1.300   1.300
                                                       1.300   1.300

     atomic species   valence    mass     pseudopotential
        B              3.00    10.81000     B ( 1.00)
        H              1.00     1.00800     H ( 1.00)
        N              5.00    14.00700     N ( 1.00)
        Cl             7.00    35.45000     Cl( 1.00)

      2 Sym. Ops. (no inversion) found ( 1 have fractional translation)

                                    s                        frac. trans.

      isym =  1     identity

 cryst.   s( 1) = (     1          0          0      )
                  (     0          1          0      )
                  (     0          0          1      )

 cart.    s( 1) = (  1.0000000 -0.0000000  0.0000000 )
                  (  0.0000000  1.0000000  0.0000000 )
                  (  0.0000000  0.0000000  1.0000000 )

      isym =  2     180 deg rotation - cart. axis [0,0,1]

 cryst.   s( 2) = (    -1          0          0      )    f =(  0.0000000 )
                  (     0         -1          0      )       (  0.0000000 )
                  (     0          0          1      )       (  0.5000000 )

 cart.    s( 2) = ( -1.0000000  0.0000000  0.0000000 )    f =(  0.0000000 )
                  (  0.0000000 -1.0000000  0.0000000 )       (  0.0000000 )
                  (  0.0000000  0.0000000  1.0000000 )       (  0.9259988 )

   Cartesian axes

     site n.     atom                  positions (alat units)
         1           B   tau(   1) = (   0.1258480   0.1448026   0.9641073  )
         2           B   tau(   2) = (   0.7347690   0.8454360   0.0381086  )
         3           H   tau(   3) = (   0.6844883   0.7875823   1.0095739  )
         4           H   tau(   4) = (   0.1761287   0.2026563   0.0835751  )
         5           H   tau(   5) = (   0.8835324   0.7459635   0.7213494  )
         6           H   tau(   6) = (   0.6155324   0.9788825   0.7213494  )
         7           H   tau(   7) = (  -0.0229154   0.2442750   1.6473482  )
         8           H   tau(   8) = (   0.2450846   0.0113561   1.6473482  )
         9           H   tau(   9) = (  -0.0142839   0.3146552   1.0981660  )
        10           H   tau(  10) = (   0.3135747   0.0297131   1.0981660  )
        11           H   tau(  11) = (   0.8749009   0.6755833   0.1721673  )
        12           H   tau(  12) = (   0.5470423   0.9605254   0.1721673  )
        13           N   tau(  13) = (   0.7780554   0.8952420   0.8429145  )
        14           N   tau(  14) = (   0.0825616   0.0949966   1.7689133  )
        15           Cl  tau(  15) = (   0.2919979   0.3359770   0.6463027  )
        16           Cl  tau(  16) = (   0.5686191   0.6542615   1.5723015  )

   Crystallographic axes

     site n.     atom                  positions (cryst. coord.)
         1           B   tau(   1) = (  0.1462300  0.1462300  0.5205770  )
         2           B   tau(   2) = (  0.8537700  0.8537700  0.0205770  )
         3           H   tau(   3) = (  0.7953460  0.7953460  0.5451270  )
         4           H   tau(   4) = (  0.2046540  0.2046540  0.0451270  )
         5           H   tau(   5) = (  0.9885320  0.7533170  0.3894980  )
         6           H   tau(   6) = (  0.7533170  0.9885320  0.3894980  )
         7           H   tau(   7) = (  0.0114680  0.2466830  0.8894980  )
         8           H   tau(   8) = (  0.2466830  0.0114680  0.8894980  )
         9           H   tau(   9) = (  0.0300060  0.3177570  0.5929630  )
        10           H   tau(  10) = (  0.3177570  0.0300060  0.5929630  )
        11           H   tau(  11) = (  0.9699940  0.6822430  0.0929630  )
        12           H   tau(  12) = (  0.6822430  0.9699940  0.0929630  )
        13           N   tau(  13) = (  0.9040670  0.9040670  0.4551380  )
        14           N   tau(  14) = (  0.0959330  0.0959330  0.9551380  )
        15           Cl  tau(  15) = (  0.3392890  0.3392890  0.3489760  )
        16           Cl  tau(  16) = (  0.6607110  0.6607110  0.8489760  )

     number of k points=     1  Methfessel-Paxton smearing, width (Ry)=  0.0010
                       cart. coord. in units 2pi/alat
        k(    1) = (   0.0000000   0.0000000   0.0000000), wk =   2.0000000

                       cryst. coord.
        k(    1) = (   0.0000000   0.0000000   0.0000000), wk =   2.0000000

     Check: negative core charge=   -0.000001

     Initial potential from superposition of free atoms

     starting charge      39.9993, renormalised to      40.0000

     negative rho (up, down):  3.031E-02 0.000E+00
     Starting wfcs are   34 randomized atomic wfcs

     Self-consistent Calculation

     iteration #  1     ecut=    30.00 Ry     beta= 0.70
     Davidson diagonalization with overlap

     ethr =  1.00E-02,  avg # of iterations =  3.0

     negative rho (up, down):  3.095E-02 0.000E+00

     total energy              =    -131.46430722 Ry
     estimated scf accuracy    <       1.37781758 Ry

[...]

     total energy              =    -131.83674677 Ry
     estimated scf accuracy    <       0.00000322 Ry

     iteration #  7     ecut=    30.00 Ry     beta= 0.70
     Davidson diagonalization with overlap

     ethr =  8.06E-09,  avg # of iterations =  2.0

[...]

     End of self-consistent calculation

          k = 0.0000 0.0000 0.0000 (  1759 PWs)   bands (ev):

   -18.3324 -18.3026 -14.3605 -14.3521  -8.2995  -7.9873  -7.9530  -7.9482
    -7.6352  -7.5804  -4.6997  -4.5438  -3.2732  -3.2648  -2.9899  -2.8226
    -1.7381  -1.3825  -1.2271  -0.8583   4.5659   4.6782   5.9252   6.1224

     occupation numbers
     1.0000   1.0000   1.0000   1.0000   1.0000   1.0000   1.0000   1.0000
     1.0000   1.0000   1.0000   1.0000   1.0000   1.0000   1.0000   1.0000
     1.0000   1.0000   1.0000   1.0000  -0.0000  -0.0000  -0.0000  -0.0000

     the Fermi energy is     0.0768 ev

!    total energy              =    -131.83674738 Ry
     estimated scf accuracy    <       0.00000021 Ry
     smearing contrib. (-TS)   =       0.00000000 Ry
     internal energy E=F+TS    =    -131.83674738 Ry

     The total energy is F=E-TS. E is the sum of the following terms:
     one-electron contribution =     -67.54959525 Ry
     hartree contribution      =      45.59831786 Ry
     xc contribution           =     -42.93057926 Ry
     ewald contribution        =     -66.95489074 Ry

     convergence has been achieved in   7 iterations

     negative rho (up, down):  2.991E-02 0.000E+00

     Forces acting on atoms (cartesian axes, Ry/au):

     atom    1 type  1   force =    -0.00475277   -0.00546826   -0.01069523
     atom    2 type  1   force =     0.00475277    0.00546826   -0.01069523
     atom    3 type  2   force =    -0.00149314   -0.00171817    0.00774921
     atom    4 type  2   force =     0.00149314    0.00171817    0.00774921
     atom    5 type  2   force =     0.00804211   -0.01281420   -0.00492805
     atom    6 type  2   force =    -0.01380941    0.00617716   -0.00492757
     atom    7 type  2   force =    -0.00804211    0.01281420   -0.00492805
     atom    8 type  2   force =     0.01380941   -0.00617716   -0.00492757
     atom    9 type  2   force =    -0.00628671    0.00162349   -0.00636526
     atom   10 type  2   force =     0.00248381   -0.00599883   -0.00636546
     atom   11 type  2   force =     0.00628671   -0.00162349   -0.00636526
     atom   12 type  2   force =    -0.00248381    0.00599883   -0.00636546
     atom   13 type  3   force =     0.01817167    0.02090822    0.02975300
     atom   14 type  3   force =    -0.01817167   -0.02090822    0.02975300
     atom   15 type  4   force =    -0.00451616   -0.00519811   -0.00422065
     atom   16 type  4   force =     0.00451616    0.00519811   -0.00422065
     The non-local contrib.  to forces
     atom    1 type  1   force =    -0.02683053   -0.03087207   -0.31174998
     atom    2 type  1   force =     0.02683053    0.03087207   -0.31174998
     atom    3 type  2   force =     0.04239471    0.04877998   -0.07701213
     atom    4 type  2   force =    -0.04239471   -0.04877998   -0.07701213
     atom    5 type  2   force =    -0.04887448    0.06724436    0.05495859
     atom    6 type  2   force =     0.07340025   -0.03902467    0.05495863
     atom    7 type  2   force =     0.04887448   -0.06724436    0.05495859
     atom    8 type  2   force =    -0.07340025    0.03902467    0.05495863
     atom    9 type  2   force =     0.02700828   -0.03461810   -0.02811541
     atom   10 type  2   force =    -0.03804469    0.02191948   -0.02811542
     atom   11 type  2   force =    -0.02700828    0.03461810   -0.02811541
     atom   12 type  2   force =     0.03804469   -0.02191948   -0.02811542
     atom   13 type  3   force =    -0.37112052   -0.42701512   -0.26273381
     atom   14 type  3   force =     0.37112052    0.42701512   -0.26273381
     atom   15 type  4   force =    -0.12578499   -0.14473529    0.15662675
     atom   16 type  4   force =     0.12578499    0.14473529    0.15662675
     The ionic contribution  to forces
     atom    1 type  1   force =     0.90638809    1.04290343    1.95561689
     atom    2 type  1   force =    -0.90638809   -1.04290343    1.95561689
     atom    3 type  2   force =    -1.26625081   -1.45696676    2.07059799
     atom    4 type  2   force =     1.26625081    1.45696676    2.07059799
     atom    5 type  2   force =     1.17416152   -1.94656965   -1.59141377
     atom    6 type  2   force =    -2.09122645    0.89138130   -1.59141377
     atom    7 type  2   force =    -1.17416152    1.94656965   -1.59141377
     atom    8 type  2   force =     2.09122645   -0.89138130   -1.59141377
     atom    9 type  2   force =    -0.63566164    0.97182565    0.93937974
     atom   10 type  2   force =     1.05093964   -0.49400069    0.93937974
     atom   11 type  2   force =     0.63566164   -0.97182565    0.93937974
     atom   12 type  2   force =    -1.05093964    0.49400069    0.93937974
     atom   13 type  3   force =    -0.68771518   -0.79129517    0.00482862
     atom   14 type  3   force =     0.68771518    0.79129517    0.00482862
     atom   15 type  4   force =     1.85671034    2.13635814   -2.72697544
     atom   16 type  4   force =    -1.85671034   -2.13635814   -2.72697544
     The local contribution  to forces
     atom    1 type  1   force =    -0.88423898   -1.01741947   -1.66583985
     atom    2 type  1   force =     0.88423563    1.01741479   -1.66583187
     atom    3 type  2   force =     1.22233760    1.40644004   -1.98580475
     atom    4 type  2   force =    -1.22233916   -1.40644172   -1.98580191
     atom    5 type  2   force =    -1.11720415    1.86647646    1.53146947
     atom    6 type  2   force =     2.00397659   -0.84614336    1.53147018
     atom    7 type  2   force =     1.11720416   -1.86647859    1.53147649
     atom    8 type  2   force =    -2.00397850    0.84614352    1.53147741
     atom    9 type  2   force =     0.60238810   -0.93557559   -0.91765539
     atom   10 type  2   force =    -1.01040574    0.46610452   -0.91765566
     atom   11 type  2   force =    -0.60239171    0.93558008   -0.91765565
     atom   12 type  2   force =     1.01041062   -0.46610814   -0.91765606
     atom   13 type  3   force =     1.07427848    1.23608550    0.28527456
     atom   14 type  3   force =    -1.07428112   -1.23608989    0.28529859
     atom   15 type  4   force =    -1.73868808   -2.00056628    2.56966797
     atom   16 type  4   force =     1.73870733    2.00057710    2.56976179
     The core correction contribution to forces
     atom    1 type  1   force =     0.00002496    0.00002872    0.01124690
     atom    2 type  1   force =    -0.00002512   -0.00002888    0.01124683
     atom    3 type  2   force =     0.00000000    0.00000000    0.00000000
     atom    4 type  2   force =     0.00000000    0.00000000    0.00000000
     atom    5 type  2   force =     0.00000000    0.00000000    0.00000000
     atom    6 type  2   force =     0.00000000    0.00000000    0.00000000
     atom    7 type  2   force =     0.00000000    0.00000000    0.00000000
     atom    8 type  2   force =     0.00000000    0.00000000    0.00000000
     atom    9 type  2   force =     0.00000000    0.00000000    0.00000000
     atom   10 type  2   force =     0.00000000    0.00000000    0.00000000
     atom   11 type  2   force =     0.00000000    0.00000000    0.00000000
     atom   12 type  2   force =     0.00000000    0.00000000    0.00000000
     atom   13 type  3   force =     0.00279729    0.00321857    0.00221638
     atom   14 type  3   force =    -0.00279721   -0.00321853    0.00221625
     atom   15 type  4   force =     0.00306494    0.00352667   -0.00318227
     atom   16 type  4   force =    -0.00306463   -0.00352705   -0.00318131
     The Hubbard contrib.    to forces
     atom    1 type  1   force =     0.00000000    0.00000000    0.00000000
     atom    2 type  1   force =     0.00000000    0.00000000    0.00000000
     atom    3 type  2   force =     0.00000000    0.00000000    0.00000000
     atom    4 type  2   force =     0.00000000    0.00000000    0.00000000
     atom    5 type  2   force =     0.00000000    0.00000000    0.00000000
     atom    6 type  2   force =     0.00000000    0.00000000    0.00000000
     atom    7 type  2   force =     0.00000000    0.00000000    0.00000000
     atom    8 type  2   force =     0.00000000    0.00000000    0.00000000
     atom    9 type  2   force =     0.00000000    0.00000000    0.00000000
     atom   10 type  2   force =     0.00000000    0.00000000    0.00000000
     atom   11 type  2   force =     0.00000000    0.00000000    0.00000000
     atom   12 type  2   force =     0.00000000    0.00000000    0.00000000
     atom   13 type  3   force =     0.00000000    0.00000000    0.00000000
     atom   14 type  3   force =     0.00000000    0.00000000    0.00000000
     atom   15 type  4   force =     0.00000000    0.00000000    0.00000000
     atom   16 type  4   force =     0.00000000    0.00000000    0.00000000
     The SCF correction term to forces
     atom    1 type  1   force =    -0.00009823   -0.00011135    0.00002254
     atom    2 type  1   force =     0.00009790    0.00011121    0.00000724
     atom    3 type  2   force =     0.00002520    0.00002852   -0.00004341
     atom    4 type  2   force =    -0.00002398   -0.00002694   -0.00004719
     atom    5 type  2   force =    -0.00004089    0.00003445    0.00004646
     atom    6 type  2   force =     0.00004013   -0.00003607    0.00004602
     atom    7 type  2   force =     0.00004067   -0.00003269    0.00003790
     atom    8 type  2   force =    -0.00003835    0.00003599    0.00003761
     atom    9 type  2   force =    -0.00002198   -0.00000770    0.00001399
     atom   10 type  2   force =    -0.00000461   -0.00002262    0.00001415
     atom   11 type  2   force =     0.00002455    0.00000473    0.00001392
     atom   12 type  2   force =     0.00000132    0.00002527    0.00001406
     atom   13 type  3   force =    -0.00006562   -0.00008197    0.00016540
     atom   14 type  3   force =     0.00007375    0.00009350    0.00012127
     atom   15 type  4   force =     0.00018596    0.00021823   -0.00037458
     atom   16 type  4   force =    -0.00019687   -0.00022952   -0.00045945

     Total force =     0.072410     Total SCF correction =     0.000816

     Computing stress (Cartesian axis) and pressure

     negative rho (up, down):  2.991E-02 0.000E+00
          total   stress  (Ry/bohr**3)                   (kbar)     P=      -10.49
   0.00003482  -0.00000272   0.00000000            5.12       -0.40        0.00
  -0.00000272   0.00003406   0.00000000           -0.40        5.01        0.00
   0.00000000   0.00000000  -0.00028281            0.00        0.00      -41.60

     kinetic stress (kbar)   5023.46     15.83      0.00
                               15.83   5027.92      0.00
                                0.00      0.00   4811.73

     local   stress (kbar)  -5301.91  -1509.65      0.00
                            -1509.65  -5726.90      0.00
                                0.00      0.00  -4133.41

     nonloc. stress (kbar)   2280.94      4.79      0.00
                                4.79   2282.28      0.00
                                0.00      0.00   2254.55

     hartree stress (kbar)   1878.52    581.14      0.00
                              581.14   2042.12      0.00
                                0.00      0.00   1361.22

     exc-cor stress (kbar)   -221.53     -1.61      0.00
                               -1.61   -221.99      0.00
                                0.00      0.00   -220.90

     corecor stress (kbar)  -1139.12      3.14      0.00
                                3.14  -1138.24      0.00
                                0.00      0.00  -1134.53

     ewald   stress (kbar)  -2515.23    905.96      0.00
                              905.96  -2260.19      0.00
                                0.00      0.00  -2980.26

     hubbard stress (kbar)      0.00      0.00      0.00
                                0.00      0.00      0.00
                                0.00      0.00      0.00

     DFT-D   stress (kbar)      0.00      0.00      0.00
                                0.00      0.00      0.00
                                0.00      0.00      0.00

     XDM     stress (kbar)      0.00      0.00      0.00
                                0.00      0.00      0.00
                                0.00      0.00      0.00

     dft-nl  stress (kbar)      0.00      0.00      0.00
                                0.00      0.00      0.00
                                0.00      0.00      0.00

     TS-vdW  stress (kbar)      0.00      0.00      0.00
                                0.00      0.00      0.00
                                0.00      0.00      0.00

[...]

                                0.00      0.00      0.00

     Writing all to output data dir new_calculations/myprefix.save/

     General routines

     Parallel routines

   This run was terminated on:   4:42:57  21May2023

   JOB DONE.