     Program PWSCF v.7.0 starts on 21May2023 at 18:19:37

     Reading input from espresso_25763.pwi
Warning: card &CELL ignored
Warning: card / ignored

     Current dimensions of program PWSCF are:
     Max number of different atomic species (ntypx) = 10
     Max number of k-points (npk) =  40000
     Max angular momentum in pseudopotentials (lmaxx) =  4
     file Nb.pbe-spn-kjpaw_psl.0.3.0.UPF: wavefunction(s)  4S 4P renormalized

     gamma-point specific algorithms are used
     Message from routine setup:
     using ibrav=0 with symmetry is DISCOURAGED, use correct ibrav instead

     Subspace diagonalization in iterative solution of the eigenvalue problem:
     a serial algorithm will be used

     Using Slab Decomposition

     bravais-lattice index     =            0
     lattice parameter (alat)  =      19.5507  a.u.
     unit-cell volume          =    4249.5868 (a.u.)^3
     number of atoms/cell      =           20
     number of atomic types    =            4
     number of electrons       =       178.00
     number of Kohn-Sham states=          107
     kinetic-energy cutoff     =      30.0000  Ry
     charge density cutoff     =     240.0000  Ry
     scf convergence threshold =      1.0E-06
     mixing beta               =       0.7000
     number of iterations used =            8  plain     mixing
     Exchange-correlation=  SLA  PW   PBX  PBC
                           (   1   4   3   4   0   0   0)

     celldm(1)=  19.550721  celldm(2)=   0.000000  celldm(3)=   0.000000
     celldm(4)=   0.000000  celldm(5)=   0.000000  celldm(6)=   0.000000

     crystal axes: (cart. coord. in units of alat)
               a(1) = (   1.000000   0.000000   0.000000 )
               a(2) = (   0.236321   0.971675   0.000000 )
               a(3) = (  -0.495616  -0.641759   0.585244 )

     reciprocal axes: (cart. coord. in units 2 pi/alat)
               b(1) = (  1.000000 -0.243210  0.580157 )
               b(2) = (  0.000000  1.029151  1.128531 )
               b(3) = (  0.000000  0.000000  1.708688 )

     PseudoPot. # 1 for Nb read from file:
     /home/pragov/projects/rrg-bengioy-ad/pragov/crystal_structure_design/SSSP/Nb.pbe-spn-kjpaw_psl.0.3.0.UPF
     MD5 check sum: 411d72ad547312f8017e2943ceca08cc
     Pseudo is Projector augmented-wave + core cor, Zval = 13.0
     Generated using "atomic" code by A. Dal Corso  v.5.0.99 svn rev. 10869
     Shape of augmentation charge: PSQ
     Using radial grid of 1227 points,  6 beta functions with:
                l(1) =   0
                l(2) =   0
                l(3) =   1
                l(4) =   1
                l(5) =   2
                l(6) =   2
     Q(r) pseudized with 0 coefficients

     PseudoPot. # 2 for Tl read from file:
     /home/pragov/projects/rrg-bengioy-ad/pragov/crystal_structure_design/SSSP/Tl_pbe_v1.2.uspp.F.UPF
     MD5 check sum: b76cf1f7e72655a2b2c53cf6385d7059
     Pseudo is Ultrasoft + core correction, Zval = 13.0
     Generated by new atomic code, or converted to UPF format
     Using radial grid of  899 points,  6 beta functions with:
                l(1) =   0
                l(2) =   0
                l(3) =   1
                l(4) =   1
                l(5) =   2
                l(6) =   2
     Q(r) pseudized with  6 coefficients,  rinner =    1.100   1.100   1.100
                                                       1.100   1.100

     PseudoPot. # 3 for S  read from file:
     /home/pragov/projects/rrg-bengioy-ad/pragov/crystal_structure_design/SSSP/s_pbe_v1.4.uspp.F.UPF
     MD5 check sum: 88d86576ff6df21479756cfb9bdac1df
     Pseudo is Ultrasoft + core correction, Zval =  6.0
     Generated by new atomic code, or converted to UPF format
     Using radial grid of  907 points,  6 beta functions with:
                l(1) =   0
                l(2) =   0
                l(3) =   1
                l(4) =   1
                l(5) =   2
                l(6) =   2
     Q(r) pseudized with  8 coefficients,  rinner =    1.300   1.300   1.300
                                                       1.300   1.300

     PseudoPot. # 4 for Br read from file:
     /home/pragov/projects/rrg-bengioy-ad/pragov/crystal_structure_design/SSSP/br_pbe_v1.4.uspp.F.UPF
     MD5 check sum: d3ffb7b29f6225aa16fe06858fb2a80b
     Pseudo is Ultrasoft + core correction, Zval =  7.0
     Generated by new atomic code, or converted to UPF format
     Using radial grid of  879 points,  6 beta functions with:
                l(1) =   0
                l(2) =   0
                l(3) =   1
                l(4) =   1
                l(5) =   2
                l(6) =   2
     Q(r) pseudized with  8 coefficients,  rinner =    1.100   1.100   1.100
                                                       1.100   1.100

     atomic species   valence    mass     pseudopotential
        Nb            13.00    92.90637     Nb( 1.00)
        Tl            13.00   204.38000     Tl( 1.00)
        S              6.00    32.06000     S ( 1.00)
        Br             7.00    79.90400     Br( 1.00)

      2 Sym. Ops., with inversion, found

                                    s                        frac. trans.

      isym =  1     identity

 cryst.   s( 1) = (     1          0          0      )
                  (     0          1          0      )
                  (     0          0          1      )

 cart.    s( 1) = (  1.0000000 -0.0000000 -0.0000000 )
                  (  0.0000000  1.0000000  0.0000000 )
                  (  0.0000000  0.0000000  1.0000000 )

      isym =  2     inversion

 cryst.   s( 2) = (    -1          0          0      )
                  (     0         -1          0      )
                  (     0          0         -1      )

 cart.    s( 2) = ( -1.0000000  0.0000000  0.0000000 )
                  (  0.0000000 -1.0000000 -0.0000000 )
                  (  0.0000000  0.0000000 -1.0000000 )

   Cartesian axes

     site n.     atom                  positions (alat units)
         1           Nb  tau(   1) = (   1.1256662   0.8847073   0.0000000  )
         2           Nb  tau(   2) = (   0.1106544   0.0869678   0.0000000  )
         3           Tl  tau(   3) = (   0.9327121   0.5070532   0.1274036  )
         4           Tl  tau(   4) = (   0.2521922  -0.3208793   0.2926222  )
         5           Tl  tau(   5) = (   0.5232115   0.1852092   0.1274036  )
         6           Tl  tau(   6) = (  -0.1920069  -0.1771368   0.4578408  )
         7           Tl  tau(   7) = (   0.2174936   0.1447073   0.4578408  )
         8           S   tau(   8) = (  -0.0130238   0.0165710   0.1968382  )
         9           S   tau(   9) = (   0.7537290   0.3133454   0.3884062  )
        10           S   tau(  10) = (  -0.1482762   0.1886607   0.5021110  )
        11           S   tau(  11) = (   0.8889813   0.1412557   0.0831334  )
        12           Br  tau(  12) = (   0.6737372  -0.1255376   0.1435248  )
        13           Br  tau(  13) = (   0.0669680   0.4554540   0.4417197  )
        14           Br  tau(  14) = (   0.2025219   0.6743179   0.1526528  )
        15           Br  tau(  15) = (   0.2969220  -0.0374303   0.1526528  )
        16           Br  tau(  16) = (   0.5416207   0.0425621   0.4417197  )
        17           Br  tau(  17) = (   0.1990844   0.2873544   0.1435248  )
        18           Br  tau(  18) = (   0.4437831   0.3673467   0.4325916  )
        19           Br  tau(  19) = (   0.6181603   0.4858376   0.0000000  )
        20           Br  tau(  20) = (   0.5381832  -0.3444014   0.4325916  )

   Crystallographic axes

     site n.     atom                  positions (cryst. coord.)
         1           Nb  tau(   1) = (  0.9104970  0.9104970  0.0000000  )
         2           Nb  tau(   2) = (  0.0895030  0.0895030  0.0000000  )
         3           Tl  tau(   3) = (  0.8833060  0.6656130  0.2176930  )
         4           Tl  tau(   4) = (  0.5000000  0.0000000  0.5000000  )
         5           Tl  tau(   5) = (  0.5520810  0.3343870  0.2176930  )
         6           Tl  tau(   6) = (  0.1166940  0.3343870  0.7823070  )
         7           Tl  tau(   7) = (  0.4479190  0.6656130  0.7823070  )
         8           S   tau(   8) = (  0.0971430  0.2391920  0.3363350  )
         9           S   tau(   9) = (  0.9028570  0.7608080  0.6636650  )
        10           S   tau(  10) = (  0.0971430  0.7608080  0.8579510  )
        11           S   tau(  11) = (  0.9028570  0.2391920  0.1420490  )
        12           Br  tau(  12) = (  0.7875360  0.0327750  0.2452390  )
        13           Br  tau(  13) = (  0.2124640  0.9672250  0.7547610  )
        14           Br  tau(  14) = (  0.1270840  0.8662480  0.2608360  )
        15           Br  tau(  15) = (  0.3945880  0.1337520  0.2608360  )
        16           Br  tau(  16) = (  0.7875360  0.5422970  0.7547610  )
        17           Br  tau(  17) = (  0.2124640  0.4577030  0.2452390  )
        18           Br  tau(  18) = (  0.6054120  0.8662480  0.7391640  )
        19           Br  tau(  19) = (  0.5000000  0.5000000  0.0000000  )
        20           Br  tau(  20) = (  0.8729160  0.1337520  0.7391640  )

     number of k points=     1  Methfessel-Paxton smearing, width (Ry)=  0.0010
                       cart. coord. in units 2pi/alat
        k(    1) = (   0.0000000   0.0000000   0.0000000), wk =   2.0000000

                       cryst. coord.
        k(    1) = (   0.0000000   0.0000000   0.0000000), wk =   2.0000000

     Check: negative core charge=   -0.000005

     Initial potential from superposition of free atoms

     starting charge     177.9711, renormalised to     178.0000

     negative rho (up, down):  2.511E-01 0.000E+00
     Starting wfcs are  117 randomized atomic wfcs
     Checking if some PAW data can be deallocated...

     Self-consistent Calculation

     iteration #  1     ecut=    30.00 Ry     beta= 0.70
     Davidson diagonalization with overlap

     ethr =  1.00E-02,  avg # of iterations =  3.0

     Threshold (ethr) on eigenvalues was too large:
     Diagonalizing with lowered threshold

     Davidson diagonalization with overlap

[...]

     negative rho (up, down):  2.474E-01 0.000E+00

     total energy              =   -1912.44098090 Ry
     estimated scf accuracy    <       1.26102723 Ry

[...]

     total energy              =   -1913.06052273 Ry
     estimated scf accuracy    <       0.00000469 Ry

     iteration # 11     ecut=    30.00 Ry     beta= 0.70
     Davidson diagonalization with overlap

     ethr =  2.63E-09,  avg # of iterations =  4.0

[...]

     End of self-consistent calculation

          k = 0.0000 0.0000 0.0000 (  5898 PWs)   bands (ev):

   -50.5780 -50.5211 -27.6168 -26.9281 -26.7594 -26.7435 -26.5195 -26.5108
   -11.1281 -10.8573 -10.1241  -9.7129  -9.6455  -9.6162  -9.6040  -9.2062
    -9.1370  -9.1245  -8.9391  -6.6252  -6.2469  -5.7446  -5.7444  -5.7410
    -5.7376  -5.7365  -5.7352  -5.7329  -5.7322  -5.7298  -5.7247  -5.7189
    -5.7188  -5.7128  -5.7104  -5.7076  -5.7058  -5.7058  -5.7009  -5.6956
    -5.6937  -5.6914  -5.6777  -5.6312  -5.5864  -5.5182  -1.0266  -0.9414
    -0.8053  -0.4948  -0.4407  -0.3521  -0.1953   0.0313   0.1387   0.2284
     0.4141   0.8774   1.1420   1.2956   1.3189   1.4506   1.5045   1.5601
     1.5837   1.9212   1.9575   1.9764   2.1574   2.3679   2.4333   2.6585
     2.6853   2.7334   2.9450   2.9818   3.0688   3.2207   3.2384   3.2479
     3.2877   3.4324   3.4943   3.5155   3.5462   3.5901   3.7590   3.9973
     4.4414   6.5050   6.6327   6.7232   6.8889   7.0402   7.1523   7.5190
     7.5395   7.7349   7.9409   7.9635   8.2565   8.3411   8.5086   8.5424
     8.7108   8.7787   8.8151

     occupation numbers
     1.0000   1.0000   1.0000   1.0000   1.0000   1.0000   1.0000   1.0000
     1.0000   1.0000   1.0000   1.0000   1.0000   1.0000   1.0000   1.0000
     1.0000   1.0000   1.0000   1.0000   1.0000   1.0000   1.0000   1.0000
     1.0000   1.0000   1.0000   1.0000   1.0000   1.0000   1.0000   1.0000
     1.0000   1.0000   1.0000   1.0000   1.0000   1.0000   1.0000   1.0000
     1.0000   1.0000   1.0000   1.0000   1.0000   1.0000   1.0000   1.0000
     1.0000   1.0000   1.0000   1.0000   1.0000   1.0000   1.0000   1.0000
     1.0000   1.0000   1.0000   1.0000   1.0000   1.0000   1.0000   1.0000
     1.0000   1.0000   1.0000   1.0000   1.0000   1.0000   1.0000   1.0000
     1.0000   1.0000   1.0000   1.0000   1.0000   1.0000   1.0000   1.0000
     1.0000   1.0000   1.0000   1.0000   1.0000   1.0000   1.0000   1.0000
     1.0000  -0.0000  -0.0000  -0.0000  -0.0000  -0.0000  -0.0000  -0.0000
    -0.0000  -0.0000  -0.0000  -0.0000  -0.0000  -0.0000  -0.0000  -0.0000
    -0.0000  -0.0000  -0.0000

     the Fermi energy is     5.2220 ev

!    total energy              =   -1913.06052392 Ry
     estimated scf accuracy    <       0.00000031 Ry
     smearing contrib. (-TS)   =       0.00000000 Ry
     internal energy E=F+TS    =   -1913.06052392 Ry

     The total energy is F=E-TS. E is the sum of the following terms:
     one-electron contribution =    -435.62389297 Ry
     hartree contribution      =     307.61473429 Ry
     xc contribution           =    -636.98691365 Ry
     ewald contribution        =    -731.12368911 Ry
     one-center paw contrib.   =    -416.94076248 Ry
      -> PAW hartree energy AE =     132.04701411 Ry
      -> PAW hartree energy PS =    -131.32011564 Ry
      -> PAW xc energy AE      =    -471.14567425 Ry
      -> PAW xc energy PS      =      53.47801330 Ry
      -> total E_H with PAW    =     308.34163276 Ry
      -> total E_XC with PAW   =   -1054.65457460 Ry

     convergence has been achieved in  11 iterations

     negative rho (up, down):  2.432E-01 0.000E+00

     Forces acting on atoms (cartesian axes, Ry/au):

     atom    1 type  1   force =    -0.03155479   -0.09296372   -0.00590122
     atom    2 type  1   force =     0.03155479    0.09296372    0.00590122
     atom    3 type  2   force =    -0.00587995   -0.00092245   -0.00391278
     atom    4 type  2   force =     0.00000000    0.00000000    0.00000000
     atom    5 type  2   force =     0.00010570    0.00829870   -0.00659772
     atom    6 type  2   force =     0.00587995    0.00092245    0.00391278
     atom    7 type  2   force =    -0.00010570   -0.00829870    0.00659772
     atom    8 type  3   force =     0.01699560   -0.03204066    0.03325169
     atom    9 type  3   force =    -0.01699560    0.03204066   -0.03325169
     atom   10 type  3   force =     0.00903023   -0.02651622    0.03565994
     atom   11 type  3   force =    -0.00903023    0.02651622   -0.03565994
     atom   12 type  4   force =     0.00927776    0.01434189   -0.00494710
     atom   13 type  4   force =    -0.00927776   -0.01434189    0.00494710
     atom   14 type  4   force =     0.00612380    0.02028485    0.00770132
     atom   15 type  4   force =     0.00586018   -0.00845955    0.00997117
     atom   16 type  4   force =     0.00688413    0.01256702    0.00519503
     atom   17 type  4   force =    -0.00688413   -0.01256702   -0.00519503
     atom   18 type  4   force =    -0.00586018    0.00845955   -0.00997117
     atom   19 type  4   force =     0.00000000    0.00000000    0.00000000
     atom   20 type  4   force =    -0.00612380   -0.02028485   -0.00770132
     The non-local contrib.  to forces
     atom    1 type  1   force =     0.11921231    0.03722325    0.00787237
     atom    2 type  1   force =    -0.11921231   -0.03722325   -0.00787237
     atom    3 type  2   force =     0.05930899    0.05490144    0.00560047
     atom    4 type  2   force =     0.00000000    0.00000000    0.00000000
     atom    5 type  2   force =    -0.06666422   -0.04523497    0.00697113
     atom    6 type  2   force =    -0.05930899   -0.05490144   -0.00560047
     atom    7 type  2   force =     0.06666422    0.04523497   -0.00697113
     atom    8 type  3   force =    -0.11909952    0.15823964   -0.24551451
     atom    9 type  3   force =     0.11909952   -0.15823964    0.24551451
     atom   10 type  3   force =    -0.18887846    0.24389919   -0.10648581
     atom   11 type  3   force =     0.18887846   -0.24389919    0.10648581
     atom   12 type  4   force =    -0.00472522    0.01887430    0.00522832
     atom   13 type  4   force =     0.00472522   -0.01887430   -0.00522832
     atom   14 type  4   force =     0.00985285    0.00990320    0.00746816
     atom   15 type  4   force =     0.02808745   -0.01359799    0.02126979
     atom   16 type  4   force =     0.00798627    0.00555904   -0.00950849
     atom   17 type  4   force =    -0.00798627   -0.00555904    0.00950849
     atom   18 type  4   force =    -0.02808745    0.01359799   -0.02126979
     atom   19 type  4   force =     0.00000000    0.00000000    0.00000000
     atom   20 type  4   force =    -0.00985285   -0.00990320   -0.00746816
     The ionic contribution  to forces
     atom    1 type  1   force =    -8.45412765   -6.64444579   -0.00000776
     atom    2 type  1   force =     8.45412765    6.64444579    0.00000776
     atom    3 type  2   force =    -3.69824508   -0.96501565   -1.09452258
     atom    4 type  2   force =     0.00000000   -0.00000000    0.00000000
     atom    5 type  2   force =     1.81156368    3.36543726   -1.09451471
     atom    6 type  2   force =     3.69824508    0.96501565    1.09452258
     atom    7 type  2   force =    -1.81156368   -3.36543726    1.09451471
     atom    8 type  3   force =     0.84589822   -1.07628936   11.71388855
     atom    9 type  3   force =    -0.84589822    1.07628936  -11.71388855
     atom   10 type  3   force =     7.12695535   -9.06806694   -2.46286404
     atom   11 type  3   force =    -7.12695535    9.06806694    2.46286404
     atom   12 type  4   force =    -5.77585229   -1.11565651    3.75443993
     atom   13 type  4   force =     5.77585229    1.11565651   -3.75443994
     atom   14 type  4   force =     2.49939286   -5.06503536    3.96264779
     atom   15 type  4   force =     4.33092284   -3.62554265    3.96266088
     atom   16 type  4   force =    -2.44902356   -5.34858768   -3.75445349
     atom   17 type  4   force =     2.44902356    5.34858768    3.75445349
     atom   18 type  4   force =    -4.33092284    3.62554265   -3.96266088
     atom   19 type  4   force =    -0.00000000    0.00000000    0.00000000
     atom   20 type  4   force =    -2.49939286    5.06503536   -3.96264779
     The local contribution  to forces
     atom    1 type  1   force =     8.32019467    6.53695960   -0.01336545
     atom    2 type  1   force =    -8.32029749   -6.53637150    0.01322098
     atom    3 type  2   force =     3.63489481    0.90773340    1.08775041
     atom    4 type  2   force =     0.00017256   -0.00009196    0.00011659
     atom    5 type  2   force =    -1.74693346   -3.31707735    1.08362435
     atom    6 type  2   force =    -3.63511480   -0.90796537   -1.08771362
     atom    7 type  2   force =     1.74697716    3.31703321   -1.08359656
     atom    8 type  3   force =    -0.71644261    0.89954129  -11.45186124
     atom    9 type  3   force =     0.71663846   -0.89917350   11.45164076
     atom   10 type  3   force =    -6.93939325    8.81472690    2.59500910
     atom   11 type  3   force =     6.93959796   -8.81443083   -2.59510390
     atom   12 type  4   force =     5.80225461    1.11054030   -3.77507582
     atom   13 type  4   force =    -5.80242201   -1.11056498    3.77515173
     atom   14 type  4   force =    -2.50499657    5.08876861   -3.96944517
     atom   15 type  4   force =    -4.36736058    3.63590688   -3.98338597
     atom   16 type  4   force =     2.45049212    5.36657934    3.78056311
     atom   17 type  4   force =    -2.45060816   -5.36673425   -3.78067892
     atom   18 type  4   force =     4.36731918   -3.63574627    3.98328406
     atom   19 type  4   force =     0.00007233   -0.00001546    0.00003369
     atom   20 type  4   force =     2.50497287   -5.08894275    3.96952325
     The core correction contribution to forces
     atom    1 type  1   force =    -0.01684830   -0.02234755   -0.00048632
     atom    2 type  1   force =     0.01683888    0.02234981    0.00047845
     atom    3 type  2   force =    -0.00217783    0.00154303   -0.00301898
     atom    4 type  2   force =    -0.00000085   -0.00000218    0.00000097
     atom    5 type  2   force =     0.00201502    0.00546092   -0.00292269
     atom    6 type  2   force =     0.00217507   -0.00154354    0.00301478
     atom    7 type  2   force =    -0.00201591   -0.00546154    0.00292333
     atom    8 type  3   force =     0.00683947   -0.01345858    0.01644394
     atom    9 type  3   force =    -0.00683579    0.01345976   -0.01644688
     atom   10 type  3   force =     0.01040397   -0.01686259    0.01016950
     atom   11 type  3   force =    -0.01040073    0.01686175   -0.01017076
     atom   12 type  4   force =    -0.01244870    0.00051324    0.01037014
     atom   13 type  4   force =     0.01244363   -0.00051598   -0.01036439
     atom   14 type  4   force =     0.00199623   -0.01342456    0.00707472
     atom   15 type  4   force =     0.01413198   -0.00526121    0.00939531
     atom   16 type  4   force =    -0.00269086   -0.01100372   -0.01134365
     atom   17 type  4   force =     0.00269145    0.01100050    0.01134493
     atom   18 type  4   force =    -0.01413265    0.00526458   -0.00939740
     atom   19 type  4   force =    -0.00000051   -0.00000028    0.00000005
     atom   20 type  4   force =    -0.00199690    0.01341787   -0.00707182
     The Hubbard contrib.    to forces
     atom    1 type  1   force =     0.00000000    0.00000000    0.00000000
     atom    2 type  1   force =     0.00000000    0.00000000    0.00000000
     atom    3 type  2   force =     0.00000000    0.00000000    0.00000000
     atom    4 type  2   force =     0.00000000    0.00000000    0.00000000
     atom    5 type  2   force =     0.00000000    0.00000000    0.00000000
     atom    6 type  2   force =     0.00000000    0.00000000    0.00000000
     atom    7 type  2   force =     0.00000000    0.00000000    0.00000000
     atom    8 type  3   force =     0.00000000    0.00000000    0.00000000
     atom    9 type  3   force =     0.00000000    0.00000000    0.00000000
     atom   10 type  3   force =     0.00000000    0.00000000    0.00000000
     atom   11 type  3   force =     0.00000000    0.00000000    0.00000000
     atom   12 type  4   force =     0.00000000    0.00000000    0.00000000
     atom   13 type  4   force =     0.00000000    0.00000000    0.00000000
     atom   14 type  4   force =     0.00000000    0.00000000    0.00000000
     atom   15 type  4   force =     0.00000000    0.00000000    0.00000000
     atom   16 type  4   force =     0.00000000    0.00000000    0.00000000
     atom   17 type  4   force =     0.00000000    0.00000000    0.00000000
     atom   18 type  4   force =     0.00000000    0.00000000    0.00000000
     atom   19 type  4   force =     0.00000000    0.00000000    0.00000000
     atom   20 type  4   force =     0.00000000    0.00000000    0.00000000
     The SCF correction term to forces
     atom    1 type  1   force =     0.00001105   -0.00035682    0.00008481
     atom    2 type  1   force =     0.00009493   -0.00024072    0.00006527
     atom    3 type  2   force =     0.00034152   -0.00007350    0.00027067
     atom    4 type  2   force =    -0.00022651    0.00007155   -0.00012219
     atom    5 type  2   force =     0.00012442   -0.00028964    0.00023208
     atom    6 type  2   force =    -0.00011406    0.00032832   -0.00031771
     atom    7 type  2   force =    -0.00016776    0.00032942   -0.00028475
     atom    8 type  3   force =    -0.00015760   -0.00006456    0.00026545
     atom    9 type  3   force =     0.00004279   -0.00028623   -0.00010104
     atom   10 type  3   force =    -0.00003442   -0.00019831   -0.00014620
     atom   11 type  3   force =    -0.00012761   -0.00006798    0.00028747
     atom   12 type  4   force =     0.00007083    0.00007204    0.00008302
     atom   13 type  4   force =     0.00014456   -0.00004164   -0.00017931
     atom   14 type  4   force =    -0.00011847    0.00009011   -0.00005390
     atom   15 type  4   force =     0.00006381    0.00004232    0.00001818
     atom   16 type  4   force =     0.00012423    0.00002346   -0.00006069
     atom   17 type  4   force =    -0.00000065    0.00014151    0.00017874
     atom   18 type  4   force =    -0.00005109   -0.00019250    0.00005985
     atom   19 type  4   force =    -0.00007918    0.00001780   -0.00004365
     atom   20 type  4   force =     0.00014905    0.00012502   -0.00004652

     Total force =     0.176497     Total SCF correction =     0.001300

     Computing stress (Cartesian axis) and pressure

     negative rho (up, down):  2.432E-01 0.000E+00
          total   stress  (Ry/bohr**3)                   (kbar)     P=      -12.77
  -0.00012808  -0.00002049   0.00007022          -18.84       -3.01       10.33
  -0.00002049   0.00000972  -0.00020058           -3.01        1.43      -29.51
   0.00007022  -0.00020058  -0.00014201           10.33      -29.51      -20.89

     kinetic stress (kbar)   6032.16     55.29    -41.77
                               55.29   6031.63     40.75
                              -41.77     40.75   6022.20

     local   stress (kbar)  -1952.48  -1929.15     95.10
                            -1929.15  -1006.62   -127.97
                               95.10   -127.97    394.67

     nonloc. stress (kbar)   2616.31      3.48     -1.10
                                3.48   2601.83      3.93
                               -1.10      3.93   2609.29

     hartree stress (kbar)   4005.07    822.54    -75.52
                              822.54   3603.44     96.88
                              -75.52     96.88   3039.98

     exc-cor stress (kbar)  13462.64      0.77      0.15
                                0.77  13462.28     -0.12
                                0.15     -0.12  13461.55

     corecor stress (kbar) -16371.11     -1.14      0.42
                               -1.14 -16371.30     -0.92
                                0.42     -0.92 -16371.04

     ewald   stress (kbar)  -7811.44   1045.18     33.04
                             1045.18  -8319.83    -42.05
                               33.04    -42.05  -9177.54

     hubbard stress (kbar)      0.00      0.00      0.00
                                0.00      0.00      0.00
                                0.00      0.00      0.00

     DFT-D   stress (kbar)      0.00      0.00      0.00
                                0.00      0.00      0.00
                                0.00      0.00      0.00

     XDM     stress (kbar)      0.00      0.00      0.00
                                0.00      0.00      0.00
                                0.00      0.00      0.00

     dft-nl  stress (kbar)      0.00      0.00      0.00
                                0.00      0.00      0.00
                                0.00      0.00      0.00

     TS-vdW  stress (kbar)      0.00      0.00      0.00
                                0.00      0.00      0.00
                                0.00      0.00      0.00

[...]

                                0.00      0.00      0.00

     Writing all to output data dir new_calculations/myprefix.save/

     General routines

     Parallel routines

     PAW routines

   This run was terminated on:  18:21:49  21May2023

   JOB DONE.