     Program PWSCF v.7.0 starts on 21May2023 at  1:32: 3

     Reading input from espresso_18744.pwi
Warning: card &CELL ignored
Warning: card / ignored

     Current dimensions of program PWSCF are:
     Max number of different atomic species (ntypx) = 10
     Max number of k-points (npk) =  40000
     Max angular momentum in pseudopotentials (lmaxx) =  4
     file Pb.pbe-dn-kjpaw_psl.0.2.2.UPF: wavefunction(s)  6S renormalized

     gamma-point specific algorithms are used

     Subspace diagonalization in iterative solution of the eigenvalue problem:
     a serial algorithm will be used

     Using Slab Decomposition

     bravais-lattice index     =            0
     lattice parameter (alat)  =      18.4209  a.u.
     unit-cell volume          =    2409.2320 (a.u.)^3
     number of atoms/cell      =           11
     number of atomic types    =            3
     number of electrons       =       104.00
     number of Kohn-Sham states=           62
     kinetic-energy cutoff     =      30.0000  Ry
     charge density cutoff     =     240.0000  Ry
     scf convergence threshold =      1.0E-06
     mixing beta               =       0.7000
     number of iterations used =            8  plain     mixing
     Exchange-correlation=  SLA  PW   PBX  PBC
                           (   1   4   3   4   0   0   0)

     celldm(1)=  18.420940  celldm(2)=   0.000000  celldm(3)=   0.000000
     celldm(4)=   0.000000  celldm(5)=   0.000000  celldm(6)=   0.000000

     crystal axes: (cart. coord. in units of alat)
               a(1) = (   1.000000   0.000000   0.000000 )
               a(2) = (   0.354835   0.934929   0.000000 )
               a(3) = (  -0.455527  -0.789014   0.412254 )

     reciprocal axes: (cart. coord. in units 2 pi/alat)
               b(1) = (  1.000000 -0.379531  0.378580 )
               b(2) = (  0.000000  1.069600  2.047110 )
               b(3) = (  0.000000  0.000000  2.425690 )

     PseudoPot. # 1 for Pb read from file:
     /home/pragov/projects/rrg-bengioy-ad/pragov/crystal_structure_design/SSSP/Pb.pbe-dn-kjpaw_psl.0.2.2.UPF
     MD5 check sum: 9d431e6316058b74ade52399a6cf67da
     Pseudo is Projector augmented-wave + core cor, Zval = 14.0
     Generated using "atomic" code by A. Dal Corso  v.5.0.99 svn rev. 10869
     Shape of augmentation charge: PSQ
     Using radial grid of 1281 points,  6 beta functions with:
                l(1) =   0
                l(2) =   0
                l(3) =   1
                l(4) =   1
                l(5) =   2
                l(6) =   2
     Q(r) pseudized with 0 coefficients

     PseudoPot. # 2 for Se read from file:
     /home/pragov/projects/rrg-bengioy-ad/pragov/crystal_structure_design/SSSP/Se_pbe_v1.uspp.F.UPF
     MD5 check sum: 1b3568f3a8ae88f9a2a0ad0698632c85
     Pseudo is Ultrasoft + core correction, Zval =  6.0
     Generated by new atomic code, or converted to UPF format
     Using radial grid of  877 points,  6 beta functions with:
                l(1) =   0
                l(2) =   0
                l(3) =   1
                l(4) =   1
                l(5) =   2
                l(6) =   2
     Q(r) pseudized with  8 coefficients,  rinner =    1.300   1.300   1.300
                                                       1.300   1.300

     PseudoPot. # 3 for Br read from file:
     /home/pragov/projects/rrg-bengioy-ad/pragov/crystal_structure_design/SSSP/br_pbe_v1.4.uspp.F.UPF
     MD5 check sum: d3ffb7b29f6225aa16fe06858fb2a80b
     Pseudo is Ultrasoft + core correction, Zval =  7.0
     Generated by new atomic code, or converted to UPF format
     Using radial grid of  879 points,  6 beta functions with:
                l(1) =   0
                l(2) =   0
                l(3) =   1
                l(4) =   1
                l(5) =   2
                l(6) =   2
     Q(r) pseudized with  8 coefficients,  rinner =    1.100   1.100   1.100
                                                       1.100   1.100

     atomic species   valence    mass     pseudopotential
        Pb            14.00   207.20000     Pb( 1.00)
        Se             6.00    78.97100     Se( 1.00)
        Br             7.00    79.90400     Br( 1.00)

     No symmetry found

                                    s                        frac. trans.

      isym =  1     identity

 cryst.   s( 1) = (     1          0          0      )
                  (     0          1          0      )
                  (     0          0          1      )

 cart.    s( 1) = (  1.0000000  0.0000000  0.0000000 )
                  (  0.0000000  1.0000000 -0.0000000 )
                  (  0.0000000  0.0000000  1.0000000 )

   Cartesian axes

     site n.     atom                  positions (alat units)
         1           Pb  tau(   1) = (   0.2176636  -0.3154231   0.4090530  )
         2           Pb  tau(   2) = (   0.4250141   0.0813875   0.3192481  )
         3           Pb  tau(   3) = (   0.0194039  -0.0281189   0.0146919  )
         4           Pb  tau(   4) = (  -0.2269010  -0.3684779   0.3192481  )
         5           Se  tau(   5) = (   0.0657876  -0.0953349   0.2940586  )
         6           Br  tau(   6) = (   0.4231532   0.4416094   0.1912948  )
         7           Br  tau(   7) = (   0.4369770  -0.2389197   0.1912948  )
         8           Br  tau(   8) = (   1.0010763   0.3532051   0.1194942  )
         9           Br  tau(   9) = (   0.6693954   0.1243233   0.1194942  )
        10           Br  tau(  10) = (   1.1359215   0.6971082   0.0307067  )
        11           Br  tau(  11) = (   0.3000236   0.1202814   0.0307067  )

   Crystallographic axes

     site n.     atom                  positions (cryst. coord.)
         1           Pb  tau(   1) = (  0.4922360  0.5000000  0.9922360  )
         2           Pb  tau(   2) = (  0.5149860  0.7405880  0.7743970  )
         3           Pb  tau(   3) = (  0.0356380 -0.0000000  0.0356380  )
         4           Pb  tau(   4) = (  0.0338090  0.2594120  0.7743970  )
         5           Se  tau(   5) = (  0.2132950  0.5000000  0.7132950  )
         6           Br  tau(   6) = (  0.3279690  0.8639470  0.4640220  )
         7           Br  tau(   7) = (  0.6000750  0.1360530  0.4640220  )
         8           Br  tau(   8) = (  0.9122620  0.6224060  0.2898560  )
         9           Br  tau(   9) = (  0.6674490  0.3775940  0.2898560  )
        10           Br  tau(  10) = (  0.8829720  0.8084870  0.0744850  )
        11           Br  tau(  11) = (  0.2659980  0.1915130  0.0744850  )

     number of k points=     1  Methfessel-Paxton smearing, width (Ry)=  0.0010
                       cart. coord. in units 2pi/alat
        k(    1) = (   0.0000000   0.0000000   0.0000000), wk =   2.0000000

                       cryst. coord.
        k(    1) = (   0.0000000   0.0000000   0.0000000), wk =   2.0000000

     Initial potential from superposition of free atoms

     starting charge     103.9904, renormalised to     104.0000
     Starting wfcs are   64 randomized atomic wfcs
     Checking if some PAW data can be deallocated...

     Self-consistent Calculation

     iteration #  1     ecut=    30.00 Ry     beta= 0.70
     Davidson diagonalization with overlap

     ethr =  1.00E-02,  avg # of iterations =  2.0

     Threshold (ethr) on eigenvalues was too large:
     Diagonalizing with lowered threshold

     Davidson diagonalization with overlap

[...]

     total energy              =   -3806.75410743 Ry
     estimated scf accuracy    <       0.73608666 Ry

[...]

     total energy              =   -3807.07161237 Ry
     estimated scf accuracy    <       0.00000383 Ry

     iteration # 10     ecut=    30.00 Ry     beta= 0.70
     Davidson diagonalization with overlap

     ethr =  3.68E-09,  avg # of iterations =  2.0

     End of self-consistent calculation

          k = 0.0000 0.0000 0.0000 (  3329 PWs)   bands (ev):

   -11.7468 -11.7462 -11.7217 -11.7135 -11.7126 -11.7088 -11.6980 -11.6945
   -11.6857 -11.6842 -11.5185 -11.4960 -11.3867 -11.3764 -11.3549 -11.3127
   -11.2808 -11.2775 -11.2708 -11.2187  -9.2163  -8.9150  -8.7518  -8.7121
    -8.5354  -8.4475  -6.3659  -2.8426  -2.7249  -2.5475  -1.4268   1.8677
     1.8916   2.1418   2.5450   2.6903   2.7636   2.8198   2.9447   3.1926
     3.2625   3.3443   3.5936   3.5993   3.8946   3.9140   3.9515   4.0456
     4.1510   4.3059   4.5734   4.9460   7.1568   7.4657   7.8356   8.0554
     8.1547   8.3443   8.8748   8.9472   8.9940   9.0983

     occupation numbers
     1.0000   1.0000   1.0000   1.0000   1.0000   1.0000   1.0000   1.0000
     1.0000   1.0000   1.0000   1.0000   1.0000   1.0000   1.0000   1.0000
     1.0000   1.0000   1.0000   1.0000   1.0000   1.0000   1.0000   1.0000
     1.0000   1.0000   1.0000   1.0000   1.0000   1.0000   1.0000   1.0000
     1.0000   1.0000   1.0000   1.0000   1.0000   1.0000   1.0000   1.0000
     1.0000   1.0000   1.0000   1.0000   1.0000   1.0000   1.0000   1.0000
     1.0000   1.0000   1.0000   1.0000  -0.0000  -0.0000  -0.0000  -0.0000
    -0.0000  -0.0000  -0.0000  -0.0000  -0.0000  -0.0000

     the Fermi energy is     6.5947 ev

!    total energy              =   -3807.07161268 Ry
     estimated scf accuracy    <       0.00000045 Ry
     smearing contrib. (-TS)   =       0.00000000 Ry
     internal energy E=F+TS    =   -3807.07161268 Ry

     The total energy is F=E-TS. E is the sum of the following terms:
     one-electron contribution =    -208.82017220 Ry
     hartree contribution      =     168.44107645 Ry
     xc contribution           =    -364.17215341 Ry
     ewald contribution        =    -488.61614804 Ry
     one-center paw contrib.   =   -2913.90421547 Ry
      -> PAW hartree energy AE =     384.22468440 Ry
      -> PAW hartree energy PS =    -383.38081159 Ry
      -> PAW xc energy AE      =   -3089.21632960 Ry
      -> PAW xc energy PS      =     174.46824132 Ry
      -> total E_H with PAW    =     169.28494926 Ry
      -> total E_XC with PAW   =   -3278.92024170 Ry

     convergence has been achieved in  10 iterations

     Forces acting on atoms (cartesian axes, Ry/au):

     atom    1 type  1   force =     0.00356668   -0.00518608    0.00271694
     atom    2 type  1   force =     0.00158804    0.00663487   -0.00195429
     atom    3 type  1   force =    -0.00821206    0.01187067   -0.00621729
     atom    4 type  1   force =    -0.00674723    0.00087953   -0.00195257
     atom    5 type  2   force =     0.00539452   -0.00781065    0.00408034
     atom    6 type  3   force =    -0.00003260   -0.00239302    0.00083941
     atom    7 type  3   force =     0.00224252   -0.00082057    0.00083344
     atom    8 type  3   force =     0.00476450    0.00085542    0.00085933
     atom    9 type  3   force =    -0.00248623   -0.00414441    0.00085731
     atom   10 type  3   force =     0.00254548    0.00184275   -0.00003191
     atom   11 type  3   force =    -0.00262361   -0.00172851   -0.00003068
     The non-local contrib.  to forces
     atom    1 type  1   force =    -0.11333229    0.16422184   -0.08579778
     atom    2 type  1   force =     0.04163503    0.02534082    0.00121728
     atom    3 type  1   force =     0.11591579   -0.16799575    0.08777857
     atom    4 type  1   force =    -0.03843191   -0.02994890    0.00122057
     atom    5 type  2   force =     0.07188808   -0.10415600    0.05441436
     atom    6 type  3   force =     0.02377592    0.00214339    0.00505394
     atom    7 type  3   force =    -0.01045184   -0.02146476    0.00504179
     atom    8 type  3   force =     0.02295632    0.00760274    0.00291516
     atom    9 type  3   force =    -0.01526511   -0.01875824    0.00291218
     atom   10 type  3   force =     0.00764847   -0.01280645    0.00640437
     atom   11 type  3   force =     0.00925885   -0.01169097    0.00639534
     The ionic contribution  to forces
     atom    1 type  1   force =     2.94191070   -4.26318270    2.22748665
     atom    2 type  1   force =     0.75430990    0.68834448   -0.05937829
     atom    3 type  1   force =    -3.04333856    4.41024920   -2.30431287
     atom    4 type  1   force =    -0.91125369   -0.46108401   -0.05937245
     atom    5 type  2   force =    -0.06208527    0.09000039   -0.04701904
     atom    6 type  3   force =     0.40169419   -1.38976566    0.59001522
     atom    7 type  3   force =     1.15678214   -0.86870552    0.59001103
     atom    8 type  3   force =    -3.22133569   -2.38995937    0.05911480
     atom    9 type  3   force =     3.37754240    2.16370997    0.05910421
     atom   10 type  3   force =    -0.50312102    1.14405694   -0.52781750
     atom   11 type  3   force =    -0.89110510    0.87633626   -0.52783176
     The local contribution  to forces
     atom    1 type  1   force =    -2.82835298    4.09857602   -2.14149877
     atom    2 type  1   force =    -0.79313505   -0.70550055    0.05597544
     atom    3 type  1   force =     2.92455727   -4.23803641    2.21436419
     atom    4 type  1   force =     0.94112153    0.49113547    0.05602756
     atom    5 type  2   force =     0.00461115   -0.00670913    0.00352021
     atom    6 type  3   force =    -0.43083394    1.38910172   -0.59689099
     atom    7 type  3   force =    -1.14585943    0.89570663   -0.59690585
     atom    8 type  3   force =     3.20201205    2.38485175   -0.06202424
     atom    9 type  3   force =    -3.36591961   -2.14740601   -0.06203415
     atom   10 type  3   force =     0.49867040   -1.12760751    0.52091069
     atom   11 type  3   force =     0.87730460   -0.86631738    0.52091547
     The core correction contribution to forces
     atom    1 type  1   force =     0.00279897   -0.00405532    0.00211791
     atom    2 type  1   force =    -0.00205746   -0.00181447    0.00013904
     atom    3 type  1   force =    -0.00431098    0.00624590   -0.00326324
     atom    4 type  1   force =     0.00242657    0.00127896    0.00014026
     atom    5 type  2   force =    -0.00922576    0.01336764   -0.00698332
     atom    6 type  3   force =     0.00482785   -0.00368681    0.00248486
     atom    7 type  3   force =     0.00173248   -0.00582103    0.00248317
     atom    8 type  3   force =     0.00156288   -0.00181193    0.00102279
     atom    9 type  3   force =     0.00113750   -0.00210394    0.00102249
     atom   10 type  3   force =    -0.00018176   -0.00168396    0.00055214
     atom   11 type  3   force =     0.00163864   -0.00042711    0.00055066
     The Hubbard contrib.    to forces
     atom    1 type  1   force =     0.00000000    0.00000000    0.00000000
     atom    2 type  1   force =     0.00000000    0.00000000    0.00000000
     atom    3 type  1   force =     0.00000000    0.00000000    0.00000000
     atom    4 type  1   force =     0.00000000    0.00000000    0.00000000
     atom    5 type  2   force =     0.00000000    0.00000000    0.00000000
     atom    6 type  3   force =     0.00000000    0.00000000    0.00000000
     atom    7 type  3   force =     0.00000000    0.00000000    0.00000000
     atom    8 type  3   force =     0.00000000    0.00000000    0.00000000
     atom    9 type  3   force =     0.00000000    0.00000000    0.00000000
     atom   10 type  3   force =     0.00000000    0.00000000    0.00000000
     atom   11 type  3   force =     0.00000000    0.00000000    0.00000000
     The SCF correction term to forces
     atom    1 type  1   force =     0.00053343   -0.00073047    0.00040410
     atom    2 type  1   force =     0.00082677    0.00028005    0.00008741
     atom    3 type  1   force =    -0.00104443    0.00142318   -0.00078877
     atom    4 type  1   force =    -0.00061858   -0.00048653    0.00002667
     atom    5 type  2   force =     0.00019748   -0.00029809    0.00014330
     atom    6 type  3   force =     0.00049453   -0.00017020    0.00017156
     atom    7 type  3   force =     0.00003033   -0.00052043    0.00019849
     atom    8 type  3   force =    -0.00043991    0.00018770   -0.00017401
     atom    9 type  3   force =     0.00000974    0.00042928   -0.00015223
     atom   10 type  3   force =    -0.00047946   -0.00010081   -0.00008643
     atom   11 type  3   force =     0.00027055    0.00038614   -0.00006522

     Total force =     0.024126     Total SCF correction =     0.002795
     SCF correction compared to forces is large: reduce conv_thr to get better values

     Computing stress (Cartesian axis) and pressure

          total   stress  (Ry/bohr**3)                   (kbar)     P=       42.92
   0.00001766  -0.00005625  -0.00020919            2.60       -8.27      -30.77
  -0.00005625   0.00006030   0.00030315           -8.27        8.87       44.60
  -0.00020919   0.00030315   0.00079724          -30.77       44.60      117.28

     kinetic stress (kbar)   7554.20    -11.05    -29.94
                              -11.05   7562.58     43.39
                              -29.94     43.39   7670.13

     local   stress (kbar)   3185.51   -294.91    634.42
                             -294.91   3409.35   -919.35
                              634.42   -919.35   1495.78

     nonloc. stress (kbar)   -696.57     -4.06      5.05
                               -4.06   -693.49     -7.31
                                5.05     -7.31   -707.52

     hartree stress (kbar)   3241.21    131.47   -255.16
                              131.47   3141.43    369.76
                             -255.16    369.76   3902.19

     exc-cor stress (kbar)  13029.29     -0.12     -0.09
                               -0.12  13029.38      0.12
                               -0.09      0.12  13029.75

     corecor stress (kbar) -16061.52      0.74      1.17
                                0.74 -16062.08     -1.69
                                1.17     -1.69 -16066.49

     ewald   stress (kbar) -10249.52    169.65   -386.22
                              169.65 -10378.30    559.67
                             -386.22    559.67  -9206.55

     hubbard stress (kbar)      0.00      0.00      0.00
                                0.00      0.00      0.00
                                0.00      0.00      0.00

     DFT-D   stress (kbar)      0.00      0.00      0.00
                                0.00      0.00      0.00
                                0.00      0.00      0.00

     XDM     stress (kbar)      0.00      0.00      0.00
                                0.00      0.00      0.00
                                0.00      0.00      0.00

     dft-nl  stress (kbar)      0.00      0.00      0.00
                                0.00      0.00      0.00
                                0.00      0.00      0.00

     TS-vdW  stress (kbar)      0.00      0.00      0.00
                                0.00      0.00      0.00
                                0.00      0.00      0.00

[...]

                                0.00      0.00      0.00

     Writing all to output data dir new_calculations/myprefix.save/

     General routines

     Parallel routines

     PAW routines

   This run was terminated on:   1:32:49  21May2023

   JOB DONE.