     Program PWSCF v.7.0 starts on 21May2023 at  3:20:53

     Reading input from espresso_15459.pwi
Warning: card &CELL ignored
Warning: card / ignored

     Current dimensions of program PWSCF are:
     Max number of different atomic species (ntypx) = 10
     Max number of k-points (npk) =  40000
     Max angular momentum in pseudopotentials (lmaxx) =  4

     gamma-point specific algorithms are used
     Message from routine setup:
     using ibrav=0 with symmetry is DISCOURAGED, use correct ibrav instead

     Subspace diagonalization in iterative solution of the eigenvalue problem:
     a serial algorithm will be used

     Using Slab Decomposition

     bravais-lattice index     =            0
     lattice parameter (alat)  =       7.7641  a.u.
     unit-cell volume          =     452.6492 (a.u.)^3
     number of atoms/cell      =            3
     number of atomic types    =            3
     number of electrons       =        49.00
     number of Kohn-Sham states=           30
     kinetic-energy cutoff     =      30.0000  Ry
     charge density cutoff     =     240.0000  Ry
     scf convergence threshold =      1.0E-06
     mixing beta               =       0.7000
     number of iterations used =            8  plain     mixing
     Exchange-correlation=  SLA  PW   PBX  PBC
                           (   1   4   3   4   0   0   0)

     celldm(1)=   7.764051  celldm(2)=   0.000000  celldm(3)=   0.000000
     celldm(4)=   0.000000  celldm(5)=   0.000000  celldm(6)=   0.000000

     crystal axes: (cart. coord. in units of alat)
               a(1) = (   1.000000   0.000000   0.000000 )
               a(2) = (   0.000000   1.056524   0.000000 )
               a(3) = (   0.000000  -0.528353   0.915414 )

     reciprocal axes: (cart. coord. in units 2 pi/alat)
               b(1) = (  1.000000  0.000000  0.000000 )
               b(2) = (  0.000000  0.946500  0.546296 )
               b(3) = (  0.000000  0.000000  1.092402 )

     PseudoPot. # 1 for Sm read from file:
     /home/pragov/projects/rrg-bengioy-ad/pragov/crystal_structure_design/SSSP/Sm.GGA-PBE-paw-v1.0.UPF
     MD5 check sum: 886f70968969f895acf876f5617e0641
     Pseudo is Projector augmented-wave + core cor, Zval = 16.0
     Generated using ATOMPAW code
     Shape of augmentation charge: BESSEL
     Using radial grid of 1107 points,  8 beta functions with:
                l(1) =   0
                l(2) =   0
                l(3) =   1
                l(4) =   1
                l(5) =   2
                l(6) =   2
                l(7) =   3
                l(8) =   3
     Q(r) pseudized with 0 coefficients

     PseudoPot. # 2 for Ni read from file:
     /home/pragov/projects/rrg-bengioy-ad/pragov/crystal_structure_design/SSSP/ni_pbe_v1.4.uspp.F.UPF
     MD5 check sum: 1ee80287db30b12d2bc1f57a5b5d6409
     Pseudo is Ultrasoft + core correction, Zval = 18.0
     Generated by new atomic code, or converted to UPF format
     Using radial grid of  865 points,  6 beta functions with:
                l(1) =   0
                l(2) =   0
                l(3) =   1
                l(4) =   1
                l(5) =   2
                l(6) =   2
     Q(r) pseudized with 10 coefficients,  rinner =    0.980   0.980   0.980
                                                       0.980   0.980

     PseudoPot. # 3 for Sb read from file:
     /home/pragov/projects/rrg-bengioy-ad/pragov/crystal_structure_design/SSSP/sb_pbe_v1.4.uspp.F.UPF
     MD5 check sum: 9bc50dfb53373b713f5709b9110fe27f
     Pseudo is Ultrasoft + core correction, Zval = 15.0
     Generated by new atomic code, or converted to UPF format
     Using radial grid of  891 points,  6 beta functions with:
                l(1) =   0
                l(2) =   0
                l(3) =   1
                l(4) =   1
                l(5) =   2
                l(6) =   2
     Q(r) pseudized with  8 coefficients,  rinner =    1.350   1.350   1.350
                                                       1.350   1.350

     atomic species   valence    mass     pseudopotential
        Sm            16.00   150.36000     Sm( 1.00)
        Ni            18.00    58.69340     Ni( 1.00)
        Sb            15.00   121.76000     Sb( 1.00)

      2 Sym. Ops. (no inversion) found

                                    s                        frac. trans.

      isym =  1     identity

 cryst.   s( 1) = (     1          0          0      )
                  (     0          1          0      )
                  (     0          0          1      )

 cart.    s( 1) = (  1.0000000  0.0000000  0.0000000 )
                  (  0.0000000  1.0000000 -0.0000000 )
                  (  0.0000000  0.0000000  1.0000000 )

      isym =  2     inv. 180 deg rotation - cart. axis [1,0,0]

 cryst.   s( 2) = (    -1          0          0      )
                  (     0          1          0      )
                  (     0          0          1      )

 cart.    s( 2) = ( -1.0000000  0.0000000  0.0000000 )
                  (  0.0000000  1.0000000 -0.0000000 )
                  (  0.0000000  0.0000000  1.0000000 )

   Cartesian axes

     site n.     atom                  positions (alat units)
         1           Sm  tau(   1) = (   0.0000000   0.0000333   0.0000705  )
         2           Ni  tau(   2) = (   0.5000000  -0.0000931   0.6103255  )
         3           Sb  tau(   3) = (   0.5000000   0.5281246   0.3050177  )

   Crystallographic axes

     site n.     atom                  positions (cryst. coord.)
         1           Sm  tau(   1) = (  0.0000000  0.0000700  0.0000770  )
         2           Ni  tau(   2) = (  0.5000000  0.3333300  0.6667210  )
         3           Sb  tau(   3) = (  0.5000000  0.6665000  0.3332020  )

     number of k points=     1  Methfessel-Paxton smearing, width (Ry)=  0.0010
                       cart. coord. in units 2pi/alat
        k(    1) = (   0.0000000   0.0000000   0.0000000), wk =   2.0000000

                       cryst. coord.
        k(    1) = (   0.0000000   0.0000000   0.0000000), wk =   2.0000000

     Check: negative core charge=   -0.000006

     Initial potential from superposition of free atoms

     starting charge      45.9944, renormalised to      49.0000
     Starting wfcs are   54 randomized atomic wfcs
     Checking if some PAW data can be deallocated...

     Self-consistent Calculation

     iteration #  1     ecut=    30.00 Ry     beta= 0.70
     Davidson diagonalization with overlap

     ethr =  1.00E-02,  avg # of iterations =  4.0

     total energy              =   -1096.77744939 Ry
     estimated scf accuracy    <      46.46114025 Ry

[...]

     total energy              =   -1131.67894589 Ry
     estimated scf accuracy    <       0.00000252 Ry

     iteration # 76     ecut=    30.00 Ry     beta= 0.70
     Davidson diagonalization with overlap

     ethr =  2.10E-09,  avg # of iterations =  1.0

     End of self-consistent calculation

          k = 0.0000 0.0000 0.0000 (   616 PWs)   bands (ev):

   -90.3204 -50.6792 -50.6622 -50.6203 -25.8622 -15.5035 -15.5026 -15.4675
   -15.4383 -15.4355  -5.6890  -5.4049  -5.3609   2.5855   9.9279   9.9324
    10.9699  11.4134  11.4325  12.6802  13.1301  13.1852  13.1962  13.4451
    13.4479  13.4527  13.6250  13.7863  13.9779  14.0412

     occupation numbers
     1.0000   1.0000   1.0000   1.0000   1.0000   1.0000   1.0000   1.0000
     1.0000   1.0000   1.0000   1.0000   1.0000   1.0000   1.0000   1.0000
     1.0000   1.0000   1.0000   1.0000   1.0000   1.0000   1.0000   0.7068
     0.5390   0.2542  -0.0000  -0.0000  -0.0000  -0.0000

     the Fermi energy is    13.4486 ev

!    total energy              =   -1131.67894507 Ry
     estimated scf accuracy    <       0.00000071 Ry
     smearing contrib. (-TS)   =      -0.00071984 Ry
     internal energy E=F+TS    =   -1131.67822523 Ry

     The total energy is F=E-TS. E is the sum of the following terms:
     one-electron contribution =    -389.45297325 Ry
     hartree contribution      =     228.40094884 Ry
     xc contribution           =     -97.73070070 Ry
     ewald contribution        =    -423.21310686 Ry
     one-center paw contrib.   =    -449.68239326 Ry
      -> PAW hartree energy AE =     129.32355978 Ry
      -> PAW hartree energy PS =    -126.42440296 Ry
      -> PAW xc energy AE      =    -469.55527071 Ry
      -> PAW xc energy PS      =      16.97372063 Ry
      -> total E_H with PAW    =     231.30010566 Ry
      -> total E_XC with PAW   =    -550.31225078 Ry

     convergence has been achieved in  76 iterations

     Forces acting on atoms (cartesian axes, Ry/au):

     atom    1 type  1   force =     0.00000000   -0.00239634    0.00114328
     atom    2 type  2   force =     0.00000000    0.00303581    0.00653026
     atom    3 type  3   force =     0.00000000   -0.00063947   -0.00767354
     The non-local contrib.  to forces
     atom    1 type  1   force =     0.00000000   -0.00789159    0.01659103
     atom    2 type  2   force =     0.00000000   -0.01689056   -0.02975119
     atom    3 type  3   force =     0.00000000   -0.01238184   -0.02691691
     The ionic contribution  to forces
     atom    1 type  1   force =     0.00000000   -0.00563293   -0.00415688
     atom    2 type  2   force =     0.00000000   -0.00191132   -0.00219554
     atom    3 type  3   force =     0.00000000    0.00754426    0.00635242
     The local contribution  to forces
     atom    1 type  1   force =    -0.00030781    0.01089619   -0.01133879
     atom    2 type  2   force =    -0.00028500    0.02174017    0.03843573
     atom    3 type  3   force =     0.00004496    0.00399489    0.01233615
     The core correction contribution to forces
     atom    1 type  1   force =    -0.00000005   -0.00000043   -0.00000196
     atom    2 type  2   force =    -0.00000284    0.00027777    0.00023246
     atom    3 type  3   force =    -0.00000632    0.00005276    0.00032712
     The Hubbard contrib.    to forces
     atom    1 type  1   force =     0.00000000    0.00000000    0.00000000
     atom    2 type  2   force =     0.00000000    0.00000000    0.00000000
     atom    3 type  3   force =     0.00000000    0.00000000    0.00000000
     The SCF correction term to forces
     atom    1 type  1   force =    -0.00049274    0.00036311    0.00007814
     atom    2 type  2   force =     0.00010811   -0.00004956   -0.00016293
     atom    3 type  3   force =     0.00023628    0.00028115    0.00025594

     Total force =     0.010872     Total SCF correction =     0.000789

     Computing stress (Cartesian axis) and pressure

          total   stress  (Ry/bohr**3)                   (kbar)     P=     -503.43
  -0.00480570   0.00000000   0.00000000         -706.94        0.00        0.00
   0.00000000  -0.00273558  -0.00000137            0.00     -402.42       -0.20
   0.00000000  -0.00000137  -0.00272542            0.00       -0.20     -400.92

     kinetic stress (kbar)  22140.72      0.00      0.00
                                0.00  22495.81     -0.31
                                0.00     -0.31  22478.64

     local   stress (kbar)  20918.32      0.76     -1.09
                                0.76 -14092.69     26.20
                               -1.09     26.20 -14113.84

     nonloc. stress (kbar)   8931.30      0.00      0.00
                                0.00   8869.58    -14.26
                                0.00    -14.26   8895.98

     hartree stress (kbar)  15156.85     -0.26      0.35
                               -0.26  29532.94     -7.51
                                0.35     -7.51  29537.54

     exc-cor stress (kbar)   -195.20     -0.00      0.00
                               -0.00   -182.21      0.04
                                0.00      0.04   -182.69

     corecor stress (kbar)  -8051.85      0.00     -0.00
                                0.00  -8055.20      0.09
                               -0.00      0.09  -8055.54

     ewald   stress (kbar) -59607.08     -0.00     -0.00
                               -0.00 -38970.65     -4.46
                               -0.00     -4.46 -38961.01

     hubbard stress (kbar)      0.00      0.00      0.00
                                0.00      0.00      0.00
                                0.00      0.00      0.00

     DFT-D   stress (kbar)      0.00      0.00      0.00
                                0.00      0.00      0.00
                                0.00      0.00      0.00

     XDM     stress (kbar)      0.00      0.00      0.00
                                0.00      0.00      0.00
                                0.00      0.00      0.00

     dft-nl  stress (kbar)      0.00      0.00      0.00
                                0.00      0.00      0.00
                                0.00      0.00      0.00

     TS-vdW  stress (kbar)      0.00      0.00      0.00
                                0.00      0.00      0.00
                                0.00      0.00      0.00

[...]

                                0.00      0.00      0.00

     Writing all to output data dir new_calculations/myprefix.save/

     General routines

     Parallel routines

     PAW routines

   This run was terminated on:   3:21:45  21May2023

   JOB DONE.