     Program PWSCF v.7.0 starts on 21May2023 at  5:58:22

     Reading input from espresso_20455.pwi
Warning: card &CELL ignored
Warning: card / ignored

     Current dimensions of program PWSCF are:
     Max number of different atomic species (ntypx) = 10
     Max number of k-points (npk) =  40000
     Max angular momentum in pseudopotentials (lmaxx) =  4
     file In.pbe-dn-rrkjus_psl.0.2.2.UPF: wavefunction(s)  5S renormalized

     gamma-point specific algorithms are used
     Message from routine setup:
     using ibrav=0 with symmetry is DISCOURAGED, use correct ibrav instead

     Subspace diagonalization in iterative solution of the eigenvalue problem:
     a serial algorithm will be used

     Using Slab Decomposition

     bravais-lattice index     =            0
     lattice parameter (alat)  =       6.9710  a.u.
     unit-cell volume          =    1014.6184 (a.u.)^3
     number of atoms/cell      =            6
     number of atomic types    =            3
     number of electrons       =        82.00
     number of Kohn-Sham states=           49
     kinetic-energy cutoff     =      30.0000  Ry
     charge density cutoff     =     240.0000  Ry
     scf convergence threshold =      1.0E-06
     mixing beta               =       0.7000
     number of iterations used =            8  plain     mixing
     Exchange-correlation= SLA  PW   PBE  PBE
                           (   1   4   3   4   0   0   0)

     celldm(1)=   6.970979  celldm(2)=   0.000000  celldm(3)=   0.000000
     celldm(4)=   0.000000  celldm(5)=   0.000000  celldm(6)=   0.000000

     crystal axes: (cart. coord. in units of alat)
               a(1) = (   1.000000   0.000000   0.000000 )
               a(2) = (   0.000000   1.313232   0.000000 )
               a(3) = (   0.000000  -0.001435   2.280762 )

     reciprocal axes: (cart. coord. in units 2 pi/alat)
               b(1) = (  1.000000  0.000000  0.000000 )
               b(2) = (  0.000000  0.761480  0.000479 )
               b(3) = (  0.000000  0.000000  0.438450 )

     PseudoPot. # 1 for Ce read from file:
     /home/pragov/projects/rrg-bengioy-ad/pragov/crystal_structure_design/SSSP/Ce.GGA-PBE-paw-v1.0.UPF
     MD5 check sum: f2b950f613061344c13339c8d844425d
     Pseudo is Projector augmented-wave + core cor, Zval = 12.0
     Generated using ATOMPAW code
     Shape of augmentation charge: BESSEL
     Using radial grid of 1102 points,  8 beta functions with:
                l(1) =   0
                l(2) =   0
                l(3) =   1
                l(4) =   1
                l(5) =   2
                l(6) =   2
                l(7) =   3
                l(8) =   3
     Q(r) pseudized with 0 coefficients

     PseudoPot. # 2 for In read from file:
     /home/pragov/projects/rrg-bengioy-ad/pragov/crystal_structure_design/SSSP/In.pbe-dn-rrkjus_psl.0.2.2.UPF
     MD5 check sum: 25e7c42c3b55b68f4bf926be2e7201a4
     Pseudo is Ultrasoft + core correction, Zval = 13.0
     Generated using "atomic" code by A. Dal Corso  v.5.0.99 svn rev. 10869
     Using radial grid of 1241 points,  6 beta functions with:
                l(1) =   0
                l(2) =   0
                l(3) =   1
                l(4) =   1
                l(5) =   2
                l(6) =   2
     Q(r) pseudized with 0 coefficients

     PseudoPot. # 3 for Cu read from file:
     /home/pragov/projects/rrg-bengioy-ad/pragov/crystal_structure_design/SSSP/Cu_pbe_v1.2.uspp.F.UPF
     MD5 check sum: 6e991ff952a84172a2a52a1c1e996048
     Pseudo is Ultrasoft + core correction, Zval = 19.0
     Generated by new atomic code, or converted to UPF format
     Using radial grid of  867 points,  6 beta functions with:
                l(1) =   0
                l(2) =   0
                l(3) =   1
                l(4) =   1
                l(5) =   2
                l(6) =   2
     Q(r) pseudized with  8 coefficients,  rinner =    1.150   1.150   1.150
                                                       1.150   1.150

     atomic species   valence    mass     pseudopotential
        Ce            12.00   140.11600     Ce( 1.00)
        In            13.00   114.81800     In( 1.00)
        Cu            19.00    63.54600     Cu( 1.00)

      2 Sym. Ops. (no inversion) found

                                    s                        frac. trans.

      isym =  1     identity

 cryst.   s( 1) = (     1          0          0      )
                  (     0          1          0      )
                  (     0          0          1      )

 cart.    s( 1) = (  1.0000000  0.0000000  0.0000000 )
                  (  0.0000000  1.0000000 -0.0000000 )
                  (  0.0000000  0.0000000  1.0000000 )

      isym =  2     inv. 180 deg rotation - cart. axis [1,0,0]

 cryst.   s( 2) = (    -1          0          0      )
                  (     0          1          0      )
                  (     0          0          1      )

 cart.    s( 2) = ( -1.0000000  0.0000000  0.0000000 )
                  (  0.0000000  1.0000000 -0.0000000 )
                  (  0.0000000  0.0000000  1.0000000 )

   Cartesian axes

     site n.     atom                  positions (alat units)
         1           Ce  tau(   1) = (   0.0000000   0.0000033   0.0302589  )
         2           Ce  tau(   2) = (   0.0000000   0.6561265   1.1229330  )
         3           In  tau(   3) = (   0.5000000   0.6553092   1.9067212  )
         4           In  tau(   4) = (   0.5000000   0.6558859   0.4115041  )
         5           In  tau(   5) = (   0.5000000  -0.0006963   1.4806362  )
         6           Cu  tau(   6) = (   0.5000000   1.3126045   0.7498505  )

   Crystallographic axes

     site n.     atom                  positions (cryst. coord.)
         1           Ce  tau(   1) = (  0.0000000  0.0000170  0.0132670  )
         2           Ce  tau(   2) = (  0.0000000  0.5001650  0.4923500  )
         3           In  tau(   3) = (  0.5000000  0.4999180  0.8360020  )
         4           In  tau(   4) = (  0.5000000  0.4996410  0.1804240  )
         5           In  tau(   5) = (  0.5000000  0.0001790  0.6491850  )
         6           Cu  tau(   6) = (  0.5000000  0.9998810  0.3287720  )

     number of k points=     1  Methfessel-Paxton smearing, width (Ry)=  0.0010
                       cart. coord. in units 2pi/alat
        k(    1) = (   0.0000000   0.0000000   0.0000000), wk =   2.0000000

                       cryst. coord.
        k(    1) = (   0.0000000   0.0000000   0.0000000), wk =   2.0000000

     Initial potential from superposition of free atoms

     starting charge      80.9749, renormalised to      82.0000
     Starting wfcs are  104 randomized atomic wfcs
     Checking if some PAW data can be deallocated...

     Self-consistent Calculation

     iteration #  1     ecut=    30.00 Ry     beta= 0.70
     Davidson diagonalization with overlap

     ethr =  1.00E-02,  avg # of iterations =  2.0

     total energy              =   -1797.96027009 Ry
     estimated scf accuracy    <       5.87427286 Ry

[...]

     total energy              =   -1802.35599643 Ry
     estimated scf accuracy    <       0.00000162 Ry

     iteration # 89     ecut=    30.00 Ry     beta= 0.70
     Davidson diagonalization with overlap

     ethr =  1.28E-09,  avg # of iterations =  2.0

     End of self-consistent calculation

          k = 0.0000 0.0000 0.0000 (  1383 PWs)   bands (ev):

  -100.4334 -57.8534 -57.7965 -57.7391 -22.4393 -22.3803  -5.4358  -5.2995
    -5.1961  -5.1838  -4.8712  -4.7344  -3.0701  -2.9206  -2.9142  -2.8585
    -2.8368  -2.7710  -2.7038  -2.6503  -2.6263  -2.5964  -2.5435  -2.5420
    -2.5278  -2.4403  -2.3345   3.6492   5.7353   6.7511   9.1687   9.2652
     9.2833   9.5359   9.5940  10.4691  10.7015  11.3815  11.3988  11.7907
    12.2949  12.3109  12.3117  12.3247  12.3821  12.4496  12.4776  12.5007
    12.5305

     occupation numbers
     1.0000   1.0000   1.0000   1.0000   1.0000   1.0000   1.0000   1.0000
     1.0000   1.0000   1.0000   1.0000   1.0000   1.0000   1.0000   1.0000
     1.0000   1.0000   1.0000   1.0000   1.0000   1.0000   1.0000   1.0000
     1.0000   1.0000   1.0000   1.0000   1.0000   1.0000   1.0000   1.0000
     1.0000   1.0000   1.0000   1.0000   1.0000   1.0000   1.0000   1.0000
     0.9016   0.0719   0.0483  -0.0218  -0.0000  -0.0000  -0.0000  -0.0000
    -0.0000

     the Fermi energy is    12.3025 ev

!    total energy              =   -1802.35599635 Ry
     estimated scf accuracy    <       0.00000013 Ry
     smearing contrib. (-TS)   =      -0.00005074 Ry
     internal energy E=F+TS    =   -1802.35594561 Ry

     The total energy is F=E-TS. E is the sum of the following terms:
     one-electron contribution =    -535.32129102 Ry
     hartree contribution      =     329.38914748 Ry
     xc contribution           =    -202.39365312 Ry
     ewald contribution        =    -577.42876567 Ry
     one-center paw contrib.   =    -816.60138328 Ry
      -> PAW hartree energy AE =      87.84674500 Ry
      -> PAW hartree energy PS =     -87.30335425 Ry
      -> PAW xc energy AE      =    -834.27007293 Ry
      -> PAW xc energy PS      =      17.12529889 Ry
      -> total E_H with PAW    =     329.93253824 Ry
      -> total E_XC with PAW   =   -1019.53842716 Ry

     convergence has been achieved in  89 iterations

     Forces acting on atoms (cartesian axes, Ry/au):

     atom    1 type  1   force =     0.00000000   -0.00036210   -0.00274737
     atom    2 type  1   force =     0.00000000   -0.00015897    0.01312907
     atom    3 type  2   force =     0.00000000    0.00044270   -0.02434720
     atom    4 type  2   force =     0.00000000    0.00042909    0.01842751
     atom    5 type  2   force =     0.00000000   -0.00036640    0.00489578
     atom    6 type  3   force =     0.00000000    0.00001568   -0.00935779
     The non-local contrib.  to forces
     atom    1 type  1   force =     0.00000000   -0.00167473    0.33528083
     atom    2 type  1   force =     0.00000000    0.00040319   -0.30094308
     atom    3 type  2   force =     0.00000000   -0.00072742    0.11006273
     atom    4 type  2   force =     0.00000000    0.00078305   -0.10232882
     atom    5 type  2   force =     0.00000000    0.00071000   -0.05094011
     atom    6 type  3   force =     0.00000000    0.00052098    0.05419891
     The ionic contribution  to forces
     atom    1 type  1   force =     0.00000000   -0.01248210   -9.80987936
     atom    2 type  1   force =    -0.00000000   -0.00427182    8.47642727
     atom    3 type  2   force =    -0.00000000    0.02294537   -0.20565682
     atom    4 type  2   force =     0.00000000    0.01995441  -10.20262441
     atom    5 type  2   force =    -0.00000000   -0.01693994   11.84463464
     atom    6 type  3   force =     0.00000000   -0.00920592   -0.10290131
     The local contribution  to forces
     atom    1 type  1   force =     0.00011777    0.01339087    9.47277816
     atom    2 type  1   force =     0.00029048    0.00349936   -8.16210638
     atom    3 type  2   force =     0.00000515   -0.02152351    0.07886610
     atom    4 type  2   force =    -0.00000142   -0.02022879   10.31981442
     atom    5 type  2   force =    -0.00003885    0.01576916  -11.79772070
     atom    6 type  3   force =    -0.00011476    0.00871305    0.03890834
     The core correction contribution to forces
     atom    1 type  1   force =     0.00000009    0.00000146   -0.00035037
     atom    2 type  1   force =     0.00000021   -0.00000093    0.00029022
     atom    3 type  2   force =     0.00000040   -0.00009056   -0.00745052
     atom    4 type  2   force =    -0.00000030   -0.00003609    0.00326744
     atom    5 type  2   force =    -0.00000109    0.00008228    0.00908777
     atom    6 type  3   force =    -0.00000006   -0.00000024   -0.00003883
     The Hubbard contrib.    to forces
     atom    1 type  1   force =     0.00000000    0.00000000    0.00000000
     atom    2 type  1   force =     0.00000000    0.00000000    0.00000000
     atom    3 type  2   force =     0.00000000    0.00000000    0.00000000
     atom    4 type  2   force =     0.00000000    0.00000000    0.00000000
     atom    5 type  2   force =     0.00000000    0.00000000    0.00000000
     atom    6 type  3   force =     0.00000000    0.00000000    0.00000000
     The SCF correction term to forces
     atom    1 type  1   force =    -0.00001733    0.00036447   -0.00048468
     atom    2 type  1   force =    -0.00010288    0.00017331   -0.00044701
     atom    3 type  2   force =    -0.00000671   -0.00019910   -0.00007674
     atom    4 type  2   force =     0.00000761   -0.00008140    0.00039081
     atom    5 type  2   force =     0.00002325   -0.00002583   -0.00007387
     atom    6 type  3   force =     0.00008195   -0.00005011    0.00056704

     Total force =     0.034993     Total SCF correction =     0.001073

     Computing stress (Cartesian axis) and pressure

          total   stress  (Ry/bohr**3)                   (kbar)     P=     -100.20
  -0.00296910   0.00000000   0.00000000         -436.77        0.00        0.00
   0.00000000   0.00092330   0.00000503            0.00      135.82        0.74
   0.00000000   0.00000503   0.00000232            0.00        0.74        0.34

     kinetic stress (kbar)  16248.07      0.00      0.00
                                0.00  16589.83      0.43
                                0.00      0.43  16374.67

     local   stress (kbar)    462.27     -0.02     -0.02
                               -0.02 -15112.51     -4.49
                               -0.02     -4.49  -7786.36

     nonloc. stress (kbar)   8660.21      0.00      0.00
                                0.00   9237.47      0.37
                                0.00      0.37   9078.02

     hartree stress (kbar)  13029.82      0.00      0.00
                                0.00  19165.96      0.82
                                0.00      0.82  15560.91

     exc-cor stress (kbar)   6770.10     -0.00      0.00
                               -0.00   6777.13      0.02
                                0.00      0.02   6775.42

     corecor stress (kbar) -12797.40     -0.00      0.00
                               -0.00 -12809.38     -0.00
                                0.00     -0.00 -12805.98

     ewald   stress (kbar) -32809.84     -0.00     -0.00
                               -0.00 -23712.68      3.58
                               -0.00      3.58 -27196.35

     hubbard stress (kbar)      0.00      0.00      0.00
                                0.00      0.00      0.00
                                0.00      0.00      0.00

     DFT-D   stress (kbar)      0.00      0.00      0.00
                                0.00      0.00      0.00
                                0.00      0.00      0.00

     XDM     stress (kbar)      0.00      0.00      0.00
                                0.00      0.00      0.00
                                0.00      0.00      0.00

     dft-nl  stress (kbar)      0.00      0.00      0.00
                                0.00      0.00      0.00
                                0.00      0.00      0.00

     TS-vdW  stress (kbar)      0.00      0.00      0.00
                                0.00      0.00      0.00
                                0.00      0.00      0.00

[...]

                                0.00      0.00      0.00

     Writing all to output data dir new_calculations/myprefix.save/

     General routines

     Parallel routines

     PAW routines

   This run was terminated on:   6: 1:12  21May2023

   JOB DONE.