     Program PWSCF v.7.0 starts on 20May2023 at 11: 8:31

     Reading input from espresso_6271.pwi
Warning: card &CELL ignored
Warning: card / ignored

     Current dimensions of program PWSCF are:
     Max number of different atomic species (ntypx) = 10
     Max number of k-points (npk) =  40000
     Max angular momentum in pseudopotentials (lmaxx) =  4

     gamma-point specific algorithms are used
     Message from routine setup:
     using ibrav=0 with symmetry is DISCOURAGED, use correct ibrav instead

     Subspace diagonalization in iterative solution of the eigenvalue problem:
     a serial algorithm will be used

     Using Slab Decomposition

     bravais-lattice index     =            0
     lattice parameter (alat)  =      11.1770  a.u.
     unit-cell volume          =     987.3197 (a.u.)^3
     number of atoms/cell      =           10
     number of atomic types    =            3
     number of electrons       =        85.00
     number of Kohn-Sham states=           52
     kinetic-energy cutoff     =      30.0000  Ry
     charge density cutoff     =     240.0000  Ry
     scf convergence threshold =      1.0E-06
     mixing beta               =       0.7000
     number of iterations used =            8  plain     mixing
     Exchange-correlation=  SLA  PW   PBX  PBC
                           (   1   4   3   4   0   0   0)

     celldm(1)=  11.176975  celldm(2)=   0.000000  celldm(3)=   0.000000
     celldm(4)=   0.000000  celldm(5)=   0.000000  celldm(6)=   0.000000

     crystal axes: (cart. coord. in units of alat)
               a(1) = (   1.000000   0.000000   0.000000 )
               a(2) = (   0.500000   0.866025   0.000000 )
               a(3) = (   0.500000   0.288675   0.816497 )

     reciprocal axes: (cart. coord. in units 2 pi/alat)
               b(1) = (  1.000000 -0.577350 -0.408248 )
               b(2) = (  0.000000  1.154701 -0.408248 )
               b(3) = (  0.000000  0.000000  1.224745 )

     PseudoPot. # 1 for Na read from file:
     /home/pragov/projects/rrg-bengioy-ad/pragov/crystal_structure_design/SSSP/na_pbe_v1.5.uspp.F.UPF
     MD5 check sum: 44600605ef58000f06b90626533354dc
     Pseudo is Ultrasoft, Zval =  9.0
     Generated by new atomic code, or converted to UPF format
     Using radial grid of  819 points,  5 beta functions with:
                l(1) =   0
                l(2) =   0
                l(3) =   1
                l(4) =   1
                l(5) =   2
     Q(r) pseudized with  8 coefficients,  rinner =    1.250   1.250   1.250
                                                       1.250   1.250

     PseudoPot. # 2 for Ru read from file:
     /home/pragov/projects/rrg-bengioy-ad/pragov/crystal_structure_design/SSSP/Ru_ONCV_PBE-1.0.oncvpsp.upf
     MD5 check sum: be037bb81c227cfb9b1461a9f099f4bd
     Pseudo is Norm-conserving, Zval = 16.0
     Generated using ONCVPSP code by D. R. Hamann
     Using radial grid of 1458 points,  6 beta functions with:
                l(1) =   0
                l(2) =   0
                l(3) =   1
                l(4) =   1
                l(5) =   2
                l(6) =   2

     PseudoPot. # 3 for F  read from file:
     /home/pragov/projects/rrg-bengioy-ad/pragov/crystal_structure_design/SSSP/f_pbe_v1.4.uspp.F.UPF
     MD5 check sum: 4c38b6a325caf53ec0e86aed9459de46
     Pseudo is Ultrasoft, Zval =  7.0
     Generated by new atomic code, or converted to UPF format
     Using radial grid of  799 points,  4 beta functions with:
                l(1) =   0
                l(2) =   0
                l(3) =   1
                l(4) =   1
     Q(r) pseudized with  8 coefficients,  rinner =    0.950   0.950   0.950

     atomic species   valence    mass     pseudopotential
        Na             9.00    22.98977     Na( 1.00)
        Ru            16.00   101.07000     Ru( 1.00)
        F              7.00    18.99840     F ( 1.00)

     12 Sym. Ops., with inversion, found

                                    s                        frac. trans.

      isym =  1     identity

 cryst.   s( 1) = (     1          0          0      )
                  (     0          1          0      )
                  (     0          0          1      )

 cart.    s( 1) = (  1.0000000  0.0000000  0.0000000 )
                  (  0.0000000  1.0000000  0.0000000 )
                  (  0.0000000  0.0000000  1.0000000 )

      isym =  2     180 deg rotation - cart. axis [1,0,0]

[...]

      isym =  3     120 deg rotation - cryst. axis [0,0,1]

[...]

      isym =  6     180 deg rotation - cryst. axis [1,1,0]

[...]

      isym =  7     inversion

[...]

      isym =  8     inv. 180 deg rotation - cart. axis [1,0,0]

[...]

      isym =  9     inv. 120 deg rotation - cryst. axis [0,0,1]

 cryst.   s( 9) = (     1         -1          0      )
                  (     1          0          0      )
                  (     1          0         -1      )

 cart.    s( 9) = (  0.5000000  0.8660254  0.0000000 )
                  ( -0.8660254  0.5000000  0.0000000 )
                  (  0.0000000  0.0000000 -1.0000000 )

[...]

 cryst.   s(10) = (     0          1          0      )
                  (    -1          1          0      )
                  (     0          1         -1      )

 cart.    s(10) = (  0.5000000 -0.8660254 -0.0000000 )
                  (  0.8660254  0.5000000  0.0000000 )
                  (  0.0000000  0.0000000 -1.0000000 )

[...]

      isym = 12     inv. 180 deg rotation - cryst. axis [1,1,0]

 cryst.   s(12) = (     1         -1          0      )
                  (     0         -1          0      )
                  (     0         -1          1      )

 cart.    s(12) = (  0.5000000 -0.8660254 -0.0000000 )
                  ( -0.8660254 -0.5000000 -0.0000000 )
                  (  0.0000000  0.0000000  1.0000000 )

   Cartesian axes

     site n.     atom                  positions (alat units)
         1           Na  tau(   1) = (   0.5000000   0.2886751   0.2041241  )
         2           Na  tau(   2) = (   1.5000000   0.8660254   0.6123724  )
         3           Na  tau(   3) = (   1.0000000   0.5773503   0.4082483  )
         4           Ru  tau(   4) = (   0.0000000   0.0000000   0.0000000  )
         5           F   tau(   5) = (   0.7398960   0.4271792   0.6206223  )
         6           F   tau(   6) = (   1.0000000   0.8776925   0.6206223  )
         7           F   tau(   7) = (   1.2601040   0.7275214   0.1958743  )
         8           F   tau(   8) = (   0.7398960   0.7275214   0.1958743  )
         9           F   tau(   9) = (   1.2601040   0.4271792   0.6206223  )
        10           F   tau(  10) = (   1.0000000   0.2770080   0.1958743  )

   Crystallographic axes

     site n.     atom                  positions (cryst. coord.)
         1           Na  tau(   1) = (  0.2500000  0.2500000  0.2500000  )
         2           Na  tau(   2) = (  0.7500000  0.7500000  0.7500000  )
         3           Na  tau(   3) = (  0.5000000  0.5000000  0.5000000  )
         4           Ru  tau(   4) = (  0.0000000  0.0000000  0.0000000  )
         5           F   tau(   5) = (  0.2398960  0.2398960  0.7601040  )
         6           F   tau(   6) = (  0.2398960  0.7601040  0.7601040  )
         7           F   tau(   7) = (  0.7601040  0.7601040  0.2398960  )
         8           F   tau(   8) = (  0.2398960  0.7601040  0.2398960  )
         9           F   tau(   9) = (  0.7601040  0.2398960  0.7601040  )
        10           F   tau(  10) = (  0.7601040  0.2398960  0.2398960  )

     number of k points=     1  Methfessel-Paxton smearing, width (Ry)=  0.0010
                       cart. coord. in units 2pi/alat
        k(    1) = (   0.0000000   0.0000000   0.0000000), wk =   2.0000000

                       cryst. coord.
        k(    1) = (   0.0000000   0.0000000   0.0000000), wk =   2.0000000

     Initial potential from superposition of free atoms

     starting charge      84.9806, renormalised to      85.0000
     Starting wfcs are   49 randomized atomic wfcs +    3 random wfcs

     Self-consistent Calculation

     iteration #  1     ecut=    30.00 Ry     beta= 0.70
     Davidson diagonalization with overlap

     ethr =  1.00E-02,  avg # of iterations =  4.0
     Minimization algorithm failed to find Fermi energy: reverting to bisection
     Possible cause: smearing is larger than the electronic band-gap.

     total energy              =    -766.32901273 Ry
     estimated scf accuracy    <       1.03231741 Ry

[...]

     ethr =  1.21E-03,  avg # of iterations =  2.0

[...]

     ethr =  9.24E-07,  avg # of iterations =  1.0

[...]

     total energy              =    -766.75277786 Ry
     estimated scf accuracy    <       0.00000296 Ry

     iteration # 24     ecut=    30.00 Ry     beta= 0.70
     Davidson diagonalization with overlap

     ethr =  3.48E-09,  avg # of iterations =  1.0
     Minimization algorithm failed to find Fermi energy: reverting to bisection
     Possible cause: smearing is larger than the electronic band-gap.

     End of self-consistent calculation

          k = 0.0000 0.0000 0.0000 (  1367 PWs)   bands (ev):

   -68.2092 -47.8444 -47.8442 -45.4385 -38.2011 -38.2011 -38.2010 -19.7358
   -19.7358 -19.7358 -19.7313 -19.7313 -19.7313 -18.8262 -18.5514 -18.5514
   -18.5514 -18.4736 -18.4736 -17.1880 -17.1880 -17.1880  -1.9105  -1.5997
    -1.5997  -1.2150  -1.2150  -1.2150  -0.7229  -0.7229  -0.7229   0.5519
     0.5519   0.5520   0.6375   0.6375   0.6375   1.0640   1.0640   1.0640
     4.5970   4.5971   4.5971   6.6544   7.3746   7.3747  10.5060  13.1222
    13.1223  13.1225  13.8339  13.8345

     occupation numbers
     1.0000   1.0000   1.0000   1.0000   1.0000   1.0000   1.0000   1.0000
     1.0000   1.0000   1.0000   1.0000   1.0000   1.0000   1.0000   1.0000
     1.0000   1.0000   1.0000   1.0000   1.0000   1.0000   1.0000   1.0000
     1.0000   1.0000   1.0000   1.0000   1.0000   1.0000   1.0000   1.0000
     1.0000   1.0000   1.0000   1.0000   1.0000   1.0000   1.0000   1.0000
     0.8350   0.8326   0.8324  -0.0000  -0.0000  -0.0000  -0.0000  -0.0000
    -0.0000  -0.0000  -0.0000  -0.0000

     the Fermi energy is     4.6030 ev

!    total energy              =    -766.75277743 Ry
     estimated scf accuracy    <       0.00000074 Ry
     smearing contrib. (-TS)   =      -0.00043272 Ry
     internal energy E=F+TS    =    -766.75234472 Ry

     The total energy is F=E-TS. E is the sum of the following terms:
     one-electron contribution =    -497.09669831 Ry
     hartree contribution      =     282.13778676 Ry
     xc contribution           =    -119.29458901 Ry
     ewald contribution        =    -432.49884415 Ry

     convergence has been achieved in  24 iterations

     Forces acting on atoms (cartesian axes, Ry/au):

     atom    1 type  1   force =     0.00000000    0.00000000    0.00000810
     atom    2 type  1   force =     0.00000000    0.00000000   -0.00000810
     atom    3 type  1   force =    -0.00000000    0.00000000    0.00000000
     atom    4 type  2   force =     0.00000000    0.00000000    0.00000000
     atom    5 type  3   force =    -0.00928820   -0.00536255    0.00756605
     atom    6 type  3   force =     0.00000000    0.01072509    0.00756605
     atom    7 type  3   force =     0.00928820    0.00536255   -0.00756605
     atom    8 type  3   force =    -0.00928820    0.00536255   -0.00756605
     atom    9 type  3   force =     0.00928820   -0.00536255    0.00756605
     atom   10 type  3   force =     0.00000000   -0.01072509   -0.00756605
     The non-local contrib.  to forces
     atom    1 type  1   force =     0.00000000    0.00000000    0.00000875
     atom    2 type  1   force =     0.00000000   -0.00000000   -0.00000875
     atom    3 type  1   force =     0.00000000   -0.00000000   -0.00000000
     atom    4 type  2   force =     0.00000000    0.00000000    0.00000000
     atom    5 type  3   force =    -0.49968249   -0.28849182    0.40797351
     atom    6 type  3   force =     0.00000000    0.57698364    0.40797351
     atom    7 type  3   force =     0.49968249    0.28849182   -0.40797351
     atom    8 type  3   force =    -0.49968249    0.28849182   -0.40797351
     atom    9 type  3   force =     0.49968249   -0.28849182    0.40797351
     atom   10 type  3   force =     0.00000000   -0.57698364   -0.40797351
     The ionic contribution  to forces
     atom    1 type  1   force =     0.00000000    0.00000000    0.00000000
     atom    2 type  1   force =     0.00000000   -0.00000000    0.00000000
     atom    3 type  1   force =     0.00000000   -0.00000000   -0.00000000
     atom    4 type  2   force =     0.00000000    0.00000000   -0.00000000
     atom    5 type  3   force =     5.83777842    3.37044294   -4.76652612
     atom    6 type  3   force =    -0.00000000   -6.74088588   -4.76652612
     atom    7 type  3   force =    -5.83777842   -3.37044294    4.76652612
     atom    8 type  3   force =     5.83777842   -3.37044294    4.76652612
     atom    9 type  3   force =    -5.83777842    3.37044294   -4.76652612
     atom   10 type  3   force =    -0.00000000    6.74088588    4.76652612
     The local contribution  to forces
     atom    1 type  1   force =     0.00001139    0.00001461   -0.00003416
     atom    2 type  1   force =    -0.00001135   -0.00001461    0.00003419
     atom    3 type  1   force =     0.00000000    0.00000003   -0.00000002
     atom    4 type  2   force =    -0.00000031   -0.00000001    0.00000067
     atom    5 type  3   force =    -5.34746780   -3.08734505    4.36622855
     atom    6 type  3   force =     0.00002352    6.17434083    4.36601048
     atom    7 type  3   force =     5.34746797    3.08734518   -4.36622867
     atom    8 type  3   force =    -5.34748013    3.08732509   -4.36625790
     atom    9 type  3   force =     5.34748010   -3.08732498    4.36625793
     atom   10 type  3   force =    -0.00002349   -6.17434085   -4.36601062
     The core correction contribution to forces
     atom    1 type  1   force =     0.00000000    0.00000000    0.00000000
     atom    2 type  1   force =     0.00000000    0.00000000    0.00000000
     atom    3 type  1   force =     0.00000000    0.00000000    0.00000000
     atom    4 type  2   force =     0.00000000    0.00000000    0.00000000
     atom    5 type  3   force =     0.00000000    0.00000000    0.00000000
     atom    6 type  3   force =     0.00000000    0.00000000    0.00000000
     atom    7 type  3   force =     0.00000000    0.00000000    0.00000000
     atom    8 type  3   force =     0.00000000    0.00000000    0.00000000
     atom    9 type  3   force =     0.00000000    0.00000000    0.00000000
     atom   10 type  3   force =     0.00000000    0.00000000    0.00000000
     The Hubbard contrib.    to forces
     atom    1 type  1   force =     0.00000000    0.00000000    0.00000000
     atom    2 type  1   force =     0.00000000    0.00000000    0.00000000
     atom    3 type  1   force =     0.00000000    0.00000000    0.00000000
     atom    4 type  2   force =     0.00000000    0.00000000    0.00000000
     atom    5 type  3   force =     0.00000000    0.00000000    0.00000000
     atom    6 type  3   force =     0.00000000    0.00000000    0.00000000
     atom    7 type  3   force =     0.00000000    0.00000000    0.00000000
     atom    8 type  3   force =     0.00000000    0.00000000    0.00000000
     atom    9 type  3   force =     0.00000000    0.00000000    0.00000000
     atom   10 type  3   force =     0.00000000    0.00000000    0.00000000
     The SCF correction term to forces
     atom    1 type  1   force =    -0.00001134   -0.00001462    0.00003353
     atom    2 type  1   force =     0.00001132    0.00001459   -0.00003352
     atom    3 type  1   force =     0.00000011    0.00000006   -0.00000003
     atom    4 type  2   force =     0.00000027    0.00000017   -0.00000031
     atom    5 type  3   force =     0.00009537    0.00003748   -0.00011806
     atom    6 type  3   force =    -0.00002423    0.00031372    0.00012647
     atom    7 type  3   force =    -0.00009560   -0.00003757    0.00011829
     atom    8 type  3   force =     0.00010895   -0.00001707    0.00014923
     atom    9 type  3   force =    -0.00010892    0.00001702   -0.00014930
     atom   10 type  3   force =     0.00002421   -0.00031379   -0.00012626

     Total force =     0.032150     Total SCF correction =     0.000592

     Computing stress (Cartesian axis) and pressure

          total   stress  (Ry/bohr**3)                   (kbar)     P=     -122.13
  -0.00083061  -0.00000000  -0.00000000         -122.19       -0.00       -0.00
  -0.00000000  -0.00083061  -0.00000000           -0.00     -122.19       -0.00
  -0.00000000  -0.00000000  -0.00082946           -0.00       -0.00     -122.02

     kinetic stress (kbar)  21819.28      0.00     -0.00
                                0.00  21819.28      0.00
                               -0.00      0.00  21818.84

     local   stress (kbar)   7060.56      0.18      0.01
                                0.18   7063.13      2.15
                                0.01      2.15   7062.63

     nonloc. stress (kbar) -15886.51      0.00      0.00
                                0.00 -15886.51     -0.00
                                0.00     -0.00 -15886.49

     hartree stress (kbar)  14012.92     -0.05      0.01
                               -0.05  14011.83     -0.86
                                0.01     -0.86  14012.19

     exc-cor stress (kbar)  -5649.22     -0.00     -0.00
                               -0.00  -5649.22     -0.01
                               -0.00     -0.01  -5649.22

     corecor stress (kbar)      0.00      0.00      0.00
                                0.00      0.00      0.00
                                0.00      0.00      0.00

     ewald   stress (kbar) -21479.96      0.00     -0.00
                                0.00 -21479.96      0.00
                               -0.00      0.00 -21479.96

     hubbard stress (kbar)      0.00      0.00      0.00
                                0.00      0.00      0.00
                                0.00      0.00      0.00

     DFT-D   stress (kbar)      0.00      0.00      0.00
                                0.00      0.00      0.00
                                0.00      0.00      0.00

     XDM     stress (kbar)      0.00      0.00      0.00
                                0.00      0.00      0.00
                                0.00      0.00      0.00

     dft-nl  stress (kbar)      0.00      0.00      0.00
                                0.00      0.00      0.00
                                0.00      0.00      0.00

     TS-vdW  stress (kbar)      0.00      0.00      0.00
                                0.00      0.00      0.00
                                0.00      0.00      0.00

[...]

                                0.00      0.00      0.00

     Writing all to output data dir new_calculations/myprefix.save/

     General routines

     Parallel routines

   This run was terminated on:  11: 9:14  20May2023

   JOB DONE.