     Program PWSCF v.7.0 starts on 20May2023 at 22:21:34

     Reading input from espresso_1777.pwi
Warning: card &CELL ignored
Warning: card / ignored

     Current dimensions of program PWSCF are:
     Max number of different atomic species (ntypx) = 10
     Max number of k-points (npk) =  40000
     Max angular momentum in pseudopotentials (lmaxx) =  4
     file Ba.pbe-spn-kjpaw_psl.1.0.0.UPF: wavefunction(s)  5S 6S renormalized

     gamma-point specific algorithms are used
     Message from routine setup:
     using ibrav=0 with symmetry is DISCOURAGED, use correct ibrav instead

     Subspace diagonalization in iterative solution of the eigenvalue problem:
     a serial algorithm will be used

     Using Slab Decomposition

     bravais-lattice index     =            0
     lattice parameter (alat)  =      11.3045  a.u.
     unit-cell volume          =    2239.8798 (a.u.)^3
     number of atoms/cell      =           14
     number of atomic types    =            2
     number of electrons       =       188.00
     number of Kohn-Sham states=          113
     kinetic-energy cutoff     =      30.0000  Ry
     charge density cutoff     =     240.0000  Ry
     scf convergence threshold =      1.0E-06
     mixing beta               =       0.7000
     number of iterations used =            8  plain     mixing
     Exchange-correlation=  SLA  PW   PBX  PBC
                           (   1   4   3   4   0   0   0)

     celldm(1)=  11.304537  celldm(2)=   0.000000  celldm(3)=   0.000000
     celldm(4)=   0.000000  celldm(5)=   0.000000  celldm(6)=   0.000000

     crystal axes: (cart. coord. in units of alat)
               a(1) = (   1.000000   0.000000   0.000000 )
               a(2) = (  -0.669102   0.743170   0.000000 )
               a(3) = (   0.000000   0.000000   2.086306 )

     reciprocal axes: (cart. coord. in units 2 pi/alat)
               b(1) = (  1.000000  0.900335  0.000000 )
               b(2) = (  0.000000  1.345586  0.000000 )
               b(3) = (  0.000000  0.000000  0.479316 )

     PseudoPot. # 1 for Ba read from file:
     /home/pragov/projects/rrg-bengioy-ad/pragov/crystal_structure_design/SSSP/Ba.pbe-spn-kjpaw_psl.1.0.0.UPF
     MD5 check sum: c432291d3e53af55f19d5e8866385beb
     Pseudo is Projector augmented-wave + core cor, Zval = 10.0
     Generated using "atomic" code by A. Dal Corso  v.5.1
     Shape of augmentation charge: PSQ
     Using radial grid of 1251 points,  7 beta functions with:
                l(1) =   0
                l(2) =   0
                l(3) =   0
                l(4) =   1
                l(5) =   1
                l(6) =   2
                l(7) =   2
     Q(r) pseudized with 0 coefficients

     PseudoPot. # 2 for Ge read from file:
     /home/pragov/projects/rrg-bengioy-ad/pragov/crystal_structure_design/SSSP/ge_pbe_v1.4.uspp.F.UPF
     MD5 check sum: 9c9eaa91e581c3f09632fb3098b2c6b2
     Pseudo is Ultrasoft + core correction, Zval = 14.0
     Generated by new atomic code, or converted to UPF format
     Using radial grid of  873 points,  6 beta functions with:
                l(1) =   0
                l(2) =   0
                l(3) =   1
                l(4) =   1
                l(5) =   2
                l(6) =   2
     Q(r) pseudized with  8 coefficients,  rinner =    1.400   1.400   1.400
                                                       1.400   1.400

     atomic species   valence    mass     pseudopotential
        Ba            10.00   137.32700     Ba( 1.00)
        Ge            14.00    72.63000     Ge( 1.00)

      4 Sym. Ops., with inversion, found ( 2 have fractional translation)

                                    s                        frac. trans.

      isym =  1     identity

 cryst.   s( 1) = (     1          0          0      )
                  (     0          1          0      )
                  (     0          0          1      )

 cart.    s( 1) = (  1.0000000  0.0000000  0.0000000 )
                  (  0.0000000  1.0000000  0.0000000 )
                  (  0.0000000  0.0000000  1.0000000 )

      isym =  2     180 deg rotation - cart. axis [0,0,1]

 cryst.   s( 2) = (    -1          0          0      )    f =( -0.0000000 )
                  (     0         -1          0      )       ( -0.0000000 )
                  (     0          0          1      )       ( -0.5000000 )

 cart.    s( 2) = ( -1.0000000 -0.0000000  0.0000000 )    f =( -0.0000000 )
                  (  0.0000000 -1.0000000  0.0000000 )       ( -0.0000000 )
                  (  0.0000000  0.0000000  1.0000000 )       ( -1.0431529 )

      isym =  3     inversion

 cryst.   s( 3) = (    -1          0          0      )
                  (     0         -1          0      )
                  (     0          0         -1      )

 cart.    s( 3) = ( -1.0000000 -0.0000000  0.0000000 )
                  (  0.0000000 -1.0000000  0.0000000 )
                  (  0.0000000  0.0000000 -1.0000000 )

      isym =  4     inv. 180 deg rotation - cart. axis [0,0,1]

 cryst.   s( 4) = (     1          0          0      )    f =(  0.0000000 )
                  (     0          1          0      )       (  0.0000000 )
                  (     0          0         -1      )       (  0.5000000 )

 cart.    s( 4) = (  1.0000000  0.0000000  0.0000000 )    f =(  0.0000000 )
                  (  0.0000000  1.0000000  0.0000000 )       (  0.0000000 )
                  (  0.0000000  0.0000000 -1.0000000 )       (  1.0431529 )

   Cartesian axes

     site n.     atom                  positions (alat units)
         1           Ba  tau(   1) = (   0.5502420   0.2002554   0.5215764  )
         2           Ba  tau(   2) = (  -0.2193443   0.5429149   1.5647293  )
         3           Ge  tau(   3) = (   0.5847457   0.1848926   2.0106021  )
         4           Ge  tau(   4) = (  -0.2538480   0.5582778   0.0757037  )
         5           Ge  tau(   5) = (   0.5847457   0.1848926   1.1188566  )
         6           Ge  tau(   6) = (  -0.2538480   0.5582778   0.9674492  )
         7           Ge  tau(   7) = (   0.2565702   0.3310133   1.7825730  )
         8           Ge  tau(   8) = (   0.0743276   0.4121571   0.3037327  )
         9           Ge  tau(   9) = (   0.2565702   0.3310133   1.3468856  )
        10           Ge  tau(  10) = (   0.0743276   0.4121571   0.7394201  )
        11           Ge  tau(  11) = (   0.9598497   0.0178770   1.8759936  )
        12           Ge  tau(  12) = (  -0.6289520   0.7252934   0.2103121  )
        13           Ge  tau(  13) = (   0.9598497   0.0178770   1.2534650  )
        14           Ge  tau(  14) = (  -0.6289520   0.7252934   0.8328407  )

   Crystallographic axes

     site n.     atom                  positions (cryst. coord.)
         1           Ba  tau(   1) = (  0.7305390  0.2694610  0.2500000  )
         2           Ba  tau(   2) = (  0.2694610  0.7305390  0.7500000  )
         3           Ge  tau(   3) = (  0.7512110  0.2487890  0.9637140  )
         4           Ge  tau(   4) = (  0.2487890  0.7512110  0.0362860  )
         5           Ge  tau(   5) = (  0.7512110  0.2487890  0.5362860  )
         6           Ge  tau(   6) = (  0.2487890  0.7512110  0.4637140  )
         7           Ge  tau(   7) = (  0.5545930  0.4454070  0.8544160  )
         8           Ge  tau(   8) = (  0.4454070  0.5545930  0.1455840  )
         9           Ge  tau(   9) = (  0.5545930  0.4454070  0.6455840  )
        10           Ge  tau(  10) = (  0.4454070  0.5545930  0.3544160  )
        11           Ge  tau(  11) = (  0.9759450  0.0240550  0.8991940  )
        12           Ge  tau(  12) = (  0.0240550  0.9759450  0.1008060  )
        13           Ge  tau(  13) = (  0.9759450  0.0240550  0.6008060  )
        14           Ge  tau(  14) = (  0.0240550  0.9759450  0.3991940  )

     number of k points=     1  Methfessel-Paxton smearing, width (Ry)=  0.0010
                       cart. coord. in units 2pi/alat
        k(    1) = (   0.0000000   0.0000000   0.0000000), wk =   2.0000000

                       cryst. coord.
        k(    1) = (   0.0000000   0.0000000   0.0000000), wk =   2.0000000

     Check: negative core charge=   -0.000001

     Initial potential from superposition of free atoms

     starting charge     187.9555, renormalised to     188.0000
     Starting wfcs are  118 randomized atomic wfcs
     Checking if some PAW data can be deallocated...

     Self-consistent Calculation

     iteration #  1     ecut=    30.00 Ry     beta= 0.70
     Davidson diagonalization with overlap

     ethr =  1.00E-02,  avg # of iterations =  7.0

     Threshold (ethr) on eigenvalues was too large:
     Diagonalizing with lowered threshold

     Davidson diagonalization with overlap

[...]

     negative rho (up, down):  7.947E-02 0.000E+00

     total energy              =   -3436.16903856 Ry
     estimated scf accuracy    <       0.34080210 Ry

[...]

     negative rho (up, down):  4.476E-04 0.000E+00

[...]

     total energy              =   -3436.20536824 Ry
     estimated scf accuracy    <       0.00000431 Ry

     iteration # 22     ecut=    30.00 Ry     beta= 0.70
     Davidson diagonalization with overlap

     ethr =  8.98E-10,  avg # of iterations =  4.0

     End of self-consistent calculation

          k = 0.0000 0.0000 0.0000 (  3090 PWs)   bands (ev):

   -18.9144 -18.9132 -15.3566 -15.3551 -15.3139 -15.3104 -15.3071 -15.3049
   -15.3047 -15.3023 -15.2845 -15.2816 -15.2574 -15.2535 -15.2429 -15.2386
   -15.2126 -15.2122 -15.1878 -15.1846 -15.1778 -15.1768 -15.1707 -15.1677
   -15.1369 -15.1352 -15.1049 -15.1022 -15.0882 -15.0863 -15.0730 -15.0700
   -15.0618 -15.0604 -15.0233 -15.0224 -15.0190 -15.0150 -14.9932 -14.9811
   -14.9809 -14.9727 -14.9346 -14.9289 -14.8953 -14.8933 -14.8427 -14.8420
   -14.8406 -14.8398 -14.8320 -14.8305 -14.8159 -14.8148 -14.8140 -14.8114
   -14.8053 -14.7967 -14.7830 -14.7775 -14.7611 -14.7533  -4.3621  -4.2107
    -4.1897  -4.1868  -4.0791  -4.0748  -2.5385  -1.8619  -0.9941   0.5154
     0.5475   1.3469   2.0271   2.8308   3.5549   3.5612   3.5963   4.0693
     5.8889   5.9729   6.0870   6.1494   6.2594   6.7422   6.8136   7.5151
     7.7222   7.7682   7.8198   8.0660   8.4652   8.5383   8.7117   8.8731
     8.9774   9.6855  10.5128  10.8794  11.2623  11.4175  11.7871  12.4735
    12.7755  12.9139  13.0106  13.3528  13.3676  13.6570  14.0842  14.1489
    14.1733

     occupation numbers
     1.0000   1.0000   1.0000   1.0000   1.0000   1.0000   1.0000   1.0000
     1.0000   1.0000   1.0000   1.0000   1.0000   1.0000   1.0000   1.0000
     1.0000   1.0000   1.0000   1.0000   1.0000   1.0000   1.0000   1.0000
     1.0000   1.0000   1.0000   1.0000   1.0000   1.0000   1.0000   1.0000
     1.0000   1.0000   1.0000   1.0000   1.0000   1.0000   1.0000   1.0000
     1.0000   1.0000   1.0000   1.0000   1.0000   1.0000   1.0000   1.0000
     1.0000   1.0000   1.0000   1.0000   1.0000   1.0000   1.0000   1.0000
     1.0000   1.0000   1.0000   1.0000   1.0000   1.0000   1.0000   1.0000
     1.0000   1.0000   1.0000   1.0000   1.0000   1.0000   1.0000   1.0000
     1.0000   1.0000   1.0000   1.0000   1.0000   1.0000   1.0000   1.0000
     1.0000   1.0000   1.0000   1.0000   1.0000   1.0000   1.0000   1.0000
     1.0000   1.0000   1.0000   1.0000   1.0000   1.0000  -0.0000  -0.0000
    -0.0000  -0.0000  -0.0000  -0.0000  -0.0000  -0.0000  -0.0000  -0.0000
    -0.0000  -0.0000  -0.0000  -0.0000  -0.0000  -0.0000  -0.0000  -0.0000
    -0.0000

     the Fermi energy is     8.6408 ev

!    total energy              =   -3436.20536760 Ry
     estimated scf accuracy    <       0.00000098 Ry
     smearing contrib. (-TS)   =       0.00000000 Ry
     internal energy E=F+TS    =   -3436.20536760 Ry

     The total energy is F=E-TS. E is the sum of the following terms:
     one-electron contribution =   -1686.20004729 Ry
     hartree contribution      =    1015.16556482 Ry
     xc contribution           =    -739.73866495 Ry
     ewald contribution        =   -1275.55173866 Ry
     one-center paw contrib.   =    -749.88048152 Ry
      -> PAW hartree energy AE =      56.84094798 Ry
      -> PAW hartree energy PS =     -56.63698345 Ry
      -> PAW xc energy AE      =    -788.30813207 Ry
      -> PAW xc energy PS      =      38.22368602 Ry
      -> total E_H with PAW    =    1015.36952935 Ry
      -> total E_XC with PAW   =   -1489.82311101 Ry

     convergence has been achieved in  22 iterations

     Forces acting on atoms (cartesian axes, Ry/au):

     atom    1 type  1   force =     0.00206996   -0.00091975    0.00000000
     atom    2 type  1   force =    -0.00206996    0.00091975    0.00000000
     atom    3 type  2   force =    -0.01807461    0.00804780    0.01658894
     atom    4 type  2   force =     0.01807461   -0.00804780   -0.01658894
     atom    5 type  2   force =    -0.01807461    0.00804780   -0.01658894
     atom    6 type  2   force =     0.01807461   -0.00804780    0.01658894
     atom    7 type  2   force =    -0.04147535    0.01846667    0.04783702
     atom    8 type  2   force =     0.04147535   -0.01846667   -0.04783702
     atom    9 type  2   force =    -0.04147535    0.01846667   -0.04783702
     atom   10 type  2   force =     0.04147535   -0.01846667    0.04783702
     atom   11 type  2   force =     0.02749137   -0.01224022    0.02400292
     atom   12 type  2   force =    -0.02749137    0.01224022   -0.02400292
     atom   13 type  2   force =     0.02749137   -0.01224022   -0.02400292
     atom   14 type  2   force =    -0.02749137    0.01224022    0.02400292
     The non-local contrib.  to forces
     atom    1 type  1   force =    -0.02743111    0.01221728    0.00000000
     atom    2 type  1   force =     0.02743111   -0.01221728    0.00000000
     atom    3 type  2   force =    -0.00068891    0.00030691   -0.08498753
     atom    4 type  2   force =     0.00068891   -0.00030691    0.08498753
     atom    5 type  2   force =    -0.00068891    0.00030691    0.08498753
     atom    6 type  2   force =     0.00068891   -0.00030691   -0.08498753
     atom    7 type  2   force =     0.20919418   -0.09314439   -0.00191347
     atom    8 type  2   force =    -0.20919418    0.09314439    0.00191347
     atom    9 type  2   force =     0.20919418   -0.09314439    0.00191347
     atom   10 type  2   force =    -0.20919418    0.09314439   -0.00191347
     atom   11 type  2   force =    -0.10206143    0.04544335    0.08346940
     atom   12 type  2   force =     0.10206143   -0.04544335   -0.08346940
     atom   13 type  2   force =    -0.10206143    0.04544335   -0.08346940
     atom   14 type  2   force =     0.10206143   -0.04544335    0.08346940
     The ionic contribution  to forces
     atom    1 type  1   force =    -0.21253594    0.09463196    0.00000000
     atom    2 type  1   force =     0.21253594   -0.09463196    0.00000000
     atom    3 type  2   force =    -0.33822961    0.15059726   -2.28259479
     atom    4 type  2   force =     0.33822961   -0.15059726    2.28259479
     atom    5 type  2   force =    -0.33822961    0.15059726    2.28259479
     atom    6 type  2   force =     0.33822961   -0.15059726   -2.28259479
     atom    7 type  2   force =    -1.29064296    0.57466079   -4.95591539
     atom    8 type  2   force =     1.29064296   -0.57466079    4.95591539
     atom    9 type  2   force =    -1.29064296    0.57466079    4.95591539
     atom   10 type  2   force =     1.29064296   -0.57466079   -4.95591539
     atom   11 type  2   force =    -1.29570559    0.57691493  -11.96458882
     atom   12 type  2   force =     1.29570559   -0.57691493   11.96458882
     atom   13 type  2   force =    -1.29570559    0.57691493   11.96458882
     atom   14 type  2   force =     1.29570559   -0.57691493  -11.96458882
     The local contribution  to forces
     atom    1 type  1   force =     0.23768503   -0.10616084    0.00015684
     atom    2 type  1   force =    -0.23837415    0.10581435    0.00009235
     atom    3 type  2   force =     0.32105848   -0.14295269    2.38487607
     atom    4 type  2   force =    -0.32053911    0.14272082   -2.38066379
     atom    5 type  2   force =     0.32095456   -0.14290616   -2.38546761
     atom    6 type  2   force =    -0.32053678    0.14271914    2.38056011
     atom    7 type  2   force =     1.04323377   -0.46450169    5.00861050
     atom    8 type  2   force =    -1.04374252    0.46472704   -5.00584373
     atom    9 type  2   force =     1.04353741   -0.46463724   -5.00878786
     atom   10 type  2   force =    -1.04331299    0.46453493    5.00650577
     atom   11 type  2   force =     1.42234236   -0.63329986   11.90592394
     atom   12 type  2   force =    -1.42285026    0.63352751  -11.90263103
     atom   13 type  2   force =     1.42229502   -0.63327902  -11.90638914
     atom   14 type  2   force =    -1.42300387    0.63359573   11.90259225
     The core correction contribution to forces
     atom    1 type  1   force =     0.00401437   -0.00179062   -0.00000197
     atom    2 type  1   force =    -0.00402368    0.00178872    0.00000195
     atom    3 type  2   force =     0.00012468   -0.00005552    0.00126035
     atom    4 type  2   force =    -0.00012317    0.00005483   -0.00126033
     atom    5 type  2   force =     0.00012361   -0.00005504   -0.00126453
     atom    6 type  2   force =    -0.00012283    0.00005468    0.00126139
     atom    7 type  2   force =    -0.00342694    0.00152586   -0.00196109
     atom    8 type  2   force =     0.00342342   -0.00152429    0.00195714
     atom    9 type  2   force =    -0.00342212    0.00152369    0.00196327
     atom   10 type  2   force =     0.00343128   -0.00152781   -0.00195332
     atom   11 type  2   force =     0.00261907   -0.00116614    0.00060209
     atom   12 type  2   force =    -0.00262412    0.00116841   -0.00060166
     atom   13 type  2   force =     0.00261788   -0.00116561   -0.00060434
     atom   14 type  2   force =    -0.00262733    0.00116984    0.00059773
     The Hubbard contrib.    to forces
     atom    1 type  1   force =     0.00000000    0.00000000    0.00000000
     atom    2 type  1   force =     0.00000000    0.00000000    0.00000000
     atom    3 type  2   force =     0.00000000    0.00000000    0.00000000
     atom    4 type  2   force =     0.00000000    0.00000000    0.00000000
     atom    5 type  2   force =     0.00000000    0.00000000    0.00000000
     atom    6 type  2   force =     0.00000000    0.00000000    0.00000000
     atom    7 type  2   force =     0.00000000    0.00000000    0.00000000
     atom    8 type  2   force =     0.00000000    0.00000000    0.00000000
     atom    9 type  2   force =     0.00000000    0.00000000    0.00000000
     atom   10 type  2   force =     0.00000000    0.00000000    0.00000000
     atom   11 type  2   force =     0.00000000    0.00000000    0.00000000
     atom   12 type  2   force =     0.00000000    0.00000000    0.00000000
     atom   13 type  2   force =     0.00000000    0.00000000    0.00000000
     atom   14 type  2   force =     0.00000000    0.00000000    0.00000000
     The SCF correction term to forces
     atom    1 type  1   force =    -0.00001541    0.00005306   -0.00026320
     atom    2 type  1   force =     0.00000780    0.00003650    0.00004411
     atom    3 type  2   force =    -0.00033700    0.00015091   -0.00208367
     atom    4 type  2   force =    -0.00018443    0.00008229   -0.00233603
     atom    5 type  2   force =    -0.00024091    0.00010819    0.00264301
     atom    6 type  2   force =    -0.00018589    0.00008340    0.00246153
     atom    7 type  2   force =     0.00016793   -0.00007393   -0.00108669
     atom    8 type  2   force =     0.00032538   -0.00014315   -0.00188329
     atom    9 type  2   force =    -0.00009629    0.00004466    0.00129019
     atom   10 type  2   force =    -0.00002449    0.00001356    0.00124406
     atom   11 type  2   force =     0.00026708   -0.00011926   -0.00148355
     atom   12 type  2   force =     0.00019734   -0.00008926   -0.00198339
     atom   13 type  2   force =     0.00030293   -0.00013533    0.00194063
     atom   14 type  2   force =     0.00031902   -0.00014345    0.00198796

     Total force =     0.161252     Total SCF correction =     0.006748

     Computing stress (Cartesian axis) and pressure

          total   stress  (Ry/bohr**3)                   (kbar)     P=     -122.03
  -0.00130284   0.00082914   0.00000000         -191.65      121.97        0.00
   0.00082914   0.00019018   0.00000000          121.97       27.98        0.00
   0.00000000   0.00000000  -0.00137604            0.00        0.00     -202.42

     kinetic stress (kbar)   9621.68    173.58      0.00
                              173.58   9934.23      0.00
                                0.00      0.00   9624.01

     local   stress (kbar)   -942.89  -2665.01     -0.00
                            -2665.01  -5741.70      0.00
                               -0.00      0.00  10288.18

     nonloc. stress (kbar)   3180.81     47.40      0.00
                               47.40   3266.16      0.00
                                0.00      0.00   3167.35

     hartree stress (kbar)  23160.78   1282.23      0.00
                             1282.23  25469.64     -0.00
                                0.00     -0.00  18041.02

     exc-cor stress (kbar)  17360.53      2.51      0.00
                                2.51  17365.05     -0.00
                                0.00     -0.00  17357.31

     corecor stress (kbar) -25914.60     -1.90     -0.00
                               -1.90 -25918.03      0.00
                               -0.00      0.00 -25913.19

     ewald   stress (kbar) -26657.95   1283.18      0.00
                             1283.18 -24347.37      0.00
                                0.00      0.00 -32767.10

     hubbard stress (kbar)      0.00      0.00      0.00
                                0.00      0.00      0.00
                                0.00      0.00      0.00

     DFT-D   stress (kbar)      0.00      0.00      0.00
                                0.00      0.00      0.00
                                0.00      0.00      0.00

     XDM     stress (kbar)      0.00      0.00      0.00
                                0.00      0.00      0.00
                                0.00      0.00      0.00

     dft-nl  stress (kbar)      0.00      0.00      0.00
                                0.00      0.00      0.00
                                0.00      0.00      0.00

     TS-vdW  stress (kbar)      0.00      0.00      0.00
                                0.00      0.00      0.00
                                0.00      0.00      0.00

[...]

                                0.00      0.00      0.00

     Writing all to output data dir new_calculations/myprefix.save/

     General routines

     Parallel routines

     PAW routines

   This run was terminated on:  22:22:20  20May2023

   JOB DONE.