     Program PWSCF v.7.0 starts on 20May2023 at 12:55:13

     Reading input from espresso_18330.pwi
Warning: card &CELL ignored
Warning: card / ignored

     Current dimensions of program PWSCF are:
     Max number of different atomic species (ntypx) = 10
     Max number of k-points (npk) =  40000
     Max angular momentum in pseudopotentials (lmaxx) =  4
     file In.pbe-dn-rrkjus_psl.0.2.2.UPF: wavefunction(s)  5S renormalized

     gamma-point specific algorithms are used

     Subspace diagonalization in iterative solution of the eigenvalue problem:
     a serial algorithm will be used

     Using Slab Decomposition

     bravais-lattice index     =            0
     lattice parameter (alat)  =      13.4110  a.u.
     unit-cell volume          =    1348.6989 (a.u.)^3
     number of atoms/cell      =            7
     number of atomic types    =            4
     number of electrons       =        70.00
     number of Kohn-Sham states=           42
     kinetic-energy cutoff     =      30.0000  Ry
     charge density cutoff     =     240.0000  Ry
     scf convergence threshold =      1.0E-06
     mixing beta               =       0.7000
     number of iterations used =            8  plain     mixing
     Exchange-correlation= SLA  PW   PBE  PBE
                           (   1   4   3   4   0   0   0)

     celldm(1)=  13.410951  celldm(2)=   0.000000  celldm(3)=   0.000000
     celldm(4)=   0.000000  celldm(5)=   0.000000  celldm(6)=   0.000000

     crystal axes: (cart. coord. in units of alat)
               a(1) = (   1.000000   0.000000   0.000000 )
               a(2) = (   0.308776   0.951135   0.000000 )
               a(3) = (  -0.654388  -0.475567   0.587888 )

     reciprocal axes: (cart. coord. in units 2 pi/alat)
               b(1) = (  1.000000 -0.324640  0.850503 )
               b(2) = (  0.000000  1.051376  0.850503 )
               b(3) = (  0.000000  0.000000  1.701006 )

     PseudoPot. # 1 for In read from file:
     /home/pragov/projects/rrg-bengioy-ad/pragov/crystal_structure_design/SSSP/In.pbe-dn-rrkjus_psl.0.2.2.UPF
     MD5 check sum: 25e7c42c3b55b68f4bf926be2e7201a4
     Pseudo is Ultrasoft + core correction, Zval = 13.0
     Generated using "atomic" code by A. Dal Corso  v.5.0.99 svn rev. 10869
     Using radial grid of 1241 points,  6 beta functions with:
                l(1) =   0
                l(2) =   0
                l(3) =   1
                l(4) =   1
                l(5) =   2
                l(6) =   2
     Q(r) pseudized with 0 coefficients

     PseudoPot. # 2 for Cu read from file:
     /home/pragov/projects/rrg-bengioy-ad/pragov/crystal_structure_design/SSSP/Cu_pbe_v1.2.uspp.F.UPF
     MD5 check sum: 6e991ff952a84172a2a52a1c1e996048
     Pseudo is Ultrasoft + core correction, Zval = 19.0
     Generated by new atomic code, or converted to UPF format
     Using radial grid of  867 points,  6 beta functions with:
                l(1) =   0
                l(2) =   0
                l(3) =   1
                l(4) =   1
                l(5) =   2
                l(6) =   2
     Q(r) pseudized with  8 coefficients,  rinner =    1.150   1.150   1.150
                                                       1.150   1.150

     PseudoPot. # 3 for Sn read from file:
     /home/pragov/projects/rrg-bengioy-ad/pragov/crystal_structure_design/SSSP/Sn_pbe_v1.uspp.F.UPF
     MD5 check sum: 4cf58ce39ec5d5d420df3dd08604eb00
     Pseudo is Ultrasoft + core correction, Zval = 14.0
     Generated by new atomic code, or converted to UPF format
     Using radial grid of  891 points,  6 beta functions with:
                l(1) =   0
                l(2) =   0
                l(3) =   1
                l(4) =   1
                l(5) =   2
                l(6) =   2
     Q(r) pseudized with  6 coefficients,  rinner =    1.200   1.200   1.200
                                                       1.200   1.200

     PseudoPot. # 4 for Se read from file:
     /home/pragov/projects/rrg-bengioy-ad/pragov/crystal_structure_design/SSSP/Se_pbe_v1.uspp.F.UPF
     MD5 check sum: 1b3568f3a8ae88f9a2a0ad0698632c85
     Pseudo is Ultrasoft + core correction, Zval =  6.0
     Generated by new atomic code, or converted to UPF format
     Using radial grid of  877 points,  6 beta functions with:
                l(1) =   0
                l(2) =   0
                l(3) =   1
                l(4) =   1
                l(5) =   2
                l(6) =   2
     Q(r) pseudized with  8 coefficients,  rinner =    1.300   1.300   1.300
                                                       1.300   1.300

     atomic species   valence    mass     pseudopotential
        In            13.00   114.81800     In( 1.00)
        Cu            19.00    63.54600     Cu( 1.00)
        Sn            14.00   118.71000     Sn( 1.00)
        Se             6.00    78.97100     Se( 1.00)

     No symmetry found

                                    s                        frac. trans.

      isym =  1     identity

 cryst.   s( 1) = (     1          0          0      )
                  (     0          1          0      )
                  (     0          0          1      )

 cart.    s( 1) = (  1.0000000  0.0000000  0.0000000 )
                  (  0.0000000  1.0000000 -0.0000000 )
                  (  0.0000000  0.0000000  1.0000000 )

   Cartesian axes

     site n.     atom                  positions (alat units)
         1           In  tau(   1) = (   0.5000000  -0.0000000   0.2939438  )
         2           Cu  tau(   2) = (   0.1543882   0.4755673   0.2939438  )
         3           Sn  tau(   3) = (   0.6543882   0.4755673   0.0000000  )
         4           Se  tau(   4) = (   0.4820028   0.3731496   0.3062488  )
         5           Se  tau(   5) = (  -0.1506416  -0.1323375   0.2816387  )
         6           Se  tau(   6) = (   0.9959416   0.3452072   0.0184932  )
         7           Se  tau(   7) = (  -0.0185264   0.3651154   0.5693944  )

   Crystallographic axes

     site n.     atom                  positions (cryst. coord.)
         1           In  tau(   1) = (  0.7500000  0.2500000  0.5000000  )
         2           Cu  tau(   2) = (  0.2500000  0.7500000  0.5000000  )
         3           Sn  tau(   3) = (  0.5000000  0.5000000  0.0000000  )
         4           Se  tau(   4) = (  0.6213290  0.6527860  0.5209310  )
         5           Se  tau(   5) = (  0.1318550  0.1003980  0.4790690  )
         6           Se  tau(   6) = (  0.8996020  0.3786710  0.0314570  )
         7           Se  tau(   7) = (  0.3472140  0.8681450  0.9685430  )

     number of k points=     1  Methfessel-Paxton smearing, width (Ry)=  0.0010
                       cart. coord. in units 2pi/alat
        k(    1) = (   0.0000000   0.0000000   0.0000000), wk =   2.0000000

                       cryst. coord.
        k(    1) = (   0.0000000   0.0000000   0.0000000), wk =   2.0000000

     Initial potential from superposition of free atoms

     starting charge      67.9960, renormalised to      70.0000
     Starting wfcs are   47 randomized atomic wfcs

     Self-consistent Calculation

     iteration #  1     ecut=    30.00 Ry     beta= 0.70
     Davidson diagonalization with overlap

     ethr =  1.00E-02,  avg # of iterations =  9.0

     total energy              =    -890.48508783 Ry
     estimated scf accuracy    <       7.20856306 Ry

[...]

     total energy              =    -894.00526427 Ry
     estimated scf accuracy    <       0.00000940 Ry

     iteration # 16     ecut=    30.00 Ry     beta= 0.70
     Davidson diagonalization with overlap

     ethr =  1.34E-08,  avg # of iterations =  5.0

     End of self-consistent calculation

          k = 0.0000 0.0000 0.0000 (  1886 PWs)   bands (ev):

  -107.3718 -65.2115 -64.8185 -63.4636 -22.6554 -18.5394 -16.1416 -16.0655
   -15.6650 -15.3404 -14.8343  -8.3637  -8.2344  -8.0283  -7.8769  -7.7641
    -7.1959  -5.7910  -1.8003  -1.1694  -0.8935  -0.5022   1.2223   1.6697
     1.8954   2.0106   2.1474   2.4233   2.5287   2.6355   2.9532   3.5271
     3.6852   3.9936   5.7490   5.7573   6.0716   6.2349   7.6287   7.6843
     8.1349   9.1198

     occupation numbers
     1.0000   1.0000   1.0000   1.0000   1.0000   1.0000   1.0000   1.0000
     1.0000   1.0000   1.0000   1.0000   1.0000   1.0000   1.0000   1.0000
     1.0000   1.0000   1.0000   1.0000   1.0000   1.0000   1.0000   1.0000
     1.0000   1.0000   1.0000   1.0000   1.0000   1.0000   1.0000   1.0000
     1.0000   1.0000   0.7434   0.2566  -0.0000  -0.0000  -0.0000  -0.0000
    -0.0000  -0.0000

     the Fermi energy is     5.7532 ev

!    total energy              =    -894.00526544 Ry
     estimated scf accuracy    <       0.00000044 Ry
     smearing contrib. (-TS)   =      -0.00042074 Ry
     internal energy E=F+TS    =    -894.00484469 Ry

     The total energy is F=E-TS. E is the sum of the following terms:
     one-electron contribution =    -615.74382020 Ry
     hartree contribution      =     341.80940775 Ry
     xc contribution           =    -258.68437487 Ry
     ewald contribution        =    -361.38605737 Ry

     convergence has been achieved in  16 iterations

     Forces acting on atoms (cartesian axes, Ry/au):

     atom    1 type  1   force =    -0.11051720    0.04498639    0.21119221
     atom    2 type  2   force =    -0.04636069   -0.05588712    0.07991643
     atom    3 type  3   force =    -0.03501623   -0.09031423    0.12725141
     atom    4 type  4   force =     0.55120244   -0.77361876   -0.58863294
     atom    5 type  4   force =    -0.23462091    0.03755813    1.10393456
     atom    6 type  4   force =    -0.14317782    0.17540046   -1.13102000
     atom    7 type  4   force =     0.01849041    0.66187514    0.19735833
     The non-local contrib.  to forces
     atom    1 type  1   force =     0.11375587    0.00071851   -0.04498313
     atom    2 type  2   force =     0.20673614    0.23130221   -0.06034387
     atom    3 type  3   force =    -0.00678302    0.01460382   -0.00945261
     atom    4 type  4   force =     0.36550493   -0.53925078   -0.83062474
     atom    5 type  4   force =    -0.39148295    0.19084591    0.92044486
     atom    6 type  4   force =    -0.17780965    0.47941289   -0.81846794
     atom    7 type  4   force =     0.35454869    0.09384863    0.32460280
     The ionic contribution  to forces
     atom    1 type  1   force =     0.00000000    0.00000000    0.00000000
     atom    2 type  2   force =     0.00000001    0.00000000    0.00000000
     atom    3 type  3   force =     0.00000000    0.00000000    0.00000000
     atom    4 type  4   force =     5.36817583    0.33130834    4.05630873
     atom    5 type  4   force =     1.97268536    5.00355768   -4.05630874
     atom    6 type  4   force =    -1.28577726   -5.94875424   -2.88787420
     atom    7 type  4   force =    -6.05508393    0.61388822    2.88787419
     The local contribution  to forces
     atom    1 type  1   force =    -0.15676146    0.08569378    0.12349842
     atom    2 type  2   force =    -0.20101817   -0.23177867    0.01815709
     atom    3 type  3   force =     0.01950662   -0.04933595    0.01127581
     atom    4 type  4   force =    -5.24268482   -0.38867307   -3.85325830
     atom    5 type  4   force =    -1.74817955   -5.09951576    3.95856502
     atom    6 type  4   force =     1.36047659    5.72848195    2.67252235
     atom    7 type  4   force =     5.82625248   -0.15420387   -3.20113306
     The core correction contribution to forces
     atom    1 type  1   force =    -0.01604686    0.01412788    0.01043757
     atom    2 type  2   force =    -0.00027410   -0.00029872    0.00010877
     atom    3 type  3   force =     0.00460154    0.00015347    0.00301157
     atom    4 type  4   force =     0.11194924   -0.12188494   -0.08306819
     atom    5 type  4   force =    -0.01576611   -0.00210695    0.15929357
     atom    6 type  4   force =     0.01171335   -0.02856253   -0.21918681
     atom    7 type  4   force =    -0.05553029    0.16348718    0.06403172
     The Hubbard contrib.    to forces
     atom    1 type  1   force =     0.00000000    0.00000000    0.00000000
     atom    2 type  2   force =     0.00000000    0.00000000    0.00000000
     atom    3 type  3   force =     0.00000000    0.00000000    0.00000000
     atom    4 type  4   force =     0.00000000    0.00000000    0.00000000
     atom    5 type  4   force =     0.00000000    0.00000000    0.00000000
     atom    6 type  4   force =     0.00000000    0.00000000    0.00000000
     atom    7 type  4   force =     0.00000000    0.00000000    0.00000000
     The SCF correction term to forces
     atom    1 type  1   force =     0.00036477   -0.00038816    0.00022697
     atom    2 type  2   force =     0.00002495    0.00005369   -0.00001794
     atom    3 type  3   force =    -0.00051185   -0.00056994    0.00040426
     atom    4 type  4   force =     0.00008678    0.00004732   -0.00000283
     atom    5 type  4   force =    -0.00004815   -0.00005712   -0.00007254
     atom    6 type  4   force =     0.00004868   -0.00001198   -0.00002579
     atom    7 type  4   force =     0.00013298    0.00002061   -0.00002972

     Total force =     2.104245     Total SCF correction =     0.001064

     Computing stress (Cartesian axis) and pressure

          total   stress  (Ry/bohr**3)                   (kbar)     P=      181.84
  -0.00276874  -0.00512878  -0.00178324         -407.30     -754.47     -262.32
  -0.00512878  -0.00063841   0.00225052         -754.47      -93.91      331.06
  -0.00178324   0.00225052   0.00711557         -262.32      331.06     1046.74

     kinetic stress (kbar)  11730.37   -538.36   -178.12
                             -538.36  11995.98    239.79
                             -178.12    239.79  12870.76

     local   stress (kbar)  -8573.67   1000.04     87.31
                             1000.04  -9308.44     82.50
                               87.31     82.50 -10246.90

     nonloc. stress (kbar)   2053.07   -135.80   -104.94
                             -135.80   2092.11     16.38
                             -104.94     16.38   2372.90

     hartree stress (kbar)  12035.25   -478.62    -57.95
                             -478.62  12394.75    -21.40
                              -57.95    -21.40  12851.78

     exc-cor stress (kbar)  13376.10      1.62     -0.03
                                1.62  13376.11     -1.68
                               -0.03     -1.68  13375.73

     corecor stress (kbar) -17495.99    -20.60     -8.60
                              -20.60 -17490.37     15.48
                               -8.60     15.48 -17446.98

     ewald   stress (kbar) -13532.43   -582.75      0.00
                             -582.75 -13154.06      0.00
                                0.00      0.00 -12730.55

     hubbard stress (kbar)      0.00      0.00      0.00
                                0.00      0.00      0.00
                                0.00      0.00      0.00

     DFT-D   stress (kbar)      0.00      0.00      0.00
                                0.00      0.00      0.00
                                0.00      0.00      0.00

     XDM     stress (kbar)      0.00      0.00      0.00
                                0.00      0.00      0.00
                                0.00      0.00      0.00

     dft-nl  stress (kbar)      0.00      0.00      0.00
                                0.00      0.00      0.00
                                0.00      0.00      0.00

     TS-vdW  stress (kbar)      0.00      0.00      0.00
                                0.00      0.00      0.00
                                0.00      0.00      0.00

[...]

                                0.00      0.00      0.00

     Writing all to output data dir new_calculations/myprefix.save/

     General routines

     Parallel routines

   This run was terminated on:  12:56:18  20May2023

   JOB DONE.