     Program PWSCF v.7.0 starts on 21May2023 at  4:11: 9

     Reading input from espresso_20406.pwi
Warning: card &CELL ignored
Warning: card / ignored

     Current dimensions of program PWSCF are:
     Max number of different atomic species (ntypx) = 10
     Max number of k-points (npk) =  40000
     Max angular momentum in pseudopotentials (lmaxx) =  4
     file Mg.pbe-n-kjpaw_psl.0.3.0.UPF: wavefunction(s)  3S renormalized

     gamma-point specific algorithms are used
     Message from routine setup:
     using ibrav=0 with symmetry is DISCOURAGED, use correct ibrav instead

     Subspace diagonalization in iterative solution of the eigenvalue problem:
     a serial algorithm will be used

     Using Slab Decomposition

     bravais-lattice index     =            0
     lattice parameter (alat)  =      12.3564  a.u.
     unit-cell volume          =    2590.0557 (a.u.)^3
     number of atoms/cell      =           16
     number of atomic types    =            2
     number of electrons       =        40.00
     number of Kohn-Sham states=           24
     kinetic-energy cutoff     =      30.0000  Ry
     charge density cutoff     =     240.0000  Ry
     scf convergence threshold =      1.0E-06
     mixing beta               =       0.7000
     number of iterations used =            8  plain     mixing
     Exchange-correlation= SLA  PW   PBX  PBC
                           (   1   4   3   4   0   0   0)

     celldm(1)=  12.356402  celldm(2)=   0.000000  celldm(3)=   0.000000
     celldm(4)=   0.000000  celldm(5)=   0.000000  celldm(6)=   0.000000

     crystal axes: (cart. coord. in units of alat)
               a(1) = (   1.000000   0.000000   0.000000 )
               a(2) = (  -0.500000   0.866025   0.000000 )
               a(3) = (   0.000000   0.000000   1.585267 )

     reciprocal axes: (cart. coord. in units 2 pi/alat)
               b(1) = (  1.000000  0.577350  0.000000 )
               b(2) = (  0.000000  1.154701  0.000000 )
               b(3) = (  0.000000  0.000000  0.630809 )

     PseudoPot. # 1 for Ca read from file:
     /home/pragov/projects/rrg-bengioy-ad/pragov/crystal_structure_design/SSSP/Ca_pbe_v1.uspp.F.UPF
     MD5 check sum: 403a4c14b9e4d4dfdc3024c9a3812218
     Pseudo is Ultrasoft + core correction, Zval = 10.0
     Generated by new atomic code, or converted to UPF format
     Using radial grid of  845 points,  6 beta functions with:
                l(1) =   0
                l(2) =   0
                l(3) =   1
                l(4) =   1
                l(5) =   2
                l(6) =   2
     Q(r) pseudized with  8 coefficients,  rinner =    1.500   1.500   1.500
                                                       1.500   1.500

     PseudoPot. # 2 for Mg read from file:
     /home/pragov/projects/rrg-bengioy-ad/pragov/crystal_structure_design/SSSP/Mg.pbe-n-kjpaw_psl.0.3.0.UPF
     MD5 check sum: 24ecedc7f3e3cbe212e682f4413594e4
     Pseudo is Projector augmented-wave + core cor, Zval =  2.0
     Generated using "atomic" code by A. Dal Corso  v.5.0.99 svn rev. 10869
     Shape of augmentation charge: PSQ
     Using radial grid of 1129 points,  4 beta functions with:
                l(1) =   0
                l(2) =   0
                l(3) =   1
                l(4) =   1
     Q(r) pseudized with 0 coefficients

     atomic species   valence    mass     pseudopotential
        Ca            10.00    40.07800     Ca( 1.00)
        Mg             2.00    24.30500     Mg( 1.00)

     12 Sym. Ops. (no inversion) found

                                    s                        frac. trans.

      isym =  1     identity

 cryst.   s( 1) = (     1          0          0      )
                  (     0          1          0      )
                  (     0          0          1      )

 cart.    s( 1) = (  1.0000000 -0.0000000  0.0000000 )
                  (  0.0000000  1.0000000  0.0000000 )
                  (  0.0000000  0.0000000  1.0000000 )

      isym =  2     180 deg rotation - cart. axis [0,1,0]

[...]

      isym =  3     120 deg rotation - cryst. axis [0,0,1]

[...]

      isym =  6     180 deg rotation - cryst. axis [2,1,0]

[...]

      isym =  7     inv. 180 deg rotation - cart. axis [0,0,1]

[...]

      isym =  8     inv. 180 deg rotation - cart. axis [1,0,0]

[...]

      isym =  9     inv.  60 deg rotation - cryst. axis [0,0,1]

 cryst.   s( 9) = (    -1         -1          0      )
                  (     1          0          0      )
                  (     0          0         -1      )

 cart.    s( 9) = ( -0.5000000  0.8660254  0.0000000 )
                  ( -0.8660254 -0.5000000  0.0000000 )
                  (  0.0000000  0.0000000 -1.0000000 )

[...]

 cryst.   s(10) = (     0          1          0      )
                  (    -1         -1          0      )
                  (     0          0         -1      )

 cart.    s(10) = ( -0.5000000 -0.8660254  0.0000000 )
                  (  0.8660254 -0.5000000  0.0000000 )
                  (  0.0000000  0.0000000 -1.0000000 )

[...]

      isym = 12     inv. 180 deg rotation - cryst. axis [1,1,0]

 cryst.   s(12) = (     0         -1          0      )
                  (    -1          0          0      )
                  (     0          0          1      )

 cart.    s(12) = (  0.5000000 -0.8660254  0.0000000 )
                  ( -0.8660254 -0.5000000  0.0000000 )
                  (  0.0000000  0.0000000  1.0000000 )

   Cartesian axes

     site n.     atom                  positions (alat units)
         1           Ca  tau(   1) = (   0.5000005   0.2886748   0.0000000  )
         2           Mg  tau(   2) = (   0.5000005   0.2886748   0.7926335  )
         3           Mg  tau(   3) = (  -0.0000000   0.2939117   0.0000000  )
         4           Mg  tau(   4) = (  -0.0000000   0.2882029   0.7926335  )
         5           Mg  tau(   5) = (  -0.2454650   0.7190695   0.0000000  )
         6           Mg  tau(   6) = (  -0.2504090   0.7219240   0.7926335  )
         7           Mg  tau(   7) = (   0.2454650   0.7190695   0.0000000  )
         8           Mg  tau(   8) = (   0.2504090   0.7219240   0.7926335  )
         9           Mg  tau(   9) = (  -0.2475555   0.4344235   0.4043715  )
        10           Mg  tau(  10) = (  -0.2475555   0.4344235   1.1808955  )
        11           Mg  tau(  11) = (   0.2475565   0.4344235   0.4043715  )
        12           Mg  tau(  12) = (   0.2475565   0.4344235   1.1808955  )
        13           Mg  tau(  13) = (   0.0000005   0.8632030   0.4043715  )
        14           Mg  tau(  14) = (   0.0000005   0.8632030   1.1808955  )
        15           Mg  tau(  15) = (   0.0000000   0.0000000   0.3928942  )
        16           Mg  tau(  16) = (   0.0000000   0.0000000   1.1923729  )

   Crystallographic axes

     site n.     atom                  positions (cryst. coord.)
         1           Ca  tau(   1) = (  0.6666670  0.3333330  0.0000000  )
         2           Mg  tau(   2) = (  0.6666670  0.3333330  0.5000000  )
         3           Mg  tau(   3) = (  0.1696900  0.3393800  0.0000000  )
         4           Mg  tau(   4) = (  0.1663940  0.3327880  0.5000000  )
         5           Mg  tau(   5) = (  0.1696900  0.8303100  0.0000000  )
         6           Mg  tau(   6) = (  0.1663940  0.8336060  0.5000000  )
         7           Mg  tau(   7) = (  0.6606200  0.8303100  0.0000000  )
         8           Mg  tau(   8) = (  0.6672120  0.8336060  0.5000000  )
         9           Mg  tau(   9) = (  0.0032590  0.5016290  0.2550810  )
        10           Mg  tau(  10) = (  0.0032590  0.5016290  0.7449190  )
        11           Mg  tau(  11) = (  0.4983710  0.5016290  0.2550810  )
        12           Mg  tau(  12) = (  0.4983710  0.5016290  0.7449190  )
        13           Mg  tau(  13) = (  0.4983710  0.9967410  0.2550810  )
        14           Mg  tau(  14) = (  0.4983710  0.9967410  0.7449190  )
        15           Mg  tau(  15) = (  0.0000000  0.0000000  0.2478410  )
        16           Mg  tau(  16) = (  0.0000000  0.0000000  0.7521590  )

     number of k points=     1  Methfessel-Paxton smearing, width (Ry)=  0.0010
                       cart. coord. in units 2pi/alat
        k(    1) = (   0.0000000   0.0000000   0.0000000), wk =   2.0000000

                       cryst. coord.
        k(    1) = (   0.0000000   0.0000000   0.0000000), wk =   2.0000000

     Initial potential from superposition of free atoms

     starting charge      39.9807, renormalised to      40.0000
     Starting wfcs are   70 randomized atomic wfcs
     Checking if some PAW data can be deallocated...

     Self-consistent Calculation

     iteration #  1     ecut=    30.00 Ry     beta= 0.70
     Davidson diagonalization with overlap

     ethr =  1.00E-02,  avg # of iterations =  2.0

     Threshold (ethr) on eigenvalues was too large:
     Diagonalizing with lowered threshold

     Davidson diagonalization with overlap

[...]

     total energy              =    -578.41263670 Ry
     estimated scf accuracy    <       0.24926308 Ry

[...]

     WARNING: integrated charge=    40.00009551, expected=    40.00000000

[...]

     WARNING: integrated charge=    39.99999583, expected=    40.00000000

[...]

     total energy              =    -578.53358930 Ry
     estimated scf accuracy    <       0.00000108 Ry

     iteration # 66     ecut=    30.00 Ry     beta= 0.70
     Davidson diagonalization with overlap

     ethr =  2.50E-09,  avg # of iterations =  1.0

     End of self-consistent calculation

          k = 0.0000 0.0000 0.0000 (  3612 PWs)   bands (ev):

   -37.9942 -19.0747 -19.0429 -19.0429  -2.8941  -1.5281  -1.4329   1.5016
     1.5016   1.7023   1.7397   1.7685   1.7685   2.3735   2.6487   2.7047
     2.7047   2.8279   2.8333   2.8333   2.8353   2.9157   2.9157   3.1589

     occupation numbers
     1.0000   1.0000   1.0000   1.0000   1.0000   1.0000   1.0000   1.0000
     1.0000   1.0000   1.0000   1.0000   1.0000   1.0000   1.0000   1.0000
     1.0000   0.9498   0.7243   0.7219   0.6039  -0.0000  -0.0000  -0.0000

     the Fermi energy is     2.8370 ev

!    total energy              =    -578.53358893 Ry
     estimated scf accuracy    <       0.00000060 Ry
     smearing contrib. (-TS)   =      -0.00073062 Ry
     internal energy E=F+TS    =    -578.53285831 Ry

     The total energy is F=E-TS. E is the sum of the following terms:
     one-electron contribution =     -42.73079641 Ry
     hartree contribution      =      32.64093779 Ry
     xc contribution           =     -35.74011053 Ry
     ewald contribution        =     -63.23918162 Ry
     one-center paw contrib.   =    -469.46370754 Ry
      -> PAW hartree energy AE =      11.95860017 Ry
      -> PAW hartree energy PS =     -11.92833754 Ry
      -> PAW xc energy AE      =    -489.22837680 Ry
      -> PAW xc energy PS      =      19.73440663 Ry
      -> total E_H with PAW    =      32.67120042 Ry
      -> total E_XC with PAW   =    -505.23408070 Ry

     convergence has been achieved in  66 iterations

     Forces acting on atoms (cartesian axes, Ry/au):

     atom    1 type  1   force =     0.00000000   -0.00000000    0.00000000
     atom    2 type  2   force =    -0.00000000   -0.00000000    0.00000000
     atom    3 type  2   force =    -0.00000000    0.01025454    0.00000000
     atom    4 type  2   force =     0.00000000    0.00745013    0.00000000
     atom    5 type  2   force =     0.00888069   -0.00512727   -0.00000000
     atom    6 type  2   force =     0.00645200   -0.00372506    0.00000000
     atom    7 type  2   force =    -0.00888069   -0.00512727   -0.00000000
     atom    8 type  2   force =    -0.00645200   -0.00372506    0.00000000
     atom    9 type  2   force =     0.00623796    0.00360149    0.01402850
     atom   10 type  2   force =     0.00623796    0.00360149   -0.01402850
     atom   11 type  2   force =    -0.00623796    0.00360149    0.01402850
     atom   12 type  2   force =    -0.00623796    0.00360149   -0.01402850
     atom   13 type  2   force =    -0.00000000   -0.00720297    0.01402850
     atom   14 type  2   force =     0.00000000   -0.00720297   -0.01402850
     atom   15 type  2   force =     0.00000000    0.00000000   -0.00156993
     atom   16 type  2   force =     0.00000000    0.00000000    0.00156993
     The non-local contrib.  to forces
     atom    1 type  1   force =     0.00000000    0.00000000    0.00000000
     atom    2 type  2   force =    -0.00000000    0.00000000    0.00000000
     atom    3 type  2   force =    -0.00000000   -0.02808485    0.00000000
     atom    4 type  2   force =    -0.00000000   -0.01396383    0.00000000
     atom    5 type  2   force =    -0.02432220    0.01404243    0.00000000
     atom    6 type  2   force =    -0.01209303    0.00698191   -0.00000000
     atom    7 type  2   force =     0.02432220    0.01404243    0.00000000
     atom    8 type  2   force =     0.01209303    0.00698191    0.00000000
     atom    9 type  2   force =     0.00816721    0.00471534   -0.00278581
     atom   10 type  2   force =     0.00816721    0.00471534    0.00278581
     atom   11 type  2   force =    -0.00816721    0.00471534   -0.00278581
     atom   12 type  2   force =    -0.00816721    0.00471534    0.00278581
     atom   13 type  2   force =    -0.00000000   -0.00943069   -0.00278581
     atom   14 type  2   force =    -0.00000000   -0.00943069    0.00278581
     atom   15 type  2   force =    -0.00000000   -0.00000000   -0.00198467
     atom   16 type  2   force =    -0.00000000    0.00000000    0.00198467
     The ionic contribution  to forces
     atom    1 type  1   force =    -0.00000606    0.00000350   -0.00000000
     atom    2 type  2   force =    -0.00000121    0.00000070    0.00000000
     atom    3 type  2   force =     0.00000464   -0.01004529   -0.00000000
     atom    4 type  2   force =     0.00000134   -0.01429985    0.00000000
     atom    5 type  2   force =    -0.00870105    0.00502355   -0.00000000
     atom    6 type  2   force =    -0.01238452    0.00715021    0.00000000
     atom    7 type  2   force =     0.00870179    0.00501863   -0.00000000
     atom    8 type  2   force =     0.01238471    0.00714876    0.00000000
     atom    9 type  2   force =     0.22386275    0.12924862    0.74872153
     atom   10 type  2   force =     0.22386275    0.12924862   -0.74872153
     atom   11 type  2   force =    -0.22386291    0.12924730    0.74872154
     atom   12 type  2   force =    -0.22386291    0.12924730   -0.74872154
     atom   13 type  2   force =    -0.00000120   -0.25849514    0.74872153
     atom   14 type  2   force =    -0.00000120   -0.25849514   -0.74872153
     atom   15 type  2   force =     0.00000154   -0.00000089    0.52187443
     atom   16 type  2   force =     0.00000154   -0.00000089   -0.52187443
     The local contribution  to forces
     atom    1 type  1   force =     0.00096710    0.00009813   -0.00054655
     atom    2 type  2   force =     0.00017074    0.00004939    0.00004311
     atom    3 type  2   force =    -0.00044576    0.04559779   -0.00008733
     atom    4 type  2   force =    -0.00029924    0.03426459    0.00002382
     atom    5 type  2   force =     0.03943551   -0.02308363   -0.00008765
     atom    6 type  2   force =     0.02962767   -0.01735130    0.00000021
     atom    7 type  2   force =    -0.03942471   -0.02257556   -0.00008444
     atom    8 type  2   force =    -0.02957936   -0.01698761    0.00004407
     atom    9 type  2   force =    -0.22500876   -0.12994461   -0.73224690
     atom   10 type  2   force =    -0.22496671   -0.12992909    0.73233922
     atom   11 type  2   force =     0.22502697   -0.12989189   -0.73218123
     atom   12 type  2   force =     0.22498629   -0.12986644    0.73228829
     atom   13 type  2   force =     0.00005889    0.25983540   -0.73221537
     atom   14 type  2   force =     0.00006860    0.25978889    0.73231177
     atom   15 type  2   force =    -0.00004590    0.00001033   -0.52162260
     atom   16 type  2   force =    -0.00005379    0.00001293    0.52166748
     The core correction contribution to forces
     atom    1 type  1   force =    -0.00000981   -0.00000295   -0.00000107
     atom    2 type  2   force =     0.00000254    0.00000126    0.00000101
     atom    3 type  2   force =    -0.00002282    0.00279532   -0.00000182
     atom    4 type  2   force =    -0.00001587    0.00143196   -0.00000170
     atom    5 type  2   force =     0.00241794   -0.00141203   -0.00000223
     atom    6 type  2   force =     0.00123834   -0.00072790   -0.00000342
     atom    7 type  2   force =    -0.00241706   -0.00138641   -0.00000148
     atom    8 type  2   force =    -0.00123415   -0.00070816   -0.00000031
     atom    9 type  2   force =    -0.00078291   -0.00045294    0.00034047
     atom   10 type  2   force =    -0.00078048   -0.00045197   -0.00033424
     atom   11 type  2   force =     0.00078361   -0.00045195    0.00034164
     atom   12 type  2   force =     0.00078131   -0.00045064   -0.00033383
     atom   13 type  2   force =     0.00000173    0.00090483    0.00034072
     atom   14 type  2   force =     0.00000215    0.00090210   -0.00033404
     atom   15 type  2   force =    -0.00000015    0.00000091    0.00017428
     atom   16 type  2   force =    -0.00000044    0.00000104   -0.00017348
     The Hubbard contrib.    to forces
     atom    1 type  1   force =     0.00000000    0.00000000    0.00000000
     atom    2 type  2   force =     0.00000000    0.00000000    0.00000000
     atom    3 type  2   force =     0.00000000    0.00000000    0.00000000
     atom    4 type  2   force =     0.00000000    0.00000000    0.00000000
     atom    5 type  2   force =     0.00000000    0.00000000    0.00000000
     atom    6 type  2   force =     0.00000000    0.00000000    0.00000000
     atom    7 type  2   force =     0.00000000    0.00000000    0.00000000
     atom    8 type  2   force =     0.00000000    0.00000000    0.00000000
     atom    9 type  2   force =     0.00000000    0.00000000    0.00000000
     atom   10 type  2   force =     0.00000000    0.00000000    0.00000000
     atom   11 type  2   force =     0.00000000    0.00000000    0.00000000
     atom   12 type  2   force =     0.00000000    0.00000000    0.00000000
     atom   13 type  2   force =     0.00000000    0.00000000    0.00000000
     atom   14 type  2   force =     0.00000000    0.00000000    0.00000000
     atom   15 type  2   force =     0.00000000    0.00000000    0.00000000
     atom   16 type  2   force =     0.00000000    0.00000000    0.00000000
     The SCF correction term to forces
     atom    1 type  1   force =    -0.00099107   -0.00012304    0.00050770
     atom    2 type  2   force =    -0.00009104   -0.00002331   -0.00003881
     atom    3 type  2   force =     0.00013377    0.00001116    0.00006301
     atom    4 type  2   force =     0.00009272    0.00003926   -0.00004044
     atom    5 type  2   force =     0.00002574    0.00008198    0.00006045
     atom    6 type  2   force =     0.00005339    0.00004622   -0.00003600
     atom    7 type  2   force =    -0.00002633   -0.00007300    0.00006359
     atom    8 type  2   force =    -0.00005578   -0.00006243   -0.00004421
     atom    9 type  2   force =    -0.00000396    0.00001421    0.00002213
     atom   10 type  2   force =    -0.00001665    0.00001008   -0.00004851
     atom   11 type  2   force =     0.00000306   -0.00001666   -0.00000990
     atom   12 type  2   force =     0.00001560   -0.00002503   -0.00001654
     atom   13 type  2   force =    -0.00002726    0.00000325    0.00000540
     atom   14 type  2   force =    -0.00003102    0.00001680   -0.00003181
     atom   15 type  2   force =     0.00002906   -0.00000084   -0.00000102
     atom   16 type  2   force =     0.00003243   -0.00000194   -0.00002397

     Total force =     0.044486     Total SCF correction =     0.001160

     Computing stress (Cartesian axis) and pressure

          total   stress  (Ry/bohr**3)                   (kbar)     P=       11.17
   0.00020868   0.00000000  -0.00000000           30.70        0.00       -0.00
   0.00000000   0.00020868   0.00000000            0.00       30.70        0.00
   0.00000000   0.00000000  -0.00018959            0.00        0.00      -27.89

     kinetic stress (kbar)   1225.91      0.00     -0.00
                                0.00   1225.91      0.00
                                0.00     -0.00   1133.05

     local   stress (kbar)  -1142.83     -0.05     -0.01
                               -0.05  -1142.78      0.00
                               -0.01      0.00   -217.21

     nonloc. stress (kbar)    713.63      0.00      0.00
                                0.00    713.63      0.00
                                0.00      0.00    709.99

     hartree stress (kbar)    766.33      0.05      0.01
                                0.05    766.29     -0.00
                                0.01     -0.00    321.26

     exc-cor stress (kbar)    234.54     -0.00      0.00
                               -0.00    234.54     -0.00
                                0.00     -0.00    234.26

     corecor stress (kbar)   -717.44      0.00     -0.00
                                0.00   -717.45      0.00
                               -0.00      0.00   -716.36

     ewald   stress (kbar)  -1049.43     -0.00     -0.00
                               -0.00  -1049.43      0.00
                               -0.00      0.00  -1492.87

     hubbard stress (kbar)      0.00      0.00      0.00
                                0.00      0.00      0.00
                                0.00      0.00      0.00

     DFT-D   stress (kbar)      0.00      0.00      0.00
                                0.00      0.00      0.00
                                0.00      0.00      0.00

     XDM     stress (kbar)      0.00      0.00      0.00
                                0.00      0.00      0.00
                                0.00      0.00      0.00

     dft-nl  stress (kbar)      0.00      0.00      0.00
                                0.00      0.00      0.00
                                0.00      0.00      0.00

     TS-vdW  stress (kbar)      0.00      0.00      0.00
                                0.00      0.00      0.00
                                0.00      0.00      0.00

[...]

                                0.00      0.00      0.00

     Writing all to output data dir new_calculations/myprefix.save/

     General routines

     Parallel routines

     PAW routines

   This run was terminated on:   4:12:15  21May2023

   JOB DONE.