     Program PWSCF v.7.0 starts on 21May2023 at  8:11:10

     Reading input from espresso_19851.pwi
Warning: card &CELL ignored
Warning: card / ignored

     Current dimensions of program PWSCF are:
     Max number of different atomic species (ntypx) = 10
     Max number of k-points (npk) =  40000
     Max angular momentum in pseudopotentials (lmaxx) =  4

     gamma-point specific algorithms are used
     Message from routine setup:
     using ibrav=0 with symmetry is DISCOURAGED, use correct ibrav instead

     Subspace diagonalization in iterative solution of the eigenvalue problem:
     a serial algorithm will be used

     Using Slab Decomposition

     bravais-lattice index     =            0
     lattice parameter (alat)  =      14.2606  a.u.
     unit-cell volume          =    2050.6666 (a.u.)^3
     number of atoms/cell      =            9
     number of atomic types    =            3
     number of electrons       =        66.00
     number of Kohn-Sham states=           40
     kinetic-energy cutoff     =      30.0000  Ry
     charge density cutoff     =     240.0000  Ry
     scf convergence threshold =      1.0E-06
     mixing beta               =       0.7000
     number of iterations used =            8  plain     mixing
     Exchange-correlation=  SLA  PW   PBX  PBC
                           (   1   4   3   4   0   0   0)

     celldm(1)=  14.260563  celldm(2)=   0.000000  celldm(3)=   0.000000
     celldm(4)=   0.000000  celldm(5)=   0.000000  celldm(6)=   0.000000

     crystal axes: (cart. coord. in units of alat)
               a(1) = (   1.000000   0.000000   0.000000 )
               a(2) = (   0.500000   0.866025   0.000000 )
               a(3) = (   0.500000   0.288675   0.816497 )

     reciprocal axes: (cart. coord. in units 2 pi/alat)
               b(1) = (  1.000000 -0.577350 -0.408248 )
               b(2) = (  0.000000  1.154701 -0.408248 )
               b(3) = (  0.000000  0.000000  1.224745 )

     PseudoPot. # 1 for Cs read from file:
     /home/pragov/projects/rrg-bengioy-ad/pragov/crystal_structure_design/SSSP/Cs_pbe_v1.uspp.F.UPF
     MD5 check sum: 3476d69cb178dfad3ffaa59df4e07ca4
     Pseudo is Ultrasoft + core correction, Zval =  9.0
     Generated by new atomic code, or converted to UPF format
     Using radial grid of  905 points,  6 beta functions with:
                l(1) =   0
                l(2) =   0
                l(3) =   1
                l(4) =   1
                l(5) =   2
                l(6) =   2
     Q(r) pseudized with  6 coefficients,  rinner =    1.500   1.500   1.500
                                                       1.500   1.500

     PseudoPot. # 2 for Se read from file:
     /home/pragov/projects/rrg-bengioy-ad/pragov/crystal_structure_design/SSSP/Se_pbe_v1.uspp.F.UPF
     MD5 check sum: 1b3568f3a8ae88f9a2a0ad0698632c85
     Pseudo is Ultrasoft + core correction, Zval =  6.0
     Generated by new atomic code, or converted to UPF format
     Using radial grid of  877 points,  6 beta functions with:
                l(1) =   0
                l(2) =   0
                l(3) =   1
                l(4) =   1
                l(5) =   2
                l(6) =   2
     Q(r) pseudized with  8 coefficients,  rinner =    1.300   1.300   1.300
                                                       1.300   1.300

     PseudoPot. # 3 for Cl read from file:
     /home/pragov/projects/rrg-bengioy-ad/pragov/crystal_structure_design/SSSP/cl_pbe_v1.4.uspp.F.UPF
     MD5 check sum: fc6f6913ecf08c9257cb748ef0700058
     Pseudo is Ultrasoft + core correction, Zval =  7.0
     Generated by new atomic code, or converted to UPF format
     Using radial grid of  909 points,  6 beta functions with:
                l(1) =   0
                l(2) =   0
                l(3) =   1
                l(4) =   1
                l(5) =   2
                l(6) =   2
     Q(r) pseudized with  8 coefficients,  rinner =    1.300   1.300   1.300
                                                       1.300   1.300

     atomic species   valence    mass     pseudopotential
        Cs             9.00   132.90545     Cs( 1.00)
        Se             6.00    78.97100     Se( 1.00)
        Cl             7.00    35.45000     Cl( 1.00)

     12 Sym. Ops., with inversion, found

                                    s                        frac. trans.

      isym =  1     identity

 cryst.   s( 1) = (     1          0          0      )
                  (     0          1          0      )
                  (     0          0          1      )

 cart.    s( 1) = (  1.0000000  0.0000000  0.0000000 )
                  (  0.0000000  1.0000000 -0.0000000 )
                  (  0.0000000  0.0000000  1.0000000 )

      isym =  2     180 deg rotation - cart. axis [1,0,0]

[...]

      isym =  3     120 deg rotation - cryst. axis [0,0,1]

[...]

      isym =  6     180 deg rotation - cryst. axis [1,1,0]

[...]

      isym =  7     inversion

[...]

      isym =  8     inv. 180 deg rotation - cart. axis [1,0,0]

[...]

      isym =  9     inv. 120 deg rotation - cryst. axis [0,0,1]

 cryst.   s( 9) = (     1         -1          0      )
                  (     1          0          0      )
                  (     1          0         -1      )

 cart.    s( 9) = (  0.5000000  0.8660254  0.0000000 )
                  ( -0.8660254  0.5000000  0.0000000 )
                  (  0.0000000  0.0000000 -1.0000000 )

[...]

 cryst.   s(10) = (     0          1          0      )
                  (    -1          1          0      )
                  (     0          1         -1      )

 cart.    s(10) = (  0.5000000 -0.8660254  0.0000000 )
                  (  0.8660254  0.5000000 -0.0000000 )
                  (  0.0000000  0.0000000 -1.0000000 )

[...]

      isym = 12     inv. 180 deg rotation - cryst. axis [1,1,0]

 cryst.   s(12) = (     1         -1          0      )
                  (     0         -1          0      )
                  (     0         -1          1      )

 cart.    s(12) = (  0.5000000 -0.8660254  0.0000000 )
                  ( -0.8660254 -0.5000000  0.0000000 )
                  (  0.0000000  0.0000000  1.0000000 )

   Cartesian axes

     site n.     atom                  positions (alat units)
         1           Cs  tau(   1) = (   0.5000000   0.2886751   0.2041241  )
         2           Cs  tau(   2) = (   1.5000000   0.8660254   0.6123724  )
         3           Se  tau(   3) = (   0.0000000   0.0000000   0.0000000  )
         4           Cl  tau(   4) = (   1.2716830   0.4204940   0.6300765  )
         5           Cl  tau(   5) = (   0.7283170   0.4204940   0.6300765  )
         6           Cl  tau(   6) = (   1.2716830   0.7342065   0.1864200  )
         7           Cl  tau(   7) = (   0.7283170   0.7342065   0.1864200  )
         8           Cl  tau(   8) = (   1.0000000   0.8910628   0.6300765  )
         9           Cl  tau(   9) = (   1.0000000   0.2636378   0.1864200  )

   Crystallographic axes

     site n.     atom                  positions (cryst. coord.)
         1           Cs  tau(   1) = (  0.2500000  0.2500000  0.2500000  )
         2           Cs  tau(   2) = (  0.7500000  0.7500000  0.7500000  )
         3           Se  tau(   3) = (  0.0000000  0.0000000  0.0000000  )
         4           Cl  tau(   4) = (  0.7716830  0.2283170  0.7716830  )
         5           Cl  tau(   5) = (  0.2283170  0.2283170  0.7716830  )
         6           Cl  tau(   6) = (  0.7716830  0.7716830  0.2283170  )
         7           Cl  tau(   7) = (  0.2283170  0.7716830  0.2283170  )
         8           Cl  tau(   8) = (  0.2283170  0.7716830  0.7716830  )
         9           Cl  tau(   9) = (  0.7716830  0.2283170  0.2283170  )

     number of k points=     1  Methfessel-Paxton smearing, width (Ry)=  0.0010
                       cart. coord. in units 2pi/alat
        k(    1) = (   0.0000000   0.0000000   0.0000000), wk =   2.0000000

                       cryst. coord.
        k(    1) = (   0.0000000   0.0000000   0.0000000), wk =   2.0000000

     Initial potential from superposition of free atoms

     starting charge      65.9211, renormalised to      66.0000

     negative rho (up, down):  9.471E-02 0.000E+00
     Starting wfcs are   54 randomized atomic wfcs

     Self-consistent Calculation

     iteration #  1     ecut=    30.00 Ry     beta= 0.70
     Davidson diagonalization with overlap

     ethr =  1.00E-02,  avg # of iterations =  3.0

     negative rho (up, down):  9.804E-02 0.000E+00

     total energy              =    -369.68606080 Ry
     estimated scf accuracy    <       0.76403006 Ry

[...]

     total energy              =    -370.09258942 Ry
     estimated scf accuracy    <       0.00000302 Ry

     iteration #  8     ecut=    30.00 Ry     beta= 0.70
     Davidson diagonalization with overlap

     ethr =  4.57E-09,  avg # of iterations =  2.0

[...]

     End of self-consistent calculation

          k = 0.0000 0.0000 0.0000 (  2885 PWs)   bands (ev):

   -17.7173 -17.7039 -13.7562 -11.6304 -11.6304 -11.6303 -11.2606 -11.2605
    -9.4571  -4.6698  -4.6698  -4.6698  -4.5752  -4.5752  -4.5752  -2.7383
    -2.7383  -2.7382  -0.1058  -0.1058  -0.1057   0.3854   0.3855   0.7744
     0.7745   0.7745   0.9319   0.9320   0.9320   0.9835   1.3887   1.3887
     1.3887   4.6694   4.6694   4.6695   7.2091   7.8070   7.8070   8.8353

     occupation numbers
     1.0000   1.0000   1.0000   1.0000   1.0000   1.0000   1.0000   1.0000
     1.0000   1.0000   1.0000   1.0000   1.0000   1.0000   1.0000   1.0000
     1.0000   1.0000   1.0000   1.0000   1.0000   1.0000   1.0000   1.0000
     1.0000   1.0000   1.0000   1.0000   1.0000   1.0000   1.0000   1.0000
     1.0000  -0.0000  -0.0000  -0.0000  -0.0000  -0.0000  -0.0000  -0.0000

     the Fermi energy is     2.2652 ev

!    total energy              =    -370.09259015 Ry
     estimated scf accuracy    <       0.00000007 Ry
     smearing contrib. (-TS)   =       0.00000000 Ry
     internal energy E=F+TS    =    -370.09259015 Ry

     The total energy is F=E-TS. E is the sum of the following terms:
     one-electron contribution =     -67.83592770 Ry
     hartree contribution      =      59.71848483 Ry
     xc contribution           =    -146.91689988 Ry
     ewald contribution        =    -215.05824740 Ry

     convergence has been achieved in   8 iterations

     negative rho (up, down):  9.420E-02 0.000E+00

     Forces acting on atoms (cartesian axes, Ry/au):

     atom    1 type  1   force =    -0.00000000   -0.00000000    0.00000477
     atom    2 type  1   force =    -0.00000000    0.00000000   -0.00000477
     atom    3 type  2   force =     0.00000000    0.00000000    0.00000000
     atom    4 type  3   force =     0.00974667   -0.00562724    0.00795926
     atom    5 type  3   force =    -0.00974667   -0.00562724    0.00795926
     atom    6 type  3   force =     0.00974667    0.00562724   -0.00795926
     atom    7 type  3   force =    -0.00974667    0.00562724   -0.00795926
     atom    8 type  3   force =     0.00000000    0.01125448    0.00795926
     atom    9 type  3   force =     0.00000000   -0.01125448   -0.00795926
     The non-local contrib.  to forces
     atom    1 type  1   force =     0.00000000    0.00000000   -0.00000975
     atom    2 type  1   force =     0.00000000    0.00000000    0.00000975
     atom    3 type  2   force =     0.00000000    0.00000000   -0.00000000
     atom    4 type  3   force =     0.12855132   -0.07421914    0.10496647
     atom    5 type  3   force =    -0.12855132   -0.07421914    0.10496647
     atom    6 type  3   force =     0.12855132    0.07421914   -0.10496647
     atom    7 type  3   force =    -0.12855132    0.07421914   -0.10496647
     atom    8 type  3   force =     0.00000000    0.14843828    0.10496647
     atom    9 type  3   force =     0.00000000   -0.14843828   -0.10496647
     The ionic contribution  to forces
     atom    1 type  1   force =    -0.00000000    0.00000000    0.00000000
     atom    2 type  1   force =     0.00000000   -0.00000000   -0.00000000
     atom    3 type  2   force =    -0.00000000    0.00000000   -0.00000000
     atom    4 type  3   force =    -3.64799531    2.10617108   -2.97857570
     atom    5 type  3   force =     3.64799531    2.10617108   -2.97857570
     atom    6 type  3   force =    -3.64799531   -2.10617108    2.97857570
     atom    7 type  3   force =     3.64799531   -2.10617108    2.97857570
     atom    8 type  3   force =    -0.00000000   -4.21234215   -2.97857570
     atom    9 type  3   force =    -0.00000000    4.21234215    2.97857570
     The local contribution  to forces
     atom    1 type  1   force =    -0.00002283   -0.00003957    0.00001841
     atom    2 type  1   force =     0.00009918   -0.00001029    0.00003671
     atom    3 type  2   force =    -0.00000214    0.00000934   -0.00005405
     atom    4 type  3   force =     3.53223872   -2.03938116    2.88408069
     atom    5 type  3   force =    -3.53226357   -2.03924392    2.88405008
     atom    6 type  3   force =     3.53219199    2.03926987   -2.88409998
     atom    7 type  3   force =    -3.53219174    2.03927615   -2.88397378
     atom    8 type  3   force =    -0.00010935    4.07866354    2.88406932
     atom    9 type  3   force =    -0.00003210   -4.07862153   -2.88405680
     The core correction contribution to forces
     atom    1 type  1   force =    -0.00000144   -0.00001955    0.00000356
     atom    2 type  1   force =     0.00000431   -0.00000069   -0.00000539
     atom    3 type  2   force =     0.00000159    0.00000069   -0.00000391
     atom    4 type  3   force =    -0.00319528    0.00184469   -0.00260961
     atom    5 type  3   force =     0.00319437    0.00184651   -0.00260891
     atom    6 type  3   force =    -0.00319627   -0.00184565    0.00260890
     atom    7 type  3   force =     0.00319510   -0.00184603    0.00261206
     atom    8 type  3   force =    -0.00000213   -0.00368943   -0.00260858
     atom    9 type  3   force =    -0.00000123    0.00368928    0.00260907
     The Hubbard contrib.    to forces
     atom    1 type  1   force =     0.00000000    0.00000000    0.00000000
     atom    2 type  1   force =     0.00000000    0.00000000    0.00000000
     atom    3 type  2   force =     0.00000000    0.00000000    0.00000000
     atom    4 type  3   force =     0.00000000    0.00000000    0.00000000
     atom    5 type  3   force =     0.00000000    0.00000000    0.00000000
     atom    6 type  3   force =     0.00000000    0.00000000    0.00000000
     atom    7 type  3   force =     0.00000000    0.00000000    0.00000000
     atom    8 type  3   force =     0.00000000    0.00000000    0.00000000
     atom    9 type  3   force =     0.00000000    0.00000000    0.00000000
     The SCF correction term to forces
     atom    1 type  1   force =     0.00001983   -0.00002300   -0.00001036
     atom    2 type  1   force =    -0.00006381    0.00001269   -0.00004876
     atom    3 type  2   force =    -0.00001445   -0.00000882    0.00004488
     atom    4 type  3   force =     0.00013263   -0.00005685    0.00012255
     atom    5 type  3   force =    -0.00014475   -0.00015927    0.00013734
     atom    6 type  3   force =     0.00018016    0.00015075   -0.00008706
     atom    7 type  3   force =    -0.00020126    0.00012943   -0.00016825
     atom    8 type  3   force =     0.00006899    0.00018183    0.00011710
     atom    9 type  3   force =    -0.00001415   -0.00024360   -0.00010511

     Total force =     0.033765     Total SCF correction =     0.000618

     Computing stress (Cartesian axis) and pressure

     negative rho (up, down):  9.420E-02 0.000E+00
          total   stress  (Ry/bohr**3)                   (kbar)     P=       28.42
   0.00019322   0.00000000  -0.00000000           28.42        0.00       -0.00
   0.00000000   0.00019322   0.00000000            0.00       28.42        0.00
  -0.00000000   0.00000000   0.00019323           -0.00        0.00       28.42

     kinetic stress (kbar)   4647.16      0.00     -0.00
                                0.00   4647.16      0.00
                                0.00     -0.00   4647.16

     local   stress (kbar)  -4719.21     -0.00     -0.00
                               -0.00  -4719.21      0.00
                               -0.00      0.00  -4719.20

     nonloc. stress (kbar)   5455.43     -0.00     -0.00
                               -0.00   5455.43     -0.00
                               -0.00     -0.00   5455.43

     hartree stress (kbar)   1427.97      0.00      0.00
                                0.00   1427.98     -0.00
                                0.00     -0.00   1427.97

     exc-cor stress (kbar)   5213.70      0.00      0.00
                                0.00   5213.70      0.00
                                0.00      0.00   5213.70

     corecor stress (kbar)  -6854.21      0.00     -0.00
                                0.00  -6854.21     -0.00
                               -0.00     -0.00  -6854.21

     ewald   stress (kbar)  -5142.42      0.00      0.00
                                0.00  -5142.42      0.00
                                0.00      0.00  -5142.42

     hubbard stress (kbar)      0.00      0.00      0.00
                                0.00      0.00      0.00
                                0.00      0.00      0.00

     DFT-D   stress (kbar)      0.00      0.00      0.00
                                0.00      0.00      0.00
                                0.00      0.00      0.00

     XDM     stress (kbar)      0.00      0.00      0.00
                                0.00      0.00      0.00
                                0.00      0.00      0.00

     dft-nl  stress (kbar)      0.00      0.00      0.00
                                0.00      0.00      0.00
                                0.00      0.00      0.00

     TS-vdW  stress (kbar)      0.00      0.00      0.00
                                0.00      0.00      0.00
                                0.00      0.00      0.00

[...]

                                0.00      0.00      0.00

     Writing all to output data dir new_calculations/myprefix.save/

     General routines

     Parallel routines

   This run was terminated on:   8:12:25  21May2023

   JOB DONE.