     Program PWSCF v.7.0 starts on 20May2023 at 22:39:16

     Reading input from espresso_24175.pwi
Warning: card &CELL ignored
Warning: card / ignored

     Current dimensions of program PWSCF are:
     Max number of different atomic species (ntypx) = 10
     Max number of k-points (npk) =  40000
     Max angular momentum in pseudopotentials (lmaxx) =  4
     file In.pbe-dn-rrkjus_psl.0.2.2.UPF: wavefunction(s)  5S renormalized

     gamma-point specific algorithms are used
     Message from routine setup:
     using ibrav=0 with symmetry is DISCOURAGED, use correct ibrav instead

     Subspace diagonalization in iterative solution of the eigenvalue problem:
     a serial algorithm will be used

     Using Slab Decomposition

     bravais-lattice index     =            0
     lattice parameter (alat)  =       8.6187  a.u.
     unit-cell volume          =    2064.2952 (a.u.)^3
     number of atoms/cell      =           12
     number of atomic types    =            3
     number of electrons       =       164.00
     number of Kohn-Sham states=           98
     kinetic-energy cutoff     =      30.0000  Ry
     charge density cutoff     =     240.0000  Ry
     scf convergence threshold =      1.0E-06
     mixing beta               =       0.7000
     number of iterations used =            8  plain     mixing
     Exchange-correlation= PBE
                           (   1   4   3   4   0   0   0)

     celldm(1)=   8.618689  celldm(2)=   0.000000  celldm(3)=   0.000000
     celldm(4)=   0.000000  celldm(5)=   0.000000  celldm(6)=   0.000000

     crystal axes: (cart. coord. in units of alat)
               a(1) = (   1.000000   0.000000   0.000000 )
               a(2) = (   0.000000   1.694532   0.000000 )
               a(3) = (   0.000000   0.000000   1.902823 )

     reciprocal axes: (cart. coord. in units 2 pi/alat)
               b(1) = (  1.000000  0.000000  0.000000 )
               b(2) = (  0.000000  0.590133  0.000000 )
               b(3) = (  0.000000  0.000000  0.525535 )

     PseudoPot. # 1 for Sr read from file:
     /home/pragov/projects/rrg-bengioy-ad/pragov/crystal_structure_design/SSSP/Sr_pbe_v1.uspp.F.UPF
     MD5 check sum: 6b418c05fbe9db5448babca5e47b7a5b
     Pseudo is Ultrasoft + core correction, Zval = 10.0
     Generated by new atomic code, or converted to UPF format
     Using radial grid of  883 points,  6 beta functions with:
                l(1) =   0
                l(2) =   0
                l(3) =   1
                l(4) =   1
                l(5) =   2
                l(6) =   2
     Q(r) pseudized with  6 coefficients,  rinner =    1.400   1.400   1.400
                                                       1.400   1.400

     PseudoPot. # 2 for In read from file:
     /home/pragov/projects/rrg-bengioy-ad/pragov/crystal_structure_design/SSSP/In.pbe-dn-rrkjus_psl.0.2.2.UPF
     MD5 check sum: 25e7c42c3b55b68f4bf926be2e7201a4
     Pseudo is Ultrasoft + core correction, Zval = 13.0
     Generated using "atomic" code by A. Dal Corso  v.5.0.99 svn rev. 10869
     Using radial grid of 1241 points,  6 beta functions with:
                l(1) =   0
                l(2) =   0
                l(3) =   1
                l(4) =   1
                l(5) =   2
                l(6) =   2
     Q(r) pseudized with 0 coefficients

     PseudoPot. # 3 for Pd read from file:
     /home/pragov/projects/rrg-bengioy-ad/pragov/crystal_structure_design/SSSP/Pd_ONCV_PBE-1.0.oncvpsp.upf
     MD5 check sum: eb77f42b51d86fb18e25f68156a31cf1
     Pseudo is Norm-conserving, Zval = 18.0
     Generated using ONCVPSP code by D. R. Hamann
     Using radial grid of 1410 points,  6 beta functions with:
                l(1) =   0
                l(2) =   0
                l(3) =   1
                l(4) =   1
                l(5) =   2
                l(6) =   2

     atomic species   valence    mass     pseudopotential
        Sr            10.00    87.62000     Sr( 1.00)
        In            13.00   114.81800     In( 1.00)
        Pd            18.00   106.42000     Pd( 1.00)

      8 Sym. Ops., with inversion, found ( 6 have fractional translation)

                                    s                        frac. trans.

      isym =  1     identity

 cryst.   s( 1) = (     1          0          0      )
                  (     0          1          0      )
                  (     0          0          1      )

 cart.    s( 1) = (  1.0000000  0.0000000  0.0000000 )
                  (  0.0000000  1.0000000  0.0000000 )
                  (  0.0000000  0.0000000  1.0000000 )

      isym =  2     180 deg rotation - cart. axis [0,0,1]

 cryst.   s( 2) = (    -1          0          0      )    f =(  0.0000000 )
                  (     0         -1          0      )       (  0.5000000 )
                  (     0          0          1      )       ( -0.5000000 )

 cart.    s( 2) = ( -1.0000000  0.0000000  0.0000000 )    f =(  0.0000000 )
                  (  0.0000000 -1.0000000  0.0000000 )       (  0.8472661 )
                  (  0.0000000  0.0000000  1.0000000 )       ( -0.9514113 )

[...]

      isym =  4     180 deg rotation - cart. axis [1,0,0]

[...]

      isym =  5     inversion

 cryst.   s( 5) = (    -1          0          0      )
                  (     0         -1          0      )
                  (     0          0         -1      )

 cart.    s( 5) = ( -1.0000000  0.0000000  0.0000000 )
                  (  0.0000000 -1.0000000  0.0000000 )
                  (  0.0000000  0.0000000 -1.0000000 )

      isym =  6     inv. 180 deg rotation - cart. axis [0,0,1]

[...]

      isym =  8     inv. 180 deg rotation - cart. axis [1,0,0]

 cryst.   s( 8) = (    -1          0          0      )    f =(  0.5000000 )
                  (     0          1          0      )       (  0.0000000 )
                  (     0          0          1      )       (  0.0000000 )

 cart.    s( 8) = ( -1.0000000  0.0000000  0.0000000 )    f =(  0.5000000 )
                  (  0.0000000  1.0000000  0.0000000 )       (  0.0000000 )
                  (  0.0000000  0.0000000  1.0000000 )       (  0.0000000 )

   Cartesian axes

     site n.     atom                  positions (alat units)
         1           Sr  tau(   1) = (   0.2500000   0.0497752   0.6111657  )
         2           Sr  tau(   2) = (   0.2500000   0.8970413   0.3402456  )
         3           Sr  tau(   3) = (   0.7500000   1.6447570   1.2916569  )
         4           Sr  tau(   4) = (   0.7500000   0.7974909   1.5625770  )
         5           In  tau(   5) = (   0.2500000   0.2468696   1.7784503  )
         6           In  tau(   6) = (   0.2500000   1.0941357   1.0757836  )
         7           In  tau(   7) = (   0.7500000   1.4476625   0.1243723  )
         8           In  tau(   8) = (   0.7500000   0.6003965   0.8270390  )
         9           Pd  tau(   9) = (   0.2500000   0.4726728   1.1827394  )
        10           Pd  tau(  10) = (   0.2500000   1.3199389   1.6714946  )
        11           Pd  tau(  11) = (   0.7500000   1.2218594   0.7200833  )
        12           Pd  tau(  12) = (   0.7500000   0.3745933   0.2313280  )

   Crystallographic axes

     site n.     atom                  positions (cryst. coord.)
         1           Sr  tau(   1) = (  0.2500000  0.0293740  0.3211890  )
         2           Sr  tau(   2) = (  0.2500000  0.5293740  0.1788110  )
         3           Sr  tau(   3) = (  0.7500000  0.9706260  0.6788110  )
         4           Sr  tau(   4) = (  0.7500000  0.4706260  0.8211890  )
         5           In  tau(   5) = (  0.2500000  0.1456860  0.9346380  )
         6           In  tau(   6) = (  0.2500000  0.6456860  0.5653620  )
         7           In  tau(   7) = (  0.7500000  0.8543140  0.0653620  )
         8           In  tau(   8) = (  0.7500000  0.3543140  0.4346380  )
         9           Pd  tau(   9) = (  0.2500000  0.2789400  0.6215710  )
        10           Pd  tau(  10) = (  0.2500000  0.7789400  0.8784290  )
        11           Pd  tau(  11) = (  0.7500000  0.7210600  0.3784290  )
        12           Pd  tau(  12) = (  0.7500000  0.2210600  0.1215710  )

     number of k points=     1  Methfessel-Paxton smearing, width (Ry)=  0.0010
                       cart. coord. in units 2pi/alat
        k(    1) = (   0.0000000   0.0000000   0.0000000), wk =   2.0000000

                       cryst. coord.
        k(    1) = (   0.0000000   0.0000000   0.0000000), wk =   2.0000000

     Check: negative core charge=   -0.000003

     Initial potential from superposition of free atoms

     starting charge     163.8491, renormalised to     164.0000

     negative rho (up, down):  2.547E-01 0.000E+00
     Starting wfcs are  128 randomized atomic wfcs

     Self-consistent Calculation

     iteration #  1     ecut=    30.00 Ry     beta= 0.70
     Davidson diagonalization with overlap

     ethr =  1.00E-02,  avg # of iterations =  3.0

     negative rho (up, down):  2.616E-01 0.000E+00

     total energy              =   -1871.42450356 Ry
     estimated scf accuracy    <       1.98454159 Ry

[...]

     total energy              =   -1872.54633744 Ry
     estimated scf accuracy    <       0.00000220 Ry

     iteration # 14     ecut=    30.00 Ry     beta= 0.70
     Davidson diagonalization with overlap

     ethr =  1.34E-09,  avg # of iterations =  3.0

[...]

     End of self-consistent calculation

          k = 0.0000 0.0000 0.0000 (  2878 PWs)   bands (ev):

   -74.1232 -74.1227 -74.1217 -74.1205 -39.7099 -39.7093 -39.7072 -39.7062
   -39.4897 -39.4887 -39.4872 -39.4860 -39.3651 -39.3641 -39.3634 -39.3621
   -24.2140 -24.2031 -24.1963 -24.1860  -6.4422  -6.4361  -6.4227  -6.3914
    -6.2698  -6.2574  -6.2305  -6.2127  -6.1978  -6.1840  -6.1252  -6.1042
    -3.2311  -3.2272  -3.2211  -3.2025  -3.1842  -3.1800  -3.1608  -3.1569
    -3.1490  -3.1417  -3.1384  -3.1332  -3.0980  -3.0863  -3.0860  -3.0813
    -3.0690  -3.0623  -3.0205  -3.0196   3.6129   4.5886   5.8590   6.0393
     7.3458   7.7896   7.8148   7.8431   8.0785   8.1270   8.1949   8.3184
     8.3387   8.4033   8.4232   8.4282   8.5365   8.5622   8.6174   8.6303
     8.6816   8.6907   8.7792   9.1739   9.1751   9.2609   9.9888  10.5173
    11.0001  11.6955  12.0253  12.0678  12.6836  12.7774  12.9725  13.3418
    13.4348  13.8426  14.2556  14.3722  14.4872  14.5858  14.7017  14.7867
    15.0890  15.2673

     occupation numbers
     1.0000   1.0000   1.0000   1.0000   1.0000   1.0000   1.0000   1.0000
     1.0000   1.0000   1.0000   1.0000   1.0000   1.0000   1.0000   1.0000
     1.0000   1.0000   1.0000   1.0000   1.0000   1.0000   1.0000   1.0000
     1.0000   1.0000   1.0000   1.0000   1.0000   1.0000   1.0000   1.0000
     1.0000   1.0000   1.0000   1.0000   1.0000   1.0000   1.0000   1.0000
     1.0000   1.0000   1.0000   1.0000   1.0000   1.0000   1.0000   1.0000
     1.0000   1.0000   1.0000   1.0000   1.0000   1.0000   1.0000   1.0000
     1.0000   1.0000   1.0000   1.0000   1.0000   1.0000   1.0000   1.0000
     1.0000   1.0000   1.0000   1.0000   1.0000   1.0000   1.0000   1.0000
     1.0000   1.0000   1.0000   1.0000   1.0000   1.0000   1.0000   1.0000
     1.0000   1.0000  -0.0000  -0.0000  -0.0000  -0.0000  -0.0000  -0.0000
    -0.0000  -0.0000  -0.0000  -0.0000  -0.0000  -0.0000  -0.0000  -0.0000
    -0.0000  -0.0000

     the Fermi energy is    11.9009 ev

!    total energy              =   -1872.54633750 Ry
     estimated scf accuracy    <       0.00000062 Ry
     smearing contrib. (-TS)   =       0.00000000 Ry
     internal energy E=F+TS    =   -1872.54633750 Ry

     The total energy is F=E-TS. E is the sum of the following terms:
     one-electron contribution =    -854.80893342 Ry
     hartree contribution      =     511.86743916 Ry
     xc contribution           =    -362.96972721 Ry
     ewald contribution        =   -1166.63511604 Ry

     convergence has been achieved in  14 iterations

     negative rho (up, down):  2.694E-01 0.000E+00

     Forces acting on atoms (cartesian axes, Ry/au):

     atom    1 type  1   force =     0.00000000   -0.01171522    0.00140022
     atom    2 type  1   force =     0.00000000   -0.01171522   -0.00140022
     atom    3 type  1   force =     0.00000000    0.01171522   -0.00140022
     atom    4 type  1   force =     0.00000000    0.01171522    0.00140022
     atom    5 type  2   force =     0.00000000   -0.02084402   -0.03354945
     atom    6 type  2   force =     0.00000000   -0.02084402    0.03354945
     atom    7 type  2   force =    -0.00000000    0.02084402    0.03354945
     atom    8 type  2   force =     0.00000000    0.02084402   -0.03354945
     atom    9 type  3   force =     0.00000000    0.00303091    0.02209095
     atom   10 type  3   force =     0.00000000    0.00303091   -0.02209095
     atom   11 type  3   force =     0.00000000   -0.00303091   -0.02209095
     atom   12 type  3   force =     0.00000000   -0.00303091    0.02209095
     The non-local contrib.  to forces
     atom    1 type  1   force =     0.00000000    0.00657624   -0.05632910
     atom    2 type  1   force =     0.00000000    0.00657624    0.05632910
     atom    3 type  1   force =     0.00000000   -0.00657624    0.05632910
     atom    4 type  1   force =     0.00000000   -0.00657624   -0.05632910
     atom    5 type  2   force =    -0.00000000    0.06409857    0.15579807
     atom    6 type  2   force =     0.00000000    0.06409857   -0.15579807
     atom    7 type  2   force =    -0.00000000   -0.06409857   -0.15579807
     atom    8 type  2   force =     0.00000000   -0.06409857    0.15579807
     atom    9 type  3   force =     0.00000000   -0.08692924   -0.18165175
     atom   10 type  3   force =     0.00000000   -0.08692924    0.18165175
     atom   11 type  3   force =     0.00000000    0.08692924    0.18165175
     atom   12 type  3   force =     0.00000000    0.08692924   -0.18165175
     The ionic contribution  to forces
     atom    1 type  1   force =    -0.00000000   -1.00661093    3.35460460
     atom    2 type  1   force =     0.00000000   -1.00661093   -3.35460460
     atom    3 type  1   force =    -0.00000000    1.00661093   -3.35460460
     atom    4 type  1   force =     0.00000000    1.00661093    3.35460460
     atom    5 type  2   force =     0.00000000    5.05835205   -2.04737009
     atom    6 type  2   force =    -0.00000000    5.05835205    2.04737009
     atom    7 type  2   force =    -0.00000000   -5.05835205    2.04737009
     atom    8 type  2   force =     0.00000000   -5.05835205   -2.04737009
     atom    9 type  3   force =    -0.00000000   -7.82336833    1.98957069
     atom   10 type  3   force =    -0.00000000   -7.82336833   -1.98957069
     atom   11 type  3   force =     0.00000000    7.82336833   -1.98957069
     atom   12 type  3   force =     0.00000000    7.82336833    1.98957069
     The local contribution  to forces
     atom    1 type  1   force =     0.00001069    0.98835230   -3.30050398
     atom    2 type  1   force =     0.00000218    0.98943491    3.30143608
     atom    3 type  1   force =    -0.00000385   -0.98895513    3.30064437
     atom    4 type  1   force =     0.00001159   -0.98865351   -3.30184826
     atom    5 type  2   force =    -0.00000078   -5.13676110    1.85899054
     atom    6 type  2   force =     0.00000815   -5.13738151   -1.86011363
     atom    7 type  2   force =    -0.00001144    5.13627683   -1.85953076
     atom    8 type  2   force =    -0.00000280    5.13787551    1.86104000
     atom    9 type  3   force =    -0.00001529    7.91456000   -1.78619938
     atom   10 type  3   force =    -0.00001830    7.91274020    1.78548882
     atom   11 type  3   force =    -0.00000928   -7.91418965    1.78715266
     atom   12 type  3   force =    -0.00000308   -7.91354555   -1.78636587
     The core correction contribution to forces
     atom    1 type  1   force =     0.00000014   -0.00052101    0.00409073
     atom    2 type  1   force =    -0.00000001   -0.00052678   -0.00409851
     atom    3 type  1   force =     0.00000005    0.00052884   -0.00409208
     atom    4 type  1   force =     0.00000052    0.00052455    0.00409761
     atom    5 type  2   force =    -0.00000019   -0.00655010   -0.00172005
     atom    6 type  2   force =     0.00000054   -0.00655219    0.00171779
     atom    7 type  2   force =    -0.00000023    0.00653928    0.00171111
     atom    8 type  2   force =    -0.00000014    0.00655220   -0.00170838
     atom    9 type  3   force =     0.00000000    0.00000000    0.00000000
     atom   10 type  3   force =     0.00000000    0.00000000    0.00000000
     atom   11 type  3   force =     0.00000000    0.00000000    0.00000000
     atom   12 type  3   force =     0.00000000    0.00000000    0.00000000
     The Hubbard contrib.    to forces
     atom    1 type  1   force =     0.00000000    0.00000000    0.00000000
     atom    2 type  1   force =     0.00000000    0.00000000    0.00000000
     atom    3 type  1   force =     0.00000000    0.00000000    0.00000000
     atom    4 type  1   force =     0.00000000    0.00000000    0.00000000
     atom    5 type  2   force =     0.00000000    0.00000000    0.00000000
     atom    6 type  2   force =     0.00000000    0.00000000    0.00000000
     atom    7 type  2   force =     0.00000000    0.00000000    0.00000000
     atom    8 type  2   force =     0.00000000    0.00000000    0.00000000
     atom    9 type  3   force =     0.00000000    0.00000000    0.00000000
     atom   10 type  3   force =     0.00000000    0.00000000    0.00000000
     atom   11 type  3   force =     0.00000000    0.00000000    0.00000000
     atom   12 type  3   force =     0.00000000    0.00000000    0.00000000
     The SCF correction term to forces
     atom    1 type  1   force =    -0.00000659    0.00054528   -0.00049538
     atom    2 type  1   force =    -0.00000264   -0.00060262   -0.00048299
     atom    3 type  1   force =     0.00000354    0.00013231    0.00032583
     atom    4 type  1   force =    -0.00000821   -0.00017287    0.00089088
     atom    5 type  2   force =    -0.00000027   -0.00000400    0.00082247
     atom    6 type  2   force =    -0.00000632    0.00063308    0.00036247
     atom    7 type  2   force =     0.00001259    0.00047516   -0.00020480
     atom    8 type  2   force =     0.00000910   -0.00115627   -0.00139213
     atom    9 type  3   force =     0.00001464   -0.00119801    0.00015172
     atom   10 type  3   force =     0.00001624    0.00058320    0.00028957
     atom   11 type  3   force =     0.00000439    0.00079092   -0.00127898
     atom   12 type  3   force =     0.00000305    0.00031574    0.00075363

     Total force =     0.093732     Total SCF correction =     0.003413

     Computing stress (Cartesian axis) and pressure

     negative rho (up, down):  2.694E-01 0.000E+00
          total   stress  (Ry/bohr**3)                   (kbar)     P=     -331.88
  -0.00258186   0.00000000   0.00000000         -379.80        0.00        0.00
   0.00000000  -0.00190692   0.00000000            0.00     -280.52        0.00
   0.00000000   0.00000000  -0.00227952            0.00        0.00     -335.33

     kinetic stress (kbar)  25211.11      0.00      0.00
                                0.00  25661.28      0.00
                                0.00      0.00  25430.36

     local   stress (kbar) -13913.53     -0.00      0.00
                               -0.00  -9731.80      0.25
                                0.00      0.25 -12036.30

     nonloc. stress (kbar)   7249.52      0.00      0.00
                                0.00   7242.13      0.00
                                0.00      0.00   7269.32

     hartree stress (kbar)  13043.18      0.00     -0.00
                                0.00  11276.31     -0.20
                               -0.00     -0.20  12157.03

     exc-cor stress (kbar)   5620.34      0.00     -0.00
                                0.00   5621.60     -0.00
                               -0.00     -0.00   5620.63

     corecor stress (kbar) -11190.46     -0.00      0.00
                               -0.00 -11195.22     -0.00
                                0.00     -0.00 -11194.81

     ewald   stress (kbar) -26399.97     -0.00     -0.00
                               -0.00 -29154.82      0.00
                               -0.00      0.00 -27581.55

     hubbard stress (kbar)      0.00      0.00      0.00
                                0.00      0.00      0.00
                                0.00      0.00      0.00

     DFT-D   stress (kbar)      0.00      0.00      0.00
                                0.00      0.00      0.00
                                0.00      0.00      0.00

     XDM     stress (kbar)      0.00      0.00      0.00
                                0.00      0.00      0.00
                                0.00      0.00      0.00

     dft-nl  stress (kbar)      0.00      0.00      0.00
                                0.00      0.00      0.00
                                0.00      0.00      0.00

     TS-vdW  stress (kbar)      0.00      0.00      0.00
                                0.00      0.00      0.00
                                0.00      0.00      0.00

[...]

                                0.00      0.00      0.00

     Writing all to output data dir new_calculations/myprefix.save/

     General routines

     Parallel routines

   This run was terminated on:  22:39:43  20May2023

   JOB DONE.