     Program PWSCF v.7.0 starts on 20May2023 at 17: 2:33

     Reading input from espresso_12392.pwi
Warning: card &CELL ignored
Warning: card / ignored

     Current dimensions of program PWSCF are:
     Max number of different atomic species (ntypx) = 10
     Max number of k-points (npk) =  40000
     Max angular momentum in pseudopotentials (lmaxx) =  4

     gamma-point specific algorithms are used
     Message from routine setup:
     using ibrav=0 with symmetry is DISCOURAGED, use correct ibrav instead

     Subspace diagonalization in iterative solution of the eigenvalue problem:
     a serial algorithm will be used

     Using Slab Decomposition

     bravais-lattice index     =            0
     lattice parameter (alat)  =      13.8051  a.u.
     unit-cell volume          =    2025.3310 (a.u.)^3
     number of atoms/cell      =           17
     number of atomic types    =            3
     number of electrons       =       120.00
     number of Kohn-Sham states=           72
     kinetic-energy cutoff     =      30.0000  Ry
     charge density cutoff     =     240.0000  Ry
     scf convergence threshold =      1.0E-06
     mixing beta               =       0.7000
     number of iterations used =            8  plain     mixing
     Exchange-correlation=  SLA  PW   PBX  PBC
                           (   1   4   3   4   0   0   0)

     celldm(1)=  13.805092  celldm(2)=   0.000000  celldm(3)=   0.000000
     celldm(4)=   0.000000  celldm(5)=   0.000000  celldm(6)=   0.000000

     crystal axes: (cart. coord. in units of alat)
               a(1) = (   1.000000   0.000000   0.000000 )
               a(2) = (  -0.333333   0.942809   0.000000 )
               a(3) = (  -0.333333  -0.471405   0.816497 )

     reciprocal axes: (cart. coord. in units 2 pi/alat)
               b(1) = (  1.000000  0.353553  0.612372 )
               b(2) = (  0.000000  1.060660  0.612372 )
               b(3) = (  0.000000  0.000000  1.224745 )

     PseudoPot. # 1 for P  read from file:
     /home/pragov/projects/rrg-bengioy-ad/pragov/crystal_structure_design/SSSP/P.pbe-n-rrkjus_psl.1.0.0.UPF
     MD5 check sum: 8b930f418f0a4573dca56cd030ffe088
     Pseudo is Ultrasoft + core correction, Zval =  5.0
     Generated using "atomic" code by A. Dal Corso  v.5.1
     Using radial grid of 1147 points,  6 beta functions with:
                l(1) =   0
                l(2) =   0
                l(3) =   1
                l(4) =   1
                l(5) =   2
                l(6) =   2
     Q(r) pseudized with 0 coefficients

     PseudoPot. # 2 for Pt read from file:
     /home/pragov/projects/rrg-bengioy-ad/pragov/crystal_structure_design/SSSP/pt_pbe_v1.4.uspp.F.UPF
     MD5 check sum: f09d6de1a584b5a045c4fc126da2d0c4
     Pseudo is Ultrasoft + core correction, Zval = 16.0
     Generated by new atomic code, or converted to UPF format
     Using radial grid of  985 points,  6 beta functions with:
                l(1) =   0
                l(2) =   0
                l(3) =   1
                l(4) =   1
                l(5) =   2
                l(6) =   2
     Q(r) pseudized with  8 coefficients,  rinner =    1.300   1.300   1.300
                                                       1.300   1.300

     PseudoPot. # 3 for F  read from file:
     /home/pragov/projects/rrg-bengioy-ad/pragov/crystal_structure_design/SSSP/f_pbe_v1.4.uspp.F.UPF
     MD5 check sum: 4c38b6a325caf53ec0e86aed9459de46
     Pseudo is Ultrasoft, Zval =  7.0
     Generated by new atomic code, or converted to UPF format
     Using radial grid of  799 points,  4 beta functions with:
                l(1) =   0
                l(2) =   0
                l(3) =   1
                l(4) =   1
     Q(r) pseudized with  8 coefficients,  rinner =    0.950   0.950   0.950

     atomic species   valence    mass     pseudopotential
        P              5.00    30.97376     P ( 1.00)
        Pt            16.00   195.08400     Pt( 1.00)
        F              7.00    18.99840     F ( 1.00)

      2 Sym. Ops. (no inversion) found

                                    s                        frac. trans.

      isym =  1     identity

 cryst.   s( 1) = (     1          0          0      )
                  (     0          1          0      )
                  (     0          0          1      )

 cart.    s( 1) = (  1.0000000 -0.0000000  0.0000000 )
                  (  0.0000000  1.0000000 -0.0000000 )
                  (  0.0000000  0.0000000  1.0000000 )

      isym =  2     inv. 180 deg rotation - cart. axis [0,0,1]

 cryst.   s( 2) = (     1          0          0      )
                  (     0          1          0      )
                  (    -1         -1         -1      )

 cart.    s( 2) = (  1.0000000 -0.0000000 -0.0000000 )
                  (  0.0000000  1.0000000 -0.0000000 )
                  (  0.0000000  0.0000000 -1.0000000 )

   Cartesian axes

     site n.     atom                  positions (alat units)
         1           P   tau(   1) = (   0.2303623   0.3257815   0.5642702  )
         2           P   tau(   2) = (   0.8970290   0.2912460   0.0000000  )
         3           P   tau(   3) = (   0.3089130   0.0000000   0.0000000  )
         4           P   tau(   4) = (  -0.1029710  -0.1456230   0.2522264  )
         5           Pt  tau(   5) = (   0.0000000   0.0000000   0.0000000  )
         6           F   tau(   6) = (   0.4393157   0.6212862   0.2301777  )
         7           F   tau(   7) = (   0.1059817   0.4328267   0.4229599  )
         8           F   tau(   8) = (   0.7726487   0.3601021   0.1633581  )
         9           F   tau(   9) = (   0.0394113  -0.2272085   0.3935367  )
        10           F   tau(  10) = (   0.4152913  -0.0943148   0.1633581  )
        11           F   tau(  11) = (   0.1059817   0.1498807   0.5863188  )
        12           F   tau(  12) = (   0.4393157  -0.1113033   0.6531385  )
        13           F   tau(  13) = (   0.4152913   0.1886297   0.0000000  )
        14           F   tau(  14) = (   0.0394113   0.4544170   0.0000000  )
        15           F   tau(  15) = (   0.7726487  -0.0385788   0.3935367  )
        16           F   tau(  16) = (   0.3727457   0.2441960   0.4229599  )
        17           F   tau(  17) = (  -0.2513763   0.3770897   0.6531385  )

   Crystallographic axes

     site n.     atom                  positions (cryst. coord.)
         1           P   tau(   1) = (  0.6910870  0.6910870  0.6910870  )
         2           P   tau(   2) = (  1.0000000  0.3089130  0.0000000  )
         3           P   tau(   3) = (  0.3089130  0.0000000  0.0000000  )
         4           P   tau(   4) = ( -0.0000000 -0.0000000  0.3089130  )
         5           Pt  tau(   5) = (  0.0000000  0.0000000  0.0000000  )
         6           F   tau(   6) = (  0.7999280  0.7999280  0.2819090  )
         7           F   tau(   7) = (  0.5180180  0.7180910  0.5180180  )
         8           F   tau(   8) = (  1.0000000  0.4819820  0.2000720  )
         9           F   tau(   9) = (  0.2000720  0.0000000  0.4819820  )
        10           F   tau(  10) = (  0.4819820  0.0000000  0.2000720  )
        11           F   tau(  11) = (  0.5180180  0.5180180  0.7180910  )
        12           F   tau(  12) = (  0.7999280  0.2819090  0.7999280  )
        13           F   tau(  13) = (  0.4819820  0.2000720  0.0000000  )
        14           F   tau(  14) = (  0.2000720  0.4819820  0.0000000  )
        15           F   tau(  15) = (  1.0000000  0.2000720  0.4819820  )
        16           F   tau(  16) = (  0.7180910  0.5180180  0.5180180  )
        17           F   tau(  17) = (  0.2819090  0.7999280  0.7999280  )

     number of k points=     1  Methfessel-Paxton smearing, width (Ry)=  0.0010
                       cart. coord. in units 2pi/alat
        k(    1) = (   0.0000000   0.0000000   0.0000000), wk =   2.0000000

                       cryst. coord.
        k(    1) = (   0.0000000   0.0000000   0.0000000), wk =   2.0000000

     Initial potential from superposition of free atoms

     starting charge     119.4993, renormalised to     120.0000

     negative rho (up, down):  1.911E-01 0.000E+00
     Starting wfcs are   76 randomized atomic wfcs

     Self-consistent Calculation

     iteration #  1     ecut=    30.00 Ry     beta= 0.70
     Davidson diagonalization with overlap

     ethr =  1.00E-02,  avg # of iterations =  5.0

     negative rho (up, down):  1.624E-01 0.000E+00

     total energy              =    -847.71391997 Ry
     estimated scf accuracy    <       1.38470799 Ry

[...]

     total energy              =    -848.42208682 Ry
     estimated scf accuracy    <       0.00000458 Ry

     iteration #  8     ecut=    30.00 Ry     beta= 0.70
     Davidson diagonalization with overlap

     ethr =  3.81E-09,  avg # of iterations =  2.0

[...]

     End of self-consistent calculation

          k = 0.0000 0.0000 0.0000 (  2741 PWs)   bands (ev):

   -51.1098 -50.0096 -49.5234 -25.7021 -25.6878 -25.4915 -25.3675 -24.8543
   -24.7320 -24.6188 -24.4773 -24.3948 -24.3068 -24.2758 -23.9861  -9.6784
    -9.4127  -9.3627  -9.3365  -6.2725  -6.1755  -6.1551  -6.1060  -6.0264
    -5.9398  -5.9110  -5.8226  -5.7125  -5.3574  -5.3130  -5.0350  -4.2024
    -4.1093  -4.0210  -3.9743  -3.7503  -3.6573  -3.6094  -3.4353  -3.3249
    -3.2556  -3.1725  -3.0439  -2.9378  -2.8739  -2.7425  -2.6951  -2.6523
    -2.5213  -2.4502  -2.2968  -2.2628  -2.2000  -1.9598  -1.8281  -0.5954
    -0.4763   1.2983   1.5727   1.7218   6.2684   6.4387   6.5710   6.6582
     6.8791   6.9581   7.0077   7.6653   7.7811   8.7830  10.2178  10.3076

     occupation numbers
     1.0000   1.0000   1.0000   1.0000   1.0000   1.0000   1.0000   1.0000
     1.0000   1.0000   1.0000   1.0000   1.0000   1.0000   1.0000   1.0000
     1.0000   1.0000   1.0000   1.0000   1.0000   1.0000   1.0000   1.0000
     1.0000   1.0000   1.0000   1.0000   1.0000   1.0000   1.0000   1.0000
     1.0000   1.0000   1.0000   1.0000   1.0000   1.0000   1.0000   1.0000
     1.0000   1.0000   1.0000   1.0000   1.0000   1.0000   1.0000   1.0000
     1.0000   1.0000   1.0000   1.0000   1.0000   1.0000   1.0000   1.0000
     1.0000   1.0000   1.0000   1.0000  -0.0000  -0.0000  -0.0000  -0.0000
    -0.0000  -0.0000  -0.0000  -0.0000  -0.0000  -0.0000  -0.0000  -0.0000

     the Fermi energy is     2.7324 ev

!    total energy              =    -848.42208724 Ry
     estimated scf accuracy    <       0.00000064 Ry
     smearing contrib. (-TS)   =       0.00000000 Ry
     internal energy E=F+TS    =    -848.42208724 Ry

     The total energy is F=E-TS. E is the sum of the following terms:
     one-electron contribution =    -557.11924082 Ry
     hartree contribution      =     328.37360727 Ry
     xc contribution           =    -185.91906145 Ry
     ewald contribution        =    -433.75739224 Ry

     convergence has been achieved in   8 iterations

     negative rho (up, down):  1.605E-01 0.000E+00

     Forces acting on atoms (cartesian axes, Ry/au):

     atom    1 type  1   force =     0.01178535    0.00633414    0.01987287
     atom    2 type  1   force =     0.01890133   -0.02157185    0.00000000
     atom    3 type  1   force =    -0.02494973    0.01862704   -0.00000000
     atom    4 type  1   force =     0.01178535    0.00633414   -0.01987287
     atom    5 type  2   force =     0.05919089    0.03175389   -0.00000000
     atom    6 type  3   force =    -0.01312385   -0.03411631    0.01318891
     atom    7 type  3   force =    -0.02315267   -0.03691287    0.01993928
     atom    8 type  3   force =    -0.00491272    0.01403967    0.03734972
     atom    9 type  3   force =     0.00080653   -0.03462125   -0.00121840
     atom   10 type  3   force =    -0.00125282    0.05070681    0.00471104
     atom   11 type  3   force =    -0.01312385   -0.03411631   -0.01318891
     atom   12 type  3   force =    -0.00491272    0.01403967   -0.03734972
     atom   13 type  3   force =    -0.00296107    0.01607468   -0.00000000
     atom   14 type  3   force =     0.00951892    0.02425584   -0.00000000
     atom   15 type  3   force =    -0.02315267   -0.03691287   -0.01993928
     atom   16 type  3   force =     0.00080653   -0.03462125    0.00121840
     atom   17 type  3   force =    -0.00125282    0.05070681   -0.00471104
     The non-local contrib.  to forces
     atom    1 type  1   force =    -0.18761566   -0.24526927   -0.45518595
     atom    2 type  1   force =    -0.17923098    0.51736763   -0.00000000
     atom    3 type  1   force =     0.56333665    0.00788638   -0.00000000
     atom    4 type  1   force =    -0.18761566   -0.24526927    0.45518595
     atom    5 type  2   force =    -0.00405976    0.00333594   -0.00000000
     atom    6 type  3   force =     1.17473549    1.69473239    0.28290357
     atom    7 type  3   force =     1.22257256   -1.16271194    1.36416603
     atom    8 type  3   force =     1.21399296   -0.60650792   -1.63500876
     atom    9 type  3   force =    -1.45626758    0.75719116   -1.34431174
     atom   10 type  3   force =    -0.97797412    0.99966180   -1.64348212
     atom   11 type  3   force =     1.17473549    1.69473239   -0.28290357
     atom   12 type  3   force =     1.21399296   -0.60650792    1.63500876
     atom   13 type  3   force =    -0.99427040   -1.86790764    0.00000000
     atom   14 type  3   force =    -1.39993771   -1.53591188    0.00000000
     atom   15 type  3   force =     1.22257256   -1.16271194   -1.36416603
     atom   16 type  3   force =    -1.45626758    0.75719116    1.34431174
     atom   17 type  3   force =    -0.97797412    0.99966180    1.64348212
     The ionic contribution  to forces
     atom    1 type  1   force =     0.79883294    1.12972038    1.95673309
     atom    2 type  1   force =     0.79890566   -2.25956930    0.00004453
     atom    3 type  1   force =    -2.39664425    0.00002571    0.00004453
     atom    4 type  1   force =     0.79890566    1.12982322   -1.95682215
     atom    5 type  2   force =    -0.00000000   -0.00000000   -0.00000001
     atom    6 type  3   force =    -6.30086475   -8.91076839   -2.43885500
     atom    7 type  3   force =    -6.30075278    6.56736376   -6.49741697
     atom    8 type  3   force =    -6.30081853    2.34325670    8.93633154
     atom    9 type  3   force =     8.29213519   -3.75131475    6.49748561
     atom   10 type  3   force =     4.30951645   -5.15938311    8.93633154
     atom   11 type  3   force =    -6.30075278   -8.91061004    2.43879537
     atom   12 type  3   force =    -6.30086475    2.34327381   -8.93637929
     atom   13 type  3   force =     4.30951645   10.31878169    0.00000893
     atom   14 type  3   force =     8.29213519    7.50264497    0.00000893
     atom   15 type  3   force =    -6.30081853    6.56746178    6.49748561
     atom   16 type  3   force =     8.29202086   -3.75128544   -6.49741697
     atom   17 type  3   force =     4.30954798   -5.15942099   -8.93637929
     The local contribution  to forces
     atom    1 type  1   force =    -0.60874306   -0.87145623   -1.50100835
     atom    2 type  1   force =    -0.60809111    1.73548562    0.00350857
     atom    3 type  1   force =     1.82477678    0.00946210    0.00717200
     atom    4 type  1   force =    -0.60454128   -0.90311027    1.49198848
     atom    5 type  2   force =     0.06538659    0.02367569   -0.00633207
     atom    6 type  3   force =     5.09462580    7.18809701    2.17847675
     atom    7 type  3   force =     5.05782712   -5.44837527    5.16549947
     atom    8 type  3   force =     5.05829999   -1.72800780   -7.24637489
     atom    9 type  3   force =    -6.84304597    2.96937981   -5.15883534
     atom   10 type  3   force =    -3.34099325    4.21525994   -7.32134251
     atom   11 type  3   force =     5.13027803    7.17278053   -2.16005390
     atom   12 type  3   force =     5.10425227   -1.72073337    7.28230382
     atom   13 type  3   force =    -3.31929324   -8.43714255   -0.05678537
     atom   14 type  3   force =    -6.88391841   -5.94443046   -0.00055800
     atom   15 type  3   force =     5.05120285   -5.43882258   -5.14135960
     atom   16 type  3   force =    -6.82912619    2.94646381    5.15030593
     atom   17 type  3   force =    -3.32695423    4.20301051    7.25607804
     The core correction contribution to forces
     atom    1 type  1   force =     0.00625572    0.00862325    0.01427756
     atom    2 type  1   force =     0.00646220   -0.01668888    0.00047205
     atom    3 type  1   force =    -0.01753109   -0.00042053    0.00066916
     atom    4 type  1   force =     0.00679938    0.00621779   -0.01541082
     atom    5 type  2   force =    -0.00213670    0.00271760   -0.00239859
     atom    6 type  3   force =     0.00000000    0.00000000    0.00000000
     atom    7 type  3   force =     0.00000000    0.00000000    0.00000000
     atom    8 type  3   force =     0.00000000    0.00000000    0.00000000
     atom    9 type  3   force =     0.00000000    0.00000000    0.00000000
     atom   10 type  3   force =     0.00000000    0.00000000    0.00000000
     atom   11 type  3   force =     0.00000000    0.00000000    0.00000000
     atom   12 type  3   force =     0.00000000    0.00000000    0.00000000
     atom   13 type  3   force =     0.00000000    0.00000000    0.00000000
     atom   14 type  3   force =     0.00000000    0.00000000    0.00000000
     atom   15 type  3   force =     0.00000000    0.00000000    0.00000000
     atom   16 type  3   force =     0.00000000    0.00000000    0.00000000
     atom   17 type  3   force =     0.00000000    0.00000000    0.00000000
     The Hubbard contrib.    to forces
     atom    1 type  1   force =     0.00000000    0.00000000    0.00000000
     atom    2 type  1   force =     0.00000000    0.00000000    0.00000000
     atom    3 type  1   force =     0.00000000    0.00000000    0.00000000
     atom    4 type  1   force =     0.00000000    0.00000000    0.00000000
     atom    5 type  2   force =     0.00000000    0.00000000    0.00000000
     atom    6 type  3   force =     0.00000000    0.00000000    0.00000000
     atom    7 type  3   force =     0.00000000    0.00000000    0.00000000
     atom    8 type  3   force =     0.00000000    0.00000000    0.00000000
     atom    9 type  3   force =     0.00000000    0.00000000    0.00000000
     atom   10 type  3   force =     0.00000000    0.00000000    0.00000000
     atom   11 type  3   force =     0.00000000    0.00000000    0.00000000
     atom   12 type  3   force =     0.00000000    0.00000000    0.00000000
     atom   13 type  3   force =     0.00000000    0.00000000    0.00000000
     atom   14 type  3   force =     0.00000000    0.00000000    0.00000000
     atom   15 type  3   force =     0.00000000    0.00000000    0.00000000
     atom   16 type  3   force =     0.00000000    0.00000000    0.00000000
     atom   17 type  3   force =     0.00000000    0.00000000    0.00000000
     The SCF correction term to forces
     atom    1 type  1   force =    -0.00001948   -0.00001646   -0.00000326
     atom    2 type  1   force =     0.00003842    0.00014320   -0.00026747
     atom    3 type  1   force =     0.00029504   -0.00001651    0.00008938
     atom    4 type  1   force =    -0.00032214    0.00002537    0.00012590
     atom    5 type  2   force =    -0.00081638    0.00033477   -0.00041917
     atom    6 type  3   force =    -0.00044597   -0.00031291   -0.00013570
     atom    7 type  3   force =    -0.00007371    0.00028063   -0.00008871
     atom    8 type  3   force =    -0.00018848   -0.00006709    0.00019717
     atom    9 type  3   force =     0.00025337   -0.00009575    0.00029379
     atom   10 type  3   force =     0.00041803   -0.00035504    0.00064661
     atom   11 type  3   force =    -0.00019330   -0.00026337    0.00017389
     atom   12 type  3   force =    -0.00012614   -0.00000683   -0.00048765
     atom   13 type  3   force =     0.00026898    0.00065329    0.00002397
     atom   14 type  3   force =     0.00042270    0.00026333   -0.00016133
     atom   15 type  3   force =    -0.00046968    0.00031005    0.00032128
     atom   16 type  3   force =     0.00027666   -0.00015228   -0.00013159
     atom   17 type  3   force =     0.00027334   -0.00040104   -0.00044944

     Total force =     0.163812     Total SCF correction =     0.002184

     Computing stress (Cartesian axis) and pressure

     negative rho (up, down):  1.605E-01 0.000E+00
          total   stress  (Ry/bohr**3)                   (kbar)     P=     -265.49
  -0.00145440  -0.00006847   0.00000000         -213.95      -10.07        0.00
  -0.00006847  -0.00195717   0.00000000          -10.07     -287.91        0.00
   0.00000000   0.00000000  -0.00200267            0.00        0.00     -294.60

     kinetic stress (kbar)  14596.32      1.41     -0.00
                                1.41  14554.97     -0.00
                               -0.00     -0.00  14558.86

     local   stress (kbar)  -9538.22     -7.39      2.54
                               -7.39  -9478.05     -3.87
                                2.54     -3.87  -9516.89

     nonloc. stress (kbar)    985.66     -5.88     -0.00
                               -5.88    868.75     -0.00
                               -0.00     -0.00    894.87

     hartree stress (kbar)   7936.21      1.84      3.32
                                1.84   7955.42     -3.94
                                3.32     -3.94   7959.00

     exc-cor stress (kbar)   -600.34      0.13      0.55
                                0.13   -598.29     -0.42
                                0.55     -0.42   -598.51

     corecor stress (kbar)  -3091.93     -0.19      0.30
                               -0.19  -3089.07     -0.43
                                0.30     -0.43  -3090.28

     ewald   stress (kbar) -10501.65      0.00      0.00
                                0.00 -10501.65      0.01
                                0.00      0.01 -10501.64

     hubbard stress (kbar)      0.00      0.00      0.00
                                0.00      0.00      0.00
                                0.00      0.00      0.00

     DFT-D   stress (kbar)      0.00      0.00      0.00
                                0.00      0.00      0.00
                                0.00      0.00      0.00

     XDM     stress (kbar)      0.00      0.00      0.00
                                0.00      0.00      0.00
                                0.00      0.00      0.00

     dft-nl  stress (kbar)      0.00      0.00      0.00
                                0.00      0.00      0.00
                                0.00      0.00      0.00

     TS-vdW  stress (kbar)      0.00      0.00      0.00
                                0.00      0.00      0.00
                                0.00      0.00      0.00

[...]

                                0.00      0.00      0.00

     Writing all to output data dir new_calculations/myprefix.save/

     General routines

     Parallel routines

   This run was terminated on:  17: 3: 6  20May2023

   JOB DONE.