     Program PWSCF v.7.0 starts on 20May2023 at 14:39: 9

     Reading input from espresso_584.pwi
Warning: card &CELL ignored
Warning: card / ignored

     Current dimensions of program PWSCF are:
     Max number of different atomic species (ntypx) = 10
     Max number of k-points (npk) =  40000
     Max angular momentum in pseudopotentials (lmaxx) =  4

     gamma-point specific algorithms are used
     Message from routine setup:
     using ibrav=0 with symmetry is DISCOURAGED, use correct ibrav instead

     Subspace diagonalization in iterative solution of the eigenvalue problem:
     a serial algorithm will be used

     Using Slab Decomposition

     bravais-lattice index     =            0
     lattice parameter (alat)  =      22.5065  a.u.
     unit-cell volume          =    3586.4630 (a.u.)^3
     number of atoms/cell      =           16
     number of atomic types    =            2
     number of electrons       =       160.00
     number of Kohn-Sham states=           96
     kinetic-energy cutoff     =      30.0000  Ry
     charge density cutoff     =     240.0000  Ry
     scf convergence threshold =      1.0E-06
     mixing beta               =       0.7000
     number of iterations used =            8  plain     mixing
     Exchange-correlation=  SLA  PW   PBX  PBC
                           (   1   4   3   4   0   0   0)

     celldm(1)=  22.506455  celldm(2)=   0.000000  celldm(3)=   0.000000
     celldm(4)=   0.000000  celldm(5)=   0.000000  celldm(6)=   0.000000

     crystal axes: (cart. coord. in units of alat)
               a(1) = (   1.000000   0.000000   0.000000 )
               a(2) = (   0.000000   0.581853   0.000000 )
               a(3) = (   0.000000   0.253252   0.540669 )

     reciprocal axes: (cart. coord. in units 2 pi/alat)
               b(1) = (  1.000000  0.000000  0.000000 )
               b(2) = (  0.000000  1.718647 -0.805022 )
               b(3) = (  0.000000  0.000000  1.849559 )

     PseudoPot. # 1 for Au read from file:
     /home/pragov/projects/rrg-bengioy-ad/pragov/crystal_structure_design/SSSP/Au_ONCV_PBE-1.0.oncvpsp.upf
     MD5 check sum: d14007822ba0e19f0206237467fc06c2
     Pseudo is Norm-conserving, Zval = 19.0
     Generated using ONCVPSP code by D. R. Hamann
     Using radial grid of 1278 points,  8 beta functions with:
                l(1) =   0
                l(2) =   0
                l(3) =   1
                l(4) =   1
                l(5) =   2
                l(6) =   2
                l(7) =   3
                l(8) =   3

     PseudoPot. # 2 for Cl read from file:
     /home/pragov/projects/rrg-bengioy-ad/pragov/crystal_structure_design/SSSP/cl_pbe_v1.4.uspp.F.UPF
     MD5 check sum: fc6f6913ecf08c9257cb748ef0700058
     Pseudo is Ultrasoft + core correction, Zval =  7.0
     Generated by new atomic code, or converted to UPF format
     Using radial grid of  909 points,  6 beta functions with:
                l(1) =   0
                l(2) =   0
                l(3) =   1
                l(4) =   1
                l(5) =   2
                l(6) =   2
     Q(r) pseudized with  8 coefficients,  rinner =    1.300   1.300   1.300
                                                       1.300   1.300

     atomic species   valence    mass     pseudopotential
        Au            19.00   196.96657     Au( 1.00)
        Cl             7.00    35.45000     Cl( 1.00)

      4 Sym. Ops., with inversion, found ( 2 have fractional translation)

                                    s                        frac. trans.

      isym =  1     identity

 cryst.   s( 1) = (     1          0          0      )
                  (     0          1          0      )
                  (     0          0          1      )

 cart.    s( 1) = (  1.0000000  0.0000000  0.0000000 )
                  (  0.0000000  1.0000000 -0.0000000 )
                  (  0.0000000  0.0000000  1.0000000 )

      isym =  2     180 deg rotation - cart. axis [1,0,0]

 cryst.   s( 2) = (     1          0          0      )    f =(  0.5000000 )
                  (     0         -1          0      )       ( -0.5000000 )
                  (     0          0         -1      )       ( -0.0000000 )

 cart.    s( 2) = (  1.0000000  0.0000000  0.0000000 )    f =(  0.5000000 )
                  (  0.0000000 -1.0000000  0.0000000 )       ( -0.2909265 )
                  (  0.0000000  0.0000000 -1.0000000 )       ( -0.0000000 )

      isym =  3     inversion

 cryst.   s( 3) = (    -1          0          0      )
                  (     0         -1          0      )
                  (     0          0         -1      )

 cart.    s( 3) = ( -1.0000000  0.0000000  0.0000000 )
                  (  0.0000000 -1.0000000  0.0000000 )
                  (  0.0000000  0.0000000 -1.0000000 )

      isym =  4     inv. 180 deg rotation - cart. axis [1,0,0]

 cryst.   s( 4) = (    -1          0          0      )    f =(  0.5000000 )
                  (     0          1          0      )       ( -0.5000000 )
                  (     0          0          1      )       (  0.0000000 )

 cart.    s( 4) = ( -1.0000000  0.0000000  0.0000000 )    f =(  0.5000000 )
                  (  0.0000000  1.0000000 -0.0000000 )       ( -0.2909265 )
                  (  0.0000000  0.0000000  1.0000000 )       (  0.0000000 )

   Cartesian axes

     site n.     atom                  positions (alat units)
         1           Au  tau(   1) = (   0.5839010   0.1718404   0.0215311  )
         2           Au  tau(   2) = (   0.0839010   0.3723381   0.5191383  )
         3           Au  tau(   3) = (   0.4160990   0.6632646   0.5191383  )
         4           Au  tau(   4) = (   0.9160990   0.4627669   0.0215311  )
         5           Cl  tau(   5) = (   0.6542380   0.2885988   0.4474553  )
         6           Cl  tau(   6) = (   0.1542380   0.2555798   0.0932141  )
         7           Cl  tau(   7) = (   0.3457620   0.5465063   0.0932141  )
         8           Cl  tau(   8) = (   0.8457620   0.5795253   0.4474553  )
         9           Cl  tau(   9) = (   0.9953000   0.6087445   0.1324970  )
        10           Cl  tau(  10) = (   0.4953000   0.5172870   0.4081724  )
        11           Cl  tau(  11) = (   0.0047000   0.2263605   0.4081724  )
        12           Cl  tau(  12) = (   0.5047000   0.3178180   0.1324970  )
        13           Cl  tau(  13) = (   0.8350710   0.3814991   0.1744329  )
        14           Cl  tau(  14) = (   0.3350710   0.7445324   0.3662365  )
        15           Cl  tau(  15) = (   0.1649290   0.4536059   0.3662365  )
        16           Cl  tau(  16) = (   0.6649290   0.0905726   0.1744329  )

   Crystallographic axes

     site n.     atom                  positions (cryst. coord.)
         1           Au  tau(   1) = (  0.5839010  0.2780000  0.0398230  )
         2           Au  tau(   2) = (  0.0839010  0.2220000  0.9601770  )
         3           Au  tau(   3) = (  0.4160990  0.7220000  0.9601770  )
         4           Au  tau(   4) = (  0.9160990  0.7780000  0.0398230  )
         5           Cl  tau(   5) = (  0.6542380  0.1357880  0.8275950  )
         6           Cl  tau(   6) = (  0.1542380  0.3642120  0.1724050  )
         7           Cl  tau(   7) = (  0.3457620  0.8642120  0.1724050  )
         8           Cl  tau(   8) = (  0.8457620  0.6357880  0.8275950  )
         9           Cl  tau(   9) = (  0.9953000  0.9395540  0.2450610  )
        10           Cl  tau(  10) = (  0.4953000  0.5604460  0.7549390  )
        11           Cl  tau(  11) = (  0.0047000  0.0604460  0.7549390  )
        12           Cl  tau(  12) = (  0.5047000  0.4395540  0.2450610  )
        13           Cl  tau(  13) = (  0.8350710  0.5152400  0.3226240  )
        14           Cl  tau(  14) = (  0.3350710  0.9847600  0.6773760  )
        15           Cl  tau(  15) = (  0.1649290  0.4847600  0.6773760  )
        16           Cl  tau(  16) = (  0.6649290  0.0152400  0.3226240  )

     number of k points=     1  Methfessel-Paxton smearing, width (Ry)=  0.0010
                       cart. coord. in units 2pi/alat
        k(    1) = (   0.0000000   0.0000000   0.0000000), wk =   2.0000000

                       cryst. coord.
        k(    1) = (   0.0000000   0.0000000   0.0000000), wk =   2.0000000

     Initial potential from superposition of free atoms

     starting charge     159.9995, renormalised to     160.0000

     negative rho (up, down):  1.813E-01 0.000E+00
     Starting wfcs are   88 randomized atomic wfcs +    8 random wfcs

     Self-consistent Calculation

     iteration #  1     ecut=    30.00 Ry     beta= 0.70
     Davidson diagonalization with overlap

     ethr =  1.00E-02,  avg # of iterations =  7.0

     Threshold (ethr) on eigenvalues was too large:
     Diagonalizing with lowered threshold

     Davidson diagonalization with overlap

[...]

     negative rho (up, down):  1.838E-01 0.000E+00

     total energy              =   -1497.48271799 Ry
     estimated scf accuracy    <       0.96987850 Ry

[...]

     total energy              =   -1497.96481120 Ry
     estimated scf accuracy    <       0.00000226 Ry

     iteration #  9     ecut=    30.00 Ry     beta= 0.70
     Davidson diagonalization with overlap

     ethr =  1.41E-09,  avg # of iterations =  4.0

[...]

     End of self-consistent calculation

          k = 0.0000 0.0000 0.0000 (  4986 PWs)   bands (ev):

  -105.0480-105.0479-105.0468-105.0467 -56.3181 -56.3175 -56.3146 -56.3136
   -56.3025 -56.3014 -56.3013 -56.3003 -55.4757 -55.4747 -55.4743 -55.4732
   -14.0798 -14.0651 -13.6272 -13.6246 -12.5883 -12.5061 -12.5049 -12.4463
   -12.2594 -12.2467 -12.2283 -12.2193  -4.8082  -4.7957  -4.5714  -4.5568
    -4.5374  -4.5070  -4.1450  -4.0925  -3.1129  -3.0864  -3.0767  -3.0364
    -2.9770  -2.9040  -2.7615  -2.7057  -2.3325  -2.3209  -2.2992  -2.2957
    -2.1564  -1.9627  -1.7184  -1.6942  -1.3185  -1.0819  -1.0733  -1.0557
    -1.0301  -0.9719  -0.8772  -0.8649  -0.7900  -0.6719  -0.3942  -0.3077
     0.0722   0.1537   0.4055   0.4237   0.4743   0.5003   0.6181   0.6287
     0.6563   0.6778   0.6801   0.7307   0.7415   0.8267   0.8671   0.9537
     2.4071   2.5439   2.7053   2.7717   5.5482   6.3039   6.3058   6.4081
     7.5175   7.5432   7.9204   8.0717   9.0090   9.3844   9.5327   9.6374

     occupation numbers
     1.0000   1.0000   1.0000   1.0000   1.0000   1.0000   1.0000   1.0000
     1.0000   1.0000   1.0000   1.0000   1.0000   1.0000   1.0000   1.0000
     1.0000   1.0000   1.0000   1.0000   1.0000   1.0000   1.0000   1.0000
     1.0000   1.0000   1.0000   1.0000   1.0000   1.0000   1.0000   1.0000
     1.0000   1.0000   1.0000   1.0000   1.0000   1.0000   1.0000   1.0000
     1.0000   1.0000   1.0000   1.0000   1.0000   1.0000   1.0000   1.0000
     1.0000   1.0000   1.0000   1.0000   1.0000   1.0000   1.0000   1.0000
     1.0000   1.0000   1.0000   1.0000   1.0000   1.0000   1.0000   1.0000
     1.0000   1.0000   1.0000   1.0000   1.0000   1.0000   1.0000   1.0000
     1.0000   1.0000   1.0000   1.0000   1.0000   1.0000   1.0000   1.0000
    -0.0000  -0.0000  -0.0000  -0.0000  -0.0000  -0.0000  -0.0000  -0.0000
    -0.0000  -0.0000  -0.0000  -0.0000  -0.0000  -0.0000  -0.0000  -0.0000

     the Fermi energy is     1.6905 ev

!    total energy              =   -1497.96481144 Ry
     estimated scf accuracy    <       0.00000059 Ry
     smearing contrib. (-TS)   =       0.00000000 Ry
     internal energy E=F+TS    =   -1497.96481144 Ry

     The total energy is F=E-TS. E is the sum of the following terms:
     one-electron contribution =   -1216.79343403 Ry
     hartree contribution      =     623.45765815 Ry
     xc contribution           =    -213.45254286 Ry
     ewald contribution        =    -691.17649270 Ry

     convergence has been achieved in   9 iterations

     negative rho (up, down):  1.810E-01 0.000E+00

     Forces acting on atoms (cartesian axes, Ry/au):

     atom    1 type  1   force =     0.00303392   -0.00556689   -0.00284515
     atom    2 type  1   force =     0.00303392    0.00556689    0.00284515
     atom    3 type  1   force =    -0.00303392    0.00556689    0.00284515
     atom    4 type  1   force =    -0.00303392   -0.00556689   -0.00284515
     atom    5 type  2   force =    -0.00367755    0.00774652    0.00507791
     atom    6 type  2   force =    -0.00367755   -0.00774652   -0.00507791
     atom    7 type  2   force =     0.00367755   -0.00774652   -0.00507791
     atom    8 type  2   force =     0.00367755    0.00774652    0.00507791
     atom    9 type  2   force =    -0.00173662   -0.00117556   -0.00806224
     atom   10 type  2   force =    -0.00173662    0.00117556    0.00806224
     atom   11 type  2   force =     0.00173662    0.00117556    0.00806224
     atom   12 type  2   force =     0.00173662   -0.00117556   -0.00806224
     atom   13 type  2   force =     0.00185406    0.00556851   -0.00445176
     atom   14 type  2   force =     0.00185406   -0.00556851    0.00445176
     atom   15 type  2   force =    -0.00185406   -0.00556851    0.00445176
     atom   16 type  2   force =    -0.00185406    0.00556851   -0.00445176
     The non-local contrib.  to forces
     atom    1 type  1   force =    -0.04332602    0.06156056   -0.01924204
     atom    2 type  1   force =    -0.04332602   -0.06156056    0.01924204
     atom    3 type  1   force =     0.04332602   -0.06156056    0.01924204
     atom    4 type  1   force =     0.04332602    0.06156056   -0.01924204
     atom    5 type  2   force =    -0.13396684    0.25285960    0.23535299
     atom    6 type  2   force =    -0.13396684   -0.25285960   -0.23535299
     atom    7 type  2   force =     0.13396684   -0.25285960   -0.23535299
     atom    8 type  2   force =     0.13396684    0.25285960    0.23535299
     atom    9 type  2   force =     0.02717083   -0.08441221   -0.39607788
     atom   10 type  2   force =     0.02717083    0.08441221    0.39607788
     atom   11 type  2   force =    -0.02717083    0.08441221    0.39607788
     atom   12 type  2   force =    -0.02717083   -0.08441221   -0.39607788
     atom   13 type  2   force =     0.16953932    0.15300105   -0.30251100
     atom   14 type  2   force =     0.16953932   -0.15300105    0.30251100
     atom   15 type  2   force =    -0.16953932   -0.15300105    0.30251100
     atom   16 type  2   force =    -0.16953932    0.15300105   -0.30251100
     The ionic contribution  to forces
     atom    1 type  1   force =     4.44993118   -4.16219277    1.52545872
     atom    2 type  1   force =     4.44993119    4.16219277   -1.52545872
     atom    3 type  1   force =    -4.44993119    4.16219277   -1.52545872
     atom    4 type  1   force =    -4.44993118   -4.16219277    1.52545872
     atom    5 type  2   force =     4.59654786   -6.70757570   -9.16300285
     atom    6 type  2   force =     4.59654786    6.70757570    9.16300285
     atom    7 type  2   force =    -4.59654786    6.70757570    9.16300285
     atom    8 type  2   force =    -4.59654786   -6.70757570   -9.16300285
     atom    9 type  2   force =    -0.23307192    2.90814882   15.00153613
     atom   10 type  2   force =    -0.23307192   -2.90814882  -15.00153613
     atom   11 type  2   force =     0.23307192   -2.90814882  -15.00153613
     atom   12 type  2   force =     0.23307192    2.90814882   15.00153613
     atom   13 type  2   force =    -5.05965020   -4.55444509   11.10891448
     atom   14 type  2   force =    -5.05965020    4.55444509  -11.10891448
     atom   15 type  2   force =     5.05965020    4.55444509  -11.10891448
     atom   16 type  2   force =     5.05965020   -4.55444509   11.10891448
     The local contribution  to forces
     atom    1 type  1   force =    -4.40205010    4.09505556   -1.50873263
     atom    2 type  1   force =    -4.40561993   -4.09534742    1.50930059
     atom    3 type  1   force =     4.40542498   -4.09526586    1.50893002
     atom    4 type  1   force =     4.40232012    4.09562444   -1.50849910
     atom    5 type  2   force =    -4.46958840    6.46924985    8.93951579
     atom    6 type  2   force =    -4.47039052   -6.46950272   -8.93953303
     atom    7 type  2   force =     4.47040618   -6.46971499   -8.93967714
     atom    8 type  2   force =     4.46975050    6.46957500    8.93961428
     atom    9 type  2   force =     0.20433913   -2.82736313  -14.62491307
     atom   10 type  2   force =     0.20541598    2.82759497   14.62484847
     atom   11 type  2   force =    -0.20559934    2.82731794   14.62497359
     atom   12 type  2   force =    -0.20452982   -2.82707608  -14.62491417
     atom   13 type  2   force =     4.89659909    4.41127621  -10.81963345
     atom   14 type  2   force =     4.89721721   -4.41134199   10.81974740
     atom   15 type  2   force =    -4.89714501   -4.41120713   10.81956670
     atom   16 type  2   force =    -4.89637884    4.41106037  -10.81944594
     The core correction contribution to forces
     atom    1 type  1   force =     0.00000000    0.00000000    0.00000000
     atom    2 type  1   force =     0.00000000    0.00000000    0.00000000
     atom    3 type  1   force =     0.00000000    0.00000000    0.00000000
     atom    4 type  1   force =     0.00000000    0.00000000    0.00000000
     atom    5 type  2   force =     0.00373199   -0.00704662   -0.00678964
     atom    6 type  2   force =     0.00372984    0.00704452    0.00679102
     atom    7 type  2   force =    -0.00372927    0.00704377    0.00678986
     atom    8 type  2   force =    -0.00373140   -0.00704474   -0.00678910
     atom    9 type  2   force =    -0.00084860    0.00240773    0.01126691
     atom   10 type  2   force =    -0.00084650   -0.00240500   -0.01126813
     atom   11 type  2   force =     0.00084537   -0.00240665   -0.01126709
     atom   12 type  2   force =     0.00084717    0.00241037    0.01126834
     atom   13 type  2   force =    -0.00482762   -0.00419068    0.00862861
     atom   14 type  2   force =    -0.00482612    0.00418946   -0.00862946
     atom   15 type  2   force =     0.00482704    0.00419094   -0.00863076
     atom   16 type  2   force =     0.00482898   -0.00419210    0.00862951
     The Hubbard contrib.    to forces
     atom    1 type  1   force =     0.00000000    0.00000000    0.00000000
     atom    2 type  1   force =     0.00000000    0.00000000    0.00000000
     atom    3 type  1   force =     0.00000000    0.00000000    0.00000000
     atom    4 type  1   force =     0.00000000    0.00000000    0.00000000
     atom    5 type  2   force =     0.00000000    0.00000000    0.00000000
     atom    6 type  2   force =     0.00000000    0.00000000    0.00000000
     atom    7 type  2   force =     0.00000000    0.00000000    0.00000000
     atom    8 type  2   force =     0.00000000    0.00000000    0.00000000
     atom    9 type  2   force =     0.00000000    0.00000000    0.00000000
     atom   10 type  2   force =     0.00000000    0.00000000    0.00000000
     atom   11 type  2   force =     0.00000000    0.00000000    0.00000000
     atom   12 type  2   force =     0.00000000    0.00000000    0.00000000
     atom   13 type  2   force =     0.00000000    0.00000000    0.00000000
     atom   14 type  2   force =     0.00000000    0.00000000    0.00000000
     atom   15 type  2   force =     0.00000000    0.00000000    0.00000000
     atom   16 type  2   force =     0.00000000    0.00000000    0.00000000
     The SCF correction term to forces
     atom    1 type  1   force =    -0.00166616    0.00006776   -0.00034273
     atom    2 type  1   force =     0.00218481    0.00031187   -0.00028548
     atom    3 type  1   force =    -0.00198538    0.00022598    0.00012244
     atom    4 type  1   force =     0.00137387   -0.00056192   -0.00060527
     atom    5 type  2   force =    -0.00037920    0.00021475   -0.00000423
     atom    6 type  2   force =     0.00039633   -0.00002084    0.00002709
     atom    7 type  2   force =    -0.00040303    0.00017375    0.00015386
     atom    8 type  2   force =     0.00024129   -0.00007425   -0.00008433
     atom    9 type  2   force =     0.00066070    0.00004195    0.00012116
     atom   10 type  2   force =    -0.00040835   -0.00024564   -0.00006621
     atom   11 type  2   force =     0.00057855    0.00000499   -0.00016722
     atom   12 type  2   force =    -0.00048742   -0.00020892    0.00014229
     atom   13 type  2   force =     0.00019376   -0.00008208    0.00014755
     atom   14 type  2   force =    -0.00040702    0.00010343   -0.00024743
     atom   15 type  2   force =     0.00034769   -0.00001375   -0.00008180
     atom   16 type  2   force =    -0.00039038    0.00009944   -0.00002254

     Total force =     0.032941     Total SCF correction =     0.004124
     SCF correction compared to forces is large: reduce conv_thr to get better values

     Computing stress (Cartesian axis) and pressure

     negative rho (up, down):  1.810E-01 0.000E+00
          total   stress  (Ry/bohr**3)                   (kbar)     P=     -135.29
  -0.00093332   0.00000000   0.00000000         -137.30        0.00        0.00
   0.00000000  -0.00092246   0.00001693            0.00     -135.70        2.49
   0.00000000   0.00001693  -0.00090333            0.00        2.49     -132.88

     kinetic stress (kbar)  13073.75      0.00      0.00
                                0.00  12730.20    -71.95
                                0.00    -71.95  12469.14

     local   stress (kbar)  -9821.97     -0.01      0.00
                               -0.01 -21398.88   -432.04
                                0.00   -432.04 -10697.98

     nonloc. stress (kbar)   4436.92      0.00      0.00
                                0.00   4431.28     -5.64
                                0.00     -5.64   4413.67

     hartree stress (kbar)   7197.73      0.01     -0.00
                                0.01  11844.65    105.94
                               -0.00    105.94   6529.83

     exc-cor stress (kbar)   -578.35      0.00      0.00
                                0.00   -572.27      0.74
                                0.00      0.74   -569.71

     corecor stress (kbar)  -1850.17     -0.00     -0.00
                               -0.00  -1848.17      0.76
                               -0.00      0.76  -1845.72

     ewald   stress (kbar) -12595.20     -0.00     -0.00
                               -0.00  -5322.50    404.68
                               -0.00    404.68 -10432.12

     hubbard stress (kbar)      0.00      0.00      0.00
                                0.00      0.00      0.00
                                0.00      0.00      0.00

     DFT-D   stress (kbar)      0.00      0.00      0.00
                                0.00      0.00      0.00
                                0.00      0.00      0.00

     XDM     stress (kbar)      0.00      0.00      0.00
                                0.00      0.00      0.00
                                0.00      0.00      0.00

     dft-nl  stress (kbar)      0.00      0.00      0.00
                                0.00      0.00      0.00
                                0.00      0.00      0.00

     TS-vdW  stress (kbar)      0.00      0.00      0.00
                                0.00      0.00      0.00
                                0.00      0.00      0.00

[...]

                                0.00      0.00      0.00

     Writing all to output data dir new_calculations/myprefix.save/

     General routines

     Parallel routines

   This run was terminated on:  14:39:58  20May2023

   JOB DONE.