     Program PWSCF v.7.0 starts on 20May2023 at 17:18:55

     Reading input from espresso_23010.pwi
Warning: card &CELL ignored
Warning: card / ignored

     Current dimensions of program PWSCF are:
     Max number of different atomic species (ntypx) = 10
     Max number of k-points (npk) =  40000
     Max angular momentum in pseudopotentials (lmaxx) =  4
     file Pb.pbe-dn-kjpaw_psl.0.2.2.UPF: wavefunction(s)  6S renormalized

     gamma-point specific algorithms are used
     Message from routine setup:
     using ibrav=0 with symmetry is DISCOURAGED, use correct ibrav instead

     Subspace diagonalization in iterative solution of the eigenvalue problem:
     a serial algorithm will be used

     Using Slab Decomposition

     bravais-lattice index     =            0
     lattice parameter (alat)  =       8.7283  a.u.
     unit-cell volume          =     961.6590 (a.u.)^3
     number of atoms/cell      =            6
     number of atomic types    =            3
     number of electrons       =        98.00
     number of Kohn-Sham states=           59
     kinetic-energy cutoff     =      30.0000  Ry
     charge density cutoff     =     240.0000  Ry
     scf convergence threshold =      1.0E-06
     mixing beta               =       0.7000
     number of iterations used =            8  plain     mixing
     Exchange-correlation= SLA  PW   PBX  PBC
                           (   1   4   3   4   0   0   0)

     celldm(1)=   8.728285  celldm(2)=   0.000000  celldm(3)=   0.000000
     celldm(4)=   0.000000  celldm(5)=   0.000000  celldm(6)=   0.000000

     crystal axes: (cart. coord. in units of alat)
               a(1) = (   1.000000   0.000000   0.000000 )
               a(2) = (  -0.500000   0.866025   0.000000 )
               a(3) = (   0.000000   0.000000   1.669951 )

     reciprocal axes: (cart. coord. in units 2 pi/alat)
               b(1) = (  1.000000  0.577350  0.000000 )
               b(2) = (  0.000000  1.154700  0.000000 )
               b(3) = (  0.000000  0.000000  0.598820 )

     PseudoPot. # 1 for Sm read from file:
     /home/pragov/projects/rrg-bengioy-ad/pragov/crystal_structure_design/SSSP/Sm.GGA-PBE-paw-v1.0.UPF
     MD5 check sum: 886f70968969f895acf876f5617e0641
     Pseudo is Projector augmented-wave + core cor, Zval = 16.0
     Generated using ATOMPAW code
     Shape of augmentation charge: BESSEL
     Using radial grid of 1107 points,  8 beta functions with:
                l(1) =   0
                l(2) =   0
                l(3) =   1
                l(4) =   1
                l(5) =   2
                l(6) =   2
                l(7) =   3
                l(8) =   3
     Q(r) pseudized with 0 coefficients

     PseudoPot. # 2 for Cu read from file:
     /home/pragov/projects/rrg-bengioy-ad/pragov/crystal_structure_design/SSSP/Cu_pbe_v1.2.uspp.F.UPF
     MD5 check sum: 6e991ff952a84172a2a52a1c1e996048
     Pseudo is Ultrasoft + core correction, Zval = 19.0
     Generated by new atomic code, or converted to UPF format
     Using radial grid of  867 points,  6 beta functions with:
                l(1) =   0
                l(2) =   0
                l(3) =   1
                l(4) =   1
                l(5) =   2
                l(6) =   2
     Q(r) pseudized with  8 coefficients,  rinner =    1.150   1.150   1.150
                                                       1.150   1.150

     PseudoPot. # 3 for Pb read from file:
     /home/pragov/projects/rrg-bengioy-ad/pragov/crystal_structure_design/SSSP/Pb.pbe-dn-kjpaw_psl.0.2.2.UPF
     MD5 check sum: 9d431e6316058b74ade52399a6cf67da
     Pseudo is Projector augmented-wave + core cor, Zval = 14.0
     Generated using "atomic" code by A. Dal Corso  v.5.0.99 svn rev. 10869
     Shape of augmentation charge: PSQ
     Using radial grid of 1281 points,  6 beta functions with:
                l(1) =   0
                l(2) =   0
                l(3) =   1
                l(4) =   1
                l(5) =   2
                l(6) =   2
     Q(r) pseudized with 0 coefficients

     atomic species   valence    mass     pseudopotential
        Sm            16.00   150.36000     Sm( 1.00)
        Cu            19.00    63.54600     Cu( 1.00)
        Pb            14.00   207.20000     Pb( 1.00)

     24 Sym. Ops., with inversion, found (12 have fractional translation)

                                    s                        frac. trans.

      isym =  1     identity

 cryst.   s( 1) = (     1          0          0      )
                  (     0          1          0      )
                  (     0          0          1      )

 cart.    s( 1) = (  1.0000000  0.0000000  0.0000000 )
                  (  0.0000000  1.0000000  0.0000000 )
                  (  0.0000000  0.0000000  1.0000000 )

      isym =  2     180 deg rotation - cart. axis [0,0,1]

 cryst.   s( 2) = (    -1          0          0      )    f =(  0.0000000 )
                  (     0         -1          0      )       (  0.0000000 )
                  (     0          0          1      )       (  0.5000000 )

 cart.    s( 2) = ( -1.0000000 -0.0000000  0.0000000 )    f =(  0.0000000 )
                  (  0.0000000 -1.0000000  0.0000000 )       (  0.0000000 )
                  (  0.0000000  0.0000000  1.0000000 )       (  0.8349755 )

[...]

      isym =  4     180 deg rotation - cart. axis [1,0,0]

[...]

      isym =  5      60 deg rotation - cryst. axis [0,0,1]

[...]

 cryst.   s( 8) = (    -1         -1          0      )
                  (     1          0          0      )
                  (     0          0          1      )

 cart.    s( 8) = ( -0.5000001  0.8660253  0.0000000 )
                  ( -0.8660255 -0.4999999  0.0000000 )
                  (  0.0000000  0.0000000  1.0000000 )

[...]

 cryst.   s( 9) = (     0         -1          0      )    f =(  0.0000000 )
                  (    -1          0          0      )       (  0.0000000 )
                  (     0          0         -1      )       (  0.5000000 )

 cart.    s( 9) = (  0.4999999 -0.8660255  0.0000000 )    f =(  0.0000000 )
                  ( -0.8660255 -0.4999999  0.0000000 )       (  0.0000000 )
                  (  0.0000000  0.0000000 -1.0000000 )       (  0.8349755 )

[...]

 cryst.   s(10) = (     1          1          0      )    f =(  0.0000000 )
                  (     0         -1          0      )       (  0.0000000 )
                  (     0          0         -1      )       (  0.5000000 )

 cart.    s(10) = (  0.5000001  0.8660251  0.0000000 )    f =(  0.0000000 )
                  (  0.8660255 -0.5000001  0.0000000 )       (  0.0000000 )
                  (  0.0000000  0.0000000 -1.0000000 )       (  0.8349755 )

[...]

 cryst.   s(11) = (    -1         -1          0      )
                  (     0          1          0      )
                  (     0          0         -1      )

 cart.    s(11) = ( -0.5000001 -0.8660251  0.0000000 )
                  ( -0.8660255  0.5000001  0.0000000 )
                  (  0.0000000  0.0000000 -1.0000000 )

      isym = 12     180 deg rotation - cryst. axis [1,1,0]

[...]

      isym = 13     inversion

[...]

      isym = 14     inv. 180 deg rotation - cart. axis [0,0,1]

[...]

      isym = 16     inv. 180 deg rotation - cart. axis [1,0,0]

[...]

      isym = 17     inv.  60 deg rotation - cryst. axis [0,0,1]

[...]

 cryst.   s(22) = (    -1         -1          0      )    f =(  0.0000000 )
                  (     0          1          0      )       (  0.0000000 )
                  (     0          0          1      )       (  0.5000000 )

 cart.    s(22) = ( -0.5000001 -0.8660251  0.0000000 )    f =(  0.0000000 )
                  ( -0.8660255  0.5000001  0.0000000 )       (  0.0000000 )
                  (  0.0000000  0.0000000  1.0000000 )       (  0.8349755 )

[...]

      isym = 24     inv. 180 deg rotation - cryst. axis [1,1,0]

 cryst.   s(24) = (     0         -1          0      )
                  (    -1          0          0      )
                  (     0          0          1      )

 cart.    s(24) = (  0.4999999 -0.8660255  0.0000000 )
                  ( -0.8660255 -0.4999999  0.0000000 )
                  (  0.0000000  0.0000000  1.0000000 )

   Cartesian axes

     site n.     atom                  positions (alat units)
         1           Sm  tau(   1) = (   0.0000000   0.0000000   0.8349755  )
         2           Sm  tau(   2) = (   0.0000000   0.0000000   0.0000000  )
         3           Cu  tau(   3) = (  -0.0000004   0.5773506   0.4174877  )
         4           Cu  tau(   4) = (   0.5000005   0.2886749   1.2524632  )
         5           Pb  tau(   5) = (  -0.0000004   0.5773506   1.2524632  )
         6           Pb  tau(   6) = (   0.5000005   0.2886749   0.4174877  )

   Crystallographic axes

     site n.     atom                  positions (cryst. coord.)
         1           Sm  tau(   1) = (  0.0000000  0.0000000  0.5000000  )
         2           Sm  tau(   2) = (  0.0000000  0.0000000  0.0000000  )
         3           Cu  tau(   3) = (  0.3333330  0.6666670  0.2500000  )
         4           Cu  tau(   4) = (  0.6666670  0.3333330  0.7500000  )
         5           Pb  tau(   5) = (  0.3333330  0.6666670  0.7500000  )
         6           Pb  tau(   6) = (  0.6666670  0.3333330  0.2500000  )

     number of k points=     1  Methfessel-Paxton smearing, width (Ry)=  0.0010
                       cart. coord. in units 2pi/alat
        k(    1) = (   0.0000000   0.0000000   0.0000000), wk =   2.0000000

                       cryst. coord.
        k(    1) = (   0.0000000   0.0000000   0.0000000), wk =   2.0000000

     Initial potential from superposition of free atoms

     starting charge      95.9841, renormalised to      98.0000
     Starting wfcs are  108 randomized atomic wfcs
     Checking if some PAW data can be deallocated...

     Self-consistent Calculation

     iteration #  1     ecut=    30.00 Ry     beta= 0.70
     Davidson diagonalization with overlap

     ethr =  1.00E-02,  avg # of iterations =  2.0

     total energy              =   -3755.18767246 Ry
     estimated scf accuracy    <       1.11254755 Ry

[...]

     total energy              =   -3755.95415882 Ry
     estimated scf accuracy    <       0.00000309 Ry

     iteration # 63     ecut=    30.00 Ry     beta= 0.70
     Davidson diagonalization with overlap

     ethr =  1.06E-09,  avg # of iterations =  1.0

     End of self-consistent calculation

          k = 0.0000 0.0000 0.0000 (  1348 PWs)   bands (ev):

  -100.4591-100.4584 -57.9407 -57.9406 -57.9396 -57.9395 -57.6349 -57.6342
   -25.7951 -25.7768  -5.8101  -5.6258  -5.6257  -5.5760  -5.5760  -5.3810
    -4.0492  -4.0492  -3.9786  -3.9786  -3.9291  -3.9291  -3.9201  -3.8942
    -3.8516  -3.8516   2.7951   3.9782   8.7769   8.7770   8.9645   8.9645
     9.3333   9.4762   9.4763   9.5626   9.6039   9.6040   9.8576  12.1878
    12.1880  13.0796  13.1763  13.1764  13.2995  13.6011  13.6573  13.7918
    13.7974  13.7977  13.9621  13.9621  13.9940  13.9990  14.1183  14.1183
    14.4602  14.4602  14.4990

     occupation numbers
     1.0000   1.0000   1.0000   1.0000   1.0000   1.0000   1.0000   1.0000
     1.0000   1.0000   1.0000   1.0000   1.0000   1.0000   1.0000   1.0000
     1.0000   1.0000   1.0000   1.0000   1.0000   1.0000   1.0000   1.0000
     1.0000   1.0000   1.0000   1.0000   1.0000   1.0000   1.0000   1.0000
     1.0000   1.0000   1.0000   1.0000   1.0000   1.0000   1.0000   1.0000
     1.0000   1.0000   1.0000   1.0000   1.0000   1.0000   1.0000   0.8711
     0.5714   0.5575  -0.0000  -0.0000  -0.0000  -0.0000  -0.0000  -0.0000
    -0.0000  -0.0000  -0.0000

     the Fermi energy is    13.7986 ev

!    total energy              =   -3755.95415863 Ry
     estimated scf accuracy    <       0.00000085 Ry
     smearing contrib. (-TS)   =      -0.00066311 Ry
     internal energy E=F+TS    =   -3755.95349551 Ry

     The total energy is F=E-TS. E is the sum of the following terms:
     one-electron contribution =    -853.50530306 Ry
     hartree contribution      =     500.64363948 Ry
     xc contribution           =    -202.67647520 Ry
     ewald contribution        =    -844.05899187 Ry
     one-center paw contrib.   =   -2356.35636487 Ry
      -> PAW hartree energy AE =     467.83422930 Ry
      -> PAW hartree energy PS =    -461.52720887 Ry
      -> PAW xc energy AE      =   -2484.95653995 Ry
      -> PAW xc energy PS      =     122.29315465 Ry
      -> total E_H with PAW    =     506.95065991 Ry
      -> total E_XC with PAW   =   -2565.33986050 Ry

     convergence has been achieved in  63 iterations

     Forces acting on atoms (cartesian axes, Ry/au):

     atom    1 type  1   force =     0.00000000    0.00000000    0.00000000
     atom    2 type  1   force =     0.00000000   -0.00000000    0.00000000
     atom    3 type  2   force =     0.00000000   -0.00000000    0.00000000
     atom    4 type  2   force =     0.00000000    0.00000000   -0.00000000
     atom    5 type  3   force =     0.00000000   -0.00000000    0.00000000
     atom    6 type  3   force =    -0.00000000    0.00000000    0.00000000
     The non-local contrib.  to forces
     atom    1 type  1   force =     0.00000000   -0.00000000   -0.00000000
     atom    2 type  1   force =     0.00000000    0.00000000   -0.00000000
     atom    3 type  2   force =    -0.00000000   -0.00000000    0.00000000
     atom    4 type  2   force =     0.00000000    0.00000000    0.00000000
     atom    5 type  3   force =    -0.00000000   -0.00000000    0.00000000
     atom    6 type  3   force =     0.00000000    0.00000000    0.00000000
     The ionic contribution  to forces
     atom    1 type  1   force =     0.00000000   -0.00000000    0.00000000
     atom    2 type  1   force =     0.00000000   -0.00000000    0.00000000
     atom    3 type  2   force =     0.00010412   -0.00006011    0.00000000
     atom    4 type  2   force =    -0.00010412    0.00006011   -0.00000000
     atom    5 type  3   force =     0.00009560   -0.00005520    0.00000000
     atom    6 type  3   force =    -0.00009560    0.00005520    0.00000000
     The local contribution  to forces
     atom    1 type  1   force =     0.00289966   -0.00382186   -0.00046485
     atom    2 type  1   force =    -0.00241410    0.00419015    0.00055255
     atom    3 type  2   force =    -0.00027736    0.00006453   -0.00133232
     atom    4 type  2   force =     0.00015021   -0.00018957    0.00128143
     atom    5 type  3   force =    -0.00011757    0.00004091    0.00095652
     atom    6 type  3   force =     0.00004982   -0.00010053   -0.00093832
     The core correction contribution to forces
     atom    1 type  1   force =     0.00000013   -0.00000018   -0.00000001
     atom    2 type  1   force =    -0.00000011    0.00000019    0.00000001
     atom    3 type  2   force =    -0.00000010    0.00000009   -0.00000004
     atom    4 type  2   force =     0.00000010   -0.00000009   -0.00000005
     atom    5 type  3   force =    -0.00000106    0.00000006   -0.00000211
     atom    6 type  3   force =     0.00000068   -0.00000089    0.00000298
     The Hubbard contrib.    to forces
     atom    1 type  1   force =     0.00000000    0.00000000    0.00000000
     atom    2 type  1   force =     0.00000000    0.00000000    0.00000000
     atom    3 type  2   force =     0.00000000    0.00000000    0.00000000
     atom    4 type  2   force =     0.00000000    0.00000000    0.00000000
     atom    5 type  3   force =     0.00000000    0.00000000    0.00000000
     atom    6 type  3   force =     0.00000000    0.00000000    0.00000000
     The SCF correction term to forces
     atom    1 type  1   force =    -0.00034112    0.00007827    0.00044746
     atom    2 type  1   force =    -0.00006047   -0.00036349   -0.00050434
     atom    3 type  2   force =     0.00013490    0.00001546    0.00118645
     atom    4 type  2   force =    -0.00001019    0.00010584   -0.00125853
     atom    5 type  3   force =     0.00001034    0.00001644   -0.00093658
     atom    6 type  3   force =     0.00005086    0.00003771    0.00093845

     Total force =     0.000000     Total SCF correction =     0.002344

     Computing stress (Cartesian axis) and pressure

          total   stress  (Ry/bohr**3)                   (kbar)     P=     -202.71
  -0.00062783   0.00000000   0.00000000          -92.36        0.00        0.00
   0.00000000  -0.00062783   0.00000000            0.00      -92.36        0.00
   0.00000000   0.00000000  -0.00287842            0.00        0.00     -423.43

     kinetic stress (kbar)  18996.97     -0.00      0.00
                               -0.00  18996.97      0.00
                               -0.00     -0.00  19065.76

     local   stress (kbar) -12902.21     -0.03      0.25
                               -0.03 -12902.22     -0.12
                                0.25     -0.12  11802.08

     nonloc. stress (kbar)  10909.21     -0.00      0.00
                               -0.00  10909.21      0.00
                               -0.00     -0.00  11003.05

     hartree stress (kbar)  28797.33     -0.03     -0.08
                               -0.03  28797.30      0.04
                               -0.08      0.04  18988.88

     exc-cor stress (kbar)    888.22     -0.00     -0.00
                               -0.00    888.22      0.00
                               -0.00      0.00    883.44

     corecor stress (kbar)  -8871.04      0.00      0.00
                                0.00  -8871.04     -0.00
                                0.00     -0.00  -8872.47

     ewald   stress (kbar) -37910.84      0.05     -0.00
                                0.05 -37910.79     -0.00
                               -0.00     -0.00 -53294.16

     hubbard stress (kbar)      0.00      0.00      0.00
                                0.00      0.00      0.00
                                0.00      0.00      0.00

     DFT-D   stress (kbar)      0.00      0.00      0.00
                                0.00      0.00      0.00
                                0.00      0.00      0.00

     XDM     stress (kbar)      0.00      0.00      0.00
                                0.00      0.00      0.00
                                0.00      0.00      0.00

     dft-nl  stress (kbar)      0.00      0.00      0.00
                                0.00      0.00      0.00
                                0.00      0.00      0.00

     TS-vdW  stress (kbar)      0.00      0.00      0.00
                                0.00      0.00      0.00
                                0.00      0.00      0.00

[...]

                                0.00      0.00      0.00

     Writing all to output data dir new_calculations/myprefix.save/

     General routines

     Parallel routines

     PAW routines

   This run was terminated on:  17:21: 0  20May2023

   JOB DONE.