     Program PWSCF v.7.0 starts on 20May2023 at 11:37: 6

     Reading input from espresso_11314.pwi
Warning: card &CELL ignored
Warning: card / ignored

     Current dimensions of program PWSCF are:
     Max number of different atomic species (ntypx) = 10
     Max number of k-points (npk) =  40000
     Max angular momentum in pseudopotentials (lmaxx) =  4

     gamma-point specific algorithms are used

     Subspace diagonalization in iterative solution of the eigenvalue problem:
     a serial algorithm will be used

     Using Slab Decomposition

     bravais-lattice index     =            0
     lattice parameter (alat)  =      13.0056  a.u.
     unit-cell volume          =    1800.6148 (a.u.)^3
     number of atoms/cell      =           12
     number of atomic types    =            3
     number of electrons       =       140.00
     number of Kohn-Sham states=           84
     kinetic-energy cutoff     =      30.0000  Ry
     charge density cutoff     =     240.0000  Ry
     scf convergence threshold =      1.0E-06
     mixing beta               =       0.7000
     number of iterations used =            8  plain     mixing
     Exchange-correlation= SLA  PW   PBE  PBE
                           (   1   4   3   4   0   0   0)

     celldm(1)=  13.005572  celldm(2)=   0.000000  celldm(3)=   0.000000
     celldm(4)=   0.000000  celldm(5)=   0.000000  celldm(6)=   0.000000

     crystal axes: (cart. coord. in units of alat)
               a(1) = (   1.000000   0.000000   0.000000 )
               a(2) = (  -0.501952   0.864896   0.000000 )
               a(3) = (   0.166356   0.288888   0.946387 )

     reciprocal axes: (cart. coord. in units 2 pi/alat)
               b(1) = (  1.000000  0.580361 -0.352937 )
               b(2) = (  0.000000  1.156209 -0.352937 )
               b(3) = (  0.000000  0.000000  1.056650 )

     PseudoPot. # 1 for Cu read from file:
     /home/pragov/projects/rrg-bengioy-ad/pragov/crystal_structure_design/SSSP/Cu_pbe_v1.2.uspp.F.UPF
     MD5 check sum: 6e991ff952a84172a2a52a1c1e996048
     Pseudo is Ultrasoft + core correction, Zval = 19.0
     Generated by new atomic code, or converted to UPF format
     Using radial grid of  867 points,  6 beta functions with:
                l(1) =   0
                l(2) =   0
                l(3) =   1
                l(4) =   1
                l(5) =   2
                l(6) =   2
     Q(r) pseudized with  8 coefficients,  rinner =    1.150   1.150   1.150
                                                       1.150   1.150

     PseudoPot. # 2 for Ge read from file:
     /home/pragov/projects/rrg-bengioy-ad/pragov/crystal_structure_design/SSSP/ge_pbe_v1.4.uspp.F.UPF
     MD5 check sum: 9c9eaa91e581c3f09632fb3098b2c6b2
     Pseudo is Ultrasoft + core correction, Zval = 14.0
     Generated by new atomic code, or converted to UPF format
     Using radial grid of  873 points,  6 beta functions with:
                l(1) =   0
                l(2) =   0
                l(3) =   1
                l(4) =   1
                l(5) =   2
                l(6) =   2
     Q(r) pseudized with  8 coefficients,  rinner =    1.400   1.400   1.400
                                                       1.400   1.400

     PseudoPot. # 3 for Se read from file:
     /home/pragov/projects/rrg-bengioy-ad/pragov/crystal_structure_design/SSSP/Se_pbe_v1.uspp.F.UPF
     MD5 check sum: 1b3568f3a8ae88f9a2a0ad0698632c85
     Pseudo is Ultrasoft + core correction, Zval =  6.0
     Generated by new atomic code, or converted to UPF format
     Using radial grid of  877 points,  6 beta functions with:
                l(1) =   0
                l(2) =   0
                l(3) =   1
                l(4) =   1
                l(5) =   2
                l(6) =   2
     Q(r) pseudized with  8 coefficients,  rinner =    1.300   1.300   1.300
                                                       1.300   1.300

     atomic species   valence    mass     pseudopotential
        Cu            19.00    63.54600     Cu( 1.00)
        Ge            14.00    72.63000     Ge( 1.00)
        Se             6.00    78.97100     Se( 1.00)

     No symmetry found

                                    s                        frac. trans.

      isym =  1     identity

 cryst.   s( 1) = (     1          0          0      )
                  (     0          1          0      )
                  (     0          0          1      )

 cart.    s( 1) = (  1.0000000  0.0000000  0.0000000 )
                  (  0.0000000  1.0000000  0.0000000 )
                  (  0.0000000  0.0000000  1.0000000 )

   Cartesian axes

     site n.     atom                  positions (alat units)
         1           Cu  tau(   1) = (   0.0855100   0.4411947   0.9427462  )
         2           Cu  tau(   2) = (   0.0804536   1.0098931   0.9443390  )
         3           Cu  tau(   3) = (   0.2554876   0.1509716   0.4695527  )
         4           Cu  tau(   4) = (   0.7498904   0.4320576   0.4711455  )
         5           Ge  tau(   5) = (   0.4192239   0.4266283   0.0062291  )
         6           Ge  tau(   6) = (   0.2417365   0.7211760   0.4794226  )
         7           Se  tau(   7) = (   0.2483355   0.1398313   0.1158964  )
         8           Se  tau(   8) = (   0.7518961   0.4357074   0.1177485  )
         9           Se  tau(   9) = (   0.5905630   0.7256692   0.5837419  )
        10           Se  tau(  10) = (   0.2480161   0.7305822   0.1105484  )
        11           Se  tau(  11) = (   0.0826036   1.0134599   0.5909420  )
        12           Se  tau(  12) = (   0.0794648   0.4294170   0.5890899  )

   Crystallographic axes

     site n.     atom                  positions (cryst. coord.)
         1           Cu  tau(   1) = (  0.0088320  0.1773830  0.9961530  )
         2           Cu  tau(   2) = (  0.3332640  0.8343550  0.9978360  )
         3           Cu  tau(   3) = (  0.1773830  0.0088320  0.4961530  )
         4           Cu  tau(   4) = (  0.8343550  0.3332640  0.4978360  )
         5           Ge  tau(   5) = (  0.6646240  0.4910730  0.0065820  )
         6           Ge  tau(   6) = (  0.4910730  0.6646240  0.5065820  )
         7           Se  tau(   7) = (  0.2885840  0.1207700  0.1224620  )
         8           Se  tau(   8) = (  0.9632060  0.4622110  0.1244190  )
         9           Se  tau(   9) = (  0.8056890  0.6330010  0.6168110  )
        10           Se  tau(  10) = (  0.6330010  0.8056890  0.1168110  )
        11           Se  tau(  11) = (  0.4622110  0.9632060  0.6244190  )
        12           Se  tau(  12) = (  0.1207700  0.2885840  0.6224620  )

     number of k points=     1  Methfessel-Paxton smearing, width (Ry)=  0.0010
                       cart. coord. in units 2pi/alat
        k(    1) = (   0.0000000   0.0000000   0.0000000), wk =   2.0000000

                       cryst. coord.
        k(    1) = (   0.0000000   0.0000000   0.0000000), wk =   2.0000000

     Initial potential from superposition of free atoms

     starting charge     135.9978, renormalised to     140.0000
     Starting wfcs are   94 randomized atomic wfcs

     Self-consistent Calculation

     iteration #  1     ecut=    30.00 Ry     beta= 0.70
     Davidson diagonalization with overlap

     ethr =  1.00E-02,  avg # of iterations =  3.0

     total energy              =   -2301.55079974 Ry
     estimated scf accuracy    <       3.97759352 Ry

[...]

     total energy              =   -2303.72447767 Ry
     estimated scf accuracy    <       0.00000218 Ry

     iteration # 21     ecut=    30.00 Ry     beta= 0.70
     Davidson diagonalization with overlap

     ethr =  1.56E-09,  avg # of iterations =  1.0

     End of self-consistent calculation

          k = 0.0000 0.0000 0.0000 (  2501 PWs)   bands (ev):

  -105.0779-105.0759-105.0713-105.0702 -62.6140 -62.6113 -62.6088 -62.6065
   -62.4078 -62.4061 -62.3868 -62.3857 -62.3652 -62.3642 -62.3604 -62.3596
   -18.1979 -18.1946 -18.1931 -18.1854 -18.1726 -18.1695 -18.1671 -18.1655
   -18.1510 -18.1504  -7.3082  -6.3592  -5.9391  -5.9140  -5.8983  -5.8950
    -1.6570  -1.0528   1.5045   2.0908   2.1022   2.2132   2.4951   2.6105
     2.8408   3.3420   3.4884   3.6084   3.6127   3.6780   3.6862   3.7187
     3.7385   3.7918   4.7864   4.7888   4.8053   4.8585   4.8753   4.9299
     4.9391   4.9685   4.9903   5.1437   5.2305   5.2594   5.3841   5.7124
     5.9187   6.3698   6.5559   6.9819   7.2590   7.2624   7.2738   7.6824
     9.4371   9.6918  10.2462  10.4367  10.9407  11.1338  11.1614  11.8756
    12.3403  12.3981  12.6054  12.7103

     occupation numbers
     1.0000   1.0000   1.0000   1.0000   1.0000   1.0000   1.0000   1.0000
     1.0000   1.0000   1.0000   1.0000   1.0000   1.0000   1.0000   1.0000
     1.0000   1.0000   1.0000   1.0000   1.0000   1.0000   1.0000   1.0000
     1.0000   1.0000   1.0000   1.0000   1.0000   1.0000   1.0000   1.0000
     1.0000   1.0000   1.0000   1.0000   1.0000   1.0000   1.0000   1.0000
     1.0000   1.0000   1.0000   1.0000   1.0000   1.0000   1.0000   1.0000
     1.0000   1.0000   1.0000   1.0000   1.0000   1.0000   1.0000   1.0000
     1.0000   1.0000   1.0000   1.0000   1.0000   1.0000   1.0000   1.0000
     1.0000   1.0000   1.0000   1.0000   0.9599   0.8426   0.1975  -0.0000
    -0.0000  -0.0000  -0.0000  -0.0000  -0.0000  -0.0000  -0.0000  -0.0000
    -0.0000  -0.0000  -0.0000  -0.0000

     the Fermi energy is     7.2685 ev

!    total energy              =   -2303.72447761 Ry
     estimated scf accuracy    <       0.00000028 Ry
     smearing contrib. (-TS)   =      -0.00030899 Ry
     internal energy E=F+TS    =   -2303.72416861 Ry

     The total energy is F=E-TS. E is the sum of the following terms:
     one-electron contribution =   -1898.63381363 Ry
     hartree contribution      =    1015.24948244 Ry
     xc contribution           =    -450.05280668 Ry
     ewald contribution        =    -970.28703075 Ry

     convergence has been achieved in  21 iterations

     Forces acting on atoms (cartesian axes, Ry/au):

     atom    1 type  1   force =     0.01834304    0.01092897   -0.01391795
     atom    2 type  1   force =     0.00130356   -0.00522565   -0.01707672
     atom    3 type  1   force =     0.00083238    0.02068761   -0.01424759
     atom    4 type  1   force =    -0.00535173   -0.00150127   -0.01710234
     atom    5 type  2   force =    -0.00554020    0.00956188   -0.02925341
     atom    6 type  2   force =     0.01124692    0.00018045   -0.02910126
     atom    7 type  3   force =    -0.01373844   -0.00799123    0.02090955
     atom    8 type  3   force =     0.01417987   -0.00696565    0.02186816
     atom    9 type  3   force =     0.00174156   -0.00962366    0.01755301
     atom   10 type  3   force =    -0.00941654   -0.00317829    0.01753153
     atom   11 type  3   force =    -0.01336582    0.00890301    0.02186610
     atom   12 type  3   force =    -0.00023460   -0.01577616    0.02097092
     The non-local contrib.  to forces
     atom    1 type  1   force =    -0.08410023   -0.03666314   -0.09734791
     atom    2 type  1   force =    -0.07134145   -0.00564204   -0.09322396
     atom    3 type  1   force =     0.01139696   -0.09194873   -0.09757287
     atom    4 type  1   force =     0.03121794   -0.06476981   -0.09322696
     atom    5 type  2   force =     0.03691189   -0.03442776    0.19886652
     atom    6 type  2   force =    -0.04789169    0.01456384    0.19903234
     atom    7 type  3   force =    -0.05645128    0.10925172   -0.02445657
     atom    8 type  3   force =    -0.03033246    0.03101562   -0.00720189
     atom    9 type  3   force =     0.03719576   -0.09303242   -0.12810041
     atom   10 type  3   force =    -0.09921913   -0.01458522   -0.12819787
     atom   11 type  3   force =     0.04173441   -0.01083693   -0.00734482
     atom   12 type  3   force =     0.12248671    0.00590030   -0.02455500
     The ionic contribution  to forces
     atom    1 type  1   force =     0.07121487   -0.83139330    0.12975451
     atom    2 type  1   force =     1.58691490   -0.61731005    0.05663130
     atom    3 type  1   force =    -0.75481481   -0.35572600    0.12975451
     atom    4 type  1   force =    -1.33046362    1.06265571    0.05663130
     atom    5 type  2   force =    -1.34076779    1.71843751   -0.88559867
     atom    6 type  2   force =     2.15926987   -0.29705118   -0.88559867
     atom    7 type  3   force =     0.65411947    1.48302800   -0.49725076
     atom    8 type  3   force =    -2.01175096    0.11489104   -0.42644737
     atom    9 type  3   force =    -2.47346941    0.15572533    1.62291100
     atom   10 type  3   force =     1.37624874   -2.06112608    1.62291099
     atom   11 type  3   force =     1.10917090   -1.68228469   -0.42644737
     atom   12 type  3   force =     0.95432784    1.31015370   -0.49725076
     The local contribution  to forces
     atom    1 type  1   force =     0.03049846    0.87939222   -0.04674829
     atom    2 type  1   force =    -1.51428541    0.61735714    0.01929814
     atom    3 type  1   force =     0.74413468    0.46893074   -0.04628143
     atom    4 type  1   force =     1.29398572   -0.99963196    0.01923878
     atom    5 type  2   force =     1.29822161   -1.67375316    0.66114252
     atom    6 type  2   force =    -2.09997195    0.28270245    0.66091783
     atom    7 type  3   force =    -0.61925807   -1.58869159    0.54010608
     atom    8 type  3   force =     2.05491165   -0.14898899    0.45522092
     atom    9 type  3   force =     2.44420427   -0.08384459   -1.49434356
     atom   10 type  3   force =    -1.29945816    2.07198747   -1.49426564
     atom   11 type  3   force =    -1.15995473    1.70242722    0.45555985
     atom   12 type  3   force =    -1.06266971   -1.33289032    0.54034185
     The core correction contribution to forces
     atom    1 type  1   force =     0.00016623    0.00003742    0.00024101
     atom    2 type  1   force =     0.00004120   -0.00003393    0.00022007
     atom    3 type  1   force =    -0.00005326    0.00016386    0.00024067
     atom    4 type  1   force =    -0.00005186    0.00001940    0.00022020
     atom    5 type  2   force =    -0.00001547   -0.00057527   -0.00337699
     atom    6 type  2   force =    -0.00049183   -0.00029588   -0.00337941
     atom    7 type  3   force =     0.00809129   -0.01168118    0.00230786
     atom    8 type  3   force =     0.00156616   -0.00386846    0.00013213
     atom    9 type  3   force =    -0.00619305    0.01143027    0.01705871
     atom   10 type  3   force =     0.01300542    0.00038895    0.01707184
     atom   11 type  3   force =    -0.00408934   -0.00056680    0.00015223
     atom   12 type  3   force =    -0.01411755    0.00115019    0.00232205
     The Hubbard contrib.    to forces
     atom    1 type  1   force =     0.00000000    0.00000000    0.00000000
     atom    2 type  1   force =     0.00000000    0.00000000    0.00000000
     atom    3 type  1   force =     0.00000000    0.00000000    0.00000000
     atom    4 type  1   force =     0.00000000    0.00000000    0.00000000
     atom    5 type  2   force =     0.00000000    0.00000000    0.00000000
     atom    6 type  2   force =     0.00000000    0.00000000    0.00000000
     atom    7 type  3   force =     0.00000000    0.00000000    0.00000000
     atom    8 type  3   force =     0.00000000    0.00000000    0.00000000
     atom    9 type  3   force =     0.00000000    0.00000000    0.00000000
     atom   10 type  3   force =     0.00000000    0.00000000    0.00000000
     atom   11 type  3   force =     0.00000000    0.00000000    0.00000000
     atom   12 type  3   force =     0.00000000    0.00000000    0.00000000
     The SCF correction term to forces
     atom    1 type  1   force =     0.00069335   -0.00049603    0.00011963
     atom    2 type  1   force =     0.00010396    0.00035141   -0.00006537
     atom    3 type  1   force =     0.00029844   -0.00078407   -0.00045157
     atom    4 type  1   force =     0.00008973    0.00017358   -0.00002876
     atom    5 type  2   force =     0.00023920   -0.00017124   -0.00034989
     atom    6 type  2   force =     0.00046216    0.00020941   -0.00013645
     atom    7 type  3   force =    -0.00011020    0.00005002    0.00013984
     atom    8 type  3   force =    -0.00008489   -0.00006667    0.00010127
     atom    9 type  3   force =     0.00013362    0.00004594   -0.00003583
     atom   10 type  3   force =     0.00013624    0.00010477   -0.00005090
     atom   11 type  3   force =    -0.00009743    0.00011240   -0.00011689
     atom   12 type  3   force =    -0.00013225   -0.00014185    0.00004968

     Total force =     0.086769     Total SCF correction =     0.001580

     Computing stress (Cartesian axis) and pressure

          total   stress  (Ry/bohr**3)                   (kbar)     P=     -175.12
  -0.00112329   0.00001036  -0.00010071         -165.24        1.52      -14.82
   0.00001036  -0.00111132  -0.00017494            1.52     -163.48      -25.73
  -0.00010071  -0.00017494  -0.00133678          -14.82      -25.73     -196.65

     kinetic stress (kbar)  12925.16     -3.88    -22.13
                               -3.88  12921.04    -38.18
                              -22.13    -38.18  12822.78

     local   stress (kbar) -17671.95    -78.51   -101.27
                              -78.51 -17764.59   -176.86
                             -101.27   -176.86 -16956.91

     nonloc. stress (kbar)   9971.40      6.26    -11.83
                                6.26   9979.20    -20.20
                              -11.83    -20.20   9796.90

     hartree stress (kbar)  27674.48     15.45     70.85
                               15.45  27693.01    123.44
                               70.85    123.44  27575.49

     exc-cor stress (kbar)  10712.44      0.10     -0.50
                                0.10  10712.56     -0.86
                               -0.50     -0.86  10708.12

     corecor stress (kbar) -17454.06      0.18      1.87
                                0.18 -17453.88      3.23
                                1.87      3.23 -17446.88

     ewald   stress (kbar) -26322.70     61.92     48.19
                               61.92 -26250.83     83.69
                               48.19     83.69 -26696.15

     hubbard stress (kbar)      0.00      0.00      0.00
                                0.00      0.00      0.00
                                0.00      0.00      0.00

     DFT-D   stress (kbar)      0.00      0.00      0.00
                                0.00      0.00      0.00
                                0.00      0.00      0.00

     XDM     stress (kbar)      0.00      0.00      0.00
                                0.00      0.00      0.00
                                0.00      0.00      0.00

     dft-nl  stress (kbar)      0.00      0.00      0.00
                                0.00      0.00      0.00
                                0.00      0.00      0.00

     TS-vdW  stress (kbar)      0.00      0.00      0.00
                                0.00      0.00      0.00
                                0.00      0.00      0.00

[...]

                                0.00      0.00      0.00

     Writing all to output data dir new_calculations/myprefix.save/

     General routines

     Parallel routines

   This run was terminated on:  11:37:52  20May2023

   JOB DONE.