     Program PWSCF v.7.0 starts on 21May2023 at  9:40: 3

     Reading input from espresso_24591.pwi
Warning: card &CELL ignored
Warning: card / ignored

     Current dimensions of program PWSCF are:
     Max number of different atomic species (ntypx) = 10
     Max number of k-points (npk) =  40000
     Max angular momentum in pseudopotentials (lmaxx) =  4
     file Nb.pbe-spn-kjpaw_psl.0.3.0.UPF: wavefunction(s)  4S 4P renormalized

     gamma-point specific algorithms are used
     Message from routine setup:
     using ibrav=0 with symmetry is DISCOURAGED, use correct ibrav instead

     Subspace diagonalization in iterative solution of the eigenvalue problem:
     a serial algorithm will be used

     Using Slab Decomposition

     bravais-lattice index     =            0
     lattice parameter (alat)  =      13.2795  a.u.
     unit-cell volume          =    3387.3970 (a.u.)^3
     number of atoms/cell      =           16
     number of atomic types    =            3
     number of electrons       =       128.00
     number of Kohn-Sham states=           77
     kinetic-energy cutoff     =      30.0000  Ry
     charge density cutoff     =     240.0000  Ry
     scf convergence threshold =      1.0E-06
     mixing beta               =       0.7000
     number of iterations used =            8  plain     mixing
     Exchange-correlation=  SLA  PW   PBX  PBC
                           (   1   4   3   4   0   0   0)

     celldm(1)=  13.279515  celldm(2)=   0.000000  celldm(3)=   0.000000
     celldm(4)=   0.000000  celldm(5)=   0.000000  celldm(6)=   0.000000

     crystal axes: (cart. coord. in units of alat)
               a(1) = (   1.000000   0.000000   0.000000 )
               a(2) = (   0.567703   0.823234   0.000000 )
               a(3) = (   0.334485   0.175645   1.757099 )

     reciprocal axes: (cart. coord. in units 2 pi/alat)
               b(1) = (  1.000000 -0.689601 -0.121428 )
               b(2) = (  0.000000  1.214722 -0.121428 )
               b(3) = (  0.000000  0.000000  0.569120 )

     PseudoPot. # 1 for Rb read from file:
     /home/pragov/projects/rrg-bengioy-ad/pragov/crystal_structure_design/SSSP/Rb_ONCV_PBE-1.0.oncvpsp.upf
     MD5 check sum: 55a5172d6bfbce6759a58e35d43f6aa9
     Pseudo is Norm-conserving, Zval =  9.0
     Generated using ONCVPSP code by D. R. Hamann
     Using radial grid of 2308 points,  6 beta functions with:
                l(1) =   0
                l(2) =   0
                l(3) =   1
                l(4) =   1
                l(5) =   2
                l(6) =   2

     PseudoPot. # 2 for Nb read from file:
     /home/pragov/projects/rrg-bengioy-ad/pragov/crystal_structure_design/SSSP/Nb.pbe-spn-kjpaw_psl.0.3.0.UPF
     MD5 check sum: 411d72ad547312f8017e2943ceca08cc
     Pseudo is Projector augmented-wave + core cor, Zval = 13.0
     Generated using "atomic" code by A. Dal Corso  v.5.0.99 svn rev. 10869
     Shape of augmentation charge: PSQ
     Using radial grid of 1227 points,  6 beta functions with:
                l(1) =   0
                l(2) =   0
                l(3) =   1
                l(4) =   1
                l(5) =   2
                l(6) =   2
     Q(r) pseudized with 0 coefficients

     PseudoPot. # 3 for Cl read from file:
     /home/pragov/projects/rrg-bengioy-ad/pragov/crystal_structure_design/SSSP/cl_pbe_v1.4.uspp.F.UPF
     MD5 check sum: fc6f6913ecf08c9257cb748ef0700058
     Pseudo is Ultrasoft + core correction, Zval =  7.0
     Generated by new atomic code, or converted to UPF format
     Using radial grid of  909 points,  6 beta functions with:
                l(1) =   0
                l(2) =   0
                l(3) =   1
                l(4) =   1
                l(5) =   2
                l(6) =   2
     Q(r) pseudized with  8 coefficients,  rinner =    1.300   1.300   1.300
                                                       1.300   1.300

     atomic species   valence    mass     pseudopotential
        Rb             9.00    85.46780     Rb( 1.00)
        Nb            13.00    92.90637     Nb( 1.00)
        Cl             7.00    35.45000     Cl( 1.00)

      2 Sym. Ops., with inversion, found

                                    s                        frac. trans.

      isym =  1     identity

 cryst.   s( 1) = (     1          0          0      )
                  (     0          1          0      )
                  (     0          0          1      )

 cart.    s( 1) = (  1.0000000 -0.0000000  0.0000000 )
                  (  0.0000000  1.0000000  0.0000000 )
                  (  0.0000000  0.0000000  1.0000000 )

      isym =  2     inversion

 cryst.   s( 2) = (    -1          0          0      )
                  (     0         -1          0      )
                  (     0          0         -1      )

 cart.    s( 2) = ( -1.0000000  0.0000000 -0.0000000 )
                  (  0.0000000 -1.0000000 -0.0000000 )
                  (  0.0000000  0.0000000 -1.0000000 )

   Cartesian axes

     site n.     atom                  positions (alat units)
         1           Rb  tau(   1) = (   1.1995093   0.2295301   1.3178245  )
         2           Rb  tau(   2) = (   0.7026788   0.7693490   0.4392748  )
         3           Nb  tau(   3) = (   0.6672427   0.0878227   0.8785497  )
         4           Nb  tau(   4) = (   0.2838513   0.4116168   0.0000000  )
         5           Cl  tau(   5) = (   1.0630438   0.6830910   1.0594518  )
         6           Cl  tau(   6) = (   0.8391443   0.3157880   0.6976475  )
         7           Cl  tau(   7) = (   0.9035945   0.5993608   1.5761972  )
         8           Cl  tau(   8) = (   0.9985936   0.3995182   0.1809022  )
         9           Cl  tau(   9) = (   0.7044008   0.2799960   1.1558112  )
        10           Cl  tau(  10) = (   1.1977873   0.7188830   0.6012882  )
        11           Cl  tau(  11) = (   1.4390385   0.6657697   1.4798379  )
        12           Cl  tau(  12) = (   0.4631497   0.3331093   0.2772615  )
        13           Cl  tau(  13) = (   1.3159498   0.7418332   0.0702559  )
        14           Cl  tau(  14) = (   0.5862383   0.2570459   1.6868435  )
        15           Cl  tau(  15) = (   0.3771752   0.2488628   0.8082938  )
        16           Cl  tau(  16) = (   1.5250130   0.7500162   0.9488055  )

   Crystallographic axes

     site n.     atom                  positions (cryst. coord.)
         1           Rb  tau(   1) = (  0.8812050  0.1187950  0.7500000  )
         2           Rb  tau(   2) = (  0.1187950  0.8812050  0.2500000  )
         3           Nb  tau(   3) = (  0.5000000  0.0000000  0.5000000  )
         4           Nb  tau(   4) = (  0.0000000  0.5000000  0.0000000  )
         5           Cl  tau(   5) = (  0.4633370  0.7011190  0.6029550  )
         6           Cl  tau(   6) = (  0.5366630  0.2988810  0.3970450  )
         7           Cl  tau(   7) = (  0.2988810  0.5366630  0.8970450  )
         8           Cl  tau(   8) = (  0.7011190  0.4633370  0.1029550  )
         9           Cl  tau(   9) = (  0.3709680  0.1997700  0.6577950  )
        10           Cl  tau(  10) = (  0.6290320  0.8002300  0.3422050  )
        11           Cl  tau(  11) = (  0.8002300  0.6290320  0.8422050  )
        12           Cl  tau(  12) = (  0.1997700  0.3709680  0.1577950  )
        13           Cl  tau(  13) = (  0.7958500  0.8925900  0.0399840  )
        14           Cl  tau(  14) = (  0.2041500  0.1074100  0.9600160  )
        15           Cl  tau(  15) = (  0.1074100  0.2041500  0.4600160  )
        16           Cl  tau(  16) = (  0.8925900  0.7958500  0.5399840  )

     number of k points=     1  Methfessel-Paxton smearing, width (Ry)=  0.0010
                       cart. coord. in units 2pi/alat
        k(    1) = (   0.0000000   0.0000000   0.0000000), wk =   2.0000000

                       cryst. coord.
        k(    1) = (   0.0000000   0.0000000   0.0000000), wk =   2.0000000

     Check: negative core charge=   -0.000005

     Initial potential from superposition of free atoms

     starting charge     127.9461, renormalised to     128.0000

     negative rho (up, down):  1.803E-01 0.000E+00
     Starting wfcs are   78 randomized atomic wfcs
     Checking if some PAW data can be deallocated...

     Self-consistent Calculation

     iteration #  1     ecut=    30.00 Ry     beta= 0.70
     Davidson diagonalization with overlap

     ethr =  1.00E-02,  avg # of iterations =  4.0

     negative rho (up, down):  1.880E-01 0.000E+00

     total energy              =   -1165.89072443 Ry
     estimated scf accuracy    <       2.82395987 Ry

[...]

     total energy              =   -1167.53371868 Ry
     estimated scf accuracy    <       0.00000133 Ry

     iteration # 12     ecut=    30.00 Ry     beta= 0.70
     Davidson diagonalization with overlap

     ethr =  1.04E-09,  avg # of iterations =  2.0

[...]

     End of self-consistent calculation

          k = 0.0000 0.0000 0.0000 (  4704 PWs)   bands (ev):

   -54.3084 -54.3084 -30.3018 -30.3017 -30.2840 -30.2839 -30.2695 -30.2694
   -23.5072 -23.5070 -12.4571 -12.3763 -11.9136 -11.9021 -11.8765 -11.8720
   -11.8622 -11.7558 -11.7440 -11.7179 -11.6631 -11.6484  -7.5786  -7.5780
    -7.5746  -7.5677  -7.5666  -7.5577  -2.1110  -2.0280  -1.9189  -1.8447
    -1.8247  -1.7781  -1.5280  -1.4776  -1.3706  -1.3504  -1.2121  -1.1778
    -1.0264  -0.9514  -0.9307  -0.8729  -0.6226  -0.5399   0.0299   0.1276
     0.2535   0.3717   0.4384   0.6450   0.6746   0.7013   0.7450   0.8072
     0.8201   0.8677   0.9006   0.9206   0.9765   0.9920   1.0636   1.1443
     3.3884   3.4629   3.4860   3.4907   3.6118   3.6166   6.3206   6.3663
     6.4150   6.5640   7.0258   8.0929   9.1461

     occupation numbers
     1.0000   1.0000   1.0000   1.0000   1.0000   1.0000   1.0000   1.0000
     1.0000   1.0000   1.0000   1.0000   1.0000   1.0000   1.0000   1.0000
     1.0000   1.0000   1.0000   1.0000   1.0000   1.0000   1.0000   1.0000
     1.0000   1.0000   1.0000   1.0000   1.0000   1.0000   1.0000   1.0000
     1.0000   1.0000   1.0000   1.0000   1.0000   1.0000   1.0000   1.0000
     1.0000   1.0000   1.0000   1.0000   1.0000   1.0000   1.0000   1.0000
     1.0000   1.0000   1.0000   1.0000   1.0000   1.0000   1.0000   1.0000
     1.0000   1.0000   1.0000   1.0000   1.0000   1.0000   1.0000   1.0000
    -0.0000  -0.0000  -0.0000  -0.0000  -0.0000  -0.0000  -0.0000  -0.0000
    -0.0000  -0.0000  -0.0000  -0.0000  -0.0000

     the Fermi energy is     1.3164 ev

!    total energy              =   -1167.53371897 Ry
     estimated scf accuracy    <       0.00000013 Ry
     smearing contrib. (-TS)   =       0.00000000 Ry
     internal energy E=F+TS    =   -1167.53371897 Ry

     The total energy is F=E-TS. E is the sum of the following terms:
     one-electron contribution =    -328.90788563 Ry
     hartree contribution      =     202.83916361 Ry
     xc contribution           =    -185.64737318 Ry
     ewald contribution        =    -438.85387899 Ry
     one-center paw contrib.   =    -416.96374477 Ry
      -> PAW hartree energy AE =     129.54608380 Ry
      -> PAW hartree energy PS =    -128.81760244 Ry
      -> PAW xc energy AE      =    -470.94420086 Ry
      -> PAW xc energy PS      =      53.25197473 Ry
      -> total E_H with PAW    =     203.56764496 Ry
      -> total E_XC with PAW   =    -603.33959931 Ry

     convergence has been achieved in  12 iterations

     negative rho (up, down):  1.800E-01 0.000E+00

     Forces acting on atoms (cartesian axes, Ry/au):

     atom    1 type  1   force =     0.00114321   -0.00217264   -0.00003159
     atom    2 type  1   force =    -0.00114321    0.00217264    0.00003159
     atom    3 type  2   force =     0.00000000    0.00000000    0.00000000
     atom    4 type  2   force =     0.00000000    0.00000000    0.00000000
     atom    5 type  3   force =     0.00426454   -0.00076873   -0.00210536
     atom    6 type  3   force =    -0.00426454    0.00076873    0.00210536
     atom    7 type  3   force =    -0.00178538   -0.00394636    0.00207017
     atom    8 type  3   force =     0.00178538    0.00394636   -0.00207017
     atom    9 type  3   force =    -0.00310392   -0.00342583   -0.00175321
     atom   10 type  3   force =     0.00310392    0.00342583    0.00175321
     atom   11 type  3   force =     0.00460099    0.00060870    0.00174281
     atom   12 type  3   force =    -0.00460099   -0.00060870   -0.00174281
     atom   13 type  3   force =     0.00565497   -0.00587409   -0.00773001
     atom   14 type  3   force =    -0.00565497    0.00587409    0.00773001
     atom   15 type  3   force =     0.00163942   -0.00800004    0.00774763
     atom   16 type  3   force =    -0.00163942    0.00800004   -0.00774763
     The non-local contrib.  to forces
     atom    1 type  1   force =    -0.00096920    0.00184386    0.00000310
     atom    2 type  1   force =     0.00096920   -0.00184386   -0.00000310
     atom    3 type  2   force =     0.00000000    0.00000000    0.00000000
     atom    4 type  2   force =     0.00000000    0.00000000    0.00000000
     atom    5 type  3   force =     0.06770080    0.09230187   -0.01786063
     atom    6 type  3   force =    -0.06770080   -0.09230187    0.01786063
     atom    7 type  3   force =    -0.11445682   -0.00332968    0.01793978
     atom    8 type  3   force =     0.11445682    0.00332968   -0.01793978
     atom    9 type  3   force =    -0.00760777   -0.08782831   -0.07911658
     atom   10 type  3   force =     0.00760777    0.08782831    0.07911658
     atom   11 type  3   force =     0.07661142   -0.04361609    0.07918052
     atom   12 type  3   force =    -0.07661142    0.04361609   -0.07918052
     atom   13 type  3   force =     0.00378484   -0.13083247   -0.00698704
     atom   14 type  3   force =    -0.00378484    0.13083247    0.00698704
     atom   15 type  3   force =     0.10550753   -0.07735752    0.00693157
     atom   16 type  3   force =    -0.10550753    0.07735752   -0.00693157
     The ionic contribution  to forces
     atom    1 type  1   force =    -0.34600512    0.65890544    0.00000000
     atom    2 type  1   force =     0.34600512   -0.65890544    0.00000000
     atom    3 type  2   force =     0.00000000    0.00000000   -0.00000000
     atom    4 type  2   force =     0.00000000   -0.00000000   -0.00000000
     atom    5 type  3   force =    -4.26839237   -5.85886849    4.71118350
     atom    6 type  3   force =     4.26839237    5.85886849   -4.71118350
     atom    7 type  3   force =     7.24639556    0.18778914   -4.71118350
     atom    8 type  3   force =    -7.24639556   -0.18778914    4.71118350
     atom    9 type  3   force =     1.11443602    4.74174036    6.61617499
     atom   10 type  3   force =    -1.11443602   -4.74174036   -6.61617499
     atom   11 type  3   force =    -4.53622866    1.77445734   -6.61617499
     atom   12 type  3   force =     4.53622866   -1.77445734    6.61617499
     atom   13 type  3   force =     0.80033541    7.89981313    1.92277071
     atom   14 type  3   force =    -0.80033541   -7.89981313   -1.92277071
     atom   15 type  3   force =    -6.95774477    3.82588186   -1.92277071
     atom   16 type  3   force =     6.95774477   -3.82588186    1.92277071
     The local contribution  to forces
     atom    1 type  1   force =     0.34814246   -0.66301663    0.00000103
     atom    2 type  1   force =    -0.34814811    0.66301879   -0.00005279
     atom    3 type  2   force =     0.00000932   -0.00000197   -0.00021182
     atom    4 type  2   force =     0.00001184   -0.00000734    0.00031161
     atom    5 type  3   force =     4.20576763    5.76699554   -4.69486260
     atom    6 type  3   force =    -4.20580291   -5.76698498    4.69454204
     atom    7 type  3   force =    -7.13510252   -0.18843294    4.69473330
     atom    8 type  3   force =     7.13509391    0.18842511   -4.69431842
     atom    9 type  3   force =    -1.10987570   -4.65854209   -6.53925319
     atom   10 type  3   force =     1.10993570    4.65858315    6.53905892
     atom   11 type  3   force =     4.46522242   -1.73091902    6.53919783
     atom   12 type  3   force =    -4.46524794    1.73092632   -6.53900914
     atom   13 type  3   force =    -0.79829292   -7.77633251   -1.92278354
     atom   14 type  3   force =     0.79828348    7.77637825    1.92334485
     atom   15 type  3   force =     6.85513816   -3.75758186    1.92295544
     atom   16 type  3   force =    -6.85511615    3.75760461   -1.92342556
     The core correction contribution to forces
     atom    1 type  1   force =     0.00000000    0.00000000    0.00000000
     atom    2 type  1   force =     0.00000000    0.00000000    0.00000000
     atom    3 type  2   force =    -0.00000006    0.00000045   -0.00000160
     atom    4 type  2   force =    -0.00000042    0.00000078    0.00000275
     atom    5 type  3   force =    -0.00075609   -0.00105735   -0.00090896
     atom    6 type  3   force =     0.00075572    0.00105832    0.00090625
     atom    7 type  3   force =     0.00130250    0.00002164    0.00090488
     atom    8 type  3   force =    -0.00130246   -0.00002131   -0.00090101
     atom    9 type  3   force =    -0.00003543    0.00118079    0.00028461
     atom   10 type  3   force =     0.00003643   -0.00118005   -0.00028626
     atom   11 type  3   force =    -0.00095097    0.00070088   -0.00028861
     atom   12 type  3   force =     0.00095055   -0.00070084    0.00028936
     atom   13 type  3   force =    -0.00018448    0.00146324   -0.00047745
     atom   14 type  3   force =     0.00018433   -0.00146233    0.00048350
     atom   15 type  3   force =    -0.00109624    0.00098051    0.00048058
     atom   16 type  3   force =     0.00109661   -0.00097983   -0.00048653
     The Hubbard contrib.    to forces
     atom    1 type  1   force =     0.00000000    0.00000000    0.00000000
     atom    2 type  1   force =     0.00000000    0.00000000    0.00000000
     atom    3 type  2   force =     0.00000000    0.00000000    0.00000000
     atom    4 type  2   force =     0.00000000    0.00000000    0.00000000
     atom    5 type  3   force =     0.00000000    0.00000000    0.00000000
     atom    6 type  3   force =     0.00000000    0.00000000    0.00000000
     atom    7 type  3   force =     0.00000000    0.00000000    0.00000000
     atom    8 type  3   force =     0.00000000    0.00000000    0.00000000
     atom    9 type  3   force =     0.00000000    0.00000000    0.00000000
     atom   10 type  3   force =     0.00000000    0.00000000    0.00000000
     atom   11 type  3   force =     0.00000000    0.00000000    0.00000000
     atom   12 type  3   force =     0.00000000    0.00000000    0.00000000
     atom   13 type  3   force =     0.00000000    0.00000000    0.00000000
     atom   14 type  3   force =     0.00000000    0.00000000    0.00000000
     atom   15 type  3   force =     0.00000000    0.00000000    0.00000000
     atom   16 type  3   force =     0.00000000    0.00000000    0.00000000
     The SCF correction term to forces
     atom    1 type  1   force =    -0.00002490    0.00009581   -0.00002423
     atom    2 type  1   force =     0.00003061   -0.00009573    0.00009897
     atom    3 type  2   force =    -0.00001150   -0.00000276    0.00019201
     atom    4 type  2   force =    -0.00000477    0.00000745   -0.00033254
     atom    5 type  3   force =    -0.00006030   -0.00013498    0.00030122
     atom    6 type  3   force =     0.00008620    0.00013408   -0.00006220
     atom    7 type  3   force =     0.00007258    0.00000971   -0.00027389
     atom    8 type  3   force =    -0.00007065    0.00000625   -0.00004404
     atom    9 type  3   force =    -0.00000831    0.00003123    0.00014150
     atom   10 type  3   force =    -0.00002721   -0.00005741    0.00002350
     atom   11 type  3   force =    -0.00006092   -0.00001356   -0.00015579
     atom   12 type  3   force =     0.00007147    0.00000790   -0.00000134
     atom   13 type  3   force =     0.00001061    0.00002360   -0.00018446
     atom   14 type  3   force =    -0.00000403   -0.00005209   -0.00024645
     atom   15 type  3   force =    -0.00016533    0.00008488    0.00007383
     atom   16 type  3   force =     0.00014281   -0.00009249    0.00024841

     Total force =     0.026618     Total SCF correction =     0.000834

     Computing stress (Cartesian axis) and pressure

     negative rho (up, down):  1.800E-01 0.000E+00
          total   stress  (Ry/bohr**3)                   (kbar)     P=       -2.46
   0.00002765   0.00004028  -0.00000953            4.07        5.92       -1.40
   0.00004028  -0.00002785  -0.00000499            5.92       -4.10       -0.73
  -0.00000953  -0.00000499  -0.00005004           -1.40       -0.73       -7.36

     kinetic stress (kbar)   7212.78      9.48      0.65
                                9.48   7199.70      0.34
                                0.65      0.34   7183.12

     local   stress (kbar)  -6471.67     29.10    -44.74
                               29.10  -6511.80    -23.50
                              -44.74    -23.50  -6273.88

     nonloc. stress (kbar)   4550.08      2.60      0.14
                                2.60   4546.49      0.07
                                0.14      0.07   4542.90

     hartree stress (kbar)   2946.86    -35.78     31.04
                              -35.78   2996.21     16.32
                               31.04     16.32   2865.66

     exc-cor stress (kbar)   1367.43      0.06     -0.08
                                0.06   1367.35     -0.04
                               -0.08     -0.04   1367.43

     corecor stress (kbar)  -3279.59     -0.20      0.00
                               -0.20  -3279.31      0.00
                                0.00      0.00  -3278.96

     ewald   stress (kbar)  -6321.82      0.66     11.58
                                0.66  -6322.73      6.08
                               11.58      6.08  -6413.64

     hubbard stress (kbar)      0.00      0.00      0.00
                                0.00      0.00      0.00
                                0.00      0.00      0.00

     DFT-D   stress (kbar)      0.00      0.00      0.00
                                0.00      0.00      0.00
                                0.00      0.00      0.00

     XDM     stress (kbar)      0.00      0.00      0.00
                                0.00      0.00      0.00
                                0.00      0.00      0.00

     dft-nl  stress (kbar)      0.00      0.00      0.00
                                0.00      0.00      0.00
                                0.00      0.00      0.00

     TS-vdW  stress (kbar)      0.00      0.00      0.00
                                0.00      0.00      0.00
                                0.00      0.00      0.00

[...]

                                0.00      0.00      0.00

     Writing all to output data dir new_calculations/myprefix.save/

     General routines

     Parallel routines

     PAW routines

   This run was terminated on:   9:40:45  21May2023

   JOB DONE.