     Program PWSCF v.7.0 starts on 21May2023 at 21: 0: 4

     Reading input from espresso_24055.pwi
Warning: card &CELL ignored
Warning: card / ignored

     Current dimensions of program PWSCF are:
     Max number of different atomic species (ntypx) = 10
     Max number of k-points (npk) =  40000
     Max angular momentum in pseudopotentials (lmaxx) =  4
     file O.pbe-n-kjpaw_psl.0.1.UPF: wavefunction(s)  2P renormalized

     gamma-point specific algorithms are used
     Message from routine setup:
     using ibrav=0 with symmetry is DISCOURAGED, use correct ibrav instead

     Subspace diagonalization in iterative solution of the eigenvalue problem:
     a serial algorithm will be used

     Using Slab Decomposition

     bravais-lattice index     =            0
     lattice parameter (alat)  =      10.7521  a.u.
     unit-cell volume          =     878.9575 (a.u.)^3
     number of atoms/cell      =           10
     number of atomic types    =            4
     number of electrons       =       104.00
     number of Kohn-Sham states=           62
     kinetic-energy cutoff     =      30.0000  Ry
     charge density cutoff     =     240.0000  Ry
     scf convergence threshold =      1.0E-06
     mixing beta               =       0.7000
     number of iterations used =            8  plain     mixing
     Exchange-correlation= SLA  PW   PBX  PBC
                           (   1   4   3   4   0   0   0)

     celldm(1)=  10.752125  celldm(2)=   0.000000  celldm(3)=   0.000000
     celldm(4)=   0.000000  celldm(5)=   0.000000  celldm(6)=   0.000000

     crystal axes: (cart. coord. in units of alat)
               a(1) = (   1.000000   0.000000   0.000000 )
               a(2) = (   0.500000   0.866025   0.000000 )
               a(3) = (   0.500000   0.288675   0.816497 )

     reciprocal axes: (cart. coord. in units 2 pi/alat)
               b(1) = (  1.000000 -0.577350 -0.408248 )
               b(2) = (  0.000000  1.154701 -0.408248 )
               b(3) = (  0.000000  0.000000  1.224745 )

     PseudoPot. # 1 for Eu read from file:
     /home/pragov/projects/rrg-bengioy-ad/pragov/crystal_structure_design/SSSP/Eu.GGA-PBE-paw-v1.0.UPF
     MD5 check sum: acec5fd9176fb57ec8e299eae1ecaf48
     Pseudo is Projector augmented-wave + core cor, Zval = 17.0
     Generated using ATOMPAW code
     Shape of augmentation charge: BESSEL
     Using radial grid of 1109 points,  8 beta functions with:
                l(1) =   0
                l(2) =   0
                l(3) =   1
                l(4) =   1
                l(5) =   2
                l(6) =   2
                l(7) =   3
                l(8) =   3
     Q(r) pseudized with 0 coefficients

     PseudoPot. # 2 for Zn read from file:
     /home/pragov/projects/rrg-bengioy-ad/pragov/crystal_structure_design/SSSP/Zn_pbe_v1.uspp.F.UPF
     MD5 check sum: df62231357ef9e81f77b2b3087fa5675
     Pseudo is Ultrasoft, Zval = 20.0
     Generated by new atomic code, or converted to UPF format
     Using radial grid of  943 points,  6 beta functions with:
                l(1) =   0
                l(2) =   0
                l(3) =   1
                l(4) =   1
                l(5) =   2
                l(6) =   2
     Q(r) pseudized with  8 coefficients,  rinner =    1.100   1.100   1.100
                                                       1.100   1.100

     PseudoPot. # 3 for W  read from file:
     /home/pragov/projects/rrg-bengioy-ad/pragov/crystal_structure_design/SSSP/W_pbe_v1.2.uspp.F.UPF
     MD5 check sum: 9c083fa34c2a2ea0f02f1f893e16e1c8
     Pseudo is Ultrasoft + core correction, Zval = 14.0
     Generated by new atomic code, or converted to UPF format
     Using radial grid of  923 points,  8 beta functions with:
                l(1) =   0
                l(2) =   0
                l(3) =   0
                l(4) =   1
                l(5) =   1
                l(6) =   2
                l(7) =   2
                l(8) =   3
     Q(r) pseudized with  6 coefficients,  rinner =    1.350   1.350   1.350
                                                       1.350   1.350   1.350
                                                       1.350

     PseudoPot. # 4 for O  read from file:
     /home/pragov/projects/rrg-bengioy-ad/pragov/crystal_structure_design/SSSP/O.pbe-n-kjpaw_psl.0.1.UPF
     MD5 check sum: 0234752ac141de4415c5fc33072bef88
     Pseudo is Projector augmented-wave + core cor, Zval =  6.0
     Generated using "atomic" code by A. Dal Corso  v.5.0.99 svn rev. 10869
     Shape of augmentation charge: BESSEL
     Using radial grid of 1095 points,  4 beta functions with:
                l(1) =   0
                l(2) =   0
                l(3) =   1
                l(4) =   1
     Q(r) pseudized with 0 coefficients

     atomic species   valence    mass     pseudopotential
        Eu            17.00   151.96400     Eu( 1.00)
        Zn            20.00    65.38000     Zn( 1.00)
        W             14.00   183.84000     W ( 1.00)
        O              6.00    15.99900     O ( 1.00)

     12 Sym. Ops., with inversion, found

                                    s                        frac. trans.

      isym =  1     identity

 cryst.   s( 1) = (     1          0          0      )
                  (     0          1          0      )
                  (     0          0          1      )

 cart.    s( 1) = (  1.0000000  0.0000000  0.0000000 )
                  (  0.0000000  1.0000000  0.0000000 )
                  (  0.0000000  0.0000000  1.0000000 )

      isym =  2     180 deg rotation - cart. axis [1,0,0]

[...]

      isym =  3     120 deg rotation - cryst. axis [0,0,1]

[...]

      isym =  6     180 deg rotation - cryst. axis [1,1,0]

[...]

      isym =  7     inversion

[...]

      isym =  8     inv. 180 deg rotation - cart. axis [1,0,0]

[...]

      isym =  9     inv. 120 deg rotation - cryst. axis [0,0,1]

 cryst.   s( 9) = (     1         -1          0      )
                  (     1          0          0      )
                  (     1          0         -1      )

 cart.    s( 9) = (  0.5000000  0.8660254  0.0000000 )
                  ( -0.8660254  0.5000000  0.0000000 )
                  (  0.0000000  0.0000000 -1.0000000 )

[...]

 cryst.   s(10) = (     0          1          0      )
                  (    -1          1          0      )
                  (     0          1         -1      )

 cart.    s(10) = (  0.5000000 -0.8660254 -0.0000000 )
                  (  0.8660254  0.5000000  0.0000000 )
                  (  0.0000000  0.0000000 -1.0000000 )

[...]

      isym = 12     inv. 180 deg rotation - cryst. axis [1,1,0]

 cryst.   s(12) = (     1         -1          0      )
                  (     0         -1          0      )
                  (     0         -1          1      )

 cart.    s(12) = (  0.5000000 -0.8660254 -0.0000000 )
                  ( -0.8660254 -0.5000000 -0.0000000 )
                  (  0.0000000  0.0000000  1.0000000 )

   Cartesian axes

     site n.     atom                  positions (alat units)
         1           Eu  tau(   1) = (   0.5000000   0.2886751   0.2041241  )
         2           Eu  tau(   2) = (   1.5000000   0.8660254   0.6123724  )
         3           Zn  tau(   3) = (   0.0000000   0.0000000   0.0000000  )
         4           W   tau(   4) = (   1.0000000   0.5773503   0.4082483  )
         5           O   tau(   5) = (   1.0000000   0.2980564   0.2107577  )
         6           O   tau(   6) = (   1.0000000   0.8566441   0.6057389  )
         7           O   tau(   7) = (   1.2418756   0.4377033   0.6057389  )
         8           O   tau(   8) = (   0.7581244   0.7169972   0.2107577  )
         9           O   tau(   9) = (   1.2418756   0.7169972   0.2107577  )
        10           O   tau(  10) = (   0.7581244   0.4377033   0.6057389  )

   Crystallographic axes

     site n.     atom                  positions (cryst. coord.)
         1           Eu  tau(   1) = (  0.2500000  0.2500000  0.2500000  )
         2           Eu  tau(   2) = (  0.7500000  0.7500000  0.7500000  )
         3           Zn  tau(   3) = (  0.0000000  0.0000000  0.0000000  )
         4           W   tau(   4) = (  0.5000000  0.5000000  0.5000000  )
         5           O   tau(   5) = (  0.7418756  0.2581244  0.2581244  )
         6           O   tau(   6) = (  0.2581244  0.7418756  0.7418756  )
         7           O   tau(   7) = (  0.7418756  0.2581244  0.7418756  )
         8           O   tau(   8) = (  0.2581244  0.7418756  0.2581244  )
         9           O   tau(   9) = (  0.7418756  0.7418756  0.2581244  )
        10           O   tau(  10) = (  0.2581244  0.2581244  0.7418756  )

     number of k points=     1  Methfessel-Paxton smearing, width (Ry)=  0.0010
                       cart. coord. in units 2pi/alat
        k(    1) = (   0.0000000   0.0000000   0.0000000), wk =   2.0000000

                       cryst. coord.
        k(    1) = (   0.0000000   0.0000000   0.0000000), wk =   2.0000000

     Check: negative core charge=   -0.000011

     Initial potential from superposition of free atoms

     starting charge     103.8901, renormalised to     104.0000

     negative rho (up, down):  6.345E-02 0.000E+00
     Starting wfcs are  114 randomized atomic wfcs
     Checking if some PAW data can be deallocated...

     Self-consistent Calculation

     iteration #  1     ecut=    30.00 Ry     beta= 0.70
     Davidson diagonalization with overlap

     ethr =  1.00E-02,  avg # of iterations =  2.0

     negative rho (up, down):  6.010E-02 0.000E+00

     total energy              =   -2152.45616469 Ry
     estimated scf accuracy    <       3.41486169 Ry

[...]

     total energy              =   -2154.52275045 Ry
     estimated scf accuracy    <       0.00000592 Ry

     iteration # 32     ecut=    30.00 Ry     beta= 0.70
     Davidson diagonalization with overlap

     ethr =  5.69E-09,  avg # of iterations =  2.0

[...]

     End of self-consistent calculation

          k = 0.0000 0.0000 0.0000 (  1211 PWs)   bands (ev):

  -112.2771 -66.3948 -66.3948 -66.3948 -61.8621 -27.4359 -27.4109 -26.1720
   -26.1719 -26.1719  -6.5587  -6.5579  -6.5576  -6.3958  -6.3950  -6.3947
    -5.9337  -4.8626  -4.8625  -4.4562  -4.4561  -4.4560   5.6966   5.8764
     5.8764   6.4730   6.4730   6.4731   8.0553   8.0553   8.0554   8.5643
     8.5644   8.5644   9.3639   9.3640  10.4965  10.4965  10.4965  11.2045
    11.2046  11.2046  11.6804  11.6804  11.6804  14.2652  14.3122  14.3776
    14.3777  14.3778  14.5721  14.5722  14.5723  14.8637  14.8638  14.8662
    14.8882  14.8883  14.8907  14.9801  14.9802  14.9803

     occupation numbers
     1.0000   1.0000   1.0000   1.0000   1.0000   1.0000   1.0000   1.0000
     1.0000   1.0000   1.0000   1.0000   1.0000   1.0000   1.0000   1.0000
     1.0000   1.0000   1.0000   1.0000   1.0000   1.0000   1.0000   1.0000
     1.0000   1.0000   1.0000   1.0000   1.0000   1.0000   1.0000   1.0000
     1.0000   1.0000   1.0000   1.0000   1.0000   1.0000   1.0000   1.0000
     1.0000   1.0000   1.0000   1.0000   1.0000   1.0000   1.0000   1.0000
     1.0000   1.0000   0.6723   0.6656   0.6621  -0.0000  -0.0000  -0.0000
    -0.0000  -0.0000  -0.0000  -0.0000  -0.0000  -0.0000

     the Fermi energy is    14.5749 ev

!    total energy              =   -2154.52275000 Ry
     estimated scf accuracy    <       0.00000083 Ry
     smearing contrib. (-TS)   =      -0.00074665 Ry
     internal energy E=F+TS    =   -2154.52200335 Ry

     The total energy is F=E-TS. E is the sum of the following terms:
     one-electron contribution =    -608.26778490 Ry
     hartree contribution      =     376.03290963 Ry
     xc contribution           =    -169.12942510 Ry
     ewald contribution        =    -782.26040254 Ry
     one-center paw contrib.   =    -970.89730044 Ry
      -> PAW hartree energy AE =     498.02755953 Ry
      -> PAW hartree energy PS =    -482.49431151 Ry
      -> PAW xc energy AE      =   -1070.88464464 Ry
      -> PAW xc energy PS      =      84.45409619 Ry
      -> total E_H with PAW    =     391.56615764 Ry
      -> total E_XC with PAW   =   -1155.55997355 Ry

     convergence has been achieved in  32 iterations

     negative rho (up, down):  6.160E-02 0.000E+00

     Forces acting on atoms (cartesian axes, Ry/au):

     atom    1 type  1   force =     0.00000000    0.00000000    0.00028892
     atom    2 type  1   force =     0.00000000    0.00000000   -0.00028892
     atom    3 type  2   force =     0.00000000    0.00000000    0.00000000
     atom    4 type  3   force =     0.00000000    0.00000000    0.00000000
     atom    5 type  4   force =     0.00000000    0.01699865    0.01195864
     atom    6 type  4   force =     0.00000000   -0.01699865   -0.01195864
     atom    7 type  4   force =    -0.01472126    0.00849932   -0.01195864
     atom    8 type  4   force =     0.01472126   -0.00849932    0.01195864
     atom    9 type  4   force =    -0.01472126   -0.00849932    0.01195864
     atom   10 type  4   force =     0.01472126    0.00849932   -0.01195864
     The non-local contrib.  to forces
     atom    1 type  1   force =     0.00000000    0.00000000   -0.00003110
     atom    2 type  1   force =     0.00000000   -0.00000000    0.00003110
     atom    3 type  2   force =     0.00000000    0.00000000    0.00000000
     atom    4 type  3   force =    -0.00000000   -0.00000000    0.00000000
     atom    5 type  4   force =     0.00000000    0.14971977    0.10575616
     atom    6 type  4   force =     0.00000000   -0.14971977   -0.10575616
     atom    7 type  4   force =    -0.12966112    0.07485988   -0.10575616
     atom    8 type  4   force =     0.12966112   -0.07485988    0.10575616
     atom    9 type  4   force =    -0.12966112   -0.07485988    0.10575616
     atom   10 type  4   force =     0.12966112    0.07485988   -0.10575616
     The ionic contribution  to forces
     atom    1 type  1   force =     0.00000000   -0.00000000    0.00000000
     atom    2 type  1   force =     0.00000000   -0.00000000   -0.00000000
     atom    3 type  2   force =    -0.00000000    0.00000000   -0.00000000
     atom    4 type  3   force =    -0.00000000    0.00000000   -0.00000000
     atom    5 type  4   force =     0.00000000    0.93643640    0.66216053
     atom    6 type  4   force =    -0.00000000   -0.93643640   -0.66216053
     atom    7 type  4   force =    -0.81097771    0.46821820   -0.66216053
     atom    8 type  4   force =     0.81097771   -0.46821820    0.66216053
     atom    9 type  4   force =    -0.81097771   -0.46821820    0.66216053
     atom   10 type  4   force =     0.81097771    0.46821820   -0.66216053
     The local contribution  to forces
     atom    1 type  1   force =     0.00178642    0.00140717   -0.00101020
     atom    2 type  1   force =    -0.00140174   -0.00096778   -0.00041502
     atom    3 type  2   force =    -0.00003460    0.00000792    0.00011544
     atom    4 type  3   force =    -0.00000548   -0.00000706    0.00012643
     atom    5 type  4   force =    -0.00011445   -1.06920290   -0.75608432
     atom    6 type  4   force =     0.00008495    1.06909349    0.75611537
     atom    7 type  4   force =     0.92599596   -0.53439242    0.75608835
     atom    8 type  4   force =    -0.92609432    0.53441757   -0.75604417
     atom    9 type  4   force =     0.92602518    0.53466728   -0.75605939
     atom   10 type  4   force =    -0.92593060   -0.53461447    0.75606294
     The core correction contribution to forces
     atom    1 type  1   force =     0.00000004    0.00000003   -0.00000002
     atom    2 type  1   force =    -0.00000004   -0.00000002   -0.00000002
     atom    3 type  2   force =     0.00000000    0.00000000    0.00000000
     atom    4 type  3   force =    -0.00000010    0.00000124    0.00000288
     atom    5 type  4   force =     0.00000105    0.00011352    0.00008256
     atom    6 type  4   force =    -0.00000101   -0.00011355   -0.00008267
     atom    7 type  4   force =    -0.00009873    0.00005639   -0.00008251
     atom    8 type  4   force =     0.00009877   -0.00005648    0.00008237
     atom    9 type  4   force =    -0.00009976   -0.00005650    0.00008091
     atom   10 type  4   force =     0.00009963    0.00005632   -0.00008124
     The Hubbard contrib.    to forces
     atom    1 type  1   force =     0.00000000    0.00000000    0.00000000
     atom    2 type  1   force =     0.00000000    0.00000000    0.00000000
     atom    3 type  2   force =     0.00000000    0.00000000    0.00000000
     atom    4 type  3   force =     0.00000000    0.00000000    0.00000000
     atom    5 type  4   force =     0.00000000    0.00000000    0.00000000
     atom    6 type  4   force =     0.00000000    0.00000000    0.00000000
     atom    7 type  4   force =     0.00000000    0.00000000    0.00000000
     atom    8 type  4   force =     0.00000000    0.00000000    0.00000000
     atom    9 type  4   force =     0.00000000    0.00000000    0.00000000
     atom   10 type  4   force =     0.00000000    0.00000000    0.00000000
     The SCF correction term to forces
     atom    1 type  1   force =    -0.00122254   -0.00142163    0.00115517
     atom    2 type  1   force =     0.00093268    0.00115278   -0.00008007
     atom    3 type  2   force =     0.00004295   -0.00001536   -0.00018420
     atom    4 type  3   force =     0.00000144    0.00000262   -0.00013254
     atom    5 type  4   force =     0.00016746   -0.00009676    0.00009116
     atom    6 type  4   force =    -0.00013262    0.00021237   -0.00012796
     atom    7 type  4   force =     0.00000493   -0.00028511   -0.00007114
     atom    8 type  4   force =     0.00009742    0.00025390    0.00001733
     atom    9 type  4   force =    -0.00009364    0.00002716   -0.00006151
     atom   10 type  4   force =    -0.00001352   -0.00009152    0.00003211

     Total force =     0.050911     Total SCF correction =     0.002723

     Computing stress (Cartesian axis) and pressure

     negative rho (up, down):  6.160E-02 0.000E+00
          total   stress  (Ry/bohr**3)                   (kbar)     P=     -357.51
  -0.00243108   0.00000000   0.00000000         -357.62        0.00        0.00
   0.00000000  -0.00243108  -0.00000000            0.00     -357.62       -0.00
   0.00000000  -0.00000000  -0.00242880            0.00       -0.00     -357.29

     kinetic stress (kbar)  25372.48     -0.00      0.00
                                0.00  25372.48      0.00
                                0.00      0.00  25372.61

     local   stress (kbar)   1139.68      0.82     -1.15
                                0.82   1138.30     -1.08
                               -1.15     -1.08   1139.21

     nonloc. stress (kbar)   3922.82     -0.00      0.00
                                0.00   3922.82      0.00
                                0.00      0.00   3922.97

     hartree stress (kbar)  20977.89     -0.23      0.26
                               -0.23  20978.25      0.25
                                0.26      0.25  20977.91

     exc-cor stress (kbar)  -3329.75     -0.00      0.00
                               -0.00  -3329.74      0.00
                                0.00      0.00  -3329.75

     corecor stress (kbar)  -4799.71      0.00     -0.00
                                0.00  -4799.71     -0.00
                               -0.00     -0.00  -4799.71

     ewald   stress (kbar) -43640.52     -0.00      0.00
                               -0.00 -43640.52      0.00
                                0.00      0.00 -43640.52

     hubbard stress (kbar)      0.00      0.00      0.00
                                0.00      0.00      0.00
                                0.00      0.00      0.00

     DFT-D   stress (kbar)      0.00      0.00      0.00
                                0.00      0.00      0.00
                                0.00      0.00      0.00

     XDM     stress (kbar)      0.00      0.00      0.00
                                0.00      0.00      0.00
                                0.00      0.00      0.00

     dft-nl  stress (kbar)      0.00      0.00      0.00
                                0.00      0.00      0.00
                                0.00      0.00      0.00

     TS-vdW  stress (kbar)      0.00      0.00      0.00
                                0.00      0.00      0.00
                                0.00      0.00      0.00

[...]

                                0.00      0.00      0.00

     Writing all to output data dir new_calculations/myprefix.save/

     General routines

     Parallel routines

     PAW routines

   This run was terminated on:  21: 0:59  21May2023

   JOB DONE.