     Program PWSCF v.7.0 starts on 20May2023 at  4:47:42

     Reading input from espresso_229.pwi
Warning: card &CELL ignored
Warning: card / ignored

     Current dimensions of program PWSCF are:
     Max number of different atomic species (ntypx) = 10
     Max number of k-points (npk) =  40000
     Max angular momentum in pseudopotentials (lmaxx) =  4
     file O.pbe-n-kjpaw_psl.0.1.UPF: wavefunction(s)  2P renormalized

     gamma-point specific algorithms are used

     Subspace diagonalization in iterative solution of the eigenvalue problem:
     a serial algorithm will be used

     Using Slab Decomposition

     bravais-lattice index     =            0
     lattice parameter (alat)  =      19.5039  a.u.
     unit-cell volume          =     996.0984 (a.u.)^3
     number of atoms/cell      =           15
     number of atomic types    =            4
     number of electrons       =       114.00
     number of Kohn-Sham states=           68
     kinetic-energy cutoff     =      30.0000  Ry
     charge density cutoff     =     240.0000  Ry
     scf convergence threshold =      1.0E-06
     mixing beta               =       0.7000
     number of iterations used =            8  plain     mixing
     Exchange-correlation= SLA  PW   PBX  PBC
                           (   1   4   3   4   0   0   0)

     celldm(1)=  19.503878  celldm(2)=   0.000000  celldm(3)=   0.000000
     celldm(4)=   0.000000  celldm(5)=   0.000000  celldm(6)=   0.000000

     crystal axes: (cart. coord. in units of alat)
               a(1) = (   1.000000   0.000000   0.000000 )
               a(2) = (   0.835717   0.549160   0.000000 )
               a(3) = (   1.335726   0.399586   0.244479 )

     reciprocal axes: (cart. coord. in units 2 pi/alat)
               b(1) = (  1.000000 -1.521810 -2.976265 )
               b(2) = (  0.000000  1.820964 -2.976258 )
               b(3) = (  0.000000  0.000000  4.090338 )

     PseudoPot. # 1 for Li read from file:
     /home/pragov/projects/rrg-bengioy-ad/pragov/crystal_structure_design/SSSP/li_pbe_v1.4.uspp.F.UPF
     MD5 check sum: e912e257baa3777c20ea3d68f190483c
     Pseudo is Ultrasoft, Zval =  3.0
     Generated by new atomic code, or converted to UPF format
     Using radial grid of  751 points,  5 beta functions with:
                l(1) =   0
                l(2) =   0
                l(3) =   0
                l(4) =   1
                l(5) =   1
     Q(r) pseudized with 10 coefficients,  rinner =    1.150   1.150   1.150

     PseudoPot. # 2 for Mn read from file:
     /home/pragov/projects/rrg-bengioy-ad/pragov/crystal_structure_design/SSSP/mn_pbe_v1.5.uspp.F.UPF
     MD5 check sum: 82ef2b46521d7a7d9e736dc3972e4928
     Pseudo is Ultrasoft + core correction, Zval = 15.0
     Generated by new atomic code, or converted to UPF format
     Using radial grid of  859 points,  6 beta functions with:
                l(1) =   0
                l(2) =   0
                l(3) =   1
                l(4) =   1
                l(5) =   2
                l(6) =   2
     Q(r) pseudized with  8 coefficients,  rinner =    0.950   0.950   0.950
                                                       0.950   0.950

     PseudoPot. # 3 for Cr read from file:
     /home/pragov/projects/rrg-bengioy-ad/pragov/crystal_structure_design/SSSP/cr_pbe_v1.5.uspp.F.UPF
     MD5 check sum: 0d52af634a40206e4dee301ad30da4bf
     Pseudo is Ultrasoft + core correction, Zval = 14.0
     Generated by new atomic code, or converted to UPF format
     Using radial grid of  857 points,  6 beta functions with:
                l(1) =   0
                l(2) =   0
                l(3) =   1
                l(4) =   1
                l(5) =   2
                l(6) =   2
     Q(r) pseudized with  8 coefficients,  rinner =    0.950   0.950   0.950
                                                       0.950   0.950

     PseudoPot. # 4 for O  read from file:
     /home/pragov/projects/rrg-bengioy-ad/pragov/crystal_structure_design/SSSP/O.pbe-n-kjpaw_psl.0.1.UPF
     MD5 check sum: 0234752ac141de4415c5fc33072bef88
     Pseudo is Projector augmented-wave + core cor, Zval =  6.0
     Generated using "atomic" code by A. Dal Corso  v.5.0.99 svn rev. 10869
     Shape of augmentation charge: BESSEL
     Using radial grid of 1095 points,  4 beta functions with:
                l(1) =   0
                l(2) =   0
                l(3) =   1
                l(4) =   1
     Q(r) pseudized with 0 coefficients

     atomic species   valence    mass     pseudopotential
        Li             3.00     6.94000     Li( 1.00)
        Mn            15.00    54.93804     Mn( 1.00)
        Cr            14.00    51.99610     Cr( 1.00)
        O              6.00    15.99900     O ( 1.00)

     No symmetry found

                                    s                        frac. trans.

      isym =  1     identity

 cryst.   s( 1) = (     1          0          0      )
                  (     0          1          0      )
                  (     0          0          1      )

 cart.    s( 1) = (  1.0000000 -0.0000000  0.0000000 )
                  (  0.0000000  1.0000000 -0.0000000 )
                  (  0.0000000  0.0000000  1.0000000 )

   Cartesian axes

     site n.     atom                  positions (alat units)
         1           Li  tau(   1) = (   1.0857216   0.4743724   0.1222388  )
         2           Li  tau(   2) = (   1.1678642   0.1997932   0.1222388  )
         3           Li  tau(   3) = (   1.5857216   0.4743724   0.1222388  )
         4           Mn  tau(   4) = (   0.8357194   0.5491575   0.0000017  )
         5           Cr  tau(   5) = (   0.4178591   0.2745786   0.0000002  )
         6           Cr  tau(   6) = (   0.5000010   0.0000027   0.0000010  )
         7           Cr  tau(   7) = (   0.9178548   0.2745853   0.0000017  )
         8           O   tau(   8) = (   2.1818602   0.6527081   0.0633571  )
         9           O   tau(   9) = (   1.7661833   0.3855244   0.0603133  )
        10           O   tau(  10) = (   1.6877449   0.6477265   0.0603136  )
        11           O   tau(  11) = (   0.9895834   0.2960356   0.1811205  )
        12           O   tau(  12) = (   1.2661844   0.3787815   0.0713283  )
        13           O   tau(  13) = (   1.4052586   0.5632204   0.1841635  )
        14           O   tau(  14) = (   1.4836981   0.3010179   0.1841637  )
        15           O   tau(  15) = (   1.9052586   0.5699633   0.1731512  )

   Crystallographic axes

     site n.     atom                  positions (cryst. coord.)
         1           Li  tau(   1) = (  0.0000020  0.5000010  0.4999980  )
         2           Li  tau(   2) = (  0.5000020  0.0000020  0.4999980  )
         3           Li  tau(   3) = (  0.5000020  0.5000010  0.4999980  )
         4           Mn  tau(   4) = (  0.0000010  0.9999910  0.0000070  )
         5           Cr  tau(   5) = (  0.0000020  0.4999970  0.0000010  )
         6           Cr  tau(   6) = (  0.4999940  0.0000020  0.0000040  )
         7           Cr  tau(   7) = (  0.4999830  0.5000050  0.0000070  )
         8           O   tau(   8) = (  0.9999950  0.9999910  0.2591520  )
         9           O   tau(   9) = (  0.9999800  0.5225180  0.2467020  )
        10           O   tau(  10) = (  0.5225190  0.9999780  0.2467030  )
        11           O   tau(  11) = (  0.0000110  0.0000090  0.7408440  )
        12           O   tau(  12) = (  0.4774590  0.4774560  0.2917570  )
        13           O   tau(  13) = (  0.0000250  0.4774860  0.7532910  )
        14           O   tau(  14) = (  0.4774860  0.0000240  0.7532920  )
        15           O   tau(  15) = (  0.5225390  0.5225400  0.7082470  )

     number of k points=     1  Methfessel-Paxton smearing, width (Ry)=  0.0010
                       cart. coord. in units 2pi/alat
        k(    1) = (   0.0000000   0.0000000   0.0000000), wk =   2.0000000

                       cryst. coord.
        k(    1) = (   0.0000000   0.0000000   0.0000000), wk =   2.0000000

     Check: negative core charge=   -0.000022

     Initial potential from superposition of free atoms

     starting charge     109.1476, renormalised to     114.0000

     negative rho (up, down):  3.801E-03 0.000E+00
     Starting wfcs are   90 randomized atomic wfcs
     Checking if some PAW data can be deallocated...

     Self-consistent Calculation

     iteration #  1     ecut=    30.00 Ry     beta= 0.70
     Davidson diagonalization with overlap

     ethr =  1.00E-02,  avg # of iterations =  3.0

     negative rho (up, down):  6.030E-03 0.000E+00

     total energy              =   -1101.76724593 Ry
     estimated scf accuracy    <      18.33854435 Ry

[...]

     total energy              =   -1114.56093628 Ry
     estimated scf accuracy    <       0.00000440 Ry

     iteration # 50     ecut=    30.00 Ry     beta= 0.70
     Davidson diagonalization with overlap

     ethr =  3.86E-09,  avg # of iterations =  1.0

[...]

     End of self-consistent calculation

          k = 0.0000 0.0000 0.0000 (  1368 PWs)   bands (ev):

   -70.4366 -63.1428 -63.1269 -63.1269 -39.2993 -39.1100 -39.1098 -35.8884
   -35.8731 -35.8730 -34.6871 -34.5812 -34.5812 -34.4996 -34.4996 -34.4769
   -34.2548 -34.2244 -34.2244 -10.5043  -9.5003  -9.4323  -9.1585  -9.1584
    -9.0932  -9.0931  -8.9473   2.3292   2.3293   2.5377   2.9004   3.5035
     3.5515   3.5515   4.1879   4.1879   4.5171   4.5172   4.8657   4.8997
     5.4393   5.4393   5.7310   5.7310   5.7901   5.8972   5.9763   5.9763
     6.9925   7.0155   7.0155   8.5027   8.7179   8.7179   8.8475   8.8475
     9.5503   9.5503   9.5630   9.6278   9.9346   9.9422   9.9422  11.8344
    11.8344  11.8659  11.9116  11.9117

     occupation numbers
     1.0000   1.0000   1.0000   1.0000   1.0000   1.0000   1.0000   1.0000
     1.0000   1.0000   1.0000   1.0000   1.0000   1.0000   1.0000   1.0000
     1.0000   1.0000   1.0000   1.0000   1.0000   1.0000   1.0000   1.0000
     1.0000   1.0000   1.0000   1.0000   1.0000   1.0000   1.0000   1.0000
     1.0000   1.0000   1.0000   1.0000   1.0000   1.0000   1.0000   1.0000
     1.0000   1.0000   1.0000   1.0000   1.0000   1.0000   1.0000   1.0000
     1.0000   1.0000   1.0000   1.0000   1.0000   1.0000   1.0000   1.0000
     0.5083   0.5077  -0.0160  -0.0000  -0.0000  -0.0000  -0.0000  -0.0000
    -0.0000  -0.0000  -0.0000  -0.0000

     the Fermi energy is     9.5504 ev

!    total energy              =   -1114.56093575 Ry
     estimated scf accuracy    <       0.00000071 Ry
     smearing contrib. (-TS)   =      -0.00047788 Ry
     internal energy E=F+TS    =   -1114.56045788 Ry

     The total energy is F=E-TS. E is the sum of the following terms:
     one-electron contribution =    -609.67534742 Ry
     hartree contribution      =     352.58884069 Ry
     xc contribution           =    -163.07655314 Ry
     ewald contribution        =    -618.23284522 Ry
     one-center paw contrib.   =     -76.16455279 Ry
      -> PAW hartree energy AE =     235.02683181 Ry
      -> PAW hartree energy PS =    -234.19758682 Ry
      -> PAW xc energy AE      =    -137.01074914 Ry
      -> PAW xc energy PS      =      60.01695136 Ry
      -> total E_H with PAW    =     353.41808568 Ry
      -> total E_XC with PAW   =    -240.07035092 Ry

     convergence has been achieved in  50 iterations

     negative rho (up, down):  3.986E-03 0.000E+00

     Forces acting on atoms (cartesian axes, Ry/au):

     atom    1 type  1   force =     0.00000217    0.00000414    0.00001322
     atom    2 type  1   force =    -0.00001047   -0.00000171    0.00000068
     atom    3 type  1   force =     0.00000084    0.00000877    0.00000317
     atom    4 type  2   force =     0.00000140   -0.00001956   -0.00010749
     atom    5 type  3   force =    -0.00003640    0.00000856    0.00001733
     atom    6 type  3   force =    -0.00000334   -0.00004510    0.00001566
     atom    7 type  3   force =     0.00000641   -0.00001565   -0.00002195
     atom    8 type  4   force =     0.01428863    0.00426675    0.00263076
     atom    9 type  4   force =     0.01162554   -0.01248288    0.01029902
     atom   10 type  4   force =     0.00286211    0.01680684    0.01027950
     atom   11 type  4   force =    -0.01429483   -0.00423156   -0.00261201
     atom   12 type  4   force =     0.01165904    0.00349063   -0.01577285
     atom   13 type  4   force =    -0.01162657    0.01249778   -0.01027682
     atom   14 type  4   force =    -0.00287150   -0.01680709   -0.01026209
     atom   15 type  4   force =    -0.01160302   -0.00347994    0.01579388
     The non-local contrib.  to forces
     atom    1 type  1   force =    -0.00001175    0.00000656    0.00000127
     atom    2 type  1   force =    -0.00000438   -0.00001199    0.00000532
     atom    3 type  1   force =     0.00000362   -0.00000358    0.00000333
     atom    4 type  2   force =     0.00002324   -0.00004731    0.00000407
     atom    5 type  3   force =     0.00000837    0.00000200    0.00002959
     atom    6 type  3   force =    -0.00001390    0.00000324   -0.00002222
     atom    7 type  3   force =    -0.00000530    0.00004099    0.00000093
     atom    8 type  4   force =     0.65847848    0.19699405    0.12050554
     atom    9 type  4   force =     0.73979801    0.29930389    0.09544807
     atom   10 type  4   force =     0.78249136    0.15607241    0.09547854
     atom   11 type  4   force =    -0.65848759   -0.19691820   -0.12050862
     atom   12 type  4   force =     0.73972241    0.22128868    0.22294355
     atom   13 type  4   force =    -0.73967471   -0.29932105   -0.09549575
     atom   14 type  4   force =    -0.78260600   -0.15611867   -0.09540212
     atom   15 type  4   force =    -0.73965275   -0.22132459   -0.22295777
     The ionic contribution  to forces
     atom    1 type  1   force =     0.00022990   -0.00001068    0.00006298
     atom    2 type  1   force =    -0.00019925    0.00001581   -0.00015355
     atom    3 type  1   force =    -0.00001863    0.00005955   -0.00000918
     atom    4 type  2   force =    -0.00025576    0.00214360   -0.00061045
     atom    5 type  3   force =    -0.00039433    0.00083230   -0.00063686
     atom    6 type  3   force =     0.00029702   -0.00103500    0.00086995
     atom    7 type  3   force =     0.00054677   -0.00299892   -0.00017525
     atom    8 type  4   force =   -12.87845415   -3.85290512   -2.35594829
     atom    9 type  4   force =   -14.32735246   -7.34074873   -1.05957403
     atom   10 type  4   force =   -16.00367933   -1.73247997   -1.06049752
     atom   11 type  4   force =    12.87829496    3.85231824    2.35627157
     atom   12 type  4   force =   -14.32670875   -4.28542090   -6.05193294
     atom   13 type  4   force =    14.32573824    7.34097122    1.06061912
     atom   14 type  4   force =    16.00483673    1.73291582    1.05973764
     atom   15 type  4   force =    14.32711903    4.28634276    6.05197680
     The local contribution  to forces
     atom    1 type  1   force =    -0.00022902    0.00002570   -0.00001263
     atom    2 type  1   force =     0.00017026   -0.00003620    0.00015114
     atom    3 type  1   force =     0.00003178   -0.00001667   -0.00000481
     atom    4 type  2   force =     0.00012264   -0.00186272    0.00089611
     atom    5 type  3   force =     0.00047656   -0.00097066    0.00027948
     atom    6 type  3   force =    -0.00017178    0.00120026   -0.00091323
     atom    7 type  3   force =    -0.00057817    0.00269811    0.00025263
     atom    8 type  4   force =    12.24099047    3.66276900    2.23943497
     atom    9 type  4   force =    13.60675377    7.03164491    0.97513716
     atom   10 type  4   force =    15.23227176    1.59521455    0.97679652
     atom   11 type  4   force =   -12.24081348   -3.66224356   -2.23977388
     atom   12 type  4   force =    13.60649638    4.06930887    5.81522832
     atom   13 type  4   force =   -13.60527109   -7.03181100   -0.97606220
     atom   14 type  4   force =   -15.23328970   -1.59560285   -0.97607448
     atom   15 type  4   force =   -13.60694754   -4.07016360   -5.81524912
     The core correction contribution to forces
     atom    1 type  1   force =     0.00000000    0.00000000    0.00000000
     atom    2 type  1   force =     0.00000000    0.00000000    0.00000000
     atom    3 type  1   force =     0.00000000    0.00000000    0.00000000
     atom    4 type  2   force =    -0.00000023    0.00000117    0.00000047
     atom    5 type  3   force =     0.00000017   -0.00000099   -0.00000178
     atom    6 type  3   force =     0.00000098   -0.00000023   -0.00000129
     atom    7 type  3   force =     0.00000045   -0.00000333   -0.00000097
     atom    8 type  4   force =    -0.00678847   -0.00203128   -0.00124288
     atom    9 type  4   force =    -0.00759732   -0.00276489   -0.00113811
     atom   10 type  4   force =    -0.00786649   -0.00186101   -0.00113873
     atom   11 type  4   force =     0.00678865    0.00203042    0.00124277
     atom   12 type  4   force =    -0.00759789   -0.00227265   -0.00194324
     atom   13 type  4   force =     0.00759622    0.00276502    0.00113838
     atom   14 type  4   force =     0.00786753    0.00186156    0.00113799
     atom   15 type  4   force =     0.00759686    0.00227287    0.00194338
     The Hubbard contrib.    to forces
     atom    1 type  1   force =     0.00000000    0.00000000    0.00000000
     atom    2 type  1   force =     0.00000000    0.00000000    0.00000000
     atom    3 type  1   force =     0.00000000    0.00000000    0.00000000
     atom    4 type  2   force =     0.00000000    0.00000000    0.00000000
     atom    5 type  3   force =     0.00000000    0.00000000    0.00000000
     atom    6 type  3   force =     0.00000000    0.00000000    0.00000000
     atom    7 type  3   force =     0.00000000    0.00000000    0.00000000
     atom    8 type  4   force =     0.00000000    0.00000000    0.00000000
     atom    9 type  4   force =     0.00000000    0.00000000    0.00000000
     atom   10 type  4   force =     0.00000000    0.00000000    0.00000000
     atom   11 type  4   force =     0.00000000    0.00000000    0.00000000
     atom   12 type  4   force =     0.00000000    0.00000000    0.00000000
     atom   13 type  4   force =     0.00000000    0.00000000    0.00000000
     atom   14 type  4   force =     0.00000000    0.00000000    0.00000000
     atom   15 type  4   force =     0.00000000    0.00000000    0.00000000
     The SCF correction term to forces
     atom    1 type  1   force =     0.00001487   -0.00001813   -0.00004140
     atom    2 type  1   force =     0.00002473    0.00002998   -0.00000523
     atom    3 type  1   force =    -0.00001409   -0.00003121    0.00001083
     atom    4 type  2   force =     0.00011334   -0.00025499   -0.00040070
     atom    5 type  3   force =    -0.00012534    0.00014522    0.00034389
     atom    6 type  3   force =    -0.00011384   -0.00021407    0.00007945
     atom    7 type  3   force =     0.00004449    0.00024681   -0.00010229
     atom    8 type  4   force =     0.00006413   -0.00056059   -0.00012159
     atom    9 type  4   force =     0.00002537    0.00008125    0.00042293
     atom   10 type  4   force =    -0.00035335   -0.00013983   -0.00036230
     atom   11 type  4   force =    -0.00007554    0.00058085    0.00015315
     atom   12 type  4   force =    -0.00025127    0.00058594   -0.00007154
     atom   13 type  4   force =    -0.00001340   -0.00010711   -0.00047938
     atom   14 type  4   force =     0.00032177    0.00013636    0.00033588
     atom   15 type  4   force =     0.00028321   -0.00060806    0.00007759

     Total force =     0.053272     Total SCF correction =     0.001744

     Computing stress (Cartesian axis) and pressure

     negative rho (up, down):  3.986E-03 0.000E+00
          total   stress  (Ry/bohr**3)                   (kbar)     P=     -650.19
  -0.00363295   0.00037679   0.00022966         -534.42       55.43       33.78
   0.00037679  -0.00477787   0.00006881           55.43     -702.85       10.12
   0.00022966   0.00006881  -0.00484880           33.78       10.12     -713.28

     kinetic stress (kbar)  30438.69    208.69    127.61
                              208.69  29802.87     38.42
                              127.61     38.42  29763.94

     local   stress (kbar)  26434.57  21116.14  12916.92
                            21116.14 -37832.31   3863.39
                            12916.92   3863.39 -41785.89

     nonloc. stress (kbar)   7659.08    -19.19    -11.75
                              -19.19   7716.85     -3.39
                              -11.75     -3.39   7720.52

     hartree stress (kbar)  -2132.41  -9318.62  -5700.27
                            -9318.62  26229.23  -1704.90
                            -5700.27  -1704.90  27973.95

     exc-cor stress (kbar)  -5385.32     -2.86     -1.75
                               -2.86  -5376.62     -0.52
                               -1.75     -0.52  -5376.08

     corecor stress (kbar)  -2166.90     -0.07     -0.04
                               -0.07  -2166.66     -0.02
                               -0.04     -0.02  -2166.64

     ewald   stress (kbar) -55382.13 -11928.66  -7296.94
                           -11928.66 -19076.21  -2182.87
                            -7296.94  -2182.87 -16843.07

     hubbard stress (kbar)      0.00      0.00      0.00
                                0.00      0.00      0.00
                                0.00      0.00      0.00

     DFT-D   stress (kbar)      0.00      0.00      0.00
                                0.00      0.00      0.00
                                0.00      0.00      0.00

     XDM     stress (kbar)      0.00      0.00      0.00
                                0.00      0.00      0.00
                                0.00      0.00      0.00

     dft-nl  stress (kbar)      0.00      0.00      0.00
                                0.00      0.00      0.00
                                0.00      0.00      0.00

     TS-vdW  stress (kbar)      0.00      0.00      0.00
                                0.00      0.00      0.00
                                0.00      0.00      0.00

[...]

                                0.00      0.00      0.00

     Writing all to output data dir new_calculations/myprefix.save/

     General routines

     Parallel routines

     PAW routines

   This run was terminated on:   4:49:34  20May2023

   JOB DONE.