     Program PWSCF v.7.0 starts on 21May2023 at  2:56:49

     Reading input from espresso_17807.pwi
Warning: card &CELL ignored
Warning: card / ignored

     Current dimensions of program PWSCF are:
     Max number of different atomic species (ntypx) = 10
     Max number of k-points (npk) =  40000
     Max angular momentum in pseudopotentials (lmaxx) =  4
     file Cd.pbe-dn-rrkjus_psl.0.3.1.UPF: wavefunction(s)  4D renormalized

     gamma-point specific algorithms are used
     Message from routine setup:
     using ibrav=0 with symmetry is DISCOURAGED, use correct ibrav instead

     Subspace diagonalization in iterative solution of the eigenvalue problem:
     a serial algorithm will be used

     Using Slab Decomposition

     bravais-lattice index     =            0
     lattice parameter (alat)  =      10.7457  a.u.
     unit-cell volume          =    1465.6764 (a.u.)^3
     number of atoms/cell      =           16
     number of atomic types    =            3
     number of electrons       =       144.00
     number of Kohn-Sham states=           86
     kinetic-energy cutoff     =      30.0000  Ry
     charge density cutoff     =     240.0000  Ry
     scf convergence threshold =      1.0E-06
     mixing beta               =       0.7000
     number of iterations used =            8  plain     mixing
     Exchange-correlation= PBE
                           (   1   4   3   4   0   0   0)

     celldm(1)=  10.745671  celldm(2)=   0.000000  celldm(3)=   0.000000
     celldm(4)=   0.000000  celldm(5)=   0.000000  celldm(6)=   0.000000

     crystal axes: (cart. coord. in units of alat)
               a(1) = (   1.000000   0.000000   0.000000 )
               a(2) = (   0.000000   1.222979   0.000000 )
               a(3) = (   0.000000   0.000000   0.965870 )

     reciprocal axes: (cart. coord. in units 2 pi/alat)
               b(1) = (  1.000000  0.000000  0.000000 )
               b(2) = (  0.000000  0.817676  0.000000 )
               b(3) = (  0.000000  0.000000  1.035336 )

     PseudoPot. # 1 for Cd read from file:
     /home/pragov/projects/rrg-bengioy-ad/pragov/crystal_structure_design/SSSP/Cd.pbe-dn-rrkjus_psl.0.3.1.UPF
     MD5 check sum: 558e9f355611b531a870a69ef6ace9e2
     Pseudo is Ultrasoft + core correction, Zval = 12.0
     Generated using "atomic" code by A. Dal Corso  v.5.0.99 svn rev. 10869
     Using radial grid of 1239 points,  6 beta functions with:
                l(1) =   0
                l(2) =   0
                l(3) =   1
                l(4) =   1
                l(5) =   2
                l(6) =   2
     Q(r) pseudized with 0 coefficients

     PseudoPot. # 2 for Ge read from file:
     /home/pragov/projects/rrg-bengioy-ad/pragov/crystal_structure_design/SSSP/ge_pbe_v1.4.uspp.F.UPF
     MD5 check sum: 9c9eaa91e581c3f09632fb3098b2c6b2
     Pseudo is Ultrasoft + core correction, Zval = 14.0
     Generated by new atomic code, or converted to UPF format
     Using radial grid of  873 points,  6 beta functions with:
                l(1) =   0
                l(2) =   0
                l(3) =   1
                l(4) =   1
                l(5) =   2
                l(6) =   2
     Q(r) pseudized with  8 coefficients,  rinner =    1.400   1.400   1.400
                                                       1.400   1.400

     PseudoPot. # 3 for N  read from file:
     /home/pragov/projects/rrg-bengioy-ad/pragov/crystal_structure_design/SSSP/N.pbe-n-radius_5.UPF
     MD5 check sum: 16739722b17309cd8fe442a2ace49922
     Pseudo is Ultrasoft + core correction, Zval =  5.0
     Generated using "atomic" code by A. Dal Corso  v.5.1
     Using radial grid of 1085 points,  4 beta functions with:
                l(1) =   0
                l(2) =   0
                l(3) =   1
                l(4) =   1
     Q(r) pseudized with 0 coefficients

     atomic species   valence    mass     pseudopotential
        Cd            12.00   112.41400     Cd( 1.00)
        Ge            14.00    72.63000     Ge( 1.00)
        N              5.00    14.00700     N ( 1.00)

      4 Sym. Ops. (no inversion) found ( 3 have fractional translation)

                                    s                        frac. trans.

      isym =  1     identity

 cryst.   s( 1) = (     1          0          0      )
                  (     0          1          0      )
                  (     0          0          1      )

 cart.    s( 1) = (  1.0000000  0.0000000  0.0000000 )
                  (  0.0000000  1.0000000  0.0000000 )
                  (  0.0000000  0.0000000  1.0000000 )

      isym =  2     180 deg rotation - cart. axis [0,0,1]

 cryst.   s( 2) = (    -1          0          0      )    f =(  0.0000000 )
                  (     0         -1          0      )       (  0.0000000 )
                  (     0          0          1      )       (  0.5000000 )

 cart.    s( 2) = ( -1.0000000  0.0000000  0.0000000 )    f =(  0.0000000 )
                  (  0.0000000 -1.0000000  0.0000000 )       (  0.0000000 )
                  (  0.0000000  0.0000000  1.0000000 )       (  0.4829350 )

      isym =  3     inv. 180 deg rotation - cart. axis [0,1,0]

[...]

      isym =  4     inv. 180 deg rotation - cart. axis [1,0,0]

 cryst.   s( 4) = (    -1          0          0      )    f =(  0.5000000 )
                  (     0          1          0      )       ( -0.5000000 )
                  (     0          0          1      )       (  0.5000000 )

 cart.    s( 4) = ( -1.0000000  0.0000000  0.0000000 )    f =(  0.5000000 )
                  (  0.0000000  1.0000000  0.0000000 )       ( -0.6114893 )
                  (  0.0000000  0.0000000  1.0000000 )       (  0.4829350 )

   Cartesian axes

     site n.     atom                  positions (alat units)
         1           Cd  tau(   1) = (   0.5802620   1.0714785   0.9635383  )
         2           Cd  tau(   2) = (   0.4197380   0.1515002   0.4806034  )
         3           Cd  tau(   3) = (   0.9197380   0.4599892   0.4806034  )
         4           Cd  tau(   4) = (   0.0802620   0.7629895   0.9635383  )
         5           Ge  tau(   5) = (   0.5660960   0.4580924   0.0001671  )
         6           Ge  tau(   6) = (   0.4339040   0.7648863   0.4831021  )
         7           Ge  tau(   7) = (   0.9339040   1.0695817   0.4831021  )
         8           Ge  tau(   8) = (   0.0660960   0.1533970   0.0001671  )
         9           N   tau(   9) = (   0.5478830   0.4978661   0.3286826  )
        10           N   tau(  10) = (   0.4521170   0.7251126   0.8116166  )
        11           N   tau(  11) = (   0.9521170   1.1093554   0.8116166  )
        12           N   tau(  12) = (   0.0478830   0.1136233   0.3286826  )
        13           N   tau(  13) = (   0.6146210   1.0306934   0.3978843  )
        14           N   tau(  14) = (   0.3853790   0.1922853   0.8808193  )
        15           N   tau(  15) = (   0.8853790   0.4192041   0.8808193  )
        16           N   tau(  16) = (   0.1146210   0.8037746   0.3978843  )

   Crystallographic axes

     site n.     atom                  positions (cryst. coord.)
         1           Cd  tau(   1) = (  0.5802620  0.8761220  0.9975860  )
         2           Cd  tau(   2) = (  0.4197380  0.1238780  0.4975860  )
         3           Cd  tau(   3) = (  0.9197380  0.3761220  0.4975860  )
         4           Cd  tau(   4) = (  0.0802620  0.6238780  0.9975860  )
         5           Ge  tau(   5) = (  0.5660960  0.3745710  0.0001730  )
         6           Ge  tau(   6) = (  0.4339040  0.6254290  0.5001730  )
         7           Ge  tau(   7) = (  0.9339040  0.8745710  0.5001730  )
         8           Ge  tau(   8) = (  0.0660960  0.1254290  0.0001730  )
         9           N   tau(   9) = (  0.5478830  0.4070930  0.3402970  )
        10           N   tau(  10) = (  0.4521170  0.5929070  0.8402960  )
        11           N   tau(  11) = (  0.9521170  0.9070930  0.8402960  )
        12           N   tau(  12) = (  0.0478830  0.0929070  0.3402970  )
        13           N   tau(  13) = (  0.6146210  0.8427730  0.4119440  )
        14           N   tau(  14) = (  0.3853790  0.1572270  0.9119440  )
        15           N   tau(  15) = (  0.8853790  0.3427730  0.9119440  )
        16           N   tau(  16) = (  0.1146210  0.6572270  0.4119440  )

     number of k points=     1  Methfessel-Paxton smearing, width (Ry)=  0.0010
                       cart. coord. in units 2pi/alat
        k(    1) = (   0.0000000   0.0000000   0.0000000), wk =   2.0000000

                       cryst. coord.
        k(    1) = (   0.0000000   0.0000000   0.0000000), wk =   2.0000000

     Check: negative core charge=   -0.000002

     Initial potential from superposition of free atoms

     starting charge     143.9769, renormalised to     144.0000
     Starting wfcs are  104 randomized atomic wfcs

     Self-consistent Calculation

     iteration #  1     ecut=    30.00 Ry     beta= 0.70
     Davidson diagonalization with overlap

     ethr =  1.00E-02,  avg # of iterations =  3.0

     total energy              =   -1502.73715970 Ry
     estimated scf accuracy    <       4.05189919 Ry

[...]

     total energy              =   -1504.64007569 Ry
     estimated scf accuracy    <       0.00001595 Ry

     iteration #  9     ecut=    30.00 Ry     beta= 0.70
     Davidson diagonalization with overlap

     ethr =  1.11E-08,  avg # of iterations =  2.0

     End of self-consistent calculation

          k = 0.0000 0.0000 0.0000 (  2036 PWs)   bands (ev):

   -14.9891 -14.9868 -14.9691 -14.9663 -14.9641 -14.9351 -14.9330 -14.9183
   -14.9167 -14.9060 -14.9031 -14.8926 -14.8655 -14.8546 -14.8489 -14.8387
   -14.8382 -14.8302 -14.8273 -14.8187  -6.9013  -5.6815  -5.6120  -4.2440
    -4.2123  -4.1528  -4.0720  -4.0257  -0.0884   1.4298   1.4783   1.9536
     1.9674   1.9716   1.9756   1.9896   2.1505   2.1753   2.1987   2.2012
     2.2125   2.2880   2.3390   2.3393   2.3689   2.4364   2.4444   2.4484
     2.5441   2.5589   2.9712   4.1443   4.3332   4.5842   4.7004   4.7020
     5.1685   5.8754   5.9162   6.2709   6.9233   7.1485   7.2821   7.3970
     7.6804   7.7112   8.5030   8.6039   8.7498   8.8409   8.8762   8.9850
     9.8389  12.7125  13.2793  13.9320  14.2520  14.3993  14.4997  14.7632
    14.7823  14.9226  16.1557  16.2241  16.7287  17.0696

     occupation numbers
     1.0000   1.0000   1.0000   1.0000   1.0000   1.0000   1.0000   1.0000
     1.0000   1.0000   1.0000   1.0000   1.0000   1.0000   1.0000   1.0000
     1.0000   1.0000   1.0000   1.0000   1.0000   1.0000   1.0000   1.0000
     1.0000   1.0000   1.0000   1.0000   1.0000   1.0000   1.0000   1.0000
     1.0000   1.0000   1.0000   1.0000   1.0000   1.0000   1.0000   1.0000
     1.0000   1.0000   1.0000   1.0000   1.0000   1.0000   1.0000   1.0000
     1.0000   1.0000   1.0000   1.0000   1.0000   1.0000   1.0000   1.0000
     1.0000   1.0000   1.0000   1.0000   1.0000   1.0000   1.0000   1.0000
     1.0000   1.0000   1.0000   1.0000   1.0000   1.0000   1.0000   1.0000
    -0.0000  -0.0000  -0.0000  -0.0000  -0.0000  -0.0000  -0.0000  -0.0000
    -0.0000  -0.0000  -0.0000  -0.0000  -0.0000  -0.0000

     the Fermi energy is     9.1230 ev

!    total energy              =   -1504.64007927 Ry
     estimated scf accuracy    <       0.00000083 Ry
     smearing contrib. (-TS)   =       0.00000000 Ry
     internal energy E=F+TS    =   -1504.64007927 Ry

     The total energy is F=E-TS. E is the sum of the following terms:
     one-electron contribution =    -645.51469986 Ry
     hartree contribution      =     459.86651090 Ry
     xc contribution           =    -448.89113314 Ry
     ewald contribution        =    -870.10075717 Ry

     convergence has been achieved in   9 iterations

     Forces acting on atoms (cartesian axes, Ry/au):

     atom    1 type  1   force =     0.00680697   -0.00516663   -0.01461903
     atom    2 type  1   force =    -0.00680697    0.00516663   -0.01461903
     atom    3 type  1   force =    -0.00680697   -0.00516663   -0.01461903
     atom    4 type  1   force =     0.00680697    0.00516663   -0.01461903
     atom    5 type  2   force =     0.02626135   -0.00603720    0.01937515
     atom    6 type  2   force =    -0.02626135    0.00603720    0.01937515
     atom    7 type  2   force =    -0.02626135   -0.00603720    0.01937515
     atom    8 type  2   force =     0.02626135    0.00603720    0.01937515
     atom    9 type  3   force =     0.01364451   -0.03232430   -0.01263393
     atom   10 type  3   force =    -0.01364451    0.03232430   -0.01263393
     atom   11 type  3   force =    -0.01364451   -0.03232430   -0.01263393
     atom   12 type  3   force =     0.01364451    0.03232430   -0.01263393
     atom   13 type  3   force =     0.01695248    0.02776439    0.00787781
     atom   14 type  3   force =    -0.01695248   -0.02776439    0.00787781
     atom   15 type  3   force =    -0.01695248    0.02776439    0.00787781
     atom   16 type  3   force =     0.01695248   -0.02776439    0.00787781
     The non-local contrib.  to forces
     atom    1 type  1   force =    -0.12132941    0.03294352   -0.01361517
     atom    2 type  1   force =     0.12132941   -0.03294352   -0.01361517
     atom    3 type  1   force =     0.12132941    0.03294352   -0.01361517
     atom    4 type  1   force =    -0.12132941   -0.03294352   -0.01361517
     atom    5 type  2   force =    -0.03103000   -0.05889613   -0.05967902
     atom    6 type  2   force =     0.03103000    0.05889613   -0.05967902
     atom    7 type  2   force =     0.03103000   -0.05889613   -0.05967902
     atom    8 type  2   force =    -0.03103000    0.05889613   -0.05967902
     atom    9 type  3   force =    -0.16943310    0.30489721   -0.13978345
     atom   10 type  3   force =     0.16943310   -0.30489721   -0.13978345
     atom   11 type  3   force =     0.16943310    0.30489721   -0.13978345
     atom   12 type  3   force =    -0.16943310   -0.30489721   -0.13978345
     atom   13 type  3   force =     0.13171763   -0.33485883    0.26302584
     atom   14 type  3   force =    -0.13171763    0.33485883    0.26302584
     atom   15 type  3   force =    -0.13171763   -0.33485883    0.26302584
     atom   16 type  3   force =     0.13171763    0.33485883    0.26302584
     The ionic contribution  to forces
     atom    1 type  1   force =    -1.32062338    0.09550594    0.34430312
     atom    2 type  1   force =     1.32063184   -0.09551742    0.34428624
     atom    3 type  1   force =     1.32063184    0.09551742    0.34428624
     atom    4 type  1   force =    -1.32062338   -0.09550594    0.34430312
     atom    5 type  2   force =     0.66102207   -0.38585110   -0.11458468
     atom    6 type  2   force =    -0.66104140    0.38589545   -0.11466914
     atom    7 type  2   force =    -0.66104140   -0.38589545   -0.11466914
     atom    8 type  2   force =     0.66102207    0.38585110   -0.11458468
     atom    9 type  3   force =     0.83310302   -2.89236860    1.83477228
     atom   10 type  3   force =    -0.83309108    2.89233460    1.83486031
     atom   11 type  3   force =    -0.83309108   -2.89233460    1.83486031
     atom   12 type  3   force =     0.83310302    2.89236860    1.83477228
     atom   13 type  3   force =    -1.67511745    2.80355849   -2.06449089
     atom   14 type  3   force =     1.67511639   -2.80355732   -2.06447723
     atom   15 type  3   force =     1.67511639    2.80355732   -2.06447723
     atom   16 type  3   force =    -1.67511745   -2.80355849   -2.06449089
     The local contribution  to forces
     atom    1 type  1   force =     1.44349506   -0.13000569   -0.34352862
     atom    2 type  1   force =    -1.44314213    0.12999072   -0.34324392
     atom    3 type  1   force =    -1.44328021   -0.13031262   -0.34316956
     atom    4 type  1   force =     1.44284551    0.13045561   -0.34354794
     atom    5 type  2   force =    -0.60358708    0.43564895    0.19169420
     atom    6 type  2   force =     0.60370649   -0.43597811    0.19195574
     atom    7 type  2   force =     0.60379757    0.43682859    0.19209467
     atom    8 type  2   force =    -0.60369555   -0.43696916    0.19177636
     atom    9 type  3   force =    -0.65144433    2.55798038   -1.70879562
     atom   10 type  3   force =     0.65172848   -2.55799468   -1.70891385
     atom   11 type  3   force =     0.65139946    2.55775787   -1.70881898
     atom   12 type  3   force =    -0.65164099   -2.55802315   -1.70853905
     atom   13 type  3   force =     1.56172089   -2.44398517    1.81193480
     atom   14 type  3   force =    -1.56137947    2.44395724    1.81185266
     atom   15 type  3   force =    -1.56152357   -2.44381831    1.81176793
     atom   16 type  3   force =     1.56134889    2.44398512    1.81194546
     The core correction contribution to forces
     atom    1 type  1   force =     0.00583676   -0.00303554   -0.00188041
     atom    2 type  1   force =    -0.00582950    0.00302725   -0.00188038
     atom    3 type  1   force =    -0.00585218   -0.00301109   -0.00187401
     atom    4 type  1   force =     0.00584337    0.00301121   -0.00188440
     atom    5 type  2   force =     0.00030403    0.00211279    0.00140210
     atom    6 type  2   force =    -0.00030104   -0.00211506    0.00140433
     atom    7 type  2   force =    -0.00030374    0.00210771    0.00139711
     atom    8 type  2   force =     0.00030483   -0.00210796    0.00139668
     atom    9 type  3   force =     0.00149629   -0.00246108    0.00106745
     atom   10 type  3   force =    -0.00149510    0.00246096    0.00106686
     atom   11 type  3   force =    -0.00149649   -0.00246426    0.00106944
     atom   12 type  3   force =     0.00149657    0.00246444    0.00106904
     atom   13 type  3   force =    -0.00101054    0.00282072   -0.00225303
     atom   14 type  3   force =     0.00101070   -0.00282111   -0.00225348
     atom   15 type  3   force =     0.00100909    0.00282406   -0.00225382
     atom   16 type  3   force =    -0.00100884   -0.00282436   -0.00225322
     The Hubbard contrib.    to forces
     atom    1 type  1   force =     0.00000000    0.00000000    0.00000000
     atom    2 type  1   force =     0.00000000    0.00000000    0.00000000
     atom    3 type  1   force =     0.00000000    0.00000000    0.00000000
     atom    4 type  1   force =     0.00000000    0.00000000    0.00000000
     atom    5 type  2   force =     0.00000000    0.00000000    0.00000000
     atom    6 type  2   force =     0.00000000    0.00000000    0.00000000
     atom    7 type  2   force =     0.00000000    0.00000000    0.00000000
     atom    8 type  2   force =     0.00000000    0.00000000    0.00000000
     atom    9 type  3   force =     0.00000000    0.00000000    0.00000000
     atom   10 type  3   force =     0.00000000    0.00000000    0.00000000
     atom   11 type  3   force =     0.00000000    0.00000000    0.00000000
     atom   12 type  3   force =     0.00000000    0.00000000    0.00000000
     atom   13 type  3   force =     0.00000000    0.00000000    0.00000000
     atom   14 type  3   force =     0.00000000    0.00000000    0.00000000
     atom   15 type  3   force =     0.00000000    0.00000000    0.00000000
     atom   16 type  3   force =     0.00000000    0.00000000    0.00000000
     The SCF correction term to forces
     atom    1 type  1   force =    -0.00073521   -0.00072339    0.00025713
     atom    2 type  1   force =     0.00031302    0.00069867   -0.00005548
     atom    3 type  1   force =     0.00022593   -0.00019271   -0.00016484
     atom    4 type  1   force =     0.00020540    0.00002282    0.00032081
     atom    5 type  2   force =    -0.00042459    0.00119096    0.00075944
     atom    6 type  2   force =     0.00039769   -0.00083472    0.00054491
     atom    7 type  2   force =     0.00024103   -0.00033448    0.00027489
     atom    8 type  2   force =    -0.00032518    0.00063071    0.00056637
     atom    9 type  3   force =    -0.00005531   -0.00021858    0.00017640
     atom   10 type  3   force =    -0.00014270    0.00023695    0.00016864
     atom   11 type  3   force =     0.00009205   -0.00030738    0.00028495
     atom   12 type  3   force =     0.00015573    0.00062207    0.00004016
     atom   13 type  3   force =    -0.00043833    0.00003151   -0.00017276
     atom   14 type  3   force =     0.00010637   -0.00005397   -0.00013687
     atom   15 type  3   force =     0.00009652    0.00020370   -0.00005066
     atom   16 type  3   force =     0.00011465   -0.00042764   -0.00024040

     Total force =     0.124887     Total SCF correction =     0.002779

     Computing stress (Cartesian axis) and pressure

          total   stress  (Ry/bohr**3)                   (kbar)     P=     -260.86
  -0.00179408   0.00000000   0.00000000         -263.92        0.00        0.00
   0.00000000  -0.00123673   0.00000000            0.00     -181.93        0.00
   0.00000000   0.00000000  -0.00228901            0.00        0.00     -336.73

     kinetic stress (kbar)  20961.18      0.00      0.00
                                0.00  20990.77      0.00
                                0.00      0.00  20880.65

     local   stress (kbar)   1094.53     -0.13      0.00
                               -0.13    532.40     -0.02
                                0.00     -0.02  -1005.29

     nonloc. stress (kbar)    429.53      0.00      0.00
                                0.00    447.35      0.00
                                0.00      0.00    428.97

     hartree stress (kbar)  15065.79      0.12     -0.01
                                0.12  15153.45      0.02
                               -0.01      0.02  15936.03

     exc-cor stress (kbar)  14850.31      0.00     -0.00
                                0.00  14852.98      0.00
                               -0.00      0.00  14853.98

     corecor stress (kbar) -22975.89      0.00      0.00
                                0.00 -22975.13      0.00
                                0.00      0.00 -22975.06

     ewald   stress (kbar) -29689.36     -0.00      0.00
                               -0.00 -29183.75     -0.00
                                0.00     -0.00 -28456.01

     hubbard stress (kbar)      0.00      0.00      0.00
                                0.00      0.00      0.00
                                0.00      0.00      0.00

     DFT-D   stress (kbar)      0.00      0.00      0.00
                                0.00      0.00      0.00
                                0.00      0.00      0.00

     XDM     stress (kbar)      0.00      0.00      0.00
                                0.00      0.00      0.00
                                0.00      0.00      0.00

     dft-nl  stress (kbar)      0.00      0.00      0.00
                                0.00      0.00      0.00
                                0.00      0.00      0.00

     TS-vdW  stress (kbar)      0.00      0.00      0.00
                                0.00      0.00      0.00
                                0.00      0.00      0.00

[...]

                                0.00      0.00      0.00

     Writing all to output data dir new_calculations/myprefix.save/

     General routines

     Parallel routines

   This run was terminated on:   2:57: 9  21May2023

   JOB DONE.