     Program PWSCF v.7.0 starts on 20May2023 at 15:32:19

     Reading input from espresso_16444.pwi
Warning: card &CELL ignored
Warning: card / ignored

     Current dimensions of program PWSCF are:
     Max number of different atomic species (ntypx) = 10
     Max number of k-points (npk) =  40000
     Max angular momentum in pseudopotentials (lmaxx) =  4
     file Cd.pbe-dn-rrkjus_psl.0.3.1.UPF: wavefunction(s)  4D renormalized

     gamma-point specific algorithms are used
     Message from routine setup:
     using ibrav=0 with symmetry is DISCOURAGED, use correct ibrav instead

     Subspace diagonalization in iterative solution of the eigenvalue problem:
     a serial algorithm will be used

     Using Slab Decomposition

     bravais-lattice index     =            0
     lattice parameter (alat)  =       8.3034  a.u.
     unit-cell volume          =     809.0804 (a.u.)^3
     number of atoms/cell      =            4
     number of atomic types    =            2
     number of electrons       =        36.00
     number of Kohn-Sham states=           22
     kinetic-energy cutoff     =      30.0000  Ry
     charge density cutoff     =     240.0000  Ry
     scf convergence threshold =      1.0E-06
     mixing beta               =       0.7000
     number of iterations used =            8  plain     mixing
     Exchange-correlation= SLA  PW   PBE  PBE
                           (   1   4   3   4   0   0   0)

     celldm(1)=   8.303363  celldm(2)=   0.000000  celldm(3)=   0.000000
     celldm(4)=   0.000000  celldm(5)=   0.000000  celldm(6)=   0.000000

     crystal axes: (cart. coord. in units of alat)
               a(1) = (   1.000000   0.000000   0.000000 )
               a(2) = (  -0.500000   0.866025   0.000000 )
               a(3) = (   0.000000   0.000000   1.631920 )

     reciprocal axes: (cart. coord. in units 2 pi/alat)
               b(1) = (  1.000000  0.577350  0.000000 )
               b(2) = (  0.000000  1.154701  0.000000 )
               b(3) = (  0.000000  0.000000  0.612775 )

     PseudoPot. # 1 for Cd read from file:
     /home/pragov/projects/rrg-bengioy-ad/pragov/crystal_structure_design/SSSP/Cd.pbe-dn-rrkjus_psl.0.3.1.UPF
     MD5 check sum: 558e9f355611b531a870a69ef6ace9e2
     Pseudo is Ultrasoft + core correction, Zval = 12.0
     Generated using "atomic" code by A. Dal Corso  v.5.0.99 svn rev. 10869
     Using radial grid of 1239 points,  6 beta functions with:
                l(1) =   0
                l(2) =   0
                l(3) =   1
                l(4) =   1
                l(5) =   2
                l(6) =   2
     Q(r) pseudized with 0 coefficients

     PseudoPot. # 2 for Se read from file:
     /home/pragov/projects/rrg-bengioy-ad/pragov/crystal_structure_design/SSSP/Se_pbe_v1.uspp.F.UPF
     MD5 check sum: 1b3568f3a8ae88f9a2a0ad0698632c85
     Pseudo is Ultrasoft + core correction, Zval =  6.0
     Generated by new atomic code, or converted to UPF format
     Using radial grid of  877 points,  6 beta functions with:
                l(1) =   0
                l(2) =   0
                l(3) =   1
                l(4) =   1
                l(5) =   2
                l(6) =   2
     Q(r) pseudized with  8 coefficients,  rinner =    1.300   1.300   1.300
                                                       1.300   1.300

     atomic species   valence    mass     pseudopotential
        Cd            12.00   112.41400     Cd( 1.00)
        Se             6.00    78.97100     Se( 1.00)

     12 Sym. Ops. (no inversion) found ( 6 have fractional translation)

                                    s                        frac. trans.

      isym =  1     identity

 cryst.   s( 1) = (     1          0          0      )
                  (     0          1          0      )
                  (     0          0          1      )

 cart.    s( 1) = (  1.0000000  0.0000000  0.0000000 )
                  (  0.0000000  1.0000000  0.0000000 )
                  (  0.0000000  0.0000000  1.0000000 )

      isym =  2     180 deg rotation - cart. axis [0,0,1]

 cryst.   s( 2) = (    -1          0          0      )    f =( -0.0000000 )
                  (     0         -1          0      )       (  0.0000000 )
                  (     0          0          1      )       (  0.5000000 )

 cart.    s( 2) = ( -1.0000000 -0.0000000  0.0000000 )    f =( -0.0000000 )
                  (  0.0000000 -1.0000000  0.0000000 )       (  0.0000000 )
                  (  0.0000000  0.0000000  1.0000000 )       (  0.8159602 )

      isym =  3      60 deg rotation - cryst. axis [0,0,1]

[...]

      isym =  6     120 deg rotation - cryst. axis [0,0,-1]

[...]

      isym =  7     inv. 180 deg rotation - cart. axis [0,1,0]

[...]

      isym =  8     inv. 180 deg rotation - cart. axis [1,0,0]

 cryst.   s( 8) = (    -1          0          0      )
                  (     1          1          0      )
                  (     0          0          1      )

 cart.    s( 8) = ( -1.0000000 -0.0000003  0.0000000 )
                  (  0.0000000  1.0000000  0.0000000 )
                  (  0.0000000  0.0000000  1.0000000 )

      isym =  9     inv. 180 deg rotation - cryst. axis [1,-1,0]

 cryst.   s( 9) = (     0          1          0      )    f =( -0.0000000 )
                  (     1          0          0      )       ( -0.0000000 )
                  (     0          0          1      )       (  0.5000000 )

 cart.    s( 9) = ( -0.5000001  0.8660253  0.0000000 )    f =( -0.0000000 )
                  (  0.8660253  0.5000001  0.0000000 )       ( -0.0000000 )
                  (  0.0000000  0.0000000  1.0000000 )       (  0.8159602 )

[...]

 cryst.   s(10) = (    -1         -1          0      )    f =( -0.0000000 )
                  (     0          1          0      )       (  0.0000010 )
                  (     0          0          1      )       (  0.5000000 )

 cart.    s(10) = ( -0.4999999 -0.8660256  0.0000000 )    f =( -0.0000005 )
                  ( -0.8660253  0.4999999  0.0000000 )       (  0.0000009 )
                  (  0.0000000  0.0000000  1.0000000 )       (  0.8159602 )

[...]

 cryst.   s(11) = (     1          1          0      )
                  (     0         -1          0      )
                  (     0          0          1      )

 cart.    s(11) = (  0.4999999  0.8660256  0.0000000 )
                  (  0.8660253 -0.4999999  0.0000000 )
                  (  0.0000000  0.0000000  1.0000000 )

      isym = 12     inv. 180 deg rotation - cryst. axis [1,1,0]

 cryst.   s(12) = (     0         -1          0      )
                  (    -1          0          0      )
                  (     0          0          1      )

 cart.    s(12) = (  0.5000001 -0.8660253  0.0000000 )
                  ( -0.8660253 -0.5000001  0.0000000 )
                  (  0.0000000  0.0000000  1.0000000 )

   Cartesian axes

     site n.     atom                  positions (alat units)
         1           Cd  tau(   1) = (   0.5000005   0.2886748   0.8159097  )
         2           Cd  tau(   2) = (  -0.0000006   0.5773505   1.6318699  )
         3           Se  tau(   3) = (   0.5000005   0.2886748   1.4293845  )
         4           Se  tau(   4) = (  -0.0000006   0.5773505   0.6134242  )

   Crystallographic axes

     site n.     atom                  positions (cryst. coord.)
         1           Cd  tau(   1) = (  0.6666670  0.3333330  0.4999690  )
         2           Cd  tau(   2) = (  0.3333330  0.6666670  0.9999690  )
         3           Se  tau(   3) = (  0.6666670  0.3333330  0.8758910  )
         4           Se  tau(   4) = (  0.3333330  0.6666670  0.3758910  )

     number of k points=     1  Methfessel-Paxton smearing, width (Ry)=  0.0010
                       cart. coord. in units 2pi/alat
        k(    1) = (   0.0000000   0.0000000   0.0000000), wk =   2.0000000

                       cryst. coord.
        k(    1) = (   0.0000000   0.0000000   0.0000000), wk =   2.0000000

     Check: negative core charge=   -0.000001

     Initial potential from superposition of free atoms

     starting charge      35.9901, renormalised to      36.0000
     Starting wfcs are   26 randomized atomic wfcs

     Self-consistent Calculation

     iteration #  1     ecut=    30.00 Ry     beta= 0.70
     Davidson diagonalization with overlap

     ethr =  1.00E-02,  avg # of iterations =  2.0

     total energy              =    -330.81664564 Ry
     estimated scf accuracy    <       0.49662192 Ry

[...]

     WARNING: integrated charge=    36.00052669, expected=    36.00000000

[...]

     WARNING: integrated charge=    36.00000459, expected=    36.00000000

[...]

     total energy              =    -330.97567178 Ry
     estimated scf accuracy    <       0.00004061 Ry

     iteration # 74     ecut=    30.00 Ry     beta= 0.70
     Davidson diagonalization with overlap

     ethr =  3.10E-09,  avg # of iterations =  2.0

     End of self-consistent calculation

          k = 0.0000 0.0000 0.0000 (  1137 PWs)   bands (ev):

    -6.9864  -6.6394  -3.4066  -3.4066  -3.3871  -3.3524  -3.3524  -3.1807
    -3.1807  -3.1269  -3.1269  -2.8264   0.7862   4.3807   4.3807   5.1226
     5.1301   5.1301   5.1394   6.6540  10.3569  10.3569

     occupation numbers
     1.0000   1.0000   1.0000   1.0000   1.0000   1.0000   1.0000   1.0000
     1.0000   1.0000   1.0000   1.0000   1.0000   1.0000   1.0000   1.0245
     0.8369   0.8355   0.3031  -0.0000  -0.0000  -0.0000

     the Fermi energy is     5.1361 ev

!    total energy              =    -330.97567251 Ry
     estimated scf accuracy    <       0.00000093 Ry
     smearing contrib. (-TS)   =      -0.00041638 Ry
     internal energy E=F+TS    =    -330.97525613 Ry

     The total energy is F=E-TS. E is the sum of the following terms:
     one-electron contribution =    -107.12153196 Ry
     hartree contribution      =      81.77793540 Ry
     xc contribution           =    -145.56721867 Ry
     ewald contribution        =    -160.06444090 Ry

     convergence has been achieved in  74 iterations

     Forces acting on atoms (cartesian axes, Ry/au):

     atom    1 type  1   force =    -0.00000000   -0.00000000    0.07752327
     atom    2 type  1   force =     0.00000000    0.00000000    0.07752327
     atom    3 type  2   force =    -0.00000000   -0.00000000   -0.07752327
     atom    4 type  2   force =     0.00000000   -0.00000000   -0.07752327
     The non-local contrib.  to forces
     atom    1 type  1   force =     0.00000000    0.00000000   -0.27479437
     atom    2 type  1   force =     0.00000000   -0.00000000   -0.27479437
     atom    3 type  2   force =     0.00000000    0.00000000    0.17996087
     atom    4 type  2   force =    -0.00000000    0.00000000    0.17996087
     The ionic contribution  to forces
     atom    1 type  1   force =    -0.00001989    0.00001148    0.09458273
     atom    2 type  1   force =     0.00001989   -0.00001148    0.09458273
     atom    3 type  2   force =    -0.00001844    0.00001065   -0.09458273
     atom    4 type  2   force =     0.00001844   -0.00001065   -0.09458273
     The local contribution  to forces
     atom    1 type  1   force =     0.00022794   -0.00071361    0.24687789
     atom    2 type  1   force =     0.00109335   -0.00084452    0.24671955
     atom    3 type  2   force =     0.00271412   -0.00053236   -0.14075509
     atom    4 type  2   force =     0.00280930   -0.00054575   -0.14099616
     The core correction contribution to forces
     atom    1 type  1   force =     0.00001676   -0.00002549    0.01058154
     atom    2 type  1   force =     0.00004581   -0.00002956    0.01057970
     atom    3 type  2   force =     0.00035328   -0.00007384   -0.02192870
     atom    4 type  2   force =     0.00035764   -0.00007611   -0.02194383
     The Hubbard contrib.    to forces
     atom    1 type  1   force =     0.00000000    0.00000000    0.00000000
     atom    2 type  1   force =     0.00000000    0.00000000    0.00000000
     atom    3 type  2   force =     0.00000000    0.00000000    0.00000000
     atom    4 type  2   force =     0.00000000    0.00000000    0.00000000
     The SCF correction term to forces
     atom    1 type  1   force =     0.00004965    0.00055098    0.00039949
     atom    2 type  1   force =    -0.00072849    0.00067690    0.00059728
     atom    3 type  2   force =    -0.00031650    0.00003959   -0.00001325
     atom    4 type  2   force =    -0.00038825    0.00005148    0.00011985

     Total force =     0.155047     Total SCF correction =     0.001443

     Computing stress (Cartesian axis) and pressure

          total   stress  (Ry/bohr**3)                   (kbar)     P=       85.31
   0.00090837   0.00000000   0.00000000          133.63        0.00        0.00
   0.00000000   0.00090837  -0.00000000            0.00      133.63       -0.00
   0.00000000  -0.00000000  -0.00007689            0.00       -0.00      -11.31

     kinetic stress (kbar)  11448.05      0.00      0.00
                                0.00  11448.06      0.00
                                0.00      0.00  11282.60

     local   stress (kbar)  -2686.58      0.55     -0.43
                                0.55  -2686.45     -0.73
                               -0.43     -0.73  -3301.87

     nonloc. stress (kbar)   -474.97     -0.00      0.00
                               -0.00   -474.97      0.00
                                0.00     -0.00   -542.45

     hartree stress (kbar)   4832.37     -0.10      0.08
                               -0.10   4832.36     -0.03
                                0.08     -0.03   5203.94

     exc-cor stress (kbar)  15328.24     -0.01      0.01
                               -0.01  15328.24      0.02
                                0.01      0.02  15329.21

     corecor stress (kbar) -18506.70      0.03     -0.03
                                0.03 -18506.69     -0.05
                               -0.03     -0.05 -18493.92

     ewald   stress (kbar)  -9806.87      0.03     -0.00
                                0.03  -9806.84      0.00
                               -0.00      0.00  -9488.83

     hubbard stress (kbar)      0.00      0.00      0.00
                                0.00      0.00      0.00
                                0.00      0.00      0.00

     DFT-D   stress (kbar)      0.00      0.00      0.00
                                0.00      0.00      0.00
                                0.00      0.00      0.00

     XDM     stress (kbar)      0.00      0.00      0.00
                                0.00      0.00      0.00
                                0.00      0.00      0.00

     dft-nl  stress (kbar)      0.00      0.00      0.00
                                0.00      0.00      0.00
                                0.00      0.00      0.00

     TS-vdW  stress (kbar)      0.00      0.00      0.00
                                0.00      0.00      0.00
                                0.00      0.00      0.00

[...]

                                0.00      0.00      0.00

     Writing all to output data dir new_calculations/myprefix.save/

     General routines

     Parallel routines

   This run was terminated on:  15:32:54  20May2023

   JOB DONE.