     Program PWSCF v.7.0 starts on 20May2023 at  3:17:30

     Reading input from espresso_2114.pwi
Warning: card &CELL ignored
Warning: card / ignored

     Current dimensions of program PWSCF are:
     Max number of different atomic species (ntypx) = 10
     Max number of k-points (npk) =  40000
     Max angular momentum in pseudopotentials (lmaxx) =  4

     gamma-point specific algorithms are used
     Message from routine setup:
     using ibrav=0 with symmetry is DISCOURAGED, use correct ibrav instead

     Subspace diagonalization in iterative solution of the eigenvalue problem:
     a serial algorithm will be used

     Using Slab Decomposition

     bravais-lattice index     =            0
     lattice parameter (alat)  =      12.3178  a.u.
     unit-cell volume          =    1887.7498 (a.u.)^3
     number of atoms/cell      =           20
     number of atomic types    =            3
     number of electrons       =       160.00
     number of Kohn-Sham states=           96
     kinetic-energy cutoff     =      30.0000  Ry
     charge density cutoff     =     240.0000  Ry
     scf convergence threshold =      1.0E-06
     mixing beta               =       0.7000
     number of iterations used =            8  plain     mixing
     Exchange-correlation=  SLA  PW   PBX  PBC
                           (   1   4   3   4   0   0   0)

     celldm(1)=  12.317798  celldm(2)=   0.000000  celldm(3)=   0.000000
     celldm(4)=   0.000000  celldm(5)=   0.000000  celldm(6)=   0.000000

     crystal axes: (cart. coord. in units of alat)
               a(1) = (   1.000000   0.000000   0.000000 )
               a(2) = (   0.632919   0.774218   0.000000 )
               a(3) = (   0.150521   0.071367   1.304613 )

     reciprocal axes: (cart. coord. in units 2 pi/alat)
               b(1) = (  1.000000 -0.817494 -0.070656 )
               b(2) = (  0.000000  1.291625 -0.070656 )
               b(3) = (  0.000000  0.000000  0.766511 )

     PseudoPot. # 1 for Na read from file:
     /home/pragov/projects/rrg-bengioy-ad/pragov/crystal_structure_design/SSSP/na_pbe_v1.5.uspp.F.UPF
     MD5 check sum: 44600605ef58000f06b90626533354dc
     Pseudo is Ultrasoft, Zval =  9.0
     Generated by new atomic code, or converted to UPF format
     Using radial grid of  819 points,  5 beta functions with:
                l(1) =   0
                l(2) =   0
                l(3) =   1
                l(4) =   1
                l(5) =   2
     Q(r) pseudized with  8 coefficients,  rinner =    1.250   1.250   1.250
                                                       1.250   1.250

     PseudoPot. # 2 for Zr read from file:
     /home/pragov/projects/rrg-bengioy-ad/pragov/crystal_structure_design/SSSP/Zr_pbe_v1.uspp.F.UPF
     MD5 check sum: 5db81b1e868ab7776c4564c113de050b
     Pseudo is Ultrasoft + core correction, Zval = 12.0
     Generated by new atomic code, or converted to UPF format
     Using radial grid of  887 points,  6 beta functions with:
                l(1) =   0
                l(2) =   0
                l(3) =   1
                l(4) =   1
                l(5) =   2
                l(6) =   2
     Q(r) pseudized with  6 coefficients,  rinner =    1.200   1.200   1.200
                                                       1.200   1.200

     PseudoPot. # 3 for F  read from file:
     /home/pragov/projects/rrg-bengioy-ad/pragov/crystal_structure_design/SSSP/f_pbe_v1.4.uspp.F.UPF
     MD5 check sum: 4c38b6a325caf53ec0e86aed9459de46
     Pseudo is Ultrasoft, Zval =  7.0
     Generated by new atomic code, or converted to UPF format
     Using radial grid of  799 points,  4 beta functions with:
                l(1) =   0
                l(2) =   0
                l(3) =   1
                l(4) =   1
     Q(r) pseudized with  8 coefficients,  rinner =    0.950   0.950   0.950

     atomic species   valence    mass     pseudopotential
        Na             9.00    22.98977     Na( 1.00)
        Zr            12.00    91.22400     Zr( 1.00)
        F              7.00    18.99840     F ( 1.00)

      2 Sym. Ops., with inversion, found

                                    s                        frac. trans.

      isym =  1     identity

 cryst.   s( 1) = (     1          0          0      )
                  (     0          1          0      )
                  (     0          0          1      )

 cart.    s( 1) = (  1.0000000  0.0000000  0.0000000 )
                  (  0.0000000  1.0000000  0.0000000 )
                  (  0.0000000  0.0000000  1.0000000 )

      isym =  2     inversion

 cryst.   s( 2) = (    -1          0          0      )
                  (     0         -1          0      )
                  (     0          0         -1      )

 cart.    s( 2) = ( -1.0000000 -0.0000000 -0.0000000 )
                  (  0.0000000 -1.0000000 -0.0000000 )
                  (  0.0000000  0.0000000 -1.0000000 )

   Cartesian axes

     site n.     atom                  positions (alat units)
         1           Na  tau(   1) = (   1.0932575   0.5183478   0.0923810  )
         2           Na  tau(   2) = (   0.4152631   0.1968893   0.4516845  )
         3           Na  tau(   3) = (   0.8917196   0.4227924   0.6523066  )
         4           Na  tau(   4) = (   1.3681762   0.6486955   0.8529287  )
         5           Na  tau(   5) = (   0.6901817   0.3272369   1.2122323  )
         6           Zr  tau(   6) = (   0.2333906   0.1106578   0.9865746  )
         7           Zr  tau(   7) = (   1.5500487   0.7349269   0.3180386  )
         8           F   tau(   8) = (   0.4447353   0.4599542   0.1871533  )
         9           F   tau(   9) = (   1.0505411   0.2498987   0.3247065  )
        10           F   tau(  10) = (   0.6375862   0.0532085   0.1871533  )
        11           F   tau(  11) = (   1.0191554   0.7432061   0.7439687  )
        12           F   tau(  12) = (   0.7328981   0.5956861   0.9799067  )
        13           F   tau(  13) = (   1.3387040   0.3856306   1.1174599  )
        14           F   tau(  14) = (   1.1458531   0.7923762   1.1174599  )
        15           F   tau(  15) = (   1.2204462   0.3186596   0.7439687  )
        16           F   tau(  16) = (   0.5629930   0.5269251   0.5606445  )
        17           F   tau(  17) = (   0.7642839   0.1023787   0.5606445  )
        18           F   tau(  18) = (   0.8583833   0.6551826   0.3247065  )
        19           F   tau(  19) = (   0.9250560   0.1904022   0.9799067  )
        20           F   tau(  20) = (   0.0000000   0.0000000   0.0000000  )

   Crystallographic axes

     site n.     atom                  positions (cryst. coord.)
         1           Na  tau(   1) = (  0.6629840  0.6629840  0.0708110  )
         2           Na  tau(   2) = (  0.2223930  0.2223930  0.3462210  )
         3           Na  tau(   3) = (  0.5000000  0.5000000  0.5000000  )
         4           Na  tau(   4) = (  0.7776070  0.7776070  0.6537790  )
         5           Na  tau(   5) = (  0.3370160  0.3370160  0.9291890  )
         6           Zr  tau(   6) = (  0.0732210  0.0732210  0.7562200  )
         7           Zr  tau(   7) = (  0.9267790  0.9267790  0.2437800  )
         8           F   tau(   8) = (  0.0555020  0.5808650  0.1434550  )
         9           F   tau(   9) = (  0.8233080  0.2998330  0.2488910  )
        10           F   tau(  10) = (  0.5808650  0.0555020  0.1434550  )
        11           F   tau(  11) = (  0.3590230  0.9073780  0.5702600  )
        12           F   tau(  12) = (  0.1766920  0.7001670  0.7511090  )
        13           F   tau(  13) = (  0.9444980  0.4191350  0.8565450  )
        14           F   tau(  14) = (  0.4191350  0.9444980  0.8565450  )
        15           F   tau(  15) = (  0.9073780  0.3590230  0.5702600  )
        16           F   tau(  16) = (  0.0926220  0.6409770  0.4297400  )
        17           F   tau(  17) = (  0.6409770  0.0926220  0.4297400  )
        18           F   tau(  18) = (  0.2998330  0.8233080  0.2488910  )
        19           F   tau(  19) = (  0.7001670  0.1766920  0.7511090  )
        20           F   tau(  20) = (  0.0000000  0.0000000  0.0000000  )

     number of k points=     1  Methfessel-Paxton smearing, width (Ry)=  0.0010
                       cart. coord. in units 2pi/alat
        k(    1) = (   0.0000000   0.0000000   0.0000000), wk =   2.0000000

                       cryst. coord.
        k(    1) = (   0.0000000   0.0000000   0.0000000), wk =   2.0000000

     Check: negative core charge=   -0.000002

     Initial potential from superposition of free atoms

     starting charge     159.9642, renormalised to     160.0000

     negative rho (up, down):  1.220E-01 0.000E+00
     Starting wfcs are  103 randomized atomic wfcs

     Self-consistent Calculation

     iteration #  1     ecut=    30.00 Ry     beta= 0.70
     Davidson diagonalization with overlap

     ethr =  1.00E-02,  avg # of iterations =  6.0

     negative rho (up, down):  1.282E-01 0.000E+00

     total energy              =   -1308.20628809 Ry
     estimated scf accuracy    <       2.88007973 Ry

[...]

     total energy              =   -1309.55334713 Ry
     estimated scf accuracy    <       0.00000268 Ry

     iteration #  9     ecut=    30.00 Ry     beta= 0.70
     Davidson diagonalization with overlap

     ethr =  1.67E-09,  avg # of iterations =  2.0

[...]

     End of self-consistent calculation

          k = 0.0000 0.0000 0.0000 (  2610 PWs)   bands (ev):

   -46.0657 -46.0642 -46.0064 -46.0059 -45.9260 -45.4083 -45.4069 -23.8497
   -23.7869 -23.7847 -23.7605 -23.7571 -23.6682 -19.0370 -18.8829 -18.7081
   -18.6615 -18.5317 -18.4626 -18.4494 -18.3872 -18.3463 -18.2519 -18.2491
   -18.1078 -18.0032 -17.9315 -17.9289 -17.9284 -17.9134 -17.8700 -17.8636
   -17.8232 -17.8168 -17.7629 -17.7236 -17.6814 -17.6784 -17.6040 -17.5953
   -17.5903  -2.1063  -1.5028  -1.4270  -1.3510  -1.2895  -1.2705  -1.1958
    -1.1490  -1.1258  -1.1223  -1.0410  -1.0216  -0.6710  -0.5072  -0.5021
    -0.3225  -0.3214  -0.1790  -0.0276  -0.0035   0.0657   0.1100   0.1695
     0.2394   0.4780   0.5884   0.5893   0.6856   0.7037   0.7438   0.8324
     0.8803   0.8876   0.9339   0.9693   1.0711   1.1709   1.2483   1.2907
     7.4065   7.5650   7.6612   7.8119   8.0327   8.9866   9.0770   9.5043
     9.8014  10.3128  10.5186  10.6843  11.2087  12.2579  13.1019  13.2532

     occupation numbers
     1.0000   1.0000   1.0000   1.0000   1.0000   1.0000   1.0000   1.0000
     1.0000   1.0000   1.0000   1.0000   1.0000   1.0000   1.0000   1.0000
     1.0000   1.0000   1.0000   1.0000   1.0000   1.0000   1.0000   1.0000
     1.0000   1.0000   1.0000   1.0000   1.0000   1.0000   1.0000   1.0000
     1.0000   1.0000   1.0000   1.0000   1.0000   1.0000   1.0000   1.0000
     1.0000   1.0000   1.0000   1.0000   1.0000   1.0000   1.0000   1.0000
     1.0000   1.0000   1.0000   1.0000   1.0000   1.0000   1.0000   1.0000
     1.0000   1.0000   1.0000   1.0000   1.0000   1.0000   1.0000   1.0000
     1.0000   1.0000   1.0000   1.0000   1.0000   1.0000   1.0000   1.0000
     1.0000   1.0000   1.0000   1.0000   1.0000   1.0000   1.0000   1.0000
    -0.0000  -0.0000  -0.0000  -0.0000  -0.0000  -0.0000  -0.0000  -0.0000
    -0.0000  -0.0000  -0.0000  -0.0000  -0.0000  -0.0000  -0.0000  -0.0000

     the Fermi energy is     5.9403 ev

!    total energy              =   -1309.55334731 Ry
     estimated scf accuracy    <       0.00000022 Ry
     smearing contrib. (-TS)   =       0.00000000 Ry
     internal energy E=F+TS    =   -1309.55334731 Ry

     The total energy is F=E-TS. E is the sum of the following terms:
     one-electron contribution =    -769.62476725 Ry
     hartree contribution      =     455.66060897 Ry
     xc contribution           =    -229.84977770 Ry
     ewald contribution        =    -765.73941133 Ry

     convergence has been achieved in   9 iterations

     negative rho (up, down):  1.325E-01 0.000E+00

     Forces acting on atoms (cartesian axes, Ry/au):

     atom    1 type  1   force =     0.00099676    0.00047423    0.00075067
     atom    2 type  1   force =    -0.00015170   -0.00007069   -0.00022439
     atom    3 type  1   force =     0.00000000    0.00000000    0.00000000
     atom    4 type  1   force =     0.00015170    0.00007069    0.00022439
     atom    5 type  1   force =    -0.00099676   -0.00047423   -0.00075067
     atom    6 type  2   force =     0.00241078    0.00114496   -0.00371376
     atom    7 type  2   force =    -0.00241078   -0.00114496    0.00371376
     atom    8 type  3   force =     0.00626138    0.00970758    0.00329172
     atom    9 type  3   force =    -0.00696149   -0.01044891    0.00060901
     atom   10 type  3   force =     0.01147987   -0.00129580    0.00329240
     atom   11 type  3   force =    -0.00529859    0.00409914    0.00992245
     atom   12 type  3   force =     0.00696149    0.01044891   -0.00060901
     atom   13 type  3   force =    -0.00626138   -0.00970758   -0.00329172
     atom   14 type  3   force =    -0.01147987    0.00129580   -0.00329240
     atom   15 type  3   force =    -0.00017848   -0.00669773    0.00992179
     atom   16 type  3   force =     0.00017848    0.00669773   -0.00992179
     atom   17 type  3   force =     0.00529859   -0.00409914   -0.00992245
     atom   18 type  3   force =    -0.01249394    0.00122417    0.00060640
     atom   19 type  3   force =     0.01249394   -0.00122417   -0.00060640
     atom   20 type  3   force =     0.00000000    0.00000000    0.00000000
     The non-local contrib.  to forces
     atom    1 type  1   force =    -0.07300155   -0.03460803   -0.04492341
     atom    2 type  1   force =    -0.02306257   -0.01093154   -0.04408763
     atom    3 type  1   force =     0.00000000    0.00000000    0.00000000
     atom    4 type  1   force =     0.02306257    0.01093154    0.04408763
     atom    5 type  1   force =     0.07300155    0.03460803    0.04492341
     atom    6 type  2   force =    -0.00770181   -0.00364989    0.01013721
     atom    7 type  2   force =     0.00770181    0.00364989   -0.01013721
     atom    8 type  3   force =     0.16363543    0.57967659    0.28625854
     atom    9 type  3   force =    -0.28146990   -0.67352668   -0.02921410
     atom   10 type  3   force =     0.55236455   -0.24019846    0.28625829
     atom   11 type  3   force =    -0.37111609    0.30466677    0.55072903
     atom   12 type  3   force =     0.28146990    0.67352668    0.02921410
     atom   13 type  3   force =    -0.16363543   -0.57967659   -0.28625854
     atom   14 type  3   force =    -0.55236455    0.24019846   -0.28625829
     atom   15 type  3   force =     0.00099286   -0.48015624    0.55072891
     atom   16 type  3   force =    -0.00099286    0.48015624   -0.55072891
     atom   17 type  3   force =     0.37111609   -0.30466677   -0.55072903
     atom   18 type  3   force =    -0.69960384    0.20836828   -0.02921453
     atom   19 type  3   force =     0.69960384   -0.20836828    0.02921453
     atom   20 type  3   force =     0.00000000    0.00000000    0.00000000
     The ionic contribution  to forces
     atom    1 type  1   force =    -2.70608522   -1.28304030   -0.79589264
     atom    2 type  1   force =    -0.24958109   -0.11833426   -1.09253941
     atom    3 type  1   force =    -0.00000000    0.00000000    0.00000000
     atom    4 type  1   force =     0.24958109    0.11833426    1.09253941
     atom    5 type  1   force =     2.70608522    1.28304030    0.79589263
     atom    6 type  2   force =     0.01632075    0.00773818    1.15279051
     atom    7 type  2   force =    -0.01632075   -0.00773818   -1.15279051
     atom    8 type  3   force =    -0.70609890   -5.02838192   -2.95400284
     atom    9 type  3   force =     1.93647020    6.41090364   -0.97731234
     atom   10 type  3   force =    -4.33996822    2.63588244   -2.95400284
     atom   11 type  3   force =     3.42787634   -2.49146832   -4.60869128
     atom   12 type  3   force =    -1.93647020   -6.41090364    0.97731234
     atom   13 type  3   force =     0.70609890    5.02838192    2.95400284
     atom   14 type  3   force =     4.33996822   -2.63588244    2.95400284
     atom   15 type  3   force =     0.24062691    4.23082135   -4.60869128
     atom   16 type  3   force =    -0.24062691   -4.23082135    4.60869128
     atom   17 type  3   force =    -3.42787634    2.49146832    4.60869128
     atom   18 type  3   force =     6.18906680   -2.55833042   -0.97731234
     atom   19 type  3   force =    -6.18906680    2.55833042    0.97731234
     atom   20 type  3   force =     0.00000000    0.00000000   -0.00000000
     The local contribution  to forces
     atom    1 type  1   force =     2.78015817    1.31815843    0.84162027
     atom    2 type  1   force =     0.27255705    0.12922668    1.13646645
     atom    3 type  1   force =    -0.00000247   -0.00000052    0.00000049
     atom    4 type  1   force =    -0.27255824   -0.12922755   -1.13646949
     atom    5 type  1   force =    -2.78015736   -1.31815822   -0.84161566
     atom    6 type  2   force =    -0.00680649   -0.00321724   -1.16640175
     atom    7 type  2   force =     0.00680072    0.00323270    1.16640579
     atom    8 type  3   force =     0.54853262    4.45804576    2.67091235
     atom    9 type  3   force =    -1.66176195   -5.74735848    1.00717217
     atom   10 type  3   force =     3.79867656   -2.39689427    2.67090681
     atom   11 type  3   force =    -3.06176064    2.19070195    4.06754493
     atom   12 type  3   force =     1.66176266    5.74735513   -1.00717291
     atom   13 type  3   force =    -0.54853714   -4.45804323   -2.67090947
     atom   14 type  3   force =    -3.79867778    2.39689310   -2.67090861
     atom   15 type  3   force =    -0.24176642   -3.75700448    4.06755092
     atom   16 type  3   force =     0.24176584    3.75700486   -4.06754773
     atom   17 type  3   force =     3.06176274   -2.19070349   -4.06754843
     atom   18 type  3   force =    -5.50147068    2.35103941    1.00717815
     atom   19 type  3   force =     5.50147412   -2.35104260   -1.00717806
     atom   20 type  3   force =     0.00000224   -0.00000133    0.00000361
     The core correction contribution to forces
     atom    1 type  1   force =     0.00000000    0.00000000    0.00000000
     atom    2 type  1   force =     0.00000000    0.00000000    0.00000000
     atom    3 type  1   force =     0.00000000    0.00000000    0.00000000
     atom    4 type  1   force =     0.00000000    0.00000000    0.00000000
     atom    5 type  1   force =     0.00000000    0.00000000    0.00000000
     atom    6 type  2   force =     0.00070177    0.00033282   -0.00026548
     atom    7 type  2   force =    -0.00070187   -0.00033244    0.00026569
     atom    8 type  3   force =     0.00000000    0.00000000    0.00000000
     atom    9 type  3   force =     0.00000000    0.00000000    0.00000000
     atom   10 type  3   force =     0.00000000    0.00000000    0.00000000
     atom   11 type  3   force =     0.00000000    0.00000000    0.00000000
     atom   12 type  3   force =     0.00000000    0.00000000    0.00000000
     atom   13 type  3   force =     0.00000000    0.00000000    0.00000000
     atom   14 type  3   force =     0.00000000    0.00000000    0.00000000
     atom   15 type  3   force =     0.00000000    0.00000000    0.00000000
     atom   16 type  3   force =     0.00000000    0.00000000    0.00000000
     atom   17 type  3   force =     0.00000000    0.00000000    0.00000000
     atom   18 type  3   force =     0.00000000    0.00000000    0.00000000
     atom   19 type  3   force =     0.00000000    0.00000000    0.00000000
     atom   20 type  3   force =     0.00000000    0.00000000    0.00000000
     The Hubbard contrib.    to forces
     atom    1 type  1   force =     0.00000000    0.00000000    0.00000000
     atom    2 type  1   force =     0.00000000    0.00000000    0.00000000
     atom    3 type  1   force =     0.00000000    0.00000000    0.00000000
     atom    4 type  1   force =     0.00000000    0.00000000    0.00000000
     atom    5 type  1   force =     0.00000000    0.00000000    0.00000000
     atom    6 type  2   force =     0.00000000    0.00000000    0.00000000
     atom    7 type  2   force =     0.00000000    0.00000000    0.00000000
     atom    8 type  3   force =     0.00000000    0.00000000    0.00000000
     atom    9 type  3   force =     0.00000000    0.00000000    0.00000000
     atom   10 type  3   force =     0.00000000    0.00000000    0.00000000
     atom   11 type  3   force =     0.00000000    0.00000000    0.00000000
     atom   12 type  3   force =     0.00000000    0.00000000    0.00000000
     atom   13 type  3   force =     0.00000000    0.00000000    0.00000000
     atom   14 type  3   force =     0.00000000    0.00000000    0.00000000
     atom   15 type  3   force =     0.00000000    0.00000000    0.00000000
     atom   16 type  3   force =     0.00000000    0.00000000    0.00000000
     atom   17 type  3   force =     0.00000000    0.00000000    0.00000000
     atom   18 type  3   force =     0.00000000    0.00000000    0.00000000
     atom   19 type  3   force =     0.00000000    0.00000000    0.00000000
     atom   20 type  3   force =     0.00000000    0.00000000    0.00000000
     The SCF correction term to forces
     atom    1 type  1   force =    -0.00007716   -0.00003577   -0.00005246
     atom    2 type  1   force =    -0.00006167   -0.00002786   -0.00006558
     atom    3 type  1   force =    -0.00000258   -0.00000801   -0.00000175
     atom    4 type  1   force =     0.00006971    0.00003615    0.00006503
     atom    5 type  1   force =     0.00007131    0.00003577    0.00005003
     atom    6 type  2   force =    -0.00010441   -0.00005545    0.00002742
     atom    7 type  2   force =     0.00010835    0.00004654   -0.00002834
     atom    8 type  3   force =     0.00019391    0.00036606    0.00012251
     atom    9 type  3   force =    -0.00019987   -0.00046668   -0.00003559
     atom   10 type  3   force =     0.00040671   -0.00008497    0.00013043
     atom   11 type  3   force =    -0.00029900    0.00019900    0.00034104
     atom   12 type  3   force =     0.00019910    0.00047145    0.00003858
     atom   13 type  3   force =    -0.00018603   -0.00037079   -0.00012769
     atom   14 type  3   force =    -0.00040603    0.00008723   -0.00012805
     atom   15 type  3   force =    -0.00003243   -0.00035980    0.00033324
     atom   16 type  3   force =     0.00003183    0.00035655   -0.00033642
     atom   17 type  3   force =     0.00029530   -0.00019693   -0.00033501
     atom   18 type  3   force =    -0.00048709    0.00014626   -0.00004513
     atom   19 type  3   force =     0.00048189   -0.00014436    0.00004454
     atom   20 type  3   force =    -0.00000237    0.00000064   -0.00000480

     Total force =     0.042755     Total SCF correction =     0.001681

     Computing stress (Cartesian axis) and pressure

     negative rho (up, down):  1.325E-01 0.000E+00
          total   stress  (Ry/bohr**3)                   (kbar)     P=     -143.63
  -0.00097265  -0.00004261  -0.00000010         -143.08       -6.27       -0.01
  -0.00004261  -0.00090300  -0.00000004           -6.27     -132.84       -0.01
  -0.00000010  -0.00000004  -0.00105347           -0.01       -0.01     -154.97

     kinetic stress (kbar)  19449.07    -25.49     -6.54
                              -25.49  19490.74     -3.10
                               -6.54     -3.10  19436.07

     local   stress (kbar)   7917.18   1140.61    430.86
                             1140.61   6052.31    204.29
                              430.86    204.29   5479.32

     nonloc. stress (kbar) -12433.29     -0.26     -1.18
                               -0.26 -12432.87     -0.56
                               -1.18     -0.56 -12432.42

     hartree stress (kbar)  11221.99   -473.65   -177.41
                             -473.65  11996.40    -84.12
                             -177.41    -84.12  12289.49

     exc-cor stress (kbar)  -4615.29     -0.79     -0.61
                               -0.79  -4613.99     -0.29
                               -0.61     -0.29  -4614.28

     corecor stress (kbar)   -983.34      0.04     -0.01
                                0.04   -983.40     -0.00
                               -0.01     -0.00   -983.46

     ewald   stress (kbar) -20699.40   -646.72   -245.12
                             -646.72 -19642.03   -116.22
                             -245.12   -116.22 -19329.70

     hubbard stress (kbar)      0.00      0.00      0.00
                                0.00      0.00      0.00
                                0.00      0.00      0.00

     DFT-D   stress (kbar)      0.00      0.00      0.00
                                0.00      0.00      0.00
                                0.00      0.00      0.00

     XDM     stress (kbar)      0.00      0.00      0.00
                                0.00      0.00      0.00
                                0.00      0.00      0.00

     dft-nl  stress (kbar)      0.00      0.00      0.00
                                0.00      0.00      0.00
                                0.00      0.00      0.00

     TS-vdW  stress (kbar)      0.00      0.00      0.00
                                0.00      0.00      0.00
                                0.00      0.00      0.00

[...]

                                0.00      0.00      0.00

     Writing all to output data dir new_calculations/myprefix.save/

     General routines

     Parallel routines

   This run was terminated on:   3:18:16  20May2023

   JOB DONE.