     Program PWSCF v.7.0 starts on 20May2023 at 17:28:45

     Reading input from espresso_16512.pwi
Warning: card &CELL ignored
Warning: card / ignored

     Current dimensions of program PWSCF are:
     Max number of different atomic species (ntypx) = 10
     Max number of k-points (npk) =  40000
     Max angular momentum in pseudopotentials (lmaxx) =  4
     file O.pbe-n-kjpaw_psl.0.1.UPF: wavefunction(s)  2P renormalized

     gamma-point specific algorithms are used
     Message from routine setup:
     using ibrav=0 with symmetry is DISCOURAGED, use correct ibrav instead

     Subspace diagonalization in iterative solution of the eigenvalue problem:
     a serial algorithm will be used

     Using Slab Decomposition

     bravais-lattice index     =            0
     lattice parameter (alat)  =       9.2177  a.u.
     unit-cell volume          =    1406.4387 (a.u.)^3
     number of atoms/cell      =           16
     number of atomic types    =            3
     number of electrons       =       134.00
     number of Kohn-Sham states=           80
     kinetic-energy cutoff     =      30.0000  Ry
     charge density cutoff     =     240.0000  Ry
     scf convergence threshold =      1.0E-06
     mixing beta               =       0.7000
     number of iterations used =            8  plain     mixing
     Exchange-correlation=  SLA  PW   PBX  PBC
                           (   1   4   3   4   0   0   0)

     celldm(1)=   9.217719  celldm(2)=   0.000000  celldm(3)=   0.000000
     celldm(4)=   0.000000  celldm(5)=   0.000000  celldm(6)=   0.000000

     crystal axes: (cart. coord. in units of alat)
               a(1) = (   1.000000   0.000000   0.000000 )
               a(2) = (   0.000000   0.995738   0.000000 )
               a(3) = (   0.000000   0.981246   1.803454 )

     reciprocal axes: (cart. coord. in units 2 pi/alat)
               b(1) = (  1.000000  0.000000  0.000000 )
               b(2) = (  0.000000  1.004280 -0.546421 )
               b(3) = (  0.000000  0.000000  0.554492 )

     PseudoPot. # 1 for V  read from file:
     /home/pragov/projects/rrg-bengioy-ad/pragov/crystal_structure_design/SSSP/v_pbe_v1.4.uspp.F.UPF
     MD5 check sum: 22b79981416ebb76fdaf5b1b8640f6fb
     Pseudo is Ultrasoft + core correction, Zval = 13.0
     Generated by new atomic code, or converted to UPF format
     Using radial grid of  853 points,  6 beta functions with:
                l(1) =   0
                l(2) =   0
                l(3) =   1
                l(4) =   1
                l(5) =   2
                l(6) =   2
     Q(r) pseudized with  8 coefficients,  rinner =    1.100   1.100   1.100
                                                       1.100   1.100

     PseudoPot. # 2 for O  read from file:
     /home/pragov/projects/rrg-bengioy-ad/pragov/crystal_structure_design/SSSP/O.pbe-n-kjpaw_psl.0.1.UPF
     MD5 check sum: 0234752ac141de4415c5fc33072bef88
     Pseudo is Projector augmented-wave + core cor, Zval =  6.0
     Generated using "atomic" code by A. Dal Corso  v.5.0.99 svn rev. 10869
     Shape of augmentation charge: BESSEL
     Using radial grid of 1095 points,  4 beta functions with:
                l(1) =   0
                l(2) =   0
                l(3) =   1
                l(4) =   1
     Q(r) pseudized with 0 coefficients

     PseudoPot. # 3 for F  read from file:
     /home/pragov/projects/rrg-bengioy-ad/pragov/crystal_structure_design/SSSP/f_pbe_v1.4.uspp.F.UPF
     MD5 check sum: 4c38b6a325caf53ec0e86aed9459de46
     Pseudo is Ultrasoft, Zval =  7.0
     Generated by new atomic code, or converted to UPF format
     Using radial grid of  799 points,  4 beta functions with:
                l(1) =   0
                l(2) =   0
                l(3) =   1
                l(4) =   1
     Q(r) pseudized with  8 coefficients,  rinner =    0.950   0.950   0.950

     atomic species   valence    mass     pseudopotential
        V             13.00    50.94150     V ( 1.00)
        O              6.00    15.99900     O ( 1.00)
        F              7.00    18.99840     F ( 1.00)

      2 Sym. Ops. (no inversion) found ( 1 have fractional translation)

                                    s                        frac. trans.

      isym =  1     identity

 cryst.   s( 1) = (     1          0          0      )
                  (     0          1          0      )
                  (     0          0          1      )

 cart.    s( 1) = (  1.0000000  0.0000000  0.0000000 )
                  (  0.0000000  1.0000000 -0.0000000 )
                  (  0.0000000  0.0000000  1.0000000 )

      isym =  2     inv. 180 deg rotation - cart. axis [1,0,0]

 cryst.   s( 2) = (    -1          0          0      )    f =(  0.0000000 )
                  (     0          1          0      )       (  0.0000000 )
                  (     0          0          1      )       (  0.5000000 )

 cart.    s( 2) = ( -1.0000000  0.0000000  0.0000000 )    f =(  0.0000000 )
                  (  0.0000000  1.0000000 -0.0000000 )       (  0.4906231 )
                  (  0.0000000  0.0000000  1.0000000 )       (  0.9017270 )

   Cartesian axes

     site n.     atom                  positions (alat units)
         1           V   tau(   1) = (   0.7635440   0.5045082   0.3123402  )
         2           V   tau(   2) = (   0.2395350   0.9808107   0.5645046  )
         3           V   tau(   3) = (   0.2364560   0.9951313   1.2140673  )
         4           V   tau(   4) = (   0.7604650   1.4714338   1.4662316  )
         5           O   tau(   5) = (   0.0445010   0.7858926   0.3471974  )
         6           O   tau(   6) = (   0.9554990   1.2765157   1.2489244  )
         7           F   tau(   7) = (   0.4687460   0.2157174   0.3300231  )
         8           F   tau(   8) = (   0.5390640   0.7074444   0.5834913  )
         9           F   tau(   9) = (   0.9685080   1.2749576   0.5891885  )
        10           F   tau(  10) = (   0.4191240   1.1624107   0.8846700  )
        11           F   tau(  11) = (   0.0682290   0.8069763   0.9007315  )
        12           F   tau(  12) = (   0.5312540   0.7063406   1.2317501  )
        13           F   tau(  13) = (   0.0314920   1.7655807   1.4909155  )
        14           F   tau(  14) = (   0.4609360   1.1980676   1.4852184  )
        15           F   tau(  15) = (   0.5808760   1.6530338   1.7863970  )
        16           F   tau(  16) = (   0.9317710   1.2975994   1.8024586  )

   Crystallographic axes

     site n.     atom                  positions (cryst. coord.)
         1           V   tau(   1) = (  0.7635440  0.3359980  0.1731900  )
         2           V   tau(   2) = (  0.2395350  0.6765510  0.3130130  )
         3           V   tau(   3) = (  0.2364560  0.3359980  0.6731900  )
         4           V   tau(   4) = (  0.7604650  0.6765510  0.8130130  )
         5           O   tau(   5) = (  0.0445010  0.5995400  0.1925180  )
         6           O   tau(   6) = (  0.9554990  0.5995400  0.6925180  )
         7           F   tau(   7) = (  0.4687460  0.0363090  0.1829950  )
         8           F   tau(   8) = (  0.5390640  0.3916400  0.3235410  )
         9           F   tau(   9) = (  0.9685080  0.9584690  0.3267000  )
        10           F   tau(  10) = (  0.4191240  0.6839830  0.4905420  )
        11           F   tau(  11) = (  0.0682290  0.3182510  0.4994480  )
        12           F   tau(  12) = (  0.5312540  0.0363090  0.6829950  )
        13           F   tau(  13) = (  0.0314920  0.9584690  0.8267000  )
        14           F   tau(  14) = (  0.4609360  0.3916400  0.8235410  )
        15           F   tau(  15) = (  0.5808760  0.6839830  0.9905420  )
        16           F   tau(  16) = (  0.9317710  0.3182510  0.9994480  )

     number of k points=     1  Methfessel-Paxton smearing, width (Ry)=  0.0010
                       cart. coord. in units 2pi/alat
        k(    1) = (   0.0000000   0.0000000   0.0000000), wk =   2.0000000

                       cryst. coord.
        k(    1) = (   0.0000000   0.0000000   0.0000000), wk =   2.0000000

     Check: negative core charge=   -0.000008

     Initial potential from superposition of free atoms

     starting charge     133.9951, renormalised to     134.0000

     negative rho (up, down):  1.764E-03 0.000E+00
     Starting wfcs are   88 randomized atomic wfcs
     Checking if some PAW data can be deallocated...

     Self-consistent Calculation

     iteration #  1     ecut=    30.00 Ry     beta= 0.70
     Davidson diagonalization with overlap

     ethr =  1.00E-02,  avg # of iterations =  2.0

     negative rho (up, down):  5.884E-03 0.000E+00

     total energy              =   -1148.53410600 Ry
     estimated scf accuracy    <       3.64745630 Ry

[...]

     total energy              =   -1150.66175197 Ry
     estimated scf accuracy    <       0.00000805 Ry

     iteration # 34     ecut=    30.00 Ry     beta= 0.70
     Davidson diagonalization with overlap

     ethr =  7.73E-10,  avg # of iterations =  1.0

[...]

     End of self-consistent calculation

          k = 0.0000 0.0000 0.0000 (  1938 PWs)   bands (ev):

   -60.3731 -60.3727 -60.1194 -60.1193 -34.6018 -34.6004 -34.2387 -34.2349
   -34.0680 -34.0641 -34.0159 -34.0154 -33.8531 -33.8503 -33.7284 -33.7258
   -19.0400 -18.8001 -18.6934 -18.5507 -18.5231 -18.4585 -18.3904 -18.3633
   -18.2871 -18.2783 -13.1254 -13.1074  -1.9905  -1.8236  -1.6998  -1.6174
    -1.3301  -1.3196  -1.2363  -1.1405  -1.0573  -1.0277  -0.9658  -0.8283
    -0.8271  -0.6138  -0.1841  -0.1536  -0.0621   0.0611   0.1002   0.1276
     0.1995   0.2853   0.4030   0.4509   0.5088   0.5964   0.8612   0.9403
     1.0865   1.1700   1.3197   1.3618   1.7221   1.7354   2.2547   2.2728
     5.3945   5.6145   5.6763   5.6967   5.7199   5.8172   5.8648   5.8936
     6.4876   6.4998   6.9604   7.0210   7.1124   7.4060   7.5675   7.5807

     occupation numbers
     1.0000   1.0000   1.0000   1.0000   1.0000   1.0000   1.0000   1.0000
     1.0000   1.0000   1.0000   1.0000   1.0000   1.0000   1.0000   1.0000
     1.0000   1.0000   1.0000   1.0000   1.0000   1.0000   1.0000   1.0000
     1.0000   1.0000   1.0000   1.0000   1.0000   1.0000   1.0000   1.0000
     1.0000   1.0000   1.0000   1.0000   1.0000   1.0000   1.0000   1.0000
     1.0000   1.0000   1.0000   1.0000   1.0000   1.0000   1.0000   1.0000
     1.0000   1.0000   1.0000   1.0000   1.0000   1.0000   1.0000   1.0000
     1.0000   1.0000   1.0000   1.0000   1.0000   1.0000   1.0000   1.0000
     1.0000   1.0000   0.9760   0.0254  -0.0015  -0.0000  -0.0000  -0.0000
    -0.0000  -0.0000  -0.0000  -0.0000  -0.0000  -0.0000  -0.0000  -0.0000

     the Fermi energy is     5.6865 ev

!    total energy              =   -1150.66175177 Ry
     estimated scf accuracy    <       0.00000037 Ry
     smearing contrib. (-TS)   =       0.00004540 Ry
     internal energy E=F+TS    =   -1150.66179718 Ry

     The total energy is F=E-TS. E is the sum of the following terms:
     one-electron contribution =    -682.88172831 Ry
     hartree contribution      =     394.69029307 Ry
     xc contribution           =    -185.97596017 Ry
     ewald contribution        =    -657.43349354 Ry
     one-center paw contrib.   =     -19.06090822 Ry
      -> PAW hartree energy AE =      58.50803852 Ry
      -> PAW hartree energy PS =     -58.31057033 Ry
      -> PAW xc energy AE      =     -34.23153916 Ry
      -> PAW xc energy PS      =      14.97316276 Ry
      -> total E_H with PAW    =     394.88776126 Ry
      -> total E_XC with PAW   =    -205.23433658 Ry

     convergence has been achieved in  34 iterations

     negative rho (up, down):  4.038E-03 0.000E+00

     Forces acting on atoms (cartesian axes, Ry/au):

     atom    1 type  1   force =     0.00820204    0.02206874    0.02404998
     atom    2 type  1   force =    -0.00221839    0.00866444   -0.05022947
     atom    3 type  1   force =    -0.00820204    0.02206874    0.02404998
     atom    4 type  1   force =     0.00221839    0.00866444   -0.05022947
     atom    5 type  2   force =    -0.01596784   -0.02140460    0.01257832
     atom    6 type  2   force =     0.01596784   -0.02140460    0.01257832
     atom    7 type  3   force =    -0.00533952   -0.01115719    0.01659276
     atom    8 type  3   force =     0.00498361   -0.00682100   -0.01535658
     atom    9 type  3   force =    -0.00703851    0.00783655   -0.02831010
     atom   10 type  3   force =    -0.02050315   -0.01905027    0.03371701
     atom   11 type  3   force =     0.01989513    0.01986333    0.00695808
     atom   12 type  3   force =     0.00533952   -0.01115719    0.01659276
     atom   13 type  3   force =     0.00703851    0.00783655   -0.02831010
     atom   14 type  3   force =    -0.00498361   -0.00682100   -0.01535658
     atom   15 type  3   force =     0.02050315   -0.01905027    0.03371701
     atom   16 type  3   force =    -0.01989513    0.01986333    0.00695808
     The non-local contrib.  to forces
     atom    1 type  1   force =    -0.01410942   -0.01488420    0.02514064
     atom    2 type  1   force =    -0.03791010   -0.04900454   -0.07607092
     atom    3 type  1   force =     0.01410942   -0.01488420    0.02514064
     atom    4 type  1   force =     0.03791010   -0.04900454   -0.07607092
     atom    5 type  2   force =    -0.03311192   -0.02718651    0.48529907
     atom    6 type  2   force =     0.03311192   -0.02718651    0.48529907
     atom    7 type  3   force =     0.04509722    0.03202728    0.57460669
     atom    8 type  3   force =    -0.17979380    0.17529199   -0.73751530
     atom    9 type  3   force =     0.20932509   -0.23186759   -0.72762077
     atom   10 type  3   force =    -0.76233275   -0.74290121    0.08437623
     atom   11 type  3   force =     0.76193576    0.82356220    0.07434559
     atom   12 type  3   force =    -0.04509722    0.03202728    0.57460669
     atom   13 type  3   force =    -0.20932509   -0.23186759   -0.72762077
     atom   14 type  3   force =     0.17979380    0.17529199   -0.73751530
     atom   15 type  3   force =     0.76233275   -0.74290121    0.08437623
     atom   16 type  3   force =    -0.76193576    0.82356220    0.07434559
     The ionic contribution  to forces
     atom    1 type  1   force =     0.33656128    0.89034789    2.36709105
     atom    2 type  1   force =     1.14709564    0.43575895   -2.97686846
     atom    3 type  1   force =    -0.33656128    0.89034788    2.36709105
     atom    4 type  1   force =    -1.14709564    0.43575895   -2.97686846
     atom    5 type  2   force =    -0.45284907   -0.54761060   -8.31070466
     atom    6 type  2   force =     0.45284907   -0.54761060   -8.31070466
     atom    7 type  3   force =    -1.32752313   -1.29705198   -6.82619515
     atom    8 type  3   force =     2.50835127   -2.43516004    7.21295570
     atom    9 type  3   force =    -3.15360994    3.03639876    7.28863562
     atom   10 type  3   force =     9.30364843    9.11027390    1.00465021
     atom   11 type  3   force =    -8.91502648   -9.19295688    0.24043568
     atom   12 type  3   force =     1.32752313   -1.29705198   -6.82619515
     atom   13 type  3   force =     3.15360994    3.03639876    7.28863562
     atom   14 type  3   force =    -2.50835127   -2.43516004    7.21295570
     atom   15 type  3   force =    -9.30364843    9.11027390    1.00465022
     atom   16 type  3   force =     8.91502648   -9.19295688    0.24043568
     The local contribution  to forces
     atom    1 type  1   force =    -0.31047233   -0.85001937   -2.36764352
     atom    2 type  1   force =    -1.12130622   -0.38822176    2.99267730
     atom    3 type  1   force =     0.31048217   -0.84999398   -2.36661862
     atom    4 type  1   force =     1.12122634   -0.38823190    2.99317370
     atom    5 type  2   force =     0.46840692    0.55188089    7.84104395
     atom    6 type  2   force =    -0.46895059    0.55245599    7.84173346
     atom    7 type  3   force =     1.27721420    1.25398329    6.26791108
     atom    8 type  3   force =    -2.32344283    2.25294399   -6.49089650
     atom    9 type  3   force =     2.93713227   -2.79653650   -6.58943209
     atom   10 type  3   force =    -8.56156309   -8.38615388   -1.05535641
     atom   11 type  3   force =     8.17271264    8.38900257   -0.30781788
     atom   12 type  3   force =    -1.27659894    1.25338637    6.26861006
     atom   13 type  3   force =    -2.93768657   -2.79719038   -6.58900686
     atom   14 type  3   force =     2.32404277    2.25348327   -6.49053004
     atom   15 type  3   force =     8.56199523   -8.38657630   -1.05563982
     atom   16 type  3   force =    -8.17314390    8.38943221   -0.30824761
     The core correction contribution to forces
     atom    1 type  1   force =    -0.00367173   -0.00328981   -0.00104562
     atom    2 type  1   force =     0.00977238    0.01005753    0.00966713
     atom    3 type  1   force =     0.00367217   -0.00328847   -0.00104326
     atom    4 type  1   force =    -0.00977399    0.01005706    0.00966654
     atom    5 type  2   force =     0.00147148    0.00138254   -0.00333032
     atom    6 type  2   force =    -0.00147122    0.00138239   -0.00333071
     atom    7 type  3   force =     0.00000000    0.00000000    0.00000000
     atom    8 type  3   force =     0.00000000    0.00000000    0.00000000
     atom    9 type  3   force =     0.00000000    0.00000000    0.00000000
     atom   10 type  3   force =     0.00000000    0.00000000    0.00000000
     atom   11 type  3   force =     0.00000000    0.00000000    0.00000000
     atom   12 type  3   force =     0.00000000    0.00000000    0.00000000
     atom   13 type  3   force =     0.00000000    0.00000000    0.00000000
     atom   14 type  3   force =     0.00000000    0.00000000    0.00000000
     atom   15 type  3   force =     0.00000000    0.00000000    0.00000000
     atom   16 type  3   force =     0.00000000    0.00000000    0.00000000
     The Hubbard contrib.    to forces
     atom    1 type  1   force =     0.00000000    0.00000000    0.00000000
     atom    2 type  1   force =     0.00000000    0.00000000    0.00000000
     atom    3 type  1   force =     0.00000000    0.00000000    0.00000000
     atom    4 type  1   force =     0.00000000    0.00000000    0.00000000
     atom    5 type  2   force =     0.00000000    0.00000000    0.00000000
     atom    6 type  2   force =     0.00000000    0.00000000    0.00000000
     atom    7 type  3   force =     0.00000000    0.00000000    0.00000000
     atom    8 type  3   force =     0.00000000    0.00000000    0.00000000
     atom    9 type  3   force =     0.00000000    0.00000000    0.00000000
     atom   10 type  3   force =     0.00000000    0.00000000    0.00000000
     atom   11 type  3   force =     0.00000000    0.00000000    0.00000000
     atom   12 type  3   force =     0.00000000    0.00000000    0.00000000
     atom   13 type  3   force =     0.00000000    0.00000000    0.00000000
     atom   14 type  3   force =     0.00000000    0.00000000    0.00000000
     atom   15 type  3   force =     0.00000000    0.00000000    0.00000000
     atom   16 type  3   force =     0.00000000    0.00000000    0.00000000
     The SCF correction term to forces
     atom    1 type  1   force =    -0.00009366   -0.00007691    0.00049361
     atom    2 type  1   force =     0.00011121    0.00008418    0.00036179
     atom    3 type  1   force =     0.00010756   -0.00010745   -0.00049747
     atom    4 type  1   force =    -0.00006713    0.00008885   -0.00011805
     atom    5 type  2   force =     0.00011608    0.00012868    0.00028019
     atom    6 type  2   force =     0.00043001   -0.00043160   -0.00042021
     atom    7 type  3   force =    -0.00012549   -0.00010998    0.00028779
     atom    8 type  3   force =    -0.00012701    0.00011273    0.00010576
     atom    9 type  3   force =     0.00012262   -0.00014697    0.00010288
     atom   10 type  3   force =    -0.00025239   -0.00026347    0.00004936
     atom   11 type  3   force =     0.00027295    0.00026305   -0.00000728
     atom   12 type  3   force =    -0.00048514    0.00048925   -0.00043793
     atom   13 type  3   force =     0.00044878    0.00049852   -0.00030527
     atom   14 type  3   force =    -0.00046487   -0.00043200   -0.00026463
     atom   15 type  3   force =    -0.00017307    0.00016161    0.00033657
     atom   16 type  3   force =     0.00015779   -0.00016790    0.00043495

     Total force =     0.134267     Total SCF correction =     0.001983

     Computing stress (Cartesian axis) and pressure

     negative rho (up, down):  4.038E-03 0.000E+00
          total   stress  (Ry/bohr**3)                   (kbar)     P=     -298.38
  -0.00212335   0.00000000   0.00000000         -312.35        0.00        0.00
   0.00000000  -0.00213450   0.00002625            0.00     -314.00        3.86
   0.00000000   0.00002625  -0.00182726            0.00        3.86     -268.80

     kinetic stress (kbar)  25079.61      0.00      0.00
                                0.00  25107.94     -8.31
                                0.00     -8.31  24658.57

     local   stress (kbar) -10647.52      0.05     -0.28
                                0.05 -10957.88  -1357.98
                               -0.28  -1357.98 -11949.10

     nonloc. stress (kbar)   1233.73      0.00      0.00
                                0.00   1238.11    -22.02
                                0.00    -22.02   1190.26

     hartree stress (kbar)  13574.92     -0.03      0.10
                               -0.03  13709.15    390.35
                                0.10    390.35  13998.18

     exc-cor stress (kbar)  -4949.15     -0.00      0.00
                               -0.00  -4948.77      3.92
                                0.00      3.92  -4952.38

     corecor stress (kbar)  -1174.01      0.00     -0.00
                                0.00  -1174.51      1.16
                               -0.00      1.16  -1168.69

     ewald   stress (kbar) -23429.94     -0.00      0.00
                               -0.00 -23288.04    996.74
                                0.00    996.74 -22045.63

     hubbard stress (kbar)      0.00      0.00      0.00
                                0.00      0.00      0.00
                                0.00      0.00      0.00

     DFT-D   stress (kbar)      0.00      0.00      0.00
                                0.00      0.00      0.00
                                0.00      0.00      0.00

     XDM     stress (kbar)      0.00      0.00      0.00
                                0.00      0.00      0.00
                                0.00      0.00      0.00

     dft-nl  stress (kbar)      0.00      0.00      0.00
                                0.00      0.00      0.00
                                0.00      0.00      0.00

     TS-vdW  stress (kbar)      0.00      0.00      0.00
                                0.00      0.00      0.00
                                0.00      0.00      0.00

[...]

                                0.00      0.00      0.00

     Writing all to output data dir new_calculations/myprefix.save/

     General routines

     Parallel routines

     PAW routines

   This run was terminated on:  17:29:34  20May2023

   JOB DONE.