     Program PWSCF v.7.0 starts on 21May2023 at  6:45: 0

     Reading input from espresso_14142.pwi
Warning: card &CELL ignored
Warning: card / ignored

     Current dimensions of program PWSCF are:
     Max number of different atomic species (ntypx) = 10
     Max number of k-points (npk) =  40000
     Max angular momentum in pseudopotentials (lmaxx) =  4
     file O.pbe-n-kjpaw_psl.0.1.UPF: wavefunction(s)  2P renormalized

     gamma-point specific algorithms are used
     Message from routine setup:
     using ibrav=0 with symmetry is DISCOURAGED, use correct ibrav instead

     Subspace diagonalization in iterative solution of the eigenvalue problem:
     a serial algorithm will be used

     Using Slab Decomposition

     bravais-lattice index     =            0
     lattice parameter (alat)  =       9.4516  a.u.
     unit-cell volume          =     597.5658 (a.u.)^3
     number of atoms/cell      =            6
     number of atomic types    =            3
     number of electrons       =        50.00
     number of Kohn-Sham states=           30
     kinetic-energy cutoff     =      30.0000  Ry
     charge density cutoff     =     240.0000  Ry
     scf convergence threshold =      1.0E-06
     mixing beta               =       0.7000
     number of iterations used =            8  plain     mixing
     Exchange-correlation= SLA  PW   PBX  PBC
                           (   1   4   3   4   0   0   0)

     celldm(1)=   9.451636  celldm(2)=   0.000000  celldm(3)=   0.000000
     celldm(4)=   0.000000  celldm(5)=   0.000000  celldm(6)=   0.000000

     crystal axes: (cart. coord. in units of alat)
               a(1) = (   1.000000   0.000000   0.000000 )
               a(2) = (  -0.001754   0.999998   0.000000 )
               a(3) = (  -0.499123  -0.499999   0.707727 )

     reciprocal axes: (cart. coord. in units 2 pi/alat)
               b(1) = (  1.000000  0.001754  0.706488 )
               b(2) = (  0.000000  1.000002  0.706488 )
               b(3) = (  0.000000  0.000000  1.412975 )

     PseudoPot. # 1 for Ag read from file:
     /home/pragov/projects/rrg-bengioy-ad/pragov/crystal_structure_design/SSSP/Ag_ONCV_PBE-1.0.oncvpsp.upf
     MD5 check sum: 94f47bd0669c641108e45594df92fabc
     Pseudo is Norm-conserving, Zval = 19.0
     Generated using ONCVPSP code by D. R. Hamann
     Using radial grid of 1398 points,  6 beta functions with:
                l(1) =   0
                l(2) =   0
                l(3) =   1
                l(4) =   1
                l(5) =   2
                l(6) =   2

     PseudoPot. # 2 for Cl read from file:
     /home/pragov/projects/rrg-bengioy-ad/pragov/crystal_structure_design/SSSP/cl_pbe_v1.4.uspp.F.UPF
     MD5 check sum: fc6f6913ecf08c9257cb748ef0700058
     Pseudo is Ultrasoft + core correction, Zval =  7.0
     Generated by new atomic code, or converted to UPF format
     Using radial grid of  909 points,  6 beta functions with:
                l(1) =   0
                l(2) =   0
                l(3) =   1
                l(4) =   1
                l(5) =   2
                l(6) =   2
     Q(r) pseudized with  8 coefficients,  rinner =    1.300   1.300   1.300
                                                       1.300   1.300

     PseudoPot. # 3 for O  read from file:
     /home/pragov/projects/rrg-bengioy-ad/pragov/crystal_structure_design/SSSP/O.pbe-n-kjpaw_psl.0.1.UPF
     MD5 check sum: 0234752ac141de4415c5fc33072bef88
     Pseudo is Projector augmented-wave + core cor, Zval =  6.0
     Generated using "atomic" code by A. Dal Corso  v.5.0.99 svn rev. 10869
     Shape of augmentation charge: BESSEL
     Using radial grid of 1095 points,  4 beta functions with:
                l(1) =   0
                l(2) =   0
                l(3) =   1
                l(4) =   1
     Q(r) pseudized with 0 coefficients

     atomic species   valence    mass     pseudopotential
        Ag            19.00   107.86820     Ag( 1.00)
        Cl             7.00    35.45000     Cl( 1.00)
        O              6.00    15.99900     O ( 1.00)

      2 Sym. Ops. (no inversion) found

                                    s                        frac. trans.

      isym =  1     identity

 cryst.   s( 1) = (     1          0          0      )
                  (     0          1          0      )
                  (     0          0          1      )

 cart.    s( 1) = (  1.0000000 -0.0000000 -0.0000000 )
                  (  0.0000000  1.0000000  0.0000000 )
                  (  0.0000000  0.0000000  1.0000000 )

      isym =  2     inv. 180 deg rotation - cart. axis [0,0,1]

 cryst.   s( 2) = (     1          0          0      )
                  (     0          1          0      )
                  (    -1         -1         -1      )

 cart.    s( 2) = (  1.0000000 -0.0000000  0.0000000 )
                  (  0.0000000  1.0000000  0.0000000 )
                  (  0.0000000  0.0000000 -1.0000000 )

   Cartesian axes

     site n.     atom                  positions (alat units)
         1           Ag  tau(   1) = (   0.4991232   0.4999992   0.0000000  )
         2           Cl  tau(   2) = (   0.0000000   0.0000000   0.0000000  )
         3           O   tau(   3) = (   0.6213899   0.6224805   0.4703359  )
         4           O   tau(   4) = (   0.1222667   0.1224813   0.2373906  )
         5           O   tau(   5) = (   0.7097257   0.0452319   0.0000000  )
         6           O   tau(   6) = (   0.0439872   0.7098039   0.0000000  )

   Crystallographic axes

     site n.     atom                  positions (cryst. coord.)
         1           Ag  tau(   1) = (  0.5000000  0.5000000  0.0000000  )
         2           Cl  tau(   2) = (  0.0000000  0.0000000  0.0000000  )
         3           O   tau(   3) = (  0.9547680  0.9547680  0.6645730  )
         4           O   tau(   4) = (  0.2901950  0.2901950  0.3354270  )
         5           O   tau(   5) = (  0.7098050  0.0452320  0.0000000  )
         6           O   tau(   6) = (  0.0452320  0.7098050  0.0000000  )

     number of k points=     1  Methfessel-Paxton smearing, width (Ry)=  0.0010
                       cart. coord. in units 2pi/alat
        k(    1) = (   0.0000000   0.0000000   0.0000000), wk =   2.0000000

                       cryst. coord.
        k(    1) = (   0.0000000   0.0000000   0.0000000), wk =   2.0000000

     Check: negative core charge=   -0.000013

     Initial potential from superposition of free atoms

     starting charge      49.9997, renormalised to      50.0000

     negative rho (up, down):  1.223E-02 0.000E+00
     Starting wfcs are   30 randomized atomic wfcs
     Checking if some PAW data can be deallocated...

     Self-consistent Calculation

     iteration #  1     ecut=    30.00 Ry     beta= 0.70
     Davidson diagonalization with overlap

     ethr =  1.00E-02,  avg # of iterations =  4.0

     negative rho (up, down):  6.317E-03 0.000E+00

     total energy              =    -485.38287944 Ry
     estimated scf accuracy    <       1.47676484 Ry

[...]

     total energy              =    -486.09339899 Ry
     estimated scf accuracy    <       0.00000305 Ry

     iteration #  8     ecut=    30.00 Ry     beta= 0.70
     Davidson diagonalization with overlap

     ethr =  6.10E-09,  avg # of iterations =  4.0

[...]

     End of self-consistent calculation

          k = 0.0000 0.0000 0.0000 (   824 PWs)   bands (ev):

   -85.7093 -48.7607 -48.7607 -48.7379 -22.1574 -16.0382 -15.9304 -15.9296
    -6.4430  -3.5092  -3.3945  -3.3940   0.3396   0.8509   1.4301   1.4303
     1.5907   3.0298   3.0582   3.0585   3.2875   3.4023   3.4024   3.4748
     3.6561   7.1368  10.6115  11.6728  11.7191  11.7192

     occupation numbers
     1.0000   1.0000   1.0000   1.0000   1.0000   1.0000   1.0000   1.0000
     1.0000   1.0000   1.0000   1.0000   1.0000   1.0000   1.0000   1.0000
     1.0000   1.0000   1.0000   1.0000   1.0000   1.0000   1.0000   1.0000
     1.0000  -0.0000  -0.0000  -0.0000  -0.0000  -0.0000

     the Fermi energy is     5.7489 ev

!    total energy              =    -486.09339907 Ry
     estimated scf accuracy    <       0.00000095 Ry
     smearing contrib. (-TS)   =       0.00000000 Ry
     internal energy E=F+TS    =    -486.09339907 Ry

     The total energy is F=E-TS. E is the sum of the following terms:
     one-electron contribution =    -258.46176021 Ry
     hartree contribution      =     148.76727889 Ry
     xc contribution           =     -66.50627243 Ry
     ewald contribution        =    -271.76301354 Ry
     one-center paw contrib.   =     -38.12963178 Ry
      -> PAW hartree energy AE =     122.28850297 Ry
      -> PAW hartree energy PS =    -121.89375064 Ry
      -> PAW xc energy AE      =     -69.28948163 Ry
      -> PAW xc energy PS      =      30.76509752 Ry
      -> total E_H with PAW    =     149.16203122 Ry
      -> total E_XC with PAW   =    -105.03065654 Ry

     convergence has been achieved in   8 iterations

     negative rho (up, down):  4.336E-03 0.000E+00

     Forces acting on atoms (cartesian axes, Ry/au):

     atom    1 type  1   force =    -0.00000893   -0.00002072   -0.00000000
     atom    2 type  2   force =    -0.00002093   -0.00002997   -0.00000000
     atom    3 type  3   force =    -0.02104929   -0.02108642    0.01724556
     atom    4 type  3   force =    -0.02104929   -0.02108642   -0.01724556
     atom    5 type  3   force =     0.03330717    0.00888892    0.00000000
     atom    6 type  3   force =     0.00882127    0.03333461    0.00000000
     The non-local contrib.  to forces
     atom    1 type  1   force =     0.00000516   -0.00001142   -0.00000000
     atom    2 type  2   force =     0.00014313    0.00011785    0.00000000
     atom    3 type  3   force =    -1.13435251   -1.13635285    1.84673523
     atom    4 type  3   force =    -1.13435251   -1.13635285   -1.84673523
     atom    5 type  3   force =     2.44145151   -0.16826590    0.00000000
     atom    6 type  3   force =    -0.17255431    2.44115217    0.00000000
     The ionic contribution  to forces
     atom    1 type  1   force =    -0.00000000    0.00000000   -0.00000000
     atom    2 type  2   force =     0.00000000    0.00000000    0.00000000
     atom    3 type  3   force =     4.63901540    4.64715789   -6.83455415
     atom    4 type  3   force =     4.63901540    4.64715789    6.83455415
     atom    5 type  3   force =    -9.47601069    0.18136229    0.00000000
     atom    6 type  3   force =     0.19797988   -9.47567806    0.00000000
     The local contribution  to forces
     atom    1 type  1   force =    -0.00001576   -0.00005170    0.00001078
     atom    2 type  2   force =     0.00003196    0.00003727    0.00000145
     atom    3 type  3   force =    -3.53693605   -3.54312484    5.02251561
     atom    4 type  3   force =    -3.53693480   -3.54312153   -5.02252674
     atom    5 type  3   force =     7.09163224   -0.00529229    0.00000232
     atom    6 type  3   force =    -0.01775255    7.09155593   -0.00000202
     The core correction contribution to forces
     atom    1 type  1   force =     0.00000000    0.00000000    0.00000000
     atom    2 type  2   force =    -0.00000564   -0.00000518    0.00000036
     atom    3 type  3   force =     0.01085929    0.01087849   -0.01676930
     atom    4 type  3   force =     0.01085935    0.01087860    0.01676942
     atom    5 type  3   force =    -0.02272812    0.00096763    0.00000003
     atom    6 type  3   force =     0.00100750   -0.02272660    0.00000002
     The Hubbard contrib.    to forces
     atom    1 type  1   force =     0.00000000    0.00000000    0.00000000
     atom    2 type  2   force =     0.00000000    0.00000000    0.00000000
     atom    3 type  3   force =     0.00000000    0.00000000    0.00000000
     atom    4 type  3   force =     0.00000000    0.00000000    0.00000000
     atom    5 type  3   force =     0.00000000    0.00000000    0.00000000
     atom    6 type  3   force =     0.00000000    0.00000000    0.00000000
     The SCF correction term to forces
     atom    1 type  1   force =     0.00001576    0.00005625   -0.00001231
     atom    2 type  2   force =    -0.00017630   -0.00016607    0.00000807
     atom    3 type  3   force =     0.00037709    0.00036663   -0.00068158
     atom    4 type  3   force =     0.00037890    0.00036744    0.00069309
     atom    5 type  3   force =    -0.00102370    0.00013104   -0.00000132
     atom    6 type  3   force =     0.00015483   -0.00095498    0.00000156

     Total force =     0.068903     Total SCF correction =     0.001888

     Computing stress (Cartesian axis) and pressure

     negative rho (up, down):  4.336E-03 0.000E+00
          total   stress  (Ry/bohr**3)                   (kbar)     P=     -691.83
  -0.00472583  -0.00007031  -0.00000000         -695.19      -10.34       -0.00
  -0.00007031  -0.00472614  -0.00000000          -10.34     -695.24       -0.00
  -0.00000000  -0.00000000  -0.00465699           -0.00       -0.00     -685.07

     kinetic stress (kbar)  29089.34     -7.63      0.00
                               -7.63  29089.31      0.00
                                0.00      0.00  29096.96

     local   stress (kbar) -17555.38  -1800.98     -0.00
                            -1800.98 -17561.70     -0.00
                               -0.00     -0.00 -15758.10

     nonloc. stress (kbar)   2231.43    -21.22      0.00
                              -21.22   2231.35      0.00
                                0.00      0.00   2252.56

     hartree stress (kbar)  12456.88    752.37      0.00
                              752.37  12459.52      0.00
                                0.00      0.00  11706.22

     exc-cor stress (kbar)  -3635.48      0.08      0.00
                                0.08  -3635.48      0.00
                                0.00      0.00  -3635.56

     corecor stress (kbar)  -1335.50     -0.07     -0.00
                               -0.07  -1335.50     -0.00
                               -0.00     -0.00  -1335.43

     ewald   stress (kbar) -21946.49   1067.10     -0.00
                             1067.10 -21942.74     -0.00
                               -0.00     -0.00 -23011.72

     hubbard stress (kbar)      0.00      0.00      0.00
                                0.00      0.00      0.00
                                0.00      0.00      0.00

     DFT-D   stress (kbar)      0.00      0.00      0.00
                                0.00      0.00      0.00
                                0.00      0.00      0.00

     XDM     stress (kbar)      0.00      0.00      0.00
                                0.00      0.00      0.00
                                0.00      0.00      0.00

     dft-nl  stress (kbar)      0.00      0.00      0.00
                                0.00      0.00      0.00
                                0.00      0.00      0.00

     TS-vdW  stress (kbar)      0.00      0.00      0.00
                                0.00      0.00      0.00
                                0.00      0.00      0.00

[...]

                                0.00      0.00      0.00

     Writing all to output data dir new_calculations/myprefix.save/

     General routines

     Parallel routines

     PAW routines

   This run was terminated on:   6:45: 7  21May2023

   JOB DONE.