     Program PWSCF v.7.0 starts on 21May2023 at  1:10: 9

     Reading input from espresso_9835.pwi
Warning: card &CELL ignored
Warning: card / ignored

     Current dimensions of program PWSCF are:
     Max number of different atomic species (ntypx) = 10
     Max number of k-points (npk) =  40000
     Max angular momentum in pseudopotentials (lmaxx) =  4

     gamma-point specific algorithms are used
     Message from routine setup:
     using ibrav=0 with symmetry is DISCOURAGED, use correct ibrav instead

     Subspace diagonalization in iterative solution of the eigenvalue problem:
     a serial algorithm will be used

     Using Slab Decomposition

     bravais-lattice index     =            0
     lattice parameter (alat)  =       6.0896  a.u.
     unit-cell volume          =    2207.6900 (a.u.)^3
     number of atoms/cell      =           12
     number of atomic types    =            4
     number of electrons       =       104.00
     number of Kohn-Sham states=           62
     kinetic-energy cutoff     =      30.0000  Ry
     charge density cutoff     =     240.0000  Ry
     scf convergence threshold =      1.0E-06
     mixing beta               =       0.7000
     number of iterations used =            8  plain     mixing
     Exchange-correlation=  SLA  PW   PBX  PBC
                           (   1   4   3   4   0   0   0)

     celldm(1)=   6.089638  celldm(2)=   0.000000  celldm(3)=   0.000000
     celldm(4)=   0.000000  celldm(5)=   0.000000  celldm(6)=   0.000000

     crystal axes: (cart. coord. in units of alat)
               a(1) = (   1.000000   0.000000   0.000000 )
               a(2) = (  -0.500000   0.866025   0.000000 )
               a(3) = (   0.000000   0.000000  11.288414 )

     reciprocal axes: (cart. coord. in units 2 pi/alat)
               b(1) = (  1.000000  0.577350  0.000000 )
               b(2) = (  0.000000  1.154701  0.000000 )
               b(3) = (  0.000000  0.000000  0.088586 )

     PseudoPot. # 1 for Mo read from file:
     /home/pragov/projects/rrg-bengioy-ad/pragov/crystal_structure_design/SSSP/Mo_ONCV_PBE-1.0.oncvpsp.upf
     MD5 check sum: 1b5d28e075c9ccadda658a603575cd1f
     Pseudo is Norm-conserving, Zval = 14.0
     Generated using ONCVPSP code by D. R. Hamann
     Using radial grid of 1526 points,  6 beta functions with:
                l(1) =   0
                l(2) =   0
                l(3) =   1
                l(4) =   1
                l(5) =   2
                l(6) =   2

     PseudoPot. # 2 for W  read from file:
     /home/pragov/projects/rrg-bengioy-ad/pragov/crystal_structure_design/SSSP/W_pbe_v1.2.uspp.F.UPF
     MD5 check sum: 9c083fa34c2a2ea0f02f1f893e16e1c8
     Pseudo is Ultrasoft + core correction, Zval = 14.0
     Generated by new atomic code, or converted to UPF format
     Using radial grid of  923 points,  8 beta functions with:
                l(1) =   0
                l(2) =   0
                l(3) =   0
                l(4) =   1
                l(5) =   1
                l(6) =   2
                l(7) =   2
                l(8) =   3
     Q(r) pseudized with  6 coefficients,  rinner =    1.350   1.350   1.350
                                                       1.350   1.350   1.350
                                                       1.350

     PseudoPot. # 3 for Se read from file:
     /home/pragov/projects/rrg-bengioy-ad/pragov/crystal_structure_design/SSSP/Se_pbe_v1.uspp.F.UPF
     MD5 check sum: 1b3568f3a8ae88f9a2a0ad0698632c85
     Pseudo is Ultrasoft + core correction, Zval =  6.0
     Generated by new atomic code, or converted to UPF format
     Using radial grid of  877 points,  6 beta functions with:
                l(1) =   0
                l(2) =   0
                l(3) =   1
                l(4) =   1
                l(5) =   2
                l(6) =   2
     Q(r) pseudized with  8 coefficients,  rinner =    1.300   1.300   1.300
                                                       1.300   1.300

     PseudoPot. # 4 for S  read from file:
     /home/pragov/projects/rrg-bengioy-ad/pragov/crystal_structure_design/SSSP/s_pbe_v1.4.uspp.F.UPF
     MD5 check sum: 88d86576ff6df21479756cfb9bdac1df
     Pseudo is Ultrasoft + core correction, Zval =  6.0
     Generated by new atomic code, or converted to UPF format
     Using radial grid of  907 points,  6 beta functions with:
                l(1) =   0
                l(2) =   0
                l(3) =   1
                l(4) =   1
                l(5) =   2
                l(6) =   2
     Q(r) pseudized with  8 coefficients,  rinner =    1.300   1.300   1.300
                                                       1.300   1.300

     atomic species   valence    mass     pseudopotential
        Mo            14.00    95.95000     Mo( 1.00)
        W             14.00   183.84000     W ( 1.00)
        Se             6.00    78.97100     Se( 1.00)
        S              6.00    32.06000     S ( 1.00)

      6 Sym. Ops. (no inversion) found

                                    s                        frac. trans.

      isym =  1     identity

 cryst.   s( 1) = (     1          0          0      )
                  (     0          1          0      )
                  (     0          0          1      )

 cart.    s( 1) = (  1.0000000  0.0000000  0.0000000 )
                  (  0.0000000  1.0000000  0.0000000 )
                  (  0.0000000  0.0000000  1.0000000 )

      isym =  2     120 deg rotation - cryst. axis [0,0,1]

[...]

      isym =  3     120 deg rotation - cryst. axis [0,0,-1]

[...]

      isym =  4     inv. 180 deg rotation - cart. axis [1,0,0]

[...]

      isym =  5     inv. 180 deg rotation - cryst. axis [0,1,0]

[...]

      isym =  6     inv. 180 deg rotation - cryst. axis [1,1,0]

 cryst.   s( 6) = (     0         -1          0      )
                  (    -1          0          0      )
                  (     0          0          1      )

 cart.    s( 6) = (  0.5000000 -0.8660254  0.0000000 )
                  ( -0.8660254 -0.5000000  0.0000000 )
                  (  0.0000000  0.0000000  1.0000000 )

   Cartesian axes

     site n.     atom                  positions (alat units)
         1           Mo  tau(   1) = (   0.0000000   0.0000000   1.0600723  )
         2           W   tau(   2) = (   0.0000000   0.0000000   5.3016486  )
         3           W   tau(   3) = (  -0.0000005   0.5773506   3.1810750  )
         4           W   tau(   4) = (  -0.0000005   0.5773506   7.4228883  )
         5           Se  tau(   5) = (   0.0000000   0.0000000   7.9567286  )
         6           Se  tau(   6) = (   0.0000000   0.0000000   6.8889463  )
         7           S   tau(   7) = (   0.0000000   0.0000000   3.6652689  )
         8           S   tau(   8) = (  -0.0000005   0.5773506   0.5777975  )
         9           S   tau(   9) = (  -0.0000005   0.5773506   4.8174885  )
        10           S   tau(  10) = (  -0.0000005   0.5773506   1.5423811  )
        11           S   tau(  11) = (  -0.0000005   0.5773506   5.7856393  )
        12           S   tau(  12) = (   0.0000000   0.0000000   2.6966778  )

   Crystallographic axes

     site n.     atom                  positions (cryst. coord.)
         1           Mo  tau(   1) = (  0.0000000  0.0000000  0.0939080  )
         2           W   tau(   2) = (  0.0000000  0.0000000  0.4696540  )
         3           W   tau(   3) = (  0.3333330  0.6666670  0.2818000  )
         4           W   tau(   4) = (  0.3333330  0.6666670  0.6575670  )
         5           Se  tau(   5) = (  0.0000000  0.0000000  0.7048580  )
         6           Se  tau(   6) = (  0.0000000  0.0000000  0.6102670  )
         7           S   tau(   7) = (  0.0000000  0.0000000  0.3246930  )
         8           S   tau(   8) = (  0.3333330  0.6666670  0.0511850  )
         9           S   tau(   9) = (  0.3333330  0.6666670  0.4267640  )
        10           S   tau(  10) = (  0.3333330  0.6666670  0.1366340  )
        11           S   tau(  11) = (  0.3333330  0.6666670  0.5125290  )
        12           S   tau(  12) = (  0.0000000  0.0000000  0.2388890  )

     number of k points=     1  Methfessel-Paxton smearing, width (Ry)=  0.0010
                       cart. coord. in units 2pi/alat
        k(    1) = (   0.0000000   0.0000000   0.0000000), wk =   2.0000000

                       cryst. coord.
        k(    1) = (   0.0000000   0.0000000   0.0000000), wk =   2.0000000

     Check: negative core charge=   -0.000002

     Initial potential from superposition of free atoms

     starting charge     103.6976, renormalised to     104.0000

     negative rho (up, down):  1.888E-01 0.000E+00
     Starting wfcs are   81 randomized atomic wfcs

     Self-consistent Calculation

     iteration #  1     ecut=    30.00 Ry     beta= 0.70
     Davidson diagonalization with overlap

     ethr =  1.00E-02,  avg # of iterations =  3.0

     negative rho (up, down):  1.994E-01 0.000E+00

     total energy              =    -189.81869524 Ry
     estimated scf accuracy    <     724.52370325 Ry

[...]

     c_bands:  2 eigenvalues not converged
     ethr =  1.00E-02,  avg # of iterations = 20.0

[...]

     c_bands:  2 eigenvalues not converged
     ethr =  1.00E-02,  avg # of iterations = 20.0

[...]

     total energy              =    -844.50195047 Ry
     estimated scf accuracy    <       0.00000492 Ry

     iteration # 54     ecut=    30.00 Ry     beta= 0.70
     Davidson diagonalization with overlap

     ethr =  4.73E-09,  avg # of iterations =  4.0

[...]

     End of self-consistent calculation

          k = 0.0000 0.0000 0.0000 (  3084 PWs)   bands (ev):

   -67.1976 -67.1913 -65.9697 -54.3074 -31.4989 -31.4989 -31.4909 -31.4909
   -31.4148 -31.4101 -30.3889 -30.2136 -30.2135 -28.4272 -28.4272 -28.3218
    -9.6602  -9.6228  -9.4408  -9.2190  -8.4754  -8.2565  -8.1995  -8.0889
    -1.0467  -0.8386  -0.2734  -0.2313   2.5562   2.5562   2.5701   2.5701
     2.6114   2.6788   2.6788   2.9500   3.3871   3.5546   3.5546   3.5686
     3.5686   3.6000   3.6000   3.6476   4.3646   4.3646   5.1683   5.1684
     5.4872   5.6810   5.9195   6.0841   7.8462   7.8462   7.9226   7.9226
     8.1373   8.1392   8.1486   8.1498   8.1594   8.1601

     occupation numbers
     1.0000   1.0000   1.0000   1.0000   1.0000   1.0000   1.0000   1.0000
     1.0000   1.0000   1.0000   1.0000   1.0000   1.0000   1.0000   1.0000
     1.0000   1.0000   1.0000   1.0000   1.0000   1.0000   1.0000   1.0000
     1.0000   1.0000   1.0000   1.0000   1.0000   1.0000   1.0000   1.0000
     1.0000   1.0000   1.0000   1.0000   1.0000   1.0000   1.0000   1.0000
     1.0000   1.0000   1.0000   1.0000   1.0000   1.0000   1.0000   1.0000
     1.0000   1.0000   1.0000   1.0000  -0.0000  -0.0000  -0.0000  -0.0000
    -0.0000  -0.0000  -0.0000  -0.0000  -0.0000  -0.0000

     the Fermi energy is     7.1144 ev

!    total energy              =    -844.50195024 Ry
     estimated scf accuracy    <       0.00000070 Ry
     smearing contrib. (-TS)   =       0.00000000 Ry
     internal energy E=F+TS    =    -844.50195024 Ry

     The total energy is F=E-TS. E is the sum of the following terms:
     one-electron contribution =   -3809.53733875 Ry
     hartree contribution      =    1930.60329743 Ry
     xc contribution           =    -250.45315519 Ry
     ewald contribution        =    1284.88524627 Ry

     convergence has been achieved in  54 iterations

     negative rho (up, down):  1.829E-01 0.000E+00

     Forces acting on atoms (cartesian axes, Ry/au):

     atom    1 type  1   force =     0.00000000   -0.00000000   -0.00193154
     atom    2 type  2   force =     0.00000000    0.00000000   -0.00242192
     atom    3 type  2   force =     0.00000000    0.00000000   -0.00019503
     atom    4 type  2   force =     0.00000000    0.00000000    0.00537353
     atom    5 type  3   force =     0.00000000    0.00000000   -0.08464239
     atom    6 type  3   force =     0.00000000    0.00000000    0.10606718
     atom    7 type  4   force =     0.00000000    0.00000000   -0.09232774
     atom    8 type  4   force =     0.00000000   -0.00000000    0.10199238
     atom    9 type  4   force =     0.00000000    0.00000000    0.09228155
     atom   10 type  4   force =     0.00000000    0.00000000   -0.11424156
     atom   11 type  4   force =     0.00000000    0.00000000   -0.10234942
     atom   12 type  4   force =     0.00000000    0.00000000    0.09239495
     The non-local contrib.  to forces
     atom    1 type  1   force =     0.00000000    0.00000000   -0.00060582
     atom    2 type  2   force =     0.00000000    0.00000000   -0.00176857
     atom    3 type  2   force =     0.00000000    0.00000000    0.00009714
     atom    4 type  2   force =     0.00000000    0.00000000    0.00598786
     atom    5 type  3   force =     0.00000000    0.00000000    0.08180346
     atom    6 type  3   force =     0.00000000    0.00000000   -0.04093950
     atom    7 type  4   force =     0.00000000    0.00000000    0.07288739
     atom    8 type  4   force =     0.00000000   -0.00000000   -0.16555535
     atom    9 type  4   force =     0.00000000    0.00000000   -0.07365071
     atom   10 type  4   force =     0.00000000    0.00000000    0.14299698
     atom   11 type  4   force =     0.00000000    0.00000000    0.05346382
     atom   12 type  4   force =     0.00000000    0.00000000   -0.07237172
     The ionic contribution  to forces
     atom    1 type  1   force =    -0.00000914    0.00000528 -106.17170728
     atom    2 type  2   force =    -0.00000904    0.00000522   35.41124272
     atom    3 type  2   force =     0.00000903   -0.00000521  -35.39861789
     atom    4 type  2   force =     0.00000662   -0.00000382  106.15529673
     atom    5 type  3   force =    -0.00000331    0.00000191   67.53434784
     atom    6 type  3   force =    -0.00000334    0.00000193   23.44471318
     atom    7 type  4   force =    -0.00000454    0.00000262    8.32998249
     atom    8 type  4   force =     0.00000457   -0.00000264  -69.04724746
     atom    9 type  4   force =     0.00000454   -0.00000262   -8.32817484
     atom   10 type  4   force =     0.00000459   -0.00000265  -21.94793755
     atom   11 type  4   force =     0.00000455   -0.00000263   38.68728198
     atom   12 type  4   force =    -0.00000453    0.00000262  -38.66917992
     The local contribution  to forces
     atom    1 type  1   force =    -0.00000363    0.00002259  106.16681887
     atom    2 type  2   force =     0.00000937   -0.00000609  -35.41018473
     atom    3 type  2   force =    -0.00000635    0.00000383   35.39856759
     atom    4 type  2   force =    -0.00001188    0.00000084 -106.15324771
     atom    5 type  3   force =    -0.00001519   -0.00000655  -67.68532168
     atom    6 type  3   force =     0.00000762   -0.00001267  -23.30652671
     atom    7 type  4   force =     0.00000325   -0.00000383   -8.48849072
     atom    8 type  4   force =    -0.00000674    0.00000165   69.30313083
     atom    9 type  4   force =    -0.00000245    0.00001659    8.48843710
     atom   10 type  4   force =    -0.00000251   -0.00000076   21.69920154
     atom   11 type  4   force =     0.00000712   -0.00000090  -38.83779908
     atom   12 type  4   force =     0.00000262   -0.00000475   38.82728264
     The core correction contribution to forces
     atom    1 type  1   force =     0.00000000    0.00000000    0.00000000
     atom    2 type  2   force =     0.00000012    0.00000001   -0.00011640
     atom    3 type  2   force =     0.00000017   -0.00000032   -0.00001538
     atom    4 type  2   force =     0.00000151    0.00000049    0.00021126
     atom    5 type  3   force =    -0.00000129   -0.00000043   -0.01474747
     atom    6 type  3   force =     0.00000042   -0.00000065    0.00943450
     atom    7 type  4   force =     0.00000021   -0.00000002   -0.00662142
     atom    8 type  4   force =    -0.00000013    0.00000018    0.01147534
     atom    9 type  4   force =    -0.00000007    0.00000053    0.00662200
     atom   10 type  4   force =     0.00000016   -0.00000012   -0.01014980
     atom   11 type  4   force =     0.00000053    0.00000010   -0.00543889
     atom   12 type  4   force =    -0.00000024   -0.00000024    0.00658370
     The Hubbard contrib.    to forces
     atom    1 type  1   force =     0.00000000    0.00000000    0.00000000
     atom    2 type  2   force =     0.00000000    0.00000000    0.00000000
     atom    3 type  2   force =     0.00000000    0.00000000    0.00000000
     atom    4 type  2   force =     0.00000000    0.00000000    0.00000000
     atom    5 type  3   force =     0.00000000    0.00000000    0.00000000
     atom    6 type  3   force =     0.00000000    0.00000000    0.00000000
     atom    7 type  4   force =     0.00000000    0.00000000    0.00000000
     atom    8 type  4   force =     0.00000000    0.00000000    0.00000000
     atom    9 type  4   force =     0.00000000    0.00000000    0.00000000
     atom   10 type  4   force =     0.00000000    0.00000000    0.00000000
     atom   11 type  4   force =     0.00000000    0.00000000    0.00000000
     atom   12 type  4   force =     0.00000000    0.00000000    0.00000000
     The SCF correction term to forces
     atom    1 type  1   force =     0.00000416   -0.00002141    0.00360487
     atom    2 type  2   force =    -0.00000636    0.00000020   -0.00155276
     atom    3 type  2   force =    -0.00000098    0.00000053   -0.00018431
     atom    4 type  2   force =     0.00000843   -0.00000094   -0.00283243
     atom    5 type  3   force =     0.00000960    0.00000186   -0.00068236
     atom    6 type  3   force =     0.00000424    0.00000371   -0.00057211
     atom    7 type  4   force =     0.00000067    0.00000084   -0.00004330
     atom    8 type  4   force =     0.00000102    0.00000018    0.00023119
     atom    9 type  4   force =    -0.00000367   -0.00000628   -0.00090983
     atom   10 type  4   force =    -0.00000119    0.00000181    0.00168945
     atom   11 type  4   force =    -0.00000477    0.00000054    0.00018492
     atom   12 type  4   force =    -0.00000024    0.00000057    0.00012243

     Total force =     0.279212     Total SCF correction =     0.005296

     Computing stress (Cartesian axis) and pressure

     negative rho (up, down):  1.829E-01 0.000E+00
          total   stress  (Ry/bohr**3)                   (kbar)     P=      101.41
   0.00142148  -0.00000000   0.00000000          209.11       -0.00        0.00
  -0.00000000   0.00142148   0.00000000           -0.00      209.11        0.00
   0.00000000  -0.00000000  -0.00077487            0.00       -0.00     -113.99

     kinetic stress (kbar)  10937.34     -0.00      0.00
                               -0.00  10937.34      0.00
                                0.00      0.00  11117.50

     local   stress (kbar)-245023.89      0.01     -0.00
                                0.01-245023.87     -0.00
                               -0.00     -0.00 251159.65

     nonloc. stress (kbar)    298.79     -0.00      0.00
                               -0.00    298.79      0.00
                                0.00      0.00    232.15

     hartree stress (kbar) 124183.79     -0.00      0.00
                               -0.00 124183.78      0.00
                                0.00      0.00-119725.62

     exc-cor stress (kbar)   7169.14      0.00      0.00
                                0.00   7169.14      0.00
                                0.00      0.00   7179.54

     corecor stress (kbar) -10130.19     -0.00     -0.00
                               -0.00 -10130.19     -0.00
                               -0.00     -0.00 -10144.77

     ewald   stress (kbar) 112774.13     -0.01     -0.00
                               -0.01 112774.12      0.00
                               -0.00      0.00-139932.45

     hubbard stress (kbar)      0.00      0.00      0.00
                                0.00      0.00      0.00
                                0.00      0.00      0.00

     DFT-D   stress (kbar)      0.00      0.00      0.00
                                0.00      0.00      0.00
                                0.00      0.00      0.00

     XDM     stress (kbar)      0.00      0.00      0.00
                                0.00      0.00      0.00
                                0.00      0.00      0.00

     dft-nl  stress (kbar)      0.00      0.00      0.00
                                0.00      0.00      0.00
                                0.00      0.00      0.00

     TS-vdW  stress (kbar)      0.00      0.00      0.00
                                0.00      0.00      0.00
                                0.00      0.00      0.00

[...]

                                0.00      0.00      0.00

     Writing all to output data dir new_calculations/myprefix.save/

     General routines

     Parallel routines

   This run was terminated on:   1:11:36  21May2023

   JOB DONE.