     Program PWSCF v.7.0 starts on 21May2023 at 18:32:37

     Reading input from espresso_21179.pwi
Warning: card &CELL ignored
Warning: card / ignored

     Current dimensions of program PWSCF are:
     Max number of different atomic species (ntypx) = 10
     Max number of k-points (npk) =  40000
     Max angular momentum in pseudopotentials (lmaxx) =  4

     gamma-point specific algorithms are used
     Message from routine setup:
     using ibrav=0 with symmetry is DISCOURAGED, use correct ibrav instead

     Subspace diagonalization in iterative solution of the eigenvalue problem:
     a serial algorithm will be used

     Using Slab Decomposition

     bravais-lattice index     =            0
     lattice parameter (alat)  =      11.5106  a.u.
     unit-cell volume          =    1078.4047 (a.u.)^3
     number of atoms/cell      =           14
     number of atomic types    =            3
     number of electrons       =        98.00
     number of Kohn-Sham states=           59
     kinetic-energy cutoff     =      30.0000  Ry
     charge density cutoff     =     240.0000  Ry
     scf convergence threshold =      1.0E-06
     mixing beta               =       0.7000
     number of iterations used =            8  plain     mixing
     Exchange-correlation=  SLA  PW   PBX  PBC
                           (   1   4   3   4   0   0   0)

     celldm(1)=  11.510625  celldm(2)=   0.000000  celldm(3)=   0.000000
     celldm(4)=   0.000000  celldm(5)=   0.000000  celldm(6)=   0.000000

     crystal axes: (cart. coord. in units of alat)
               a(1) = (   1.000000   0.000000   0.000000 )
               a(2) = (   0.500000   0.866025   0.000000 )
               a(3) = (   0.500000   0.288675   0.816497 )

     reciprocal axes: (cart. coord. in units 2 pi/alat)
               b(1) = (  1.000000 -0.577350 -0.408248 )
               b(2) = (  0.000000  1.154701 -0.408248 )
               b(3) = (  0.000000  0.000000  1.224745 )

     PseudoPot. # 1 for Li read from file:
     /home/pragov/projects/rrg-bengioy-ad/pragov/crystal_structure_design/SSSP/li_pbe_v1.4.uspp.F.UPF
     MD5 check sum: e912e257baa3777c20ea3d68f190483c
     Pseudo is Ultrasoft, Zval =  3.0
     Generated by new atomic code, or converted to UPF format
     Using radial grid of  751 points,  5 beta functions with:
                l(1) =   0
                l(2) =   0
                l(3) =   0
                l(4) =   1
                l(5) =   1
     Q(r) pseudized with 10 coefficients,  rinner =    1.150   1.150   1.150

     PseudoPot. # 2 for Mn read from file:
     /home/pragov/projects/rrg-bengioy-ad/pragov/crystal_structure_design/SSSP/mn_pbe_v1.5.uspp.F.UPF
     MD5 check sum: 82ef2b46521d7a7d9e736dc3972e4928
     Pseudo is Ultrasoft + core correction, Zval = 15.0
     Generated by new atomic code, or converted to UPF format
     Using radial grid of  859 points,  6 beta functions with:
                l(1) =   0
                l(2) =   0
                l(3) =   1
                l(4) =   1
                l(5) =   2
                l(6) =   2
     Q(r) pseudized with  8 coefficients,  rinner =    0.950   0.950   0.950
                                                       0.950   0.950

     PseudoPot. # 3 for F  read from file:
     /home/pragov/projects/rrg-bengioy-ad/pragov/crystal_structure_design/SSSP/f_pbe_v1.4.uspp.F.UPF
     MD5 check sum: 4c38b6a325caf53ec0e86aed9459de46
     Pseudo is Ultrasoft, Zval =  7.0
     Generated by new atomic code, or converted to UPF format
     Using radial grid of  799 points,  4 beta functions with:
                l(1) =   0
                l(2) =   0
                l(3) =   1
                l(4) =   1
     Q(r) pseudized with  8 coefficients,  rinner =    0.950   0.950   0.950

     atomic species   valence    mass     pseudopotential
        Li             3.00     6.94000     Li( 1.00)
        Mn            15.00    54.93804     Mn( 1.00)
        F              7.00    18.99840     F ( 1.00)

     12 Sym. Ops., with inversion, found ( 6 have fractional translation)

                                    s                        frac. trans.

      isym =  1     identity

 cryst.   s( 1) = (     1          0          0      )
                  (     0          1          0      )
                  (     0          0          1      )

 cart.    s( 1) = (  1.0000000  0.0000000  0.0000000 )
                  (  0.0000000  1.0000000  0.0000000 )
                  (  0.0000000  0.0000000  1.0000000 )

      isym =  2     180 deg rotation - cart. axis [1,0,0]

 cryst.   s( 2) = (     1          0          0      )    f =( -0.2500000 )
                  (     1         -1          0      )       ( -0.2500000 )
                  (     1          0         -1      )       ( -0.2500000 )

 cart.    s( 2) = (  1.0000000  0.0000000  0.0000000 )    f =( -0.5000000 )
                  (  0.0000000 -1.0000000 -0.0000000 )       ( -0.2886751 )
                  (  0.0000000  0.0000000 -1.0000000 )       ( -0.2041241 )

      isym =  3     120 deg rotation - cryst. axis [0,0,1]

[...]

      isym =  6     180 deg rotation - cryst. axis [1,1,0]

[...]

      isym =  7     inversion

[...]

      isym =  8     inv. 180 deg rotation - cart. axis [1,0,0]

 cryst.   s( 8) = (    -1          0          0      )
                  (    -1          1          0      )
                  (    -1          0          1      )

 cart.    s( 8) = ( -1.0000000  0.0000000  0.0000000 )
                  (  0.0000000  1.0000000  0.0000000 )
                  (  0.0000000  0.0000000  1.0000000 )

      isym =  9     inv. 120 deg rotation - cryst. axis [0,0,1]

 cryst.   s( 9) = (     1         -1          0      )    f =( -0.2500000 )
                  (     1          0          0      )       ( -0.2500000 )
                  (     1          0         -1      )       ( -0.2500000 )

 cart.    s( 9) = (  0.5000000  0.8660254 -0.0000000 )    f =( -0.5000000 )
                  ( -0.8660254  0.5000000 -0.0000000 )       ( -0.2886751 )
                  (  0.0000000  0.0000000 -1.0000000 )       ( -0.2041241 )

[...]

 cryst.   s(10) = (     0          1          0      )    f =( -0.2500000 )
                  (    -1          1          0      )       ( -0.2500000 )
                  (     0          1         -1      )       ( -0.2500000 )

 cart.    s(10) = (  0.5000000 -0.8660254  0.0000000 )    f =( -0.5000000 )
                  (  0.8660254  0.5000000 -0.0000000 )       ( -0.2886751 )
                  (  0.0000000  0.0000000 -1.0000000 )       ( -0.2041241 )

[...]

 cryst.   s(11) = (     0          1          0      )
                  (     1          0          0      )
                  (     0          0          1      )

 cart.    s(11) = (  0.5000000  0.8660254 -0.0000000 )
                  (  0.8660254 -0.5000000  0.0000000 )
                  (  0.0000000  0.0000000  1.0000000 )

      isym = 12     inv. 180 deg rotation - cryst. axis [1,1,0]

 cryst.   s(12) = (     1         -1          0      )
                  (     0         -1          0      )
                  (     0         -1          1      )

 cart.    s(12) = (  0.5000000 -0.8660254  0.0000000 )
                  ( -0.8660254 -0.5000000  0.0000000 )
                  (  0.0000000  0.0000000  1.0000000 )

   Cartesian axes

     site n.     atom                  positions (alat units)
         1           Li  tau(   1) = (   1.0000000   0.5773503   0.1020621  )
         2           Li  tau(   2) = (   1.2500000   0.7216878   0.5103104  )
         3           Li  tau(   3) = (   1.0000000   0.2886751   0.5103104  )
         4           Li  tau(   4) = (   0.7500000   0.7216878   0.5103104  )
         5           Mn  tau(   5) = (   0.5000000   0.2886751   0.2041241  )
         6           Mn  tau(   6) = (   0.0000000   0.0000000   0.0000000  )
         7           F   tau(   7) = (   1.4999995   0.8660251   0.3317752  )
         8           F   tau(   8) = (   1.4999995   0.6014757   0.7059046  )
         9           F   tau(   9) = (   1.7291060   0.9982998   0.7059046  )
        10           F   tau(  10) = (   1.2708930   0.9982998   0.7059046  )
        11           F   tau(  11) = (   1.2291070   0.4450759   0.3147162  )
        12           F   tau(  12) = (   0.7708940   0.4450759   0.3147162  )
        13           F   tau(  13) = (   1.0000005   0.8419000   0.3147162  )
        14           F   tau(  14) = (   1.0000005   0.5773506   0.6888455  )

   Crystallographic axes

     site n.     atom                  positions (cryst. coord.)
         1           Li  tau(   1) = (  0.6250000  0.6250000  0.1250000  )
         2           Li  tau(   2) = (  0.6250000  0.6250000  0.6250000  )
         3           Li  tau(   3) = (  0.6250000  0.1250000  0.6250000  )
         4           Li  tau(   4) = (  0.1250000  0.6250000  0.6250000  )
         5           Mn  tau(   5) = (  0.2500000  0.2500000  0.2500000  )
         6           Mn  tau(   6) = (  0.0000000  0.0000000  0.0000000  )
         7           F   tau(   7) = (  0.8645530  0.8645530  0.4063400  )
         8           F   tau(   8) = (  0.8645530  0.4063400  0.8645530  )
         9           F   tau(   9) = (  0.8645530  0.8645530  0.8645530  )
        10           F   tau(  10) = (  0.4063400  0.8645530  0.8645530  )
        11           F   tau(  11) = (  0.8436600  0.3854470  0.3854470  )
        12           F   tau(  12) = (  0.3854470  0.3854470  0.3854470  )
        13           F   tau(  13) = (  0.3854470  0.8436600  0.3854470  )
        14           F   tau(  14) = (  0.3854470  0.3854470  0.8436600  )

     number of k points=     1  Methfessel-Paxton smearing, width (Ry)=  0.0010
                       cart. coord. in units 2pi/alat
        k(    1) = (   0.0000000   0.0000000   0.0000000), wk =   2.0000000

                       cryst. coord.
        k(    1) = (   0.0000000   0.0000000   0.0000000), wk =   2.0000000

     Check: negative core charge=   -0.000014

     Initial potential from superposition of free atoms

     starting charge      95.1969, renormalised to      98.0000
     Starting wfcs are   78 randomized atomic wfcs

     Self-consistent Calculation

     iteration #  1     ecut=    30.00 Ry     beta= 0.70
     Davidson diagonalization with overlap

     ethr =  1.00E-02,  avg # of iterations =  2.0

     total energy              =    -864.61623625 Ry
     estimated scf accuracy    <       7.41881908 Ry

[...]

     total energy              =    -869.86441114 Ry
     estimated scf accuracy    <       0.00000233 Ry

     iteration # 52     ecut=    30.00 Ry     beta= 0.70
     Davidson diagonalization with overlap

     ethr =  2.38E-09,  avg # of iterations =  1.0

     End of self-consistent calculation

          k = 0.0000 0.0000 0.0000 (  1488 PWs)   bands (ev):

   -73.7747 -73.7739 -42.5500 -42.5499 -42.5499 -42.5470 -42.5469 -42.5469
   -39.9380 -39.9229 -39.9228 -39.9228 -18.8602 -18.5861 -18.5051 -18.5050
   -18.5050 -18.3769 -18.3768 -18.3768  -1.8429  -1.8125  -1.2673  -1.2673
    -1.1357  -1.1357  -1.1357  -0.4717  -0.4717  -0.4716  -0.1643  -0.1643
    -0.1643   0.3074   0.3074   0.3074   0.5465   0.5465   0.6058   0.6058
     0.6058   0.8007   0.8007   0.8007   5.2886   5.2886   5.2961   5.2962
     5.5892   5.5892   5.5893   6.0224   6.0225   6.0225   7.0528  11.9958
    12.0113  12.0113  12.0113

     occupation numbers
     1.0000   1.0000   1.0000   1.0000   1.0000   1.0000   1.0000   1.0000
     1.0000   1.0000   1.0000   1.0000   1.0000   1.0000   1.0000   1.0000
     1.0000   1.0000   1.0000   1.0000   1.0000   1.0000   1.0000   1.0000
     1.0000   1.0000   1.0000   1.0000   1.0000   1.0000   1.0000   1.0000
     1.0000   1.0000   1.0000   1.0000   1.0000   1.0000   1.0000   1.0000
     1.0000   1.0000   1.0000   1.0000   1.0000   1.0000   1.0000   1.0000
     0.3357   0.3327   0.3316  -0.0000  -0.0000  -0.0000  -0.0000  -0.0000
    -0.0000  -0.0000  -0.0000

     the Fermi energy is     5.5865 ev

!    total energy              =    -869.86441088 Ry
     estimated scf accuracy    <       0.00000099 Ry
     smearing contrib. (-TS)   =      -0.00074671 Ry
     internal energy E=F+TS    =    -869.86366418 Ry

     The total energy is F=E-TS. E is the sum of the following terms:
     one-electron contribution =    -520.46590147 Ry
     hartree contribution      =     297.96997559 Ry
     xc contribution           =    -141.84569715 Ry
     ewald contribution        =    -505.52204115 Ry

     convergence has been achieved in  52 iterations

     Forces acting on atoms (cartesian axes, Ry/au):

     atom    1 type  1   force =     0.00000000    0.00000000    0.00000000
     atom    2 type  1   force =     0.00000000    0.00000000    0.00000000
     atom    3 type  1   force =     0.00000000   -0.00000000   -0.00000000
     atom    4 type  1   force =    -0.00000000    0.00000000   -0.00000000
     atom    5 type  2   force =     0.00000000    0.00000000    0.00001106
     atom    6 type  2   force =     0.00000000    0.00000000   -0.00001106
     atom    7 type  3   force =     0.00000000    0.00000000   -0.03403438
     atom    8 type  3   force =     0.00000000   -0.03206081    0.01131735
     atom    9 type  3   force =     0.02776548    0.01603041    0.01131735
     atom   10 type  3   force =    -0.02776548    0.01603041    0.01131735
     atom   11 type  3   force =     0.02776548   -0.01603041   -0.01131735
     atom   12 type  3   force =    -0.02776548   -0.01603041   -0.01131735
     atom   13 type  3   force =     0.00000000    0.03206081   -0.01131735
     atom   14 type  3   force =     0.00000000    0.00000000    0.03403438
     The non-local contrib.  to forces
     atom    1 type  1   force =     0.00000000    0.00000000    0.00000000
     atom    2 type  1   force =     0.00000000   -0.00000000    0.00000000
     atom    3 type  1   force =     0.00000000   -0.00000000   -0.00000000
     atom    4 type  1   force =     0.00000000    0.00000000   -0.00000000
     atom    5 type  2   force =     0.00000000    0.00000000   -0.00025722
     atom    6 type  2   force =     0.00000000   -0.00000000    0.00025722
     atom    7 type  3   force =     0.00000000    0.00000000   -0.45627599
     atom    8 type  3   force =     0.00000000   -0.43011171    0.15206331
     atom    9 type  3   force =     0.37248767    0.21505585    0.15206331
     atom   10 type  3   force =    -0.37248767    0.21505585    0.15206331
     atom   11 type  3   force =     0.37248767   -0.21505585   -0.15206331
     atom   12 type  3   force =    -0.37248767   -0.21505585   -0.15206331
     atom   13 type  3   force =     0.00000000    0.43011171   -0.15206331
     atom   14 type  3   force =     0.00000000   -0.00000000    0.45627599
     The ionic contribution  to forces
     atom    1 type  1   force =     0.00000000   -0.00000000   -0.00000000
     atom    2 type  1   force =     0.00000000    0.00000000    0.00000000
     atom    3 type  1   force =     0.00000000   -0.00000000   -0.00000000
     atom    4 type  1   force =    -0.00000000    0.00000000    0.00000000
     atom    5 type  2   force =    -0.00000000    0.00000000   -0.00000000
     atom    6 type  2   force =     0.00000000   -0.00000000   -0.00000000
     atom    7 type  3   force =     0.00002849    0.00001645    6.35387550
     atom    8 type  3   force =     0.00002849    5.99049675   -2.11794299
     atom    9 type  3   force =    -5.18787091   -2.99521867   -2.11793943
     atom   10 type  3   force =     5.18793661   -2.99522370   -2.11794299
     atom   11 type  3   force =    -5.18793661    2.99522370    2.11794299
     atom   12 type  3   force =     5.18787091    2.99521867    2.11793943
     atom   13 type  3   force =    -0.00002849   -5.99049675    2.11794299
     atom   14 type  3   force =    -0.00002849   -0.00001645   -6.35387549
     The local contribution  to forces
     atom    1 type  1   force =    -0.00000965   -0.00001507    0.00001855
     atom    2 type  1   force =     0.00000244   -0.00000825   -0.00000976
     atom    3 type  1   force =    -0.00000925    0.00000943   -0.00002342
     atom    4 type  1   force =    -0.00000423   -0.00001817   -0.00001699
     atom    5 type  2   force =     0.00010065    0.00021446    0.00009342
     atom    6 type  2   force =    -0.00009220   -0.00020577   -0.00008699
     atom    7 type  3   force =     0.00005420    0.00024620   -5.93155064
     atom    8 type  3   force =     0.00005535   -5.59220803    1.97735469
     atom    9 type  3   force =     4.84303542    2.79619018    1.97715668
     atom   10 type  3   force =    -4.84301998    2.79624738    1.97719438
     atom   11 type  3   force =     4.84319631   -2.79637731   -1.97728994
     atom   12 type  3   force =    -4.84329270   -2.79634790   -1.97727615
     atom   13 type  3   force =    -0.00007188    5.59237362   -1.97743840
     atom   14 type  3   force =    -0.00006775   -0.00026466    5.93170549
     The core correction contribution to forces
     atom    1 type  1   force =     0.00000000    0.00000000    0.00000000
     atom    2 type  1   force =     0.00000000    0.00000000    0.00000000
     atom    3 type  1   force =     0.00000000    0.00000000    0.00000000
     atom    4 type  1   force =     0.00000000    0.00000000    0.00000000
     atom    5 type  2   force =     0.00002329    0.00005186    0.00002355
     atom    6 type  2   force =    -0.00002550   -0.00005472   -0.00002631
     atom    7 type  3   force =     0.00000000    0.00000000    0.00000000
     atom    8 type  3   force =     0.00000000    0.00000000    0.00000000
     atom    9 type  3   force =     0.00000000    0.00000000    0.00000000
     atom   10 type  3   force =     0.00000000    0.00000000    0.00000000
     atom   11 type  3   force =     0.00000000    0.00000000    0.00000000
     atom   12 type  3   force =     0.00000000    0.00000000    0.00000000
     atom   13 type  3   force =     0.00000000    0.00000000    0.00000000
     atom   14 type  3   force =     0.00000000    0.00000000    0.00000000
     The Hubbard contrib.    to forces
     atom    1 type  1   force =     0.00000000    0.00000000    0.00000000
     atom    2 type  1   force =     0.00000000    0.00000000    0.00000000
     atom    3 type  1   force =     0.00000000    0.00000000    0.00000000
     atom    4 type  1   force =     0.00000000    0.00000000    0.00000000
     atom    5 type  2   force =     0.00000000    0.00000000    0.00000000
     atom    6 type  2   force =     0.00000000    0.00000000    0.00000000
     atom    7 type  3   force =     0.00000000    0.00000000    0.00000000
     atom    8 type  3   force =     0.00000000    0.00000000    0.00000000
     atom    9 type  3   force =     0.00000000    0.00000000    0.00000000
     atom   10 type  3   force =     0.00000000    0.00000000    0.00000000
     atom   11 type  3   force =     0.00000000    0.00000000    0.00000000
     atom   12 type  3   force =     0.00000000    0.00000000    0.00000000
     atom   13 type  3   force =     0.00000000    0.00000000    0.00000000
     atom   14 type  3   force =     0.00000000    0.00000000    0.00000000
     The SCF correction term to forces
     atom    1 type  1   force =     0.00000872    0.00001380   -0.00001597
     atom    2 type  1   force =    -0.00000378    0.00000677    0.00000862
     atom    3 type  1   force =     0.00000843   -0.00000742    0.00002117
     atom    4 type  1   force =     0.00000527    0.00001576    0.00001537
     atom    5 type  2   force =     0.00012107    0.00027628    0.00012086
     atom    6 type  2   force =    -0.00016438   -0.00034478   -0.00018542
     atom    7 type  3   force =    -0.00009317   -0.00026447   -0.00007890
     atom    8 type  3   force =    -0.00009309   -0.00017902   -0.00016487
     atom    9 type  3   force =     0.00016984    0.00000125    0.00005243
     atom   10 type  3   force =    -0.00021953   -0.00007847   -0.00000369
     atom   11 type  3   force =     0.00004499    0.00021034    0.00009993
     atom   12 type  3   force =     0.00008700    0.00015900    0.00006949
     atom   13 type  3   force =     0.00010942    0.00002110    0.00024967
     atom   14 type  3   force =     0.00010636    0.00028598   -0.00006726

     Total force =     0.096190     Total SCF correction =     0.000890

     Computing stress (Cartesian axis) and pressure

          total   stress  (Ry/bohr**3)                   (kbar)     P=     -237.82
  -0.00161708   0.00000000   0.00000000         -237.88        0.00        0.00
   0.00000000  -0.00161708   0.00000000            0.00     -237.88        0.00
   0.00000000   0.00000000  -0.00161588            0.00        0.00     -237.70

     kinetic stress (kbar)  21915.57      0.00      0.00
                                0.00  21915.57     -0.00
                                0.00     -0.00  21915.12

     local   stress (kbar) -11419.32     -0.88     -0.56
                               -0.88 -11417.30     -2.29
                               -0.56     -2.29 -11416.74

     nonloc. stress (kbar)   4803.05     -0.00     -0.00
                               -0.00   4803.05     -0.00
                                0.00     -0.00   4802.65

     hartree stress (kbar)  13549.31      0.32      0.21
                                0.32  13548.45      0.77
                                0.21      0.77  13548.29

     exc-cor stress (kbar)  -5118.94      0.00      0.00
                                0.00  -5118.95      0.01
                                0.00      0.01  -5118.95

     corecor stress (kbar)   -982.05     -0.01     -0.00
                               -0.01   -982.04     -0.02
                               -0.00     -0.02   -982.03

     ewald   stress (kbar) -22986.11     -0.04     -0.03
                               -0.04 -22986.06     -0.02
                               -0.03     -0.02 -22986.04

     hubbard stress (kbar)      0.00      0.00      0.00
                                0.00      0.00      0.00
                                0.00      0.00      0.00

     DFT-D   stress (kbar)      0.00      0.00      0.00
                                0.00      0.00      0.00
                                0.00      0.00      0.00

     XDM     stress (kbar)      0.00      0.00      0.00
                                0.00      0.00      0.00
                                0.00      0.00      0.00

     dft-nl  stress (kbar)      0.00      0.00      0.00
                                0.00      0.00      0.00
                                0.00      0.00      0.00

     TS-vdW  stress (kbar)      0.00      0.00      0.00
                                0.00      0.00      0.00
                                0.00      0.00      0.00

[...]

                                0.00      0.00      0.00

     Writing all to output data dir new_calculations/myprefix.save/

     General routines

     Parallel routines

   This run was terminated on:  18:33:14  21May2023

   JOB DONE.