     Program PWSCF v.7.0 starts on 20May2023 at 15:20:56

     Reading input from espresso_17463.pwi
Warning: card &CELL ignored
Warning: card / ignored

     Current dimensions of program PWSCF are:
     Max number of different atomic species (ntypx) = 10
     Max number of k-points (npk) =  40000
     Max angular momentum in pseudopotentials (lmaxx) =  4
     file O.pbe-n-kjpaw_psl.0.1.UPF: wavefunction(s)  2P renormalized

     gamma-point specific algorithms are used
     Message from routine setup:
     using ibrav=0 with symmetry is DISCOURAGED, use correct ibrav instead

     Subspace diagonalization in iterative solution of the eigenvalue problem:
     a serial algorithm will be used

     Using Slab Decomposition

     bravais-lattice index     =            0
     lattice parameter (alat)  =      12.3963  a.u.
     unit-cell volume          =     971.6633 (a.u.)^3
     number of atoms/cell      =           14
     number of atomic types    =            3
     number of electrons       =        64.00
     number of Kohn-Sham states=           38
     kinetic-energy cutoff     =      30.0000  Ry
     charge density cutoff     =     240.0000  Ry
     scf convergence threshold =      1.0E-06
     mixing beta               =       0.7000
     number of iterations used =            8  plain     mixing
     Exchange-correlation= SLA  PW   PBX  PBC
                           (   1   4   3   4   0   0   0)

     celldm(1)=  12.396309  celldm(2)=   0.000000  celldm(3)=   0.000000
     celldm(4)=   0.000000  celldm(5)=   0.000000  celldm(6)=   0.000000

     crystal axes: (cart. coord. in units of alat)
               a(1) = (   1.000000   0.000000   0.000000 )
               a(2) = (  -0.500000   0.866025   0.000000 )
               a(3) = (   0.000000   0.000000   0.588990 )

     reciprocal axes: (cart. coord. in units 2 pi/alat)
               b(1) = (  1.000000  0.577350  0.000000 )
               b(2) = (  0.000000  1.154701  0.000000 )
               b(3) = (  0.000000  0.000000  1.697822 )

     PseudoPot. # 1 for La read from file:
     /home/pragov/projects/rrg-bengioy-ad/pragov/crystal_structure_design/SSSP/La.GGA-PBE-paw-v1.0.UPF
     MD5 check sum: 436541e95c1ad8901025bd0b0ed42ae2
     Pseudo is Projector augmented-wave + core cor, Zval = 11.0
     Generated using ATOMPAW code
     Shape of augmentation charge: BESSEL
     Using radial grid of 1101 points,  8 beta functions with:
                l(1) =   0
                l(2) =   0
                l(3) =   1
                l(4) =   1
                l(5) =   2
                l(6) =   2
                l(7) =   3
                l(8) =   3
     Q(r) pseudized with 0 coefficients

     PseudoPot. # 2 for H  read from file:
     /home/pragov/projects/rrg-bengioy-ad/pragov/crystal_structure_design/SSSP/H.pbe-rrkjus_psl.1.0.0.UPF
     MD5 check sum: f52b6d4d1c606e5624b1dc7b2218f220
     Pseudo is Ultrasoft, Zval =  1.0
     Generated using "atomic" code by A. Dal Corso  v.5.1
     Using radial grid of  929 points,  2 beta functions with:
                l(1) =   0
                l(2) =   0
     Q(r) pseudized with 0 coefficients

     PseudoPot. # 3 for O  read from file:
     /home/pragov/projects/rrg-bengioy-ad/pragov/crystal_structure_design/SSSP/O.pbe-n-kjpaw_psl.0.1.UPF
     MD5 check sum: 0234752ac141de4415c5fc33072bef88
     Pseudo is Projector augmented-wave + core cor, Zval =  6.0
     Generated using "atomic" code by A. Dal Corso  v.5.0.99 svn rev. 10869
     Shape of augmentation charge: BESSEL
     Using radial grid of 1095 points,  4 beta functions with:
                l(1) =   0
                l(2) =   0
                l(3) =   1
                l(4) =   1
     Q(r) pseudized with 0 coefficients

     atomic species   valence    mass     pseudopotential
        La            11.00   138.90547     La( 1.00)
        H              1.00     1.00800     H ( 1.00)
        O              6.00    15.99900     O ( 1.00)

     12 Sym. Ops., with inversion, found ( 6 have fractional translation)

                                    s                        frac. trans.

      isym =  1     identity

 cryst.   s( 1) = (     1          0          0      )
                  (     0          1          0      )
                  (     0          0          1      )

 cart.    s( 1) = (  1.0000000 -0.0000000  0.0000000 )
                  (  0.0000000  1.0000000  0.0000000 )
                  (  0.0000000  0.0000000  1.0000000 )

      isym =  2     180 deg rotation - cart. axis [0,0,1]

 cryst.   s( 2) = (    -1          0          0      )    f =(  0.0000000 )
                  (     0         -1          0      )       ( -0.0000000 )
                  (     0          0          1      )       ( -0.5000000 )

 cart.    s( 2) = ( -1.0000000  0.0000000  0.0000000 )    f =(  0.0000000 )
                  (  0.0000000 -1.0000000  0.0000000 )       ( -0.0000000 )
                  (  0.0000000  0.0000000  1.0000000 )       ( -0.2944950 )

      isym =  3      60 deg rotation - cryst. axis [0,0,1]

[...]

      isym =  6     120 deg rotation - cryst. axis [0,0,-1]

[...]

      isym =  7     inversion

 cryst.   s( 7) = (    -1          0          0      )
                  (     0         -1          0      )
                  (     0          0         -1      )

 cart.    s( 7) = ( -1.0000000  0.0000000  0.0000000 )
                  (  0.0000000 -1.0000000  0.0000000 )
                  (  0.0000000  0.0000000 -1.0000000 )

      isym =  8     inv. 180 deg rotation - cart. axis [0,0,1]

[...]

      isym =  9     inv.  60 deg rotation - cryst. axis [0,0,1]

 cryst.   s( 9) = (    -1         -1          0      )    f =(  0.0000010 )
                  (     1          0          0      )       (  0.0000000 )
                  (     0          0         -1      )       ( -0.5000000 )

 cart.    s( 9) = ( -0.4999999  0.8660254  0.0000000 )    f =(  0.0000010 )
                  ( -0.8660254 -0.5000001  0.0000000 )       (  0.0000000 )
                  (  0.0000000  0.0000000 -1.0000000 )       ( -0.2944950 )

[...]

 cryst.   s(10) = (     0          1          0      )    f =(  0.0000000 )
                  (    -1         -1          0      )       ( -0.0000010 )
                  (     0          0         -1      )       ( -0.5000000 )

 cart.    s(10) = ( -0.5000001 -0.8660254  0.0000000 )    f =(  0.0000005 )
                  (  0.8660254 -0.4999999  0.0000000 )       ( -0.0000009 )
                  (  0.0000000  0.0000000 -1.0000000 )       ( -0.2944950 )

[...]

 cryst.   s(11) = (     0         -1          0      )
                  (     1          1          0      )
                  (     0          0         -1      )

 cart.    s(11) = (  0.5000001  0.8660254  0.0000000 )
                  ( -0.8660254  0.4999999  0.0000000 )
                  (  0.0000000  0.0000000 -1.0000000 )

      isym = 12     inv. 120 deg rotation - cryst. axis [0,0,-1]

 cryst.   s(12) = (     1          1          0      )
                  (    -1          0          0      )
                  (     0          0         -1      )

 cart.    s(12) = (  0.4999999 -0.8660254  0.0000000 )
                  (  0.8660254  0.5000001  0.0000000 )
                  (  0.0000000  0.0000000 -1.0000000 )

   Cartesian axes

     site n.     atom                  positions (alat units)
         1           La  tau(   1) = (  -0.0000005   0.5773505   0.1472475  )
         2           La  tau(   2) = (   0.5000005   0.2886748   0.4417425  )
         3           H   tau(   3) = (   0.5008350   0.6267911   0.1472475  )
         4           H   tau(   4) = (   0.7923995   0.1188940   0.1472475  )
         5           H   tau(   5) = (   0.2067655   0.1203403   0.1472475  )
         6           H   tau(   6) = (  -0.0008350   0.2392343   0.4417425  )
         7           H   tau(   7) = (  -0.2923996   0.7471313   0.4417425  )
         8           H   tau(   8) = (   0.2932344   0.7456851   0.4417425  )
         9           O   tau(   9) = (   0.6124605   0.5281083   0.1472475  )
        10           O   tau(  10) = (   0.6511250   0.0715649   0.1472475  )
        11           O   tau(  11) = (   0.2364145   0.2663522   0.1472475  )
        12           O   tau(  12) = (  -0.1124605   0.3379170   0.4417425  )
        13           O   tau(  13) = (  -0.1511251   0.7944605   0.4417425  )
        14           O   tau(  14) = (   0.2635855   0.5996732   0.4417425  )

   Crystallographic axes

     site n.     atom                  positions (cryst. coord.)
         1           La  tau(   1) = (  0.3333330  0.6666670  0.2500000  )
         2           La  tau(   2) = (  0.6666670  0.3333330  0.7500000  )
         3           H   tau(   3) = (  0.8627130  0.7237560  0.2500000  )
         4           H   tau(   4) = (  0.8610430  0.1372870  0.2500000  )
         5           H   tau(   5) = (  0.2762440  0.1389570  0.2500000  )
         6           H   tau(   6) = (  0.1372870  0.2762440  0.7500000  )
         7           H   tau(   7) = (  0.1389570  0.8627130  0.7500000  )
         8           H   tau(   8) = (  0.7237560  0.8610430  0.7500000  )
         9           O   tau(   9) = (  0.9173640  0.6098070  0.2500000  )
        10           O   tau(  10) = (  0.6924430  0.0826360  0.2500000  )
        11           O   tau(  11) = (  0.3901930  0.3075570  0.2500000  )
        12           O   tau(  12) = (  0.0826360  0.3901930  0.7500000  )
        13           O   tau(  13) = (  0.3075570  0.9173640  0.7500000  )
        14           O   tau(  14) = (  0.6098070  0.6924430  0.7500000  )

     number of k points=     1  Methfessel-Paxton smearing, width (Ry)=  0.0010
                       cart. coord. in units 2pi/alat
        k(    1) = (   0.0000000   0.0000000   0.0000000), wk =   2.0000000

                       cryst. coord.
        k(    1) = (   0.0000000   0.0000000   0.0000000), wk =   2.0000000

     Check: negative core charge=   -0.000012

     Initial potential from superposition of free atoms

     starting charge      63.9829, renormalised to      64.0000
     Starting wfcs are   94 randomized atomic wfcs
     Checking if some PAW data can be deallocated...

     Self-consistent Calculation

     iteration #  1     ecut=    30.00 Ry     beta= 0.70
     Davidson diagonalization with overlap

     ethr =  1.00E-02,  avg # of iterations =  2.0

     total energy              =   -1172.90342267 Ry
     estimated scf accuracy    <       2.58225614 Ry

[...]

     total energy              =   -1174.13168457 Ry
     estimated scf accuracy    <       0.00000243 Ry

     iteration # 13     ecut=    30.00 Ry     beta= 0.70
     Davidson diagonalization with overlap

     ethr =  2.81E-09,  avg # of iterations =  2.0

     End of self-consistent calculation

          k = 0.0000 0.0000 0.0000 (  1363 PWs)   bands (ev):

   -23.9646 -23.8784 -12.2992 -12.1415 -12.1411 -12.0950 -12.0946 -11.6041
    -7.4011  -7.3886  -7.3886  -7.3451  -7.3450  -7.2232   0.2000   0.7656
     0.7660   1.1609   1.1612   1.2917   3.2844   3.6734   3.9782   3.9786
     4.2358   4.2362   4.2646   4.6627   4.6631   5.1858   5.1862   5.8560
     9.4351  10.7346  10.9554  10.9808  10.9808  11.0661

     occupation numbers
     1.0000   1.0000   1.0000   1.0000   1.0000   1.0000   1.0000   1.0000
     1.0000   1.0000   1.0000   1.0000   1.0000   1.0000   1.0000   1.0000
     1.0000   1.0000   1.0000   1.0000   1.0000   1.0000   1.0000   1.0000
     1.0000   1.0000   1.0000   1.0000   1.0000   1.0000   1.0000   1.0000
    -0.0000  -0.0000  -0.0000  -0.0000  -0.0000  -0.0000

     the Fermi energy is     6.7893 ev

!    total energy              =   -1174.13168433 Ry
     estimated scf accuracy    <       0.00000052 Ry
     smearing contrib. (-TS)   =       0.00000000 Ry
     internal energy E=F+TS    =   -1174.13168433 Ry

     The total energy is F=E-TS. E is the sum of the following terms:
     one-electron contribution =     -93.95350169 Ry
     hartree contribution      =      85.29067750 Ry
     xc contribution           =     -66.85308074 Ry
     ewald contribution        =    -245.36007304 Ry
     one-center paw contrib.   =    -853.25570636 Ry
      -> PAW hartree energy AE =     253.03012616 Ry
      -> PAW hartree energy PS =    -252.47038038 Ry
      -> PAW xc energy AE      =    -914.54208466 Ry
      -> PAW xc energy PS      =      60.72663251 Ry
      -> total E_H with PAW    =      85.85042329 Ry
      -> total E_XC with PAW   =    -920.66853289 Ry

     convergence has been achieved in  13 iterations

     Forces acting on atoms (cartesian axes, Ry/au):

     atom    1 type  1   force =    -0.00000000    0.00000000    0.00000000
     atom    2 type  1   force =     0.00000000   -0.00000000    0.00000000
     atom    3 type  2   force =     0.00092722   -0.00584503    0.00000000
     atom    4 type  2   force =    -0.00552555    0.00211952    0.00000000
     atom    5 type  2   force =     0.00459834    0.00372551    0.00000000
     atom    6 type  2   force =    -0.00092722    0.00584503   -0.00000000
     atom    7 type  2   force =     0.00552555   -0.00211952   -0.00000000
     atom    8 type  2   force =    -0.00459834   -0.00372551   -0.00000000
     atom    9 type  3   force =    -0.00890220   -0.03918165    0.00000000
     atom   10 type  3   force =    -0.02948120    0.02730035    0.00000000
     atom   11 type  3   force =     0.03838340    0.01188129    0.00000000
     atom   12 type  3   force =     0.00890220    0.03918165    0.00000000
     atom   13 type  3   force =     0.02948120   -0.02730035    0.00000000
     atom   14 type  3   force =    -0.03838340   -0.01188129    0.00000000
     The non-local contrib.  to forces
     atom    1 type  1   force =     0.00000000    0.00000000   -0.00000000
     atom    2 type  1   force =     0.00000000   -0.00000000    0.00000000
     atom    3 type  2   force =     0.08060933   -0.07046768   -0.00000000
     atom    4 type  2   force =    -0.10133147   -0.03457589    0.00000000
     atom    5 type  2   force =     0.02072214    0.10504358    0.00000000
     atom    6 type  2   force =    -0.08060933    0.07046768    0.00000000
     atom    7 type  2   force =     0.10133147    0.03457589    0.00000000
     atom    8 type  2   force =    -0.02072214   -0.10504358    0.00000000
     atom    9 type  3   force =    -1.17058858    1.07075418   -0.00000000
     atom   10 type  3   force =     1.51259464    0.47838246    0.00000000
     atom   11 type  3   force =    -0.34200606   -1.54913664    0.00000000
     atom   12 type  3   force =     1.17058858   -1.07075418    0.00000000
     atom   13 type  3   force =    -1.51259464   -0.47838246    0.00000000
     atom   14 type  3   force =     0.34200606    1.54913664    0.00000000
     The ionic contribution  to forces
     atom    1 type  1   force =     0.00004139   -0.00002414    0.00000000
     atom    2 type  1   force =    -0.00004139    0.00002414   -0.00000000
     atom    3 type  2   force =    -2.19617622    2.88423424   -0.00000000
     atom    4 type  2   force =     3.59591017    0.45982221   -0.00000000
     atom    5 type  2   force =    -1.39973556   -3.34405593   -0.00000000
     atom    6 type  2   force =     2.19617622   -2.88423424    0.00000000
     atom    7 type  2   force =    -3.59591017   -0.45982221   -0.00000000
     atom    8 type  2   force =     1.39973556    3.34405593   -0.00000000
     atom    9 type  3   force =     0.69477624    2.47494760    0.00000000
     atom   10 type  3   force =     1.79597332   -1.83920457    0.00000000
     atom   11 type  3   force =    -2.49077349   -0.63572808    0.00000000
     atom   12 type  3   force =    -0.69477624   -2.47494760   -0.00000000
     atom   13 type  3   force =    -1.79597332    1.83920457   -0.00000000
     atom   14 type  3   force =     2.49077349    0.63572808   -0.00000000
     The local contribution  to forces
     atom    1 type  1   force =    -0.00014444   -0.00006464   -0.00001929
     atom    2 type  1   force =     0.00017505    0.00004448   -0.00001322
     atom    3 type  2   force =     2.11646143   -2.81958464    0.00000068
     atom    4 type  2   force =    -3.50003406   -0.42309476    0.00000065
     atom    5 type  2   force =     1.38360248    3.24268277    0.00000164
     atom    6 type  2   force =    -2.11643785    2.81956431    0.00000135
     atom    7 type  2   force =     3.50001830    0.42309037   -0.00000097
     atom    8 type  2   force =    -1.38359447   -3.24266883   -0.00000367
     atom    9 type  3   force =     0.45538533   -3.57404346    0.00007651
     atom   10 type  3   force =    -3.32279019    1.39271818    0.00000079
     atom   11 type  3   force =     2.86749978    2.18121160   -0.00001736
     atom   12 type  3   force =    -0.45549308    3.57400390   -0.00001902
     atom   13 type  3   force =     3.32284867   -1.39273968   -0.00001190
     atom   14 type  3   force =    -2.86744297   -2.18125289   -0.00002277
     The core correction contribution to forces
     atom    1 type  1   force =    -0.00000004   -0.00000005   -0.00000002
     atom    2 type  1   force =     0.00000006    0.00000004   -0.00000001
     atom    3 type  2   force =     0.00000000    0.00000000    0.00000000
     atom    4 type  2   force =     0.00000000    0.00000000    0.00000000
     atom    5 type  2   force =     0.00000000    0.00000000    0.00000000
     atom    6 type  2   force =     0.00000000    0.00000000    0.00000000
     atom    7 type  2   force =     0.00000000    0.00000000    0.00000000
     atom    8 type  2   force =     0.00000000    0.00000000    0.00000000
     atom    9 type  3   force =     0.01149013   -0.01094157    0.00000082
     atom   10 type  3   force =    -0.01522034   -0.00448117   -0.00000020
     atom   11 type  3   force =     0.00372980    0.01542075    0.00000007
     atom   12 type  3   force =    -0.01149049    0.01094119   -0.00000009
     atom   13 type  3   force =     0.01522096    0.00447996    0.00000006
     atom   14 type  3   force =    -0.00372996   -0.01542078   -0.00000051
     The Hubbard contrib.    to forces
     atom    1 type  1   force =     0.00000000    0.00000000    0.00000000
     atom    2 type  1   force =     0.00000000    0.00000000    0.00000000
     atom    3 type  2   force =     0.00000000    0.00000000    0.00000000
     atom    4 type  2   force =     0.00000000    0.00000000    0.00000000
     atom    5 type  2   force =     0.00000000    0.00000000    0.00000000
     atom    6 type  2   force =     0.00000000    0.00000000    0.00000000
     atom    7 type  2   force =     0.00000000    0.00000000    0.00000000
     atom    8 type  2   force =     0.00000000    0.00000000    0.00000000
     atom    9 type  3   force =     0.00000000    0.00000000    0.00000000
     atom   10 type  3   force =     0.00000000    0.00000000    0.00000000
     atom   11 type  3   force =     0.00000000    0.00000000    0.00000000
     atom   12 type  3   force =     0.00000000    0.00000000    0.00000000
     atom   13 type  3   force =     0.00000000    0.00000000    0.00000000
     atom   14 type  3   force =     0.00000000    0.00000000    0.00000000
     The SCF correction term to forces
     atom    1 type  1   force =     0.00006038    0.00009471   -0.00000515
     atom    2 type  1   force =    -0.00008215   -0.00010325    0.00000711
     atom    3 type  2   force =     0.00003839   -0.00002701   -0.00000060
     atom    4 type  2   force =    -0.00006682   -0.00003222   -0.00000072
     atom    5 type  2   force =     0.00001186    0.00005712   -0.00000074
     atom    6 type  2   force =    -0.00005323    0.00004771    0.00000017
     atom    7 type  2   force =     0.00008577    0.00003676    0.00000110
     atom    8 type  2   force =    -0.00001785   -0.00006724    0.00000005
     atom    9 type  3   force =     0.00003660    0.00010998   -0.00001833
     atom   10 type  3   force =    -0.00004923   -0.00016130   -0.00000655
     atom   11 type  3   force =    -0.00008538    0.00003168    0.00000230
     atom   12 type  3   force =     0.00004657   -0.00003396    0.00001046
     atom   13 type  3   force =     0.00005212    0.00011053    0.00002447
     atom   14 type  3   force =     0.00001783   -0.00003768   -0.00000574

     Total force =     0.099483     Total SCF correction =     0.000362

     Computing stress (Cartesian axis) and pressure

          total   stress  (Ry/bohr**3)                   (kbar)     P=     -282.27
  -0.00233274  -0.00000000   0.00000000         -343.16       -0.00        0.00
  -0.00000000  -0.00233274   0.00000000           -0.00     -343.16        0.00
   0.00000000   0.00000000  -0.00109109            0.00        0.00     -160.51

     kinetic stress (kbar)  14322.59      0.00      0.00
                                0.00  14322.60      0.00
                                0.00      0.00  15554.98

     local   stress (kbar)  -6981.86     -0.06     -0.00
                               -0.06  -6981.85      0.00
                               -0.00      0.00 -12447.66

     nonloc. stress (kbar)   5020.02      0.00      0.00
                                0.00   5020.02      0.00
                                0.00      0.00   5020.31

     hartree stress (kbar)   3452.49      0.03     -0.00
                                0.03   3452.48     -0.00
                               -0.00     -0.00   6007.62

     exc-cor stress (kbar)  -2749.40     -0.00     -0.00
                               -0.00  -2749.40     -0.00
                               -0.00     -0.00  -2755.76

     corecor stress (kbar)   -401.79      0.00     -0.00
                                0.00   -401.79     -0.00
                               -0.00     -0.00   -404.10

     ewald   stress (kbar) -13005.22      0.03      0.00
                                0.03 -13005.20      0.00
                                0.00      0.00 -11135.90

     hubbard stress (kbar)      0.00      0.00      0.00
                                0.00      0.00      0.00
                                0.00      0.00      0.00

     DFT-D   stress (kbar)      0.00      0.00      0.00
                                0.00      0.00      0.00
                                0.00      0.00      0.00

     XDM     stress (kbar)      0.00      0.00      0.00
                                0.00      0.00      0.00
                                0.00      0.00      0.00

     dft-nl  stress (kbar)      0.00      0.00      0.00
                                0.00      0.00      0.00
                                0.00      0.00      0.00

     TS-vdW  stress (kbar)      0.00      0.00      0.00
                                0.00      0.00      0.00
                                0.00      0.00      0.00

[...]

                                0.00      0.00      0.00

     Writing all to output data dir new_calculations/myprefix.save/

     General routines

     Parallel routines

     PAW routines

   This run was terminated on:  15:21:23  20May2023

   JOB DONE.