     Program PWSCF v.7.0 starts on 21May2023 at  5:42: 8

     Reading input from espresso_19778.pwi
Warning: card &CELL ignored
Warning: card / ignored

     Current dimensions of program PWSCF are:
     Max number of different atomic species (ntypx) = 10
     Max number of k-points (npk) =  40000
     Max angular momentum in pseudopotentials (lmaxx) =  4
     file Fe.pbe-spn-kjpaw_psl.0.2.1.UPF: wavefunction(s)  3D renormalized
     file O.pbe-n-kjpaw_psl.0.1.UPF: wavefunction(s)  2P renormalized

     gamma-point specific algorithms are used

     Subspace diagonalization in iterative solution of the eigenvalue problem:
     a serial algorithm will be used

     Using Slab Decomposition

     bravais-lattice index     =            0
     lattice parameter (alat)  =      10.4568  a.u.
     unit-cell volume          =    1615.0907 (a.u.)^3
     number of atoms/cell      =           20
     number of atomic types    =            5
     number of electrons       =       176.00
     number of Kohn-Sham states=          106
     kinetic-energy cutoff     =      30.0000  Ry
     charge density cutoff     =     240.0000  Ry
     scf convergence threshold =      1.0E-06
     mixing beta               =       0.7000
     number of iterations used =            8  plain     mixing
     Exchange-correlation= SLA  PW   PBX  PBC
                           (   1   4   3   4   0   0   0)

     celldm(1)=  10.456820  celldm(2)=   0.000000  celldm(3)=   0.000000
     celldm(4)=   0.000000  celldm(5)=   0.000000  celldm(6)=   0.000000

     crystal axes: (cart. coord. in units of alat)
               a(1) = (   1.000000   0.000000   0.000000 )
               a(2) = (  -0.000002   1.003036   0.000000 )
               a(3) = (  -0.000021   0.001130   1.408256 )

     reciprocal axes: (cart. coord. in units 2 pi/alat)
               b(1) = (  1.000000  0.000002  0.000015 )
               b(2) = (  0.000000  0.996973 -0.000800 )
               b(3) = (  0.000000  0.000000  0.710098 )

     PseudoPot. # 1 for Sr read from file:
     /home/pragov/projects/rrg-bengioy-ad/pragov/crystal_structure_design/SSSP/Sr_pbe_v1.uspp.F.UPF
     MD5 check sum: 6b418c05fbe9db5448babca5e47b7a5b
     Pseudo is Ultrasoft + core correction, Zval = 10.0
     Generated by new atomic code, or converted to UPF format
     Using radial grid of  883 points,  6 beta functions with:
                l(1) =   0
                l(2) =   0
                l(3) =   1
                l(4) =   1
                l(5) =   2
                l(6) =   2
     Q(r) pseudized with  6 coefficients,  rinner =    1.400   1.400   1.400
                                                       1.400   1.400

     PseudoPot. # 2 for La read from file:
     /home/pragov/projects/rrg-bengioy-ad/pragov/crystal_structure_design/SSSP/La.GGA-PBE-paw-v1.0.UPF
     MD5 check sum: 436541e95c1ad8901025bd0b0ed42ae2
     Pseudo is Projector augmented-wave + core cor, Zval = 11.0
     Generated using ATOMPAW code
     Shape of augmentation charge: BESSEL
     Using radial grid of 1101 points,  8 beta functions with:
                l(1) =   0
                l(2) =   0
                l(3) =   1
                l(4) =   1
                l(5) =   2
                l(6) =   2
                l(7) =   3
                l(8) =   3
     Q(r) pseudized with 0 coefficients

     PseudoPot. # 3 for Mn read from file:
     /home/pragov/projects/rrg-bengioy-ad/pragov/crystal_structure_design/SSSP/mn_pbe_v1.5.uspp.F.UPF
     MD5 check sum: 82ef2b46521d7a7d9e736dc3972e4928
     Pseudo is Ultrasoft + core correction, Zval = 15.0
     Generated by new atomic code, or converted to UPF format
     Using radial grid of  859 points,  6 beta functions with:
                l(1) =   0
                l(2) =   0
                l(3) =   1
                l(4) =   1
                l(5) =   2
                l(6) =   2
     Q(r) pseudized with  8 coefficients,  rinner =    0.950   0.950   0.950
                                                       0.950   0.950

     PseudoPot. # 4 for Fe read from file:
     /home/pragov/projects/rrg-bengioy-ad/pragov/crystal_structure_design/SSSP/Fe.pbe-spn-kjpaw_psl.0.2.1.UPF
     MD5 check sum: e86618425769142926afa95317d90200
     Pseudo is Projector augmented-wave + core cor, Zval = 16.0
     Generated using "atomic" code by A. Dal Corso  v.5.0.99 svn rev. 10869
     Shape of augmentation charge: PSQ
     Using radial grid of 1191 points,  6 beta functions with:
                l(1) =   0
                l(2) =   0
                l(3) =   1
                l(4) =   1
                l(5) =   2
                l(6) =   2
     Q(r) pseudized with 0 coefficients

     PseudoPot. # 5 for O  read from file:
     /home/pragov/projects/rrg-bengioy-ad/pragov/crystal_structure_design/SSSP/O.pbe-n-kjpaw_psl.0.1.UPF
     MD5 check sum: 0234752ac141de4415c5fc33072bef88
     Pseudo is Projector augmented-wave + core cor, Zval =  6.0
     Generated using "atomic" code by A. Dal Corso  v.5.0.99 svn rev. 10869
     Shape of augmentation charge: BESSEL
     Using radial grid of 1095 points,  4 beta functions with:
                l(1) =   0
                l(2) =   0
                l(3) =   1
                l(4) =   1
     Q(r) pseudized with 0 coefficients

     atomic species   valence    mass     pseudopotential
        Sr            10.00    87.62000     Sr( 1.00)
        La            11.00   138.90547     La( 1.00)
        Mn            15.00    54.93804     Mn( 1.00)
        Fe            16.00    55.84500     Fe( 1.00)
        O              6.00    15.99900     O ( 1.00)

     No symmetry found

                                    s                        frac. trans.

      isym =  1     identity

 cryst.   s( 1) = (     1          0          0      )
                  (     0          1          0      )
                  (     0          0          1      )

 cart.    s( 1) = (  1.0000000  0.0000000 -0.0000000 )
                  (  0.0000000  1.0000000 -0.0000000 )
                  (  0.0000000  0.0000000  1.0000000 )

   Cartesian axes

     site n.     atom                  positions (alat units)
         1           Sr  tau(   1) = (   0.5163431   0.5006653   1.0565256  )
         2           Sr  tau(   2) = (   0.9836165   1.0015641   0.3523963  )
         3           La  tau(   3) = (   0.0243812   0.0059349   1.0564778  )
         4           La  tau(   4) = (   0.4755766   0.5069301   0.3523639  )
         5           Mn  tau(   5) = (   0.9991989   0.5014909   0.0001605  )
         6           Mn  tau(   6) = (   0.5007463   1.0035395   0.7041758  )
         7           Fe  tau(   7) = (   0.5026709   0.0014105   1.4081038  )
         8           Fe  tau(   8) = (   0.9972564   0.5022272   0.7041561  )
         9           O   tau(   9) = (   0.9950898   0.5679587   1.0649583  )
        10           O   tau(  10) = (   0.5049135   0.0658850   0.3608473  )
        11           O   tau(  11) = (   0.4884642   0.9540601   1.0472664  )
        12           O   tau(  12) = (   0.0115489   0.4519703   0.3431187  )
        13           O   tau(  13) = (   0.2649669   0.2754124   1.3689571  )
        14           O   tau(  14) = (   0.2350424   0.7763093   0.6649052  )
        15           O   tau(  15) = (   0.7743083   0.2177099   0.7488710  )
        16           O   tau(  16) = (   0.7256718   0.7186959   0.0446657  )
        17           O   tau(  17) = (   0.7172295   0.7295796   0.6594904  )
        18           O   tau(  18) = (   0.7827651   0.2286075   1.3635395  )
        19           O   tau(  19) = (   0.2269218   0.7663493   0.0386777  )
        20           O   tau(  20) = (   0.2730543   0.2653533   0.7428958  )

   Crystallographic axes

     site n.     atom                  positions (cryst. coord.)
         1           Sr  tau(   1) = (  0.5163600  0.4983050  0.7502370  )
         2           Sr  tau(   2) = (  0.9836240  0.9982510  0.2502360  )
         3           La  tau(   3) = (  0.0243970  0.0050720  0.7502030  )
         4           La  tau(   4) = (  0.4755830  0.5051140  0.2502130  )
         5           Mn  tau(   5) = (  0.9992000  0.4999730  0.0001140  )
         6           Mn  tau(   6) = (  0.5007590  0.9999390  0.5000340  )
         7           Fe  tau(   7) = (  0.5026920  0.0002800  0.9998920  )
         8           Fe  tau(   8) = (  0.9972680  0.5001440  0.5000200  )
         9           O   tau(   9) = (  0.9951070  0.5653880  0.7562250  )
        10           O   tau(  10) = (  0.5049190  0.0653970  0.2562370  )
        11           O   tau(  11) = (  0.4884820  0.9503350  0.7436620  )
        12           O   tau(  12) = (  0.0115550  0.4503280  0.2436480  )
        13           O   tau(  13) = (  0.2649880  0.2734840  0.9720940  )
        14           O   tau(  14) = (  0.2350540  0.7734280  0.4721480  )
        15           O   tau(  15) = (  0.7743200  0.2164520  0.5317720  )
        16           O   tau(  16) = (  0.7256740  0.7164850  0.0317170  )
        17           O   tau(  17) = (  0.7172410  0.7268440  0.4683030  )
        18           O   tau(  18) = (  0.7827860  0.2268250  0.9682470  )
        19           O   tau(  19) = (  0.2269240  0.7639990  0.0274650  )
        20           O   tau(  20) = (  0.2730660  0.2639560  0.5275290  )

     number of k points=     1  Methfessel-Paxton smearing, width (Ry)=  0.0010
                       cart. coord. in units 2pi/alat
        k(    1) = (   0.0000000   0.0000000   0.0000000), wk =   2.0000000

                       cryst. coord.
        k(    1) = (   0.0000000   0.0000000   0.0000000), wk =   2.0000000

     Check: negative core charge=   -0.000070

     Initial potential from superposition of free atoms

     starting charge     174.9146, renormalised to     176.0000

     negative rho (up, down):  1.266E-01 0.000E+00
     Starting wfcs are  190 randomized atomic wfcs
     Checking if some PAW data can be deallocated...

     Self-consistent Calculation

     iteration #  1     ecut=    30.00 Ry     beta= 0.70
     Davidson diagonalization with overlap

     ethr =  1.00E-02,  avg # of iterations =  2.0

     negative rho (up, down):  1.287E-01 0.000E+00

     total energy              =   -2629.67225781 Ry
     estimated scf accuracy    <      11.17051094 Ry

[...]

     c_bands:  1 eigenvalues not converged
     ethr =  1.41E-06,  avg # of iterations = 20.0

[...]

     total energy              =   -2637.38821256 Ry
     estimated scf accuracy    <       0.00002402 Ry

     iteration # 30     ecut=    30.00 Ry     beta= 0.70
     Davidson diagonalization with overlap

     ethr =  2.77E-09,  avg # of iterations =  1.0

[...]

     End of self-consistent calculation

          k = 0.0000 0.0000 0.0000 (  2247 PWs)   bands (ev):

   -75.8490 -75.8437 -68.7278 -68.7267 -41.5451 -41.5402 -41.4722 -41.4575
   -41.2248 -41.2026 -37.6681 -37.6618 -37.3452 -37.3438 -37.2202 -37.2182
   -21.8609 -21.8570 -19.8542 -19.8465  -7.2944  -6.9636  -6.6317  -6.4789
    -6.3885  -6.1899  -6.0631  -5.9754  -5.9360  -5.8876  -5.8525  -5.7881
    -4.0116  -3.9961  -3.9166  -3.7857  -3.7299  -3.7106  -3.4952  -3.4838
    -3.4281  -3.0290  -2.9016  -2.7814   5.3146   5.6765   6.0973   6.2015
     6.4929   6.6160   6.6519   7.1418   7.1846   7.1918   7.2428   7.3261
     7.4989   7.5604   7.6105   7.6462   7.6787   8.1513   8.2008   8.2844
     8.3049   8.4259   9.1009   9.1292   9.2882   9.3143   9.4423   9.7296
     9.8263   9.8666   9.9522  10.0481  10.1444  10.2406  10.2958  10.3567
    10.4545  10.4722  10.5659  10.6117  11.2989  11.4163  11.4236  11.5419
    11.7139  11.7499  11.9109  11.9349  12.2087  12.2798  12.3489  12.6073
    13.5941  15.0490  15.0913  15.1156  15.1304  15.1784  15.2043  15.2206
    15.2277  15.2664

     occupation numbers
     1.0000   1.0000   1.0000   1.0000   1.0000   1.0000   1.0000   1.0000
     1.0000   1.0000   1.0000   1.0000   1.0000   1.0000   1.0000   1.0000
     1.0000   1.0000   1.0000   1.0000   1.0000   1.0000   1.0000   1.0000
     1.0000   1.0000   1.0000   1.0000   1.0000   1.0000   1.0000   1.0000
     1.0000   1.0000   1.0000   1.0000   1.0000   1.0000   1.0000   1.0000
     1.0000   1.0000   1.0000   1.0000   1.0000   1.0000   1.0000   1.0000
     1.0000   1.0000   1.0000   1.0000   1.0000   1.0000   1.0000   1.0000
     1.0000   1.0000   1.0000   1.0000   1.0000   1.0000   1.0000   1.0000
     1.0000   1.0000   1.0000   1.0000   1.0000   1.0000   1.0000   1.0000
     1.0000   1.0000   1.0000   1.0000   1.0000   1.0000   1.0000   1.0000
     1.0000   1.0000   1.0000   1.0000   1.0000   1.0000   1.0000   1.0000
    -0.0000  -0.0000  -0.0000  -0.0000  -0.0000  -0.0000  -0.0000  -0.0000
    -0.0000  -0.0000  -0.0000  -0.0000  -0.0000  -0.0000  -0.0000  -0.0000
    -0.0000  -0.0000

     the Fermi energy is    11.6095 ev

!    total energy              =   -2637.38821244 Ry
     estimated scf accuracy    <       0.00000090 Ry
     smearing contrib. (-TS)   =       0.00000000 Ry
     internal energy E=F+TS    =   -2637.38821244 Ry

     The total energy is F=E-TS. E is the sum of the following terms:
     one-electron contribution =    -699.93305643 Ry
     hartree contribution      =     458.37594704 Ry
     xc contribution           =    -265.46297247 Ry
     ewald contribution        =   -1067.73002705 Ry
     one-center paw contrib.   =   -1062.63810353 Ry
      -> PAW hartree energy AE =     833.69467466 Ry
      -> PAW hartree energy PS =    -830.96383757 Ry
      -> PAW xc energy AE      =   -1237.80330186 Ry
      -> PAW xc energy PS      =     172.43436125 Ry
      -> total E_H with PAW    =     461.10678412 Ry
      -> total E_XC with PAW   =   -1330.83191308 Ry

     convergence has been achieved in  30 iterations

     negative rho (up, down):  1.329E-01 0.000E+00

     Forces acting on atoms (cartesian axes, Ry/au):

     atom    1 type  1   force =     0.00698100   -0.01447873   -0.00146091
     atom    2 type  1   force =    -0.00700380   -0.01448728   -0.00135280
     atom    3 type  2   force =     0.01313427    0.01470687    0.00215177
     atom    4 type  2   force =    -0.01316218    0.01478071    0.00235279
     atom    5 type  3   force =     0.00764584   -0.00586188    0.01078191
     atom    6 type  3   force =    -0.00744067   -0.00555911    0.01103240
     atom    7 type  4   force =    -0.01219097   -0.00381030   -0.00130259
     atom    8 type  4   force =     0.01250360   -0.00369286   -0.00105072
     atom    9 type  5   force =    -0.02076555    0.02989772    0.02824798
     atom   10 type  5   force =     0.02066480    0.02968720    0.02798894
     atom   11 type  5   force =    -0.00781376   -0.04494758   -0.03370004
     atom   12 type  5   force =     0.00780676   -0.04496434   -0.03369994
     atom   13 type  5   force =     0.00295096    0.03355948   -0.04179595
     atom   14 type  5   force =    -0.00307306    0.03339310   -0.04214796
     atom   15 type  5   force =    -0.01545510   -0.02412940    0.03741111
     atom   16 type  5   force =     0.01541552   -0.02430921    0.03737820
     atom   17 type  5   force =    -0.02465274    0.00793267   -0.03770362
     atom   18 type  5   force =     0.02475940    0.00811506   -0.03727469
     atom   19 type  5   force =    -0.03513275    0.00710479    0.03702632
     atom   20 type  5   force =     0.03482843    0.00706310    0.03711780
     The non-local contrib.  to forces
     atom    1 type  1   force =    -0.00210687    0.00904672   -0.00022917
     atom    2 type  1   force =     0.00217650    0.00909590   -0.00004932
     atom    3 type  2   force =    -0.00993308   -0.02708648   -0.00135083
     atom    4 type  2   force =     0.01003017   -0.02716617   -0.00120154
     atom    5 type  3   force =    -0.00469526    0.02168681    0.00265967
     atom    6 type  3   force =     0.00421611    0.02118434    0.00298007
     atom    7 type  4   force =     0.00270417    0.00821533    0.00444872
     atom    8 type  4   force =    -0.00259306    0.00767933    0.00404256
     atom    9 type  5   force =     0.06086424   -0.26507030    0.15485688
     atom   10 type  5   force =    -0.06182477   -0.26462509    0.15627684
     atom   11 type  5   force =     0.03321729    0.31060535   -0.16018530
     atom   12 type  5   force =    -0.03309475    0.30958053   -0.16144176
     atom   13 type  5   force =    -0.20777339   -0.00780178    0.15612285
     atom   14 type  5   force =     0.20826788   -0.00681594    0.15624114
     atom   15 type  5   force =    -0.16925569   -0.00327652   -0.15723577
     atom   16 type  5   force =     0.17082861   -0.00465256   -0.15502006
     atom   17 type  5   force =    -0.01545689    0.19347196    0.15162119
     atom   18 type  5   force =     0.01415470    0.19450635    0.15113954
     atom   19 type  5   force =     0.01785456   -0.23505428   -0.17126704
     atom   20 type  5   force =    -0.01848799   -0.23404894   -0.17346955
     The ionic contribution  to forces
     atom    1 type  1   force =    -0.62282188    0.21902385   -0.06600182
     atom    2 type  1   force =     0.62378857    0.21913121   -0.06565076
     atom    3 type  2   force =    -1.63952551   -0.50737804    0.02217860
     atom    4 type  2   force =     1.64122222   -0.50586817    0.02070545
     atom    5 type  3   force =    -0.75251320    0.15460634   -0.33155653
     atom    6 type  3   force =     0.75129775    0.15737065   -0.34418534
     atom    7 type  4   force =     0.66694234    0.10792805    0.33751298
     atom    8 type  4   force =    -0.66559915    0.11643139    0.29552157
     atom    9 type  5   force =     0.02255306    2.05223135   -1.17860514
     atom   10 type  5   force =    -0.02063491    2.05086160   -1.19994110
     atom   11 type  5   force =     0.44243268   -2.03347105    1.25754778
     atom   12 type  5   force =    -0.44092505   -2.03186151    1.28022601
     atom   13 type  5   force =     1.42032968    0.21311342   -1.23411426
     atom   14 type  5   force =    -1.43080949    0.20160248   -1.24008981
     atom   15 type  5   force =     1.29799549   -0.35986511    1.23584654
     atom   16 type  5   force =    -1.30765997   -0.35240509    1.24222007
     atom   17 type  5   force =    -0.14873747   -1.41787492   -1.22376111
     atom   18 type  5   force =     0.15755173   -1.41552280   -1.21717857
     atom   19 type  5   force =    -0.16058652    1.56614942    1.20773416
     atom   20 type  5   force =     0.16569962    1.56579694    1.20159128
     The local contribution  to forces
     atom    1 type  1   force =     0.63156212   -0.24194990    0.06436132
     atom    2 type  1   force =    -0.63265186   -0.24206739    0.06482017
     atom    3 type  2   force =     1.66275248    0.54926210   -0.01915098
     atom    4 type  2   force =    -1.66450530    0.54789495   -0.01671394
     atom    5 type  3   force =     0.76474028   -0.18099056    0.34055499
     atom    6 type  3   force =    -0.76291976   -0.18303854    0.35256953
     atom    7 type  4   force =    -0.68173589   -0.11902039   -0.34363660
     atom    8 type  4   force =     0.68061651   -0.12689383   -0.30155257
     atom    9 type  5   force =    -0.10314132   -1.76122236    1.05247332
     atom   10 type  5   force =     0.10211238   -1.76065543    1.07297591
     atom   11 type  5   force =    -0.48269509    1.68210341   -1.13242836
     atom   12 type  5   force =     0.48101568    1.68138899   -1.15299132
     atom   13 type  5   force =    -1.21142883   -0.17274351    1.03828388
     atom   14 type  5   force =     1.22169407   -0.16199605    1.04374365
     atom   15 type  5   force =    -1.14611438    0.33965515   -1.04360682
     atom   16 type  5   force =     1.15381179    0.33374439   -1.05199428
     atom   17 type  5   force =     0.14014561    1.23458241    1.03661813
     atom   18 type  5   force =    -0.14784883    1.23094019    1.03104109
     atom   19 type  5   force =     0.10874426   -1.32613633   -1.00168591
     atom   20 type  5   force =    -0.11321160   -1.32725024   -0.99342169
     The core correction contribution to forces
     atom    1 type  1   force =     0.00024752   -0.00070111   -0.00002390
     atom    2 type  1   force =    -0.00025162   -0.00070344   -0.00007366
     atom    3 type  2   force =    -0.00003662    0.00001580    0.00000253
     atom    4 type  2   force =     0.00003669    0.00001579    0.00000307
     atom    5 type  3   force =     0.00021609   -0.00131363   -0.00027468
     atom    6 type  3   force =    -0.00019054   -0.00126911   -0.00028551
     atom    7 type  4   force =    -0.00023183   -0.00093005    0.00027434
     atom    8 type  4   force =     0.00024277   -0.00085468    0.00026376
     atom    9 type  5   force =    -0.00099431    0.00398602   -0.00147034
     atom   10 type  5   force =     0.00100998    0.00397998   -0.00148038
     atom   11 type  5   force =    -0.00086773   -0.00405826    0.00148658
     atom   12 type  5   force =     0.00086761   -0.00405140    0.00148449
     atom   13 type  5   force =     0.00243641    0.00037698   -0.00216609
     atom   14 type  5   force =    -0.00244196    0.00037142   -0.00215527
     atom   15 type  5   force =     0.00215898   -0.00045959    0.00236658
     atom   16 type  5   force =    -0.00217433   -0.00044521    0.00236177
     atom   17 type  5   force =    -0.00034094   -0.00245818   -0.00228140
     atom   18 type  5   force =     0.00035896   -0.00246923   -0.00231219
     atom   19 type  5   force =    -0.00055203    0.00274732    0.00236099
     atom   20 type  5   force =     0.00055966    0.00273478    0.00236884
     The Hubbard contrib.    to forces
     atom    1 type  1   force =     0.00000000    0.00000000    0.00000000
     atom    2 type  1   force =     0.00000000    0.00000000    0.00000000
     atom    3 type  2   force =     0.00000000    0.00000000    0.00000000
     atom    4 type  2   force =     0.00000000    0.00000000    0.00000000
     atom    5 type  3   force =     0.00000000    0.00000000    0.00000000
     atom    6 type  3   force =     0.00000000    0.00000000    0.00000000
     atom    7 type  4   force =     0.00000000    0.00000000    0.00000000
     atom    8 type  4   force =     0.00000000    0.00000000    0.00000000
     atom    9 type  5   force =     0.00000000    0.00000000    0.00000000
     atom   10 type  5   force =     0.00000000    0.00000000    0.00000000
     atom   11 type  5   force =     0.00000000    0.00000000    0.00000000
     atom   12 type  5   force =     0.00000000    0.00000000    0.00000000
     atom   13 type  5   force =     0.00000000    0.00000000    0.00000000
     atom   14 type  5   force =     0.00000000    0.00000000    0.00000000
     atom   15 type  5   force =     0.00000000    0.00000000    0.00000000
     atom   16 type  5   force =     0.00000000    0.00000000    0.00000000
     atom   17 type  5   force =     0.00000000    0.00000000    0.00000000
     atom   18 type  5   force =     0.00000000    0.00000000    0.00000000
     atom   19 type  5   force =     0.00000000    0.00000000    0.00000000
     atom   20 type  5   force =     0.00000000    0.00000000    0.00000000
     The SCF correction term to forces
     atom    1 type  1   force =     0.00010521    0.00009009    0.00041134
     atom    2 type  1   force =    -0.00006029    0.00004482   -0.00042055
     atom    3 type  2   force =    -0.00011791   -0.00011815    0.00045113
     atom    4 type  2   force =     0.00005913   -0.00010732   -0.00046158
     atom    5 type  3   force =    -0.00009697    0.00013752   -0.00062287
     atom    6 type  3   force =     0.00016087    0.00018192   -0.00006769
     atom    7 type  4   force =     0.00013535   -0.00001487    0.00007662
     atom    8 type  4   force =    -0.00015836   -0.00006671    0.00065262
     atom    9 type  5   force =    -0.00004212   -0.00003862    0.00097193
     atom   10 type  5   force =     0.00000721    0.00011451    0.00013634
     atom   11 type  5   force =     0.00010419   -0.00013867   -0.00014207
     atom   12 type  5   force =    -0.00005162   -0.00003257   -0.00099870
     atom   13 type  5   force =    -0.00060780    0.00060274    0.00005635
     atom   14 type  5   force =     0.00022154    0.00021956    0.00009100
     atom   15 type  5   force =    -0.00023441   -0.00019495    0.00001925
     atom   16 type  5   force =     0.00061451   -0.00056236   -0.00021063
     atom   17 type  5   force =    -0.00025795    0.00019978    0.00007824
     atom   18 type  5   force =     0.00054793    0.00064891    0.00001411
     atom   19 type  5   force =    -0.00058792   -0.00061297   -0.00013721
     atom   20 type  5   force =     0.00027384   -0.00018107    0.00002759

     Total force =     0.180004     Total SCF correction =     0.002679

     Computing stress (Cartesian axis) and pressure

     negative rho (up, down):  1.329E-01 0.000E+00
          total   stress  (Ry/bohr**3)                   (kbar)     P=     -527.66
  -0.00324495  -0.00000033   0.00000012         -477.35       -0.05        0.02
  -0.00000033  -0.00330623   0.00003795           -0.05     -486.36        5.58
   0.00000012   0.00003795  -0.00420972            0.02        5.58     -619.27

     kinetic stress (kbar)  28295.80      0.09      0.02
                                0.09  28396.09     29.21
                                0.02     29.21  27994.02

     local   stress (kbar)  -7413.09      0.06      0.17
                                0.06  -8783.05    100.44
                                0.17    100.44  -8239.05

     nonloc. stress (kbar)   5011.72     -0.01      0.02
                               -0.01   5006.77      9.58
                                0.02      9.58   4938.95

     hartree stress (kbar)  13620.88     -0.04     -0.08
                               -0.04  14101.34    -46.09
                               -0.08    -46.09  14027.40

     exc-cor stress (kbar)  -2564.25      0.00      0.00
                                0.00  -2560.66     -0.71
                                0.00     -0.71  -2562.60

     corecor stress (kbar)  -4533.80     -0.00     -0.01
                               -0.00  -4537.04      1.05
                               -0.01      1.05  -4531.84

     ewald   stress (kbar) -32894.61     -0.15     -0.10
                               -0.15 -32109.82    -87.89
                               -0.10    -87.89 -32246.15

     hubbard stress (kbar)      0.00      0.00      0.00
                                0.00      0.00      0.00
                                0.00      0.00      0.00

     DFT-D   stress (kbar)      0.00      0.00      0.00
                                0.00      0.00      0.00
                                0.00      0.00      0.00

     XDM     stress (kbar)      0.00      0.00      0.00
                                0.00      0.00      0.00
                                0.00      0.00      0.00

     dft-nl  stress (kbar)      0.00      0.00      0.00
                                0.00      0.00      0.00
                                0.00      0.00      0.00

     TS-vdW  stress (kbar)      0.00      0.00      0.00
                                0.00      0.00      0.00
                                0.00      0.00      0.00

[...]

                                0.00      0.00      0.00

     Writing all to output data dir new_calculations/myprefix.save/

     General routines

     Parallel routines

     PAW routines

   This run was terminated on:   5:44:15  21May2023

   JOB DONE.