     Program PWSCF v.7.0 starts on 20May2023 at 20:24:42

     Reading input from espresso_787.pwi
Warning: card &CELL ignored
Warning: card / ignored

     Current dimensions of program PWSCF are:
     Max number of different atomic species (ntypx) = 10
     Max number of k-points (npk) =  40000
     Max angular momentum in pseudopotentials (lmaxx) =  4
     file K.pbe-spn-kjpaw_psl.1.0.0.UPF: wavefunction(s)  3S renormalized
     file O.pbe-n-kjpaw_psl.0.1.UPF: wavefunction(s)  2P renormalized

     gamma-point specific algorithms are used
     Message from routine setup:
     using ibrav=0 with symmetry is DISCOURAGED, use correct ibrav instead

     Subspace diagonalization in iterative solution of the eigenvalue problem:
     a serial algorithm will be used

     Using Slab Decomposition

     bravais-lattice index     =            0
     lattice parameter (alat)  =      21.4260  a.u.
     unit-cell volume          =    1155.4477 (a.u.)^3
     number of atoms/cell      =           11
     number of atomic types    =            4
     number of electrons       =        88.00
     number of Kohn-Sham states=           53
     kinetic-energy cutoff     =      30.0000  Ry
     charge density cutoff     =     240.0000  Ry
     scf convergence threshold =      1.0E-06
     mixing beta               =       0.7000
     number of iterations used =            8  plain     mixing
     Exchange-correlation= SLA  PW   PBX  PBC
                           (   1   4   3   4   0   0   0)

     celldm(1)=  21.426000  celldm(2)=   0.000000  celldm(3)=   0.000000
     celldm(4)=   0.000000  celldm(5)=   0.000000  celldm(6)=   0.000000

     crystal axes: (cart. coord. in units of alat)
               a(1) = (   1.000000   0.000000   0.000000 )
               a(2) = (  -0.940178   0.340684   0.000000 )
               a(3) = (   0.000000   0.000000   0.344807 )

     reciprocal axes: (cart. coord. in units 2 pi/alat)
               b(1) = (  1.000000  2.759681  0.000000 )
               b(2) = (  0.000000  2.935275  0.000000 )
               b(3) = (  0.000000  0.000000  2.900175 )

     PseudoPot. # 1 for K  read from file:
     /home/pragov/projects/rrg-bengioy-ad/pragov/crystal_structure_design/SSSP/K.pbe-spn-kjpaw_psl.1.0.0.UPF
     MD5 check sum: 7d58810084cac21f60fbe77ea2b688fd
     Pseudo is Projector augmented-wave + core cor, Zval =  9.0
     Generated using "atomic" code by A. Dal Corso  v.5.1
     Shape of augmentation charge: PSQ
     Using radial grid of 1165 points,  6 beta functions with:
                l(1) =   0
                l(2) =   0
                l(3) =   1
                l(4) =   1
                l(5) =   2
                l(6) =   2
     Q(r) pseudized with 0 coefficients

     PseudoPot. # 2 for La read from file:
     /home/pragov/projects/rrg-bengioy-ad/pragov/crystal_structure_design/SSSP/La.GGA-PBE-paw-v1.0.UPF
     MD5 check sum: 436541e95c1ad8901025bd0b0ed42ae2
     Pseudo is Projector augmented-wave + core cor, Zval = 11.0
     Generated using ATOMPAW code
     Shape of augmentation charge: BESSEL
     Using radial grid of 1101 points,  8 beta functions with:
                l(1) =   0
                l(2) =   0
                l(3) =   1
                l(4) =   1
                l(5) =   2
                l(6) =   2
                l(7) =   3
                l(8) =   3
     Q(r) pseudized with 0 coefficients

     PseudoPot. # 3 for Ta read from file:
     /home/pragov/projects/rrg-bengioy-ad/pragov/crystal_structure_design/SSSP/Ta_pbe_v1.uspp.F.UPF
     MD5 check sum: f8bbe9446314a3b8ea5d9f3e3836c939
     Pseudo is Ultrasoft + core correction, Zval = 13.0
     Generated by new atomic code, or converted to UPF format
     Using radial grid of  921 points,  7 beta functions with:
                l(1) =   0
                l(2) =   0
                l(3) =   1
                l(4) =   1
                l(5) =   2
                l(6) =   2
                l(7) =   3
     Q(r) pseudized with  6 coefficients,  rinner =    1.300   1.300   1.300
                                                       1.300   1.300   1.300
                                                       1.300

     PseudoPot. # 4 for O  read from file:
     /home/pragov/projects/rrg-bengioy-ad/pragov/crystal_structure_design/SSSP/O.pbe-n-kjpaw_psl.0.1.UPF
     MD5 check sum: 0234752ac141de4415c5fc33072bef88
     Pseudo is Projector augmented-wave + core cor, Zval =  6.0
     Generated using "atomic" code by A. Dal Corso  v.5.0.99 svn rev. 10869
     Shape of augmentation charge: BESSEL
     Using radial grid of 1095 points,  4 beta functions with:
                l(1) =   0
                l(2) =   0
                l(3) =   1
                l(4) =   1
     Q(r) pseudized with 0 coefficients

     atomic species   valence    mass     pseudopotential
        K              9.00    39.09830     K ( 1.00)
        La            11.00   138.90547     La( 1.00)
        Ta            13.00   180.94788     Ta( 1.00)
        O              6.00    15.99900     O ( 1.00)

      2 Sym. Ops. (no inversion) found

                                    s                        frac. trans.

      isym =  1     identity

 cryst.   s( 1) = (     1          0          0      )
                  (     0          1          0      )
                  (     0          0          1      )

 cart.    s( 1) = (  1.0000000  0.0000000  0.0000000 )
                  (  0.0000000  1.0000000  0.0000000 )
                  (  0.0000000  0.0000000  1.0000000 )

      isym =  2     inv. 180 deg rotation - cart. axis [0,0,1]

 cryst.   s( 2) = (     1          0          0      )
                  (     0          1          0      )
                  (     0          0         -1      )

 cart.    s( 2) = (  1.0000000  0.0000000  0.0000000 )
                  (  0.0000000  1.0000000  0.0000000 )
                  (  0.0000000  0.0000000 -1.0000000 )

   Cartesian axes

     site n.     atom                  positions (alat units)
         1           K   tau(   1) = (   0.5441823   0.0800388   0.0000000  )
         2           La  tau(   2) = (  -0.9381137   0.3403211   0.0000000  )
         3           Ta  tau(   3) = (   0.2309212   0.1350456   0.1724034  )
         4           Ta  tau(   4) = (  -0.1688971   0.2052513   0.1724034  )
         5           O   tau(   5) = (   0.1912756   0.1420071   0.0000000  )
         6           O   tau(   6) = (  -0.1329631   0.1989415   0.0000000  )
         7           O   tau(   7) = (   0.3863974   0.1077449   0.1724034  )
         8           O   tau(   8) = (  -0.3262940   0.2328893   0.1724034  )
         9           O   tau(   9) = (   0.8355001   0.0288852   0.1724034  )
        10           O   tau(  10) = (  -0.7778142   0.3121735   0.1724034  )
        11           O   tau(  11) = (   0.0288866   0.1705217   0.1724034  )

   Crystallographic axes

     site n.     atom                  positions (cryst. coord.)
         1           K   tau(   1) = (  0.7650640  0.2349360  0.0000000  )
         2           La  tau(   2) = (  0.0010640  0.9989360  0.0000000  )
         3           Ta  tau(   3) = (  0.6036040  0.3963960  0.5000000  )
         4           Ta  tau(   4) = (  0.3975310  0.6024690  0.5000000  )
         5           O   tau(   5) = (  0.5831700  0.4168300  0.0000000  )
         6           O   tau(   6) = (  0.4160520  0.5839480  0.0000000  )
         7           O   tau(   7) = (  0.6837390  0.3162610  0.5000000  )
         8           O   tau(   8) = (  0.3164060  0.6835940  0.5000000  )
         9           O   tau(   9) = (  0.9152140  0.0847860  0.5000000  )
        10           O   tau(  10) = (  0.0836850  0.9163150  0.5000000  )
        11           O   tau(  11) = (  0.4994720  0.5005280  0.5000000  )

     number of k points=     1  Methfessel-Paxton smearing, width (Ry)=  0.0010
                       cart. coord. in units 2pi/alat
        k(    1) = (   0.0000000   0.0000000   0.0000000), wk =   2.0000000

                       cryst. coord.
        k(    1) = (   0.0000000   0.0000000   0.0000000), wk =   2.0000000

     Check: negative core charge=   -0.000008

     Initial potential from superposition of free atoms

     starting charge      87.9704, renormalised to      88.0000

     negative rho (up, down):  1.869E-01 0.000E+00
     Starting wfcs are   94 randomized atomic wfcs
     Checking if some PAW data can be deallocated...

     Self-consistent Calculation

     iteration #  1     ecut=    30.00 Ry     beta= 0.70
     Davidson diagonalization with overlap

     ethr =  1.00E-02,  avg # of iterations =  2.0

     negative rho (up, down):  1.892E-01 0.000E+00

     total energy              =   -1144.19662234 Ry
     estimated scf accuracy    <       4.61719060 Ry

[...]

     total energy              =   -1146.57476762 Ry
     estimated scf accuracy    <       0.00002346 Ry

     iteration # 13     ecut=    30.00 Ry     beta= 0.70
     Davidson diagonalization with overlap

     ethr =  2.67E-08,  avg # of iterations =  6.0

[...]

     End of self-consistent calculation

          k = 0.0000 0.0000 0.0000 (  1620 PWs)   bands (ev):

   -60.9739 -60.9512 -27.6252 -27.6146 -27.6068 -27.5822 -27.1990 -27.1828
   -22.5102 -20.8531 -10.6350 -10.3170  -9.7576  -9.6558  -8.8306  -8.7379
    -7.0800  -6.0153  -6.0056  -5.8741  -4.3277  -4.3162  -4.2077   3.6857
     3.7108   3.7671   3.9702   4.0401   4.3179   4.8880   5.0106   5.3993
     5.4327   5.4410   5.5278   5.6158   5.6372   6.3513   6.3914   6.4597
     6.4757   7.7248   8.0467   8.0618   8.9861   9.0305  11.9058  12.0062
    12.0854  12.4257  12.4735  12.5343  12.6996

     occupation numbers
     1.0000   1.0000   1.0000   1.0000   1.0000   1.0000   1.0000   1.0000
     1.0000   1.0000   1.0000   1.0000   1.0000   1.0000   1.0000   1.0000
     1.0000   1.0000   1.0000   1.0000   1.0000   1.0000   1.0000   1.0000
     1.0000   1.0000   1.0000   1.0000   1.0000   1.0000   1.0000   1.0000
     1.0000   1.0000   1.0000   1.0000   1.0000   1.0000   1.0000   1.0000
     1.0000   1.0000   1.0000   1.0000  -0.0000  -0.0000  -0.0000  -0.0000
    -0.0000  -0.0000  -0.0000  -0.0000  -0.0000

     the Fermi energy is     8.2141 ev

!    total energy              =   -1146.57477215 Ry
     estimated scf accuracy    <       0.00000070 Ry
     smearing contrib. (-TS)   =       0.00000000 Ry
     internal energy E=F+TS    =   -1146.57477215 Ry

     The total energy is F=E-TS. E is the sum of the following terms:
     one-electron contribution =    -351.42465128 Ry
     hartree contribution      =     220.64964807 Ry
     xc contribution           =    -157.07331571 Ry
     ewald contribution        =    -338.62237723 Ry
     one-center paw contrib.   =    -520.10407601 Ry
      -> PAW hartree energy AE =     286.74921827 Ry
      -> PAW hartree energy PS =    -285.77180552 Ry
      -> PAW xc energy AE      =    -592.81365530 Ry
      -> PAW xc energy PS      =      71.73216654 Ry
      -> total E_H with PAW    =     221.62706083 Ry
      -> total E_XC with PAW   =    -678.15480447 Ry

     convergence has been achieved in  13 iterations

     negative rho (up, down):  1.934E-01 0.000E+00

     Forces acting on atoms (cartesian axes, Ry/au):

     atom    1 type  1   force =    -0.01476427    0.00259270    0.00000000
     atom    2 type  2   force =     0.00421602   -0.00073912    0.00000000
     atom    3 type  3   force =     0.45230163   -0.07945795    0.00000000
     atom    4 type  3   force =    -0.46731915    0.08204879    0.00000000
     atom    5 type  4   force =    -0.26631819    0.04676580    0.00000000
     atom    6 type  4   force =     0.27061398   -0.04751550    0.00000000
     atom    7 type  4   force =    -0.01663803    0.00292031    0.00000000
     atom    8 type  4   force =     0.04606023   -0.00809231    0.00000000
     atom    9 type  4   force =     0.26764274   -0.04697295    0.00000000
     atom   10 type  4   force =    -0.26636743    0.04678326    0.00000000
     atom   11 type  4   force =    -0.00942754    0.00166698    0.00000000
     The non-local contrib.  to forces
     atom    1 type  1   force =     0.05206492   -0.00914201    0.00000000
     atom    2 type  2   force =    -0.01858755    0.00328129    0.00000000
     atom    3 type  3   force =     0.33480403   -0.05880140    0.00000000
     atom    4 type  3   force =    -0.37720909    0.06623850    0.00000000
     atom    5 type  4   force =     1.01282633   -0.17796912    0.00000000
     atom    6 type  4   force =    -1.00071307    0.17573468    0.00000000
     atom    7 type  4   force =    -0.93915934    0.16494797    0.00000000
     atom    8 type  4   force =     0.87031235   -0.15283001    0.00000000
     atom    9 type  4   force =    -0.96263834    0.16908599    0.00000000
     atom   10 type  4   force =     0.97389201   -0.17096425    0.00000000
     atom   11 type  4   force =    -0.02553238    0.00445831    0.00000000
     The ionic contribution  to forces
     atom    1 type  1   force =    -5.16075377    0.90619732   -0.00000000
     atom    2 type  2   force =     1.20354830   -0.21133584   -0.00000000
     atom    3 type  3   force =    26.26168459   -4.61139383    0.00000000
     atom    4 type  3   force =   -23.88270258    4.19365890    0.00000000
     atom    5 type  4   force =     9.72017664   -1.70680455   -0.00000000
     atom    6 type  4   force =    -8.51172068    1.49460695   -0.00000000
     atom    7 type  4   force =    18.10264560   -3.17871567    0.00000000
     atom    8 type  4   force =   -19.92518663    3.49874291    0.00000000
     atom    9 type  4   force =    -8.66870440    1.52217234    0.00000000
     atom   10 type  4   force =     9.97754216   -1.75199638    0.00000000
     atom   11 type  4   force =     0.88347079   -0.15513216    0.00000000
     The local contribution  to forces
     atom    1 type  1   force =     5.09613085   -0.89485503    0.00001235
     atom    2 type  2   force =    -1.18092106    0.20742909    0.00003685
     atom    3 type  3   force =   -26.20438712    4.60129932   -0.00001599
     atom    4 type  3   force =    23.85689856   -4.18914182    0.00004240
     atom    5 type  4   force =   -10.98614859    1.92911682    0.00003697
     atom    6 type  4   force =     9.77012720   -1.71564122   -0.00001830
     atom    7 type  4   force =   -17.18599438    3.01772952    0.00000882
     atom    8 type  4   force =    19.10600836   -3.35488736    0.00001500
     atom    9 type  4   force =     9.88652939   -1.73599825   -0.00003047
     atom   10 type  4   force =   -11.20506474    1.96754515   -0.00005177
     atom   11 type  4   force =    -0.86763954    0.15236151   -0.00008792
     The core correction contribution to forces
     atom    1 type  1   force =    -0.00224778    0.00039443    0.00000023
     atom    2 type  2   force =     0.00002082   -0.00000363    0.00000002
     atom    3 type  3   force =     0.06193337   -0.01087394   -0.00000118
     atom    4 type  3   force =    -0.06575209    0.01154948    0.00000057
     atom    5 type  4   force =    -0.01263229    0.00221923    0.00000013
     atom    6 type  4   force =     0.01244319   -0.00218546    0.00000045
     atom    7 type  4   force =     0.00646484   -0.00113588   -0.00000019
     atom    8 type  4   force =    -0.00566779    0.00099534   -0.00000001
     atom    9 type  4   force =     0.01197929   -0.00210406   -0.00000027
     atom   10 type  4   force =    -0.01220425    0.00214243   -0.00000068
     atom   11 type  4   force =     0.00016577   -0.00002863   -0.00000044
     The Hubbard contrib.    to forces
     atom    1 type  1   force =     0.00000000    0.00000000    0.00000000
     atom    2 type  2   force =     0.00000000    0.00000000    0.00000000
     atom    3 type  3   force =     0.00000000    0.00000000    0.00000000
     atom    4 type  3   force =     0.00000000    0.00000000    0.00000000
     atom    5 type  4   force =     0.00000000    0.00000000    0.00000000
     atom    6 type  4   force =     0.00000000    0.00000000    0.00000000
     atom    7 type  4   force =     0.00000000    0.00000000    0.00000000
     atom    8 type  4   force =     0.00000000    0.00000000    0.00000000
     atom    9 type  4   force =     0.00000000    0.00000000    0.00000000
     atom   10 type  4   force =     0.00000000    0.00000000    0.00000000
     atom   11 type  4   force =     0.00000000    0.00000000    0.00000000
     The SCF correction term to forces
     atom    1 type  1   force =     0.00005945    0.00000073   -0.00000525
     atom    2 type  2   force =     0.00017345   -0.00010728   -0.00002621
     atom    3 type  3   force =    -0.00171530    0.00031465    0.00002789
     atom    4 type  3   force =     0.00146399   -0.00025354   -0.00004370
     atom    5 type  4   force =    -0.00052234    0.00020616   -0.00003358
     atom    6 type  4   force =     0.00049529   -0.00002771    0.00003508
     atom    7 type  4   force =    -0.00057681    0.00009711   -0.00000477
     atom    8 type  4   force =     0.00061187   -0.00011045   -0.00001282
     atom    9 type  4   force =     0.00049473   -0.00012624   -0.00003033
     atom   10 type  4   force =    -0.00051467    0.00005904    0.00002332
     atom   11 type  4   force =     0.00012577    0.00001068    0.00006152

     Total force =     0.856970     Total SCF correction =     0.002672

     Computing stress (Cartesian axis) and pressure

     negative rho (up, down):  1.934E-01 0.000E+00
          total   stress  (Ry/bohr**3)                   (kbar)     P=     -170.20
  -0.00220650   0.00028456   0.00000000         -324.59       41.86        0.00
   0.00028456  -0.00063609   0.00000000           41.86      -93.57        0.00
   0.00000000   0.00000000  -0.00062839            0.00        0.00      -92.44

     kinetic stress (kbar)  20612.80     -3.67      0.00
                               -3.67  20592.43      0.00
                                0.00      0.00  20593.11

     local   stress (kbar)  16107.60  -6796.04      0.00
                            -6796.04 -21402.11      0.00
                                0.00      0.00 -25192.39

     nonloc. stress (kbar)   -936.85     38.27      0.00
                               38.27   -725.62      0.00
                                0.00      0.00   -727.28

     hartree stress (kbar)  -3275.54   3287.86      0.00
                             3287.86  14871.32     -0.00
                                0.00     -0.00  16496.09

     exc-cor stress (kbar)   3283.99     -2.78      0.00
                               -2.78   3268.66     -0.00
                                0.00     -0.00   3269.85

     corecor stress (kbar)  -8086.33      2.10      0.00
                                2.10  -8074.71      0.00
                                0.00      0.00  -8074.13

     ewald   stress (kbar) -28030.26   3516.12     -0.00
                             3516.12  -8623.54     -0.00
                               -0.00     -0.00  -6457.69

     hubbard stress (kbar)      0.00      0.00      0.00
                                0.00      0.00      0.00
                                0.00      0.00      0.00

     DFT-D   stress (kbar)      0.00      0.00      0.00
                                0.00      0.00      0.00
                                0.00      0.00      0.00

     XDM     stress (kbar)      0.00      0.00      0.00
                                0.00      0.00      0.00
                                0.00      0.00      0.00

     dft-nl  stress (kbar)      0.00      0.00      0.00
                                0.00      0.00      0.00
                                0.00      0.00      0.00

     TS-vdW  stress (kbar)      0.00      0.00      0.00
                                0.00      0.00      0.00
                                0.00      0.00      0.00

[...]

                                0.00      0.00      0.00

     Writing all to output data dir new_calculations/myprefix.save/

     General routines

     Parallel routines

     PAW routines

   This run was terminated on:  20:25: 9  20May2023

   JOB DONE.