     Program PWSCF v.7.0 starts on 20May2023 at 21:38:19

     Reading input from espresso_15327.pwi
Warning: card &CELL ignored
Warning: card / ignored

     Current dimensions of program PWSCF are:
     Max number of different atomic species (ntypx) = 10
     Max number of k-points (npk) =  40000
     Max angular momentum in pseudopotentials (lmaxx) =  4

     gamma-point specific algorithms are used
     Message from routine setup:
     using ibrav=0 with symmetry is DISCOURAGED, use correct ibrav instead

     Subspace diagonalization in iterative solution of the eigenvalue problem:
     a serial algorithm will be used

     Using Slab Decomposition

     bravais-lattice index     =            0
     lattice parameter (alat)  =      21.4976  a.u.
     unit-cell volume          =     506.2404 (a.u.)^3
     number of atoms/cell      =            5
     number of atomic types    =            2
     number of electrons       =        85.00
     number of Kohn-Sham states=           52
     kinetic-energy cutoff     =      30.0000  Ry
     charge density cutoff     =     240.0000  Ry
     scf convergence threshold =      1.0E-06
     mixing beta               =       0.7000
     number of iterations used =            8  plain     mixing
     Exchange-correlation= PBE
                           (   1   4   3   4   0   0   0)

     celldm(1)=  21.497635  celldm(2)=   0.000000  celldm(3)=   0.000000
     celldm(4)=   0.000000  celldm(5)=   0.000000  celldm(6)=   0.000000

     crystal axes: (cart. coord. in units of alat)
               a(1) = (   1.000000   0.000000   0.000000 )
               a(2) = (   0.970285   0.241963   0.000000 )
               a(3) = (   0.970285   0.119157   0.210589 )

     reciprocal axes: (cart. coord. in units 2 pi/alat)
               b(1) = (  1.000000 -4.010057 -2.338485 )
               b(2) = (  0.000000  4.132863 -2.338485 )
               b(3) = (  0.000000  0.000000  4.748586 )

     PseudoPot. # 1 for V  read from file:
     /home/pragov/projects/rrg-bengioy-ad/pragov/crystal_structure_design/SSSP/v_pbe_v1.4.uspp.F.UPF
     MD5 check sum: 22b79981416ebb76fdaf5b1b8640f6fb
     Pseudo is Ultrasoft + core correction, Zval = 13.0
     Generated by new atomic code, or converted to UPF format
     Using radial grid of  853 points,  6 beta functions with:
                l(1) =   0
                l(2) =   0
                l(3) =   1
                l(4) =   1
                l(5) =   2
                l(6) =   2
     Q(r) pseudized with  8 coefficients,  rinner =    1.100   1.100   1.100
                                                       1.100   1.100

     PseudoPot. # 2 for Pd read from file:
     /home/pragov/projects/rrg-bengioy-ad/pragov/crystal_structure_design/SSSP/Pd_ONCV_PBE-1.0.oncvpsp.upf
     MD5 check sum: eb77f42b51d86fb18e25f68156a31cf1
     Pseudo is Norm-conserving, Zval = 18.0
     Generated using ONCVPSP code by D. R. Hamann
     Using radial grid of 1410 points,  6 beta functions with:
                l(1) =   0
                l(2) =   0
                l(3) =   1
                l(4) =   1
                l(5) =   2
                l(6) =   2

     atomic species   valence    mass     pseudopotential
        V             13.00    50.94150     V ( 1.00)
        Pd            18.00   106.42000     Pd( 1.00)

      2 Sym. Ops., with inversion, found

                                    s                        frac. trans.

      isym =  1     identity

 cryst.   s( 1) = (     1          0          0      )
                  (     0          1          0      )
                  (     0          0          1      )

 cart.    s( 1) = (  1.0000000  0.0000000 -0.0000000 )
                  (  0.0000000  1.0000000  0.0000000 )
                  (  0.0000000  0.0000000  1.0000000 )

      isym =  2     inversion

 cryst.   s( 2) = (    -1          0          0      )
                  (     0         -1          0      )
                  (     0          0         -1      )

 cart.    s( 2) = ( -1.0000000 -0.0000000  0.0000000 )
                  (  0.0000000 -1.0000000 -0.0000000 )
                  (  0.0000000  0.0000000 -1.0000000 )

   Cartesian axes

     site n.     atom                  positions (alat units)
         1           V   tau(   1) = (   0.0000000   0.0000000   0.0000000  )
         2           Pd  tau(   2) = (   1.7766430   0.2181825   0.1272343  )
         3           Pd  tau(   3) = (   0.5912665   0.0726111   0.0423436  )
         4           Pd  tau(   4) = (   2.3493045   0.2885088   0.1682455  )
         5           Pd  tau(   5) = (   1.1639280   0.1429374   0.0833547  )

   Crystallographic axes

     site n.     atom                  positions (cryst. coord.)
         1           V   tau(   1) = (  0.0000000  0.0000000  0.0000000  )
         2           Pd  tau(   2) = (  0.6041830  0.6041830  0.6041830  )
         3           Pd  tau(   3) = (  0.2010720  0.2010720  0.2010720  )
         4           Pd  tau(   4) = (  0.7989280  0.7989280  0.7989280  )
         5           Pd  tau(   5) = (  0.3958170  0.3958170  0.3958170  )

     number of k points=     1  Methfessel-Paxton smearing, width (Ry)=  0.0010
                       cart. coord. in units 2pi/alat
        k(    1) = (   0.0000000   0.0000000   0.0000000), wk =   2.0000000

                       cryst. coord.
        k(    1) = (   0.0000000   0.0000000   0.0000000), wk =   2.0000000

     Check: negative core charge=   -0.000003

     Initial potential from superposition of free atoms

     starting charge      84.9974, renormalised to      85.0000

     negative rho (up, down):  9.570E-04 0.000E+00
     Starting wfcs are   50 randomized atomic wfcs +    2 random wfcs

     Self-consistent Calculation

     iteration #  1     ecut=    30.00 Ry     beta= 0.70
     Davidson diagonalization with overlap

     ethr =  1.00E-02,  avg # of iterations =  3.0

     negative rho (up, down):  3.343E-03 0.000E+00

     total energy              =   -1155.59001253 Ry
     estimated scf accuracy    <       3.14524264 Ry

[...]

     ethr =  3.88E-05,  avg # of iterations =  1.0
     Minimization algorithm failed to find Fermi energy: reverting to bisection
     Possible cause: smearing is larger than the electronic band-gap.

[...]

     ethr =  3.41E-05,  avg # of iterations =  1.0

[...]

     total energy              =   -1157.94811249 Ry
     estimated scf accuracy    <       0.00000658 Ry

     iteration # 34     ecut=    30.00 Ry     beta= 0.70
     Davidson diagonalization with overlap

     ethr =  7.75E-09,  avg # of iterations =  1.0
     Minimization algorithm failed to find Fermi energy: reverting to bisection
     Possible cause: smearing is larger than the electronic band-gap.

[...]

     End of self-consistent calculation

          k = 0.0000 0.0000 0.0000 (   706 PWs)   bands (ev):

   -66.4265 -66.4083 -66.2713 -66.2712 -46.6373 -32.5279 -32.3904 -32.1718
   -32.1681 -31.3326 -31.3325 -31.3143 -31.3143 -31.3000 -31.3000 -31.2960
   -31.2960 -20.3237 -20.2311 -20.2311  11.6010  13.1722  13.1823  13.8854
    13.9941  15.3005  15.4491  16.2915  16.2915  16.5091  16.5091  16.5464
    16.5464  16.7087  16.7087  17.0289  17.0290  17.0544  17.3605  17.3605
    17.5093  17.5094  18.0642  18.0664  18.0664  18.4988  18.4989  18.5364
    19.8281  19.8281  27.1976  28.2077

     occupation numbers
     1.0000   1.0000   1.0000   1.0000   1.0000   1.0000   1.0000   1.0000
     1.0000   1.0000   1.0000   1.0000   1.0000   1.0000   1.0000   1.0000
     1.0000   1.0000   1.0000   1.0000   1.0000   1.0000   1.0000   1.0000
     1.0000   1.0000   1.0000   1.0000   1.0000   1.0000   1.0000   1.0000
     1.0000   1.0000   1.0000   1.0000   1.0000   1.0000   1.0000   1.0000
     1.0000   1.0000   0.2331   0.1336   0.1332  -0.0000  -0.0000  -0.0000
    -0.0000  -0.0000  -0.0000  -0.0000

     the Fermi energy is    18.0597 ev

!    total energy              =   -1157.94811236 Ry
     estimated scf accuracy    <       0.00000019 Ry
     smearing contrib. (-TS)   =      -0.00042212 Ry
     internal energy E=F+TS    =   -1157.94769025 Ry

     The total energy is F=E-TS. E is the sum of the following terms:
     one-electron contribution =    -373.38186629 Ry
     hartree contribution      =     233.66967522 Ry
     xc contribution           =    -118.44849894 Ry
     ewald contribution        =    -899.78700023 Ry

     convergence has been achieved in  34 iterations

     negative rho (up, down):  1.709E-03 0.000E+00

     Forces acting on atoms (cartesian axes, Ry/au):

     atom    1 type  1   force =     0.00000000    0.00000000    0.00000000
     atom    2 type  2   force =     0.02472257    0.00305601    0.00178347
     atom    3 type  2   force =    -0.04665868   -0.00572071   -0.00332755
     atom    4 type  2   force =     0.04665868    0.00572071    0.00332755
     atom    5 type  2   force =    -0.02472257   -0.00305601   -0.00178347
     The non-local contrib.  to forces
     atom    1 type  1   force =     0.00000000    0.00000000    0.00000000
     atom    2 type  2   force =     0.02412538    0.00334303    0.00185683
     atom    3 type  2   force =     0.03336580    0.00437434    0.00248583
     atom    4 type  2   force =    -0.03336580   -0.00437434   -0.00248583
     atom    5 type  2   force =    -0.02412538   -0.00334303   -0.00185683
     The ionic contribution  to forces
     atom    1 type  1   force =    -0.00000000   -0.00000000   -0.00000000
     atom    2 type  2   force =     8.54197139    1.04900588    0.61173365
     atom    3 type  2   force =     4.17652840    0.51290301    0.29910240
     atom    4 type  2   force =    -4.17652839   -0.51290301   -0.29910240
     atom    5 type  2   force =    -8.54197139   -1.04900588   -0.61173365
     The local contribution  to forces
     atom    1 type  1   force =    -0.00063969   -0.00007872   -0.00004626
     atom    2 type  2   force =    -8.54148935   -1.04922885   -0.61179568
     atom    3 type  2   force =    -4.25601721   -0.52289034   -0.30484734
     atom    4 type  2   force =     4.25861874    0.52320726    0.30504682
     atom    5 type  2   force =     8.53960530    1.04899570    0.61166473
     The core correction contribution to forces
     atom    1 type  1   force =    -0.00000007   -0.00000000   -0.00000002
     atom    2 type  2   force =     0.00000000    0.00000000    0.00000000
     atom    3 type  2   force =     0.00000000    0.00000000    0.00000000
     atom    4 type  2   force =     0.00000000    0.00000000    0.00000000
     atom    5 type  2   force =     0.00000000    0.00000000    0.00000000
     The Hubbard contrib.    to forces
     atom    1 type  1   force =     0.00000000    0.00000000    0.00000000
     atom    2 type  2   force =     0.00000000    0.00000000    0.00000000
     atom    3 type  2   force =     0.00000000    0.00000000    0.00000000
     atom    4 type  2   force =     0.00000000    0.00000000    0.00000000
     atom    5 type  2   force =     0.00000000    0.00000000    0.00000000
     The SCF correction term to forces
     atom    1 type  1   force =     0.00062600    0.00007702    0.00004539
     atom    2 type  2   force =     0.00011412   -0.00006411   -0.00001164
     atom    3 type  2   force =    -0.00053064   -0.00010794   -0.00006741
     atom    4 type  2   force =    -0.00206082   -0.00020943   -0.00013002
     atom    5 type  2   force =     0.00176786    0.00029716    0.00014199

     Total force =     0.075426     Total SCF correction =     0.002873

     Computing stress (Cartesian axis) and pressure

     negative rho (up, down):  1.709E-03 0.000E+00
          total   stress  (Ry/bohr**3)                   (kbar)     P=    -1331.13
  -0.00986209  -0.00015345  -0.00008952        -1450.76      -22.57      -13.17
  -0.00015345  -0.00864943  -0.00001050          -22.57    -1272.38       -1.55
  -0.00008952  -0.00001050  -0.00863505          -13.17       -1.55    -1270.26

     kinetic stress (kbar)  69234.77   -536.78   -312.91
                             -536.78  73546.65    -38.57
                             -312.91    -38.57  73589.35

     local   stress (kbar)   -169.58   1568.83    914.70
                             1568.83 -12763.65    112.48
                              914.70    112.48 -12889.32

     nonloc. stress (kbar)  11058.44    100.17     58.46
                              100.17  10252.93      7.13
                               58.46      7.13  10244.93

     hartree stress (kbar)  18894.28   -695.31   -405.48
                             -695.31  24475.19    -49.69
                             -405.48    -49.69  24531.07

     exc-cor stress (kbar) -10116.29     -4.63     -2.70
                               -4.63 -10079.03     -0.33
                               -2.70     -0.33 -10078.66

     corecor stress (kbar)   -757.97     -0.78     -0.46
                               -0.78   -751.69     -0.06
                               -0.46     -0.06   -751.62

     ewald   stress (kbar) -89594.43   -454.06   -264.78
                             -454.06 -85952.79    -32.52
                             -264.78    -32.52 -85916.01

     hubbard stress (kbar)      0.00      0.00      0.00
                                0.00      0.00      0.00
                                0.00      0.00      0.00

     DFT-D   stress (kbar)      0.00      0.00      0.00
                                0.00      0.00      0.00
                                0.00      0.00      0.00

     XDM     stress (kbar)      0.00      0.00      0.00
                                0.00      0.00      0.00
                                0.00      0.00      0.00

     dft-nl  stress (kbar)      0.00      0.00      0.00
                                0.00      0.00      0.00
                                0.00      0.00      0.00

     TS-vdW  stress (kbar)      0.00      0.00      0.00
                                0.00      0.00      0.00
                                0.00      0.00      0.00

[...]

                                0.00      0.00      0.00

     Writing all to output data dir new_calculations/myprefix.save/

     General routines

     Parallel routines

   This run was terminated on:  21:39:34  20May2023

   JOB DONE.