     Program PWSCF v.7.0 starts on 21May2023 at  0: 2:23

     Reading input from espresso_19597.pwi
Warning: card &CELL ignored
Warning: card / ignored

     Current dimensions of program PWSCF are:
     Max number of different atomic species (ntypx) = 10
     Max number of k-points (npk) =  40000
     Max angular momentum in pseudopotentials (lmaxx) =  4
     file Ga.pbe-dn-kjpaw_psl.1.0.0.UPF: wavefunction(s)  4S renormalized
     file O.pbe-n-kjpaw_psl.0.1.UPF: wavefunction(s)  2P renormalized

     gamma-point specific algorithms are used
     Message from routine setup:
     using ibrav=0 with symmetry is DISCOURAGED, use correct ibrav instead

     Subspace diagonalization in iterative solution of the eigenvalue problem:
     a serial algorithm will be used

     Using Slab Decomposition

     bravais-lattice index     =            0
     lattice parameter (alat)  =       8.7923  a.u.
     unit-cell volume          =    1320.3692 (a.u.)^3
     number of atoms/cell      =           18
     number of atomic types    =            3
     number of electrons       =       152.00
     number of Kohn-Sham states=           91
     kinetic-energy cutoff     =      30.0000  Ry
     charge density cutoff     =     240.0000  Ry
     scf convergence threshold =      1.0E-06
     mixing beta               =       0.7000
     number of iterations used =            8  plain     mixing
     Exchange-correlation= SLA  PW   PBX  PBC
                           (   1   4   3   4   0   0   0)

     celldm(1)=   8.792323  celldm(2)=   0.000000  celldm(3)=   0.000000
     celldm(4)=   0.000000  celldm(5)=   0.000000  celldm(6)=   0.000000

     crystal axes: (cart. coord. in units of alat)
               a(1) = (   1.000000   0.000000   0.000000 )
               a(2) = (   0.000000   1.000000   0.000000 )
               a(3) = (   0.000000   0.000000   1.942605 )

     reciprocal axes: (cart. coord. in units 2 pi/alat)
               b(1) = (  1.000000  0.000000  0.000000 )
               b(2) = (  0.000000  1.000000  0.000000 )
               b(3) = (  0.000000  0.000000  0.514773 )

     PseudoPot. # 1 for Ga read from file:
     /home/pragov/projects/rrg-bengioy-ad/pragov/crystal_structure_design/SSSP/Ga.pbe-dn-kjpaw_psl.1.0.0.UPF
     MD5 check sum: a27b4342b1af7e5f338de752e9ed7044
     Pseudo is Projector augmented-wave + core cor, Zval = 13.0
     Generated using "atomic" code by A. Dal Corso  v.5.1
     Shape of augmentation charge: PSQ
     Using radial grid of 1205 points,  6 beta functions with:
                l(1) =   0
                l(2) =   0
                l(3) =   1
                l(4) =   1
                l(5) =   2
                l(6) =   2
     Q(r) pseudized with 0 coefficients

     PseudoPot. # 2 for W  read from file:
     /home/pragov/projects/rrg-bengioy-ad/pragov/crystal_structure_design/SSSP/W_pbe_v1.2.uspp.F.UPF
     MD5 check sum: 9c083fa34c2a2ea0f02f1f893e16e1c8
     Pseudo is Ultrasoft + core correction, Zval = 14.0
     Generated by new atomic code, or converted to UPF format
     Using radial grid of  923 points,  8 beta functions with:
                l(1) =   0
                l(2) =   0
                l(3) =   0
                l(4) =   1
                l(5) =   1
                l(6) =   2
                l(7) =   2
                l(8) =   3
     Q(r) pseudized with  6 coefficients,  rinner =    1.350   1.350   1.350
                                                       1.350   1.350   1.350
                                                       1.350

     PseudoPot. # 3 for O  read from file:
     /home/pragov/projects/rrg-bengioy-ad/pragov/crystal_structure_design/SSSP/O.pbe-n-kjpaw_psl.0.1.UPF
     MD5 check sum: 0234752ac141de4415c5fc33072bef88
     Pseudo is Projector augmented-wave + core cor, Zval =  6.0
     Generated using "atomic" code by A. Dal Corso  v.5.0.99 svn rev. 10869
     Shape of augmentation charge: BESSEL
     Using radial grid of 1095 points,  4 beta functions with:
                l(1) =   0
                l(2) =   0
                l(3) =   1
                l(4) =   1
     Q(r) pseudized with 0 coefficients

     atomic species   valence    mass     pseudopotential
        Ga            13.00    69.72300     Ga( 1.00)
        W             14.00   183.84000     W ( 1.00)
        O              6.00    15.99900     O ( 1.00)

     16 Sym. Ops., with inversion, found ( 8 have fractional translation)

                                    s                        frac. trans.

      isym =  1     identity

 cryst.   s( 1) = (     1          0          0      )
                  (     0          1          0      )
                  (     0          0          1      )

 cart.    s( 1) = (  1.0000000  0.0000000  0.0000000 )
                  (  0.0000000  1.0000000  0.0000000 )
                  (  0.0000000  0.0000000  1.0000000 )

      isym =  2     180 deg rotation - cart. axis [0,0,1]

[...]

 cryst.   s( 3) = (    -1          0          0      )    f =(  0.5000000 )
                  (     0          1          0      )       (  0.5000000 )
                  (     0          0         -1      )       (  0.5000000 )

 cart.    s( 3) = ( -1.0000000  0.0000000  0.0000000 )    f =(  0.5000000 )
                  (  0.0000000  1.0000000  0.0000000 )       (  0.5000000 )
                  (  0.0000000  0.0000000 -1.0000000 )       (  0.9713025 )

[...]

      isym =  8      90 deg rotation - cart. axis [0,0,1]

 cryst.   s( 8) = (     0          1          0      )    f =(  0.5000000 )
                  (    -1          0          0      )       (  0.5000000 )
                  (     0          0          1      )       (  0.5000000 )

 cart.    s( 8) = (  0.0000000 -1.0000000  0.0000000 )    f =(  0.5000000 )
                  (  1.0000000  0.0000000  0.0000000 )       (  0.5000000 )
                  (  0.0000000  0.0000000  1.0000000 )       (  0.9713025 )

      isym =  9     inversion

 cryst.   s( 9) = (    -1          0          0      )
                  (     0         -1          0      )
                  (     0          0         -1      )

 cart.    s( 9) = ( -1.0000000  0.0000000  0.0000000 )
                  (  0.0000000 -1.0000000  0.0000000 )
                  (  0.0000000  0.0000000 -1.0000000 )

      isym = 10     inv. 180 deg rotation - cart. axis [0,0,1]

 cryst.   s(10) = (     1          0          0      )
                  (     0          1          0      )
                  (     0          0         -1      )

 cart.    s(10) = (  1.0000000  0.0000000  0.0000000 )
                  (  0.0000000  1.0000000  0.0000000 )
                  (  0.0000000  0.0000000 -1.0000000 )

[...]

 cryst.   s(11) = (     1          0          0      )    f =(  0.5000000 )
                  (     0         -1          0      )       (  0.5000000 )
                  (     0          0          1      )       (  0.5000000 )

 cart.    s(11) = (  1.0000000  0.0000000  0.0000000 )    f =(  0.5000000 )
                  (  0.0000000 -1.0000000  0.0000000 )       (  0.5000000 )
                  (  0.0000000  0.0000000  1.0000000 )       (  0.9713025 )

[...]

 cryst.   s(14) = (     0          1          0      )
                  (     1          0          0      )
                  (     0          0          1      )

 cart.    s(14) = (  0.0000000  1.0000000  0.0000000 )
                  (  1.0000000  0.0000000  0.0000000 )
                  (  0.0000000  0.0000000  1.0000000 )

[...]

      isym = 16     inv.  90 deg rotation - cart. axis [0,0,1]

 cryst.   s(16) = (     0         -1          0      )    f =(  0.5000000 )
                  (     1          0          0      )       (  0.5000000 )
                  (     0          0         -1      )       (  0.5000000 )

 cart.    s(16) = (  0.0000000  1.0000000  0.0000000 )    f =(  0.5000000 )
                  ( -1.0000000  0.0000000  0.0000000 )       (  0.5000000 )
                  (  0.0000000  0.0000000 -1.0000000 )       (  0.9713025 )

   Cartesian axes

     site n.     atom                  positions (alat units)
         1           Ga  tau(   1) = (   0.5000000   0.5000000   0.6536574  )
         2           Ga  tau(   2) = (   0.5000000   0.5000000   1.2889475  )
         3           Ga  tau(   3) = (   0.0000000   0.0000000   0.3176450  )
         4           Ga  tau(   4) = (   0.0000000   0.0000000   1.6249599  )
         5           W   tau(   5) = (   0.5000000   0.5000000   0.0000000  )
         6           W   tau(   6) = (   0.0000000   0.0000000   0.9713025  )
         7           O   tau(   7) = (   0.6956410   0.6956410   0.3133810  )
         8           O   tau(   8) = (   0.6956410   0.6956410   1.6292239  )
         9           O   tau(   9) = (   0.7004490   0.7004490   0.9713025  )
        10           O   tau(  10) = (   0.7995510   0.2004490   0.0000000  )
        11           O   tau(  11) = (   0.8043590   0.1956410   0.6579214  )
        12           O   tau(  12) = (   0.8043590   0.1956410   1.2846835  )
        13           O   tau(  13) = (   0.1956410   0.8043590   0.6579214  )
        14           O   tau(  14) = (   0.1956410   0.8043590   1.2846835  )
        15           O   tau(  15) = (   0.2004490   0.7995510   0.0000000  )
        16           O   tau(  16) = (   0.2995510   0.2995510   0.9713025  )
        17           O   tau(  17) = (   0.3043590   0.3043590   0.3133810  )
        18           O   tau(  18) = (   0.3043590   0.3043590   1.6292239  )

   Crystallographic axes

     site n.     atom                  positions (cryst. coord.)
         1           Ga  tau(   1) = (  0.5000000  0.5000000  0.3364850  )
         2           Ga  tau(   2) = (  0.5000000  0.5000000  0.6635150  )
         3           Ga  tau(   3) = (  0.0000000  0.0000000  0.1635150  )
         4           Ga  tau(   4) = (  0.0000000  0.0000000  0.8364850  )
         5           W   tau(   5) = (  0.5000000  0.5000000  0.0000000  )
         6           W   tau(   6) = (  0.0000000  0.0000000  0.5000000  )
         7           O   tau(   7) = (  0.6956410  0.6956410  0.1613200  )
         8           O   tau(   8) = (  0.6956410  0.6956410  0.8386800  )
         9           O   tau(   9) = (  0.7004490  0.7004490  0.5000000  )
        10           O   tau(  10) = (  0.7995510  0.2004490  0.0000000  )
        11           O   tau(  11) = (  0.8043590  0.1956410  0.3386800  )
        12           O   tau(  12) = (  0.8043590  0.1956410  0.6613200  )
        13           O   tau(  13) = (  0.1956410  0.8043590  0.3386800  )
        14           O   tau(  14) = (  0.1956410  0.8043590  0.6613200  )
        15           O   tau(  15) = (  0.2004490  0.7995510  0.0000000  )
        16           O   tau(  16) = (  0.2995510  0.2995510  0.5000000  )
        17           O   tau(  17) = (  0.3043590  0.3043590  0.1613200  )
        18           O   tau(  18) = (  0.3043590  0.3043590  0.8386800  )

     number of k points=     1  Methfessel-Paxton smearing, width (Ry)=  0.0010
                       cart. coord. in units 2pi/alat
        k(    1) = (   0.0000000   0.0000000   0.0000000), wk =   2.0000000

                       cryst. coord.
        k(    1) = (   0.0000000   0.0000000   0.0000000), wk =   2.0000000

     Check: negative core charge=   -0.000011

     Initial potential from superposition of free atoms

     starting charge     151.7875, renormalised to     152.0000

     negative rho (up, down):  1.264E-01 0.000E+00
     Starting wfcs are  110 randomized atomic wfcs
     Checking if some PAW data can be deallocated...

     Self-consistent Calculation

     iteration #  1     ecut=    30.00 Ry     beta= 0.70
     Davidson diagonalization with overlap

     ethr =  1.00E-02,  avg # of iterations =  2.0

     negative rho (up, down):  1.197E-01 0.000E+00

     total energy              =   -1926.40068930 Ry
     estimated scf accuracy    <       5.84368004 Ry

[...]

     total energy              =   -1929.49947917 Ry
     estimated scf accuracy    <       0.00000172 Ry

     iteration # 12     ecut=    30.00 Ry     beta= 0.70
     Davidson diagonalization with overlap

     ethr =  1.13E-09,  avg # of iterations =  2.0

[...]

     End of self-consistent calculation

          k = 0.0000 0.0000 0.0000 (  1855 PWs)   bands (ev):

   -66.3809 -66.3807 -30.6389 -30.6387 -30.5064 -30.5060 -30.4419 -30.4418
   -10.1246  -9.4474  -8.9294  -8.7024  -8.6733  -8.5469  -8.5466  -8.1806
    -8.1804  -8.1225  -7.9774  -7.9771  -4.8591  -4.8200  -4.7940  -4.7116
    -4.7115  -4.7100  -4.7099  -4.6969  -4.6762  -4.6553  -4.6363  -4.6362
    -4.6362  -4.6329  -4.6268  -4.6111  -4.2648  -4.2112  -4.2111  -4.1889
     1.1576   1.9273   2.1604   3.3068   3.5432   3.5435   3.6405   4.1968
     4.3097   4.6703   5.0598   5.1047   5.1048   5.1384   5.3597   5.3598
     5.7826   5.9032   6.1950   6.1950   6.3560   6.3563   6.6045   6.8674
     6.8674   7.2132   7.8083   8.0448   8.1106   8.1108   8.2208   8.2209
     8.2326   8.3504   8.3504   9.0504   9.9759  11.7410  11.7596  12.1147
    12.3030  12.3031  12.5854  14.6480  14.8370  16.0851  16.4919  16.4921
    16.6003  16.9692  17.4464

     occupation numbers
     1.0000   1.0000   1.0000   1.0000   1.0000   1.0000   1.0000   1.0000
     1.0000   1.0000   1.0000   1.0000   1.0000   1.0000   1.0000   1.0000
     1.0000   1.0000   1.0000   1.0000   1.0000   1.0000   1.0000   1.0000
     1.0000   1.0000   1.0000   1.0000   1.0000   1.0000   1.0000   1.0000
     1.0000   1.0000   1.0000   1.0000   1.0000   1.0000   1.0000   1.0000
     1.0000   1.0000   1.0000   1.0000   1.0000   1.0000   1.0000   1.0000
     1.0000   1.0000   1.0000   1.0000   1.0000   1.0000   1.0000   1.0000
     1.0000   1.0000   1.0000   1.0000   1.0000   1.0000   1.0000   1.0000
     1.0000   1.0000   1.0000   1.0000   1.0000   1.0000   1.0000   1.0000
     1.0000   1.0000   1.0000   1.0000  -0.0000  -0.0000  -0.0000  -0.0000
    -0.0000  -0.0000  -0.0000  -0.0000  -0.0000  -0.0000  -0.0000  -0.0000
    -0.0000  -0.0000  -0.0000

     the Fermi energy is     9.6981 ev

!    total energy              =   -1929.49947947 Ry
     estimated scf accuracy    <       0.00000005 Ry
     smearing contrib. (-TS)   =       0.00000000 Ry
     internal energy E=F+TS    =   -1929.49947947 Ry

     The total energy is F=E-TS. E is the sum of the following terms:
     one-electron contribution =    -549.99770698 Ry
     hartree contribution      =     393.66578666 Ry
     xc contribution           =    -324.52100424 Ry
     ewald contribution        =    -890.27838851 Ry
     one-center paw contrib.   =    -558.36816640 Ry
      -> PAW hartree energy AE =     910.86362777 Ry
      -> PAW hartree energy PS =    -901.21558806 Ry
      -> PAW xc energy AE      =    -809.39778411 Ry
      -> PAW xc energy PS      =     241.38157800 Ry
      -> total E_H with PAW    =     403.31382637 Ry
      -> total E_XC with PAW   =    -892.53721035 Ry

     convergence has been achieved in  12 iterations

     negative rho (up, down):  1.225E-01 0.000E+00

     Forces acting on atoms (cartesian axes, Ry/au):

     atom    1 type  1   force =     0.00000000    0.00000000   -0.00834348
     atom    2 type  1   force =     0.00000000    0.00000000    0.00834348
     atom    3 type  1   force =     0.00000000    0.00000000    0.00834348
     atom    4 type  1   force =     0.00000000    0.00000000   -0.00834348
     atom    5 type  2   force =     0.00000000    0.00000000    0.00000000
     atom    6 type  2   force =     0.00000000    0.00000000   -0.00000000
     atom    7 type  3   force =    -0.00988226   -0.00988226   -0.03215057
     atom    8 type  3   force =    -0.00988226   -0.00988226    0.03215057
     atom    9 type  3   force =     0.05071148    0.05071148   -0.00000000
     atom   10 type  3   force =    -0.05071148    0.05071148    0.00000000
     atom   11 type  3   force =     0.00988226   -0.00988226    0.03215057
     atom   12 type  3   force =     0.00988226   -0.00988226   -0.03215057
     atom   13 type  3   force =    -0.00988226    0.00988226    0.03215057
     atom   14 type  3   force =    -0.00988226    0.00988226   -0.03215057
     atom   15 type  3   force =     0.05071148   -0.05071148    0.00000000
     atom   16 type  3   force =    -0.05071148   -0.05071148   -0.00000000
     atom   17 type  3   force =     0.00988226    0.00988226   -0.03215057
     atom   18 type  3   force =     0.00988226    0.00988226    0.03215057
     The non-local contrib.  to forces
     atom    1 type  1   force =     0.00000000    0.00000000   -0.09393391
     atom    2 type  1   force =     0.00000000    0.00000000    0.09393391
     atom    3 type  1   force =     0.00000000    0.00000000    0.09393391
     atom    4 type  1   force =     0.00000000    0.00000000   -0.09393391
     atom    5 type  2   force =     0.00000000    0.00000000    0.00000000
     atom    6 type  2   force =     0.00000000    0.00000000    0.00000000
     atom    7 type  3   force =    -0.19891444   -0.19891444   -0.28211251
     atom    8 type  3   force =    -0.19891444   -0.19891444    0.28211251
     atom    9 type  3   force =     0.08170534    0.08170534    0.00000000
     atom   10 type  3   force =    -0.08170534    0.08170534    0.00000000
     atom   11 type  3   force =     0.19891444   -0.19891444    0.28211251
     atom   12 type  3   force =     0.19891444   -0.19891444   -0.28211251
     atom   13 type  3   force =    -0.19891444    0.19891444    0.28211251
     atom   14 type  3   force =    -0.19891444    0.19891444   -0.28211251
     atom   15 type  3   force =     0.08170534   -0.08170534    0.00000000
     atom   16 type  3   force =    -0.08170534   -0.08170534    0.00000000
     atom   17 type  3   force =     0.19891444    0.19891444   -0.28211251
     atom   18 type  3   force =     0.19891444    0.19891444    0.28211251
     The ionic contribution  to forces
     atom    1 type  1   force =    -0.00000000    0.00000000   -1.49987464
     atom    2 type  1   force =     0.00000000    0.00000000    1.49987464
     atom    3 type  1   force =     0.00000000    0.00000000    1.49987464
     atom    4 type  1   force =     0.00000000    0.00000000   -1.49987464
     atom    5 type  2   force =     0.00000000    0.00000000   -0.00000000
     atom    6 type  2   force =     0.00000000    0.00000000   -0.00000000
     atom    7 type  3   force =     2.05663957    2.05663957    1.59908782
     atom    8 type  3   force =     2.05663957    2.05663957   -1.59908782
     atom    9 type  3   force =     1.09791456    1.09791456    0.00000000
     atom   10 type  3   force =    -1.09791456    1.09791456   -0.00000000
     atom   11 type  3   force =    -2.05663957    2.05663957   -1.59908782
     atom   12 type  3   force =    -2.05663957    2.05663957    1.59908782
     atom   13 type  3   force =     2.05663957   -2.05663957   -1.59908782
     atom   14 type  3   force =     2.05663957   -2.05663957    1.59908782
     atom   15 type  3   force =     1.09791456   -1.09791456   -0.00000000
     atom   16 type  3   force =    -1.09791456   -1.09791456   -0.00000000
     atom   17 type  3   force =    -2.05663957   -2.05663957    1.59908782
     atom   18 type  3   force =    -2.05663957   -2.05663957   -1.59908782
     The local contribution  to forces
     atom    1 type  1   force =     0.00000892   -0.00003338    1.58201687
     atom    2 type  1   force =     0.00001467   -0.00000601   -1.58195235
     atom    3 type  1   force =     0.00005918    0.00004925   -1.58239037
     atom    4 type  1   force =    -0.00002702   -0.00003804    1.58225301
     atom    5 type  2   force =     0.00002856    0.00001085   -0.00001269
     atom    6 type  2   force =     0.00002058   -0.00001515    0.00019541
     atom    7 type  3   force =    -1.86881045   -1.86881031   -1.35112815
     atom    8 type  3   force =    -1.86883270   -1.86882134    1.35105214
     atom    9 type  3   force =    -1.12858919   -1.12857463    0.00006734
     atom   10 type  3   force =     1.12852749   -1.12852902   -0.00001165
     atom   11 type  3   force =     1.86884367   -1.86883791    1.35106450
     atom   12 type  3   force =     1.86881456   -1.86882707   -1.35103325
     atom   13 type  3   force =    -1.86882132    1.86883980    1.35107816
     atom   14 type  3   force =    -1.86880531    1.86881430   -1.35102144
     atom   15 type  3   force =    -1.12852426    1.12852568   -0.00003577
     atom   16 type  3   force =     1.12857439    1.12856048    0.00007429
     atom   17 type  3   force =     1.86879402    1.86878653   -1.35108561
     atom   18 type  3   force =     1.86885438    1.86884713    1.35108752
     The core correction contribution to forces
     atom    1 type  1   force =     0.00000060   -0.00000070    0.00328831
     atom    2 type  1   force =     0.00000005   -0.00000172   -0.00328638
     atom    3 type  1   force =     0.00000103    0.00000026   -0.00329644
     atom    4 type  1   force =     0.00000043    0.00000043    0.00329743
     atom    5 type  2   force =     0.00000136    0.00000030   -0.00000071
     atom    6 type  2   force =     0.00000133    0.00000007    0.00000494
     atom    7 type  3   force =     0.00119498    0.00119500    0.00195708
     atom    8 type  3   force =     0.00119480    0.00119482   -0.00195700
     atom    9 type  3   force =    -0.00033982   -0.00033979   -0.00000033
     atom   10 type  3   force =     0.00033990   -0.00033986   -0.00000000
     atom   11 type  3   force =    -0.00119446    0.00119447   -0.00195673
     atom   12 type  3   force =    -0.00119463    0.00119464    0.00195671
     atom   13 type  3   force =     0.00119456   -0.00119451   -0.00195665
     atom   14 type  3   force =     0.00119467   -0.00119465    0.00195668
     atom   15 type  3   force =    -0.00033986    0.00033987    0.00000002
     atom   16 type  3   force =     0.00033975    0.00033968   -0.00000005
     atom   17 type  3   force =    -0.00119504   -0.00119506    0.00195743
     atom   18 type  3   force =    -0.00119473   -0.00119479   -0.00195679
     The Hubbard contrib.    to forces
     atom    1 type  1   force =     0.00000000    0.00000000    0.00000000
     atom    2 type  1   force =     0.00000000    0.00000000    0.00000000
     atom    3 type  1   force =     0.00000000    0.00000000    0.00000000
     atom    4 type  1   force =     0.00000000    0.00000000    0.00000000
     atom    5 type  2   force =     0.00000000    0.00000000    0.00000000
     atom    6 type  2   force =     0.00000000    0.00000000    0.00000000
     atom    7 type  3   force =     0.00000000    0.00000000    0.00000000
     atom    8 type  3   force =     0.00000000    0.00000000    0.00000000
     atom    9 type  3   force =     0.00000000    0.00000000    0.00000000
     atom   10 type  3   force =     0.00000000    0.00000000    0.00000000
     atom   11 type  3   force =     0.00000000    0.00000000    0.00000000
     atom   12 type  3   force =     0.00000000    0.00000000    0.00000000
     atom   13 type  3   force =     0.00000000    0.00000000    0.00000000
     atom   14 type  3   force =     0.00000000    0.00000000    0.00000000
     atom   15 type  3   force =     0.00000000    0.00000000    0.00000000
     atom   16 type  3   force =     0.00000000    0.00000000    0.00000000
     atom   17 type  3   force =     0.00000000    0.00000000    0.00000000
     atom   18 type  3   force =     0.00000000    0.00000000    0.00000000
     The SCF correction term to forces
     atom    1 type  1   force =    -0.00001786    0.00004918    0.00028565
     atom    2 type  1   force =    -0.00002073    0.00001827   -0.00035686
     atom    3 type  1   force =    -0.00008466   -0.00007649    0.00036483
     atom    4 type  1   force =     0.00002286    0.00005438   -0.00019856
     atom    5 type  2   force =    -0.00003363   -0.00001147    0.00002941
     atom    6 type  2   force =    -0.00002968    0.00001431   -0.00024172
     atom    7 type  3   force =     0.00002082    0.00002187    0.00005529
     atom    8 type  3   force =     0.00004344    0.00002927    0.00003623
     atom    9 type  3   force =     0.00002241    0.00000500   -0.00010113
     atom   10 type  3   force =     0.00004621   -0.00004320    0.00002025
     atom   11 type  3   force =    -0.00002269    0.00001580    0.00002395
     atom   12 type  3   force =    -0.00000422    0.00002042   -0.00005514
     atom   13 type  3   force =     0.00000347   -0.00002246    0.00000531
     atom   14 type  3   force =    -0.00000715   -0.00000938   -0.00006697
     atom   15 type  3   force =    -0.00004056    0.00003842    0.00005338
     atom   16 type  3   force =    -0.00000472    0.00000741   -0.00008840
     atom   17 type  3   force =    -0.00001033   -0.00000409    0.00003242
     atom   18 type  3   force =    -0.00005492   -0.00005076    0.00001154

     Total force =     0.175167     Total SCF correction =     0.000719

     Computing stress (Cartesian axis) and pressure

     negative rho (up, down):  1.225E-01 0.000E+00
          total   stress  (Ry/bohr**3)                   (kbar)     P=     -392.76
  -0.00278089   0.00000000   0.00000000         -409.08        0.00        0.00
   0.00000000  -0.00278089   0.00000000            0.00     -409.08        0.00
   0.00000000   0.00000000  -0.00244807            0.00        0.00     -360.12

     kinetic stress (kbar)  26974.26      0.00      0.00
                                0.00  26974.26      0.00
                                0.00      0.00  26519.88

     local   stress (kbar)   6762.19     -0.14     -0.00
                               -0.14   6762.20     -0.01
                               -0.00     -0.01 -16285.19

     nonloc. stress (kbar)    576.50      0.00      0.00
                                0.00    576.50      0.00
                                0.00      0.00    531.03

     hartree stress (kbar)  11685.11      0.11      0.00
                                0.11  11685.11      0.00
                                0.00      0.00  20488.91

     exc-cor stress (kbar)   4425.44     -0.00      0.00
                               -0.00   4425.44      0.00
                                0.00      0.00   4439.86

     corecor stress (kbar) -12842.89      0.00     -0.00
                                0.00 -12842.89     -0.00
                               -0.00     -0.00 -12846.24

     ewald   stress (kbar) -37989.69     -0.00     -0.00
                               -0.00 -37989.69     -0.00
                               -0.00     -0.00 -23208.37

     hubbard stress (kbar)      0.00      0.00      0.00
                                0.00      0.00      0.00
                                0.00      0.00      0.00

     DFT-D   stress (kbar)      0.00      0.00      0.00
                                0.00      0.00      0.00
                                0.00      0.00      0.00

     XDM     stress (kbar)      0.00      0.00      0.00
                                0.00      0.00      0.00
                                0.00      0.00      0.00

     dft-nl  stress (kbar)      0.00      0.00      0.00
                                0.00      0.00      0.00
                                0.00      0.00      0.00

     TS-vdW  stress (kbar)      0.00      0.00      0.00
                                0.00      0.00      0.00
                                0.00      0.00      0.00

[...]

                                0.00      0.00      0.00

     Writing all to output data dir new_calculations/myprefix.save/

     General routines

     Parallel routines

     PAW routines

   This run was terminated on:   0: 3:19  21May2023

   JOB DONE.