     Program PWSCF v.7.0 starts on 20May2023 at 17:35: 4

     Reading input from espresso_13570.pwi
Warning: card &CELL ignored
Warning: card / ignored

     Current dimensions of program PWSCF are:
     Max number of different atomic species (ntypx) = 10
     Max number of k-points (npk) =  40000
     Max angular momentum in pseudopotentials (lmaxx) =  4

     gamma-point specific algorithms are used
     Message from routine setup:
     using ibrav=0 with symmetry is DISCOURAGED, use correct ibrav instead

     Subspace diagonalization in iterative solution of the eigenvalue problem:
     a serial algorithm will be used

     Using Slab Decomposition

     bravais-lattice index     =            0
     lattice parameter (alat)  =       5.1343  a.u.
     unit-cell volume          =     198.2689 (a.u.)^3
     number of atoms/cell      =            2
     number of atomic types    =            2
     number of electrons       =        27.00
     number of Kohn-Sham states=           18
     kinetic-energy cutoff     =      30.0000  Ry
     charge density cutoff     =     240.0000  Ry
     scf convergence threshold =      1.0E-06
     mixing beta               =       0.7000
     number of iterations used =            8  plain     mixing
     Exchange-correlation= PBE
                           (   1   4   3   4   0   0   0)

     celldm(1)=   5.134307  celldm(2)=   0.000000  celldm(3)=   0.000000
     celldm(4)=   0.000000  celldm(5)=   0.000000  celldm(6)=   0.000000

     crystal axes: (cart. coord. in units of alat)
               a(1) = (   1.000000   0.000000   0.000000 )
               a(2) = (  -0.348572   0.937282   0.000000 )
               a(3) = (   0.000000   0.000000   1.562927 )

     reciprocal axes: (cart. coord. in units 2 pi/alat)
               b(1) = (  1.000000  0.371897  0.000000 )
               b(2) = (  0.000000  1.066915  0.000000 )
               b(3) = (  0.000000  0.000000  0.639825 )

     PseudoPot. # 1 for V  read from file:
     /home/pragov/projects/rrg-bengioy-ad/pragov/crystal_structure_design/SSSP/v_pbe_v1.4.uspp.F.UPF
     MD5 check sum: 22b79981416ebb76fdaf5b1b8640f6fb
     Pseudo is Ultrasoft + core correction, Zval = 13.0
     Generated by new atomic code, or converted to UPF format
     Using radial grid of  853 points,  6 beta functions with:
                l(1) =   0
                l(2) =   0
                l(3) =   1
                l(4) =   1
                l(5) =   2
                l(6) =   2
     Q(r) pseudized with  8 coefficients,  rinner =    1.100   1.100   1.100
                                                       1.100   1.100

     PseudoPot. # 2 for Mo read from file:
     /home/pragov/projects/rrg-bengioy-ad/pragov/crystal_structure_design/SSSP/Mo_ONCV_PBE-1.0.oncvpsp.upf
     MD5 check sum: 1b5d28e075c9ccadda658a603575cd1f
     Pseudo is Norm-conserving, Zval = 14.0
     Generated using ONCVPSP code by D. R. Hamann
     Using radial grid of 1526 points,  6 beta functions with:
                l(1) =   0
                l(2) =   0
                l(3) =   1
                l(4) =   1
                l(5) =   2
                l(6) =   2

     atomic species   valence    mass     pseudopotential
        V             13.00    50.94150     V ( 1.00)
        Mo            14.00    95.95000     Mo( 1.00)

      4 Sym. Ops., with inversion, found

                                    s                        frac. trans.

      isym =  1     identity

 cryst.   s( 1) = (     1          0          0      )
                  (     0          1          0      )
                  (     0          0          1      )

 cart.    s( 1) = (  1.0000000  0.0000000  0.0000000 )
                  (  0.0000000  1.0000000  0.0000000 )
                  (  0.0000000  0.0000000  1.0000000 )

      isym =  2     180 deg rotation - cart. axis [0,0,1]

[...]

      isym =  3     inversion

[...]

      isym =  4     inv. 180 deg rotation - cart. axis [0,0,1]

 cryst.   s( 4) = (     1          0          0      )
                  (     0          1          0      )
                  (     0          0         -1      )

 cart.    s( 4) = (  1.0000000  0.0000000  0.0000000 )
                  (  0.0000000  1.0000000  0.0000000 )
                  (  0.0000000  0.0000000 -1.0000000 )

   Cartesian axes

     site n.     atom                  positions (alat units)
         1           V   tau(   1) = (   0.3257140   0.4686410   0.7814637  )
         2           Mo  tau(   2) = (   0.0000000   0.0000000   0.0000000  )

   Crystallographic axes

     site n.     atom                  positions (cryst. coord.)
         1           V   tau(   1) = (  0.5000000  0.5000000  0.5000000  )
         2           Mo  tau(   2) = (  0.0000000  0.0000000  0.0000000  )

     number of k points=     1  Methfessel-Paxton smearing, width (Ry)=  0.0010
                       cart. coord. in units 2pi/alat
        k(    1) = (   0.0000000   0.0000000   0.0000000), wk =   2.0000000

                       cryst. coord.
        k(    1) = (   0.0000000   0.0000000   0.0000000), wk =   2.0000000

     Check: negative core charge=   -0.000007

     Initial potential from superposition of free atoms

     starting charge      26.9978, renormalised to      27.0000

     negative rho (up, down):  5.135E-05 0.000E+00
     Starting wfcs are   20 randomized atomic wfcs

     Self-consistent Calculation

     iteration #  1     ecut=    30.00 Ry     beta= 0.70
     Davidson diagonalization with overlap

     ethr =  1.00E-02,  avg # of iterations =  1.0

     Threshold (ethr) on eigenvalues was too large:
     Diagonalizing with lowered threshold

     Davidson diagonalization with overlap

[...]

     negative rho (up, down):  8.142E-04 0.000E+00

     total energy              =    -282.27277977 Ry
     estimated scf accuracy    <       0.23960656 Ry

[...]

     total energy              =    -282.33501791 Ry
     estimated scf accuracy    <       0.00000246 Ry

     iteration # 11     ecut=    30.00 Ry     beta= 0.70
     Davidson diagonalization with overlap

     ethr =  9.11E-09,  avg # of iterations =  2.0

[...]

     End of self-consistent calculation

          k = 0.0000 0.0000 0.0000 (   280 PWs)   bands (ev):

   -43.6196 -40.5465 -17.7080 -17.3604 -17.2308 -14.9811 -14.0121 -13.8790
    12.1621  15.0400  17.3849  18.8918  19.3737  19.9382  21.0915  21.8090
    21.8769  22.1163

     occupation numbers
     1.0000   1.0000   1.0000   1.0000   1.0000   1.0000   1.0000   1.0000
     1.0000   1.0000   1.0000   1.0000   1.0000   0.5000  -0.0000  -0.0000
    -0.0000  -0.0000

     the Fermi energy is    19.9382 ev

!    total energy              =    -282.33501787 Ry
     estimated scf accuracy    <       0.00000042 Ry
     smearing contrib. (-TS)   =      -0.00028209 Ry
     internal energy E=F+TS    =    -282.33473578 Ry

     The total energy is F=E-TS. E is the sum of the following terms:
     one-electron contribution =     -69.27134746 Ry
     hartree contribution      =      50.22791119 Ry
     xc contribution           =     -35.72519278 Ry
     ewald contribution        =    -227.56610674 Ry

     convergence has been achieved in  11 iterations

     negative rho (up, down):  7.970E-04 0.000E+00

     Forces acting on atoms (cartesian axes, Ry/au):

     atom    1 type  1   force =     0.00000000    0.00000000    0.00000000
     atom    2 type  2   force =     0.00000000    0.00000000    0.00000000
     The non-local contrib.  to forces
     atom    1 type  1   force =     0.00000000    0.00000000    0.00000000
     atom    2 type  2   force =     0.00000000    0.00000000    0.00000000
     The ionic contribution  to forces
     atom    1 type  1   force =    -0.00000000   -0.00000000   -0.00000000
     atom    2 type  2   force =     0.00000000    0.00000000   -0.00000000
     The local contribution  to forces
     atom    1 type  1   force =    -0.00000097    0.00000072   -0.00003748
     atom    2 type  2   force =    -0.00000051   -0.00001109    0.00014566
     The core correction contribution to forces
     atom    1 type  1   force =    -0.00000005   -0.00000014    0.00000013
     atom    2 type  2   force =     0.00000000    0.00000000    0.00000000
     The Hubbard contrib.    to forces
     atom    1 type  1   force =     0.00000000    0.00000000    0.00000000
     atom    2 type  2   force =     0.00000000    0.00000000    0.00000000
     The SCF correction term to forces
     atom    1 type  1   force =     0.00000189   -0.00000071    0.00001104
     atom    2 type  2   force =    -0.00000372    0.00000489   -0.00008426

     Total force =     0.000000     Total SCF correction =     0.000085

     Computing stress (Cartesian axis) and pressure

     negative rho (up, down):  7.970E-04 0.000E+00
          total   stress  (Ry/bohr**3)                   (kbar)     P=      167.70
   0.00430710   0.00190356   0.00000000          633.60      280.02        0.00
   0.00190356   0.00572293   0.00000000          280.02      841.87        0.00
   0.00000000   0.00000000  -0.00661001            0.00        0.00     -972.37

     kinetic stress (kbar)  40829.21    515.11      0.00
                              515.11  41212.34      0.00
                                0.00      0.00  37691.93

     local   stress (kbar)   5617.91  -1535.43     -0.02
                            -1535.43   4475.87     -0.02
                               -0.02     -0.02   3945.69

     nonloc. stress (kbar)   7626.71    -99.45      0.00
                              -99.45   7552.74      0.00
                                0.00      0.00   7991.24

     hartree stress (kbar)  12176.53    558.60      0.00
                              558.60  12592.02      0.01
                                0.00      0.01  12497.91

     exc-cor stress (kbar)  -6358.26     10.38      0.00
                               10.38  -6350.54      0.00
                                0.00      0.00  -6378.99

     corecor stress (kbar)  -1923.92      1.45     -0.00
                                1.45  -1922.85     -0.00
                               -0.00     -0.00  -1930.36

     ewald   stress (kbar) -57334.59    829.36     -0.00
                              829.36 -56717.71     -0.00
                               -0.00     -0.00 -54789.79

     hubbard stress (kbar)      0.00      0.00      0.00
                                0.00      0.00      0.00
                                0.00      0.00      0.00

     DFT-D   stress (kbar)      0.00      0.00      0.00
                                0.00      0.00      0.00
                                0.00      0.00      0.00

     XDM     stress (kbar)      0.00      0.00      0.00
                                0.00      0.00      0.00
                                0.00      0.00      0.00

     dft-nl  stress (kbar)      0.00      0.00      0.00
                                0.00      0.00      0.00
                                0.00      0.00      0.00

     TS-vdW  stress (kbar)      0.00      0.00      0.00
                                0.00      0.00      0.00
                                0.00      0.00      0.00

[...]

                                0.00      0.00      0.00

     Writing all to output data dir new_calculations/myprefix.save/

     General routines

     Parallel routines

   This run was terminated on:  17:35:19  20May2023

   JOB DONE.