     Program PWSCF v.7.0 starts on 21May2023 at 19:58:59

     Reading input from espresso_20826.pwi
Warning: card &CELL ignored
Warning: card / ignored

     Current dimensions of program PWSCF are:
     Max number of different atomic species (ntypx) = 10
     Max number of k-points (npk) =  40000
     Max angular momentum in pseudopotentials (lmaxx) =  4
     file C.pbe-n-kjpaw_psl.1.0.0.UPF: wavefunction(s)  2S 2P renormalized

     gamma-point specific algorithms are used
     Message from routine setup:
     using ibrav=0 with symmetry is DISCOURAGED, use correct ibrav instead

     Subspace diagonalization in iterative solution of the eigenvalue problem:
     a serial algorithm will be used

     Using Slab Decomposition

     bravais-lattice index     =            0
     lattice parameter (alat)  =      25.5255  a.u.
     unit-cell volume          =     846.3998 (a.u.)^3
     number of atoms/cell      =           10
     number of atomic types    =            3
     number of electrons       =        82.00
     number of Kohn-Sham states=           49
     kinetic-energy cutoff     =      30.0000  Ry
     charge density cutoff     =     240.0000  Ry
     scf convergence threshold =      1.0E-06
     mixing beta               =       0.7000
     number of iterations used =            8  plain     mixing
     Exchange-correlation= SLA  PW   PBX  PBC
                           (   1   4   3   4   0   0   0)

     celldm(1)=  25.525498  celldm(2)=   0.000000  celldm(3)=   0.000000
     celldm(4)=   0.000000  celldm(5)=   0.000000  celldm(6)=   0.000000

     crystal axes: (cart. coord. in units of alat)
               a(1) = (   1.000000   0.000000   0.000000 )
               a(2) = (   0.970322   0.241816   0.000000 )
               a(3) = (   0.970322   0.119087   0.210459 )

     reciprocal axes: (cart. coord. in units 2 pi/alat)
               b(1) = (  1.000000 -4.012652 -2.339971 )
               b(2) = (  0.000000  4.135381 -2.339971 )
               b(3) = (  0.000000  0.000000  4.751510 )

     PseudoPot. # 1 for Zr read from file:
     /home/pragov/projects/rrg-bengioy-ad/pragov/crystal_structure_design/SSSP/Zr_pbe_v1.uspp.F.UPF
     MD5 check sum: 5db81b1e868ab7776c4564c113de050b
     Pseudo is Ultrasoft + core correction, Zval = 12.0
     Generated by new atomic code, or converted to UPF format
     Using radial grid of  887 points,  6 beta functions with:
                l(1) =   0
                l(2) =   0
                l(3) =   1
                l(4) =   1
                l(5) =   2
                l(6) =   2
     Q(r) pseudized with  6 coefficients,  rinner =    1.200   1.200   1.200
                                                       1.200   1.200

     PseudoPot. # 2 for W  read from file:
     /home/pragov/projects/rrg-bengioy-ad/pragov/crystal_structure_design/SSSP/W_pbe_v1.2.uspp.F.UPF
     MD5 check sum: 9c083fa34c2a2ea0f02f1f893e16e1c8
     Pseudo is Ultrasoft + core correction, Zval = 14.0
     Generated by new atomic code, or converted to UPF format
     Using radial grid of  923 points,  8 beta functions with:
                l(1) =   0
                l(2) =   0
                l(3) =   0
                l(4) =   1
                l(5) =   1
                l(6) =   2
                l(7) =   2
                l(8) =   3
     Q(r) pseudized with  6 coefficients,  rinner =    1.350   1.350   1.350
                                                       1.350   1.350   1.350
                                                       1.350

     PseudoPot. # 3 for C  read from file:
     /home/pragov/projects/rrg-bengioy-ad/pragov/crystal_structure_design/SSSP/C.pbe-n-kjpaw_psl.1.0.0.UPF
     MD5 check sum: 5d2aebdfa2cae82b50a7e79e9516da0f
     Pseudo is Projector augmented-wave + core cor, Zval =  4.0
     Generated using "atomic" code by A. Dal Corso  v.5.1
     Shape of augmentation charge: PSQ
     Using radial grid of 1073 points,  4 beta functions with:
                l(1) =   0
                l(2) =   0
                l(3) =   1
                l(4) =   1
     Q(r) pseudized with 0 coefficients

     atomic species   valence    mass     pseudopotential
        Zr            12.00    91.22400     Zr( 1.00)
        W             14.00   183.84000     W ( 1.00)
        C              4.00    12.01100     C ( 1.00)

      2 Sym. Ops., with inversion, found

                                    s                        frac. trans.

      isym =  1     identity

 cryst.   s( 1) = (     1          0          0      )
                  (     0          1          0      )
                  (     0          0          1      )

 cart.    s( 1) = (  1.0000000  0.0000000 -0.0000000 )
                  (  0.0000000  1.0000000 -0.0000000 )
                  (  0.0000000  0.0000000  1.0000000 )

      isym =  2     inversion

 cryst.   s( 2) = (    -1          0          0      )
                  (     0         -1          0      )
                  (     0          0         -1      )

 cart.    s( 2) = ( -1.0000000 -0.0000000  0.0000000 )
                  (  0.0000000 -1.0000000  0.0000000 )
                  (  0.0000000  0.0000000 -1.0000000 )

   Cartesian axes

     site n.     atom                  positions (alat units)
         1           Zr  tau(   1) = (   0.3005868   0.0368907   0.0215127  )
         2           Zr  tau(   2) = (   2.0605448   0.2528886   0.1474714  )
         3           Zr  tau(   3) = (   0.8800996   0.1080138   0.0629880  )
         4           Zr  tau(   4) = (   2.6400576   0.3240117   0.1889467  )
         5           W   tau(   5) = (   1.4703222   0.1804512   0.1052297  )
         6           C   tau(   6) = (   1.7586936   0.2158427   0.1258682  )
         7           C   tau(   7) = (   1.1819509   0.1450597   0.0845912  )
         8           C   tau(   8) = (   0.0000000   0.0000000   0.0000000  )
         9           C   tau(   9) = (   0.5751812   0.0705914   0.0411652  )
        10           C   tau(  10) = (   2.3654632   0.2903110   0.1692942  )

   Crystallographic axes

     site n.     atom                  positions (cryst. coord.)
         1           Zr  tau(   1) = (  0.1022180  0.1022180  0.1022180  )
         2           Zr  tau(   2) = (  0.7007120  0.7007120  0.7007120  )
         3           Zr  tau(   3) = (  0.2992880  0.2992880  0.2992880  )
         4           Zr  tau(   4) = (  0.8977820  0.8977820  0.8977820  )
         5           W   tau(   5) = (  0.5000000  0.5000000  0.5000000  )
         6           C   tau(   6) = (  0.5980640  0.5980640  0.5980640  )
         7           C   tau(   7) = (  0.4019360  0.4019360  0.4019360  )
         8           C   tau(   8) = (  0.0000000  0.0000000  0.0000000  )
         9           C   tau(   9) = (  0.1955970  0.1955970  0.1955970  )
        10           C   tau(  10) = (  0.8044030  0.8044030  0.8044030  )

     number of k points=     1  Methfessel-Paxton smearing, width (Ry)=  0.0010
                       cart. coord. in units 2pi/alat
        k(    1) = (   0.0000000   0.0000000   0.0000000), wk =   2.0000000

                       cryst. coord.
        k(    1) = (   0.0000000   0.0000000   0.0000000), wk =   2.0000000

     Check: negative core charge=   -0.000017

     Initial potential from superposition of free atoms

     starting charge      81.8909, renormalised to      82.0000

     negative rho (up, down):  3.041E-01 0.000E+00
     Starting wfcs are   85 randomized atomic wfcs
     Checking if some PAW data can be deallocated...

     Self-consistent Calculation

     iteration #  1     ecut=    30.00 Ry     beta= 0.70
     Davidson diagonalization with overlap

     ethr =  1.00E-02,  avg # of iterations =  2.0

     negative rho (up, down):  3.107E-01 0.000E+00

     total energy              =    -644.43576067 Ry
     estimated scf accuracy    <       4.59195822 Ry

[...]

     total energy              =    -646.91572479 Ry
     estimated scf accuracy    <       0.00000127 Ry

     iteration # 30     ecut=    30.00 Ry     beta= 0.70
     Davidson diagonalization with overlap

     ethr =  1.55E-09,  avg # of iterations =  5.0

[...]

     End of self-consistent calculation

          k = 0.0000 0.0000 0.0000 (  1184 PWs)   bands (ev):

   -56.3198 -32.0924 -32.0395 -31.5015 -31.5004 -20.9260 -20.3890 -20.3890
   -10.8059 -10.4185  -9.9424  -9.8626  -9.8261  -9.8261  -9.7879  -9.7879
    -9.2540  -9.2540  -9.2528  -9.2528   3.7829   4.8193   5.2617   6.8438
     6.9924  10.7690  11.0397  12.4167  12.4167  13.0648  13.0648  13.6057
    13.9835  14.2724  14.2724  14.6940  14.6940  16.6455  16.6455  16.7085
    16.7085  16.7105  16.8755  17.5393  17.5393  18.0884  18.1998  18.1998
    18.2560

     occupation numbers
     1.0000   1.0000   1.0000   1.0000   1.0000   1.0000   1.0000   1.0000
     1.0000   1.0000   1.0000   1.0000   1.0000   1.0000   1.0000   1.0000
     1.0000   1.0000   1.0000   1.0000   1.0000   1.0000   1.0000   1.0000
     1.0000   1.0000   1.0000   1.0000   1.0000   1.0000   1.0000   1.0000
     1.0000   1.0000   1.0000   1.0000   1.0000   1.0000   1.0000   0.7067
     0.7060   0.5873  -0.0000  -0.0000  -0.0000  -0.0000  -0.0000  -0.0000
    -0.0000

     the Fermi energy is    16.7120 ev

!    total energy              =    -646.91572451 Ry
     estimated scf accuracy    <       0.00000056 Ry
     smearing contrib. (-TS)   =      -0.00073487 Ry
     internal energy E=F+TS    =    -646.91498963 Ry

     The total energy is F=E-TS. E is the sum of the following terms:
     one-electron contribution =     -59.89910633 Ry
     hartree contribution      =      78.41040474 Ry
     xc contribution           =    -136.14290675 Ry
     ewald contribution        =    -498.44777672 Ry
     one-center paw contrib.   =     -30.83560457 Ry
      -> PAW hartree energy AE =      36.27889811 Ry
      -> PAW hartree energy PS =     -36.23741595 Ry
      -> PAW xc energy AE      =     -50.63840906 Ry
      -> PAW xc energy PS      =      19.76132233 Ry
      -> total E_H with PAW    =      78.45188689 Ry
      -> total E_XC with PAW   =    -167.01999348 Ry

     convergence has been achieved in  30 iterations

     negative rho (up, down):  3.092E-01 0.000E+00

     Forces acting on atoms (cartesian axes, Ry/au):

     atom    1 type  1   force =     0.02295951    0.00282193    0.00165346
     atom    2 type  1   force =    -0.00327135   -0.00040228   -0.00023485
     atom    3 type  1   force =     0.00327135    0.00040228    0.00023485
     atom    4 type  1   force =    -0.02295951   -0.00282193   -0.00165346
     atom    5 type  2   force =     0.00000000    0.00000000    0.00000000
     atom    6 type  3   force =    -0.03644715   -0.00447268   -0.00260885
     atom    7 type  3   force =     0.03644715    0.00447268    0.00260885
     atom    8 type  3   force =     0.00000000    0.00000000    0.00000000
     atom    9 type  3   force =    -0.04064847   -0.00499206   -0.00291811
     atom   10 type  3   force =     0.04064847    0.00499206    0.00291811
     The non-local contrib.  to forces
     atom    1 type  1   force =     0.02409706    0.00295861    0.00172695
     atom    2 type  1   force =     0.00160877    0.00019853    0.00011793
     atom    3 type  1   force =    -0.00160877   -0.00019853   -0.00011793
     atom    4 type  1   force =    -0.02409706   -0.00295861   -0.00172695
     atom    5 type  2   force =     0.00000000    0.00000000    0.00000000
     atom    6 type  3   force =    -0.05117342   -0.00627964   -0.00365890
     atom    7 type  3   force =     0.05117342    0.00627964    0.00365890
     atom    8 type  3   force =     0.00000000    0.00000000    0.00000000
     atom    9 type  3   force =    -0.04839185   -0.00593484   -0.00345278
     atom   10 type  3   force =     0.04839185    0.00593484    0.00345278
     The ionic contribution  to forces
     atom    1 type  1   force =   -10.31214779   -1.26559977   -0.73802975
     atom    2 type  1   force =    -3.43213031   -0.42122198   -0.24563413
     atom    3 type  1   force =     3.43213031    0.42122198    0.24563413
     atom    4 type  1   force =    10.31214779    1.26559977    0.73802975
     atom    5 type  2   force =     0.00000000    0.00000000   -0.00000000
     atom    6 type  3   force =     2.45338388    0.30110139    0.17558634
     atom    7 type  3   force =    -2.45338388   -0.30110139   -0.17558634
     atom    8 type  3   force =    -0.00000000   -0.00000000   -0.00000000
     atom    9 type  3   force =     3.71214849    0.45558834    0.26567563
     atom   10 type  3   force =    -3.71214849   -0.45558834   -0.26567563
     The local contribution  to forces
     atom    1 type  1   force =    10.31360597    1.26576691    0.73814378
     atom    2 type  1   force =     3.42815685    0.42070586    0.24533856
     atom    3 type  1   force =    -3.42694297   -0.42061085   -0.24526714
     atom    4 type  1   force =   -10.31453346   -1.26592322   -0.73824446
     atom    5 type  2   force =    -0.00063661   -0.00010632   -0.00006860
     atom    6 type  3   force =    -2.43946044   -0.29938023   -0.17459006
     atom    7 type  3   force =     2.44034873    0.29951509    0.17466644
     atom    8 type  3   force =    -0.00018754   -0.00001748   -0.00001025
     atom    9 type  3   force =    -3.70634062   -0.45487793   -0.26527779
     atom   10 type  3   force =     3.70568999    0.45481655    0.26525506
     The core correction contribution to forces
     atom    1 type  1   force =    -0.00158817   -0.00019524   -0.00011369
     atom    2 type  1   force =    -0.00012908   -0.00001646   -0.00000976
     atom    3 type  1   force =     0.00012971    0.00001548    0.00000940
     atom    4 type  1   force =     0.00158183    0.00019373    0.00011267
     atom    5 type  2   force =    -0.00000224   -0.00000306   -0.00000114
     atom    6 type  3   force =     0.00126870    0.00015571    0.00009075
     atom    7 type  3   force =    -0.00126660   -0.00015543   -0.00009050
     atom    8 type  3   force =    -0.00000124   -0.00000028   -0.00000008
     atom    9 type  3   force =     0.00085781    0.00010505    0.00006112
     atom   10 type  3   force =    -0.00085786   -0.00010527   -0.00006103
     The Hubbard contrib.    to forces
     atom    1 type  1   force =     0.00000000    0.00000000    0.00000000
     atom    2 type  1   force =     0.00000000    0.00000000    0.00000000
     atom    3 type  1   force =     0.00000000    0.00000000    0.00000000
     atom    4 type  1   force =     0.00000000    0.00000000    0.00000000
     atom    5 type  2   force =     0.00000000    0.00000000    0.00000000
     atom    6 type  3   force =     0.00000000    0.00000000    0.00000000
     atom    7 type  3   force =     0.00000000    0.00000000    0.00000000
     atom    8 type  3   force =     0.00000000    0.00000000    0.00000000
     atom    9 type  3   force =     0.00000000    0.00000000    0.00000000
     atom   10 type  3   force =     0.00000000    0.00000000    0.00000000
     The SCF correction term to forces
     atom    1 type  1   force =    -0.00106199   -0.00013147   -0.00008336
     atom    2 type  1   force =    -0.00077414   -0.00008836   -0.00004924
     atom    3 type  1   force =    -0.00043347   -0.00004593   -0.00002542
     atom    4 type  1   force =     0.00188698    0.00024352    0.00016601
     atom    5 type  2   force =     0.00056684    0.00009302    0.00006438
     atom    6 type  3   force =    -0.00039858   -0.00005200   -0.00002939
     atom    7 type  3   force =    -0.00035723   -0.00004732   -0.00003204
     atom    8 type  3   force =     0.00011877    0.00001235    0.00000704
     atom    9 type  3   force =     0.00107136    0.00012991    0.00008168
     atom   10 type  3   force =    -0.00043335   -0.00006312   -0.00004710

     Total force =     0.084731     Total SCF correction =     0.002758

     Computing stress (Cartesian axis) and pressure

     negative rho (up, down):  3.092E-01 0.000E+00
          total   stress  (Ry/bohr**3)                   (kbar)     P=      121.04
  -0.00411456  -0.00091850  -0.00053614         -605.27     -135.12      -78.87
  -0.00091850   0.00325435  -0.00006582         -135.12      478.73       -9.68
  -0.00053614  -0.00006582   0.00332870          -78.87       -9.68      489.67

     kinetic stress (kbar)  20986.08   -331.43   -193.25
                             -331.43  23646.12    -23.82
                             -193.25    -23.82  23673.46

     local   stress (kbar)   4139.38    936.41    545.89
                              936.41  -3376.54     67.11
                              545.89     67.11  -3452.99

     nonloc. stress (kbar)   8820.24     46.67     27.21
                               46.67   8445.72      3.34
                               27.21      3.34   8441.95

     hartree stress (kbar)   2346.58   -408.34   -238.05
                             -408.34   5624.03    -29.23
                             -238.05    -29.23   5657.19

     exc-cor stress (kbar)   3892.62     -3.30     -1.92
                               -3.30   3919.08     -0.24
                               -1.92     -0.24   3919.36

     corecor stress (kbar)  -9887.52      1.60      0.93
                                1.60  -9900.40      0.12
                                0.93      0.12  -9900.55

     ewald   stress (kbar) -30902.65   -376.73   -219.69
                             -376.73 -27879.28    -26.96
                             -219.69    -26.96 -27848.76

     hubbard stress (kbar)      0.00      0.00      0.00
                                0.00      0.00      0.00
                                0.00      0.00      0.00

     DFT-D   stress (kbar)      0.00      0.00      0.00
                                0.00      0.00      0.00
                                0.00      0.00      0.00

     XDM     stress (kbar)      0.00      0.00      0.00
                                0.00      0.00      0.00
                                0.00      0.00      0.00

     dft-nl  stress (kbar)      0.00      0.00      0.00
                                0.00      0.00      0.00
                                0.00      0.00      0.00

     TS-vdW  stress (kbar)      0.00      0.00      0.00
                                0.00      0.00      0.00
                                0.00      0.00      0.00

[...]

                                0.00      0.00      0.00

     Writing all to output data dir new_calculations/myprefix.save/

     General routines

     Parallel routines

     PAW routines

   This run was terminated on:  20: 0: 8  21May2023

   JOB DONE.