     Program PWSCF v.7.0 starts on 21May2023 at  0:28: 3

     Reading input from espresso_24242.pwi
Warning: card &CELL ignored
Warning: card / ignored

     Current dimensions of program PWSCF are:
     Max number of different atomic species (ntypx) = 10
     Max number of k-points (npk) =  40000
     Max angular momentum in pseudopotentials (lmaxx) =  4
     file O.pbe-n-kjpaw_psl.0.1.UPF: wavefunction(s)  2P renormalized

     gamma-point specific algorithms are used
     Message from routine setup:
     using ibrav=0 with symmetry is DISCOURAGED, use correct ibrav instead

     Subspace diagonalization in iterative solution of the eigenvalue problem:
     a serial algorithm will be used

     Using Slab Decomposition

     bravais-lattice index     =            0
     lattice parameter (alat)  =      10.9056  a.u.
     unit-cell volume          =     864.2562 (a.u.)^3
     number of atoms/cell      =           10
     number of atomic types    =            4
     number of electrons       =        89.00
     number of Kohn-Sham states=           54
     kinetic-energy cutoff     =      30.0000  Ry
     charge density cutoff     =     240.0000  Ry
     scf convergence threshold =      1.0E-06
     mixing beta               =       0.7000
     number of iterations used =            8  plain     mixing
     Exchange-correlation= SLA  PW   PBX  PBC
                           (   1   4   3   4   0   0   0)

     celldm(1)=  10.905616  celldm(2)=   0.000000  celldm(3)=   0.000000
     celldm(4)=   0.000000  celldm(5)=   0.000000  celldm(6)=   0.000000

     crystal axes: (cart. coord. in units of alat)
               a(1) = (   1.000000   0.000000   0.000000 )
               a(2) = (   0.102559   0.994727   0.000000 )
               a(3) = (  -0.551279  -0.497363   0.669866 )

     reciprocal axes: (cart. coord. in units 2 pi/alat)
               b(1) = (  1.000000 -0.103103  0.746418 )
               b(2) = (  0.000000  1.005301  0.746418 )
               b(3) = (  0.000000  0.000000  1.492836 )

     PseudoPot. # 1 for Sr read from file:
     /home/pragov/projects/rrg-bengioy-ad/pragov/crystal_structure_design/SSSP/Sr_pbe_v1.uspp.F.UPF
     MD5 check sum: 6b418c05fbe9db5448babca5e47b7a5b
     Pseudo is Ultrasoft + core correction, Zval = 10.0
     Generated by new atomic code, or converted to UPF format
     Using radial grid of  883 points,  6 beta functions with:
                l(1) =   0
                l(2) =   0
                l(3) =   1
                l(4) =   1
                l(5) =   2
                l(6) =   2
     Q(r) pseudized with  6 coefficients,  rinner =    1.400   1.400   1.400
                                                       1.400   1.400

     PseudoPot. # 2 for Cu read from file:
     /home/pragov/projects/rrg-bengioy-ad/pragov/crystal_structure_design/SSSP/Cu_pbe_v1.2.uspp.F.UPF
     MD5 check sum: 6e991ff952a84172a2a52a1c1e996048
     Pseudo is Ultrasoft + core correction, Zval = 19.0
     Generated by new atomic code, or converted to UPF format
     Using radial grid of  867 points,  6 beta functions with:
                l(1) =   0
                l(2) =   0
                l(3) =   1
                l(4) =   1
                l(5) =   2
                l(6) =   2
     Q(r) pseudized with  8 coefficients,  rinner =    1.150   1.150   1.150
                                                       1.150   1.150

     PseudoPot. # 3 for Mo read from file:
     /home/pragov/projects/rrg-bengioy-ad/pragov/crystal_structure_design/SSSP/Mo_ONCV_PBE-1.0.oncvpsp.upf
     MD5 check sum: 1b5d28e075c9ccadda658a603575cd1f
     Pseudo is Norm-conserving, Zval = 14.0
     Generated using ONCVPSP code by D. R. Hamann
     Using radial grid of 1526 points,  6 beta functions with:
                l(1) =   0
                l(2) =   0
                l(3) =   1
                l(4) =   1
                l(5) =   2
                l(6) =   2

     PseudoPot. # 4 for O  read from file:
     /home/pragov/projects/rrg-bengioy-ad/pragov/crystal_structure_design/SSSP/O.pbe-n-kjpaw_psl.0.1.UPF
     MD5 check sum: 0234752ac141de4415c5fc33072bef88
     Pseudo is Projector augmented-wave + core cor, Zval =  6.0
     Generated using "atomic" code by A. Dal Corso  v.5.0.99 svn rev. 10869
     Shape of augmentation charge: BESSEL
     Using radial grid of 1095 points,  4 beta functions with:
                l(1) =   0
                l(2) =   0
                l(3) =   1
                l(4) =   1
     Q(r) pseudized with 0 coefficients

     atomic species   valence    mass     pseudopotential
        Sr            10.00    87.62000     Sr( 1.00)
        Cu            19.00    63.54600     Cu( 1.00)
        Mo            14.00    95.95000     Mo( 1.00)
        O              6.00    15.99900     O ( 1.00)

      2 Sym. Ops., with inversion, found

                                    s                        frac. trans.

      isym =  1     identity

 cryst.   s( 1) = (     1          0          0      )
                  (     0          1          0      )
                  (     0          0          1      )

 cart.    s( 1) = (  1.0000000  0.0000000 -0.0000000 )
                  (  0.0000000  1.0000000  0.0000000 )
                  (  0.0000000  0.0000000  1.0000000 )

      isym =  2     inversion

 cryst.   s( 2) = (    -1          0          0      )
                  (     0         -1          0      )
                  (     0          0         -1      )

 cart.    s( 2) = ( -1.0000000 -0.0000000  0.0000000 )
                  (  0.0000000 -1.0000000 -0.0000000 )
                  (  0.0000000  0.0000000 -1.0000000 )

   Cartesian axes

     site n.     atom                  positions (alat units)
         1           Sr  tau(   1) = (   0.0512795   0.4973635   0.3349330  )
         2           Sr  tau(   2) = (   0.5000000   0.0000000   0.3349330  )
         3           Cu  tau(   3) = (   0.5512795   0.4973635   0.0000000  )
         4           Mo  tau(   4) = (   0.0000000   0.0000000   0.0000000  )
         5           O   tau(   5) = (   0.5120358   0.5408624   0.3383688  )
         6           O   tau(   6) = (   0.0392437  -0.0434989   0.3314973  )
         7           O   tau(   7) = (   0.7779417   0.2461303   0.0585851  )
         8           O   tau(   8) = (  -0.2266622   0.2512332   0.6112809  )
         9           O   tau(   9) = (   0.2502831   0.2258050   0.0000000  )
        10           O   tau(  10) = (   0.8522758   0.7689219   0.0000000  )

   Crystallographic axes

     site n.     atom                  positions (cryst. coord.)
         1           Sr  tau(   1) = (  0.2500000  0.7500000  0.5000000  )
         2           Sr  tau(   2) = (  0.7500000  0.2500000  0.5000000  )
         3           Cu  tau(   3) = (  0.5000000  0.5000000  0.0000000  )
         4           Mo  tau(   4) = (  0.0000000  0.0000000  0.0000000  )
         5           O   tau(   5) = (  0.7088360  0.7962940  0.5051290  )
         6           O   tau(   6) = (  0.2911640  0.2037060  0.4948710  )
         7           O   tau(   7) = (  0.7962940  0.2911640  0.0874580  )
         8           O   tau(   8) = (  0.2037060  0.7088360  0.9125420  )
         9           O   tau(   9) = (  0.2270020  0.2270020  0.0000000  )
        10           O   tau(  10) = (  0.7729980  0.7729980  0.0000000  )

     number of k points=     1  Methfessel-Paxton smearing, width (Ry)=  0.0010
                       cart. coord. in units 2pi/alat
        k(    1) = (   0.0000000   0.0000000   0.0000000), wk =   2.0000000

                       cryst. coord.
        k(    1) = (   0.0000000   0.0000000   0.0000000), wk =   2.0000000

     Check: negative core charge=   -0.000014

     Initial potential from superposition of free atoms

     starting charge      87.9317, renormalised to      89.0000

     negative rho (up, down):  1.273E-01 0.000E+00
     Starting wfcs are   73 randomized atomic wfcs
     Checking if some PAW data can be deallocated...

     Self-consistent Calculation

     iteration #  1     ecut=    30.00 Ry     beta= 0.70
     Davidson diagonalization with overlap

     ethr =  1.00E-02,  avg # of iterations =  3.0

     negative rho (up, down):  1.165E-01 0.000E+00

     total energy              =    -928.80624802 Ry
     estimated scf accuracy    <       4.46343626 Ry

[...]

     total energy              =    -931.40861216 Ry
     estimated scf accuracy    <       0.00000113 Ry

     iteration # 56     ecut=    30.00 Ry     beta= 0.70
     Davidson diagonalization with overlap

     ethr =  1.27E-09,  avg # of iterations =  1.0

[...]

     End of self-consistent calculation

          k = 0.0000 0.0000 0.0000 (  1196 PWs)   bands (ev):

  -102.0749 -59.4179 -59.2558 -59.1999 -51.1371 -25.9380 -25.6274 -25.4204
   -23.9079 -23.5375  -8.1085  -7.2456  -7.0587  -7.0234  -6.6792  -6.6371
    -6.4689  -6.2246  -5.7103  -5.5812  -5.5203  -5.4804   4.6623   5.1812
     5.4730   5.5231   5.6675   5.7617   6.8419   6.9667   7.0724   8.1702
     8.2819   8.5449   8.5479   8.5984   8.6927   8.8368   9.3354   9.5079
     9.6255   9.6818   9.6998   9.7514   9.7558  12.5580  12.7188  12.7822
    14.2658  14.6980  15.9198  15.9754  16.0093  16.1255

     occupation numbers
     1.0000   1.0000   1.0000   1.0000   1.0000   1.0000   1.0000   1.0000
     1.0000   1.0000   1.0000   1.0000   1.0000   1.0000   1.0000   1.0000
     1.0000   1.0000   1.0000   1.0000   1.0000   1.0000   1.0000   1.0000
     1.0000   1.0000   1.0000   1.0000   1.0000   1.0000   1.0000   1.0000
     1.0000   1.0000   1.0000   1.0000   1.0000   1.0000   1.0000   1.0000
     1.0000   1.0000   1.0000   0.8620   0.6380  -0.0000  -0.0000  -0.0000
    -0.0000  -0.0000  -0.0000  -0.0000  -0.0000  -0.0000

     the Fermi energy is     9.7580 ev

!    total energy              =    -931.40861147 Ry
     estimated scf accuracy    <       0.00000087 Ry
     smearing contrib. (-TS)   =      -0.00037723 Ry
     internal energy E=F+TS    =    -931.40823424 Ry

     The total energy is F=E-TS. E is the sum of the following terms:
     one-electron contribution =    -497.08298788 Ry
     hartree contribution      =     298.24419303 Ry
     xc contribution           =    -136.01617399 Ry
     ewald contribution        =    -539.43767946 Ry
     one-center paw contrib.   =     -57.11558594 Ry
      -> PAW hartree energy AE =     180.15277858 Ry
      -> PAW hartree energy PS =    -179.54430241 Ry
      -> PAW xc energy AE      =    -103.30285777 Ry
      -> PAW xc energy PS      =      45.57879566 Ry
      -> total E_H with PAW    =     298.85266920 Ry
      -> total E_XC with PAW   =    -193.74023610 Ry

     convergence has been achieved in  56 iterations

     negative rho (up, down):  1.133E-01 0.000E+00

     Forces acting on atoms (cartesian axes, Ry/au):

     atom    1 type  1   force =    -0.00463208   -0.01840956    0.00403108
     atom    2 type  1   force =     0.00463208    0.01840956   -0.00403108
     atom    3 type  2   force =     0.00000000    0.00000000    0.00000000
     atom    4 type  3   force =     0.00000000    0.00000000    0.00000000
     atom    5 type  4   force =    -0.02479777    0.11218424   -0.04743372
     atom    6 type  4   force =     0.02479777   -0.11218424    0.04743372
     atom    7 type  4   force =     0.02670100   -0.05352142    0.05096119
     atom    8 type  4   force =    -0.02670100    0.05352142   -0.05096119
     atom    9 type  4   force =    -0.02476812    0.02012352    0.00636071
     atom   10 type  4   force =     0.02476812   -0.02012352   -0.00636071
     The non-local contrib.  to forces
     atom    1 type  1   force =    -0.00448651   -0.00819606    0.00491048
     atom    2 type  1   force =     0.00448651    0.00819606   -0.00491048
     atom    3 type  2   force =     0.00000000    0.00000000    0.00000000
     atom    4 type  3   force =     0.00000000    0.00000000    0.00000000
     atom    5 type  4   force =     0.12842370   -0.05105700    0.17560034
     atom    6 type  4   force =    -0.12842370    0.05105700   -0.17560034
     atom    7 type  4   force =     0.05294355   -0.24190936   -0.17585483
     atom    8 type  4   force =    -0.05294355    0.24190936    0.17585483
     atom    9 type  4   force =    -0.26136857   -0.20580857   -0.01530833
     atom   10 type  4   force =     0.26136857    0.20580857    0.01530833
     The ionic contribution  to forces
     atom    1 type  1   force =     0.00001994   -0.00002233    0.00000017
     atom    2 type  1   force =    -0.00001994    0.00002233   -0.00000017
     atom    3 type  2   force =    -0.00000000    0.00000000   -0.00000000
     atom    4 type  3   force =    -0.00000000    0.00000000    0.00000000
     atom    5 type  4   force =    -1.69696444    1.88094667    1.80692285
     atom    6 type  4   force =     1.69696444   -1.88094667   -1.80692285
     atom    7 type  4   force =     1.21032007   -1.34152312    2.53330520
     atom    8 type  4   force =    -1.21032007    1.34152312   -2.53330520
     atom    9 type  4   force =     2.21535280    1.99868703    0.00001730
     atom   10 type  4   force =    -2.21535280   -1.99868703   -0.00001730
     The local contribution  to forces
     atom    1 type  1   force =    -0.00073640   -0.01068824   -0.00162311
     atom    2 type  1   force =     0.00073196    0.01068267    0.00165188
     atom    3 type  2   force =    -0.00048631    0.00006546   -0.00003375
     atom    4 type  3   force =     0.00054956   -0.00002265   -0.00010575
     atom    5 type  4   force =     1.54492049   -1.71989377   -2.02961942
     atom    6 type  4   force =    -1.54483152    1.71984230    2.02955886
     atom    7 type  4   force =    -1.23785923    1.52853260   -2.30806533
     atom    8 type  4   force =     1.23779449   -1.52838430    2.30823398
     atom    9 type  4   force =    -1.97999637   -1.77424616    0.02104402
     atom   10 type  4   force =     1.98005801    1.77424455   -0.02106757
     The core correction contribution to forces
     atom    1 type  1   force =     0.00027023    0.00024587    0.00080381
     atom    2 type  1   force =    -0.00027018   -0.00024580   -0.00080368
     atom    3 type  2   force =     0.00000012   -0.00000008    0.00000008
     atom    4 type  3   force =     0.00000000    0.00000000    0.00000000
     atom    5 type  4   force =    -0.00094181    0.00210802   -0.00062975
     atom    6 type  4   force =     0.00094238   -0.00210857    0.00062902
     atom    7 type  4   force =     0.00098671    0.00146545    0.00170063
     atom    8 type  4   force =    -0.00098768   -0.00146375   -0.00169911
     atom    9 type  4   force =     0.00134626    0.00147376    0.00061174
     atom   10 type  4   force =    -0.00134604   -0.00147379   -0.00061175
     The Hubbard contrib.    to forces
     atom    1 type  1   force =     0.00000000    0.00000000    0.00000000
     atom    2 type  1   force =     0.00000000    0.00000000    0.00000000
     atom    3 type  2   force =     0.00000000    0.00000000    0.00000000
     atom    4 type  3   force =     0.00000000    0.00000000    0.00000000
     atom    5 type  4   force =     0.00000000    0.00000000    0.00000000
     atom    6 type  4   force =     0.00000000    0.00000000    0.00000000
     atom    7 type  4   force =     0.00000000    0.00000000    0.00000000
     atom    8 type  4   force =     0.00000000    0.00000000    0.00000000
     atom    9 type  4   force =     0.00000000    0.00000000    0.00000000
     atom   10 type  4   force =     0.00000000    0.00000000    0.00000000
     The SCF correction term to forces
     atom    1 type  1   force =     0.00030037    0.00025199   -0.00005800
     atom    2 type  1   force =    -0.00029658   -0.00024490    0.00003364
     atom    3 type  2   force =     0.00061455   -0.00015426    0.00007804
     atom    4 type  3   force =    -0.00052585   -0.00001837    0.00010062
     atom    5 type  4   force =    -0.00022180    0.00006399    0.00027392
     atom    6 type  4   force =     0.00016009   -0.00004463   -0.00024931
     atom    7 type  4   force =     0.00029981   -0.00004873   -0.00007889
     atom    8 type  4   force =    -0.00025427   -0.00002475   -0.00000011
     atom    9 type  4   force =    -0.00008570    0.00002728   -0.00000466
     atom   10 type  4   force =     0.00005693   -0.00000601    0.00002694

     Total force =     0.214757     Total SCF correction =     0.001181

     Computing stress (Cartesian axis) and pressure

     negative rho (up, down):  1.133E-01 0.000E+00
          total   stress  (Ry/bohr**3)                   (kbar)     P=     -240.13
  -0.00265406  -0.00010632   0.00021748         -390.43      -15.64       31.99
  -0.00010632  -0.00094912  -0.00011500          -15.64     -139.62      -16.92
   0.00021748  -0.00011500  -0.00129384           31.99      -16.92     -190.33

     kinetic stress (kbar)  26076.71     -8.95    -22.86
                               -8.95  26213.85     35.24
                              -22.86     35.24  26149.94

     local   stress (kbar) -14924.63   6007.01    111.53
                             6007.01 -15886.16    -53.63
                              111.53    -53.63 -21224.28

     nonloc. stress (kbar)  11428.98    -38.39    -26.99
                              -38.39  11331.41     -2.14
                              -26.99     -2.14  11347.46

     hartree stress (kbar)  15804.74  -2685.58    -30.40
                            -2685.58  16295.95      6.53
                              -30.40      6.53  18663.47

     exc-cor stress (kbar)  -2815.07     -1.83     -0.51
                               -1.83  -2815.01      0.14
                               -0.51      0.14  -2813.49

     corecor stress (kbar)  -3914.33      0.32      1.24
                                0.32  -3910.90     -3.09
                                1.24     -3.09  -3911.30

     ewald   stress (kbar) -32046.83  -3288.21     -0.01
                            -3288.21 -31368.75      0.02
                               -0.01      0.02 -28402.13

     hubbard stress (kbar)      0.00      0.00      0.00
                                0.00      0.00      0.00
                                0.00      0.00      0.00

     DFT-D   stress (kbar)      0.00      0.00      0.00
                                0.00      0.00      0.00
                                0.00      0.00      0.00

     XDM     stress (kbar)      0.00      0.00      0.00
                                0.00      0.00      0.00
                                0.00      0.00      0.00

     dft-nl  stress (kbar)      0.00      0.00      0.00
                                0.00      0.00      0.00
                                0.00      0.00      0.00

     TS-vdW  stress (kbar)      0.00      0.00      0.00
                                0.00      0.00      0.00
                                0.00      0.00      0.00

[...]

                                0.00      0.00      0.00

     Writing all to output data dir new_calculations/myprefix.save/

     General routines

     Parallel routines

     PAW routines

   This run was terminated on:   0:29:21  21May2023

   JOB DONE.