     Program PWSCF v.7.0 starts on 20May2023 at 12:18:50

     Reading input from espresso_13380.pwi
Warning: card &CELL ignored
Warning: card / ignored

     Current dimensions of program PWSCF are:
     Max number of different atomic species (ntypx) = 10
     Max number of k-points (npk) =  40000
     Max angular momentum in pseudopotentials (lmaxx) =  4
     file O.pbe-n-kjpaw_psl.0.1.UPF: wavefunction(s)  2P renormalized

     gamma-point specific algorithms are used
     Message from routine setup:
     using ibrav=0 with symmetry is DISCOURAGED, use correct ibrav instead

     Subspace diagonalization in iterative solution of the eigenvalue problem:
     a serial algorithm will be used

     Using Slab Decomposition

     bravais-lattice index     =            0
     lattice parameter (alat)  =      12.4023  a.u.
     unit-cell volume          =     937.9189 (a.u.)^3
     number of atoms/cell      =           12
     number of atomic types    =            3
     number of electrons       =       124.00
     number of Kohn-Sham states=           74
     kinetic-energy cutoff     =      30.0000  Ry
     charge density cutoff     =     240.0000  Ry
     scf convergence threshold =      1.0E-06
     mixing beta               =       0.7000
     number of iterations used =            8  plain     mixing
     Exchange-correlation= SLA  PW   PBX  PBC
                           (   1   4   3   4   0   0   0)

     celldm(1)=  12.402310  celldm(2)=   0.000000  celldm(3)=   0.000000
     celldm(4)=   0.000000  celldm(5)=   0.000000  celldm(6)=   0.000000

     crystal axes: (cart. coord. in units of alat)
               a(1) = (   1.000000   0.000000   0.000000 )
               a(2) = (   0.415614   0.909541   0.000000 )
               a(3) = (  -0.707807  -0.454771   0.540549 )

     reciprocal axes: (cart. coord. in units 2 pi/alat)
               b(1) = (  1.000000 -0.456949  0.924986 )
               b(2) = (  0.000000  1.099455  0.924986 )
               b(3) = (  0.000000  0.000000  1.849971 )

     PseudoPot. # 1 for Lu read from file:
     /home/pragov/projects/rrg-bengioy-ad/pragov/crystal_structure_design/SSSP/Lu.GGA-PBE-paw-v1.0.UPF
     MD5 check sum: 9ceca61ee0c17e9380a83635bfffa61d
     Pseudo is Projector augmented-wave + core cor, Zval = 25.0
     Generated using ATOMPAW code
     Shape of augmentation charge: BESSEL
     Using radial grid of 1118 points,  8 beta functions with:
                l(1) =   0
                l(2) =   0
                l(3) =   1
                l(4) =   1
                l(5) =   2
                l(6) =   2
                l(7) =   3
                l(8) =   3
     Q(r) pseudized with 0 coefficients

     PseudoPot. # 2 for V  read from file:
     /home/pragov/projects/rrg-bengioy-ad/pragov/crystal_structure_design/SSSP/v_pbe_v1.4.uspp.F.UPF
     MD5 check sum: 22b79981416ebb76fdaf5b1b8640f6fb
     Pseudo is Ultrasoft + core correction, Zval = 13.0
     Generated by new atomic code, or converted to UPF format
     Using radial grid of  853 points,  6 beta functions with:
                l(1) =   0
                l(2) =   0
                l(3) =   1
                l(4) =   1
                l(5) =   2
                l(6) =   2
     Q(r) pseudized with  8 coefficients,  rinner =    1.100   1.100   1.100
                                                       1.100   1.100

     PseudoPot. # 3 for O  read from file:
     /home/pragov/projects/rrg-bengioy-ad/pragov/crystal_structure_design/SSSP/O.pbe-n-kjpaw_psl.0.1.UPF
     MD5 check sum: 0234752ac141de4415c5fc33072bef88
     Pseudo is Projector augmented-wave + core cor, Zval =  6.0
     Generated using "atomic" code by A. Dal Corso  v.5.0.99 svn rev. 10869
     Shape of augmentation charge: BESSEL
     Using radial grid of 1095 points,  4 beta functions with:
                l(1) =   0
                l(2) =   0
                l(3) =   1
                l(4) =   1
     Q(r) pseudized with 0 coefficients

     atomic species   valence    mass     pseudopotential
        Lu            25.00   174.96680     Lu( 1.00)
        V             13.00    50.94150     V ( 1.00)
        O              6.00    15.99900     O ( 1.00)

      2 Sym. Ops., with inversion, found ( 1 have fractional translation)

                                    s                        frac. trans.

      isym =  1     identity

 cryst.   s( 1) = (     1          0          0      )
                  (     0          1          0      )
                  (     0          0          1      )

 cart.    s( 1) = (  1.0000000 -0.0000000  0.0000000 )
                  (  0.0000000  1.0000000 -0.0000000 )
                  (  0.0000000  0.0000000  1.0000000 )

      isym =  2     inversion

 cryst.   s( 2) = (    -1          0          0      )    f =(  0.2500000 )
                  (     0         -1          0      )       ( -0.2500000 )
                  (     0          0         -1      )       (  0.5000000 )

 cart.    s( 2) = ( -1.0000000  0.0000000 -0.0000000 )    f =( -0.2078068 )
                  (  0.0000000 -1.0000000  0.0000000 )       ( -0.4547706 )
                  (  0.0000000  0.0000000 -1.0000000 )       (  0.2702745 )

   Cartesian axes

     site n.     atom                  positions (alat units)
         1           Lu  tau(   1) = (   0.7078068   0.4547706   0.0000000  )
         2           Lu  tau(   2) = (   0.2078068   0.4547706   0.2702745  )
         3           V   tau(   3) = (   0.0000000   0.0000000   0.0000000  )
         4           V   tau(   4) = (   0.5000000  -0.0000000   0.2702745  )
         5           O   tau(   5) = (   0.5612376   0.4282607   0.3177006  )
         6           O   tau(   6) = (   0.9202754   0.6476548   0.2133498  )
         7           O   tau(   7) = (   0.2637409   0.1130837   0.3271992  )
         8           O   tau(   8) = (  -0.0850280  -0.1222928   0.2228484  )
         9           O   tau(   9) = (   0.5850280   0.1222928   0.0474261  )
        10           O   tau(  10) = (  -0.0559342   0.3416869   0.4836243  )
        11           O   tau(  11) = (   0.9953382   0.2618865   0.0569247  )
        12           O   tau(  12) = (  -0.3534308   0.0265099   0.4931229  )

   Crystallographic axes

     site n.     atom                  positions (cryst. coord.)
         1           Lu  tau(   1) = (  0.5000000  0.5000000  0.0000000  )
         2           Lu  tau(   2) = (  0.2500000  0.7500000  0.5000000  )
         3           V   tau(   3) = (  0.0000000  0.0000000  0.0000000  )
         4           V   tau(   4) = (  0.7500000  0.2500000  0.5000000  )
         5           O   tau(   5) = (  0.6594130  0.7647220  0.5877370  )
         6           O   tau(   6) = (  0.8216760  0.9094130  0.3946910  )
         7           O   tau(   7) = (  0.5147220  0.4269850  0.6053090  )
         8           O   tau(   8) = (  0.1769850  0.0716760  0.4122630  )
         9           O   tau(   9) = (  0.5730150  0.1783240  0.0877370  )
        10           O   tau(  10) = (  0.2352780  0.8230150  0.8946910  )
        11           O   tau(  11) = (  0.9283240  0.3405870  0.1053090  )
        12           O   tau(  12) = (  0.0905870  0.4852780  0.9122630  )

     number of k points=     1  Methfessel-Paxton smearing, width (Ry)=  0.0010
                       cart. coord. in units 2pi/alat
        k(    1) = (   0.0000000   0.0000000   0.0000000), wk =   2.0000000

                       cryst. coord.
        k(    1) = (   0.0000000   0.0000000   0.0000000), wk =   2.0000000

     Check: negative core charge=   -0.000016

     Initial potential from superposition of free atoms

     starting charge     123.9900, renormalised to     124.0000

     negative rho (up, down):  1.588E-03 0.000E+00
     Starting wfcs are  116 randomized atomic wfcs
     Checking if some PAW data can be deallocated...

     Self-consistent Calculation

     iteration #  1     ecut=    30.00 Ry     beta= 0.70
     Davidson diagonalization with overlap

     ethr =  1.00E-02,  avg # of iterations =  2.0

     negative rho (up, down):  4.851E-03 0.000E+00

     total energy              =   -2781.46971862 Ry
     estimated scf accuracy    <       5.24099222 Ry

[...]

     total energy              =   -2784.62109519 Ry
     estimated scf accuracy    <       0.00000358 Ry

     iteration # 12     ecut=    30.00 Ry     beta= 0.70
     Davidson diagonalization with overlap

     ethr =  2.89E-09,  avg # of iterations =  2.0

[...]

     End of self-consistent calculation

          k = 0.0000 0.0000 0.0000 (  1292 PWs)   bands (ev):

   -54.3722 -54.3274 -43.2102 -43.1979 -28.1873 -28.1709 -28.1554 -28.1348
   -28.0422 -28.0060 -14.2149 -14.1652 -14.1391 -14.0966 -14.0538 -13.8682
    -7.8171  -6.7320  -6.7064  -6.5550  -6.4490  -6.4164  -6.2985  -6.1825
     5.7727   5.8889   5.9185   6.1025   6.1239   6.1665   6.1944   7.0114
     7.2650   7.5369   7.5447   7.5566   7.5802   7.5861   7.8849   7.9709
     8.0026   8.1899   8.2898   8.3051   8.3152   8.4040   8.4712   8.5010
     8.5072   8.5128   8.6353   8.6595   8.6881   8.8190   8.8477   8.8790
     8.9118   8.9414   9.4292   9.8893  10.2247  10.2554  12.3556  12.9579
    13.0912  13.1608  13.9691  14.2222  14.4979  14.7047  15.0481  15.0981
    16.4510  17.0490

     occupation numbers
     1.0000   1.0000   1.0000   1.0000   1.0000   1.0000   1.0000   1.0000
     1.0000   1.0000   1.0000   1.0000   1.0000   1.0000   1.0000   1.0000
     1.0000   1.0000   1.0000   1.0000   1.0000   1.0000   1.0000   1.0000
     1.0000   1.0000   1.0000   1.0000   1.0000   1.0000   1.0000   1.0000
     1.0000   1.0000   1.0000   1.0000   1.0000   1.0000   1.0000   1.0000
     1.0000   1.0000   1.0000   1.0000   1.0000   1.0000   1.0000   1.0000
     1.0000   1.0000   1.0000   1.0000   1.0000   1.0000   1.0000   1.0000
     1.0000   1.0000   1.0000   1.0000   1.0000   1.0000  -0.0000  -0.0000
    -0.0000  -0.0000  -0.0000  -0.0000  -0.0000  -0.0000  -0.0000  -0.0000
    -0.0000  -0.0000

     the Fermi energy is    10.4638 ev

!    total energy              =   -2784.62109569 Ry
     estimated scf accuracy    <       0.00000047 Ry
     smearing contrib. (-TS)   =       0.00000000 Ry
     internal energy E=F+TS    =   -2784.62109569 Ry

     The total energy is F=E-TS. E is the sum of the following terms:
     one-electron contribution =   -1030.95985194 Ry
     hartree contribution      =     508.18269957 Ry
     xc contribution           =    -181.41506379 Ry
     ewald contribution        =   -1022.66076470 Ry
     one-center paw contrib.   =   -1057.76811483 Ry
      -> PAW hartree energy AE =    1222.61676809 Ry
      -> PAW hartree energy PS =   -1084.71815257 Ry
      -> PAW xc energy AE      =   -1336.60180386 Ry
      -> PAW xc energy PS      =     140.93507351 Ry
      -> total E_H with PAW    =     646.08131509 Ry
      -> total E_XC with PAW   =   -1377.08179414 Ry

     convergence has been achieved in  12 iterations

     negative rho (up, down):  2.386E-03 0.000E+00

     Forces acting on atoms (cartesian axes, Ry/au):

     atom    1 type  1   force =     0.00228048   -0.00606484    0.00304920
     atom    2 type  1   force =    -0.00228048    0.00606484   -0.00304920
     atom    3 type  2   force =     0.00198503    0.02169773   -0.00969764
     atom    4 type  2   force =    -0.00198503   -0.02169773    0.00969764
     atom    5 type  3   force =     0.01813321    0.02168443    0.04869359
     atom    6 type  3   force =     0.00654107    0.04023071    0.01889053
     atom    7 type  3   force =     0.01003934   -0.00674095   -0.02616337
     atom    8 type  3   force =     0.01338008    0.00937323   -0.02275649
     atom    9 type  3   force =    -0.01338008   -0.00937323    0.02275649
     atom   10 type  3   force =    -0.01003934    0.00674095    0.02616337
     atom   11 type  3   force =    -0.00654107   -0.04023071   -0.01889053
     atom   12 type  3   force =    -0.01813321   -0.02168443   -0.04869359
     The non-local contrib.  to forces
     atom    1 type  1   force =    -0.00903109   -0.00818880   -0.00289769
     atom    2 type  1   force =     0.00903109    0.00818880    0.00289769
     atom    3 type  2   force =    -0.00059747    0.00344317   -0.01236470
     atom    4 type  2   force =     0.00059747   -0.00344317    0.01236470
     atom    5 type  3   force =     0.24044480   -0.00414340    0.37602019
     atom    6 type  3   force =    -0.03498437    0.39501713    0.14889343
     atom    7 type  3   force =     0.34529037   -0.18415465   -0.15319295
     atom    8 type  3   force =     0.10280891    0.24488703   -0.34595957
     atom    9 type  3   force =    -0.10280891   -0.24488703    0.34595957
     atom   10 type  3   force =    -0.34529037    0.18415465    0.15319295
     atom   11 type  3   force =     0.03498437   -0.39501713   -0.14889343
     atom   12 type  3   force =    -0.24044480    0.00414340   -0.37602019
     The ionic contribution  to forces
     atom    1 type  1   force =    -0.00000000    0.00000000    0.00000000
     atom    2 type  1   force =     0.00000000   -0.00000000    0.00000000
     atom    3 type  2   force =     0.00000000    0.00000000    0.00000000
     atom    4 type  2   force =    -0.00000000    0.00000000   -0.00000000
     atom    5 type  3   force =    -0.72589034   -1.55455774    0.31869175
     atom    6 type  3   force =    -1.39302584   -0.51622549    0.91548962
     atom    7 type  3   force =    -1.04848882   -1.05246422   -0.91548961
     atom    8 type  3   force =    -1.71562433   -0.01413197   -0.31869176
     atom    9 type  3   force =     1.71562433    0.01413197    0.31869175
     atom   10 type  3   force =     1.04848882    1.05246422    0.91548961
     atom   11 type  3   force =     1.39302584    0.51622549   -0.91548962
     atom   12 type  3   force =     0.72589034    1.55455774   -0.31869175
     The local contribution  to forces
     atom    1 type  1   force =     0.01454332    0.00301575    0.00579393
     atom    2 type  1   force =    -0.01540188   -0.00555490   -0.00680832
     atom    3 type  2   force =    -0.00133224    0.01185870    0.01508990
     atom    4 type  2   force =    -0.00735412   -0.02565358    0.01148663
     atom    5 type  3   force =     0.49858146    1.59362599   -0.64204547
     atom    6 type  3   force =     1.45492014    0.14353538   -1.06122955
     atom    7 type  3   force =     0.69382359    1.24271308    1.05904239
     atom    8 type  3   force =     1.64333793   -0.23231290    0.63283342
     atom    9 type  3   force =    -1.60994293    0.20660586   -0.64582806
     atom   10 type  3   force =    -0.73598100   -1.21473062   -1.02512186
     atom   11 type  3   force =    -1.41320411   -0.18233739    1.02841635
     atom   12 type  3   force =    -0.51154894   -1.56626130    0.64463977
     The core correction contribution to forces
     atom    1 type  1   force =     0.00000017    0.00000021    0.00000016
     atom    2 type  1   force =    -0.00000019    0.00000005   -0.00000018
     atom    3 type  2   force =     0.00033427    0.00030370    0.00085087
     atom    4 type  2   force =     0.00034496    0.00023131   -0.00093447
     atom    5 type  3   force =    -0.00149262    0.00087648   -0.00236467
     atom    6 type  3   force =     0.00096614   -0.00230127   -0.00122481
     atom    7 type  3   force =    -0.00243473    0.00161660    0.00091588
     atom    8 type  3   force =    -0.00009072   -0.00213149    0.00241678
     atom    9 type  3   force =     0.00079223    0.00135602   -0.00247758
     atom   10 type  3   force =     0.00126732   -0.00047184   -0.00023434
     atom   11 type  3   force =     0.00020662    0.00127637    0.00026606
     atom   12 type  3   force =     0.00094134   -0.00006364    0.00271878
     The Hubbard contrib.    to forces
     atom    1 type  1   force =     0.00000000    0.00000000    0.00000000
     atom    2 type  1   force =     0.00000000    0.00000000    0.00000000
     atom    3 type  2   force =     0.00000000    0.00000000    0.00000000
     atom    4 type  2   force =     0.00000000    0.00000000    0.00000000
     atom    5 type  3   force =     0.00000000    0.00000000    0.00000000
     atom    6 type  3   force =     0.00000000    0.00000000    0.00000000
     atom    7 type  3   force =     0.00000000    0.00000000    0.00000000
     atom    8 type  3   force =     0.00000000    0.00000000    0.00000000
     atom    9 type  3   force =     0.00000000    0.00000000    0.00000000
     atom   10 type  3   force =     0.00000000    0.00000000    0.00000000
     atom   11 type  3   force =     0.00000000    0.00000000    0.00000000
     atom   12 type  3   force =     0.00000000    0.00000000    0.00000000
     The SCF correction term to forces
     atom    1 type  1   force =    -0.00363917   -0.00249677   -0.00063711
     atom    2 type  1   force =     0.00368326    0.00182614    0.00007168
     atom    3 type  2   force =    -0.00036996   -0.00037180   -0.00010062
     atom    4 type  2   force =     0.00047624    0.00070375   -0.00004613
     atom    5 type  3   force =    -0.00044033   -0.00017361   -0.00019712
     atom    6 type  3   force =     0.00027344    0.00045038    0.00007999
     atom    7 type  3   force =     0.00037139    0.00021341   -0.00015750
     atom    8 type  3   force =    -0.00018912   -0.00026727    0.00023315
     atom    9 type  3   force =    -0.00018221    0.00009011   -0.00000069
     atom   10 type  3   force =    -0.00000166   -0.00001027    0.00011859
     atom   11 type  3   force =     0.00005465   -0.00013263   -0.00007175
     atom   12 type  3   force =     0.00009860   -0.00011735    0.00007088

     Total force =     0.121851     Total SCF correction =     0.006231

     Computing stress (Cartesian axis) and pressure

     negative rho (up, down):  2.386E-03 0.000E+00
          total   stress  (Ry/bohr**3)                   (kbar)     P=     -507.38
  -0.00358927  -0.00027706   0.00001269         -528.00      -40.76        1.87
  -0.00027706  -0.00340293  -0.00006096          -40.76     -500.59       -8.97
   0.00001269  -0.00006096  -0.00335511            1.87       -8.97     -493.55

     kinetic stress (kbar)  27527.09    -52.48      6.71
                              -52.48  27581.70    -14.85
                                6.71    -14.85  27585.46

     local   stress (kbar)  -5501.71  -1936.65    -57.00
                            -1936.65  -3781.63     48.26
                              -57.00     48.26  -2479.56

     nonloc. stress (kbar)  11725.92     45.41     49.42
                               45.41  11714.27    -34.26
                               49.42    -34.26  11647.71

     hartree stress (kbar)  27393.40   1001.58      3.66
                             1001.58  26482.63     -8.81
                                3.66     -8.81  25828.36

     exc-cor stress (kbar)  -7608.79     -1.77     -0.32
                               -1.77  -7607.67      0.16
                               -0.32      0.16  -7606.26

     corecor stress (kbar)  -1342.38     -0.21     -0.60
                               -0.21  -1342.77      0.54
                               -0.60      0.54  -1341.74

     ewald   stress (kbar) -52721.52    903.37      0.00
                              903.37 -53547.11      0.00
                                0.00      0.00 -54127.53

     hubbard stress (kbar)      0.00      0.00      0.00
                                0.00      0.00      0.00
                                0.00      0.00      0.00

     DFT-D   stress (kbar)      0.00      0.00      0.00
                                0.00      0.00      0.00
                                0.00      0.00      0.00

     XDM     stress (kbar)      0.00      0.00      0.00
                                0.00      0.00      0.00
                                0.00      0.00      0.00

     dft-nl  stress (kbar)      0.00      0.00      0.00
                                0.00      0.00      0.00
                                0.00      0.00      0.00

     TS-vdW  stress (kbar)      0.00      0.00      0.00
                                0.00      0.00      0.00
                                0.00      0.00      0.00

[...]

                                0.00      0.00      0.00

     Writing all to output data dir new_calculations/myprefix.save/

     General routines

     Parallel routines

     PAW routines

   This run was terminated on:  12:19:18  20May2023

   JOB DONE.