     Program PWSCF v.7.0 starts on 21May2023 at 16:44: 8

     Reading input from espresso_22878.pwi
Warning: card &CELL ignored
Warning: card / ignored

     Current dimensions of program PWSCF are:
     Max number of different atomic species (ntypx) = 10
     Max number of k-points (npk) =  40000
     Max angular momentum in pseudopotentials (lmaxx) =  4

     gamma-point specific algorithms are used
     Message from routine setup:
     using ibrav=0 with symmetry is DISCOURAGED, use correct ibrav instead

     Subspace diagonalization in iterative solution of the eigenvalue problem:
     a serial algorithm will be used

     Using Slab Decomposition

     bravais-lattice index     =            0
     lattice parameter (alat)  =      13.1664  a.u.
     unit-cell volume          =    1840.6788 (a.u.)^3
     number of atoms/cell      =           14
     number of atomic types    =            4
     number of electrons       =       141.00
     number of Kohn-Sham states=           85
     kinetic-energy cutoff     =      30.0000  Ry
     charge density cutoff     =     240.0000  Ry
     scf convergence threshold =      1.0E-06
     mixing beta               =       0.7000
     number of iterations used =            8  plain     mixing
     Exchange-correlation=  SLA  PW   PBX  PBC
                           (   1   4   3   4   0   0   0)

     celldm(1)=  13.166395  celldm(2)=   0.000000  celldm(3)=   0.000000
     celldm(4)=   0.000000  celldm(5)=   0.000000  celldm(6)=   0.000000

     crystal axes: (cart. coord. in units of alat)
               a(1) = (   1.000000   0.000000   0.000000 )
               a(2) = (   0.000000   0.863573   0.000000 )
               a(3) = (   0.000000   0.017187   0.933852 )

     reciprocal axes: (cart. coord. in units 2 pi/alat)
               b(1) = (  1.000000  0.000000  0.000000 )
               b(2) = (  0.000000  1.157979 -0.021312 )
               b(3) = (  0.000000  0.000000  1.070833 )

     PseudoPot. # 1 for Ta read from file:
     /home/pragov/projects/rrg-bengioy-ad/pragov/crystal_structure_design/SSSP/Ta_pbe_v1.uspp.F.UPF
     MD5 check sum: f8bbe9446314a3b8ea5d9f3e3836c939
     Pseudo is Ultrasoft + core correction, Zval = 13.0
     Generated by new atomic code, or converted to UPF format
     Using radial grid of  921 points,  7 beta functions with:
                l(1) =   0
                l(2) =   0
                l(3) =   1
                l(4) =   1
                l(5) =   2
                l(6) =   2
                l(7) =   3
     Q(r) pseudized with  6 coefficients,  rinner =    1.300   1.300   1.300
                                                       1.300   1.300   1.300
                                                       1.300

     PseudoPot. # 2 for Cr read from file:
     /home/pragov/projects/rrg-bengioy-ad/pragov/crystal_structure_design/SSSP/cr_pbe_v1.5.uspp.F.UPF
     MD5 check sum: 0d52af634a40206e4dee301ad30da4bf
     Pseudo is Ultrasoft + core correction, Zval = 14.0
     Generated by new atomic code, or converted to UPF format
     Using radial grid of  857 points,  6 beta functions with:
                l(1) =   0
                l(2) =   0
                l(3) =   1
                l(4) =   1
                l(5) =   2
                l(6) =   2
     Q(r) pseudized with  8 coefficients,  rinner =    0.950   0.950   0.950
                                                       0.950   0.950

     PseudoPot. # 3 for Ag read from file:
     /home/pragov/projects/rrg-bengioy-ad/pragov/crystal_structure_design/SSSP/Ag_ONCV_PBE-1.0.oncvpsp.upf
     MD5 check sum: 94f47bd0669c641108e45594df92fabc
     Pseudo is Norm-conserving, Zval = 19.0
     Generated using ONCVPSP code by D. R. Hamann
     Using radial grid of 1398 points,  6 beta functions with:
                l(1) =   0
                l(2) =   0
                l(3) =   1
                l(4) =   1
                l(5) =   2
                l(6) =   2

     PseudoPot. # 4 for S  read from file:
     /home/pragov/projects/rrg-bengioy-ad/pragov/crystal_structure_design/SSSP/s_pbe_v1.4.uspp.F.UPF
     MD5 check sum: 88d86576ff6df21479756cfb9bdac1df
     Pseudo is Ultrasoft + core correction, Zval =  6.0
     Generated by new atomic code, or converted to UPF format
     Using radial grid of  907 points,  6 beta functions with:
                l(1) =   0
                l(2) =   0
                l(3) =   1
                l(4) =   1
                l(5) =   2
                l(6) =   2
     Q(r) pseudized with  8 coefficients,  rinner =    1.300   1.300   1.300
                                                       1.300   1.300

     atomic species   valence    mass     pseudopotential
        Ta            13.00   180.94788     Ta( 1.00)
        Cr            14.00    51.99610     Cr( 1.00)
        Ag            19.00   107.86820     Ag( 1.00)
        S              6.00    32.06000     S ( 1.00)

      4 Sym. Ops., with inversion, found

                                    s                        frac. trans.

      isym =  1     identity

 cryst.   s( 1) = (     1          0          0      )
                  (     0          1          0      )
                  (     0          0          1      )

 cart.    s( 1) = (  1.0000000  0.0000000  0.0000000 )
                  (  0.0000000  1.0000000  0.0000000 )
                  (  0.0000000  0.0000000  1.0000000 )

      isym =  2     180 deg rotation - cart. axis [1,0,0]

[...]

      isym =  3     inversion

[...]

      isym =  4     inv. 180 deg rotation - cart. axis [1,0,0]

 cryst.   s( 4) = (    -1          0          0      )
                  (     0          1          0      )
                  (     0          0          1      )

 cart.    s( 4) = ( -1.0000000  0.0000000  0.0000000 )
                  (  0.0000000  1.0000000  0.0000000 )
                  (  0.0000000  0.0000000  1.0000000 )

   Cartesian axes

     site n.     atom                  positions (alat units)
         1           Ta  tau(   1) = (   0.0000000   0.4403801   0.4669261  )
         2           Cr  tau(   2) = (   0.5000000   0.4403801   0.4669261  )
         3           Cr  tau(   3) = (   0.2500120   0.0085934   0.4669261  )
         4           Cr  tau(   4) = (   0.7499880   0.0085934   0.4669261  )
         5           Ag  tau(   5) = (   0.2551140   0.0000000   0.0000000  )
         6           Ag  tau(   6) = (   0.7448860   0.0000000   0.0000000  )
         7           S   tau(   7) = (   0.2546090   0.2961040   0.6652791  )
         8           S   tau(   8) = (   0.7453910   0.2961040   0.6652791  )
         9           S   tau(   9) = (   0.5000000   0.7279282   0.6554961  )
        10           S   tau(  10) = (   0.0000000   0.7310975   0.6686307  )
        11           S   tau(  11) = (   0.5000000   0.1528320   0.2783561  )
        12           S   tau(  12) = (   0.0000000   0.1496627   0.2652215  )
        13           S   tau(  13) = (   0.7453910   0.5846562   0.2685731  )
        14           S   tau(  14) = (   0.2546090   0.5846562   0.2685731  )

   Crystallographic axes

     site n.     atom                  positions (cryst. coord.)
         1           Ta  tau(   1) = (  0.0000000  0.5000000  0.5000000  )
         2           Cr  tau(   2) = (  0.5000000  0.5000000  0.5000000  )
         3           Cr  tau(   3) = (  0.2500120  0.0000000  0.5000000  )
         4           Cr  tau(   4) = (  0.7499880  0.0000000  0.5000000  )
         5           Ag  tau(   5) = (  0.2551140  0.0000000  0.0000000  )
         6           Ag  tau(   6) = (  0.7448860  0.0000000  0.0000000  )
         7           S   tau(   7) = (  0.2546090  0.3287040  0.7124030  )
         8           S   tau(   8) = (  0.7453910  0.3287040  0.7124030  )
         9           S   tau(   9) = (  0.5000000  0.8289560  0.7019270  )
        10           S   tau(  10) = (  0.0000000  0.8323460  0.7159920  )
        11           S   tau(  11) = (  0.5000000  0.1710440  0.2980730  )
        12           S   tau(  12) = (  0.0000000  0.1676540  0.2840080  )
        13           S   tau(  13) = (  0.7453910  0.6712960  0.2875970  )
        14           S   tau(  14) = (  0.2546090  0.6712960  0.2875970  )

     number of k points=     1  Methfessel-Paxton smearing, width (Ry)=  0.0010
                       cart. coord. in units 2pi/alat
        k(    1) = (   0.0000000   0.0000000   0.0000000), wk =   2.0000000

                       cryst. coord.
        k(    1) = (   0.0000000   0.0000000   0.0000000), wk =   2.0000000

     Check: negative core charge=   -0.000005

     Initial potential from superposition of free atoms

     starting charge     137.9980, renormalised to     141.0000

     negative rho (up, down):  9.874E-02 0.000E+00
     Starting wfcs are   95 randomized atomic wfcs

     Self-consistent Calculation

     iteration #  1     ecut=    30.00 Ry     beta= 0.70
     Davidson diagonalization with overlap

     ethr =  1.00E-02,  avg # of iterations =  2.0

     negative rho (up, down):  9.054E-02 0.000E+00

     total energy              =   -1373.80334250 Ry
     estimated scf accuracy    <      73.64009916 Ry

[...]

     total energy              =   -1435.58818598 Ry
     estimated scf accuracy    <       0.00002269 Ry

     iteration # 52     ecut=    30.00 Ry     beta= 0.70
     Davidson diagonalization with overlap

     ethr =  3.14E-09,  avg # of iterations =  1.0

[...]

     End of self-consistent calculation

          k = 0.0000 0.0000 0.0000 (  2557 PWs)   bands (ev):

   -83.5824 -83.5821 -62.9136 -62.9124 -62.8147 -60.0372 -46.6566 -46.6563
   -46.6239 -46.6205 -46.5809 -46.5794 -34.4150 -34.3994 -34.3979 -34.2568
   -34.2538 -34.2493 -34.0464 -34.0450 -33.7594 -26.6116 -26.4222 -26.3722
    -5.0563  -3.7647  -3.6442  -3.4087  -3.3777  -3.3156  -3.2555  -3.2230
     2.6734   3.2804   3.3768   3.8770   4.1101   4.1521   4.2043   4.2625
     4.5250   4.6929   4.7424   4.8887   4.9584   5.1364   5.2787   5.3033
     5.5099   5.5180   5.7285   5.8718   5.9842   6.0157   6.0674   6.1495
     6.3312   6.4491   6.5032   6.5793   6.5815   6.9681   7.5744   7.7174
     8.4645   8.5502   8.6032   8.6540   8.9541   9.1910   9.1988   9.2000
     9.2328   9.2432   9.6118   9.9572  10.2245  10.4636  10.5974  11.1111
    11.3290  11.4051  11.4832  11.8003  12.1770

     occupation numbers
     1.0000   1.0000   1.0000   1.0000   1.0000   1.0000   1.0000   1.0000
     1.0000   1.0000   1.0000   1.0000   1.0000   1.0000   1.0000   1.0000
     1.0000   1.0000   1.0000   1.0000   1.0000   1.0000   1.0000   1.0000
     1.0000   1.0000   1.0000   1.0000   1.0000   1.0000   1.0000   1.0000
     1.0000   1.0000   1.0000   1.0000   1.0000   1.0000   1.0000   1.0000
     1.0000   1.0000   1.0000   1.0000   1.0000   1.0000   1.0000   1.0000
     1.0000   1.0000   1.0000   1.0000   1.0000   1.0000   1.0000   1.0000
     1.0000   1.0000   1.0000   1.0000   1.0000   1.0000   1.0000   1.0000
     1.0000   1.0000   1.0000   1.0000   1.0000   0.8243   0.3732   0.3031
    -0.0006  -0.0000  -0.0000  -0.0000  -0.0000  -0.0000  -0.0000  -0.0000
    -0.0000  -0.0000  -0.0000  -0.0000  -0.0000

     the Fermi energy is     9.1967 ev

!    total energy              =   -1435.58818572 Ry
     estimated scf accuracy    <       0.00000045 Ry
     smearing contrib. (-TS)   =      -0.00064712 Ry
     internal energy E=F+TS    =   -1435.58753860 Ry

     The total energy is F=E-TS. E is the sum of the following terms:
     one-electron contribution =    -844.33205825 Ry
     hartree contribution      =     467.18880024 Ry
     xc contribution           =    -230.87774356 Ry
     ewald contribution        =    -827.56653702 Ry

     convergence has been achieved in  52 iterations

     negative rho (up, down):  9.825E-02 0.000E+00

     Forces acting on atoms (cartesian axes, Ry/au):

     atom    1 type  1   force =     0.00000000    0.00000000    0.00000000
     atom    2 type  2   force =     0.00000000    0.00000000    0.00000000
     atom    3 type  2   force =     0.01266955    0.00000000    0.00000000
     atom    4 type  2   force =    -0.01266955    0.00000000    0.00000000
     atom    5 type  3   force =     0.00625653    0.00000000    0.00000000
     atom    6 type  3   force =    -0.00625653    0.00000000    0.00000000
     atom    7 type  4   force =     0.01016873   -0.01447654   -0.00189392
     atom    8 type  4   force =    -0.01016873   -0.01447654   -0.00189392
     atom    9 type  4   force =     0.00000000    0.00987831    0.00138750
     atom   10 type  4   force =     0.00000000    0.02037837   -0.00151866
     atom   11 type  4   force =     0.00000000   -0.00987831   -0.00138750
     atom   12 type  4   force =     0.00000000   -0.02037837    0.00151866
     atom   13 type  4   force =    -0.01016873    0.01447654    0.00189392
     atom   14 type  4   force =     0.01016873    0.01447654    0.00189392
     The non-local contrib.  to forces
     atom    1 type  1   force =     0.00000000    0.00000000    0.00000000
     atom    2 type  2   force =     0.00000000    0.00000000    0.00000000
     atom    3 type  2   force =    -0.03779988    0.00000000    0.00000000
     atom    4 type  2   force =     0.03779988    0.00000000    0.00000000
     atom    5 type  3   force =    -0.03442924    0.00000000    0.00000000
     atom    6 type  3   force =     0.03442924    0.00000000    0.00000000
     atom    7 type  4   force =     0.01162508   -0.09889029   -0.08612015
     atom    8 type  4   force =    -0.01162508   -0.09889029   -0.08612015
     atom    9 type  4   force =     0.00000000    0.06540296   -0.04257643
     atom   10 type  4   force =     0.00000000    0.06999883   -0.04548902
     atom   11 type  4   force =     0.00000000   -0.06540296    0.04257643
     atom   12 type  4   force =     0.00000000   -0.06999883    0.04548902
     atom   13 type  4   force =    -0.01162508    0.09889029    0.08612015
     atom   14 type  4   force =     0.01162508    0.09889029    0.08612015
     The ionic contribution  to forces
     atom    1 type  1   force =     0.00000000   -0.00000000   -0.00000000
     atom    2 type  2   force =    -0.00000000   -0.00000000   -0.00000000
     atom    3 type  2   force =    -1.69734452    0.00000000   -0.00000000
     atom    4 type  2   force =     1.69734452    0.00000000   -0.00000000
     atom    5 type  3   force =    -1.47682107    0.00000000    0.00000000
     atom    6 type  3   force =     1.47682107    0.00000000    0.00000000
     atom    7 type  4   force =    -0.82935601    5.19317957    7.88922296
     atom    8 type  4   force =     0.82935601    5.19317957    7.88922296
     atom    9 type  4   force =    -0.00000000   -4.70291316    6.13361758
     atom   10 type  4   force =     0.00000000   -5.12912594    5.55197963
     atom   11 type  4   force =     0.00000000    4.70291316   -6.13361758
     atom   12 type  4   force =    -0.00000000    5.12912594   -5.55197963
     atom   13 type  4   force =     0.82935601   -5.19317957   -7.88922296
     atom   14 type  4   force =    -0.82935601   -5.19317957   -7.88922296
     The local contribution  to forces
     atom    1 type  1   force =    -0.00048720   -0.00000325    0.00000502
     atom    2 type  2   force =     0.00053343   -0.00004993   -0.00000072
     atom    3 type  2   force =     1.74799550    0.00005644    0.00000102
     atom    4 type  2   force =    -1.74795533    0.00000228    0.00000233
     atom    5 type  3   force =     1.51732067    0.00002791   -0.00002583
     atom    6 type  3   force =    -1.51728189   -0.00000295   -0.00000143
     atom    7 type  4   force =     0.82879735   -5.11444770   -7.80908720
     atom    8 type  4   force =    -0.82879090   -5.11469193   -7.80929732
     atom    9 type  4   force =     0.00038996    4.65098709   -6.09169714
     atom   10 type  4   force =    -0.00039324    5.08369395   -5.51001034
     atom   11 type  4   force =     0.00040512   -4.65097757    6.09170533
     atom   12 type  4   force =    -0.00037933   -5.08369735    5.51000999
     atom   13 type  4   force =    -0.82877073    5.11470441    7.80927398
     atom   14 type  4   force =     0.82879801    5.11443004    7.80913129
     The core correction contribution to forces
     atom    1 type  1   force =    -0.00000198    0.00000082   -0.00000010
     atom    2 type  2   force =     0.00000185   -0.00000123   -0.00000049
     atom    3 type  2   force =    -0.00027102    0.00000176   -0.00000063
     atom    4 type  2   force =     0.00027032   -0.00000032    0.00000004
     atom    5 type  3   force =     0.00000000    0.00000000    0.00000000
     atom    6 type  3   force =     0.00000000    0.00000000    0.00000000
     atom    7 type  4   force =    -0.00096078    0.00578399    0.00412531
     atom    8 type  4   force =     0.00096072    0.00578451    0.00412595
     atom    9 type  4   force =    -0.00000002   -0.00356846    0.00193351
     atom   10 type  4   force =    -0.00000019   -0.00420674    0.00190663
     atom   11 type  4   force =     0.00000012    0.00356844   -0.00193316
     atom   12 type  4   force =    -0.00000001    0.00420679   -0.00190682
     atom   13 type  4   force =     0.00096093   -0.00578446   -0.00412647
     atom   14 type  4   force =    -0.00096098   -0.00578412   -0.00412448
     The Hubbard contrib.    to forces
     atom    1 type  1   force =     0.00000000    0.00000000    0.00000000
     atom    2 type  2   force =     0.00000000    0.00000000    0.00000000
     atom    3 type  2   force =     0.00000000    0.00000000    0.00000000
     atom    4 type  2   force =     0.00000000    0.00000000    0.00000000
     atom    5 type  3   force =     0.00000000    0.00000000    0.00000000
     atom    6 type  3   force =     0.00000000    0.00000000    0.00000000
     atom    7 type  4   force =     0.00000000    0.00000000    0.00000000
     atom    8 type  4   force =     0.00000000    0.00000000    0.00000000
     atom    9 type  4   force =     0.00000000    0.00000000    0.00000000
     atom   10 type  4   force =     0.00000000    0.00000000    0.00000000
     atom   11 type  4   force =     0.00000000    0.00000000    0.00000000
     atom   12 type  4   force =     0.00000000    0.00000000    0.00000000
     atom   13 type  4   force =     0.00000000    0.00000000    0.00000000
     atom   14 type  4   force =     0.00000000    0.00000000    0.00000000
     The SCF correction term to forces
     atom    1 type  1   force =     0.00048192    0.00000105   -0.00000411
     atom    2 type  2   force =    -0.00048217    0.00003436   -0.00000722
     atom    3 type  2   force =     0.00008995   -0.00003232   -0.00000954
     atom    4 type  2   force =    -0.00012847   -0.00000824   -0.00000358
     atom    5 type  3   force =     0.00018585   -0.00002892    0.00002661
     atom    6 type  3   force =    -0.00022527    0.00000214    0.00000306
     atom    7 type  4   force =     0.00006354   -0.00010144   -0.00003559
     atom    8 type  4   force =    -0.00007148    0.00014152    0.00018229
     atom    9 type  4   force =    -0.00037868   -0.00003006    0.00011251
     atom   10 type  4   force =     0.00037544    0.00001809    0.00009326
     atom   11 type  4   force =    -0.00038785    0.00002068   -0.00011596
     atom   12 type  4   force =     0.00036540   -0.00001509   -0.00009508
     atom   13 type  4   force =    -0.00008772   -0.00014959   -0.00017160
     atom   14 type  4   force =     0.00006231    0.00011590    0.00001764

     Total force =     0.051959     Total SCF correction =     0.001159

     Computing stress (Cartesian axis) and pressure

     negative rho (up, down):  9.825E-02 0.000E+00
          total   stress  (Ry/bohr**3)                   (kbar)     P=     -301.60
  -0.00200278   0.00000000   0.00000000         -294.62        0.00        0.00
   0.00000000  -0.00229899   0.00010455            0.00     -338.19       15.38
   0.00000000   0.00010455  -0.00184900            0.00       15.38     -272.00

     kinetic stress (kbar)  21783.50      0.00      0.00
                                0.00  21726.73    -75.97
                                0.00    -75.97  21917.81

     local   stress (kbar) -20043.66      0.06     -0.06
                                0.06   -381.51    328.78
                               -0.06    328.78 -10332.74

     nonloc. stress (kbar)   2501.24      0.00      0.00
                                0.00   2506.89    -25.76
                                0.00    -25.76   2529.73

     hartree stress (kbar)  16933.66     -0.02      0.02
                               -0.02   7880.42    -87.41
                                0.02    -87.41  12523.14

     exc-cor stress (kbar)    642.71     -0.00      0.00
                               -0.00    642.00     -1.79
                                0.00     -1.79    645.64

     corecor stress (kbar)  -5415.88      0.00     -0.00
                                0.00  -5412.25      2.07
                               -0.00      2.07  -5414.04

     ewald   stress (kbar) -16696.20     -0.00     -0.00
                               -0.00 -27300.48   -124.53
                               -0.00   -124.53 -22141.56

     hubbard stress (kbar)      0.00      0.00      0.00
                                0.00      0.00      0.00
                                0.00      0.00      0.00

     DFT-D   stress (kbar)      0.00      0.00      0.00
                                0.00      0.00      0.00
                                0.00      0.00      0.00

     XDM     stress (kbar)      0.00      0.00      0.00
                                0.00      0.00      0.00
                                0.00      0.00      0.00

     dft-nl  stress (kbar)      0.00      0.00      0.00
                                0.00      0.00      0.00
                                0.00      0.00      0.00

     TS-vdW  stress (kbar)      0.00      0.00      0.00
                                0.00      0.00      0.00
                                0.00      0.00      0.00

[...]

                                0.00      0.00      0.00

     Writing all to output data dir new_calculations/myprefix.save/

     General routines

     Parallel routines

   This run was terminated on:  16:45:58  21May2023

   JOB DONE.