     Program PWSCF v.7.0 starts on 20May2023 at  9:45:50

     Reading input from espresso_5306.pwi
Warning: card &CELL ignored
Warning: card / ignored

     Current dimensions of program PWSCF are:
     Max number of different atomic species (ntypx) = 10
     Max number of k-points (npk) =  40000
     Max angular momentum in pseudopotentials (lmaxx) =  4

     gamma-point specific algorithms are used
     Message from routine setup:
     using ibrav=0 with symmetry is DISCOURAGED, use correct ibrav instead

     Subspace diagonalization in iterative solution of the eigenvalue problem:
     a serial algorithm will be used

     Using Slab Decomposition

     bravais-lattice index     =            0
     lattice parameter (alat)  =      13.5532  a.u.
     unit-cell volume          =    1760.4161 (a.u.)^3
     number of atoms/cell      =           14
     number of atomic types    =            4
     number of electrons       =       142.00
     number of Kohn-Sham states=           85
     kinetic-energy cutoff     =      30.0000  Ry
     charge density cutoff     =     240.0000  Ry
     scf convergence threshold =      1.0E-06
     mixing beta               =       0.7000
     number of iterations used =            8  plain     mixing
     Exchange-correlation=  SLA  PW   PBX  PBC
                           (   1   4   3   4   0   0   0)

     celldm(1)=  13.553250  celldm(2)=   0.000000  celldm(3)=   0.000000
     celldm(4)=   0.000000  celldm(5)=   0.000000  celldm(6)=   0.000000

     crystal axes: (cart. coord. in units of alat)
               a(1) = (   1.000000   0.000000   0.000000 )
               a(2) = (   0.500000   0.866025   0.000000 )
               a(3) = (   0.500000   0.288675   0.816497 )

     reciprocal axes: (cart. coord. in units 2 pi/alat)
               b(1) = (  1.000000 -0.577350 -0.408248 )
               b(2) = (  0.000000  1.154701 -0.408248 )
               b(3) = (  0.000000  0.000000  1.224745 )

     PseudoPot. # 1 for Cr read from file:
     /home/pragov/projects/rrg-bengioy-ad/pragov/crystal_structure_design/SSSP/cr_pbe_v1.5.uspp.F.UPF
     MD5 check sum: 0d52af634a40206e4dee301ad30da4bf
     Pseudo is Ultrasoft + core correction, Zval = 14.0
     Generated by new atomic code, or converted to UPF format
     Using radial grid of  857 points,  6 beta functions with:
                l(1) =   0
                l(2) =   0
                l(3) =   1
                l(4) =   1
                l(5) =   2
                l(6) =   2
     Q(r) pseudized with  8 coefficients,  rinner =    0.950   0.950   0.950
                                                       0.950   0.950

     PseudoPot. # 2 for Cu read from file:
     /home/pragov/projects/rrg-bengioy-ad/pragov/crystal_structure_design/SSSP/Cu_pbe_v1.2.uspp.F.UPF
     MD5 check sum: 6e991ff952a84172a2a52a1c1e996048
     Pseudo is Ultrasoft + core correction, Zval = 19.0
     Generated by new atomic code, or converted to UPF format
     Using radial grid of  867 points,  6 beta functions with:
                l(1) =   0
                l(2) =   0
                l(3) =   1
                l(4) =   1
                l(5) =   2
                l(6) =   2
     Q(r) pseudized with  8 coefficients,  rinner =    1.150   1.150   1.150
                                                       1.150   1.150

     PseudoPot. # 3 for Se read from file:
     /home/pragov/projects/rrg-bengioy-ad/pragov/crystal_structure_design/SSSP/Se_pbe_v1.uspp.F.UPF
     MD5 check sum: 1b3568f3a8ae88f9a2a0ad0698632c85
     Pseudo is Ultrasoft + core correction, Zval =  6.0
     Generated by new atomic code, or converted to UPF format
     Using radial grid of  877 points,  6 beta functions with:
                l(1) =   0
                l(2) =   0
                l(3) =   1
                l(4) =   1
                l(5) =   2
                l(6) =   2
     Q(r) pseudized with  8 coefficients,  rinner =    1.300   1.300   1.300
                                                       1.300   1.300

     PseudoPot. # 4 for S  read from file:
     /home/pragov/projects/rrg-bengioy-ad/pragov/crystal_structure_design/SSSP/s_pbe_v1.4.uspp.F.UPF
     MD5 check sum: 88d86576ff6df21479756cfb9bdac1df
     Pseudo is Ultrasoft + core correction, Zval =  6.0
     Generated by new atomic code, or converted to UPF format
     Using radial grid of  907 points,  6 beta functions with:
                l(1) =   0
                l(2) =   0
                l(3) =   1
                l(4) =   1
                l(5) =   2
                l(6) =   2
     Q(r) pseudized with  8 coefficients,  rinner =    1.300   1.300   1.300
                                                       1.300   1.300

     atomic species   valence    mass     pseudopotential
        Cr            14.00    51.99610     Cr( 1.00)
        Cu            19.00    63.54600     Cu( 1.00)
        Se             6.00    78.97100     Se( 1.00)
        S              6.00    32.06000     S ( 1.00)

      6 Sym. Ops. (no inversion) found

                                    s                        frac. trans.

      isym =  1     identity

 cryst.   s( 1) = (     1          0          0      )
                  (     0          1          0      )
                  (     0          0          1      )

 cart.    s( 1) = (  1.0000000  0.0000000  0.0000000 )
                  (  0.0000000  1.0000000  0.0000000 )
                  (  0.0000000  0.0000000  1.0000000 )

      isym =  2     120 deg rotation - cryst. axis [0,0,1]

[...]

      isym =  3     120 deg rotation - cryst. axis [0,0,-1]

[...]

      isym =  4     inv. 180 deg rotation - cart. axis [1,0,0]

[...]

      isym =  5     inv. 180 deg rotation - cryst. axis [0,1,0]

[...]

      isym =  6     inv. 180 deg rotation - cryst. axis [1,1,0]

 cryst.   s( 6) = (     1         -1          0      )
                  (     0         -1          0      )
                  (     0         -1          1      )

 cart.    s( 6) = (  0.5000000 -0.8660254  0.0000000 )
                  ( -0.8660254 -0.5000000  0.0000000 )
                  (  0.0000000  0.0000000  1.0000000 )

   Cartesian axes

     site n.     atom                  positions (alat units)
         1           Cr  tau(   1) = (   0.7639910   0.1362604   0.0963507  )
         2           Cr  tau(   2) = (   0.5000005   0.5935054   0.0963507  )
         3           Cr  tau(   3) = (   0.5000005   0.2886754   0.5274454  )
         4           Cr  tau(   4) = (   0.2360100   0.1362604   0.0963507  )
         5           Cu  tau(   5) = (   1.5000000   0.8660254   0.6123724  )
         6           Cu  tau(   6) = (   1.0000000   0.5773503   0.4082483  )
         7           Se  tau(   7) = (   1.2674680   0.4229275   0.2990549  )
         8           Se  tau(   8) = (   1.0000000   0.8861957   0.2990549  )
         9           Se  tau(   9) = (   1.0000000   0.5773503   0.7358284  )
        10           Se  tau(  10) = (   0.7325320   0.4229275   0.2990549  )
        11           S   tau(  11) = (   1.2353110   1.0188431   0.7204309  )
        12           S   tau(  12) = (   1.4999995   0.5603892   0.7204309  )
        13           S   tau(  13) = (   1.4999995   0.8660251   0.2881963  )
        14           S   tau(  14) = (   1.7646880   1.0188431   0.7204309  )

   Crystallographic axes

     site n.     atom                  positions (cryst. coord.)
         1           Cr  tau(   1) = (  0.6459860  0.1180050  0.1180050  )
         2           Cr  tau(   2) = (  0.1180050  0.6459860  0.1180050  )
         3           Cr  tau(   3) = (  0.1180050  0.1180050  0.6459860  )
         4           Cr  tau(   4) = (  0.1180050  0.1180050  0.1180050  )
         5           Cu  tau(   5) = (  0.7500000  0.7500000  0.7500000  )
         6           Cu  tau(   6) = (  0.5000000  0.5000000  0.5000000  )
         7           Se  tau(   7) = (  0.9012020  0.3662660  0.3662660  )
         8           Se  tau(   8) = (  0.3662660  0.9012020  0.3662660  )
         9           Se  tau(   9) = (  0.3662660  0.3662660  0.9012020  )
        10           Se  tau(  10) = (  0.3662660  0.3662660  0.3662660  )
        11           S   tau(  11) = (  0.3529670  0.8823440  0.8823440  )
        12           S   tau(  12) = (  0.8823440  0.3529670  0.8823440  )
        13           S   tau(  13) = (  0.8823440  0.8823440  0.3529670  )
        14           S   tau(  14) = (  0.8823440  0.8823440  0.8823440  )

     number of k points=     1  Methfessel-Paxton smearing, width (Ry)=  0.0010
                       cart. coord. in units 2pi/alat
        k(    1) = (   0.0000000   0.0000000   0.0000000), wk =   2.0000000

                       cryst. coord.
        k(    1) = (   0.0000000   0.0000000   0.0000000), wk =   2.0000000

     Check: negative core charge=   -0.000005

     Initial potential from superposition of free atoms

     starting charge     135.9995, renormalised to     142.0000
     Starting wfcs are   98 randomized atomic wfcs

     Self-consistent Calculation

     iteration #  1     ecut=    30.00 Ry     beta= 0.70
     Davidson diagonalization with overlap

     ethr =  1.00E-02,  avg # of iterations =  4.0

     total energy              =   -1716.70742771 Ry
     estimated scf accuracy    <      75.39239152 Ry

[...]

     negative rho (up, down):  2.525E-07 0.000E+00

[...]

     WARNING: integrated charge=   142.00018182, expected=   142.00000000

[...]

     WARNING: integrated charge=   142.00001988, expected=   142.00000000

[...]

     total energy              =   -1780.12337225 Ry
     estimated scf accuracy    <       0.00000218 Ry

     iteration # 65     ecut=    30.00 Ry     beta= 0.70
     Davidson diagonalization with overlap

     ethr =  1.54E-09,  avg # of iterations =  1.0

     End of self-consistent calculation

          k = 0.0000 0.0000 0.0000 (  2455 PWs)   bands (ev):

  -104.1671-103.4947 -62.7723 -62.7705 -62.7704 -62.7702 -61.5422 -61.5422
   -61.5421 -60.8738 -60.8738 -60.8737 -34.2014 -34.1766 -34.1765 -34.1763
   -34.0773 -34.0773 -34.0772 -34.0764 -34.0764 -34.0683 -34.0682 -34.0682
    -5.5245  -4.1479  -3.9330  -3.9329  -3.9327  -3.7467  -3.7466  -3.7465
     2.1720   2.9735   3.1073   3.1073   3.1073   3.9003   3.9003   4.9703
     4.9703   4.9704   5.1853   5.1854   5.1854   5.3612   5.3613   5.9918
     5.9919   5.9919   6.1421   6.1421   6.6314   6.6314   6.6387   6.6387
     6.6387   6.9125   6.9125   6.9125   7.2524   7.2524   7.2525   7.9529
     8.1771   8.1771   8.7671   8.7672   8.7672   8.8687   8.8687   8.8688
     9.2517   9.2518   9.2518   9.4274   9.4274   9.4275  11.5020  11.5020
    11.5021  11.5333  11.5333  11.6012  11.6013

     occupation numbers
     1.0000   1.0000   1.0000   1.0000   1.0000   1.0000   1.0000   1.0000
     1.0000   1.0000   1.0000   1.0000   1.0000   1.0000   1.0000   1.0000
     1.0000   1.0000   1.0000   1.0000   1.0000   1.0000   1.0000   1.0000
     1.0000   1.0000   1.0000   1.0000   1.0000   1.0000   1.0000   1.0000
     1.0000   1.0000   1.0000   1.0000   1.0000   1.0000   1.0000   1.0000
     1.0000   1.0000   1.0000   1.0000   1.0000   1.0000   1.0000   1.0000
     1.0000   1.0000   1.0000   1.0000   1.0000   1.0000   1.0000   1.0000
     1.0000   1.0000   1.0000   1.0000   1.0000   1.0000   1.0000   1.0000
     1.0000   1.0000   1.0000   1.0000   1.0000   0.6682   0.6672   0.6646
    -0.0000  -0.0000  -0.0000  -0.0000  -0.0000  -0.0000  -0.0000  -0.0000
    -0.0000  -0.0000  -0.0000  -0.0000  -0.0000

     the Fermi energy is     8.8715 ev

!    total energy              =   -1780.12337168 Ry
     estimated scf accuracy    <       0.00000078 Ry
     smearing contrib. (-TS)   =      -0.00074671 Ry
     internal energy E=F+TS    =   -1780.12262497 Ry

     The total energy is F=E-TS. E is the sum of the following terms:
     one-electron contribution =   -1229.91513061 Ry
     hartree contribution      =     667.53218682 Ry
     xc contribution           =    -319.75024327 Ry
     ewald contribution        =    -897.98943792 Ry

     convergence has been achieved in  65 iterations

     Forces acting on atoms (cartesian axes, Ry/au):

     atom    1 type  1   force =     0.08322375   -0.04804926   -0.03395584
     atom    2 type  1   force =     0.00000000    0.09609851   -0.03395584
     atom    3 type  1   force =     0.00000000    0.00000000    0.10214722
     atom    4 type  1   force =    -0.08322375   -0.04804926   -0.03395584
     atom    5 type  2   force =    -0.00000000   -0.00000000    0.00040908
     atom    6 type  2   force =     0.00000000    0.00000000   -0.00091539
     atom    7 type  3   force =     0.00675524   -0.00390014   -0.00269626
     atom    8 type  3   force =     0.00000000    0.00780027   -0.00269626
     atom    9 type  3   force =     0.00000000    0.00000000    0.00818044
     atom   10 type  3   force =    -0.00675524   -0.00390014   -0.00269626
     atom   11 type  4   force =    -0.01139192    0.00657713    0.00467788
     atom   12 type  4   force =     0.00000000   -0.01315425    0.00467788
     atom   13 type  4   force =     0.00000000    0.00000000   -0.01389870
     atom   14 type  4   force =     0.01139192    0.00657713    0.00467788
     The non-local contrib.  to forces
     atom    1 type  1   force =    -0.02565222    0.01481031    0.01046630
     atom    2 type  1   force =     0.00000000   -0.02962063    0.01046630
     atom    3 type  1   force =     0.00000000    0.00000000   -0.03138058
     atom    4 type  1   force =     0.02565222    0.01481031    0.01046630
     atom    5 type  2   force =     0.00000000    0.00000000    0.00040527
     atom    6 type  2   force =     0.00000000    0.00000000   -0.00114513
     atom    7 type  3   force =     0.01230647   -0.00710515   -0.00498420
     atom    8 type  3   force =     0.00000000    0.01421029   -0.00498420
     atom    9 type  3   force =     0.00000000    0.00000000    0.01504449
     atom   10 type  3   force =    -0.01230647   -0.00710515   -0.00498420
     atom   11 type  4   force =    -0.01881993    0.01086569    0.00765799
     atom   12 type  4   force =     0.00000000   -0.02173139    0.00765799
     atom   13 type  4   force =     0.00000000    0.00000000   -0.02295377
     atom   14 type  4   force =     0.01881993    0.01086569    0.00765799
     The ionic contribution  to forces
     atom    1 type  1   force =    -4.28231359    2.47232864    1.74820035
     atom    2 type  1   force =    -0.00005739   -4.94475668    1.74820035
     atom    3 type  1   force =    -0.00005739   -0.00003313   -5.24469475
     atom    4 type  1   force =     4.28222971    2.47234648    1.74821296
     atom    5 type  2   force =     0.00001961    0.00001132    0.00000800
     atom    6 type  2   force =     0.00001961    0.00001132    0.00000801
     atom    7 type  3   force =     0.12765963   -0.07369726   -0.05211183
     atom    8 type  3   force =     0.00000611    0.14740511   -0.05211184
     atom    9 type  3   force =     0.00000611    0.00000353    0.15634549
     atom   10 type  3   force =    -0.12764708   -0.07369708   -0.05211170
     atom   11 type  4   force =     1.96540683   -1.13470390   -0.80235682
     atom   12 type  4   force =     0.00002101    2.26944419   -0.80235682
     atom   13 type  4   force =     0.00002101    0.00001213    2.40710477
     atom   14 type  4   force =    -1.96531418   -1.13467467   -0.80233615
     The local contribution  to forces
     atom    1 type  1   force =     4.38906987   -2.53400839   -1.79167658
     atom    2 type  1   force =     0.00019017    5.06838587   -1.79226270
     atom    3 type  1   force =     0.00045431   -0.00031061    5.37595389
     atom    4 type  1   force =    -4.38914285   -2.53428914   -1.79215943
     atom    5 type  2   force =     0.00051428    0.00020314   -0.00057525
     atom    6 type  2   force =    -0.00201364    0.00031298    0.00162933
     atom    7 type  3   force =    -0.13185826    0.07579085    0.05387673
     atom    8 type  3   force =    -0.00008947   -0.15218557    0.05400374
     atom    9 type  3   force =    -0.00021551   -0.00017328   -0.16188873
     atom   10 type  3   force =     0.13209314    0.07604064    0.05421932
     atom   11 type  4   force =    -1.95873770    1.13117452    0.79943954
     atom   12 type  4   force =     0.00016480   -2.26203242    0.79954913
     atom   13 type  4   force =     0.00015074    0.00019995   -2.39900193
     atom   14 type  4   force =     1.95877406    1.13099499    0.79933019
     The core correction contribution to forces
     atom    1 type  1   force =     0.00196652   -0.00113526   -0.00080198
     atom    2 type  1   force =     0.00000046    0.00227692   -0.00080614
     atom    3 type  1   force =     0.00000159   -0.00000128    0.00242231
     atom    4 type  1   force =    -0.00197551   -0.00114122   -0.00080730
     atom    5 type  2   force =     0.00000109   -0.00000015   -0.00000078
     atom    6 type  2   force =    -0.00000268    0.00000036    0.00000208
     atom    7 type  3   force =    -0.00112366    0.00064949    0.00045065
     atom    8 type  3   force =     0.00000912   -0.00129477    0.00045725
     atom    9 type  3   force =     0.00000256    0.00000185   -0.00137577
     atom   10 type  3   force =     0.00112683    0.00064211    0.00045446
     atom   11 type  4   force =     0.00072643   -0.00042070   -0.00029574
     atom   12 type  4   force =    -0.00000233    0.00083487   -0.00029510
     atom   13 type  4   force =    -0.00000150   -0.00000089    0.00088108
     atom   14 type  4   force =    -0.00072125   -0.00041518   -0.00029303
     The Hubbard contrib.    to forces
     atom    1 type  1   force =     0.00000000    0.00000000    0.00000000
     atom    2 type  1   force =     0.00000000    0.00000000    0.00000000
     atom    3 type  1   force =     0.00000000    0.00000000    0.00000000
     atom    4 type  1   force =     0.00000000    0.00000000    0.00000000
     atom    5 type  2   force =     0.00000000    0.00000000    0.00000000
     atom    6 type  2   force =     0.00000000    0.00000000    0.00000000
     atom    7 type  3   force =     0.00000000    0.00000000    0.00000000
     atom    8 type  3   force =     0.00000000    0.00000000    0.00000000
     atom    9 type  3   force =     0.00000000    0.00000000    0.00000000
     atom   10 type  3   force =     0.00000000    0.00000000    0.00000000
     atom   11 type  4   force =     0.00000000    0.00000000    0.00000000
     atom   12 type  4   force =     0.00000000    0.00000000    0.00000000
     atom   13 type  4   force =     0.00000000    0.00000000    0.00000000
     atom   14 type  4   force =     0.00000000    0.00000000    0.00000000
     The SCF correction term to forces
     atom    1 type  1   force =     0.00009899    0.00001853   -0.00012366
     atom    2 type  1   force =    -0.00013412   -0.00017814    0.00038025
     atom    3 type  1   force =    -0.00034560    0.00033690   -0.00019907
     atom    4 type  1   force =    -0.00006125    0.00021308    0.00024118
     atom    5 type  2   force =    -0.00041020   -0.00026212    0.00052640
     atom    6 type  2   force =     0.00178024   -0.00034238   -0.00145510
     atom    7 type  3   force =    -0.00018535    0.00042243   -0.00004363
     atom    8 type  3   force =     0.00015271   -0.00032566   -0.00007284
     atom    9 type  3   force =     0.00020394    0.00018446    0.00000954
     atom   10 type  3   force =     0.00007712    0.00018157   -0.00028278
     atom   11 type  4   force =     0.00008862   -0.00038113    0.00016171
     atom   12 type  4   force =    -0.00021916    0.00031958    0.00007359
     atom   13 type  4   force =    -0.00019708   -0.00021751    0.00002572
     atom   14 type  4   force =    -0.00012679   -0.00014463    0.00030290

     Total force =     0.206514     Total SCF correction =     0.002759

     Computing stress (Cartesian axis) and pressure

          total   stress  (Ry/bohr**3)                   (kbar)     P=     -192.76
  -0.00131043  -0.00000000  -0.00000000         -192.77       -0.00       -0.00
  -0.00000000  -0.00131043   0.00000000           -0.00     -192.77        0.00
   0.00000000   0.00000000  -0.00131027            0.00        0.00     -192.75

     kinetic stress (kbar)  16463.36     -0.00      0.00
                               -0.00  16463.36     -0.00
                                0.00     -0.00  16463.85

     local   stress (kbar) -13856.90     -0.81     -0.44
                               -0.81 -13857.02     -0.05
                               -0.44     -0.05 -13858.21

     nonloc. stress (kbar)   9313.54      0.00     -0.00
                                0.00   9313.54     -0.00
                               -0.00     -0.00   9313.89

     hartree stress (kbar)  18593.46      0.27      0.15
                                0.27  18593.41      0.04
                                0.15      0.04  18593.90

     exc-cor stress (kbar)   4919.75      0.01      0.00
                                0.01   4919.75      0.00
                                0.00      0.00   4919.76

     corecor stress (kbar) -10613.10     -0.02     -0.01
                               -0.02 -10613.11     -0.00
                               -0.01     -0.00 -10613.13

     ewald   stress (kbar) -25012.79      0.01      0.00
                                0.01 -25012.80      0.00
                                0.00      0.00 -25012.80

     hubbard stress (kbar)      0.00      0.00      0.00
                                0.00      0.00      0.00
                                0.00      0.00      0.00

     DFT-D   stress (kbar)      0.00      0.00      0.00
                                0.00      0.00      0.00
                                0.00      0.00      0.00

     XDM     stress (kbar)      0.00      0.00      0.00
                                0.00      0.00      0.00
                                0.00      0.00      0.00

     dft-nl  stress (kbar)      0.00      0.00      0.00
                                0.00      0.00      0.00
                                0.00      0.00      0.00

     TS-vdW  stress (kbar)      0.00      0.00      0.00
                                0.00      0.00      0.00
                                0.00      0.00      0.00

[...]

                                0.00      0.00      0.00

     Writing all to output data dir new_calculations/myprefix.save/

     General routines

     Parallel routines

   This run was terminated on:   9:47:38  20May2023

   JOB DONE.