     Program PWSCF v.7.0 starts on 21May2023 at  3:25:31

     Reading input from espresso_18827.pwi
Warning: card &CELL ignored
Warning: card / ignored

     Current dimensions of program PWSCF are:
     Max number of different atomic species (ntypx) = 10
     Max number of k-points (npk) =  40000
     Max angular momentum in pseudopotentials (lmaxx) =  4

     gamma-point specific algorithms are used
     Message from routine setup:
     using ibrav=0 with symmetry is DISCOURAGED, use correct ibrav instead

     Subspace diagonalization in iterative solution of the eigenvalue problem:
     a serial algorithm will be used

     Using Slab Decomposition

     bravais-lattice index     =            0
     lattice parameter (alat)  =       8.3909  a.u.
     unit-cell volume          =    1306.2224 (a.u.)^3
     number of atoms/cell      =            8
     number of atomic types    =            2
     number of electrons       =       128.00
     number of Kohn-Sham states=           77
     kinetic-energy cutoff     =      30.0000  Ry
     charge density cutoff     =     240.0000  Ry
     scf convergence threshold =      1.0E-06
     mixing beta               =       0.7000
     number of iterations used =            8  plain     mixing
     Exchange-correlation= SLA  PW   PBE  PBE
                           (   1   4   3   4   0   0   0)

     celldm(1)=   8.390887  celldm(2)=   0.000000  celldm(3)=   0.000000
     celldm(4)=   0.000000  celldm(5)=   0.000000  celldm(6)=   0.000000

     crystal axes: (cart. coord. in units of alat)
               a(1) = (   1.000000   0.000000   0.000000 )
               a(2) = (   0.000000   1.383433   0.000000 )
               a(3) = (   0.000000   0.000000   1.598216 )

     reciprocal axes: (cart. coord. in units 2 pi/alat)
               b(1) = (  1.000000  0.000000  0.000000 )
               b(2) = (  0.000000  0.722839  0.000000 )
               b(3) = (  0.000000  0.000000  0.625698 )

     PseudoPot. # 1 for Pr read from file:
     /home/pragov/projects/rrg-bengioy-ad/pragov/crystal_structure_design/SSSP/Pr.GGA-PBE-paw-v1.0.UPF
     MD5 check sum: b5e1e58e76df433569641143f671cc27
     Pseudo is Projector augmented-wave + core cor, Zval = 13.0
     Generated using ATOMPAW code
     Shape of augmentation charge: BESSEL
     Using radial grid of 1103 points,  8 beta functions with:
                l(1) =   0
                l(2) =   0
                l(3) =   1
                l(4) =   1
                l(5) =   2
                l(6) =   2
                l(7) =   3
                l(8) =   3
     Q(r) pseudized with 0 coefficients

     PseudoPot. # 2 for Cu read from file:
     /home/pragov/projects/rrg-bengioy-ad/pragov/crystal_structure_design/SSSP/Cu_pbe_v1.2.uspp.F.UPF
     MD5 check sum: 6e991ff952a84172a2a52a1c1e996048
     Pseudo is Ultrasoft + core correction, Zval = 19.0
     Generated by new atomic code, or converted to UPF format
     Using radial grid of  867 points,  6 beta functions with:
                l(1) =   0
                l(2) =   0
                l(3) =   1
                l(4) =   1
                l(5) =   2
                l(6) =   2
     Q(r) pseudized with  8 coefficients,  rinner =    1.150   1.150   1.150
                                                       1.150   1.150

     atomic species   valence    mass     pseudopotential
        Pr            13.00   140.90766     Pr( 1.00)
        Cu            19.00    63.54600     Cu( 1.00)

      8 Sym. Ops., with inversion, found ( 6 have fractional translation)

                                    s                        frac. trans.

      isym =  1     identity

 cryst.   s( 1) = (     1          0          0      )
                  (     0          1          0      )
                  (     0          0          1      )

 cart.    s( 1) = (  1.0000000  0.0000000  0.0000000 )
                  (  0.0000000  1.0000000  0.0000000 )
                  (  0.0000000  0.0000000  1.0000000 )

      isym =  2     180 deg rotation - cart. axis [0,0,1]

 cryst.   s( 2) = (    -1          0          0      )    f =(  0.5000000 )
                  (     0         -1          0      )       (  0.5000000 )
                  (     0          0          1      )       ( -0.5000000 )

 cart.    s( 2) = ( -1.0000000  0.0000000  0.0000000 )    f =(  0.5000000 )
                  (  0.0000000 -1.0000000  0.0000000 )       (  0.6917167 )
                  (  0.0000000  0.0000000  1.0000000 )       ( -0.7991078 )

[...]

      isym =  4     180 deg rotation - cart. axis [1,0,0]

[...]

      isym =  5     inversion

 cryst.   s( 5) = (    -1          0          0      )
                  (     0         -1          0      )
                  (     0          0         -1      )

 cart.    s( 5) = ( -1.0000000  0.0000000  0.0000000 )
                  (  0.0000000 -1.0000000  0.0000000 )
                  (  0.0000000  0.0000000 -1.0000000 )

      isym =  6     inv. 180 deg rotation - cart. axis [0,0,1]

[...]

      isym =  8     inv. 180 deg rotation - cart. axis [1,0,0]

 cryst.   s( 8) = (    -1          0          0      )    f =(  0.5000000 )
                  (     0          1          0      )       (  0.0000000 )
                  (     0          0          1      )       (  0.0000000 )

 cart.    s( 8) = ( -1.0000000  0.0000000  0.0000000 )    f =(  0.5000000 )
                  (  0.0000000  1.0000000  0.0000000 )       (  0.0000000 )
                  (  0.0000000  0.0000000  1.0000000 )       (  0.0000000 )

   Cartesian axes

     site n.     atom                  positions (alat units)
         1           Pr  tau(   1) = (   0.2500000   0.4962680   1.0751995  )
         2           Pr  tau(   2) = (   0.2500000   0.1954487   0.2760917  )
         3           Pr  tau(   3) = (   0.7500000   0.8871654   0.5230160  )
         4           Pr  tau(   4) = (   0.7500000   1.1879846   1.3221238  )
         5           Cu  tau(   5) = (   0.2500000   1.2297187   0.8573371  )
         6           Cu  tau(   6) = (   0.2500000   0.8454313   0.0582294  )
         7           Cu  tau(   7) = (   0.7500000   0.1537147   0.7408784  )
         8           Cu  tau(   8) = (   0.7500000   0.5380020   1.5399861  )

   Crystallographic axes

     site n.     atom                  positions (cryst. coord.)
         1           Pr  tau(   1) = (  0.2500000  0.3587220  0.6727500  )
         2           Pr  tau(   2) = (  0.2500000  0.1412780  0.1727500  )
         3           Pr  tau(   3) = (  0.7500000  0.6412780  0.3272500  )
         4           Pr  tau(   4) = (  0.7500000  0.8587220  0.8272500  )
         5           Cu  tau(   5) = (  0.2500000  0.8888890  0.5364340  )
         6           Cu  tau(   6) = (  0.2500000  0.6111110  0.0364340  )
         7           Cu  tau(   7) = (  0.7500000  0.1111110  0.4635660  )
         8           Cu  tau(   8) = (  0.7500000  0.3888890  0.9635660  )

     number of k points=     1  Methfessel-Paxton smearing, width (Ry)=  0.0010
                       cart. coord. in units 2pi/alat
        k(    1) = (   0.0000000   0.0000000   0.0000000), wk =   2.0000000

                       cryst. coord.
        k(    1) = (   0.0000000   0.0000000   0.0000000), wk =   2.0000000

     Initial potential from superposition of free atoms

     starting charge     123.9703, renormalised to     128.0000
     Starting wfcs are  180 randomized atomic wfcs
     Checking if some PAW data can be deallocated...

     Self-consistent Calculation

     iteration #  1     ecut=    30.00 Ry     beta= 0.70
     Davidson diagonalization with overlap

     ethr =  1.00E-02,  avg # of iterations =  2.0

     total energy              =   -3641.42844446 Ry
     estimated scf accuracy    <       8.79979085 Ry

[...]

     total energy              =   -3648.24233125 Ry
     estimated scf accuracy    <       0.00000902 Ry

     iteration # 92     ecut=    30.00 Ry     beta= 0.70
     Davidson diagonalization with overlap

     ethr =  8.11E-10,  avg # of iterations =  1.0

     End of self-consistent calculation

          k = 0.0000 0.0000 0.0000 (  1819 PWs)   bands (ev):

  -101.0116-101.0095-101.0086-101.0069 -58.4553 -58.4537 -58.4343 -58.4299
   -58.3505 -58.3485 -58.3424 -58.3396 -58.2890 -58.2866 -58.2859 -58.2824
   -23.8172 -23.7384 -23.7374 -23.7318  -6.2419  -6.0271  -6.0031  -6.0025
    -5.8154  -5.8116  -5.6035  -5.5870  -5.5851  -5.5558  -5.5306  -5.4852
     6.3741   8.0569   8.2967   8.4954   8.5146   8.5247   8.5905   8.6381
     8.7901   8.8580   8.8723   8.9534   9.0376   9.0776   9.1828   9.2250
     9.2284   9.2316   9.2857   9.2911   9.3083   9.4932  10.0576  10.4065
    11.1747  11.4164  11.5097  11.6050  11.9408  11.9800  12.0063  12.0549
    12.0960  12.1470  12.1569  12.1673  12.1828  12.1830  12.1927  12.2155
    12.2513  12.2569  12.2580  12.2905  12.2953

     occupation numbers
     1.0000   1.0000   1.0000   1.0000   1.0000   1.0000   1.0000   1.0000
     1.0000   1.0000   1.0000   1.0000   1.0000   1.0000   1.0000   1.0000
     1.0000   1.0000   1.0000   1.0000   1.0000   1.0000   1.0000   1.0000
     1.0000   1.0000   1.0000   1.0000   1.0000   1.0000   1.0000   1.0000
     1.0000   1.0000   1.0000   1.0000   1.0000   1.0000   1.0000   1.0000
     1.0000   1.0000   1.0000   1.0000   1.0000   1.0000   1.0000   1.0000
     1.0000   1.0000   1.0000   1.0000   1.0000   1.0000   1.0000   1.0000
     1.0000   1.0000   1.0000   1.0000   1.0000   1.0000   1.0000   1.0272
    -0.0272  -0.0000  -0.0000  -0.0000  -0.0000  -0.0000  -0.0000  -0.0000
    -0.0000  -0.0000  -0.0000  -0.0000  -0.0000

     the Fermi energy is    12.0755 ev

!    total energy              =   -3648.24233083 Ry
     estimated scf accuracy    <       0.00000052 Ry
     smearing contrib. (-TS)   =       0.00020546 Ry
     internal energy E=F+TS    =   -3648.24253629 Ry

     The total energy is F=E-TS. E is the sum of the following terms:
     one-electron contribution =   -1565.06270289 Ry
     hartree contribution      =     854.93916357 Ry
     xc contribution           =    -202.34403409 Ry
     ewald contribution        =   -1057.68136235 Ry
     one-center paw contrib.   =   -1678.09360052 Ry
      -> PAW hartree energy AE =     250.93369764 Ry
      -> PAW hartree energy PS =    -251.02652088 Ry
      -> PAW xc energy AE      =   -1720.30144042 Ry
      -> PAW xc energy PS      =      42.30066314 Ry
      -> total E_H with PAW    =     854.84634033 Ry
      -> total E_XC with PAW   =   -1880.34481138 Ry

     convergence has been achieved in  92 iterations

     Forces acting on atoms (cartesian axes, Ry/au):

     atom    1 type  1   force =     0.00000000   -0.00025498    0.02840830
     atom    2 type  1   force =     0.00000000    0.00025498    0.02840830
     atom    3 type  1   force =     0.00000000    0.00025498   -0.02840830
     atom    4 type  1   force =     0.00000000   -0.00025498   -0.02840830
     atom    5 type  2   force =    -0.00000000   -0.01421692    0.00448279
     atom    6 type  2   force =     0.00000000    0.01421692    0.00448279
     atom    7 type  2   force =     0.00000000    0.01421692   -0.00448279
     atom    8 type  2   force =     0.00000000   -0.01421692   -0.00448279
     The non-local contrib.  to forces
     atom    1 type  1   force =     0.00000000    0.09114285   -0.07516174
     atom    2 type  1   force =     0.00000000   -0.09114285   -0.07516174
     atom    3 type  1   force =     0.00000000   -0.09114285    0.07516174
     atom    4 type  1   force =     0.00000000    0.09114285    0.07516174
     atom    5 type  2   force =     0.00000000    0.17601568   -0.00150109
     atom    6 type  2   force =     0.00000000   -0.17601568   -0.00150109
     atom    7 type  2   force =     0.00000000   -0.17601568    0.00150109
     atom    8 type  2   force =     0.00000000    0.17601568    0.00150109
     The ionic contribution  to forces
     atom    1 type  1   force =     0.00000000    4.15811131   -5.03370945
     atom    2 type  1   force =    -0.00000000   -4.15811131   -5.03370945
     atom    3 type  1   force =     0.00000000   -4.15811131    5.03370945
     atom    4 type  1   force =    -0.00000000    4.15811131    5.03370945
     atom    5 type  2   force =     0.00000000  -14.65801409    5.40437939
     atom    6 type  2   force =    -0.00000000   14.65801409    5.40437939
     atom    7 type  2   force =    -0.00000000   14.65801409   -5.40437939
     atom    8 type  2   force =    -0.00000000  -14.65801409   -5.40437939
     The local contribution  to forces
     atom    1 type  1   force =     0.00001807   -4.24942850    5.13708593
     atom    2 type  1   force =    -0.00000070    4.24947794    5.13717532
     atom    3 type  1   force =    -0.00002245    4.24951668   -5.13744788
     atom    4 type  1   force =     0.00002887   -4.24936206   -5.13688209
     atom    5 type  2   force =     0.00000798   14.46809418   -5.39953149
     atom    6 type  2   force =    -0.00000377  -14.46827265   -5.39763297
     atom    7 type  2   force =    -0.00002830  -14.46795347    5.39718500
     atom    8 type  2   force =    -0.00001395   14.46752699    5.39951106
     The core correction contribution to forces
     atom    1 type  1   force =     0.00000000   -0.00001692    0.00002057
     atom    2 type  1   force =    -0.00000000    0.00001692    0.00002052
     atom    3 type  1   force =    -0.00000000    0.00001696   -0.00002056
     atom    4 type  1   force =     0.00000001   -0.00001694   -0.00002057
     atom    5 type  2   force =    -0.00000000   -0.00024311    0.00000282
     atom    6 type  2   force =     0.00000000    0.00024306    0.00000290
     atom    7 type  2   force =    -0.00000003    0.00024309   -0.00000295
     atom    8 type  2   force =    -0.00000001   -0.00024307   -0.00000280
     The Hubbard contrib.    to forces
     atom    1 type  1   force =     0.00000000    0.00000000    0.00000000
     atom    2 type  1   force =     0.00000000    0.00000000    0.00000000
     atom    3 type  1   force =     0.00000000    0.00000000    0.00000000
     atom    4 type  1   force =     0.00000000    0.00000000    0.00000000
     atom    5 type  2   force =     0.00000000    0.00000000    0.00000000
     atom    6 type  2   force =     0.00000000    0.00000000    0.00000000
     atom    7 type  2   force =     0.00000000    0.00000000    0.00000000
     atom    8 type  2   force =     0.00000000    0.00000000    0.00000000
     The SCF correction term to forces
     atom    1 type  1   force =     0.00000154   -0.00000955    0.00019009
     atom    2 type  1   force =    -0.00000547    0.00001446    0.00001686
     atom    3 type  1   force =     0.00001707    0.00004055    0.00018904
     atom    4 type  1   force =    -0.00001265   -0.00011908   -0.00042660
     atom    5 type  2   force =    -0.00000102   -0.00005974    0.00105561
     atom    6 type  2   force =     0.00001504    0.00019243   -0.00071020
     atom    7 type  2   force =     0.00002109   -0.00004102    0.00109502
     atom    8 type  2   force =     0.00000401    0.00046215   -0.00101659

     Total force =     0.064166     Total SCF correction =     0.002092

     Computing stress (Cartesian axis) and pressure

          total   stress  (Ry/bohr**3)                   (kbar)     P=     -374.40
  -0.00265482   0.00000000   0.00000000         -390.54        0.00        0.00
   0.00000000  -0.00301091   0.00000000            0.00     -442.92        0.00
   0.00000000   0.00000000  -0.00196973            0.00        0.00     -289.76

     kinetic stress (kbar)  18560.78      0.00      0.00
                                0.00  18416.28      0.00
                                0.00      0.00  18602.82

     local   stress (kbar) -39574.87     -0.01      0.00
                               -0.01  -9639.56      0.15
                                0.00      0.15  -7427.24

     nonloc. stress (kbar)  14697.27      0.00      0.00
                                0.00  14853.82      0.00
                                0.00      0.00  14888.68

     hartree stress (kbar)  41806.18      0.00     -0.00
                                0.00  27749.35     -0.15
                               -0.00     -0.15  26726.60

     exc-cor stress (kbar)  -7045.05     -0.00     -0.00
                               -0.00  -7050.14      0.00
                               -0.00      0.00  -7047.18

     corecor stress (kbar)   -175.37     -0.00      0.00
                               -0.00   -175.43     -0.00
                                0.00     -0.00   -175.47

     ewald   stress (kbar) -28659.48     -0.00      0.00
                               -0.00 -44597.25      0.00
                                0.00      0.00 -45857.97

     hubbard stress (kbar)      0.00      0.00      0.00
                                0.00      0.00      0.00
                                0.00      0.00      0.00

     DFT-D   stress (kbar)      0.00      0.00      0.00
                                0.00      0.00      0.00
                                0.00      0.00      0.00

     XDM     stress (kbar)      0.00      0.00      0.00
                                0.00      0.00      0.00
                                0.00      0.00      0.00

     dft-nl  stress (kbar)      0.00      0.00      0.00
                                0.00      0.00      0.00
                                0.00      0.00      0.00

     TS-vdW  stress (kbar)      0.00      0.00      0.00
                                0.00      0.00      0.00
                                0.00      0.00      0.00

[...]

                                0.00      0.00      0.00

     Writing all to output data dir new_calculations/myprefix.save/

     General routines

     Parallel routines

     PAW routines

   This run was terminated on:   3:29:21  21May2023

   JOB DONE.