     Program PWSCF v.7.0 starts on 21May2023 at  5:39:22

     Reading input from espresso_19775.pwi
Warning: card &CELL ignored
Warning: card / ignored

     Current dimensions of program PWSCF are:
     Max number of different atomic species (ntypx) = 10
     Max number of k-points (npk) =  40000
     Max angular momentum in pseudopotentials (lmaxx) =  4
     file O.pbe-n-kjpaw_psl.0.1.UPF: wavefunction(s)  2P renormalized

     gamma-point specific algorithms are used
     Message from routine setup:
     using ibrav=0 with symmetry is DISCOURAGED, use correct ibrav instead

     Subspace diagonalization in iterative solution of the eigenvalue problem:
     a serial algorithm will be used

     Using Slab Decomposition

     bravais-lattice index     =            0
     lattice parameter (alat)  =      13.0233  a.u.
     unit-cell volume          =    1248.4440 (a.u.)^3
     number of atoms/cell      =           14
     number of atomic types    =            4
     number of electrons       =       123.00
     number of Kohn-Sham states=           74
     kinetic-energy cutoff     =      30.0000  Ry
     charge density cutoff     =     240.0000  Ry
     scf convergence threshold =      1.0E-06
     mixing beta               =       0.7000
     number of iterations used =            8  plain     mixing
     Exchange-correlation= SLA  PW   PBX  PBC
                           (   1   4   3   4   0   0   0)

     celldm(1)=  13.023348  celldm(2)=   0.000000  celldm(3)=   0.000000
     celldm(4)=   0.000000  celldm(5)=   0.000000  celldm(6)=   0.000000

     crystal axes: (cart. coord. in units of alat)
               a(1) = (   1.000000   0.000000   0.000000 )
               a(2) = (  -0.689627   0.724165   0.000000 )
               a(3) = (   0.000000   0.000000   0.780483 )

     reciprocal axes: (cart. coord. in units 2 pi/alat)
               b(1) = (  1.000000  0.952307  0.000000 )
               b(2) = (  0.000000  1.380901  0.000000 )
               b(3) = (  0.000000  0.000000  1.281257 )

     PseudoPot. # 1 for Sr read from file:
     /home/pragov/projects/rrg-bengioy-ad/pragov/crystal_structure_design/SSSP/Sr_pbe_v1.uspp.F.UPF
     MD5 check sum: 6b418c05fbe9db5448babca5e47b7a5b
     Pseudo is Ultrasoft + core correction, Zval = 10.0
     Generated by new atomic code, or converted to UPF format
     Using radial grid of  883 points,  6 beta functions with:
                l(1) =   0
                l(2) =   0
                l(3) =   1
                l(4) =   1
                l(5) =   2
                l(6) =   2
     Q(r) pseudized with  6 coefficients,  rinner =    1.400   1.400   1.400
                                                       1.400   1.400

     PseudoPot. # 2 for La read from file:
     /home/pragov/projects/rrg-bengioy-ad/pragov/crystal_structure_design/SSSP/La.GGA-PBE-paw-v1.0.UPF
     MD5 check sum: 436541e95c1ad8901025bd0b0ed42ae2
     Pseudo is Projector augmented-wave + core cor, Zval = 11.0
     Generated using ATOMPAW code
     Shape of augmentation charge: BESSEL
     Using radial grid of 1101 points,  8 beta functions with:
                l(1) =   0
                l(2) =   0
                l(3) =   1
                l(4) =   1
                l(5) =   2
                l(6) =   2
                l(7) =   3
                l(8) =   3
     Q(r) pseudized with 0 coefficients

     PseudoPot. # 3 for Co read from file:
     /home/pragov/projects/rrg-bengioy-ad/pragov/crystal_structure_design/SSSP/Co_pbe_v1.2.uspp.F.UPF
     MD5 check sum: 5f91765df6ddd3222702df6e7b74a16d
     Pseudo is Ultrasoft + core correction, Zval = 17.0
     Generated by new atomic code, or converted to UPF format
     Using radial grid of  863 points,  6 beta functions with:
                l(1) =   0
                l(2) =   0
                l(3) =   1
                l(4) =   1
                l(5) =   2
                l(6) =   2
     Q(r) pseudized with  8 coefficients,  rinner =    1.200   1.200   1.200
                                                       1.200   1.200

     PseudoPot. # 4 for O  read from file:
     /home/pragov/projects/rrg-bengioy-ad/pragov/crystal_structure_design/SSSP/O.pbe-n-kjpaw_psl.0.1.UPF
     MD5 check sum: 0234752ac141de4415c5fc33072bef88
     Pseudo is Projector augmented-wave + core cor, Zval =  6.0
     Generated using "atomic" code by A. Dal Corso  v.5.0.99 svn rev. 10869
     Shape of augmentation charge: BESSEL
     Using radial grid of 1095 points,  4 beta functions with:
                l(1) =   0
                l(2) =   0
                l(3) =   1
                l(4) =   1
     Q(r) pseudized with 0 coefficients

     atomic species   valence    mass     pseudopotential
        Sr            10.00    87.62000     Sr( 1.00)
        La            11.00   138.90547     La( 1.00)
        Co            17.00    58.93319     Co( 1.00)
        O              6.00    15.99900     O ( 1.00)

      2 Sym. Ops. (no inversion) found

                                    s                        frac. trans.

      isym =  1     identity

 cryst.   s( 1) = (     1          0          0      )
                  (     0          1          0      )
                  (     0          0          1      )

 cart.    s( 1) = (  1.0000000  0.0000000  0.0000000 )
                  (  0.0000000  1.0000000  0.0000000 )
                  (  0.0000000  0.0000000  1.0000000 )

      isym =  2     inv. 180 deg rotation - cart. axis [0,0,1]

 cryst.   s( 2) = (     1          0          0      )
                  (     0          1          0      )
                  (     0          0         -1      )

 cart.    s( 2) = (  1.0000000  0.0000000  0.0000000 )
                  (  0.0000000  1.0000000  0.0000000 )
                  (  0.0000000  0.0000000 -1.0000000 )

   Cartesian axes

     site n.     atom                  positions (alat units)
         1           Sr  tau(   1) = (   0.3991163   0.2575355   0.0000000  )
         2           Sr  tau(   2) = (  -0.0853403   0.4651709   0.0000000  )
         3           Sr  tau(   3) = (   0.7567850   0.1042406   0.3902417  )
         4           La  tau(   4) = (  -0.4486963   0.6209033   0.3902417  )
         5           Co  tau(   5) = (   0.1511450   0.3638146   0.3902417  )
         6           Co  tau(   6) = (   0.9963200   0.0015772   0.0000000  )
         7           O   tau(   7) = (   0.7329798   0.1144434   0.0000000  )
         8           O   tau(   8) = (  -0.1334220   0.4857785   0.3902417  )
         9           O   tau(   9) = (   0.4293032   0.2445975   0.3902417  )
        10           O   tau(  10) = (  -0.4200064   0.6086070   0.0000000  )
        11           O   tau(  11) = (   0.2399869   0.5471695   0.5847679  )
        12           O   tau(  12) = (   0.0796335   0.1730319   0.1957156  )
        13           O   tau(  13) = (   0.0796335   0.1730319   0.5847679  )
        14           O   tau(  14) = (   0.2399869   0.5471695   0.1957156  )

   Crystallographic axes

     site n.     atom                  positions (cryst. coord.)
         1           Sr  tau(   1) = (  0.6443690  0.3556310  0.0000000  )
         2           Sr  tau(   2) = (  0.3576450  0.6423550  0.0000000  )
         3           Sr  tau(   3) = (  0.8560540  0.1439460  0.5000000  )
         4           La  tau(   4) = (  0.1425940  0.8574060  0.5000000  )
         5           Co  tau(   5) = (  0.4976080  0.5023920  0.5000000  )
         6           Co  tau(   6) = (  0.9978220  0.0021780  0.0000000  )
         7           O   tau(   7) = (  0.8419650  0.1580350  0.0000000  )
         8           O   tau(   8) = (  0.3291880  0.6708120  0.5000000  )
         9           O   tau(   9) = (  0.6622350  0.3377650  0.5000000  )
        10           O   tau(  10) = (  0.1595740  0.8404260  0.0000000  )
        11           O   tau(  11) = (  0.7610600  0.7555870  0.7492380  )
        12           O   tau(  12) = (  0.2444130  0.2389400  0.2507620  )
        13           O   tau(  13) = (  0.2444130  0.2389400  0.7492380  )
        14           O   tau(  14) = (  0.7610600  0.7555870  0.2507620  )

     number of k points=     1  Methfessel-Paxton smearing, width (Ry)=  0.0010
                       cart. coord. in units 2pi/alat
        k(    1) = (   0.0000000   0.0000000   0.0000000), wk =   2.0000000

                       cryst. coord.
        k(    1) = (   0.0000000   0.0000000   0.0000000), wk =   2.0000000

     Check: negative core charge=   -0.000016

     Initial potential from superposition of free atoms

     starting charge     120.8905, renormalised to     123.0000

     negative rho (up, down):  1.930E-01 0.000E+00
     Starting wfcs are  129 randomized atomic wfcs
     Checking if some PAW data can be deallocated...

     Self-consistent Calculation

     iteration #  1     ecut=    30.00 Ry     beta= 0.70
     Davidson diagonalization with overlap

     ethr =  1.00E-02,  avg # of iterations =  2.0

     negative rho (up, down):  1.930E-01 0.000E+00

     total energy              =   -1593.53173839 Ry
     estimated scf accuracy    <       8.78436916 Ry

[...]

     total energy              =   -1599.06735839 Ry
     estimated scf accuracy    <       0.00001937 Ry

     iteration # 31     ecut=    30.00 Ry     beta= 0.70
     Davidson diagonalization with overlap

     ethr =  1.57E-08,  avg # of iterations =  1.0

[...]

     End of self-consistent calculation

          k = 0.0000 0.0000 0.0000 (  1739 PWs)   bands (ev):

   -85.2854 -85.0522 -48.5992 -48.4484 -48.4454 -48.4371 -48.2558 -48.1052
   -22.8495 -22.7100 -22.6871 -20.4247  -8.2395  -7.3099  -7.3031  -6.6317
    -6.5445  -6.1544  -6.0924  -5.8583  -5.1275  -4.9658  -4.7555  -4.7460
    -4.7024  -4.6581  -4.5913  -4.3977  -4.1939  -4.0621  -3.9888  -3.3650
     4.0744   5.2947   5.5057   6.1790   6.2017   6.5874   6.6216   6.6831
     6.8635   7.1334   7.9022   8.1756   8.2159   8.3335   8.7402   8.7676
     8.7999   8.8742   8.8746   9.3948   9.6642   9.6899   9.7046   9.7462
     9.7936   9.9642   9.9962  10.1782  10.5443  10.5447  10.5554  10.9040
    12.3047  13.9468  14.2417  14.5307  14.6149  14.6997  14.7156  14.7274
    14.7699  14.8446

     occupation numbers
     1.0000   1.0000   1.0000   1.0000   1.0000   1.0000   1.0000   1.0000
     1.0000   1.0000   1.0000   1.0000   1.0000   1.0000   1.0000   1.0000
     1.0000   1.0000   1.0000   1.0000   1.0000   1.0000   1.0000   1.0000
     1.0000   1.0000   1.0000   1.0000   1.0000   1.0000   1.0000   1.0000
     1.0000   1.0000   1.0000   1.0000   1.0000   1.0000   1.0000   1.0000
     1.0000   1.0000   1.0000   1.0000   1.0000   1.0000   1.0000   1.0000
     1.0000   1.0000   1.0000   1.0000   1.0000   1.0000   1.0000   1.0000
     1.0000   1.0000   1.0000   1.0000   0.7114   0.6879   0.1007  -0.0000
    -0.0000  -0.0000  -0.0000  -0.0000  -0.0000  -0.0000  -0.0000  -0.0000
    -0.0000  -0.0000

     the Fermi energy is    10.5478 ev

!    total energy              =   -1599.06735860 Ry
     estimated scf accuracy    <       0.00000053 Ry
     smearing contrib. (-TS)   =      -0.00054715 Ry
     internal energy E=F+TS    =   -1599.06681145 Ry

     The total energy is F=E-TS. E is the sum of the following terms:
     one-electron contribution =    -674.70114032 Ry
     hartree contribution      =     410.59237963 Ry
     xc contribution           =    -188.74267142 Ry
     ewald contribution        =    -671.94144170 Ry
     one-center paw contrib.   =    -474.27393765 Ry
      -> PAW hartree energy AE =     269.45730467 Ry
      -> PAW hartree energy PS =    -268.64978051 Ry
      -> PAW xc energy AE      =    -542.34702484 Ry
      -> PAW xc energy PS      =      67.26556303 Ry
      -> total E_H with PAW    =     411.39990379 Ry
      -> total E_XC with PAW   =    -663.82413323 Ry

     convergence has been achieved in  31 iterations

     negative rho (up, down):  2.012E-01 0.000E+00

     Forces acting on atoms (cartesian axes, Ry/au):

     atom    1 type  1   force =    -0.05572565    0.02389254    0.00000000
     atom    2 type  1   force =     0.05902157   -0.02528947    0.00000000
     atom    3 type  1   force =     0.06139425   -0.02631540    0.00000000
     atom    4 type  2   force =    -0.07150180    0.03063074    0.00000000
     atom    5 type  3   force =     0.03718371   -0.01584536    0.00000000
     atom    6 type  3   force =     0.01458652   -0.00633572    0.00000000
     atom    7 type  4   force =    -0.01538458    0.00658865    0.00000000
     atom    8 type  4   force =    -0.03000222    0.01286137    0.00000000
     atom    9 type  4   force =    -0.00983940    0.00422206    0.00000000
     atom   10 type  4   force =     0.02298517   -0.00985431    0.00000000
     atom   11 type  4   force =    -0.01596249   -0.02846930   -0.01102379
     atom   12 type  4   force =     0.00960370    0.03119175    0.01103008
     atom   13 type  4   force =     0.00960370    0.03119175   -0.01103008
     atom   14 type  4   force =    -0.01596249   -0.02846930    0.01102379
     The non-local contrib.  to forces
     atom    1 type  1   force =     0.06983907   -0.02994453    0.00000000
     atom    2 type  1   force =    -0.08141970    0.03488295    0.00000000
     atom    3 type  1   force =    -0.07205841    0.03088183    0.00000000
     atom    4 type  2   force =     0.12981745   -0.05561650    0.00000000
     atom    5 type  3   force =    -0.07243860    0.03112684    0.00000000
     atom    6 type  3   force =    -0.04347440    0.01857062    0.00000000
     atom    7 type  4   force =     0.49416596   -0.21179992    0.00000000
     atom    8 type  4   force =     0.35729515   -0.15315988    0.00000000
     atom    9 type  4   force =    -0.38522409    0.16512808    0.00000000
     atom   10 type  4   force =    -0.33762968    0.14471148    0.00000000
     atom   11 type  4   force =     0.01586189    0.01123502   -0.02785442
     atom   12 type  4   force =     0.00285692   -0.01926798    0.02787772
     atom   13 type  4   force =     0.00285692   -0.01926798   -0.02787772
     atom   14 type  4   force =     0.01586189    0.01123502    0.02785442
     The ionic contribution  to forces
     atom    1 type  1   force =    13.01567571   -5.57844731   -0.00000000
     atom    2 type  1   force =   -12.83881178    5.50264440   -0.00000000
     atom    3 type  1   force =   -13.24992062    5.67884340    0.00000000
     atom    4 type  2   force =    14.61692890   -6.26473566    0.00000000
     atom    5 type  3   force =    -2.56661931    1.10003898    0.00000000
     atom    6 type  3   force =    -1.19505243    0.51219293   -0.00000000
     atom    7 type  4   force =   -13.94733603    5.97775182   -0.00000000
     atom    8 type  4   force =   -10.07651027    4.31873711    0.00000000
     atom    9 type  4   force =    12.04477666   -5.16232530    0.00000000
     atom   10 type  4   force =    13.16068785   -5.64059872   -0.00000000
     atom   11 type  4   force =    -0.28578002   -1.38221606   -0.75896398
     atom   12 type  4   force =     0.80387068    1.16016524    0.75896398
     atom   13 type  4   force =     0.80387068    1.16016524   -0.75896398
     atom   14 type  4   force =    -0.28578002   -1.38221606    0.75896398
     The local contribution  to forces
     atom    1 type  1   force =   -13.13623409    5.63010826    0.00003409
     atom    2 type  1   force =    12.97309169   -5.56019554    0.00000965
     atom    3 type  1   force =    13.37823181   -5.73379233   -0.00006063
     atom    4 type  2   force =   -14.81783291    6.35080927    0.00002274
     atom    5 type  3   force =     2.67510553   -1.14670207   -0.00005580
     atom    6 type  3   force =     1.25143101   -0.53621878    0.00005405
     atom    7 type  4   force =    13.44370360   -5.76188381    0.00000727
     atom    8 type  4   force =     9.69422768   -4.15488128    0.00001628
     atom    9 type  4   force =   -11.67399425    5.00338528   -0.00005400
     atom   10 type  4   force =   -12.80410136    5.48778004   -0.00000102
     atom   11 type  4   force =     0.25410556    1.34251740    0.77575420
     atom   12 type  4   force =    -0.79714361   -1.10974351   -0.77576565
     atom   13 type  4   force =    -0.79697365   -1.10981538    0.77580871
     atom   14 type  4   force =     0.25405253    1.34252043   -0.77576886
     The core correction contribution to forces
     atom    1 type  1   force =    -0.00480671    0.00206108    0.00000026
     atom    2 type  1   force =     0.00582193   -0.00249420    0.00000048
     atom    3 type  1   force =     0.00489596   -0.00209788   -0.00000209
     atom    4 type  2   force =    -0.00003856    0.00001650    0.00000001
     atom    5 type  3   force =     0.00078902   -0.00033904   -0.00000018
     atom    6 type  3   force =     0.00216293   -0.00092670   -0.00000029
     atom    7 type  4   force =    -0.00594897    0.00254977   -0.00000015
     atom    8 type  4   force =    -0.00528347    0.00226487    0.00000012
     atom    9 type  4   force =     0.00488907   -0.00209579   -0.00000033
     atom   10 type  4   force =     0.00402617   -0.00172567   -0.00000004
     atom   11 type  4   force =    -0.00001276    0.00010109    0.00042888
     atom   12 type  4   force =    -0.00008380   -0.00005938   -0.00042900
     atom   13 type  4   force =    -0.00008208   -0.00006030    0.00042932
     atom   14 type  4   force =    -0.00001319    0.00010116   -0.00042872
     The Hubbard contrib.    to forces
     atom    1 type  1   force =     0.00000000    0.00000000    0.00000000
     atom    2 type  1   force =     0.00000000    0.00000000    0.00000000
     atom    3 type  1   force =     0.00000000    0.00000000    0.00000000
     atom    4 type  2   force =     0.00000000    0.00000000    0.00000000
     atom    5 type  3   force =     0.00000000    0.00000000    0.00000000
     atom    6 type  3   force =     0.00000000    0.00000000    0.00000000
     atom    7 type  4   force =     0.00000000    0.00000000    0.00000000
     atom    8 type  4   force =     0.00000000    0.00000000    0.00000000
     atom    9 type  4   force =     0.00000000    0.00000000    0.00000000
     atom   10 type  4   force =     0.00000000    0.00000000    0.00000000
     atom   11 type  4   force =     0.00000000    0.00000000    0.00000000
     atom   12 type  4   force =     0.00000000    0.00000000    0.00000000
     atom   13 type  4   force =     0.00000000    0.00000000    0.00000000
     atom   14 type  4   force =     0.00000000    0.00000000    0.00000000
     The SCF correction term to forces
     atom    1 type  1   force =    -0.00020140    0.00011768   -0.00002975
     atom    2 type  1   force =     0.00033766   -0.00012446    0.00000155
     atom    3 type  1   force =     0.00024374   -0.00014780    0.00003011
     atom    4 type  2   force =    -0.00037845    0.00015977   -0.00000225
     atom    5 type  3   force =     0.00034531    0.00003257    0.00005913
     atom    6 type  3   force =    -0.00048235    0.00004886   -0.00005912
     atom    7 type  4   force =     0.00002910   -0.00002657   -0.00001457
     atom    8 type  4   force =     0.00026694   -0.00009681   -0.00001363
     atom    9 type  4   force =    -0.00028856    0.00013242    0.00003352
     atom   10 type  4   force =     0.00000043   -0.00001880    0.00000105
     atom   11 type  4   force =    -0.00012263   -0.00010832   -0.00038574
     atom   12 type  4   force =     0.00003281    0.00013153    0.00038818
     atom   13 type  4   force =    -0.00000100    0.00014129   -0.00042126
     atom   14 type  4   force =    -0.00010175   -0.00010301    0.00040569

     Total force =     0.164412     Total SCF correction =     0.001308

     Computing stress (Cartesian axis) and pressure

     negative rho (up, down):  2.012E-01 0.000E+00
          total   stress  (Ry/bohr**3)                   (kbar)     P=     -347.27
  -0.00309579   0.00050403   0.00000000         -455.41       74.15        0.00
   0.00050403  -0.00213558   0.00000000           74.15     -314.15        0.00
   0.00000000   0.00000000  -0.00185071            0.00        0.00     -272.25

     kinetic stress (kbar)  23537.44    161.30      0.00
                              161.30  23844.52      0.00
                                0.00      0.00  23959.95

     local   stress (kbar)   1797.76 -14301.96      0.71
                           -14301.96 -25441.43      0.52
                                0.71      0.52 -32000.88

     nonloc. stress (kbar)  10992.49     40.02      0.00
                               40.02  11068.57      0.00
                                0.00      0.00  11115.09

     hartree stress (kbar)   6453.20   6821.95     -0.34
                             6821.95  19446.20     -0.40
                               -0.34     -0.40  22481.00

     exc-cor stress (kbar)  -1897.46     -0.55     -0.00
                               -0.55  -1898.50     -0.00
                               -0.00     -0.00  -1898.06

     corecor stress (kbar)  -4472.48     -1.90      0.00
                               -1.90  -4476.10      0.00
                                0.00      0.00  -4477.79

     ewald   stress (kbar) -36866.37   7355.28     -0.00
                             7355.28 -22857.41      0.00
                               -0.00      0.00 -19451.57

     hubbard stress (kbar)      0.00      0.00      0.00
                                0.00      0.00      0.00
                                0.00      0.00      0.00

     DFT-D   stress (kbar)      0.00      0.00      0.00
                                0.00      0.00      0.00
                                0.00      0.00      0.00

     XDM     stress (kbar)      0.00      0.00      0.00
                                0.00      0.00      0.00
                                0.00      0.00      0.00

     dft-nl  stress (kbar)      0.00      0.00      0.00
                                0.00      0.00      0.00
                                0.00      0.00      0.00

     TS-vdW  stress (kbar)      0.00      0.00      0.00
                                0.00      0.00      0.00
                                0.00      0.00      0.00

[...]

                                0.00      0.00      0.00

     Writing all to output data dir new_calculations/myprefix.save/

     General routines

     Parallel routines

     PAW routines

   This run was terminated on:   5:40:14  21May2023

   JOB DONE.