     Program PWSCF v.7.0 starts on 20May2023 at  2:21: 6

     Reading input from espresso_2089.pwi
Warning: card &CELL ignored
Warning: card / ignored

     Current dimensions of program PWSCF are:
     Max number of different atomic species (ntypx) = 10
     Max number of k-points (npk) =  40000
     Max angular momentum in pseudopotentials (lmaxx) =  4
     file Al.pbe-n-kjpaw_psl.1.0.0.UPF: wavefunction(s)  3S 3P renormalized

     gamma-point specific algorithms are used
     Message from routine setup:
     using ibrav=0 with symmetry is DISCOURAGED, use correct ibrav instead

     Subspace diagonalization in iterative solution of the eigenvalue problem:
     a serial algorithm will be used

     Using Slab Decomposition

     bravais-lattice index     =            0
     lattice parameter (alat)  =       9.0749  a.u.
     unit-cell volume          =     255.3046 (a.u.)^3
     number of atoms/cell      =            3
     number of atomic types    =            2
     number of electrons       =        31.00
     number of Kohn-Sham states=           20
     kinetic-energy cutoff     =      30.0000  Ry
     charge density cutoff     =     240.0000  Ry
     scf convergence threshold =      1.0E-06
     mixing beta               =       0.7000
     number of iterations used =            8  plain     mixing
     Exchange-correlation=  SLA  PW   PBX  PBC
                           (   1   4   3   4   0   0   0)

     celldm(1)=   9.074947  celldm(2)=   0.000000  celldm(3)=   0.000000
     celldm(4)=   0.000000  celldm(5)=   0.000000  celldm(6)=   0.000000

     crystal axes: (cart. coord. in units of alat)
               a(1) = (   1.000000   0.000000   0.000000 )
               a(2) = (   0.620495   0.784210   0.000000 )
               a(3) = (  -0.810248  -0.392105   0.435606 )

     reciprocal axes: (cart. coord. in units 2 pi/alat)
               b(1) = (  1.000000 -0.791235  1.147827 )
               b(2) = (  0.000000  1.275168  1.147827 )
               b(3) = (  0.000000  0.000000  2.295653 )

     PseudoPot. # 1 for Al read from file:
     /home/pragov/projects/rrg-bengioy-ad/pragov/crystal_structure_design/SSSP/Al.pbe-n-kjpaw_psl.1.0.0.UPF
     MD5 check sum: cfc449ca30b5f3223ec38ddd88ac046d
     Pseudo is Projector augmented-wave + core cor, Zval =  3.0
     Generated using "atomic" code by A. Dal Corso  v.5.1
     Shape of augmentation charge: PSQ
     Using radial grid of 1135 points,  6 beta functions with:
                l(1) =   0
                l(2) =   0
                l(3) =   1
                l(4) =   1
                l(5) =   2
                l(6) =   2
     Q(r) pseudized with 0 coefficients

     PseudoPot. # 2 for Cr read from file:
     /home/pragov/projects/rrg-bengioy-ad/pragov/crystal_structure_design/SSSP/cr_pbe_v1.5.uspp.F.UPF
     MD5 check sum: 0d52af634a40206e4dee301ad30da4bf
     Pseudo is Ultrasoft + core correction, Zval = 14.0
     Generated by new atomic code, or converted to UPF format
     Using radial grid of  857 points,  6 beta functions with:
                l(1) =   0
                l(2) =   0
                l(3) =   1
                l(4) =   1
                l(5) =   2
                l(6) =   2
     Q(r) pseudized with  8 coefficients,  rinner =    0.950   0.950   0.950
                                                       0.950   0.950

     atomic species   valence    mass     pseudopotential
        Al             3.00    26.98154     Al( 1.00)
        Cr            14.00    51.99610     Cr( 1.00)

      4 Sym. Ops., with inversion, found

                                    s                        frac. trans.

      isym =  1     identity

 cryst.   s( 1) = (     1          0          0      )
                  (     0          1          0      )
                  (     0          0          1      )

 cart.    s( 1) = (  1.0000000 -0.0000000  0.0000000 )
                  (  0.0000000  1.0000000 -0.0000000 )
                  (  0.0000000  0.0000000  1.0000000 )

      isym =  2     180 deg rotation - cart. axis [0,0,1]

[...]

      isym =  3     inversion

[...]

      isym =  4     inv. 180 deg rotation - cart. axis [0,0,1]

 cryst.   s( 4) = (     1          0          0      )
                  (     0          1          0      )
                  (    -1         -1         -1      )

 cart.    s( 4) = (  1.0000000 -0.0000000  0.0000000 )
                  (  0.0000000  1.0000000  0.0000000 )
                  (  0.0000000  0.0000000 -1.0000000 )

   Cartesian axes

     site n.     atom                  positions (alat units)
         1           Al  tau(   1) = (   0.0000000   0.0000000   0.0000000  )
         2           Cr  tau(   2) = (   0.5115433   0.2475525   0.0000000  )
         3           Cr  tau(   3) = (   1.1089518   0.5366579   0.0000000  )

   Crystallographic axes

     site n.     atom                  positions (cryst. coord.)
         1           Al  tau(   1) = (  0.0000000  0.0000000  0.0000000  )
         2           Cr  tau(   2) = (  0.3156710  0.3156710  0.0000000  )
         3           Cr  tau(   3) = (  0.6843290  0.6843290  0.0000000  )

     number of k points=     1  Methfessel-Paxton smearing, width (Ry)=  0.0010
                       cart. coord. in units 2pi/alat
        k(    1) = (   0.0000000   0.0000000   0.0000000), wk =   2.0000000

                       cryst. coord.
        k(    1) = (   0.0000000   0.0000000   0.0000000), wk =   2.0000000

     Check: negative core charge=   -0.000012

     Initial potential from superposition of free atoms

     starting charge      28.9977, renormalised to      31.0000

     negative rho (up, down):  1.109E-03 0.000E+00
     Starting wfcs are   24 randomized atomic wfcs
     Checking if some PAW data can be deallocated...

     Self-consistent Calculation

     iteration #  1     ecut=    30.00 Ry     beta= 0.70
     Davidson diagonalization with overlap

     ethr =  1.00E-02,  avg # of iterations =  4.0

     negative rho (up, down):  6.295E-03 0.000E+00

     total energy              =    -386.25072315 Ry
     estimated scf accuracy    <       6.20164654 Ry

[...]

     total energy              =    -390.23878008 Ry
     estimated scf accuracy    <       0.00000306 Ry

     iteration # 78     ecut=    30.00 Ry     beta= 0.70
     Davidson diagonalization with overlap

     ethr =  3.55E-09,  avg # of iterations =  1.0

[...]

     End of self-consistent calculation

          k = 0.0000 0.0000 0.0000 (   350 PWs)   bands (ev):

   -54.5627 -54.2962 -26.2059 -25.9356 -25.8490 -25.7895 -25.4484 -25.3610
     5.1881  11.5959  13.3963  13.5992  16.0992  16.2874  16.5535  16.5657
    16.5665  16.5766  18.0137  19.6041

     occupation numbers
     1.0000   1.0000   1.0000   1.0000   1.0000   1.0000   1.0000   1.0000
     1.0000   1.0000   1.0000   1.0000   1.0000   1.0000   0.9484   0.3128
     0.2664  -0.0276  -0.0000  -0.0000

     the Fermi energy is    16.5626 ev

!    total energy              =    -390.23877953 Ry
     estimated scf accuracy    <       0.00000077 Ry
     smearing contrib. (-TS)   =      -0.00036673 Ry
     internal energy E=F+TS    =    -390.23841280 Ry

     The total energy is F=E-TS. E is the sum of the following terms:
     one-electron contribution =    -194.08456906 Ry
     hartree contribution      =     113.22003802 Ry
     xc contribution           =     -47.87478791 Ry
     ewald contribution        =    -226.81683843 Ry
     one-center paw contrib.   =     -34.68225542 Ry
      -> PAW hartree energy AE =       1.55710800 Ry
      -> PAW hartree energy PS =      -1.55239928 Ry
      -> PAW xc energy AE      =     -36.66095745 Ry
      -> PAW xc energy PS      =       1.97399331 Ry
      -> total E_H with PAW    =     113.22474673 Ry
      -> total E_XC with PAW   =     -82.56175205 Ry

     convergence has been achieved in  78 iterations

     negative rho (up, down):  9.939E-04 0.000E+00

     Forces acting on atoms (cartesian axes, Ry/au):

     atom    1 type  1   force =     0.00000000    0.00000000    0.00000000
     atom    2 type  2   force =    -0.04590347   -0.03645625   -0.00000000
     atom    3 type  2   force =     0.04590347    0.03645625    0.00000000
     The non-local contrib.  to forces
     atom    1 type  1   force =     0.00000000    0.00000000    0.00000000
     atom    2 type  2   force =     0.39053319    0.21023616    0.00000000
     atom    3 type  2   force =    -0.39053319   -0.21023616   -0.00000000
     The ionic contribution  to forces
     atom    1 type  1   force =     0.00000000    0.00000000    0.00000000
     atom    2 type  2   force =    14.99973004    7.25885818    0.00000001
     atom    3 type  2   force =   -14.99973004   -7.25885818   -0.00000001
     The local contribution  to forces
     atom    1 type  1   force =     0.00023444    0.00012331    0.00000548
     atom    2 type  2   force =   -15.43188728   -7.50243433   -0.00418174
     atom    3 type  2   force =    15.43038041    7.50167098    0.00416020
     The core correction contribution to forces
     atom    1 type  1   force =     0.00000109    0.00000185    0.00000058
     atom    2 type  2   force =    -0.00586682   -0.00357477   -0.00089606
     atom    3 type  2   force =     0.00587719    0.00357549    0.00089448
     The Hubbard contrib.    to forces
     atom    1 type  1   force =     0.00000000    0.00000000    0.00000000
     atom    2 type  2   force =     0.00000000    0.00000000    0.00000000
     atom    3 type  2   force =     0.00000000    0.00000000    0.00000000
     The SCF correction term to forces
     atom    1 type  1   force =    -0.00016825   -0.00007965    0.00000034
     atom    2 type  2   force =     0.00156676    0.00042524   -0.00033561
     atom    3 type  2   force =    -0.00011157    0.00027086    0.00034019

     Total force =     0.082900     Total SCF correction =     0.001728

     Computing stress (Cartesian axis) and pressure

     negative rho (up, down):  9.939E-04 0.000E+00
          total   stress  (Ry/bohr**3)                   (kbar)     P=      -48.23
  -0.00033209   0.00067771  -0.00000000          -48.85       99.69       -0.00
   0.00067771   0.00014143   0.00000000           99.69       20.80        0.00
  -0.00000000   0.00000000  -0.00079285           -0.00        0.00     -116.63

     kinetic stress (kbar)  30377.96   -724.00      0.00
                             -724.00  31607.50      0.00
                                0.00      0.00  31785.45

     local   stress (kbar)  24477.03  28550.12    -79.28
                            28550.12 -20712.26    172.85
                              -79.28    172.85 -34164.09

     nonloc. stress (kbar)   9471.01    270.55      0.00
                              270.55   9198.06      0.00
                                0.00      0.00   8905.15

     hartree stress (kbar)   5499.98 -13390.97     23.84
                           -13390.97  26690.42    -47.98
                               23.84    -47.98  33046.35

     exc-cor stress (kbar)  -5037.77    -17.87      0.96
                              -17.87  -5010.48     -1.84
                                0.96     -1.84  -5005.10

     corecor stress (kbar)  -3535.58     -4.49     -2.18
                               -4.49  -3529.14      5.24
                               -2.18      5.24  -3518.58

     ewald   stress (kbar) -61301.49 -14583.64     -0.00
                           -14583.64 -38223.30     -0.00
                               -0.00     -0.00 -31165.81

     hubbard stress (kbar)      0.00      0.00      0.00
                                0.00      0.00      0.00
                                0.00      0.00      0.00

     DFT-D   stress (kbar)      0.00      0.00      0.00
                                0.00      0.00      0.00
                                0.00      0.00      0.00

     XDM     stress (kbar)      0.00      0.00      0.00
                                0.00      0.00      0.00
                                0.00      0.00      0.00

     dft-nl  stress (kbar)      0.00      0.00      0.00
                                0.00      0.00      0.00
                                0.00      0.00      0.00

     TS-vdW  stress (kbar)      0.00      0.00      0.00
                                0.00      0.00      0.00
                                0.00      0.00      0.00

[...]

                                0.00      0.00      0.00

     Writing all to output data dir new_calculations/myprefix.save/

     General routines

     Parallel routines

     PAW routines

   This run was terminated on:   2:21:27  20May2023

   JOB DONE.