     Program PWSCF v.7.0 starts on 20May2023 at 15:35:51

     Reading input from espresso_7486.pwi
Warning: card &CELL ignored
Warning: card / ignored

     Current dimensions of program PWSCF are:
     Max number of different atomic species (ntypx) = 10
     Max number of k-points (npk) =  40000
     Max angular momentum in pseudopotentials (lmaxx) =  4

     gamma-point specific algorithms are used
     Message from routine setup:
     using ibrav=0 with symmetry is DISCOURAGED, use correct ibrav instead

     Subspace diagonalization in iterative solution of the eigenvalue problem:
     a serial algorithm will be used

     Using Slab Decomposition

     bravais-lattice index     =            0
     lattice parameter (alat)  =      13.6494  a.u.
     unit-cell volume          =    1533.8037 (a.u.)^3
     number of atoms/cell      =           16
     number of atomic types    =            3
     number of electrons       =       168.00
     number of Kohn-Sham states=          101
     kinetic-energy cutoff     =      30.0000  Ry
     charge density cutoff     =     240.0000  Ry
     scf convergence threshold =      1.0E-06
     mixing beta               =       0.7000
     number of iterations used =            8  plain     mixing
     Exchange-correlation= PBE
                           (   1   4   3   4   0   0   0)

     celldm(1)=  13.649448  celldm(2)=   0.000000  celldm(3)=   0.000000
     celldm(4)=   0.000000  celldm(5)=   0.000000  celldm(6)=   0.000000

     crystal axes: (cart. coord. in units of alat)
               a(1) = (   1.000000   0.000000   0.000000 )
               a(2) = (  -0.766964   0.641691   0.000000 )
               a(3) = (  -0.116518  -0.320845   0.939937 )

     reciprocal axes: (cart. coord. in units 2 pi/alat)
               b(1) = (  1.000000  1.195223  0.531950 )
               b(2) = (  0.000000  1.558383  0.531950 )
               b(3) = (  0.000000  0.000000  1.063901 )

     PseudoPot. # 1 for Si read from file:
     /home/pragov/projects/rrg-bengioy-ad/pragov/crystal_structure_design/SSSP/Si.pbe-n-rrkjus_psl.1.0.0.UPF
     MD5 check sum: 0b0bb1205258b0d07b9f9672cf965d36
     Pseudo is Ultrasoft + core correction, Zval =  4.0
     Generated using "atomic" code by A. Dal Corso  v.5.1
     Using radial grid of 1141 points,  6 beta functions with:
                l(1) =   0
                l(2) =   0
                l(3) =   1
                l(4) =   1
                l(5) =   2
                l(6) =   2
     Q(r) pseudized with 0 coefficients

     PseudoPot. # 2 for Ni read from file:
     /home/pragov/projects/rrg-bengioy-ad/pragov/crystal_structure_design/SSSP/ni_pbe_v1.4.uspp.F.UPF
     MD5 check sum: 1ee80287db30b12d2bc1f57a5b5d6409
     Pseudo is Ultrasoft + core correction, Zval = 18.0
     Generated by new atomic code, or converted to UPF format
     Using radial grid of  865 points,  6 beta functions with:
                l(1) =   0
                l(2) =   0
                l(3) =   1
                l(4) =   1
                l(5) =   2
                l(6) =   2
     Q(r) pseudized with 10 coefficients,  rinner =    0.980   0.980   0.980
                                                       0.980   0.980

     PseudoPot. # 3 for Mo read from file:
     /home/pragov/projects/rrg-bengioy-ad/pragov/crystal_structure_design/SSSP/Mo_ONCV_PBE-1.0.oncvpsp.upf
     MD5 check sum: 1b5d28e075c9ccadda658a603575cd1f
     Pseudo is Norm-conserving, Zval = 14.0
     Generated using ONCVPSP code by D. R. Hamann
     Using radial grid of 1526 points,  6 beta functions with:
                l(1) =   0
                l(2) =   0
                l(3) =   1
                l(4) =   1
                l(5) =   2
                l(6) =   2

     atomic species   valence    mass     pseudopotential
        Si             4.00    28.08500     Si( 1.00)
        Ni            18.00    58.69340     Ni( 1.00)
        Mo            14.00    95.95000     Mo( 1.00)

      2 Sym. Ops. (no inversion) found

                                    s                        frac. trans.

      isym =  1     identity

 cryst.   s( 1) = (     1          0          0      )
                  (     0          1          0      )
                  (     0          0          1      )

 cart.    s( 1) = (  1.0000000 -0.0000000 -0.0000000 )
                  (  0.0000000  1.0000000  0.0000000 )
                  (  0.0000000  0.0000000  1.0000000 )

      isym =  2     inv. 180 deg rotation - cart. axis [0,0,1]

 cryst.   s( 2) = (     1          0          0      )
                  (     0          1          0      )
                  (    -1         -1         -1      )

 cart.    s( 2) = (  1.0000000 -0.0000000  0.0000000 )
                  (  0.0000000  1.0000000  0.0000000 )
                  (  0.0000000  0.0000000 -1.0000000 )

   Cartesian axes

     site n.     atom                  positions (alat units)
         1           Si  tau(   1) = (  -0.1038904   0.5980852   0.0000000  )
         2           Si  tau(   2) = (   0.4634657   0.3920441   0.0000000  )
         3           Si  tau(   3) = (  -0.0632695  -0.1742193   0.6381318  )
         4           Si  tau(   4) = (   0.0532487   0.1466260   0.3018054  )
         5           Si  tau(   5) = (   0.4417409  -0.1604226   0.4699686  )
         6           Si  tau(   6) = (  -0.4417409   0.1604226   0.4699686  )
         7           Ni  tau(   7) = (   0.0000000   0.0000000   0.0000000  )
         8           Mo  tau(   8) = (   0.2324904   0.0960993   0.6077248  )
         9           Mo  tau(   9) = (   0.7668361  -0.0979537   0.3322123  )
        10           Mo  tau(  10) = (  -0.2536629   0.2747498   0.1857231  )
        11           Mo  tau(  11) = (  -0.5126273   0.3687953   0.7542140  )
        12           Mo  tau(  12) = (   0.6298189  -0.0460955   0.7542140  )
        13           Mo  tau(  13) = (   0.3708545   0.0479500   0.1857231  )
        14           Mo  tau(  14) = (  -0.6509914   0.4169446   0.3322123  )
        15           Mo  tau(  15) = (  -0.1166457   0.2228915   0.6077248  )
        16           Mo  tau(  16) = (   0.1165182   0.3208453   0.0000000  )

   Crystallographic axes

     site n.     atom                  positions (cryst. coord.)
         1           Si  tau(   1) = (  0.6109550  0.9320460  0.0000000  )
         2           Si  tau(   2) = (  0.9320460  0.6109550  0.0000000  )
         3           Si  tau(   3) = (  0.0679540  0.0679540  0.6789090  )
         4           Si  tau(   4) = (  0.3890450  0.3890450  0.3210910  )
         5           Si  tau(   5) = (  0.5000000  0.0000000  0.5000000  )
         6           Si  tau(   6) = (  0.0000000  0.5000000  0.5000000  )
         7           Ni  tau(   7) = (  0.0000000  0.0000000  0.0000000  )
         8           Mo  tau(   8) = (  0.6706300  0.4730390  0.6465590  )
         9           Mo  tau(   9) = (  0.8264800  0.0240710  0.3534410  )
        10           Mo  tau(  10) = (  0.1735200  0.5269610  0.1975910  )
        11           Mo  tau(  11) = (  0.3293700  0.9759290  0.8024090  )
        12           Mo  tau(  12) = (  0.9759290  0.3293700  0.8024090  )
        13           Mo  tau(  13) = (  0.5269610  0.1735200  0.1975910  )
        14           Mo  tau(  14) = (  0.0240710  0.8264800  0.3534410  )
        15           Mo  tau(  15) = (  0.4730390  0.6706300  0.6465590  )
        16           Mo  tau(  16) = (  0.5000000  0.5000000  0.0000000  )

     number of k points=     1  Methfessel-Paxton smearing, width (Ry)=  0.0010
                       cart. coord. in units 2pi/alat
        k(    1) = (   0.0000000   0.0000000   0.0000000), wk =   2.0000000

                       cryst. coord.
        k(    1) = (   0.0000000   0.0000000   0.0000000), wk =   2.0000000

     Check: negative core charge=   -0.000001

     Initial potential from superposition of free atoms

     starting charge     165.9878, renormalised to     168.0000
     Starting wfcs are  127 randomized atomic wfcs

     Self-consistent Calculation

     iteration #  1     ecut=    30.00 Ry     beta= 0.70
     Davidson diagonalization with overlap

     ethr =  1.00E-02,  avg # of iterations =  3.0

     total energy              =   -1635.55192073 Ry
     estimated scf accuracy    <      16.48484225 Ry

[...]

     total energy              =   -1647.59407644 Ry
     estimated scf accuracy    <       0.00000107 Ry

     iteration # 23     ecut=    30.00 Ry     beta= 0.70
     Davidson diagonalization with overlap

     ethr =  6.36E-10,  avg # of iterations =  2.0

     End of self-consistent calculation

          k = 0.0000 0.0000 0.0000 (  2121 PWs)   bands (ev):

   -85.5641 -46.1983 -45.6906 -45.6106 -42.9704 -42.8398 -42.8345 -42.7524
   -42.7144 -42.7100 -42.7043 -42.6848 -42.6602 -17.7301 -17.6289 -17.4722
   -17.4321 -17.3716 -17.3498 -17.3230 -17.3050 -17.2703 -17.2584 -17.2445
   -17.2206 -17.1776 -17.1391 -17.1036 -17.0785 -17.0546 -16.9752 -16.9574
   -16.9315 -16.9057 -16.8331 -16.8122 -16.7984 -16.7544 -16.7026 -16.6714
     6.6065   8.2858   9.3999   9.4590   9.4650  11.4732  11.9113  12.0571
    12.0965  12.1704  13.2957  13.4195  13.4319  13.5671  13.6893  13.8931
    14.1069  14.1317  14.2397  14.2781  14.5361  14.5610  14.6690  14.7154
    14.7838  15.0088  15.2204  15.2768  15.5647  15.8126  15.8218  15.8444
    16.1342  16.1733  16.4472  17.0786  17.1452  17.3487  17.5492  17.6216
    17.6361  17.6767  18.1767  18.2442  18.6575  18.6635  18.7543  18.7713
    19.1328  19.1560  19.1830  19.2047  19.4937  20.0082  20.0961  20.2456
    20.3061  20.4657  20.5695  20.7890  20.8021

     occupation numbers
     1.0000   1.0000   1.0000   1.0000   1.0000   1.0000   1.0000   1.0000
     1.0000   1.0000   1.0000   1.0000   1.0000   1.0000   1.0000   1.0000
     1.0000   1.0000   1.0000   1.0000   1.0000   1.0000   1.0000   1.0000
     1.0000   1.0000   1.0000   1.0000   1.0000   1.0000   1.0000   1.0000
     1.0000   1.0000   1.0000   1.0000   1.0000   1.0000   1.0000   1.0000
     1.0000   1.0000   1.0000   1.0000   1.0000   1.0000   1.0000   1.0000
     1.0000   1.0000   1.0000   1.0000   1.0000   1.0000   1.0000   1.0000
     1.0000   1.0000   1.0000   1.0000   1.0000   1.0000   1.0000   1.0000
     1.0000   1.0000   1.0000   1.0000   1.0000   1.0000   1.0000   1.0000
     1.0000   1.0000   1.0000   1.0000   1.0000   1.0000   1.0000   1.0000
     1.0000   1.0000   1.0000   1.0000  -0.0000  -0.0000  -0.0000  -0.0000
    -0.0000  -0.0000  -0.0000  -0.0000  -0.0000  -0.0000  -0.0000  -0.0000
    -0.0000  -0.0000  -0.0000  -0.0000  -0.0000

     the Fermi energy is    18.4388 ev

!    total energy              =   -1647.59407635 Ry
     estimated scf accuracy    <       0.00000028 Ry
     smearing contrib. (-TS)   =       0.00000000 Ry
     internal energy E=F+TS    =   -1647.59407635 Ry

     The total energy is F=E-TS. E is the sum of the following terms:
     one-electron contribution =    -560.53832132 Ry
     hartree contribution      =     372.90354012 Ry
     xc contribution           =    -214.52277590 Ry
     ewald contribution        =   -1245.43651925 Ry

     convergence has been achieved in  23 iterations

     Forces acting on atoms (cartesian axes, Ry/au):

     atom    1 type  1   force =    -0.01468930    0.01399332    0.00000000
     atom    2 type  1   force =     0.01907416    0.00417823    0.00000000
     atom    3 type  1   force =    -0.00284284   -0.00779154   -0.01540132
     atom    4 type  1   force =    -0.00284284   -0.00779154    0.01540132
     atom    5 type  1   force =    -0.00057418    0.00123189    0.00108031
     atom    6 type  1   force =    -0.00057418    0.00123189   -0.00108031
     atom    7 type  2   force =    -0.01106359    0.00342326   -0.00000000
     atom    8 type  3   force =    -0.02022515    0.01095546   -0.06540751
     atom    9 type  3   force =     0.03249317    0.00090213    0.06307951
     atom   10 type  3   force =    -0.05466795    0.01330236   -0.04698324
     atom   11 type  3   force =     0.05096226   -0.03259419    0.04881850
     atom   12 type  3   force =    -0.05466795    0.01330236    0.04698324
     atom   13 type  3   force =     0.05096226   -0.03259419   -0.04881850
     atom   14 type  3   force =    -0.02022515    0.01095546    0.06540751
     atom   15 type  3   force =     0.03249317    0.00090213   -0.06307951
     atom   16 type  3   force =    -0.00361192    0.00639297    0.00000000
     The non-local contrib.  to forces
     atom    1 type  1   force =    -0.06083311    0.01455276   -0.00000000
     atom    2 type  1   force =     0.05577561   -0.02837627   -0.00000000
     atom    3 type  1   force =     0.00246630    0.00592728   -0.06154775
     atom    4 type  1   force =     0.00246630    0.00592728    0.06154775
     atom    5 type  1   force =    -0.00014182   -0.00020804    0.00098420
     atom    6 type  1   force =    -0.00014182   -0.00020804   -0.00098420
     atom    7 type  2   force =    -0.01134551    0.00135957   -0.00000000
     atom    8 type  3   force =     0.06090362    0.00590558   -0.09375216
     atom    9 type  3   force =    -0.04719223    0.02458479    0.09092902
     atom   10 type  3   force =    -0.08917884    0.01437649    0.04024006
     atom   11 type  3   force =     0.08066758   -0.04091362   -0.04229274
     atom   12 type  3   force =    -0.08917884    0.01437649   -0.04024006
     atom   13 type  3   force =     0.08066758   -0.04091362    0.04229274
     atom   14 type  3   force =     0.06090362    0.00590558    0.09375216
     atom   15 type  3   force =    -0.04719223    0.02458479   -0.09092902
     atom   16 type  3   force =     0.00302275   -0.00146394   -0.00000000
     The ionic contribution  to forces
     atom    1 type  1   force =    -3.68172774    0.42501537   -0.00000000
     atom    2 type  1   force =     3.09647957   -2.03655874   -0.00000000
     atom    3 type  1   force =     0.29262408    0.80577168   -3.60567059
     atom    4 type  1   force =     0.29262409    0.80577168    3.60567059
     atom    5 type  1   force =    -0.00000000    0.00000000    0.00000000
     atom    6 type  1   force =    -0.00000000    0.00000000   -0.00000000
     atom    7 type  2   force =     0.00000000    0.00000000   -0.00000000
     atom    8 type  3   force =     5.04614195   -2.72761038   -7.30780758
     atom    9 type  3   force =    -5.62048918    1.14608391    7.30780758
     atom   10 type  3   force =    -6.58170606    3.28526592    5.67411947
     atom   11 type  3   force =     7.15605329   -1.70373945   -5.67411947
     atom   12 type  3   force =    -6.58170606    3.28526592   -5.67411947
     atom   13 type  3   force =     7.15605329   -1.70373945    5.67411947
     atom   14 type  3   force =     5.04614195   -2.72761038    7.30780758
     atom   15 type  3   force =    -5.62048918    1.14608391   -7.30780758
     atom   16 type  3   force =     0.00000000   -0.00000000   -0.00000000
     The local contribution  to forces
     atom    1 type  1   force =     3.72153177   -0.42464688    0.00161309
     atom    2 type  1   force =    -3.12715096    2.06541522   -0.00088924
     atom    3 type  1   force =    -0.29586399   -0.81939285    3.64483733
     atom    4 type  1   force =    -0.29910959   -0.82061896   -3.64431147
     atom    5 type  1   force =     0.00007931   -0.00049496   -0.00017481
     atom    6 type  1   force =    -0.00059740    0.00168569   -0.00043830
     atom    7 type  2   force =     0.00039734    0.00085059   -0.00723043
     atom    8 type  3   force =    -5.12943254    2.72243232    7.33407224
     atom    9 type  3   force =     5.69892009   -1.16084897   -7.33764192
     atom   10 type  3   force =     6.63353800   -3.29110812   -5.75555292
     atom   11 type  3   force =    -7.20475543    1.71802639    5.76294483
     atom   12 type  3   force =     6.59871876   -3.28311005    5.76609728
     atom   13 type  3   force =    -7.16580082    1.70417168   -5.76676168
     atom   14 type  3   force =    -5.12465888    2.74134767   -7.33758864
     atom   15 type  3   force =     5.70157137   -1.18007402    7.33308997
     atom   16 type  3   force =    -0.00625639    0.00728260   -0.00690249
     The core correction contribution to forces
     atom    1 type  1   force =     0.00651205   -0.00174989    0.00037338
     atom    2 type  1   force =    -0.00590178    0.00290668   -0.00034866
     atom    3 type  1   force =    -0.00035784   -0.00040088    0.00720976
     atom    4 type  1   force =    -0.00014073   -0.00016919   -0.00705122
     atom    5 type  1   force =     0.00016248   -0.00013621   -0.00004240
     atom    6 type  1   force =    -0.00013991    0.00022219    0.00002660
     atom    7 type  2   force =     0.00000685    0.00006674   -0.00020069
     atom    8 type  3   force =     0.00000000    0.00000000    0.00000000
     atom    9 type  3   force =     0.00000000    0.00000000    0.00000000
     atom   10 type  3   force =     0.00000000    0.00000000    0.00000000
     atom   11 type  3   force =     0.00000000    0.00000000    0.00000000
     atom   12 type  3   force =     0.00000000    0.00000000    0.00000000
     atom   13 type  3   force =     0.00000000    0.00000000    0.00000000
     atom   14 type  3   force =     0.00000000    0.00000000    0.00000000
     atom   15 type  3   force =     0.00000000    0.00000000    0.00000000
     atom   16 type  3   force =     0.00000000    0.00000000    0.00000000
     The Hubbard contrib.    to forces
     atom    1 type  1   force =     0.00000000    0.00000000    0.00000000
     atom    2 type  1   force =     0.00000000    0.00000000    0.00000000
     atom    3 type  1   force =     0.00000000    0.00000000    0.00000000
     atom    4 type  1   force =     0.00000000    0.00000000    0.00000000
     atom    5 type  1   force =     0.00000000    0.00000000    0.00000000
     atom    6 type  1   force =     0.00000000    0.00000000    0.00000000
     atom    7 type  2   force =     0.00000000    0.00000000    0.00000000
     atom    8 type  3   force =     0.00000000    0.00000000    0.00000000
     atom    9 type  3   force =     0.00000000    0.00000000    0.00000000
     atom   10 type  3   force =     0.00000000    0.00000000    0.00000000
     atom   11 type  3   force =     0.00000000    0.00000000    0.00000000
     atom   12 type  3   force =     0.00000000    0.00000000    0.00000000
     atom   13 type  3   force =     0.00000000    0.00000000    0.00000000
     atom   14 type  3   force =     0.00000000    0.00000000    0.00000000
     atom   15 type  3   force =     0.00000000    0.00000000    0.00000000
     atom   16 type  3   force =     0.00000000    0.00000000    0.00000000
     The SCF correction term to forces
     atom    1 type  1   force =     0.00000753    0.00002236   -0.00002058
     atom    2 type  1   force =     0.00005152   -0.00000825   -0.00023915
     atom    3 type  1   force =     0.00006232   -0.00003719    0.00016901
     atom    4 type  1   force =    -0.00009702    0.00003889   -0.00005523
     atom    5 type  1   force =     0.00000397    0.00002853    0.00012737
     atom    6 type  1   force =    -0.00001356   -0.00002456    0.00012964
     atom    7 type  2   force =     0.00005754    0.00034676   -0.00040831
     atom    8 type  3   force =     0.00015149   -0.00003027    0.00077810
     atom    9 type  3   force =     0.00000160    0.00000721   -0.00027375
     atom   10 type  3   force =     0.00054646   -0.00020680   -0.00055258
     atom   11 type  3   force =    -0.00049191    0.00015400    0.00013881
     atom   12 type  3   force =    -0.00000970    0.00014568    0.00048277
     atom   13 type  3   force =    -0.00010943    0.00016651   -0.00061609
     atom   14 type  3   force =    -0.00024190   -0.00002838    0.00013451
     atom   15 type  3   force =     0.00021570   -0.00021658    0.00030854
     atom   16 type  3   force =    -0.00019848   -0.00022528   -0.00034971

     Total force =     0.210038     Total SCF correction =     0.001795

     Computing stress (Cartesian axis) and pressure

          total   stress  (Ry/bohr**3)                   (kbar)     P=       53.63
   0.00098387  -0.00101840  -0.00000000          144.73     -149.81       -0.00
  -0.00101840  -0.00033399  -0.00000000         -149.81      -49.13       -0.00
  -0.00000000  -0.00000000   0.00044382           -0.00       -0.00       65.29

     kinetic stress (kbar)  29198.67   -270.08      0.00
                             -270.08  28698.74      0.00
                                0.00      0.00  29172.72

     local   stress (kbar)  -5361.74  -2398.06     -9.97
                            -2398.06 -11092.05      1.58
                               -9.97      1.58  -4462.68

     nonloc. stress (kbar)  11785.40    -19.81      0.00
                              -19.81  11744.92      0.00
                                0.00      0.00  11779.29

     hartree stress (kbar)  11109.22   1209.48     -4.27
                             1209.48  14009.29      3.04
                               -4.27      3.04  10646.17

     exc-cor stress (kbar)  -3614.03     -3.63     -0.49
                               -3.63  -3622.04      0.20
                               -0.49      0.20  -3613.70

     corecor stress (kbar)  -2257.91      2.20      0.05
                                2.20  -2252.64      0.05
                                0.05      0.05  -2258.60

     ewald   stress (kbar) -40714.88   1330.10      0.00
                             1330.10 -37535.36      0.00
                                0.00      0.00 -41197.92

     hubbard stress (kbar)      0.00      0.00      0.00
                                0.00      0.00      0.00
                                0.00      0.00      0.00

     DFT-D   stress (kbar)      0.00      0.00      0.00
                                0.00      0.00      0.00
                                0.00      0.00      0.00

     XDM     stress (kbar)      0.00      0.00      0.00
                                0.00      0.00      0.00
                                0.00      0.00      0.00

     dft-nl  stress (kbar)      0.00      0.00      0.00
                                0.00      0.00      0.00
                                0.00      0.00      0.00

     TS-vdW  stress (kbar)      0.00      0.00      0.00
                                0.00      0.00      0.00
                                0.00      0.00      0.00

[...]

                                0.00      0.00      0.00

     Writing all to output data dir new_calculations/myprefix.save/

     General routines

     Parallel routines

   This run was terminated on:  15:36:30  20May2023

   JOB DONE.