     Program PWSCF v.7.0 starts on 20May2023 at 14:35:50

     Reading input from espresso_18381.pwi
Warning: card &CELL ignored
Warning: card / ignored

     Current dimensions of program PWSCF are:
     Max number of different atomic species (ntypx) = 10
     Max number of k-points (npk) =  40000
     Max angular momentum in pseudopotentials (lmaxx) =  4

     gamma-point specific algorithms are used
     Message from routine setup:
     using ibrav=0 with symmetry is DISCOURAGED, use correct ibrav instead

     Subspace diagonalization in iterative solution of the eigenvalue problem:
     a serial algorithm will be used

     Using Slab Decomposition

     bravais-lattice index     =            0
     lattice parameter (alat)  =      14.5068  a.u.
     unit-cell volume          =     887.6895 (a.u.)^3
     number of atoms/cell      =            7
     number of atomic types    =            3
     number of electrons       =        61.00
     number of Kohn-Sham states=           37
     kinetic-energy cutoff     =      30.0000  Ry
     charge density cutoff     =     240.0000  Ry
     scf convergence threshold =      1.0E-06
     mixing beta               =       0.7000
     number of iterations used =            8  plain     mixing
     Exchange-correlation=  SLA  PW   PBX  PBC
                           (   1   4   3   4   0   0   0)

     celldm(1)=  14.506826  celldm(2)=   0.000000  celldm(3)=   0.000000
     celldm(4)=   0.000000  celldm(5)=   0.000000  celldm(6)=   0.000000

     crystal axes: (cart. coord. in units of alat)
               a(1) = (   1.000000   0.000000   0.000000 )
               a(2) = (   0.683034   0.730386   0.000000 )
               a(3) = (  -0.841517  -0.365193   0.398099 )

     reciprocal axes: (cart. coord. in units 2 pi/alat)
               b(1) = (  1.000000 -0.935168  1.255969 )
               b(2) = (  0.000000  1.369138  1.255969 )
               b(3) = (  0.000000  0.000000  2.511937 )

     PseudoPot. # 1 for Rb read from file:
     /home/pragov/projects/rrg-bengioy-ad/pragov/crystal_structure_design/SSSP/Rb_ONCV_PBE-1.0.oncvpsp.upf
     MD5 check sum: 55a5172d6bfbce6759a58e35d43f6aa9
     Pseudo is Norm-conserving, Zval =  9.0
     Generated using ONCVPSP code by D. R. Hamann
     Using radial grid of 2308 points,  6 beta functions with:
                l(1) =   0
                l(2) =   0
                l(3) =   1
                l(4) =   1
                l(5) =   2
                l(6) =   2

     PseudoPot. # 2 for Mn read from file:
     /home/pragov/projects/rrg-bengioy-ad/pragov/crystal_structure_design/SSSP/mn_pbe_v1.5.uspp.F.UPF
     MD5 check sum: 82ef2b46521d7a7d9e736dc3972e4928
     Pseudo is Ultrasoft + core correction, Zval = 15.0
     Generated by new atomic code, or converted to UPF format
     Using radial grid of  859 points,  6 beta functions with:
                l(1) =   0
                l(2) =   0
                l(3) =   1
                l(4) =   1
                l(5) =   2
                l(6) =   2
     Q(r) pseudized with  8 coefficients,  rinner =    0.950   0.950   0.950
                                                       0.950   0.950

     PseudoPot. # 3 for F  read from file:
     /home/pragov/projects/rrg-bengioy-ad/pragov/crystal_structure_design/SSSP/f_pbe_v1.4.uspp.F.UPF
     MD5 check sum: 4c38b6a325caf53ec0e86aed9459de46
     Pseudo is Ultrasoft, Zval =  7.0
     Generated by new atomic code, or converted to UPF format
     Using radial grid of  799 points,  4 beta functions with:
                l(1) =   0
                l(2) =   0
                l(3) =   1
                l(4) =   1
     Q(r) pseudized with  8 coefficients,  rinner =    0.950   0.950   0.950

     atomic species   valence    mass     pseudopotential
        Rb             9.00    85.46780     Rb( 1.00)
        Mn            15.00    54.93804     Mn( 1.00)
        F              7.00    18.99840     F ( 1.00)

      4 Sym. Ops., with inversion, found

                                    s                        frac. trans.

      isym =  1     identity

 cryst.   s( 1) = (     1          0          0      )
                  (     0          1          0      )
                  (     0          0          1      )

 cart.    s( 1) = (  1.0000000 -0.0000000 -0.0000000 )
                  (  0.0000000  1.0000000  0.0000000 )
                  (  0.0000000  0.0000000  1.0000000 )

      isym =  2     180 deg rotation - cart. axis [0,0,1]

[...]

      isym =  3     inversion

[...]

      isym =  4     inv. 180 deg rotation - cart. axis [0,0,1]

 cryst.   s( 4) = (     1          0          0      )
                  (     0          1          0      )
                  (    -1         -1         -1      )

 cart.    s( 4) = (  1.0000000 -0.0000000  0.0000000 )
                  (  0.0000000  1.0000000  0.0000000 )
                  (  0.0000000  0.0000000 -1.0000000 )

   Cartesian axes

     site n.     atom                  positions (alat units)
         1           Rb  tau(   1) = (   0.5935742   0.2575934   0.0000000  )
         2           Rb  tau(   2) = (   1.0894600   0.4727930   0.0000000  )
         3           Mn  tau(   3) = (   0.0000000   0.0000000   0.0000000  )
         4           F   tau(   4) = (   0.2576389   0.1118075   0.0000000  )
         5           F   tau(   5) = (   1.4253953   0.6185788   0.0000000  )
         6           F   tau(   6) = (   0.0792414  -0.1825966   0.1990495  )
         7           F   tau(   7) = (  -0.0792414   0.1825966   0.1990495  )

   Crystallographic axes

     site n.     atom                  positions (cryst. coord.)
         1           Rb  tau(   1) = (  0.3526810  0.3526810  0.0000000  )
         2           Rb  tau(   2) = (  0.6473190  0.6473190  0.0000000  )
         3           Mn  tau(   3) = (  0.0000000  0.0000000  0.0000000  )
         4           F   tau(   4) = (  0.1530800  0.1530800  0.0000000  )
         5           F   tau(   5) = (  0.8469200  0.8469200  0.0000000  )
         6           F   tau(   6) = (  0.5000000 -0.0000000  0.5000000  )
         7           F   tau(   7) = ( -0.0000000  0.5000000  0.5000000  )

     number of k points=     1  Methfessel-Paxton smearing, width (Ry)=  0.0010
                       cart. coord. in units 2pi/alat
        k(    1) = (   0.0000000   0.0000000   0.0000000), wk =   2.0000000

                       cryst. coord.
        k(    1) = (   0.0000000   0.0000000   0.0000000), wk =   2.0000000

     Check: negative core charge=   -0.000010

     Initial potential from superposition of free atoms

     starting charge      60.4504, renormalised to      61.0000
     Starting wfcs are   39 randomized atomic wfcs

     Self-consistent Calculation

     iteration #  1     ecut=    30.00 Ry     beta= 0.70
     Davidson diagonalization with overlap

     ethr =  1.00E-02,  avg # of iterations =  4.0

     total energy              =    -503.31022748 Ry
     estimated scf accuracy    <       0.85504109 Ry

[...]

     negative rho (up, down):  7.936E-07 0.000E+00

[...]

     negative rho (up, down):  2.040E-05 0.000E+00

[...]

     total energy              =    -503.66806255 Ry
     estimated scf accuracy    <       0.00000582 Ry

     iteration # 23     ecut=    30.00 Ry     beta= 0.70
     Davidson diagonalization with overlap

     ethr =  9.54E-09,  avg # of iterations =  1.0

     End of self-consistent calculation

          k = 0.0000 0.0000 0.0000 (  1236 PWs)   bands (ev):

   -74.1447 -43.0917 -42.8684 -42.6647 -20.8452 -20.7783 -17.3698 -17.1374
   -16.9957 -16.9867  -5.1183  -4.9307  -4.9280  -4.8525  -4.8502  -4.7953
     0.3630   0.4074   0.5280   0.6044   1.5670   1.5962   1.6108   1.6934
     1.7474   1.7829   1.8736   1.8775   4.9166   5.0270   5.0298   5.4736
     5.7315   7.7670  10.6688  11.1682  11.1998

     occupation numbers
     1.0000   1.0000   1.0000   1.0000   1.0000   1.0000   1.0000   1.0000
     1.0000   1.0000   1.0000   1.0000   1.0000   1.0000   1.0000   1.0000
     1.0000   1.0000   1.0000   1.0000   1.0000   1.0000   1.0000   1.0000
     1.0000   1.0000   1.0000   1.0000   1.0000   0.8233   0.6767  -0.0000
    -0.0000  -0.0000  -0.0000  -0.0000  -0.0000

     the Fermi energy is     5.0328 ev

!    total energy              =    -503.66806334 Ry
     estimated scf accuracy    <       0.00000080 Ry
     smearing contrib. (-TS)   =      -0.00039758 Ry
     internal energy E=F+TS    =    -503.66766576 Ry

     The total energy is F=E-TS. E is the sum of the following terms:
     one-electron contribution =    -355.13143298 Ry
     hartree contribution      =     203.96652475 Ry
     xc contribution           =     -79.03322230 Ry
     ewald contribution        =    -273.46953522 Ry

     convergence has been achieved in  23 iterations

     Forces acting on atoms (cartesian axes, Ry/au):

     atom    1 type  1   force =     0.02738645    0.01223657    0.00000000
     atom    2 type  1   force =    -0.02738645   -0.01223657   -0.00000000
     atom    3 type  2   force =     0.00000000    0.00000000    0.00000000
     atom    4 type  3   force =    -0.05043749   -0.02203479   -0.00000000
     atom    5 type  3   force =     0.05043749    0.02203479    0.00000000
     atom    6 type  3   force =     0.00000000    0.00000000    0.00000000
     atom    7 type  3   force =     0.00000000    0.00000000    0.00000000
     The non-local contrib.  to forces
     atom    1 type  1   force =    -0.03490133   -0.01533095   -0.00000000
     atom    2 type  1   force =     0.03490133    0.01533095    0.00000000
     atom    3 type  2   force =     0.00000000    0.00000000    0.00000000
     atom    4 type  3   force =    -0.41255251   -0.17870962   -0.00000000
     atom    5 type  3   force =     0.41255251    0.17870962    0.00000000
     atom    6 type  3   force =     0.00000000    0.00000000    0.00000000
     atom    7 type  3   force =     0.00000000    0.00000000    0.00000000
     The ionic contribution  to forces
     atom    1 type  1   force =    -9.08777853   -3.94382332   -0.00000000
     atom    2 type  1   force =     9.08777853    3.94382332    0.00000000
     atom    3 type  2   force =    -0.00000000    0.00000000    0.00000000
     atom    4 type  3   force =    13.09997345    5.68499558    0.00000000
     atom    5 type  3   force =   -13.09997345   -5.68499558   -0.00000000
     atom    6 type  3   force =    -0.00000000   -0.00000000    0.00000000
     atom    7 type  3   force =     0.00000000   -0.00000000   -0.00000000
     The local contribution  to forces
     atom    1 type  1   force =     9.14993198    3.97134705   -0.00024634
     atom    2 type  1   force =    -9.14992953   -3.97134758    0.00024781
     atom    3 type  2   force =     0.00000513    0.00000122   -0.00000007
     atom    4 type  3   force =   -12.73778436   -5.52825168    0.00048647
     atom    5 type  3   force =    12.73778775    5.52825319   -0.00048564
     atom    6 type  3   force =     0.00000099    0.00000027   -0.00000022
     atom    7 type  3   force =     0.00000119    0.00000074   -0.00000009
     The core correction contribution to forces
     atom    1 type  1   force =     0.00000000    0.00000000    0.00000000
     atom    2 type  1   force =     0.00000000    0.00000000    0.00000000
     atom    3 type  2   force =     0.00000003    0.00000001   -0.00000002
     atom    4 type  3   force =     0.00000000    0.00000000    0.00000000
     atom    5 type  3   force =     0.00000000    0.00000000    0.00000000
     atom    6 type  3   force =     0.00000000    0.00000000    0.00000000
     atom    7 type  3   force =     0.00000000    0.00000000    0.00000000
     The Hubbard contrib.    to forces
     atom    1 type  1   force =     0.00000000    0.00000000    0.00000000
     atom    2 type  1   force =     0.00000000    0.00000000    0.00000000
     atom    3 type  2   force =     0.00000000    0.00000000    0.00000000
     atom    4 type  3   force =     0.00000000    0.00000000    0.00000000
     atom    5 type  3   force =     0.00000000    0.00000000    0.00000000
     atom    6 type  3   force =     0.00000000    0.00000000    0.00000000
     atom    7 type  3   force =     0.00000000    0.00000000    0.00000000
     The SCF correction term to forces
     atom    1 type  1   force =     0.00013408    0.00004355   -0.00000011
     atom    2 type  1   force =    -0.00013703   -0.00004348   -0.00000146
     atom    3 type  2   force =    -0.00000257   -0.00000007   -0.00000050
     atom    4 type  3   force =    -0.00007641   -0.00006993    0.00000155
     atom    5 type  3   force =     0.00006835    0.00006670   -0.00000260
     atom    6 type  3   force =     0.00000011    0.00000014    0.00000037
     atom    7 type  3   force =    -0.00000032   -0.00000047   -0.00000004

     Total force =     0.088648     Total SCF correction =     0.000246

     Computing stress (Cartesian axis) and pressure

          total   stress  (Ry/bohr**3)                   (kbar)     P=     -156.35
  -0.00164251  -0.00032846  -0.00000000         -241.62      -48.32       -0.00
  -0.00032846  -0.00074425  -0.00000000          -48.32     -109.48       -0.00
  -0.00000000  -0.00000000  -0.00080178           -0.00       -0.00     -117.95

     kinetic stress (kbar)  15605.49    -98.21      0.00
                              -98.21  15800.64      0.00
                                0.00      0.00  15823.02

     local   stress (kbar)    117.02   8018.64    -18.18
                             8018.64 -14917.39     46.12
                              -18.18     46.12 -18319.93

     nonloc. stress (kbar)   3022.45    -41.83      0.00
                              -41.83   3157.51      0.00
                                0.00      0.00   3110.62

     hartree stress (kbar)   5785.50  -3939.07      6.25
                            -3939.07  13164.00    -16.25
                                6.25    -16.25  14851.18

     exc-cor stress (kbar)  -3518.73      1.44      0.04
                                1.44  -3521.71     -0.01
                                0.04     -0.01  -3522.31

     corecor stress (kbar)   -594.40      1.06     -0.16
                                1.06   -596.92      0.41
                               -0.16      0.41   -596.60

     ewald   stress (kbar) -20658.94  -3990.36     -0.00
                            -3990.36 -13195.63     -0.00
                               -0.00     -0.00 -11463.93

     hubbard stress (kbar)      0.00      0.00      0.00
                                0.00      0.00      0.00
                                0.00      0.00      0.00

     DFT-D   stress (kbar)      0.00      0.00      0.00
                                0.00      0.00      0.00
                                0.00      0.00      0.00

     XDM     stress (kbar)      0.00      0.00      0.00
                                0.00      0.00      0.00
                                0.00      0.00      0.00

     dft-nl  stress (kbar)      0.00      0.00      0.00
                                0.00      0.00      0.00
                                0.00      0.00      0.00

     TS-vdW  stress (kbar)      0.00      0.00      0.00
                                0.00      0.00      0.00
                                0.00      0.00      0.00

[...]

                                0.00      0.00      0.00

     Writing all to output data dir new_calculations/myprefix.save/

     General routines

     Parallel routines

   This run was terminated on:  14:36:11  20May2023

   JOB DONE.