     Program PWSCF v.7.0 starts on 21May2023 at 19:12:52

     Reading input from espresso_15622.pwi
Warning: card &CELL ignored
Warning: card / ignored

     Current dimensions of program PWSCF are:
     Max number of different atomic species (ntypx) = 10
     Max number of k-points (npk) =  40000
     Max angular momentum in pseudopotentials (lmaxx) =  4

     gamma-point specific algorithms are used
     Message from routine setup:
     using ibrav=0 with symmetry is DISCOURAGED, use correct ibrav instead

     Subspace diagonalization in iterative solution of the eigenvalue problem:
     a serial algorithm will be used

     Using Slab Decomposition

     bravais-lattice index     =            0
     lattice parameter (alat)  =      15.4673  a.u.
     unit-cell volume          =    3001.5426 (a.u.)^3
     number of atoms/cell      =           12
     number of atomic types    =            2
     number of electrons       =        84.00
     number of Kohn-Sham states=           50
     kinetic-energy cutoff     =      30.0000  Ry
     charge density cutoff     =     240.0000  Ry
     scf convergence threshold =      1.0E-06
     mixing beta               =       0.7000
     number of iterations used =            8  plain     mixing
     Exchange-correlation= SLA  PW   PBE  PBE
                           (   1   4   3   4   0   0   0)

     celldm(1)=  15.467347  celldm(2)=   0.000000  celldm(3)=   0.000000
     celldm(4)=   0.000000  celldm(5)=   0.000000  celldm(6)=   0.000000

     crystal axes: (cart. coord. in units of alat)
               a(1) = (   1.000000   0.000000   0.000000 )
               a(2) = (  -0.877421   0.479722   0.000000 )
               a(3) = (   0.000000   0.000000   1.690860 )

     reciprocal axes: (cart. coord. in units 2 pi/alat)
               b(1) = (  1.000000  1.829020  0.000000 )
               b(2) = (  0.000000  2.084542  0.000000 )
               b(3) = (  0.000000  0.000000  0.591415 )

     PseudoPot. # 1 for Zr read from file:
     /home/pragov/projects/rrg-bengioy-ad/pragov/crystal_structure_design/SSSP/Zr_pbe_v1.uspp.F.UPF
     MD5 check sum: 5db81b1e868ab7776c4564c113de050b
     Pseudo is Ultrasoft + core correction, Zval = 12.0
     Generated by new atomic code, or converted to UPF format
     Using radial grid of  887 points,  6 beta functions with:
                l(1) =   0
                l(2) =   0
                l(3) =   1
                l(4) =   1
                l(5) =   2
                l(6) =   2
     Q(r) pseudized with  6 coefficients,  rinner =    1.200   1.200   1.200
                                                       1.200   1.200

     PseudoPot. # 2 for Te read from file:
     /home/pragov/projects/rrg-bengioy-ad/pragov/crystal_structure_design/SSSP/Te_pbe_v1.uspp.F.UPF
     MD5 check sum: c319670d6894cc26e93307826a071b75
     Pseudo is Ultrasoft + core correction, Zval =  6.0
     Generated by new atomic code, or converted to UPF format
     Using radial grid of  891 points,  5 beta functions with:
                l(1) =   0
                l(2) =   0
                l(3) =   1
                l(4) =   1
                l(5) =   2
     Q(r) pseudized with  6 coefficients,  rinner =    1.800   1.800   1.800
                                                       1.800   1.800

     atomic species   valence    mass     pseudopotential
        Zr            12.00    91.22400     Zr( 1.00)
        Te             6.00   127.60000     Te( 1.00)

      4 Sym. Ops., with inversion, found ( 2 have fractional translation)

                                    s                        frac. trans.

      isym =  1     identity

 cryst.   s( 1) = (     1          0          0      )
                  (     0          1          0      )
                  (     0          0          1      )

 cart.    s( 1) = (  1.0000000  0.0000000  0.0000000 )
                  (  0.0000000  1.0000000  0.0000000 )
                  (  0.0000000  0.0000000  1.0000000 )

      isym =  2     180 deg rotation - cart. axis [0,0,1]

 cryst.   s( 2) = (    -1          0          0      )    f =(  0.0000000 )
                  (     0         -1          0      )       (  0.0000000 )
                  (     0          0          1      )       (  0.5000000 )

 cart.    s( 2) = ( -1.0000000 -0.0000000  0.0000000 )    f =(  0.0000000 )
                  (  0.0000000 -1.0000000  0.0000000 )       (  0.0000000 )
                  (  0.0000000  0.0000000  1.0000000 )       (  0.8454298 )

      isym =  3     inversion

 cryst.   s( 3) = (    -1          0          0      )
                  (     0         -1          0      )
                  (     0          0         -1      )

 cart.    s( 3) = ( -1.0000000 -0.0000000  0.0000000 )
                  (  0.0000000 -1.0000000  0.0000000 )
                  (  0.0000000  0.0000000 -1.0000000 )

      isym =  4     inv. 180 deg rotation - cart. axis [0,0,1]

 cryst.   s( 4) = (     1          0          0      )    f =(  0.0000000 )
                  (     0          1          0      )       (  0.0000000 )
                  (     0          0         -1      )       (  0.5000000 )

 cart.    s( 4) = (  1.0000000  0.0000000  0.0000000 )    f =(  0.0000000 )
                  (  0.0000000  1.0000000  0.0000000 )       (  0.0000000 )
                  (  0.0000000  0.0000000 -1.0000000 )       (  0.8454298 )

   Cartesian axes

     site n.     atom                  positions (alat units)
         1           Zr  tau(   1) = (   0.4114042   0.1503990   1.2681448  )
         2           Zr  tau(   2) = (  -0.2888249   0.3293228   0.4227149  )
         3           Te  tau(   3) = (  -0.2625203   0.3226014   1.2681448  )
         4           Te  tau(   4) = (   0.3850997   0.1571204   0.4227149  )
         5           Te  tau(   5) = (  -0.7263972   0.4411320   1.4377363  )
         6           Te  tau(   6) = (   0.8489765   0.0385898   0.2531234  )
         7           Te  tau(   7) = (   0.8489765   0.0385898   0.5923065  )
         8           Te  tau(   8) = (  -0.7263972   0.4411320   1.0985532  )
         9           Te  tau(   9) = (   0.5985624   0.1025760   0.9568896  )
        10           Te  tau(  10) = (  -0.4759831   0.3771457   0.7339701  )
        11           Te  tau(  11) = (  -0.4759831   0.3771457   0.1114598  )
        12           Te  tau(  12) = (   0.5985624   0.1025760   1.5793999  )

   Crystallographic axes

     site n.     atom                  positions (cryst. coord.)
         1           Zr  tau(   1) = (  0.6864870  0.3135130  0.7500000  )
         2           Zr  tau(   2) = (  0.3135130  0.6864870  0.2500000  )
         3           Te  tau(   3) = (  0.3275240  0.6724760  0.7500000  )
         4           Te  tau(   4) = (  0.6724760  0.3275240  0.2500000  )
         5           Te  tau(   5) = (  0.0804420  0.9195580  0.8502990  )
         6           Te  tau(   6) = (  0.9195580  0.0804420  0.1497010  )
         7           Te  tau(   7) = (  0.9195580  0.0804420  0.3502990  )
         8           Te  tau(   8) = (  0.0804420  0.9195580  0.6497010  )
         9           Te  tau(   9) = (  0.7861760  0.2138240  0.5659190  )
        10           Te  tau(  10) = (  0.2138240  0.7861760  0.4340810  )
        11           Te  tau(  11) = (  0.2138240  0.7861760  0.0659190  )
        12           Te  tau(  12) = (  0.7861760  0.2138240  0.9340810  )

     number of k points=     1  Methfessel-Paxton smearing, width (Ry)=  0.0010
                       cart. coord. in units 2pi/alat
        k(    1) = (   0.0000000   0.0000000   0.0000000), wk =   2.0000000

                       cryst. coord.
        k(    1) = (   0.0000000   0.0000000   0.0000000), wk =   2.0000000

     Initial potential from superposition of free atoms

     starting charge      83.9935, renormalised to      84.0000

     negative rho (up, down):  1.200E-01 0.000E+00
     Starting wfcs are   66 randomized atomic wfcs

     Self-consistent Calculation

     iteration #  1     ecut=    30.00 Ry     beta= 0.70
     Davidson diagonalization with overlap

     ethr =  1.00E-02,  avg # of iterations =  2.0

     negative rho (up, down):  1.170E-01 0.000E+00

     total energy              =    -461.55447211 Ry
     estimated scf accuracy    <       1.44906507 Ry

[...]

     total energy              =    -462.49659791 Ry
     estimated scf accuracy    <       0.00000410 Ry

     iteration # 25     ecut=    30.00 Ry     beta= 0.70
     Davidson diagonalization with overlap

     ethr =  4.88E-09,  avg # of iterations =  2.0

[...]

     End of self-consistent calculation

          k = 0.0000 0.0000 0.0000 (  4169 PWs)   bands (ev):

   -43.4775 -43.4773 -21.7270 -21.7267 -21.5002 -21.4999 -21.3792 -21.3790
    -7.6575  -7.3124  -6.8205  -6.5719  -6.0997  -5.1263  -4.8183  -4.5566
    -4.5156  -3.6285   0.5515   0.8784   1.1071   1.5104   1.6160   1.7585
     2.4216   2.5140   2.6972   3.0070   3.1596   3.1943   3.4521   3.6479
     3.9334   3.9549   4.3210   4.4310   4.5372   4.6108   4.6650   4.9393
     5.0599   5.7874   5.7888   5.8549   6.0081   6.3617   6.4567   7.0533
     7.1325   7.5703

     occupation numbers
     1.0000   1.0000   1.0000   1.0000   1.0000   1.0000   1.0000   1.0000
     1.0000   1.0000   1.0000   1.0000   1.0000   1.0000   1.0000   1.0000
     1.0000   1.0000   1.0000   1.0000   1.0000   1.0000   1.0000   1.0000
     1.0000   1.0000   1.0000   1.0000   1.0000   1.0000   1.0000   1.0000
     1.0000   1.0000   1.0000   1.0000   1.0000   1.0000   1.0000   1.0000
     1.0000   0.5451   0.4549  -0.0000  -0.0000  -0.0000  -0.0000  -0.0000
    -0.0000  -0.0000

     the Fermi energy is     5.7881 ev

!    total energy              =    -462.49659739 Ry
     estimated scf accuracy    <       0.00000091 Ry
     smearing contrib. (-TS)   =      -0.00055937 Ry
     internal energy E=F+TS    =    -462.49603801 Ry

     The total energy is F=E-TS. E is the sum of the following terms:
     one-electron contribution =    -173.72654764 Ry
     hartree contribution      =     115.81512272 Ry
     xc contribution           =    -180.26335528 Ry
     ewald contribution        =    -224.32125782 Ry

     convergence has been achieved in  25 iterations

     negative rho (up, down):  1.204E-01 0.000E+00

     Forces acting on atoms (cartesian axes, Ry/au):

     atom    1 type  1   force =    -0.06739776    0.01722089    0.00000000
     atom    2 type  1   force =     0.06739776   -0.01722089    0.00000000
     atom    3 type  2   force =    -0.00013249    0.00003342    0.00000000
     atom    4 type  2   force =     0.00013249   -0.00003342    0.00000000
     atom    5 type  2   force =     0.03832236   -0.00979223    0.00357821
     atom    6 type  2   force =    -0.03832236    0.00979223   -0.00357821
     atom    7 type  2   force =    -0.03832236    0.00979223    0.00357821
     atom    8 type  2   force =     0.03832236   -0.00979223   -0.00357821
     atom    9 type  2   force =    -0.00985486    0.00251811    0.00796026
     atom   10 type  2   force =     0.00985486   -0.00251811   -0.00796026
     atom   11 type  2   force =     0.00985486   -0.00251811    0.00796026
     atom   12 type  2   force =    -0.00985486    0.00251811   -0.00796026
     The non-local contrib.  to forces
     atom    1 type  1   force =    -0.02897629    0.00740397    0.00000000
     atom    2 type  1   force =     0.02897629   -0.00740397    0.00000000
     atom    3 type  2   force =     0.01374467   -0.00351111   -0.00000000
     atom    4 type  2   force =    -0.01374467    0.00351111    0.00000000
     atom    5 type  2   force =     0.02383963   -0.00609104    0.05813745
     atom    6 type  2   force =    -0.02383963    0.00609104   -0.05813745
     atom    7 type  2   force =    -0.02383963    0.00609104    0.05813745
     atom    8 type  2   force =     0.02383963   -0.00609104   -0.05813745
     atom    9 type  2   force =    -0.06064284    0.01549819   -0.05140027
     atom   10 type  2   force =     0.06064284   -0.01549819    0.05140027
     atom   11 type  2   force =     0.06064284   -0.01549819   -0.05140027
     atom   12 type  2   force =    -0.06064284    0.01549819    0.05140027
     The ionic contribution  to forces
     atom    1 type  1   force =    -1.97176614    0.50382909    0.00000000
     atom    2 type  1   force =     1.97176614   -0.50382909    0.00000000
     atom    3 type  2   force =     6.59439661   -1.68501160    0.00000000
     atom    4 type  2   force =    -6.59439661    1.68501160    0.00000000
     atom    5 type  2   force =    -5.75694259    1.47102390    4.71988323
     atom    6 type  2   force =     5.75694259   -1.47102390   -4.71988323
     atom    7 type  2   force =     5.75694259   -1.47102390    4.71988323
     atom    8 type  2   force =    -5.75694259    1.47102390   -4.71988323
     atom    9 type  2   force =     3.40723573   -0.87062275   -1.76533034
     atom   10 type  2   force =    -3.40723573    0.87062275    1.76533034
     atom   11 type  2   force =    -3.40723573    0.87062275   -1.76533034
     atom   12 type  2   force =     3.40723573   -0.87062275    1.76533034
     The local contribution  to forces
     atom    1 type  1   force =     1.93295271   -0.49391350    0.00024237
     atom    2 type  1   force =    -1.93279654    0.49387101   -0.00025020
     atom    3 type  2   force =    -6.61823716    1.69109987    0.00009991
     atom    4 type  2   force =     6.61842435   -1.69115183   -0.00006871
     atom    5 type  2   force =     5.77544471   -1.47574758   -4.79207725
     atom    6 type  2   force =    -5.77557379    1.47578900    4.79215887
     atom    7 type  2   force =    -5.77555643    1.47578184   -4.79228761
     atom    8 type  2   force =     5.77548387   -1.47576042    4.79222223
     atom    9 type  2   force =    -3.35437363    0.85711502    1.83234873
     atom   10 type  2   force =     3.35449679   -0.85714529   -1.83239058
     atom   11 type  2   force =     3.35446285   -0.85713602    1.83230219
     atom   12 type  2   force =    -3.35440744    0.85711617   -1.83224732
     The core correction contribution to forces
     atom    1 type  1   force =    -0.00008403    0.00002142    0.00000333
     atom    2 type  1   force =     0.00008589   -0.00002194   -0.00000174
     atom    3 type  2   force =     0.01056317   -0.00269875   -0.00000268
     atom    4 type  2   force =    -0.01057005    0.00270092   -0.00000514
     atom    5 type  2   force =    -0.00450142    0.00114981    0.01781037
     atom    6 type  2   force =     0.00450489   -0.00115157   -0.01781366
     atom    7 type  2   force =     0.00450353   -0.00115085    0.01781243
     atom    8 type  2   force =    -0.00450646    0.00115147   -0.01781049
     atom    9 type  2   force =    -0.00168126    0.00042956   -0.00747549
     atom   10 type  2   force =     0.00168290   -0.00043018    0.00747657
     atom   11 type  2   force =     0.00168628   -0.00043121   -0.00747454
     atom   12 type  2   force =    -0.00168234    0.00043076    0.00747705
     The Hubbard contrib.    to forces
     atom    1 type  1   force =     0.00000000    0.00000000    0.00000000
     atom    2 type  1   force =     0.00000000    0.00000000    0.00000000
     atom    3 type  2   force =     0.00000000    0.00000000    0.00000000
     atom    4 type  2   force =     0.00000000    0.00000000    0.00000000
     atom    5 type  2   force =     0.00000000    0.00000000    0.00000000
     atom    6 type  2   force =     0.00000000    0.00000000    0.00000000
     atom    7 type  2   force =     0.00000000    0.00000000    0.00000000
     atom    8 type  2   force =     0.00000000    0.00000000    0.00000000
     atom    9 type  2   force =     0.00000000    0.00000000    0.00000000
     atom   10 type  2   force =     0.00000000    0.00000000    0.00000000
     atom   11 type  2   force =     0.00000000    0.00000000    0.00000000
     atom   12 type  2   force =     0.00000000    0.00000000    0.00000000
     The SCF correction term to forces
     atom    1 type  1   force =     0.00048232   -0.00012192   -0.00017824
     atom    2 type  1   force =    -0.00062769    0.00016127    0.00019697
     atom    3 type  2   force =    -0.00057750    0.00014735   -0.00006239
     atom    4 type  2   force =     0.00044173   -0.00011289    0.00010426
     atom    5 type  2   force =     0.00044891   -0.00011513   -0.00014744
     atom    6 type  2   force =    -0.00035650    0.00009169    0.00011023
     atom    7 type  2   force =    -0.00036716    0.00009363    0.00001736
     atom    8 type  2   force =     0.00048623   -0.00012479    0.00003057
     atom    9 type  2   force =    -0.00040687    0.00010457   -0.00018278
     atom   10 type  2   force =     0.00027652   -0.00007075    0.00020840
     atom   11 type  2   force =     0.00026741   -0.00006794   -0.00014874
     atom   12 type  2   force =    -0.00036671    0.00009322    0.00008178

     Total force =     0.129053     Total SCF correction =     0.001637

     Computing stress (Cartesian axis) and pressure

     negative rho (up, down):  1.204E-01 0.000E+00
          total   stress  (Ry/bohr**3)                   (kbar)     P=       73.84
   0.00012593   0.00033803   0.00000000           18.52       49.73        0.00
   0.00033803   0.00136244   0.00000000           49.73      200.42        0.00
   0.00000000   0.00000000   0.00001745            0.00        0.00        2.57

     kinetic stress (kbar)   3426.28     31.81      0.00
                               31.81   3542.63      0.00
                                0.00      0.00   3255.65

     local   stress (kbar)   7560.85  -2602.56     -0.01
                            -2602.56  -1959.40      0.00
                               -0.01      0.00   1842.47

     nonloc. stress (kbar)  -2626.56      5.08      0.00
                                5.08  -2607.99      0.00
                                0.00      0.00  -2426.12

     hartree stress (kbar)   -241.43   1129.27      0.01
                             1129.27   3889.47     -0.00
                                0.01     -0.00   2028.05

     exc-cor stress (kbar)   4503.21      0.20      0.00
                                0.20   4503.95     -0.00
                                0.00     -0.00   4506.34

     corecor stress (kbar)  -6002.26      0.54     -0.00
                                0.54  -6000.28      0.00
                               -0.00      0.00  -5979.40

     ewald   stress (kbar)  -6601.57   1485.39      0.00
                             1485.39  -1167.96      0.00
                                0.00      0.00  -3224.41

     hubbard stress (kbar)      0.00      0.00      0.00
                                0.00      0.00      0.00
                                0.00      0.00      0.00

     DFT-D   stress (kbar)      0.00      0.00      0.00
                                0.00      0.00      0.00
                                0.00      0.00      0.00

     XDM     stress (kbar)      0.00      0.00      0.00
                                0.00      0.00      0.00
                                0.00      0.00      0.00

     dft-nl  stress (kbar)      0.00      0.00      0.00
                                0.00      0.00      0.00
                                0.00      0.00      0.00

     TS-vdW  stress (kbar)      0.00      0.00      0.00
                                0.00      0.00      0.00
                                0.00      0.00      0.00

[...]

                                0.00      0.00      0.00

     Writing all to output data dir new_calculations/myprefix.save/

     General routines

     Parallel routines

   This run was terminated on:  19:14:56  21May2023

   JOB DONE.