     Program PWSCF v.7.0 starts on 20May2023 at  9: 1:26

     Reading input from espresso_9277.pwi
Warning: card &CELL ignored
Warning: card / ignored

     Current dimensions of program PWSCF are:
     Max number of different atomic species (ntypx) = 10
     Max number of k-points (npk) =  40000
     Max angular momentum in pseudopotentials (lmaxx) =  4
     file Ba.pbe-spn-kjpaw_psl.1.0.0.UPF: wavefunction(s)  5S 6S renormalized

     gamma-point specific algorithms are used
     Message from routine setup:
     using ibrav=0 with symmetry is DISCOURAGED, use correct ibrav instead

     Subspace diagonalization in iterative solution of the eigenvalue problem:
     a serial algorithm will be used

     Using Slab Decomposition

     bravais-lattice index     =            0
     lattice parameter (alat)  =      19.4977  a.u.
     unit-cell volume          =    3845.5700 (a.u.)^3
     number of atoms/cell      =           12
     number of atomic types    =            3
     number of electrons       =        96.00
     number of Kohn-Sham states=           58
     kinetic-energy cutoff     =      30.0000  Ry
     charge density cutoff     =     240.0000  Ry
     scf convergence threshold =      1.0E-06
     mixing beta               =       0.7000
     number of iterations used =            8  plain     mixing
     Exchange-correlation= SLA  PW   PBX  PBC
                           (   1   4   3   4   0   0   0)

     celldm(1)=  19.497666  celldm(2)=   0.000000  celldm(3)=   0.000000
     celldm(4)=   0.000000  celldm(5)=   0.000000  celldm(6)=   0.000000

     crystal axes: (cart. coord. in units of alat)
               a(1) = (   1.000000   0.000000   0.000000 )
               a(2) = (   0.374074   0.927399   0.000000 )
               a(3) = (  -0.687037  -0.463699   0.559431 )

     reciprocal axes: (cart. coord. in units 2 pi/alat)
               b(1) = (  1.000000 -0.403359  0.893766 )
               b(2) = (  0.000000  1.078285  0.893766 )
               b(3) = (  0.000000  0.000000  1.787531 )

     PseudoPot. # 1 for Ba read from file:
     /home/pragov/projects/rrg-bengioy-ad/pragov/crystal_structure_design/SSSP/Ba.pbe-spn-kjpaw_psl.1.0.0.UPF
     MD5 check sum: c432291d3e53af55f19d5e8866385beb
     Pseudo is Projector augmented-wave + core cor, Zval = 10.0
     Generated using "atomic" code by A. Dal Corso  v.5.1
     Shape of augmentation charge: PSQ
     Using radial grid of 1251 points,  7 beta functions with:
                l(1) =   0
                l(2) =   0
                l(3) =   0
                l(4) =   1
                l(5) =   1
                l(6) =   2
                l(7) =   2
     Q(r) pseudized with 0 coefficients

     PseudoPot. # 2 for Ca read from file:
     /home/pragov/projects/rrg-bengioy-ad/pragov/crystal_structure_design/SSSP/Ca_pbe_v1.uspp.F.UPF
     MD5 check sum: 403a4c14b9e4d4dfdc3024c9a3812218
     Pseudo is Ultrasoft + core correction, Zval = 10.0
     Generated by new atomic code, or converted to UPF format
     Using radial grid of  845 points,  6 beta functions with:
                l(1) =   0
                l(2) =   0
                l(3) =   1
                l(4) =   1
                l(5) =   2
                l(6) =   2
     Q(r) pseudized with  8 coefficients,  rinner =    1.500   1.500   1.500
                                                       1.500   1.500

     PseudoPot. # 3 for I  read from file:
     /home/pragov/projects/rrg-bengioy-ad/pragov/crystal_structure_design/SSSP/I.pbe-n-kjpaw_psl.0.2.UPF
     MD5 check sum: d4ef18d9c8f18dc85e5843bca1e50dc0
     Pseudo is Projector augmented-wave + core cor, Zval =  7.0
     Generated using "atomic" code by A. Dal Corso  v.5.0.99 svn rev. 10869
     Shape of augmentation charge: PSQ
     Using radial grid of 1247 points,  4 beta functions with:
                l(1) =   0
                l(2) =   0
                l(3) =   1
                l(4) =   1
     Q(r) pseudized with 0 coefficients

     atomic species   valence    mass     pseudopotential
        Ba            10.00   137.32700     Ba( 1.00)
        Ca            10.00    40.07800     Ca( 1.00)
        I              7.00   126.90447     I ( 1.00)

      2 Sym. Ops., with inversion, found ( 1 have fractional translation)

                                    s                        frac. trans.

      isym =  1     identity

 cryst.   s( 1) = (     1          0          0      )
                  (     0          1          0      )
                  (     0          0          1      )

 cart.    s( 1) = (  1.0000000  0.0000000 -0.0000000 )
                  (  0.0000000  1.0000000 -0.0000000 )
                  (  0.0000000  0.0000000  1.0000000 )

      isym =  2     inversion

 cryst.   s( 2) = (    -1          0          0      )    f =(  0.2500000 )
                  (     0         -1          0      )       ( -0.2500000 )
                  (     0          0         -1      )       (  0.5000000 )

 cart.    s( 2) = ( -1.0000000 -0.0000000  0.0000000 )    f =( -0.1870372 )
                  (  0.0000000 -1.0000000  0.0000000 )       ( -0.4636993 )
                  (  0.0000000  0.0000000 -1.0000000 )       (  0.2797154 )

   Cartesian axes

     site n.     atom                  positions (alat units)
         1           Ba  tau(   1) = (   0.1870372   0.4636993   0.2797154  )
         2           Ba  tau(   2) = (   0.6870372   0.4636993   0.0000000  )
         3           Ca  tau(   3) = (   0.0000000   0.0000000   0.0000000  )
         4           Ca  tau(   4) = (   0.5000000  -0.0000000   0.2797154  )
         5           I   tau(   5) = (  -0.2421632  -0.1280626   0.3352825  )
         6           I   tau(   6) = (   0.8358841   0.4971209   0.3090408  )
         7           I   tau(   7) = (   0.0866750   0.1255383   0.2503900  )
         8           I   tau(   8) = (   0.3963894   0.6403762   0.0555671  )
         9           I   tau(   9) = (   0.4776850   0.2870225   0.2241482  )
        10           I   tau(  10) = (   0.7873995   0.8018604   0.0293254  )
        11           I   tau(  11) = (   0.3511531  -0.0334216   0.5301054  )
        12           I   tau(  12) = (   0.0551260  -0.3356367   0.5038636  )

   Crystallographic axes

     site n.     atom                  positions (cryst. coord.)
         1           Ba  tau(   1) = (  0.2500000  0.7500000  0.5000000  )
         2           Ba  tau(   2) = (  0.5000000  0.5000000  0.0000000  )
         3           Ca  tau(   3) = (  0.0000000  0.0000000  0.0000000  )
         4           Ca  tau(   4) = (  0.7500000  0.2500000  0.5000000  )
         5           I   tau(   5) = (  0.1091560  0.1615760  0.5993280  )
         6           I   tau(   6) = (  0.9115760  0.8122480  0.5524200  )
         7           I   tau(   7) = (  0.2598280  0.3591560  0.4475800  )
         8           I   tau(   8) = (  0.1877520  0.7401720  0.0993280  )
         9           I   tau(   9) = (  0.5622480  0.5098280  0.4006720  )
        10           I   tau(  10) = (  0.4901720  0.8908440  0.0524200  )
        11           I   tau(  11) = (  0.8384240  0.4377520  0.9475800  )
        12           I   tau(  12) = (  0.6408440  0.0884240  0.9006720  )

     number of k points=     1  Methfessel-Paxton smearing, width (Ry)=  0.0010
                       cart. coord. in units 2pi/alat
        k(    1) = (   0.0000000   0.0000000   0.0000000), wk =   2.0000000

                       cryst. coord.
        k(    1) = (   0.0000000   0.0000000   0.0000000), wk =   2.0000000

     Check: negative core charge=   -0.000001

     Initial potential from superposition of free atoms

     starting charge      95.9545, renormalised to      96.0000
     Starting wfcs are   62 randomized atomic wfcs
     Checking if some PAW data can be deallocated...

     Self-consistent Calculation

     iteration #  1     ecut=    30.00 Ry     beta= 0.70
     Davidson diagonalization with overlap

     ethr =  1.00E-02,  avg # of iterations =  5.0

     Threshold (ethr) on eigenvalues was too large:
     Diagonalizing with lowered threshold

     Davidson diagonalization with overlap

[...]

     negative rho (up, down):  2.329E-01 0.000E+00

     total energy              =   -4057.62587630 Ry
     estimated scf accuracy    <       0.72194191 Ry

[...]

     total energy              =   -4057.77939989 Ry
     estimated scf accuracy    <       0.00001703 Ry

     iteration # 18     ecut=    30.00 Ry     beta= 0.70
     Davidson diagonalization with overlap

     ethr =  3.45E-09,  avg # of iterations =  4.0

[...]

     End of self-consistent calculation

          k = 0.0000 0.0000 0.0000 (  5337 PWs)   bands (ev):

   -38.0514 -37.8929 -23.5499 -23.5242 -18.9184 -18.8923 -18.8782 -18.8434
   -18.7994 -18.6418 -13.3847 -10.9100 -10.3190 -10.0489  -9.8677  -9.7973
    -9.6725  -9.5167  -9.4121  -9.2919  -8.9410  -8.8667  -8.4814  -8.3943
     0.0938   0.3845   0.4428   0.4930   0.5371   0.5495   0.5745   0.7905
     1.0636   1.1059   1.4178   1.4358   1.5927   1.6536   1.6745   1.7048
     1.7697   1.7819   1.8310   1.9967   2.1926   2.2763   2.3664   2.3865
     5.4367   5.6149   6.1873   6.5618   6.5769   6.6092   6.6498   6.8758
     6.8942   6.9436

     occupation numbers
     1.0000   1.0000   1.0000   1.0000   1.0000   1.0000   1.0000   1.0000
     1.0000   1.0000   1.0000   1.0000   1.0000   1.0000   1.0000   1.0000
     1.0000   1.0000   1.0000   1.0000   1.0000   1.0000   1.0000   1.0000
     1.0000   1.0000   1.0000   1.0000   1.0000   1.0000   1.0000   1.0000
     1.0000   1.0000   1.0000   1.0000   1.0000   1.0000   1.0000   1.0000
     1.0000   1.0000   1.0000   1.0000   1.0000   1.0000   1.0000   1.0000
    -0.0000  -0.0000  -0.0000  -0.0000  -0.0000  -0.0000  -0.0000  -0.0000
    -0.0000  -0.0000

     the Fermi energy is     4.2504 ev

!    total energy              =   -4057.77940003 Ry
     estimated scf accuracy    <       0.00000073 Ry
     smearing contrib. (-TS)   =       0.00000000 Ry
     internal energy E=F+TS    =   -4057.77940003 Ry

     The total energy is F=E-TS. E is the sum of the following terms:
     one-electron contribution =    -126.50111069 Ry
     hartree contribution      =      96.62313367 Ry
     xc contribution           =    -400.12873343 Ry
     ewald contribution        =    -312.54789440 Ry
     one-center paw contrib.   =   -3315.22479518 Ry
      -> PAW hartree energy AE =     123.73244728 Ry
      -> PAW hartree energy PS =    -123.64131388 Ry
      -> PAW xc energy AE      =   -3675.63069072 Ry
      -> PAW xc energy PS      =     360.31476213 Ry
      -> total E_H with PAW    =      96.71426708 Ry
      -> total E_XC with PAW   =   -3715.44466202 Ry

     convergence has been achieved in  18 iterations

     negative rho (up, down):  2.853E-01 0.000E+00

     Forces acting on atoms (cartesian axes, Ry/au):

     atom    1 type  1   force =     0.01169698   -0.00309844    0.01295722
     atom    2 type  1   force =    -0.01169698    0.00309844   -0.01295722
     atom    3 type  2   force =     0.00094120    0.00743706    0.00671381
     atom    4 type  2   force =    -0.00094120   -0.00743706   -0.00671381
     atom    5 type  3   force =     0.02667464   -0.03742154   -0.04226157
     atom    6 type  3   force =     0.02291319    0.00159989    0.09825635
     atom    7 type  3   force =    -0.04533470    0.00812018   -0.07982210
     atom    8 type  3   force =     0.04834883    0.00712330    0.02489633
     atom    9 type  3   force =    -0.04834883   -0.00712330   -0.02489633
     atom   10 type  3   force =     0.04533470   -0.00812018    0.07982210
     atom   11 type  3   force =    -0.02291319   -0.00159989   -0.09825635
     atom   12 type  3   force =    -0.02667464    0.03742154    0.04226157
     The non-local contrib.  to forces
     atom    1 type  1   force =     0.00581189   -0.02234300    0.01365723
     atom    2 type  1   force =    -0.00581189    0.02234300   -0.01365723
     atom    3 type  2   force =    -0.00179217    0.00033559    0.00320883
     atom    4 type  2   force =     0.00179217   -0.00033559   -0.00320883
     atom    5 type  3   force =    -0.01835048    0.00190167   -0.01061266
     atom    6 type  3   force =    -0.01231585   -0.01537912    0.03305514
     atom    7 type  3   force =    -0.01933366   -0.00645668   -0.04085337
     atom    8 type  3   force =     0.01758892    0.03878006    0.00299326
     atom    9 type  3   force =    -0.01758892   -0.03878006   -0.00299326
     atom   10 type  3   force =     0.01933366    0.00645668    0.04085337
     atom   11 type  3   force =     0.01231585    0.01537912   -0.03305514
     atom   12 type  3   force =     0.01835048   -0.00190167    0.01061266
     The ionic contribution  to forces
     atom    1 type  1   force =     0.00000000   -0.00000000    0.00000000
     atom    2 type  1   force =    -0.00000000   -0.00000000   -0.00000000
     atom    3 type  2   force =    -0.00000000   -0.00000000   -0.00000000
     atom    4 type  2   force =     0.00000000    0.00000000    0.00000000
     atom    5 type  3   force =     0.72276819   -0.24076160    0.08022641
     atom    6 type  3   force =     0.42980877    0.19329988   -0.60390054
     atom    7 type  3   force =     0.34004652    0.32629555    0.60390054
     atom    8 type  3   force =    -0.04708709   -0.76035703    0.08022641
     atom    9 type  3   force =     0.04708709    0.76035703   -0.08022641
     atom   10 type  3   force =    -0.34004652   -0.32629555   -0.60390054
     atom   11 type  3   force =    -0.42980877   -0.19329988    0.60390054
     atom   12 type  3   force =    -0.72276819    0.24076160   -0.08022641
     The local contribution  to forces
     atom    1 type  1   force =     0.00625500    0.01864158    0.00038824
     atom    2 type  1   force =    -0.00442392   -0.01639262    0.00170213
     atom    3 type  2   force =     0.00198378    0.00718242    0.00353759
     atom    4 type  2   force =    -0.00318398   -0.00694105   -0.00322808
     atom    5 type  3   force =    -0.67907819    0.19915758   -0.11444516
     atom    6 type  3   force =    -0.38638641   -0.18888386    0.65690586
     atom    7 type  3   force =    -0.36438815   -0.30978206   -0.62689210
     atom    8 type  3   force =     0.06837002    0.73037282   -0.06593053
     atom    9 type  3   force =    -0.07637786   -0.71992390    0.06734383
     atom   10 type  3   force =     0.35994736    0.32385360    0.62104969
     atom   11 type  3   force =     0.39680849    0.17362225   -0.63578252
     atom   12 type  3   force =     0.67887223   -0.20440007    0.08967228
     The core correction contribution to forces
     atom    1 type  1   force =     0.00076221    0.00195576   -0.00004357
     atom    2 type  1   force =    -0.00027006   -0.00155744    0.00005023
     atom    3 type  2   force =     0.00012712    0.00005454    0.00015412
     atom    4 type  2   force =    -0.00020724   -0.00003207   -0.00008713
     atom    5 type  3   force =     0.00114259   -0.00168234   -0.01308912
     atom    6 type  3   force =    -0.00247292    0.00448769    0.02719704
     atom    7 type  3   force =    -0.00380454    0.00567485   -0.02102254
     atom    8 type  3   force =     0.00475733    0.00516130    0.00879811
     atom    9 type  3   force =    -0.00617604   -0.00198104   -0.00780451
     atom   10 type  3   force =     0.00395066   -0.00447206    0.01684289
     atom   11 type  3   force =     0.00353048   -0.00539846   -0.01836798
     atom   12 type  3   force =    -0.00128034   -0.00103854    0.00657472
     The Hubbard contrib.    to forces
     atom    1 type  1   force =     0.00000000    0.00000000    0.00000000
     atom    2 type  1   force =     0.00000000    0.00000000    0.00000000
     atom    3 type  2   force =     0.00000000    0.00000000    0.00000000
     atom    4 type  2   force =     0.00000000    0.00000000    0.00000000
     atom    5 type  3   force =     0.00000000    0.00000000    0.00000000
     atom    6 type  3   force =     0.00000000    0.00000000    0.00000000
     atom    7 type  3   force =     0.00000000    0.00000000    0.00000000
     atom    8 type  3   force =     0.00000000    0.00000000    0.00000000
     atom    9 type  3   force =     0.00000000    0.00000000    0.00000000
     atom   10 type  3   force =     0.00000000    0.00000000    0.00000000
     atom   11 type  3   force =     0.00000000    0.00000000    0.00000000
     atom   12 type  3   force =     0.00000000    0.00000000    0.00000000
     The SCF correction term to forces
     atom    1 type  1   force =     0.00016722   -0.00002989   -0.00000671
     atom    2 type  1   force =     0.00010824    0.00002838   -0.00001438
     atom    3 type  2   force =    -0.00003031    0.00000039    0.00000951
     atom    4 type  2   force =     0.00000507    0.00000752    0.00000646
     atom    5 type  3   force =     0.00001597   -0.00002689    0.00001181
     atom    6 type  3   force =     0.00002437   -0.00000334   -0.00002819
     atom    7 type  3   force =     0.00001369    0.00003242    0.00003642
     atom    8 type  3   force =    -0.00001128   -0.00002370    0.00001777
     atom    9 type  3   force =    -0.00002402    0.00001484   -0.00000727
     atom   10 type  3   force =     0.00001807   -0.00001894   -0.00003225
     atom   11 type  3   force =    -0.00001447    0.00001845    0.00002170
     atom   12 type  3   force =    -0.00002538    0.00001019   -0.00001884

     Total force =     0.228019     Total SCF correction =     0.000231

     Computing stress (Cartesian axis) and pressure

     negative rho (up, down):  2.853E-01 0.000E+00
          total   stress  (Ry/bohr**3)                   (kbar)     P=       31.27
   0.00003921  -0.00041275  -0.00029338            5.77      -60.72      -43.16
  -0.00041275   0.00016769   0.00025588          -60.72       24.67       37.64
  -0.00029338   0.00025588   0.00043074          -43.16       37.64       63.36

     kinetic stress (kbar)   3399.54    -41.13    -27.21
                              -41.13   3418.47     33.14
                              -27.21     33.14   3467.54

     local   stress (kbar)    539.84    183.79    -13.92
                              183.79    385.20     14.14
                              -13.92     14.14    280.80

     nonloc. stress (kbar)    319.79      2.15     -0.31
                                2.15    312.06     -8.97
                               -0.31     -8.97    276.11

     hartree stress (kbar)   1177.68    -75.04      1.79
                              -75.04   1237.85     -2.55
                                1.79     -2.55   1280.60

     exc-cor stress (kbar)  10976.36     -0.00      0.37
                               -0.00  10976.90     -0.38
                                0.37     -0.38  10976.39

     corecor stress (kbar) -12326.52     -5.14     -3.89
                               -5.14 -12326.01      2.27
                               -3.89      2.27 -12322.89

     ewald   stress (kbar)  -4080.93   -125.36      0.00
                             -125.36  -3979.80      0.00
                                0.00      0.00  -3895.20

     hubbard stress (kbar)      0.00      0.00      0.00
                                0.00      0.00      0.00
                                0.00      0.00      0.00

     DFT-D   stress (kbar)      0.00      0.00      0.00
                                0.00      0.00      0.00
                                0.00      0.00      0.00

     XDM     stress (kbar)      0.00      0.00      0.00
                                0.00      0.00      0.00
                                0.00      0.00      0.00

     dft-nl  stress (kbar)      0.00      0.00      0.00
                                0.00      0.00      0.00
                                0.00      0.00      0.00

     TS-vdW  stress (kbar)      0.00      0.00      0.00
                                0.00      0.00      0.00
                                0.00      0.00      0.00

[...]

                                0.00      0.00      0.00

     Writing all to output data dir new_calculations/myprefix.save/

     General routines

     Parallel routines

     PAW routines

   This run was terminated on:   9: 2:35  20May2023

   JOB DONE.