     Program PWSCF v.7.0 starts on 20May2023 at 14:38:59

     Reading input from espresso_20012.pwi
Warning: card &CELL ignored
Warning: card / ignored

     Current dimensions of program PWSCF are:
     Max number of different atomic species (ntypx) = 10
     Max number of k-points (npk) =  40000
     Max angular momentum in pseudopotentials (lmaxx) =  4
     file Ba.pbe-spn-kjpaw_psl.1.0.0.UPF: wavefunction(s)  5S 6S renormalized
     file O.pbe-n-kjpaw_psl.0.1.UPF: wavefunction(s)  2P renormalized

     gamma-point specific algorithms are used
     Message from routine setup:
     using ibrav=0 with symmetry is DISCOURAGED, use correct ibrav instead

     Subspace diagonalization in iterative solution of the eigenvalue problem:
     a serial algorithm will be used

     Using Slab Decomposition

     bravais-lattice index     =            0
     lattice parameter (alat)  =      20.5377  a.u.
     unit-cell volume          =    1137.2748 (a.u.)^3
     number of atoms/cell      =           12
     number of atomic types    =            4
     number of electrons       =       103.00
     number of Kohn-Sham states=           62
     kinetic-energy cutoff     =      30.0000  Ry
     charge density cutoff     =     240.0000  Ry
     scf convergence threshold =      1.0E-06
     mixing beta               =       0.7000
     number of iterations used =            8  plain     mixing
     Exchange-correlation= SLA  PW   PBX  PBC
                           (   1   4   3   4   0   0   0)

     celldm(1)=  20.537741  celldm(2)=   0.000000  celldm(3)=   0.000000
     celldm(4)=   0.000000  celldm(5)=   0.000000  celldm(6)=   0.000000

     crystal axes: (cart. coord. in units of alat)
               a(1) = (   1.000000   0.000000   0.000000 )
               a(2) = (   0.864013   0.503470   0.000000 )
               a(3) = (  -0.932006  -0.251735   0.260756 )

     reciprocal axes: (cart. coord. in units 2 pi/alat)
               b(1) = (  1.000000 -1.716116  1.917503 )
               b(2) = (  0.000000  1.986216  1.917503 )
               b(3) = (  0.000000  0.000000  3.835006 )

     PseudoPot. # 1 for Ba read from file:
     /home/pragov/projects/rrg-bengioy-ad/pragov/crystal_structure_design/SSSP/Ba.pbe-spn-kjpaw_psl.1.0.0.UPF
     MD5 check sum: c432291d3e53af55f19d5e8866385beb
     Pseudo is Projector augmented-wave + core cor, Zval = 10.0
     Generated using "atomic" code by A. Dal Corso  v.5.1
     Shape of augmentation charge: PSQ
     Using radial grid of 1251 points,  7 beta functions with:
                l(1) =   0
                l(2) =   0
                l(3) =   0
                l(4) =   1
                l(5) =   1
                l(6) =   2
                l(7) =   2
     Q(r) pseudized with 0 coefficients

     PseudoPot. # 2 for La read from file:
     /home/pragov/projects/rrg-bengioy-ad/pragov/crystal_structure_design/SSSP/La.GGA-PBE-paw-v1.0.UPF
     MD5 check sum: 436541e95c1ad8901025bd0b0ed42ae2
     Pseudo is Projector augmented-wave + core cor, Zval = 11.0
     Generated using ATOMPAW code
     Shape of augmentation charge: BESSEL
     Using radial grid of 1101 points,  8 beta functions with:
                l(1) =   0
                l(2) =   0
                l(3) =   1
                l(4) =   1
                l(5) =   2
                l(6) =   2
                l(7) =   3
                l(8) =   3
     Q(r) pseudized with 0 coefficients

     PseudoPot. # 3 for Mn read from file:
     /home/pragov/projects/rrg-bengioy-ad/pragov/crystal_structure_design/SSSP/mn_pbe_v1.5.uspp.F.UPF
     MD5 check sum: 82ef2b46521d7a7d9e736dc3972e4928
     Pseudo is Ultrasoft + core correction, Zval = 15.0
     Generated by new atomic code, or converted to UPF format
     Using radial grid of  859 points,  6 beta functions with:
                l(1) =   0
                l(2) =   0
                l(3) =   1
                l(4) =   1
                l(5) =   2
                l(6) =   2
     Q(r) pseudized with  8 coefficients,  rinner =    0.950   0.950   0.950
                                                       0.950   0.950

     PseudoPot. # 4 for O  read from file:
     /home/pragov/projects/rrg-bengioy-ad/pragov/crystal_structure_design/SSSP/O.pbe-n-kjpaw_psl.0.1.UPF
     MD5 check sum: 0234752ac141de4415c5fc33072bef88
     Pseudo is Projector augmented-wave + core cor, Zval =  6.0
     Generated using "atomic" code by A. Dal Corso  v.5.0.99 svn rev. 10869
     Shape of augmentation charge: BESSEL
     Using radial grid of 1095 points,  4 beta functions with:
                l(1) =   0
                l(2) =   0
                l(3) =   1
                l(4) =   1
     Q(r) pseudized with 0 coefficients

     atomic species   valence    mass     pseudopotential
        Ba            10.00   137.32700     Ba( 1.00)
        La            11.00   138.90547     La( 1.00)
        Mn            15.00    54.93804     Mn( 1.00)
        O              6.00    15.99900     O ( 1.00)

      4 Sym. Ops., with inversion, found

                                    s                        frac. trans.

      isym =  1     identity

 cryst.   s( 1) = (     1          0          0      )
                  (     0          1          0      )
                  (     0          0          1      )

 cart.    s( 1) = (  1.0000000  0.0000000  0.0000000 )
                  (  0.0000000  1.0000000 -0.0000000 )
                  (  0.0000000  0.0000000  1.0000000 )

      isym =  2     180 deg rotation - cart. axis [0,0,1]

[...]

      isym =  3     inversion

[...]

      isym =  4     inv. 180 deg rotation - cart. axis [0,0,1]

 cryst.   s( 4) = (     1          0          0      )
                  (     0          1          0      )
                  (    -1         -1         -1      )

 cart.    s( 4) = (  1.0000000  0.0000000  0.0000000 )
                  (  0.0000000  1.0000000  0.0000000 )
                  (  0.0000000  0.0000000 -1.0000000 )

   Cartesian axes

     site n.     atom                  positions (alat units)
         1           Ba  tau(   1) = (   1.2700861   0.3430502   0.0000000  )
         2           Ba  tau(   2) = (   0.5939267   0.1604196   0.0000000  )
         3           La  tau(   3) = (   0.9320064   0.2517349   0.0000000  )
         4           Mn  tau(   4) = (   1.6902123   0.4565263   0.0000000  )
         5           Mn  tau(   5) = (   0.1738006   0.0469435   0.0000000  )
         6           O   tau(   6) = (   1.5168162   0.4096920   0.0000000  )
         7           O   tau(   7) = (   0.3471966   0.0937778   0.0000000  )
         8           O   tau(   8) = (   0.8049860   0.0823767   0.1303779  )
         9           O   tau(   9) = (   0.7369925   0.3341116   0.1303779  )
        10           O   tau(  10) = (   0.1270204   0.1693582   0.1303779  )
        11           O   tau(  11) = (   0.1950140  -0.0823767   0.1303779  )
        12           O   tau(  12) = (   0.0000000   0.0000000   0.0000000  )

   Crystallographic axes

     site n.     atom                  positions (cryst. coord.)
         1           Ba  tau(   1) = (  0.6813720  0.6813720  0.0000000  )
         2           Ba  tau(   2) = (  0.3186280  0.3186280  0.0000000  )
         3           La  tau(   3) = (  0.5000000  0.5000000  0.0000000  )
         4           Mn  tau(   4) = (  0.9067600  0.9067600  0.0000000  )
         5           Mn  tau(   5) = (  0.0932400  0.0932400  0.0000000  )
         6           O   tau(   6) = (  0.8137370  0.8137370  0.0000000  )
         7           O   tau(   7) = (  0.1862630  0.1862630  0.0000000  )
         8           O   tau(   8) = (  0.9136180  0.4136180  0.5000000  )
         9           O   tau(   9) = (  0.4136180  0.9136180  0.5000000  )
        10           O   tau(  10) = (  0.0863820  0.5863820  0.5000000  )
        11           O   tau(  11) = (  0.5863820  0.0863820  0.5000000  )
        12           O   tau(  12) = (  0.0000000  0.0000000  0.0000000  )

     number of k points=     1  Methfessel-Paxton smearing, width (Ry)=  0.0010
                       cart. coord. in units 2pi/alat
        k(    1) = (   0.0000000   0.0000000   0.0000000), wk =   2.0000000

                       cryst. coord.
        k(    1) = (   0.0000000   0.0000000   0.0000000), wk =   2.0000000

     Check: negative core charge=   -0.000017

     Initial potential from superposition of free atoms

     starting charge     101.9573, renormalised to     103.0000
     Starting wfcs are   96 randomized atomic wfcs
     Checking if some PAW data can be deallocated...

     Self-consistent Calculation

     iteration #  1     ecut=    30.00 Ry     beta= 0.70
     Davidson diagonalization with overlap

     ethr =  1.00E-02,  avg # of iterations =  2.0

     negative rho (up, down):  1.578E-02 0.000E+00

     total energy              =   -2040.26441125 Ry
     estimated scf accuracy    <       6.47880109 Ry

[...]

     negative rho (up, down):  9.387E-04 0.000E+00

[...]

     total energy              =   -2044.21810053 Ry
     estimated scf accuracy    <       0.00001229 Ry

     iteration # 47     ecut=    30.00 Ry     beta= 0.70
     Davidson diagonalization with overlap

     ethr =  1.37E-09,  avg # of iterations =  1.0

     End of self-consistent calculation

          k = 0.0000 0.0000 0.0000 (  1568 PWs)   bands (ev):

   -69.2468 -69.2461 -38.3224 -38.3151 -37.6909 -37.6909 -37.6861 -37.6861
   -19.7717 -15.5590 -15.4229  -7.1067  -6.7397  -6.3107  -6.2328  -5.8213
    -5.2036  -5.1588  -3.3379  -3.3379  -2.7638  -0.8658  -0.7093  -0.7093
    -0.4491  -0.4491  -0.2385   5.7862   7.2010   7.2010   7.3282   7.4264
     7.6163   7.6163   8.1415   8.1415   8.4024   8.4025   8.6691   8.8063
     9.1157   9.1158   9.3828   9.8902   9.8902  10.0956  10.1281  10.1734
    10.5780  10.5780  10.6818  10.6818  11.0199  11.0199  11.4073  11.4093
    11.6593  12.6158  13.5883  14.7235  14.7433  15.1260

     occupation numbers
     1.0000   1.0000   1.0000   1.0000   1.0000   1.0000   1.0000   1.0000
     1.0000   1.0000   1.0000   1.0000   1.0000   1.0000   1.0000   1.0000
     1.0000   1.0000   1.0000   1.0000   1.0000   1.0000   1.0000   1.0000
     1.0000   1.0000   1.0000   1.0000   1.0000   1.0000   1.0000   1.0000
     1.0000   1.0000   1.0000   1.0000   1.0000   1.0000   1.0000   1.0000
     1.0000   1.0000   1.0000   1.0000   1.0000   1.0000   1.0000   1.0000
     1.0000   1.0000   0.7506   0.7494  -0.0000  -0.0000  -0.0000  -0.0000
    -0.0000  -0.0000  -0.0000  -0.0000  -0.0000  -0.0000

     the Fermi energy is    10.6861 ev

!    total energy              =   -2044.21810039 Ry
     estimated scf accuracy    <       0.00000046 Ry
     smearing contrib. (-TS)   =      -0.00041261 Ry
     internal energy E=F+TS    =   -2044.21768778 Ry

     The total energy is F=E-TS. E is the sum of the following terms:
     one-electron contribution =    -478.32266338 Ry
     hartree contribution      =     303.90179589 Ry
     xc contribution           =    -154.36872259 Ry
     ewald contribution        =    -500.79267543 Ry
     one-center paw contrib.   =   -1214.63542227 Ry
      -> PAW hartree energy AE =     298.15323526 Ry
      -> PAW hartree energy PS =    -297.22568107 Ry
      -> PAW xc energy AE      =   -1313.75521530 Ry
      -> PAW xc energy PS      =      98.19223884 Ry
      -> total E_H with PAW    =     304.82935008 Ry
      -> total E_XC with PAW   =   -1369.93169904 Ry

     convergence has been achieved in  47 iterations

     Forces acting on atoms (cartesian axes, Ry/au):

     atom    1 type  1   force =    -0.13125562   -0.03545873   -0.00000000
     atom    2 type  1   force =     0.13125562    0.03545873    0.00000000
     atom    3 type  2   force =     0.00000000    0.00000000    0.00000000
     atom    4 type  3   force =    -0.12409791   -0.03351799   -0.00000000
     atom    5 type  3   force =     0.12409791    0.03351799    0.00000000
     atom    6 type  4   force =     0.08148395    0.02201012    0.00000000
     atom    7 type  4   force =    -0.08148395   -0.02201012   -0.00000000
     atom    8 type  4   force =     0.05390284    0.01455843    0.00000005
     atom    9 type  4   force =     0.05390284    0.01455843   -0.00000005
     atom   10 type  4   force =    -0.05390284   -0.01455843   -0.00000005
     atom   11 type  4   force =    -0.05390284   -0.01455843    0.00000005
     atom   12 type  4   force =     0.00000000    0.00000000    0.00000000
     The non-local contrib.  to forces
     atom    1 type  1   force =     0.08066982    0.02178805    0.00000000
     atom    2 type  1   force =    -0.08066982   -0.02178805   -0.00000000
     atom    3 type  2   force =     0.00000000    0.00000000    0.00000000
     atom    4 type  3   force =     0.04400147    0.01188604    0.00000000
     atom    5 type  3   force =    -0.04400147   -0.01188604   -0.00000000
     atom    6 type  4   force =     0.36205218    0.09779134    0.00000000
     atom    7 type  4   force =    -0.36205218   -0.09779134   -0.00000000
     atom    8 type  4   force =    -0.41314538   -0.11159069    0.00000040
     atom    9 type  4   force =    -0.41314538   -0.11159069   -0.00000040
     atom   10 type  4   force =     0.41314538    0.11159069   -0.00000040
     atom   11 type  4   force =     0.41314538    0.11159069    0.00000040
     atom   12 type  4   force =     0.00000000    0.00000000    0.00000000
     The ionic contribution  to forces
     atom    1 type  1   force =    19.28575530    5.20908201    0.00000000
     atom    2 type  1   force =   -19.28575529   -5.20908201   -0.00000000
     atom    3 type  2   force =    -0.00000000   -0.00000000   -0.00000000
     atom    4 type  3   force =   -23.32719037   -6.30067353   -0.00000000
     atom    5 type  3   force =    23.32719038    6.30067353    0.00000000
     atom    6 type  4   force =   -17.93544847   -4.84436417   -0.00000000
     atom    7 type  4   force =    17.93544847    4.84436417    0.00000000
     atom    8 type  4   force =    -7.65992845   -2.06894648   -0.00000000
     atom    9 type  4   force =    -7.65992845   -2.06894648   -0.00000000
     atom   10 type  4   force =     7.65992845    2.06894648    0.00000000
     atom   11 type  4   force =     7.65992845    2.06894648    0.00000000
     atom   12 type  4   force =    -0.00000000   -0.00000000    0.00000000
     The local contribution  to forces
     atom    1 type  1   force =   -19.49322715   -5.26527491    0.00045310
     atom    2 type  1   force =    19.49326733    5.26496706   -0.00000185
     atom    3 type  2   force =    -0.00022536   -0.00006095    0.00000170
     atom    4 type  3   force =    23.16321330    6.25638249   -0.00000214
     atom    5 type  3   force =   -23.16332998   -6.25641848    0.00000603
     atom    6 type  4   force =    17.65924784    4.76976080   -0.00000368
     atom    7 type  4   force =   -17.65879051   -4.76964447    0.00000700
     atom    8 type  4   force =     8.12170472    2.19367211   -0.00000107
     atom    9 type  4   force =     8.12184041    2.19370448   -0.00000231
     atom   10 type  4   force =    -8.12170513   -2.19367528    0.00000461
     atom   11 type  4   force =    -8.12196882   -2.19374034   -0.00000034
     atom   12 type  4   force =    -0.00037800   -0.00010183   -0.00000185
     The core correction contribution to forces
     atom    1 type  1   force =    -0.00501099   -0.00135946    0.00001100
     atom    2 type  1   force =     0.00501730    0.00134738   -0.00000204
     atom    3 type  2   force =     0.00000002    0.00000001    0.00000000
     atom    4 type  3   force =    -0.00350226   -0.00094597    0.00000012
     atom    5 type  3   force =     0.00350743    0.00094745   -0.00000018
     atom    6 type  4   force =    -0.00367770   -0.00099337    0.00000006
     atom    7 type  4   force =     0.00367705    0.00099319    0.00000001
     atom    8 type  4   force =     0.00540452    0.00145972   -0.00000001
     atom    9 type  4   force =     0.00540443    0.00145974   -0.00000003
     atom   10 type  4   force =    -0.00540309   -0.00145936    0.00000001
     atom   11 type  4   force =    -0.00540401   -0.00145967   -0.00000002
     atom   12 type  4   force =    -0.00000009   -0.00000002   -0.00000003
     The Hubbard contrib.    to forces
     atom    1 type  1   force =     0.00000000    0.00000000    0.00000000
     atom    2 type  1   force =     0.00000000    0.00000000    0.00000000
     atom    3 type  2   force =     0.00000000    0.00000000    0.00000000
     atom    4 type  3   force =     0.00000000    0.00000000    0.00000000
     atom    5 type  3   force =     0.00000000    0.00000000    0.00000000
     atom    6 type  4   force =     0.00000000    0.00000000    0.00000000
     atom    7 type  4   force =     0.00000000    0.00000000    0.00000000
     atom    8 type  4   force =     0.00000000    0.00000000    0.00000000
     atom    9 type  4   force =     0.00000000    0.00000000    0.00000000
     atom   10 type  4   force =     0.00000000    0.00000000    0.00000000
     atom   11 type  4   force =     0.00000000    0.00000000    0.00000000
     atom   12 type  4   force =     0.00000000    0.00000000    0.00000000
     The SCF correction term to forces
     atom    1 type  1   force =     0.00046435    0.00013212   -0.00004616
     atom    2 type  1   force =    -0.00069697   -0.00015910   -0.00000875
     atom    3 type  2   force =     0.00024787    0.00006711   -0.00000056
     atom    4 type  3   force =    -0.00061835   -0.00016673    0.00000389
     atom    5 type  3   force =     0.00073324    0.00020183   -0.00000880
     atom    6 type  4   force =    -0.00070011   -0.00018788    0.00000646
     atom    7 type  4   force =     0.00022303    0.00006492   -0.00001094
     atom    8 type  4   force =    -0.00013870   -0.00003947    0.00000047
     atom    9 type  4   force =    -0.00021618   -0.00005511    0.00000150
     atom   10 type  4   force =     0.00022385    0.00006445   -0.00000335
     atom   11 type  4   force =     0.00034975    0.00008925   -0.00000002
     atom   12 type  4   force =     0.00039056    0.00010533    0.00000046

     Total force =     0.311024     Total SCF correction =     0.001673

     Computing stress (Cartesian axis) and pressure

          total   stress  (Ry/bohr**3)                   (kbar)     P=     -334.64
  -0.00488159  -0.00109604  -0.00000000         -718.11     -161.23       -0.00
  -0.00109604  -0.00111970  -0.00000000         -161.23     -164.71       -0.00
  -0.00000000  -0.00000000  -0.00082315           -0.00       -0.00     -121.09

     kinetic stress (kbar)  21693.93   -235.37      0.00
                             -235.37  22501.78      0.00
                                0.00      0.00  22564.92

     local   stress (kbar)   7380.89  10535.00      0.18
                            10535.00 -28777.67     -0.67
                                0.18     -0.67 -31622.29

     nonloc. stress (kbar)   8903.90    -89.97      0.00
                              -89.97   9212.70      0.00
                                0.00      0.00   9236.84

     hartree stress (kbar)    670.33  -5227.86     -0.08
                            -5227.86  18613.57      0.29
                               -0.08      0.29  20025.41

     exc-cor stress (kbar)   -877.09      2.56     -0.00
                                2.56   -885.87      0.00
                               -0.00      0.00   -886.57

     corecor stress (kbar)  -4653.27      3.08      0.00
                                3.08  -4663.85     -0.00
                                0.00     -0.00  -4664.67

     ewald   stress (kbar) -33836.80  -5148.66     -0.00
                            -5148.66 -16165.38     -0.00
                               -0.00     -0.00 -14774.73

     hubbard stress (kbar)      0.00      0.00      0.00
                                0.00      0.00      0.00
                                0.00      0.00      0.00

     DFT-D   stress (kbar)      0.00      0.00      0.00
                                0.00      0.00      0.00
                                0.00      0.00      0.00

     XDM     stress (kbar)      0.00      0.00      0.00
                                0.00      0.00      0.00
                                0.00      0.00      0.00

     dft-nl  stress (kbar)      0.00      0.00      0.00
                                0.00      0.00      0.00
                                0.00      0.00      0.00

     TS-vdW  stress (kbar)      0.00      0.00      0.00
                                0.00      0.00      0.00
                                0.00      0.00      0.00

[...]

                                0.00      0.00      0.00

     Writing all to output data dir new_calculations/myprefix.save/

     General routines

     Parallel routines

     PAW routines

   This run was terminated on:  14:41:44  20May2023

   JOB DONE.