     Program PWSCF v.7.0 starts on 20May2023 at 11: 6:35

     Reading input from espresso_17290.pwi
Warning: card &CELL ignored
Warning: card / ignored

     Current dimensions of program PWSCF are:
     Max number of different atomic species (ntypx) = 10
     Max number of k-points (npk) =  40000
     Max angular momentum in pseudopotentials (lmaxx) =  4
     file Nb.pbe-spn-kjpaw_psl.0.3.0.UPF: wavefunction(s)  4S 4P renormalized

     gamma-point specific algorithms are used
     Message from routine setup:
     using ibrav=0 with symmetry is DISCOURAGED, use correct ibrav instead

     Subspace diagonalization in iterative solution of the eigenvalue problem:
     a serial algorithm will be used

     Using Slab Decomposition

     bravais-lattice index     =            0
     lattice parameter (alat)  =      10.5902  a.u.
     unit-cell volume          =     805.8146 (a.u.)^3
     number of atoms/cell      =            8
     number of atomic types    =            2
     number of electrons       =       122.00
     number of Kohn-Sham states=           73
     kinetic-energy cutoff     =      30.0000  Ry
     charge density cutoff     =     240.0000  Ry
     scf convergence threshold =      1.0E-06
     mixing beta               =       0.7000
     number of iterations used =            8  plain     mixing
     Exchange-correlation= PBE
                           (   1   4   3   4   0   0   0)

     celldm(1)=  10.590153  celldm(2)=   0.000000  celldm(3)=   0.000000
     celldm(4)=   0.000000  celldm(5)=   0.000000  celldm(6)=   0.000000

     crystal axes: (cart. coord. in units of alat)
               a(1) = (   1.000000   0.000000   0.000000 )
               a(2) = (  -0.500000   0.866025   0.000000 )
               a(3) = (   0.000000   0.000000   0.783426 )

     reciprocal axes: (cart. coord. in units 2 pi/alat)
               b(1) = (  1.000000  0.577350  0.000000 )
               b(2) = (  0.000000  1.154701  0.000000 )
               b(3) = (  0.000000  0.000000  1.276445 )

     PseudoPot. # 1 for Nb read from file:
     /home/pragov/projects/rrg-bengioy-ad/pragov/crystal_structure_design/SSSP/Nb.pbe-spn-kjpaw_psl.0.3.0.UPF
     MD5 check sum: 411d72ad547312f8017e2943ceca08cc
     Pseudo is Projector augmented-wave + core cor, Zval = 13.0
     Generated using "atomic" code by A. Dal Corso  v.5.0.99 svn rev. 10869
     Shape of augmentation charge: PSQ
     Using radial grid of 1227 points,  6 beta functions with:
                l(1) =   0
                l(2) =   0
                l(3) =   1
                l(4) =   1
                l(5) =   2
                l(6) =   2
     Q(r) pseudized with 0 coefficients

     PseudoPot. # 2 for Ru read from file:
     /home/pragov/projects/rrg-bengioy-ad/pragov/crystal_structure_design/SSSP/Ru_ONCV_PBE-1.0.oncvpsp.upf
     MD5 check sum: be037bb81c227cfb9b1461a9f099f4bd
     Pseudo is Norm-conserving, Zval = 16.0
     Generated using ONCVPSP code by D. R. Hamann
     Using radial grid of 1458 points,  6 beta functions with:
                l(1) =   0
                l(2) =   0
                l(3) =   1
                l(4) =   1
                l(5) =   2
                l(6) =   2

     atomic species   valence    mass     pseudopotential
        Nb            13.00    92.90637     Nb( 1.00)
        Ru            16.00   101.07000     Ru( 1.00)

     24 Sym. Ops., with inversion, found (12 have fractional translation)

                                    s                        frac. trans.

      isym =  1     identity

 cryst.   s( 1) = (     1          0          0      )
                  (     0          1          0      )
                  (     0          0          1      )

 cart.    s( 1) = (  1.0000000 -0.0000000  0.0000000 )
                  (  0.0000000  1.0000000  0.0000000 )
                  (  0.0000000  0.0000000  1.0000000 )

      isym =  2     180 deg rotation - cart. axis [0,0,1]

 cryst.   s( 2) = (    -1          0          0      )    f =( -0.0000000 )
                  (     0         -1          0      )       ( -0.0000000 )
                  (     0          0          1      )       ( -0.5000000 )

 cart.    s( 2) = ( -1.0000000  0.0000000  0.0000000 )    f =( -0.0000000 )
                  (  0.0000000 -1.0000000  0.0000000 )       ( -0.0000000 )
                  (  0.0000000  0.0000000  1.0000000 )       ( -0.3917128 )

[...]

      isym =  4     180 deg rotation - cart. axis [1,0,0]

[...]

      isym =  5      60 deg rotation - cryst. axis [0,0,1]

[...]

 cryst.   s( 8) = (    -1         -1          0      )
                  (     1          0          0      )
                  (     0          0          1      )

 cart.    s( 8) = ( -0.5000000  0.8660254  0.0000000 )
                  ( -0.8660254 -0.5000000  0.0000000 )
                  (  0.0000000  0.0000000  1.0000000 )

[...]

 cryst.   s( 9) = (     0         -1          0      )    f =( -0.0000000 )
                  (    -1          0          0      )       ( -0.0000000 )
                  (     0          0         -1      )       (  0.5000000 )

 cart.    s( 9) = (  0.5000000 -0.8660254  0.0000000 )    f =( -0.0000000 )
                  ( -0.8660254 -0.5000000  0.0000000 )       ( -0.0000000 )
                  (  0.0000000  0.0000000 -1.0000000 )       (  0.3917128 )

[...]

 cryst.   s(10) = (     1          1          0      )    f =(  0.0000000 )
                  (     0         -1          0      )       (  0.0000010 )
                  (     0          0         -1      )       (  0.5000000 )

 cart.    s(10) = (  0.5000000  0.8660253  0.0000000 )    f =( -0.0000005 )
                  (  0.8660254 -0.5000000  0.0000000 )       (  0.0000009 )
                  (  0.0000000  0.0000000 -1.0000000 )       (  0.3917128 )

[...]

 cryst.   s(11) = (    -1         -1          0      )
                  (     0          1          0      )
                  (     0          0         -1      )

 cart.    s(11) = ( -0.5000000 -0.8660253  0.0000000 )
                  ( -0.8660254  0.5000000  0.0000000 )
                  (  0.0000000  0.0000000 -1.0000000 )

      isym = 12     180 deg rotation - cryst. axis [1,1,0]

[...]

      isym = 13     inversion

[...]

      isym = 14     inv. 180 deg rotation - cart. axis [0,0,1]

[...]

      isym = 16     inv. 180 deg rotation - cart. axis [1,0,0]

[...]

      isym = 17     inv.  60 deg rotation - cryst. axis [0,0,1]

[...]

 cryst.   s(22) = (    -1         -1          0      )    f =( -0.0000000 )
                  (     0          1          0      )       (  0.0000010 )
                  (     0          0          1      )       ( -0.5000000 )

 cart.    s(22) = ( -0.5000000 -0.8660253  0.0000000 )    f =( -0.0000005 )
                  ( -0.8660254  0.5000000  0.0000000 )       (  0.0000009 )
                  (  0.0000000  0.0000000  1.0000000 )       ( -0.3917128 )

[...]

      isym = 24     inv. 180 deg rotation - cryst. axis [1,1,0]

 cryst.   s(24) = (     0         -1          0      )
                  (    -1          0          0      )
                  (     0          0          1      )

 cart.    s(24) = (  0.5000000 -0.8660254  0.0000000 )
                  ( -0.8660254 -0.5000000  0.0000000 )
                  (  0.0000000  0.0000000  1.0000000 )

   Cartesian axes

     site n.     atom                  positions (alat units)
         1           Nb  tau(   1) = (   0.5000005   0.2886749   0.1958564  )
         2           Nb  tau(   2) = (  -0.0000005   0.5773506   0.5875692  )
         3           Ru  tau(   3) = (   0.7510300   0.1437429   0.5875692  )
         4           Ru  tau(   4) = (   0.2489710   0.1437429   0.5875692  )
         5           Ru  tau(   5) = (   0.5000005   0.5785388   0.5875692  )
         6           Ru  tau(   6) = (  -0.2510300   0.7222825   0.1958564  )
         7           Ru  tau(   7) = (   0.2510290   0.7222825   0.1958564  )
         8           Ru  tau(   8) = (  -0.0000005   0.2874867   0.1958564  )

   Crystallographic axes

     site n.     atom                  positions (cryst. coord.)
         1           Nb  tau(   1) = (  0.6666670  0.3333330  0.2500000  )
         2           Nb  tau(   2) = (  0.3333330  0.6666670  0.7500000  )
         3           Ru  tau(   3) = (  0.8340200  0.1659800  0.7500000  )
         4           Ru  tau(   4) = (  0.3319610  0.1659800  0.7500000  )
         5           Ru  tau(   5) = (  0.8340200  0.6680390  0.7500000  )
         6           Ru  tau(   6) = (  0.1659800  0.8340200  0.2500000  )
         7           Ru  tau(   7) = (  0.6680390  0.8340200  0.2500000  )
         8           Ru  tau(   8) = (  0.1659800  0.3319610  0.2500000  )

     number of k points=     1  Methfessel-Paxton smearing, width (Ry)=  0.0010
                       cart. coord. in units 2pi/alat
        k(    1) = (   0.0000000   0.0000000   0.0000000), wk =   2.0000000

                       cryst. coord.
        k(    1) = (   0.0000000   0.0000000   0.0000000), wk =   2.0000000

     Check: negative core charge=   -0.000014

     Initial potential from superposition of free atoms

     starting charge     121.9924, renormalised to     122.0000
     Starting wfcs are   80 randomized atomic wfcs
     Checking if some PAW data can be deallocated...

     Self-consistent Calculation

     iteration #  1     ecut=    30.00 Ry     beta= 0.70
     Davidson diagonalization with overlap

     ethr =  1.00E-02,  avg # of iterations =  4.0

     total energy              =   -1798.59521554 Ry
     estimated scf accuracy    <       2.25245392 Ry

[...]

     total energy              =   -1799.99919149 Ry
     estimated scf accuracy    <       0.00000380 Ry

     iteration # 14     ecut=    30.00 Ry     beta= 0.70
     Davidson diagonalization with overlap

     ethr =  1.20E-09,  avg # of iterations =  2.0

     End of self-consistent calculation

          k = 0.0000 0.0000 0.0000 (  1127 PWs)   bands (ev):

   -50.8950 -50.8174 -50.8169 -50.7975 -50.7698 -50.7692 -32.9941 -32.9903
   -21.3766 -21.2325 -21.0874 -21.0870 -21.0724 -21.0724 -20.9053 -20.8080
   -20.8076 -20.7879 -20.7629 -20.7628 -20.6847 -20.5665 -20.5660 -20.2778
   -20.2773 -20.1858  -9.1231  -9.1231  -9.0998  -9.0998  -9.0633  -9.0405
    14.3899  16.2835  16.2915  16.3628  16.3629  17.0354  17.0354  17.1324
    17.1727  17.2426  17.2428  19.2920  19.5785  19.5787  19.6526  19.6527
    20.0724  20.3221  20.3222  20.4132  20.5648  20.5649  20.8654  20.8655
    20.8969  20.8971  20.9349  21.1546  21.1547  21.7242  22.8182  23.1768
    23.5127  23.7865  24.3827  24.3827  24.4696  24.4697  24.5207  24.5208
    25.5459

     occupation numbers
     1.0000   1.0000   1.0000   1.0000   1.0000   1.0000   1.0000   1.0000
     1.0000   1.0000   1.0000   1.0000   1.0000   1.0000   1.0000   1.0000
     1.0000   1.0000   1.0000   1.0000   1.0000   1.0000   1.0000   1.0000
     1.0000   1.0000   1.0000   1.0000   1.0000   1.0000   1.0000   1.0000
     1.0000   1.0000   1.0000   1.0000   1.0000   1.0000   1.0000   1.0000
     1.0000   1.0000   1.0000   1.0000   1.0000   1.0000   1.0000   1.0000
     1.0000   1.0000   1.0000   1.0000   1.0000   1.0000   1.0000   1.0000
     1.0000   1.0000   1.0000   1.0000   1.0000  -0.0000  -0.0000  -0.0000
    -0.0000  -0.0000  -0.0000  -0.0000  -0.0000  -0.0000  -0.0000  -0.0000
    -0.0000

     the Fermi energy is    21.4867 ev

!    total energy              =   -1799.99919168 Ry
     estimated scf accuracy    <       0.00000029 Ry
     smearing contrib. (-TS)   =       0.00000000 Ry
     internal energy E=F+TS    =   -1799.99919168 Ry

     The total energy is F=E-TS. E is the sum of the following terms:
     one-electron contribution =    -256.89747082 Ry
     hartree contribution      =     209.30235096 Ry
     xc contribution           =    -177.02638307 Ry
     ewald contribution        =   -1158.40690967 Ry
     one-center paw contrib.   =    -416.97077909 Ry
      -> PAW hartree energy AE =     137.58358913 Ry
      -> PAW hartree energy PS =    -136.84521699 Ry
      -> PAW xc energy AE      =    -471.77092858 Ry
      -> PAW xc energy PS      =      54.06177736 Ry
      -> total E_H with PAW    =     210.04072310 Ry
      -> total E_XC with PAW   =    -594.73553430 Ry

     convergence has been achieved in  14 iterations

     Forces acting on atoms (cartesian axes, Ry/au):

     atom    1 type  1   force =     0.00000000    0.00000000    0.00000000
     atom    2 type  1   force =    -0.00000000   -0.00000000    0.00000000
     atom    3 type  2   force =     0.03805197   -0.02196931    0.00000000
     atom    4 type  2   force =    -0.03805197   -0.02196931    0.00000000
     atom    5 type  2   force =    -0.00000000    0.04393863    0.00000000
     atom    6 type  2   force =    -0.03805197    0.02196931   -0.00000000
     atom    7 type  2   force =     0.03805197    0.02196931   -0.00000000
     atom    8 type  2   force =     0.00000000   -0.04393863    0.00000000
     The non-local contrib.  to forces
     atom    1 type  1   force =     0.00000000    0.00000000    0.00000000
     atom    2 type  1   force =     0.00000000    0.00000000    0.00000000
     atom    3 type  2   force =    -0.15969742    0.09220135   -0.00000000
     atom    4 type  2   force =     0.15969742    0.09220134    0.00000000
     atom    5 type  2   force =     0.00000000   -0.18440269    0.00000000
     atom    6 type  2   force =     0.15969742   -0.09220135   -0.00000000
     atom    7 type  2   force =    -0.15969742   -0.09220134   -0.00000000
     atom    8 type  2   force =     0.00000000    0.18440269    0.00000000
     The ionic contribution  to forces
     atom    1 type  1   force =    -0.00016756    0.00009674   -0.00000000
     atom    2 type  1   force =     0.00016756   -0.00009674    0.00000000
     atom    3 type  2   force =    -2.73072992    1.57658774    0.00000000
     atom    4 type  2   force =     2.73070520    1.57678904    0.00000000
     atom    5 type  2   force =    -0.00018690   -3.15325459    0.00000000
     atom    6 type  2   force =     2.73072992   -1.57658773   -0.00000000
     atom    7 type  2   force =    -2.73070520   -1.57678904   -0.00000000
     atom    8 type  2   force =     0.00018690    3.15325459   -0.00000000
     The local contribution  to forces
     atom    1 type  1   force =    -0.00019801   -0.00038720    0.00009413
     atom    2 type  1   force =     0.00040703   -0.00013544   -0.00009932
     atom    3 type  2   force =     2.92846782   -1.69096570   -0.00012725
     atom    4 type  2   force =    -2.92845507   -1.69036161   -0.00011118
     atom    5 type  2   force =    -0.00054084    3.38142878   -0.00011630
     atom    6 type  2   force =    -2.92851115    1.69141267    0.00010721
     atom    7 type  2   force =     2.92845680    1.69102022    0.00012466
     atom    8 type  2   force =     0.00030244   -3.38190385    0.00012268
     The core correction contribution to forces
     atom    1 type  1   force =    -0.00000078   -0.00000414    0.00000069
     atom    2 type  1   force =     0.00000086   -0.00000304   -0.00000091
     atom    3 type  2   force =     0.00000000    0.00000000    0.00000000
     atom    4 type  2   force =     0.00000000    0.00000000    0.00000000
     atom    5 type  2   force =     0.00000000    0.00000000    0.00000000
     atom    6 type  2   force =     0.00000000    0.00000000    0.00000000
     atom    7 type  2   force =     0.00000000    0.00000000    0.00000000
     atom    8 type  2   force =     0.00000000    0.00000000    0.00000000
     The Hubbard contrib.    to forces
     atom    1 type  1   force =     0.00000000    0.00000000    0.00000000
     atom    2 type  1   force =     0.00000000    0.00000000    0.00000000
     atom    3 type  2   force =     0.00000000    0.00000000    0.00000000
     atom    4 type  2   force =     0.00000000    0.00000000    0.00000000
     atom    5 type  2   force =     0.00000000    0.00000000    0.00000000
     atom    6 type  2   force =     0.00000000    0.00000000    0.00000000
     atom    7 type  2   force =     0.00000000    0.00000000    0.00000000
     atom    8 type  2   force =     0.00000000    0.00000000    0.00000000
     The SCF correction term to forces
     atom    1 type  1   force =     0.00034923    0.00026026   -0.00008611
     atom    2 type  1   force =    -0.00055792    0.00017677    0.00008950
     atom    3 type  2   force =    -0.00001064    0.00023415    0.00012797
     atom    4 type  2   force =     0.00000090   -0.00058916    0.00011015
     atom    5 type  2   force =     0.00070499    0.00017162    0.00011740
     atom    6 type  2   force =    -0.00000939   -0.00063520   -0.00010783
     atom    7 type  2   force =     0.00001867   -0.00008479   -0.00012506
     atom    8 type  2   force =    -0.00046479    0.00032624   -0.00012388

     Total force =     0.107627     Total SCF correction =     0.001515

     Computing stress (Cartesian axis) and pressure

          total   stress  (Ry/bohr**3)                   (kbar)     P=     -154.92
  -0.00129935   0.00000000  -0.00000000         -191.14        0.00       -0.00
   0.00000000  -0.00129935  -0.00000000            0.00     -191.14       -0.00
   0.00000000   0.00000000  -0.00056062            0.00        0.00      -82.47

     kinetic stress (kbar)  53894.50     -0.00     -0.00
                               -0.00  53894.50      0.00
                               -0.00      0.00  56305.65

     local   stress (kbar)   2204.47     -0.09     -0.00
                               -0.09   2204.42      0.00
                               -0.00      0.00  -6376.71

     nonloc. stress (kbar)  12715.99     -0.00      0.00
                               -0.00  12715.98      0.00
                                0.00      0.00  12332.75

     hartree stress (kbar)  11789.52      0.08      0.00
                                0.08  11789.56     -0.00
                                0.00     -0.00  14630.01

     exc-cor stress (kbar)  -3486.92     -0.00      0.00
                               -0.00  -3486.92     -0.00
                                0.00     -0.00  -3464.64

     corecor stress (kbar)  -5552.86      0.00     -0.00
                                0.00  -5552.86      0.00
                               -0.00      0.00  -5548.78

     ewald   stress (kbar) -71755.83      0.01      0.00
                                0.01 -71755.82      0.00
                                0.00      0.00 -67960.74

     hubbard stress (kbar)      0.00      0.00      0.00
                                0.00      0.00      0.00
                                0.00      0.00      0.00

     DFT-D   stress (kbar)      0.00      0.00      0.00
                                0.00      0.00      0.00
                                0.00      0.00      0.00

     XDM     stress (kbar)      0.00      0.00      0.00
                                0.00      0.00      0.00
                                0.00      0.00      0.00

     dft-nl  stress (kbar)      0.00      0.00      0.00
                                0.00      0.00      0.00
                                0.00      0.00      0.00

     TS-vdW  stress (kbar)      0.00      0.00      0.00
                                0.00      0.00      0.00
                                0.00      0.00      0.00

[...]

                                0.00      0.00      0.00

     Writing all to output data dir new_calculations/myprefix.save/

     General routines

     Parallel routines

     PAW routines

   This run was terminated on:  11: 6:53  20May2023

   JOB DONE.