     Program PWSCF v.7.0 starts on 20May2023 at  7:45:52

     Reading input from espresso_8270.pwi
Warning: card &CELL ignored
Warning: card / ignored

     Current dimensions of program PWSCF are:
     Max number of different atomic species (ntypx) = 10
     Max number of k-points (npk) =  40000
     Max angular momentum in pseudopotentials (lmaxx) =  4
     file O.pbe-n-kjpaw_psl.0.1.UPF: wavefunction(s)  2P renormalized

     gamma-point specific algorithms are used

     Subspace diagonalization in iterative solution of the eigenvalue problem:
     a serial algorithm will be used

     Using Slab Decomposition

     bravais-lattice index     =            0
     lattice parameter (alat)  =       9.6411  a.u.
     unit-cell volume          =    1346.5509 (a.u.)^3
     number of atoms/cell      =           16
     number of atomic types    =            3
     number of electrons       =       139.00
     number of Kohn-Sham states=           84
     kinetic-energy cutoff     =      30.0000  Ry
     charge density cutoff     =     240.0000  Ry
     scf convergence threshold =      1.0E-06
     mixing beta               =       0.7000
     number of iterations used =            8  plain     mixing
     Exchange-correlation=  SLA  PW   PBX  PBC
                           (   1   4   3   4   0   0   0)

     celldm(1)=   9.641094  celldm(2)=   0.000000  celldm(3)=   0.000000
     celldm(4)=   0.000000  celldm(5)=   0.000000  celldm(6)=   0.000000

     crystal axes: (cart. coord. in units of alat)
               a(1) = (   1.000000   0.000000   0.000000 )
               a(2) = (   0.000001   1.430899   0.000000 )
               a(3) = (   0.000000  -0.077523   1.050110 )

     reciprocal axes: (cart. coord. in units 2 pi/alat)
               b(1) = (  1.000000 -0.000001 -0.000000 )
               b(2) = (  0.000000  0.698861  0.051592 )
               b(3) = (  0.000000  0.000000  0.952281 )

     PseudoPot. # 1 for Cr read from file:
     /home/pragov/projects/rrg-bengioy-ad/pragov/crystal_structure_design/SSSP/cr_pbe_v1.5.uspp.F.UPF
     MD5 check sum: 0d52af634a40206e4dee301ad30da4bf
     Pseudo is Ultrasoft + core correction, Zval = 14.0
     Generated by new atomic code, or converted to UPF format
     Using radial grid of  857 points,  6 beta functions with:
                l(1) =   0
                l(2) =   0
                l(3) =   1
                l(4) =   1
                l(5) =   2
                l(6) =   2
     Q(r) pseudized with  8 coefficients,  rinner =    0.950   0.950   0.950
                                                       0.950   0.950

     PseudoPot. # 2 for O  read from file:
     /home/pragov/projects/rrg-bengioy-ad/pragov/crystal_structure_design/SSSP/O.pbe-n-kjpaw_psl.0.1.UPF
     MD5 check sum: 0234752ac141de4415c5fc33072bef88
     Pseudo is Projector augmented-wave + core cor, Zval =  6.0
     Generated using "atomic" code by A. Dal Corso  v.5.0.99 svn rev. 10869
     Shape of augmentation charge: BESSEL
     Using radial grid of 1095 points,  4 beta functions with:
                l(1) =   0
                l(2) =   0
                l(3) =   1
                l(4) =   1
     Q(r) pseudized with 0 coefficients

     PseudoPot. # 3 for F  read from file:
     /home/pragov/projects/rrg-bengioy-ad/pragov/crystal_structure_design/SSSP/f_pbe_v1.4.uspp.F.UPF
     MD5 check sum: 4c38b6a325caf53ec0e86aed9459de46
     Pseudo is Ultrasoft, Zval =  7.0
     Generated by new atomic code, or converted to UPF format
     Using radial grid of  799 points,  4 beta functions with:
                l(1) =   0
                l(2) =   0
                l(3) =   1
                l(4) =   1
     Q(r) pseudized with  8 coefficients,  rinner =    0.950   0.950   0.950

     atomic species   valence    mass     pseudopotential
        Cr            14.00    51.99610     Cr( 1.00)
        O              6.00    15.99900     O ( 1.00)
        F              7.00    18.99840     F ( 1.00)

     No symmetry found

                                    s                        frac. trans.

      isym =  1     identity

 cryst.   s( 1) = (     1          0          0      )
                  (     0          1          0      )
                  (     0          0          1      )

 cart.    s( 1) = (  1.0000000 -0.0000000  0.0000000 )
                  (  0.0000000  1.0000000 -0.0000000 )
                  (  0.0000000  0.0000000  1.0000000 )

   Cartesian axes

     site n.     atom                  positions (alat units)
         1           Cr  tau(   1) = (   0.9987330   0.6375784   1.0497870  )
         2           Cr  tau(   2) = (   0.9987320   0.0003528   0.0003182  )
         3           Cr  tau(   3) = (   0.5023428   0.6916885   0.5250101  )
         4           Cr  tau(   4) = (   0.5023433   1.3771353   0.5251004  )
         5           O   tau(   5) = (   0.6203560   1.0344099   0.5250542  )
         6           F   tau(   6) = (   0.8707829   1.0731769   0.0000011  )
         7           F   tau(   7) = (   0.3924625   0.3189662   0.5250542  )
         8           F   tau(   8) = (   0.1244023   0.3577290   0.0000000  )
         9           F   tau(   9) = (   0.8076722   0.0601794   0.3240189  )
        10           F   tau(  10) = (   0.8076698   0.5777457   0.7260905  )
        11           F   tau(  11) = (   0.6901206   0.6152656   0.2006604  )
        12           F   tau(  12) = (   0.6901274   0.0226577   0.8494543  )
        13           F   tau(  13) = (   0.3076821   1.3286789   0.2007570  )
        14           F   tau(  14) = (   0.3076750   0.7401423   0.8493504  )
        15           F   tau(  15) = (   0.1894568   0.7777856   0.3247498  )
        16           F   tau(  16) = (   0.1894563   1.2910365   0.7253649  )

   Crystallographic axes

     site n.     atom                  positions (cryst. coord.)
         1           Cr  tau(   1) = (  0.9987320  0.4997400  0.9996920  )
         2           Cr  tau(   2) = (  0.9987320  0.0002630  0.0003030  )
         3           Cr  tau(   3) = (  0.5023420  0.5104810  0.4999570  )
         4           Cr  tau(   4) = (  0.5023420  0.9895180  0.5000430  )
         5           O   tau(   5) = (  0.6203550  0.7499980  0.4999990  )
         6           F   tau(   6) = (  0.8707820  0.7500020  0.0000010  )
         7           F   tau(   7) = (  0.3924620  0.2500020  0.4999990  )
         8           F   tau(   8) = (  0.1244020  0.2500030  0.0000000  )
         9           F   tau(   9) = (  0.8076720  0.0587740  0.3085570  )
        10           F   tau(  10) = (  0.8076690  0.4412250  0.6914420  )
        11           F   tau(  11) = (  0.6901200  0.4403380  0.1910850  )
        12           F   tau(  12) = (  0.6901270  0.0596600  0.8089190  )
        13           F   tau(  13) = (  0.3076810  0.9389200  0.1911770  )
        14           F   tau(  14) = (  0.3076740  0.5610770  0.8088200  )
        15           F   tau(  15) = (  0.1894560  0.5603190  0.3092530  )
        16           F   tau(  16) = (  0.1894550  0.9396790  0.6907510  )

     number of k points=     1  Methfessel-Paxton smearing, width (Ry)=  0.0010
                       cart. coord. in units 2pi/alat
        k(    1) = (   0.0000000   0.0000000   0.0000000), wk =   2.0000000

                       cryst. coord.
        k(    1) = (   0.0000000   0.0000000   0.0000000), wk =   2.0000000

     Check: negative core charge=   -0.000010

     Initial potential from superposition of free atoms

     starting charge     134.9999, renormalised to     139.0000

     negative rho (up, down):  8.509E-03 0.000E+00
     Starting wfcs are   88 randomized atomic wfcs
     Checking if some PAW data can be deallocated...

     Self-consistent Calculation

     iteration #  1     ecut=    30.00 Ry     beta= 0.70
     Davidson diagonalization with overlap

     ethr =  1.00E-02,  avg # of iterations =  2.0

     negative rho (up, down):  1.055E-02 0.000E+00

     total energy              =   -1277.37554415 Ry
     estimated scf accuracy    <       2.51783639 Ry

[...]

     total energy              =   -1278.88395682 Ry
     estimated scf accuracy    <       0.00022410 Ry

     iteration # 19     ecut=    30.00 Ry     beta= 0.70
     Davidson diagonalization with overlap

     ethr =  4.40E-09,  avg # of iterations =  1.0

[...]

     End of self-consistent calculation

          k = 0.0000 0.0000 0.0000 (  1878 PWs)   bands (ev):

   -67.4338 -67.4330 -67.4111 -67.4106 -38.8695 -38.8608 -38.8234 -38.7977
   -38.7902 -38.7794 -38.7487 -38.7474 -38.6171 -38.6154 -38.5477 -38.5469
   -19.0551 -18.7173 -18.6245 -18.5655 -18.3690 -18.3326 -18.2851 -18.2707
   -18.2210 -18.2028 -17.8987 -12.6367  -2.3497  -2.1940  -2.0374  -1.7760
    -1.7494  -1.3308  -1.2187  -1.0622  -1.0321  -1.0124  -0.9587  -0.9510
    -0.7949  -0.6533  -0.6497   0.0282   0.1152   0.2141   0.3058   0.3827
     0.5053   0.5383   0.7860   0.7912   0.8045   1.0983   1.1446   1.1539
     1.1590   1.2323   1.2989   1.4229   1.4938   1.6781   2.3789   2.5677
     4.7940   4.8491   4.8629   4.8931   5.2157   5.3598   5.4309   5.5348
     5.5702   5.7995   5.8206   6.2967   6.4834   6.5778   6.6435   7.1994
     7.4860   8.3468   8.3476   8.7303

     occupation numbers
     1.0000   1.0000   1.0000   1.0000   1.0000   1.0000   1.0000   1.0000
     1.0000   1.0000   1.0000   1.0000   1.0000   1.0000   1.0000   1.0000
     1.0000   1.0000   1.0000   1.0000   1.0000   1.0000   1.0000   1.0000
     1.0000   1.0000   1.0000   1.0000   1.0000   1.0000   1.0000   1.0000
     1.0000   1.0000   1.0000   1.0000   1.0000   1.0000   1.0000   1.0000
     1.0000   1.0000   1.0000   1.0000   1.0000   1.0000   1.0000   1.0000
     1.0000   1.0000   1.0000   1.0000   1.0000   1.0000   1.0000   1.0000
     1.0000   1.0000   1.0000   1.0000   1.0000   1.0000   1.0000   1.0000
     1.0000   1.0000   1.0000   1.0000   1.0000   0.5000  -0.0000  -0.0000
    -0.0000  -0.0000  -0.0000  -0.0000  -0.0000  -0.0000  -0.0000  -0.0000
    -0.0000  -0.0000  -0.0000  -0.0000

     the Fermi energy is     5.3598 ev

!    total energy              =   -1278.88395868 Ry
     estimated scf accuracy    <       0.00000081 Ry
     smearing contrib. (-TS)   =      -0.00028209 Ry
     internal energy E=F+TS    =   -1278.88367659 Ry

     The total energy is F=E-TS. E is the sum of the following terms:
     one-electron contribution =    -776.77115073 Ry
     hartree contribution      =     444.68109129 Ry
     xc contribution           =    -198.82072890 Ry
     ewald contribution        =    -738.44131708 Ry
     one-center paw contrib.   =      -9.53157116 Ry
      -> PAW hartree energy AE =      28.32109229 Ry
      -> PAW hartree energy PS =     -28.22453507 Ry
      -> PAW xc energy AE      =     -16.97075311 Ry
      -> PAW xc energy PS      =       7.34262472 Ry
      -> total E_H with PAW    =     444.77764851 Ry
      -> total E_XC with PAW   =    -208.44885729 Ry

     convergence has been achieved in  19 iterations

     negative rho (up, down):  8.589E-03 0.000E+00

     Forces acting on atoms (cartesian axes, Ry/au):

     atom    1 type  1   force =    -0.00106088    0.00059784   -0.00107230
     atom    2 type  1   force =    -0.00105011   -0.00060519    0.00109653
     atom    3 type  1   force =     0.03659706    0.05734324   -0.00217761
     atom    4 type  1   force =     0.03660843   -0.05734173    0.00218733
     atom    5 type  2   force =    -0.08808145    0.00003043   -0.00000018
     atom    6 type  3   force =     0.02343547    0.00007083   -0.00000854
     atom    7 type  3   force =     0.01087880   -0.00005419    0.00000636
     atom    8 type  3   force =    -0.02028448   -0.00007525   -0.00000045
     atom    9 type  3   force =    -0.00688760   -0.00324553   -0.01275143
     atom   10 type  3   force =    -0.00689866    0.00321084    0.01270750
     atom   11 type  3   force =     0.01563090    0.00859586    0.00607941
     atom   12 type  3   force =     0.01564275   -0.00862585   -0.00608918
     atom   13 type  3   force =    -0.01718143    0.00684115    0.00444156
     atom   14 type  3   force =    -0.01714551   -0.00678948   -0.00445582
     atom   15 type  3   force =     0.00989830   -0.00465709   -0.01365892
     atom   16 type  3   force =     0.00989843    0.00470412    0.01369575
     The non-local contrib.  to forces
     atom    1 type  1   force =     0.00424228    0.00391719   -0.00194375
     atom    2 type  1   force =     0.00425150   -0.00390545    0.00194140
     atom    3 type  1   force =     0.01018146    0.07689966    0.00202153
     atom    4 type  1   force =     0.01017924   -0.07687639   -0.00199716
     atom    5 type  2   force =    -0.61404200    0.00002015    0.00002470
     atom    6 type  3   force =     0.78219484    0.00006480   -0.00002140
     atom    7 type  3   force =     0.49475220   -0.00000920    0.00001399
     atom    8 type  3   force =    -0.77537269   -0.00005163   -0.00002119
     atom    9 type  3   force =    -0.29466456   -0.50156888   -0.36901947
     atom   10 type  3   force =    -0.29467878    0.50157573    0.36897886
     atom   11 type  3   force =     0.37517482    0.51189944    0.32275020
     atom   12 type  3   force =     0.37528163   -0.51191022   -0.32264755
     atom   13 type  3   force =    -0.34634775    0.46507036    0.34716677
     atom   14 type  3   force =    -0.34636570   -0.46502762   -0.34712506
     atom   15 type  3   force =     0.34473725   -0.46260599   -0.34719265
     atom   16 type  3   force =     0.34467306    0.46266974    0.34726941
     The ionic contribution  to forces
     atom    1 type  1   force =     0.24909248   -0.43800221   -0.03032277
     atom    2 type  1   force =     0.25036290    0.43861348    0.03155270
     atom    3 type  1   force =    -0.16407052   -0.36845246   -0.04281161
     atom    4 type  1   force =    -0.16428043    0.36897669    0.04330755
     atom    5 type  2   force =     6.85069702    0.00043715   -0.00002785
     atom    6 type  3   force =    -7.07953605   -0.00022284    0.00023501
     atom    7 type  3   force =    -6.14378194   -0.00085275   -0.00003092
     atom    8 type  3   force =     7.24832899   -0.00050779    0.00016097
     atom    9 type  3   force =     3.20841425    4.91736524    3.78987052
     atom   10 type  3   force =     3.20841546   -4.91760584   -3.78949868
     atom   11 type  3   force =    -3.46889951   -4.97603862   -3.29788874
     atom   12 type  3   force =    -3.47026287    4.97612748    3.29658275
     atom   13 type  3   force =     3.18048515   -3.98311771   -3.39666759
     atom   14 type  3   force =     3.18104537    3.98327011    3.39633124
     atom   15 type  3   force =    -3.44345404    3.90151615    3.58374641
     atom   16 type  3   force =    -3.44255628   -3.90150609   -3.58453897
     The local contribution  to forces
     atom    1 type  1   force =    -0.25442142    0.43509262    0.03093784
     atom    2 type  1   force =    -0.25567332   -0.43572639   -0.03211438
     atom    3 type  1   force =     0.19301983    0.35895387    0.03872800
     atom    4 type  1   force =     0.19323062   -0.35950410   -0.03928503
     atom    5 type  2   force =    -6.33030818   -0.00054674   -0.00000159
     atom    6 type  3   force =     6.32112953   -0.00005327   -0.00019269
     atom    7 type  3   force =     5.65960848    0.00092253    0.00001406
     atom    8 type  3   force =    -6.49356625    0.00076110   -0.00015875
     atom    9 type  3   force =    -2.92009839   -4.41892255   -3.43420065
     atom   10 type  3   force =    -2.91997650    4.41919278    3.43397515
     atom   11 type  3   force =     3.11001834    4.47278506    2.98050810
     atom   12 type  3   force =     3.11114781   -4.47274578   -2.97938031
     atom   13 type  3   force =    -2.85184719    3.52488994    3.05330499
     atom   14 type  3   force =    -2.85249787   -3.52519060   -3.05293864
     atom   15 type  3   force =     3.10794646   -3.44362216   -3.25097497
     atom   16 type  3   force =     3.10722603    3.44352912    3.25156635
     The core correction contribution to forces
     atom    1 type  1   force =     0.00000456   -0.00043372    0.00026694
     atom    2 type  1   force =     0.00000568    0.00043332   -0.00026570
     atom    3 type  1   force =    -0.00254051   -0.01025581   -0.00013547
     atom    4 type  1   force =    -0.00254034    0.01025545    0.00013620
     atom    5 type  2   force =     0.00591910   -0.00000022   -0.00000032
     atom    6 type  3   force =     0.00000000    0.00000000    0.00000000
     atom    7 type  3   force =     0.00000000    0.00000000    0.00000000
     atom    8 type  3   force =     0.00000000    0.00000000    0.00000000
     atom    9 type  3   force =     0.00000000    0.00000000    0.00000000
     atom   10 type  3   force =     0.00000000    0.00000000    0.00000000
     atom   11 type  3   force =     0.00000000    0.00000000    0.00000000
     atom   12 type  3   force =     0.00000000    0.00000000    0.00000000
     atom   13 type  3   force =     0.00000000    0.00000000    0.00000000
     atom   14 type  3   force =     0.00000000    0.00000000    0.00000000
     atom   15 type  3   force =     0.00000000    0.00000000    0.00000000
     atom   16 type  3   force =     0.00000000    0.00000000    0.00000000
     The Hubbard contrib.    to forces
     atom    1 type  1   force =     0.00000000    0.00000000    0.00000000
     atom    2 type  1   force =     0.00000000    0.00000000    0.00000000
     atom    3 type  1   force =     0.00000000    0.00000000    0.00000000
     atom    4 type  1   force =     0.00000000    0.00000000    0.00000000
     atom    5 type  2   force =     0.00000000    0.00000000    0.00000000
     atom    6 type  3   force =     0.00000000    0.00000000    0.00000000
     atom    7 type  3   force =     0.00000000    0.00000000    0.00000000
     atom    8 type  3   force =     0.00000000    0.00000000    0.00000000
     atom    9 type  3   force =     0.00000000    0.00000000    0.00000000
     atom   10 type  3   force =     0.00000000    0.00000000    0.00000000
     atom   11 type  3   force =     0.00000000    0.00000000    0.00000000
     atom   12 type  3   force =     0.00000000    0.00000000    0.00000000
     atom   13 type  3   force =     0.00000000    0.00000000    0.00000000
     atom   14 type  3   force =     0.00000000    0.00000000    0.00000000
     atom   15 type  3   force =     0.00000000    0.00000000    0.00000000
     atom   16 type  3   force =     0.00000000    0.00000000    0.00000000
     The SCF correction term to forces
     atom    1 type  1   force =     0.00002484    0.00002209   -0.00001024
     atom    2 type  1   force =     0.00000674   -0.00002202   -0.00001718
     atom    3 type  1   force =     0.00001041    0.00019613    0.00002026
     atom    4 type  1   force =     0.00002295   -0.00019523    0.00002608
     atom    5 type  2   force =    -0.00034378    0.00011822    0.00000519
     atom    6 type  3   force =    -0.00034923    0.00028027   -0.00002915
     atom    7 type  3   force =     0.00030368   -0.00011663    0.00000954
     atom    8 type  3   force =     0.00032908   -0.00027878    0.00001883
     atom    9 type  3   force =    -0.00053528   -0.00012120    0.00059848
     atom   10 type  3   force =    -0.00065522    0.00004631   -0.00074752
     atom   11 type  3   force =    -0.00065913   -0.00005188    0.00071016
     atom   12 type  3   force =    -0.00052020   -0.00009920   -0.00064376
     atom   13 type  3   force =     0.00053199   -0.00000330    0.00063771
     atom   14 type  3   force =     0.00067631    0.00015678   -0.00072304
     atom   15 type  3   force =     0.00067226    0.00005305    0.00076261
     atom   16 type  3   force =     0.00055924    0.00000949   -0.00060071

     Total force =     0.143509     Total SCF correction =     0.002720

     Computing stress (Cartesian axis) and pressure

     negative rho (up, down):  8.589E-03 0.000E+00
          total   stress  (Ry/bohr**3)                   (kbar)     P=     -321.17
  -0.00215237   0.00000002  -0.00000011         -316.62        0.00       -0.02
   0.00000002  -0.00236777   0.00006226            0.00     -348.31        9.16
  -0.00000011   0.00006226  -0.00202969           -0.02        9.16     -298.58

     kinetic stress (kbar)  26701.81     -0.02      0.01
                               -0.02  26682.22     26.15
                                0.01     26.15  26784.92

     local   stress (kbar) -13568.07      0.07      0.07
                                0.07 -14620.87   1007.08
                                0.07   1007.08 -14959.10

     nonloc. stress (kbar)   4885.06     -0.01      0.01
                               -0.01   4877.57     18.61
                                0.01     18.61   4931.51

     hartree stress (kbar)  15858.53     -0.03      0.01
                               -0.03  16245.10   -452.33
                                0.01   -452.33  16475.93

     exc-cor stress (kbar)  -5694.56     -0.00     -0.00
                               -0.00  -5690.83      0.02
                               -0.00      0.02  -5694.12

     corecor stress (kbar)  -1168.68      0.00     -0.00
                                0.00  -1168.03     -0.61
                               -0.00     -0.61  -1170.28

     ewald   stress (kbar) -27330.72     -0.02     -0.11
                               -0.02 -26673.48   -589.76
                               -0.11   -589.76 -26667.44

     hubbard stress (kbar)      0.00      0.00      0.00
                                0.00      0.00      0.00
                                0.00      0.00      0.00

     DFT-D   stress (kbar)      0.00      0.00      0.00
                                0.00      0.00      0.00
                                0.00      0.00      0.00

     XDM     stress (kbar)      0.00      0.00      0.00
                                0.00      0.00      0.00
                                0.00      0.00      0.00

     dft-nl  stress (kbar)      0.00      0.00      0.00
                                0.00      0.00      0.00
                                0.00      0.00      0.00

     TS-vdW  stress (kbar)      0.00      0.00      0.00
                                0.00      0.00      0.00
                                0.00      0.00      0.00

[...]

                                0.00      0.00      0.00

     Writing all to output data dir new_calculations/myprefix.save/

     General routines

     Parallel routines

     PAW routines

   This run was terminated on:   7:46:13  20May2023

   JOB DONE.