     Program PWSCF v.7.0 starts on 20May2023 at 20:23:27

     Reading input from espresso_20192.pwi
Warning: card &CELL ignored
Warning: card / ignored

     Current dimensions of program PWSCF are:
     Max number of different atomic species (ntypx) = 10
     Max number of k-points (npk) =  40000
     Max angular momentum in pseudopotentials (lmaxx) =  4

     gamma-point specific algorithms are used
     Message from routine setup:
     using ibrav=0 with symmetry is DISCOURAGED, use correct ibrav instead

     Subspace diagonalization in iterative solution of the eigenvalue problem:
     a serial algorithm will be used

     Using Slab Decomposition

     bravais-lattice index     =            0
     lattice parameter (alat)  =      16.9525  a.u.
     unit-cell volume          =    1068.5943 (a.u.)^3
     number of atoms/cell      =            8
     number of atomic types    =            3
     number of electrons       =       122.00
     number of Kohn-Sham states=           73
     kinetic-energy cutoff     =      30.0000  Ry
     charge density cutoff     =     240.0000  Ry
     scf convergence threshold =      1.0E-06
     mixing beta               =       0.7000
     number of iterations used =            8  plain     mixing
     Exchange-correlation=  SLA  PW   PBX  PBC
                           (   1   4   3   4   0   0   0)

     celldm(1)=  16.952522  celldm(2)=   0.000000  celldm(3)=   0.000000
     celldm(4)=   0.000000  celldm(5)=   0.000000  celldm(6)=   0.000000

     crystal axes: (cart. coord. in units of alat)
               a(1) = (   1.000000   0.000000   0.000000 )
               a(2) = (  -0.886333   0.463049   0.000000 )
               a(3) = (   0.000000   0.000000   0.473678 )

     reciprocal axes: (cart. coord. in units 2 pi/alat)
               b(1) = (  1.000000  1.914125  0.000000 )
               b(2) = (  0.000000  2.159600  0.000000 )
               b(3) = (  0.000000  0.000000  2.111139 )

     PseudoPot. # 1 for Nd read from file:
     /home/pragov/projects/rrg-bengioy-ad/pragov/crystal_structure_design/SSSP/Nd.GGA-PBE-paw-v1.0.UPF
     MD5 check sum: 1d1e94942b6eb1cde76049b71bb7dcb0
     Pseudo is Projector augmented-wave + core cor, Zval = 14.0
     Generated using ATOMPAW code
     Shape of augmentation charge: BESSEL
     Using radial grid of 1105 points,  8 beta functions with:
                l(1) =   0
                l(2) =   0
                l(3) =   1
                l(4) =   1
                l(5) =   2
                l(6) =   2
                l(7) =   3
                l(8) =   3
     Q(r) pseudized with 0 coefficients

     PseudoPot. # 2 for Cu read from file:
     /home/pragov/projects/rrg-bengioy-ad/pragov/crystal_structure_design/SSSP/Cu_pbe_v1.2.uspp.F.UPF
     MD5 check sum: 6e991ff952a84172a2a52a1c1e996048
     Pseudo is Ultrasoft + core correction, Zval = 19.0
     Generated by new atomic code, or converted to UPF format
     Using radial grid of  867 points,  6 beta functions with:
                l(1) =   0
                l(2) =   0
                l(3) =   1
                l(4) =   1
                l(5) =   2
                l(6) =   2
     Q(r) pseudized with  8 coefficients,  rinner =    1.150   1.150   1.150
                                                       1.150   1.150

     PseudoPot. # 3 for Ge read from file:
     /home/pragov/projects/rrg-bengioy-ad/pragov/crystal_structure_design/SSSP/ge_pbe_v1.4.uspp.F.UPF
     MD5 check sum: 9c9eaa91e581c3f09632fb3098b2c6b2
     Pseudo is Ultrasoft + core correction, Zval = 14.0
     Generated by new atomic code, or converted to UPF format
     Using radial grid of  873 points,  6 beta functions with:
                l(1) =   0
                l(2) =   0
                l(3) =   1
                l(4) =   1
                l(5) =   2
                l(6) =   2
     Q(r) pseudized with  8 coefficients,  rinner =    1.400   1.400   1.400
                                                       1.400   1.400

     atomic species   valence    mass     pseudopotential
        Nd            14.00   144.24200     Nd( 1.00)
        Cu            19.00    63.54600     Cu( 1.00)
        Ge            14.00    72.63000     Ge( 1.00)

      4 Sym. Ops., with inversion, found ( 2 have fractional translation)

                                    s                        frac. trans.

      isym =  1     identity

 cryst.   s( 1) = (     1          0          0      )
                  (     0          1          0      )
                  (     0          0          1      )

 cart.    s( 1) = (  1.0000000  0.0000000  0.0000000 )
                  (  0.0000000  1.0000000  0.0000000 )
                  (  0.0000000  0.0000000  1.0000000 )

      isym =  2     180 deg rotation - cart. axis [0,0,1]

 cryst.   s( 2) = (    -1          0          0      )    f =(  0.0000000 )
                  (     0         -1          0      )       (  0.0000000 )
                  (     0          0          1      )       (  0.5000000 )

 cart.    s( 2) = ( -1.0000000 -0.0000000  0.0000000 )    f =(  0.0000000 )
                  (  0.0000000 -1.0000000  0.0000000 )       (  0.0000000 )
                  (  0.0000000  0.0000000  1.0000000 )       (  0.2368390 )

      isym =  3     inversion

 cryst.   s( 3) = (    -1          0          0      )
                  (     0         -1          0      )
                  (     0          0         -1      )

 cart.    s( 3) = ( -1.0000000 -0.0000000  0.0000000 )
                  (  0.0000000 -1.0000000  0.0000000 )
                  (  0.0000000  0.0000000 -1.0000000 )

      isym =  4     inv. 180 deg rotation - cart. axis [0,0,1]

 cryst.   s( 4) = (     1          0          0      )    f =(  0.0000000 )
                  (     0          1          0      )       (  0.0000000 )
                  (     0          0         -1      )       (  0.5000000 )

 cart.    s( 4) = (  1.0000000  0.0000000  0.0000000 )    f =(  0.0000000 )
                  (  0.0000000  1.0000000  0.0000000 )       (  0.0000000 )
                  (  0.0000000  0.0000000 -1.0000000 )       (  0.2368390 )

   Cartesian axes

     site n.     atom                  positions (alat units)
         1           Nd  tau(   1) = (   0.8034385   0.0482511   0.3552585  )
         2           Nd  tau(   2) = (  -0.6897713   0.4147976   0.1184195  )
         3           Cu  tau(   3) = (   0.3855497   0.1508325   0.3552585  )
         4           Cu  tau(   4) = (  -0.2718826   0.3122161   0.1184195  )
         5           Ge  tau(   5) = (   0.1278955   0.2140803   0.3552585  )
         6           Ge  tau(   6) = (  -0.0142284   0.2489683   0.1184195  )
         7           Ge  tau(   7) = (  -0.4157532   0.3475328   0.3552585  )
         8           Ge  tau(   8) = (   0.5294203   0.1155158   0.1184195  )

   Crystallographic axes

     site n.     atom                  positions (cryst. coord.)
         1           Nd  tau(   1) = (  0.8957970  0.1042030  0.7500000  )
         2           Nd  tau(   2) = (  0.1042030  0.8957970  0.2500000  )
         3           Cu  tau(   3) = (  0.6742620  0.3257380  0.7500000  )
         4           Cu  tau(   4) = (  0.3257380  0.6742620  0.2500000  )
         5           Ge  tau(   5) = (  0.5376720  0.4623280  0.7500000  )
         6           Ge  tau(   6) = (  0.4623280  0.5376720  0.2500000  )
         7           Ge  tau(   7) = (  0.2494680  0.7505320  0.7500000  )
         8           Ge  tau(   8) = (  0.7505320  0.2494680  0.2500000  )

     number of k points=     1  Methfessel-Paxton smearing, width (Ry)=  0.0010
                       cart. coord. in units 2pi/alat
        k(    1) = (   0.0000000   0.0000000   0.0000000), wk =   2.0000000

                       cryst. coord.
        k(    1) = (   0.0000000   0.0000000   0.0000000), wk =   2.0000000

     Check: negative core charge=   -0.000001

     Initial potential from superposition of free atoms

     starting charge     119.9841, renormalised to     122.0000
     Starting wfcs are  126 randomized atomic wfcs
     Checking if some PAW data can be deallocated...

     Self-consistent Calculation

     iteration #  1     ecut=    30.00 Ry     beta= 0.70
     Davidson diagonalization with overlap

     ethr =  1.00E-02,  avg # of iterations =  2.0

     total energy              =   -2721.43407532 Ry
     estimated scf accuracy    <      17.24046012 Ry

[...]

     total energy              =   -2736.32854975 Ry
     estimated scf accuracy    <       0.00008047 Ry

     iteration # 92     ecut=    30.00 Ry     beta= 0.70
     Davidson diagonalization with overlap

     ethr =  2.12E-09,  avg # of iterations =  1.0

     End of self-consistent calculation

          k = 0.0000 0.0000 0.0000 (  1475 PWs)   bands (ev):

  -100.6033-100.6022 -58.1136 -58.1092 -57.9297 -57.9282 -57.9108 -57.9102
   -24.1357 -24.1273 -11.9902 -11.9865 -11.9586 -11.9519 -11.9446 -11.9309
   -11.9233 -11.9135 -11.8990 -11.8677 -11.2801 -11.2418 -11.2362 -11.2117
   -11.2069 -11.1817 -11.1426 -11.1066 -11.0986 -11.0818  -5.7092  -5.5156
    -5.3782  -5.3382  -5.2487  -5.2210   1.0876   2.7704   5.5049   6.0987
     7.8726   8.0026   8.0194   8.6409   8.9915   9.0974   9.1322   9.2058
     9.3207  10.2857  10.3806  10.4629  10.5656  10.6086  10.9848  11.4064
    12.4586  12.6597  12.8162  12.8502  12.8748  12.8862  12.8882  12.9725
    13.0575  13.0582  13.1863  13.2007  13.2355  13.3027  13.3224  13.3414
    13.9987

     occupation numbers
     1.0000   1.0000   1.0000   1.0000   1.0000   1.0000   1.0000   1.0000
     1.0000   1.0000   1.0000   1.0000   1.0000   1.0000   1.0000   1.0000
     1.0000   1.0000   1.0000   1.0000   1.0000   1.0000   1.0000   1.0000
     1.0000   1.0000   1.0000   1.0000   1.0000   1.0000   1.0000   1.0000
     1.0000   1.0000   1.0000   1.0000   1.0000   1.0000   1.0000   1.0000
     1.0000   1.0000   1.0000   1.0000   1.0000   1.0000   1.0000   1.0000
     1.0000   1.0000   1.0000   1.0000   1.0000   1.0000   1.0000   1.0000
     1.0000   1.0000   1.0000   1.0045   0.7856   0.1420   0.0679  -0.0000
    -0.0000  -0.0000  -0.0000  -0.0000  -0.0000  -0.0000  -0.0000  -0.0000
    -0.0000

     the Fermi energy is    12.8797 ev

!    total energy              =   -2736.32854962 Ry
     estimated scf accuracy    <       0.00000080 Ry
     smearing contrib. (-TS)   =      -0.00032265 Ry
     internal energy E=F+TS    =   -2736.32822697 Ry

     The total energy is F=E-TS. E is the sum of the following terms:
     one-electron contribution =   -1298.45676638 Ry
     hartree contribution      =     752.04858963 Ry
     xc contribution           =    -338.70208443 Ry
     ewald contribution        =    -991.13715940 Ry
     one-center paw contrib.   =    -860.08080640 Ry
      -> PAW hartree energy AE =     162.89846612 Ry
      -> PAW hartree energy PS =    -162.06152682 Ry
      -> PAW xc energy AE      =    -886.03515404 Ry
      -> PAW xc energy PS      =      25.11740835 Ry
      -> total E_H with PAW    =     752.88552893 Ry
      -> total E_XC with PAW   =   -1199.61983012 Ry

     convergence has been achieved in  92 iterations

     Forces acting on atoms (cartesian axes, Ry/au):

     atom    1 type  1   force =     0.00741704   -0.00181890    0.00000000
     atom    2 type  1   force =    -0.00741704    0.00181890    0.00000000
     atom    3 type  2   force =    -0.03061786    0.00751915    0.00000000
     atom    4 type  2   force =     0.03061786   -0.00751915    0.00000000
     atom    5 type  3   force =    -0.11346902    0.02784798    0.00000000
     atom    6 type  3   force =     0.11346902   -0.02784798    0.00000000
     atom    7 type  3   force =     0.00118224   -0.00029316   -0.00000000
     atom    8 type  3   force =    -0.00118224    0.00029316   -0.00000000
     The non-local contrib.  to forces
     atom    1 type  1   force =     0.03164945   -0.00777428    0.00000000
     atom    2 type  1   force =    -0.03164945    0.00777428    0.00000000
     atom    3 type  2   force =     0.32139009   -0.07889266    0.00000000
     atom    4 type  2   force =    -0.32139009    0.07889266    0.00000000
     atom    5 type  3   force =     0.30209432   -0.07416003    0.00000000
     atom    6 type  3   force =    -0.30209432    0.07416003    0.00000000
     atom    7 type  3   force =    -0.02457091    0.00603112    0.00000000
     atom    8 type  3   force =     0.02457091   -0.00603112    0.00000000
     The ionic contribution  to forces
     atom    1 type  1   force =    19.69037989   -4.83350700    0.00000000
     atom    2 type  1   force =   -19.69037989    4.83350700    0.00000000
     atom    3 type  2   force =   -25.01830303    6.14138192   -0.00000000
     atom    4 type  2   force =    25.01830303   -6.14138192    0.00000000
     atom    5 type  3   force =   -12.19622959    2.99387627   -0.00000000
     atom    6 type  3   force =    12.19622959   -2.99387627    0.00000000
     atom    7 type  3   force =    -0.43189417    0.10601946   -0.00000000
     atom    8 type  3   force =     0.43189417   -0.10601946    0.00000000
     The local contribution  to forces
     atom    1 type  1   force =   -19.71475013    4.83948552   -0.00015513
     atom    2 type  1   force =    19.71554681   -4.83970620    0.00017015
     atom    3 type  2   force =    24.66573186   -6.05483174   -0.00002650
     atom    4 type  2   force =   -24.66807130    6.05542236    0.00002088
     atom    5 type  3   force =    11.79073321   -2.89433000   -0.00006544
     atom    6 type  3   force =   -11.78796932    2.89365390    0.00006244
     atom    7 type  3   force =     0.45553276   -0.11181517   -0.00000352
     atom    8 type  3   force =    -0.45856618    0.11256734    0.00000238
     The core correction contribution to forces
     atom    1 type  1   force =    -0.00005350    0.00001313   -0.00000002
     atom    2 type  1   force =     0.00005353   -0.00001314    0.00000002
     atom    3 type  2   force =    -0.00028253    0.00006936   -0.00000001
     atom    4 type  2   force =     0.00028265   -0.00006939   -0.00000000
     atom    5 type  3   force =    -0.00843732    0.00207135   -0.00000027
     atom    6 type  3   force =     0.00843846   -0.00207136    0.00000031
     atom    7 type  3   force =     0.00049838   -0.00012244   -0.00000002
     atom    8 type  3   force =    -0.00050122    0.00012309   -0.00000002
     The Hubbard contrib.    to forces
     atom    1 type  1   force =     0.00000000    0.00000000    0.00000000
     atom    2 type  1   force =     0.00000000    0.00000000    0.00000000
     atom    3 type  2   force =     0.00000000    0.00000000    0.00000000
     atom    4 type  2   force =     0.00000000    0.00000000    0.00000000
     atom    5 type  3   force =     0.00000000    0.00000000    0.00000000
     atom    6 type  3   force =     0.00000000    0.00000000    0.00000000
     atom    7 type  3   force =     0.00000000    0.00000000    0.00000000
     atom    8 type  3   force =     0.00000000    0.00000000    0.00000000
     The SCF correction term to forces
     atom    1 type  1   force =     0.00023961   -0.00005555    0.00008281
     atom    2 type  1   force =    -0.00093977    0.00023768   -0.00008964
     atom    3 type  2   force =     0.00079536   -0.00019797    0.00002156
     atom    4 type  2   force =     0.00144317   -0.00037313   -0.00001454
     atom    5 type  3   force =    -0.00161737    0.00039194    0.00006131
     atom    6 type  3   force =    -0.00112310    0.00028729   -0.00005903
     atom    7 type  3   force =     0.00159640   -0.00040059    0.00000287
     atom    8 type  3   force =     0.00140030   -0.00034116   -0.00000167

     Total force =     0.171491     Total SCF correction =     0.003580

     Computing stress (Cartesian axis) and pressure

          total   stress  (Ry/bohr**3)                   (kbar)     P=     -228.13
  -0.00190950   0.00008782   0.00000000         -280.90       12.92        0.00
   0.00008782  -0.00157322   0.00000000           12.92     -231.43        0.00
   0.00000000   0.00000000  -0.00116970            0.00        0.00     -172.07

     kinetic stress (kbar)  17112.91     69.97      0.00
                               69.97  17380.75      0.00
                                0.00      0.00  17363.00

     local   stress (kbar)   2406.72  -2177.57      0.07
                            -2177.57  -5929.38     -0.06
                                0.07     -0.06 -18065.38

     nonloc. stress (kbar)  10882.50      0.81      0.00
                                0.81  10885.51      0.00
                                0.00      0.00  10931.72

     hartree stress (kbar)  29498.54   1237.51     -0.01
                             1237.51  34235.98      0.02
                               -0.01      0.02  39794.17

     exc-cor stress (kbar)   6783.47     -0.46      0.00
                               -0.46   6781.71      0.00
                                0.00      0.00   6784.02

     corecor stress (kbar) -17028.90      0.01     -0.00
                                0.01 -17028.84     -0.00
                               -0.00     -0.00 -17030.75

     ewald   stress (kbar) -49936.15    882.65      0.00
                              882.65 -46557.16     -0.00
                                0.00     -0.00 -39948.85

     hubbard stress (kbar)      0.00      0.00      0.00
                                0.00      0.00      0.00
                                0.00      0.00      0.00

     DFT-D   stress (kbar)      0.00      0.00      0.00
                                0.00      0.00      0.00
                                0.00      0.00      0.00

     XDM     stress (kbar)      0.00      0.00      0.00
                                0.00      0.00      0.00
                                0.00      0.00      0.00

     dft-nl  stress (kbar)      0.00      0.00      0.00
                                0.00      0.00      0.00
                                0.00      0.00      0.00

     TS-vdW  stress (kbar)      0.00      0.00      0.00
                                0.00      0.00      0.00
                                0.00      0.00      0.00

[...]

                                0.00      0.00      0.00

     Writing all to output data dir new_calculations/myprefix.save/

     General routines

     Parallel routines

     PAW routines

   This run was terminated on:  20:26:39  20May2023

   JOB DONE.