     Program PWSCF v.7.0 starts on 20May2023 at 18:42:18

     Reading input from espresso_3682.pwi
Warning: card &CELL ignored
Warning: card / ignored

     Current dimensions of program PWSCF are:
     Max number of different atomic species (ntypx) = 10
     Max number of k-points (npk) =  40000
     Max angular momentum in pseudopotentials (lmaxx) =  4
     file O.pbe-n-kjpaw_psl.0.1.UPF: wavefunction(s)  2P renormalized

     gamma-point specific algorithms are used
     Message from routine setup:
     using ibrav=0 with symmetry is DISCOURAGED, use correct ibrav instead

     Subspace diagonalization in iterative solution of the eigenvalue problem:
     a serial algorithm will be used

     Using Slab Decomposition

     bravais-lattice index     =            0
     lattice parameter (alat)  =      13.4000  a.u.
     unit-cell volume          =    1304.8610 (a.u.)^3
     number of atoms/cell      =           15
     number of atomic types    =            2
     number of electrons       =       204.00
     number of Kohn-Sham states=          122
     kinetic-energy cutoff     =      30.0000  Ry
     charge density cutoff     =     240.0000  Ry
     scf convergence threshold =      1.0E-06
     mixing beta               =       0.7000
     number of iterations used =            8  plain     mixing
     Exchange-correlation= SLA  PW   PBX  PBC
                           (   1   4   3   4   0   0   0)

     celldm(1)=  13.399993  celldm(2)=   0.000000  celldm(3)=   0.000000
     celldm(4)=   0.000000  celldm(5)=   0.000000  celldm(6)=   0.000000

     crystal axes: (cart. coord. in units of alat)
               a(1) = (   1.000000   0.000000   0.000000 )
               a(2) = (   0.885600   0.464449   0.000000 )
               a(3) = (   0.209516   0.051607   1.167651 )

     reciprocal axes: (cart. coord. in units 2 pi/alat)
               b(1) = (  1.000000 -1.906777 -0.095160 )
               b(2) = (  0.000000  2.153091 -0.095160 )
               b(3) = (  0.000000  0.000000  0.856421 )

     PseudoPot. # 1 for Lu read from file:
     /home/pragov/projects/rrg-bengioy-ad/pragov/crystal_structure_design/SSSP/Lu.GGA-PBE-paw-v1.0.UPF
     MD5 check sum: 9ceca61ee0c17e9380a83635bfffa61d
     Pseudo is Projector augmented-wave + core cor, Zval = 25.0
     Generated using ATOMPAW code
     Shape of augmentation charge: BESSEL
     Using radial grid of 1118 points,  8 beta functions with:
                l(1) =   0
                l(2) =   0
                l(3) =   1
                l(4) =   1
                l(5) =   2
                l(6) =   2
                l(7) =   3
                l(8) =   3
     Q(r) pseudized with 0 coefficients

     PseudoPot. # 2 for O  read from file:
     /home/pragov/projects/rrg-bengioy-ad/pragov/crystal_structure_design/SSSP/O.pbe-n-kjpaw_psl.0.1.UPF
     MD5 check sum: 0234752ac141de4415c5fc33072bef88
     Pseudo is Projector augmented-wave + core cor, Zval =  6.0
     Generated using "atomic" code by A. Dal Corso  v.5.0.99 svn rev. 10869
     Shape of augmentation charge: BESSEL
     Using radial grid of 1095 points,  4 beta functions with:
                l(1) =   0
                l(2) =   0
                l(3) =   1
                l(4) =   1
     Q(r) pseudized with 0 coefficients

     atomic species   valence    mass     pseudopotential
        Lu            25.00   174.96680     Lu( 1.00)
        O              6.00    15.99900     O ( 1.00)

      2 Sym. Ops., with inversion, found

                                    s                        frac. trans.

      isym =  1     identity

 cryst.   s( 1) = (     1          0          0      )
                  (     0          1          0      )
                  (     0          0          1      )

 cart.    s( 1) = (  1.0000000 -0.0000000 -0.0000000 )
                  (  0.0000000  1.0000000 -0.0000000 )
                  (  0.0000000  0.0000000  1.0000000 )

      isym =  2     inversion

 cryst.   s( 2) = (    -1          0          0      )
                  (     0         -1          0      )
                  (     0          0         -1      )

 cart.    s( 2) = ( -1.0000000  0.0000000  0.0000000 )
                  (  0.0000000 -1.0000000  0.0000000 )
                  (  0.0000000  0.0000000 -1.0000000 )

   Cartesian axes

     site n.     atom                  positions (alat units)
         1           Lu  tau(   1) = (   1.3050808   0.3214589   0.5982469  )
         2           Lu  tau(   2) = (   0.6099600   0.1502413   0.1601538  )
         3           Lu  tau(   3) = (   0.0988005   0.0243359   0.2164812  )
         4           Lu  tau(   4) = (   0.7900353   0.1945963   0.5694036  )
         5           Lu  tau(   5) = (   1.9963157   0.4917193   0.9511693  )
         6           Lu  tau(   6) = (   1.4851561   0.3658139   1.0074968  )
         7           O   tau(   7) = (   0.4702410   0.1158267   0.4409656  )
         8           O   tau(   8) = (   0.3905887   0.0962072   0.8396575  )
         9           O   tau(   9) = (   0.3352129   0.0825674   0.0370869  )
        10           O   tau(  10) = (   1.0232323   0.2520359   0.7677910  )
        11           O   tau(  11) = (   1.7599032   0.4334878   1.1305637  )
        12           O   tau(  12) = (   1.7045275   0.4198480   0.3279930  )
        13           O   tau(  13) = (   1.6248752   0.4002286   0.7266850  )
        14           O   tau(  14) = (   0.9428000   0.2322243   0.0000000  )
        15           O   tau(  15) = (   1.0718838   0.2640194   0.3998596  )

   Crystallographic axes

     site n.     atom                  positions (cryst. coord.)
         1           Lu  tau(   1) = (  0.6352010  0.6352010  0.5123510  )
         2           Lu  tau(   2) = (  0.3082430  0.3082430  0.1371590  )
         3           Lu  tau(   3) = (  0.0317970  0.0317970  0.1853990  )
         4           Lu  tau(   4) = (  0.3647990  0.3647990  0.4876490  )
         5           Lu  tau(   5) = (  0.9682030  0.9682030  0.8146010  )
         6           Lu  tau(   6) = (  0.6917570  0.6917570  0.8628410  )
         7           O   tau(   7) = (  0.2074230  0.2074230  0.3776520  )
         8           O   tau(   8) = (  0.1272410  0.1272410  0.7191000  )
         9           O   tau(   9) = (  0.1742460  0.1742460  0.0317620  )
        10           O   tau(  10) = (  0.4695930  0.4695930  0.6575520  )
        11           O   tau(  11) = (  0.8257540  0.8257540  0.9682380  )
        12           O   tau(  12) = (  0.8727590  0.8727590  0.2809000  )
        13           O   tau(  13) = (  0.7925770  0.7925770  0.6223480  )
        14           O   tau(  14) = (  0.5000000  0.5000000  0.0000000  )
        15           O   tau(  15) = (  0.5304070  0.5304070  0.3424480  )

     number of k points=     1  Methfessel-Paxton smearing, width (Ry)=  0.0010
                       cart. coord. in units 2pi/alat
        k(    1) = (   0.0000000   0.0000000   0.0000000), wk =   2.0000000

                       cryst. coord.
        k(    1) = (   0.0000000   0.0000000   0.0000000), wk =   2.0000000

     Check: negative core charge=   -0.000013

     Initial potential from superposition of free atoms

     starting charge     203.9774, renormalised to     204.0000
     Starting wfcs are  228 randomized atomic wfcs
     Checking if some PAW data can be deallocated...

     Self-consistent Calculation

     iteration #  1     ecut=    30.00 Ry     beta= 0.70
     Davidson diagonalization with overlap

     ethr =  1.00E-02,  avg # of iterations =  2.0

     total energy              =   -6855.56829240 Ry
     estimated scf accuracy    <       4.32308979 Ry

[...]

     total energy              =   -6857.70521582 Ry
     estimated scf accuracy    <       0.00001115 Ry

     iteration # 10     ecut=    30.00 Ry     beta= 0.70
     Davidson diagonalization with overlap

     ethr =  5.47E-09,  avg # of iterations =  2.0

     End of self-consistent calculation

          k = 0.0000 0.0000 0.0000 (  1811 PWs)   bands (ev):

   -39.8122 -39.8022 -39.6702 -39.6580 -39.4853 -39.4789 -11.1143 -10.9922
   -10.9816 -10.8200 -10.7683 -10.6191 -10.5273 -10.5052 -10.4365 -10.3337
   -10.3262 -10.3040 -10.2953 -10.2870 -10.1940 -10.1451 -10.0062  -9.9917
    -3.4968  -2.7075  -2.7033  -2.3865  -2.2569  -2.2332  -2.0879  -1.6800
    -1.6300   9.5824   9.7066   9.9285  10.2015  10.3586  10.4452  10.6342
    10.8129  10.8554  10.9556  10.9583  11.0008  11.0523  11.1501  11.1534
    11.2987  11.3274  11.3949  11.4118  11.4286  11.4765  11.5187  11.5993
    11.6408  11.6537  11.6960  11.7192  11.7389  11.7466  11.7745  11.8020
    11.8308  11.8344  11.8501  11.8551  11.8557  11.8789  11.8829  11.9026
    11.9033  11.9513  11.9549  11.9809  12.0323  12.0405  12.0564  12.0751
    12.0895  12.0922  12.1160  12.1277  12.1321  12.1843  12.2463  12.2605
    12.3396  12.3406  12.5061  12.5961  12.8137  12.8187  12.9151  13.0809
    13.3206  13.5289  13.5450  13.6912  13.8407  13.9106  17.6959  18.5494
    18.5634  18.9885  19.3925  20.2978  20.3022  20.4569  20.4581  20.6606
    20.9088  21.0513  21.2938  21.3177  21.4494  21.5576  21.6365  21.6620
    22.0282  22.0324

     occupation numbers
     1.0000   1.0000   1.0000   1.0000   1.0000   1.0000   1.0000   1.0000
     1.0000   1.0000   1.0000   1.0000   1.0000   1.0000   1.0000   1.0000
     1.0000   1.0000   1.0000   1.0000   1.0000   1.0000   1.0000   1.0000
     1.0000   1.0000   1.0000   1.0000   1.0000   1.0000   1.0000   1.0000
     1.0000   1.0000   1.0000   1.0000   1.0000   1.0000   1.0000   1.0000
     1.0000   1.0000   1.0000   1.0000   1.0000   1.0000   1.0000   1.0000
     1.0000   1.0000   1.0000   1.0000   1.0000   1.0000   1.0000   1.0000
     1.0000   1.0000   1.0000   1.0000   1.0000   1.0000   1.0000   1.0000
     1.0000   1.0000   1.0000   1.0000   1.0000   1.0000   1.0000   1.0000
     1.0000   1.0000   1.0000   1.0000   1.0000   1.0000   1.0000   1.0000
     1.0000   1.0000   1.0000   1.0000   1.0000   1.0000   1.0000   1.0000
     1.0000   1.0000   1.0000   1.0000   1.0000   1.0000   1.0000   1.0000
     1.0000   1.0000   1.0000   1.0000   1.0000   1.0000  -0.0000  -0.0000
    -0.0000  -0.0000  -0.0000  -0.0000  -0.0000  -0.0000  -0.0000  -0.0000
    -0.0000  -0.0000  -0.0000  -0.0000  -0.0000  -0.0000  -0.0000  -0.0000
    -0.0000  -0.0000

     the Fermi energy is    14.4039 ev

!    total energy              =   -6857.70521649 Ry

     total all-electron energy =     -7837.327248 Ry
     estimated scf accuracy    <       0.00000098 Ry
     smearing contrib. (-TS)   =       0.00000000 Ry
     internal energy E=F+TS    =   -6857.70521649 Ry

     The total energy is F=E-TS. E is the sum of the following terms:
     one-electron contribution =   -2413.16043413 Ry
     hartree contribution      =    1117.37845111 Ry
     xc contribution           =    -317.01874522 Ry
     ewald contribution        =   -2214.29817483 Ry
     one-center paw contrib.   =   -3030.60631342 Ry
      -> PAW hartree energy AE =    3227.90581859 Ry
      -> PAW hartree energy PS =   -2815.85655277 Ry
      -> PAW xc energy AE      =   -3751.89148612 Ry
      -> PAW xc energy PS      =     309.23590689 Ry
      -> total E_H with PAW    =    1529.42771693 Ry
      -> total E_XC with PAW   =   -3759.67432446 Ry

     convergence has been achieved in  10 iterations

     Forces acting on atoms (cartesian axes, Ry/au):

     atom    1 type  1   force =     0.05598966    0.01376637   -0.06579990
     atom    2 type  1   force =     0.03004630    0.00759607   -0.04636590
     atom    3 type  1   force =    -0.00927598   -0.00225746    0.07309376
     atom    4 type  1   force =    -0.05598966   -0.01376637    0.06579990
     atom    5 type  1   force =     0.00927598    0.00225746   -0.07309376
     atom    6 type  1   force =    -0.03004630   -0.00759607    0.04636590
     atom    7 type  2   force =    -0.04348064   -0.01071016    0.08574404
     atom    8 type  2   force =     0.03473109    0.00855323    0.00673212
     atom    9 type  2   force =     0.01431634    0.00352768   -0.08421517
     atom   10 type  2   force =     0.02146194    0.00528704    0.10092221
     atom   11 type  2   force =    -0.01431634   -0.00352768    0.08421517
     atom   12 type  2   force =    -0.03473109   -0.00855323   -0.00673212
     atom   13 type  2   force =     0.04348064    0.01071016   -0.08574404
     atom   14 type  2   force =     0.00000000    0.00000000    0.00000000
     atom   15 type  2   force =    -0.02146194   -0.00528704   -0.10092221
     The non-local contrib.  to forces
     atom    1 type  1   force =     0.11516490    0.02836158   -0.16387789
     atom    2 type  1   force =    -0.01974066   -0.00476239   -0.16868390
     atom    3 type  1   force =     0.00308547    0.00077213    0.23062681
     atom    4 type  1   force =    -0.11516490   -0.02836158    0.16387789
     atom    5 type  1   force =    -0.00308547   -0.00077213   -0.23062681
     atom    6 type  1   force =     0.01974066    0.00476239    0.16868390
     atom    7 type  2   force =    -0.09347017   -0.02302231    0.09526985
     atom    8 type  2   force =    -0.19471063   -0.04796109    0.08909521
     atom    9 type  2   force =     0.03099370    0.00763550   -0.01857065
     atom   10 type  2   force =     0.02953426    0.00727690    0.07265355
     atom   11 type  2   force =    -0.03099370   -0.00763550    0.01857065
     atom   12 type  2   force =     0.19471063    0.04796109   -0.08909521
     atom   13 type  2   force =     0.09347017    0.02302231   -0.09526985
     atom   14 type  2   force =     0.00000000    0.00000000    0.00000000
     atom   15 type  2   force =    -0.02953426   -0.00727690   -0.07265355
     The ionic contribution  to forces
     atom    1 type  1   force =    -5.03316393   -1.23973584  -10.05747341
     atom    2 type  1   force =    -6.80235873   -1.67551227    2.94986735
     atom    3 type  1   force =    11.15221343    2.74693988    5.17600197
     atom    4 type  1   force =     5.03316393    1.23973584   10.05747340
     atom    5 type  1   force =   -11.15221343   -2.74693988   -5.17600197
     atom    6 type  1   force =     6.80235873    1.67551227   -2.94986735
     atom    7 type  2   force =    -2.47674399   -0.61005529   -4.05712839
     atom    8 type  2   force =     2.82297373    0.69533633   -2.38084584
     atom    9 type  2   force =     0.37108281    0.09140268    3.57404949
     atom   10 type  2   force =    -2.75374805   -0.67828511   -3.62677090
     atom   11 type  2   force =    -0.37108281   -0.09140268   -3.57404949
     atom   12 type  2   force =    -2.82297373   -0.69533633    2.38084584
     atom   13 type  2   force =     2.47674398    0.61005529    4.05712839
     atom   14 type  2   force =     0.00000000    0.00000000    0.00000000
     atom   15 type  2   force =     2.75374805    0.67828511    3.62677090
     The local contribution  to forces
     atom    1 type  1   force =     4.97323835    1.22497963   10.15555459
     atom    2 type  1   force =     6.85134776    1.68748551   -2.83034576
     atom    3 type  1   force =   -11.16317356   -2.74963716   -5.33436961
     atom    4 type  1   force =    -4.97330153   -1.22499770  -10.15503426
     atom    5 type  1   force =    11.16359884    2.74977969    5.33387554
     atom    6 type  1   force =    -6.85166302   -1.68745303    2.83014015
     atom    7 type  2   force =     2.52525775    0.62199998    4.04805370
     atom    8 type  2   force =    -2.59544997   -0.63930024    2.29950623
     atom    9 type  2   force =    -0.38728503   -0.09541018   -3.63974864
     atom   10 type  2   force =     2.74602232    0.67638119    3.65570408
     atom   11 type  2   force =     0.38722928    0.09539605    3.63973143
     atom   12 type  2   force =     2.59545067    0.63929869   -2.29949993
     atom   13 type  2   force =    -2.52530586   -0.62201344   -4.04799682
     atom   14 type  2   force =     0.00002765    0.00000212   -0.00001222
     atom   15 type  2   force =    -2.74597436   -0.67637138   -3.65571114
     The core correction contribution to forces
     atom    1 type  1   force =    -0.00000001   -0.00000000   -0.00000356
     atom    2 type  1   force =    -0.00000161   -0.00000040   -0.00000163
     atom    3 type  1   force =     0.00000333    0.00000082    0.00000527
     atom    4 type  1   force =     0.00000001    0.00000000    0.00000357
     atom    5 type  1   force =    -0.00000333   -0.00000082   -0.00000527
     atom    6 type  1   force =     0.00000161    0.00000040    0.00000163
     atom    7 type  2   force =     0.00120764    0.00029741   -0.00058625
     atom    8 type  2   force =     0.00177758    0.00043788   -0.00067558
     atom    9 type  2   force =    -0.00041297   -0.00010173    0.00006433
     atom   10 type  2   force =    -0.00045101   -0.00011119   -0.00023354
     atom   11 type  2   force =     0.00041312    0.00010187   -0.00006403
     atom   12 type  2   force =    -0.00177772   -0.00043788    0.00067559
     atom   13 type  2   force =    -0.00120741   -0.00029739    0.00058599
     atom   14 type  2   force =    -0.00000026   -0.00000008    0.00000019
     atom   15 type  2   force =     0.00045089    0.00011108    0.00023329
     The Hubbard contrib.    to forces
     atom    1 type  1   force =     0.00000000    0.00000000    0.00000000
     atom    2 type  1   force =     0.00000000    0.00000000    0.00000000
     atom    3 type  1   force =     0.00000000    0.00000000    0.00000000
     atom    4 type  1   force =     0.00000000    0.00000000    0.00000000
     atom    5 type  1   force =     0.00000000    0.00000000    0.00000000
     atom    6 type  1   force =     0.00000000    0.00000000    0.00000000
     atom    7 type  2   force =     0.00000000    0.00000000    0.00000000
     atom    8 type  2   force =     0.00000000    0.00000000    0.00000000
     atom    9 type  2   force =     0.00000000    0.00000000    0.00000000
     atom   10 type  2   force =     0.00000000    0.00000000    0.00000000
     atom   11 type  2   force =     0.00000000    0.00000000    0.00000000
     atom   12 type  2   force =     0.00000000    0.00000000    0.00000000
     atom   13 type  2   force =     0.00000000    0.00000000    0.00000000
     atom   14 type  2   force =     0.00000000    0.00000000    0.00000000
     atom   15 type  2   force =     0.00000000    0.00000000    0.00000000
     The SCF correction term to forces
     atom    1 type  1   force =     0.00075423    0.00016906   -0.00003174
     atom    2 type  1   force =     0.00082750    0.00037325    0.00279611
     atom    3 type  1   force =    -0.00143492   -0.00034588    0.00086784
     atom    4 type  1   force =    -0.00068330   -0.00013488   -0.00055279
     atom    5 type  1   force =     0.00094911    0.00017785   -0.00029673
     atom    6 type  1   force =    -0.00045630   -0.00043046   -0.00259435
     atom    7 type  2   force =     0.00027507    0.00007208    0.00012662
     atom    8 type  2   force =     0.00013817    0.00003920   -0.00034938
     atom    9 type  2   force =    -0.00005338    0.00000597    0.00000053
     atom   10 type  2   force =     0.00009839    0.00002207   -0.00043953
     atom   11 type  2   force =     0.00012657    0.00001715    0.00003685
     atom   12 type  2   force =    -0.00014314   -0.00003995    0.00034011
     atom   13 type  2   force =    -0.00021329   -0.00005458   -0.00020026
     atom   14 type  2   force =    -0.00005187   -0.00000912    0.00002581
     atom   15 type  2   force =    -0.00015830   -0.00003813    0.00042975

     Total force =     0.299545     Total SCF correction =     0.004692

     Computing stress (Cartesian axis) and pressure

          total   stress  (Ry/bohr**3)                   (kbar)     P=     -283.58
  -0.00204810  -0.00035837  -0.00002989         -301.29      -52.72       -4.40
  -0.00035837  -0.00068159  -0.00000740          -52.72     -100.26       -1.09
  -0.00002989  -0.00000740  -0.00305356           -4.40       -1.09     -449.19

     kinetic stress (kbar)  23358.55   -138.21    -18.45
                             -138.21  23885.62     -4.55
                              -18.45     -4.55  23078.90

     local   stress (kbar)  13190.13   3511.16  -1168.80
                             3511.16   -199.87   -287.89
                            -1168.80   -287.89   5243.40

     nonloc. stress (kbar)  22670.34    -41.82    -42.73
                              -41.82  22829.80    -10.53
                              -42.73    -10.53  22670.21

     hartree stress (kbar)  39072.09  -1472.49    470.95
                            -1472.49  44687.50    116.00
                              470.95    116.00  42209.42

     exc-cor stress (kbar) -10878.73     -1.97     -1.33
                               -1.97 -10871.23     -0.33
                               -1.33     -0.33 -10873.92

     corecor stress (kbar)   -430.31      0.31     -0.03
                                0.31   -431.48     -0.01
                               -0.03     -0.01   -429.58

     ewald   stress (kbar) -87283.35  -1909.70    756.00
                            -1909.70 -80000.61    186.21
                              756.00    186.21 -82347.63

     hubbard stress (kbar)      0.00      0.00      0.00
                                0.00      0.00      0.00
                                0.00      0.00      0.00

     DFT-D   stress (kbar)      0.00      0.00      0.00
                                0.00      0.00      0.00
                                0.00      0.00      0.00

     XDM     stress (kbar)      0.00      0.00      0.00
                                0.00      0.00      0.00
                                0.00      0.00      0.00

     dft-nl  stress (kbar)      0.00      0.00      0.00
                                0.00      0.00      0.00
                                0.00      0.00      0.00

     TS-vdW  stress (kbar)      0.00      0.00      0.00
                                0.00      0.00      0.00
                                0.00      0.00      0.00

[...]

                                0.00      0.00      0.00

     Writing all to output data dir new_calculations/myprefix.save/

     General routines

     Parallel routines

     PAW routines

   This run was terminated on:  18:44: 0  20May2023

   JOB DONE.