     Program PWSCF v.7.0 starts on 20May2023 at 20:16:55

     Reading input from espresso_4628.pwi
Warning: card &CELL ignored
Warning: card / ignored

     Current dimensions of program PWSCF are:
     Max number of different atomic species (ntypx) = 10
     Max number of k-points (npk) =  40000
     Max angular momentum in pseudopotentials (lmaxx) =  4

     gamma-point specific algorithms are used
     Message from routine setup:
     using ibrav=0 with symmetry is DISCOURAGED, use correct ibrav instead

     Subspace diagonalization in iterative solution of the eigenvalue problem:
     a serial algorithm will be used

     Using Slab Decomposition

     bravais-lattice index     =            0
     lattice parameter (alat)  =       6.0771  a.u.
     unit-cell volume          =     310.3147 (a.u.)^3
     number of atoms/cell      =            2
     number of atomic types    =            2
     number of electrons       =        24.00
     number of Kohn-Sham states=           16
     kinetic-energy cutoff     =      30.0000  Ry
     charge density cutoff     =     240.0000  Ry
     scf convergence threshold =      1.0E-06
     mixing beta               =       0.7000
     number of iterations used =            8  plain     mixing
     Exchange-correlation= SLA  PW   PBE  PBE
                           (   1   4   3   4   0   0   0)

     celldm(1)=   6.077058  celldm(2)=   0.000000  celldm(3)=   0.000000
     celldm(4)=   0.000000  celldm(5)=   0.000000  celldm(6)=   0.000000

     crystal axes: (cart. coord. in units of alat)
               a(1) = (   1.000000   0.000000   0.000000 )
               a(2) = (  -0.500000   0.866025   0.000000 )
               a(3) = (   0.000000   0.000000   1.596583 )

     reciprocal axes: (cart. coord. in units 2 pi/alat)
               b(1) = (  1.000000  0.577351  0.000000 )
               b(2) = (  0.000000  1.154701  0.000000 )
               b(3) = (  0.000000  0.000000  0.626338 )

     PseudoPot. # 1 for Hf read from file:
     /home/pragov/projects/rrg-bengioy-ad/pragov/crystal_structure_design/SSSP/Hf-sp.oncvpsp.upf
     MD5 check sum: 417ed15784afe83d2e06dacf143de3f8
     Pseudo is Norm-conserving + core correction, Zval = 12.0
     Generated using ONCVPSP code by D. R. Hamann
     Using radial grid of 1656 points,  8 beta functions with:
                l(1) =   0
                l(2) =   0
                l(3) =   1
                l(4) =   1
                l(5) =   2
                l(6) =   2
                l(7) =   3
                l(8) =   3

     PseudoPot. # 2 for Zr read from file:
     /home/pragov/projects/rrg-bengioy-ad/pragov/crystal_structure_design/SSSP/Zr_pbe_v1.uspp.F.UPF
     MD5 check sum: 5db81b1e868ab7776c4564c113de050b
     Pseudo is Ultrasoft + core correction, Zval = 12.0
     Generated by new atomic code, or converted to UPF format
     Using radial grid of  887 points,  6 beta functions with:
                l(1) =   0
                l(2) =   0
                l(3) =   1
                l(4) =   1
                l(5) =   2
                l(6) =   2
     Q(r) pseudized with  6 coefficients,  rinner =    1.200   1.200   1.200
                                                       1.200   1.200

     atomic species   valence    mass     pseudopotential
        Hf            12.00   178.49000     Hf( 1.00)
        Zr            12.00    91.22400     Zr( 1.00)

     12 Sym. Ops. (no inversion) found

                                    s                        frac. trans.

      isym =  1     identity

 cryst.   s( 1) = (     1          0          0      )
                  (     0          1          0      )
                  (     0          0          1      )

 cart.    s( 1) = (  1.0000000  0.0000000  0.0000000 )
                  (  0.0000000  1.0000000  0.0000000 )
                  (  0.0000000  0.0000000  1.0000000 )

      isym =  2     180 deg rotation - cart. axis [0,1,0]

[...]

      isym =  3     120 deg rotation - cryst. axis [0,0,1]

[...]

      isym =  6     180 deg rotation - cryst. axis [2,1,0]

[...]

      isym =  7     inv. 180 deg rotation - cart. axis [0,0,1]

[...]

      isym =  8     inv. 180 deg rotation - cart. axis [1,0,0]

[...]

      isym =  9     inv.  60 deg rotation - cryst. axis [0,0,1]

 cryst.   s( 9) = (    -1         -1          0      )
                  (     1          0          0      )
                  (     0          0         -1      )

 cart.    s( 9) = ( -0.4999998  0.8660255  0.0000000 )
                  ( -0.8660253 -0.5000002  0.0000000 )
                  (  0.0000000  0.0000000 -1.0000000 )

[...]

 cryst.   s(10) = (     0          1          0      )
                  (    -1         -1          0      )
                  (     0          0         -1      )

 cart.    s(10) = ( -0.5000002 -0.8660255  0.0000000 )
                  (  0.8660253 -0.4999998  0.0000000 )
                  (  0.0000000  0.0000000 -1.0000000 )

[...]

      isym = 12     inv. 180 deg rotation - cryst. axis [1,1,0]

 cryst.   s(12) = (     0         -1          0      )
                  (    -1          0          0      )
                  (     0          0          1      )

 cart.    s(12) = (  0.5000002 -0.8660253  0.0000000 )
                  ( -0.8660253 -0.5000002  0.0000000 )
                  (  0.0000000  0.0000000  1.0000000 )

   Cartesian axes

     site n.     atom                  positions (alat units)
         1           Hf  tau(   1) = (  -0.0000007   0.5773505   0.7982916  )
         2           Zr  tau(   2) = (   0.0000000   0.0000000   0.0000000  )

   Crystallographic axes

     site n.     atom                  positions (cryst. coord.)
         1           Hf  tau(   1) = (  0.3333330  0.6666670  0.5000000  )
         2           Zr  tau(   2) = (  0.0000000  0.0000000  0.0000000  )

     number of k points=     1  Methfessel-Paxton smearing, width (Ry)=  0.0010
                       cart. coord. in units 2pi/alat
        k(    1) = (   0.0000000   0.0000000   0.0000000), wk =   2.0000000

                       cryst. coord.
        k(    1) = (   0.0000000   0.0000000   0.0000000), wk =   2.0000000

     Check: negative core charge=   -0.000002

     Initial potential from superposition of free atoms

     starting charge      23.9960, renormalised to      24.0000

     negative rho (up, down):  5.736E-02 0.000E+00
     Starting wfcs are   23 randomized atomic wfcs

     Self-consistent Calculation

     iteration #  1     ecut=    30.00 Ry     beta= 0.70
     Davidson diagonalization with overlap

     ethr =  1.00E-02,  avg # of iterations =  2.0

     negative rho (up, down):  5.997E-02 0.000E+00

     total energy              =    -211.44090446 Ry
     estimated scf accuracy    <       0.51023446 Ry

[...]

     total energy              =    -211.77094282 Ry
     estimated scf accuracy    <       0.00000169 Ry

     iteration # 22     ecut=    30.00 Ry     beta= 0.70
     Davidson diagonalization with overlap

     ethr =  7.03E-09,  avg # of iterations =  5.0

[...]

     End of self-consistent calculation

          k = 0.0000 0.0000 0.0000 (   429 PWs)   bands (ev):

   -47.7888 -34.4975 -16.6899 -16.2562 -16.2552 -12.6846 -12.0945 -12.0939
     7.6695  11.0620  15.0031  15.2724  15.2725  15.2798  16.0035  16.0037

     occupation numbers
     1.0000   1.0000   1.0000   1.0000   1.0000   1.0000   1.0000   1.0000
     1.0000   1.0000   1.0000   0.4614   0.4545   0.0841  -0.0000  -0.0000

     the Fermi energy is    15.2718 ev

!    total energy              =    -211.77094276 Ry
     estimated scf accuracy    <       0.00000094 Ry
     smearing contrib. (-TS)   =      -0.00062001 Ry
     internal energy E=F+TS    =    -211.77032275 Ry

     The total energy is F=E-TS. E is the sum of the following terms:
     one-electron contribution =     -38.34299910 Ry
     hartree contribution      =      27.65312301 Ry
     xc contribution           =     -46.29759356 Ry
     ewald contribution        =    -154.78285310 Ry

     convergence has been achieved in  22 iterations

     negative rho (up, down):  6.366E-02 0.000E+00

     Forces acting on atoms (cartesian axes, Ry/au):

     atom    1 type  1   force =     0.00000000    0.00000000    0.00000000
     atom    2 type  2   force =     0.00000000    0.00000000    0.00000000
     The non-local contrib.  to forces
     atom    1 type  1   force =     0.00000000    0.00000000    0.00000000
     atom    2 type  2   force =    -0.00000000   -0.00000000    0.00000000
     The ionic contribution  to forces
     atom    1 type  1   force =     0.00000098   -0.00000057    0.00000000
     atom    2 type  2   force =    -0.00000098    0.00000057    0.00000000
     The local contribution  to forces
     atom    1 type  1   force =    -0.00026807    0.00020541    0.00004479
     atom    2 type  2   force =     0.00043304   -0.00032905   -0.00001072
     The core correction contribution to forces
     atom    1 type  1   force =    -0.00004785    0.00003818   -0.00000357
     atom    2 type  2   force =     0.00002358   -0.00001585    0.00000325
     The Hubbard contrib.    to forces
     atom    1 type  1   force =     0.00000000    0.00000000    0.00000000
     atom    2 type  2   force =     0.00000000    0.00000000    0.00000000
     The SCF correction term to forces
     atom    1 type  1   force =    -0.00011470    0.00010185   -0.00007292
     atom    2 type  2   force =     0.00011879   -0.00006970    0.00006546

     Total force =     0.000000     Total SCF correction =     0.000228

     Computing stress (Cartesian axis) and pressure

     negative rho (up, down):  6.366E-02 0.000E+00
          total   stress  (Ry/bohr**3)                   (kbar)     P=      340.32
   0.00078498   0.00000000   0.00000000          115.48        0.00        0.00
   0.00000000   0.00078498   0.00000000            0.00      115.48        0.00
  -0.00000000  -0.00000000   0.00537039           -0.00       -0.00      790.01

     kinetic stress (kbar)  18111.45      0.00      0.00
                                0.00  18111.46      0.00
                                0.00      0.00  17799.83

     local   stress (kbar)  -3782.86     -1.12     -0.02
                               -1.12  -3784.69      0.04
                               -0.02      0.04  -3781.08

     nonloc. stress (kbar)  11270.79      0.00      0.00
                                0.00  11270.80      0.00
                                0.00      0.00  11786.12

     hartree stress (kbar)   4432.87      0.65     -0.00
                                0.65   4433.82     -0.01
                               -0.00     -0.01   4242.31

     exc-cor stress (kbar)   5370.62      0.01     -0.00
                                0.01   5370.63     -0.00
                               -0.00     -0.00   5348.15

     corecor stress (kbar) -10589.09     -0.01      0.00
                               -0.01 -10589.07      0.00
                                0.00      0.00 -10626.06

     ewald   stress (kbar) -24697.88     -0.00     -0.00
                               -0.00 -24697.88     -0.00
                               -0.00     -0.00 -23979.26

     hubbard stress (kbar)      0.00      0.00      0.00
                                0.00      0.00      0.00
                                0.00      0.00      0.00

     DFT-D   stress (kbar)      0.00      0.00      0.00
                                0.00      0.00      0.00
                                0.00      0.00      0.00

     XDM     stress (kbar)      0.00      0.00      0.00
                                0.00      0.00      0.00
                                0.00      0.00      0.00

     dft-nl  stress (kbar)      0.00      0.00      0.00
                                0.00      0.00      0.00
                                0.00      0.00      0.00

     TS-vdW  stress (kbar)      0.00      0.00      0.00
                                0.00      0.00      0.00
                                0.00      0.00      0.00

[...]

                                0.00      0.00      0.00

     Writing all to output data dir new_calculations/myprefix.save/

     General routines

     Parallel routines

   This run was terminated on:  20:17: 4  20May2023

   JOB DONE.