     Program PWSCF v.7.0 starts on 20May2023 at  8:43:37

     Reading input from espresso_2288.pwi
Warning: card &CELL ignored
Warning: card / ignored

     Current dimensions of program PWSCF are:
     Max number of different atomic species (ntypx) = 10
     Max number of k-points (npk) =  40000
     Max angular momentum in pseudopotentials (lmaxx) =  4
     file O.pbe-n-kjpaw_psl.0.1.UPF: wavefunction(s)  2P renormalized

     gamma-point specific algorithms are used
     Message from routine setup:
     using ibrav=0 with symmetry is DISCOURAGED, use correct ibrav instead

     Subspace diagonalization in iterative solution of the eigenvalue problem:
     a serial algorithm will be used

     Using Slab Decomposition

     bravais-lattice index     =            0
     lattice parameter (alat)  =       7.6637  a.u.
     unit-cell volume          =     457.0795 (a.u.)^3
     number of atoms/cell      =            5
     number of atomic types    =            4
     number of electrons       =        40.00
     number of Kohn-Sham states=           24
     kinetic-energy cutoff     =      30.0000  Ry
     charge density cutoff     =     240.0000  Ry
     scf convergence threshold =      1.0E-06
     mixing beta               =       0.7000
     number of iterations used =            8  plain     mixing
     Exchange-correlation= SLA  PW   PBX  PBC
                           (   1   4   3   4   0   0   0)

     celldm(1)=   7.663701  celldm(2)=   0.000000  celldm(3)=   0.000000
     celldm(4)=   0.000000  celldm(5)=   0.000000  celldm(6)=   0.000000

     crystal axes: (cart. coord. in units of alat)
               a(1) = (   1.000000   0.000000   0.000000 )
               a(2) = (   0.000000   1.004985   0.000000 )
               a(3) = (   0.000000   0.000000   1.010454 )

     reciprocal axes: (cart. coord. in units 2 pi/alat)
               b(1) = (  1.000000  0.000000  0.000000 )
               b(2) = (  0.000000  0.995040  0.000000 )
               b(3) = (  0.000000  0.000000  0.989654 )

     PseudoPot. # 1 for Sr read from file:
     /home/pragov/projects/rrg-bengioy-ad/pragov/crystal_structure_design/SSSP/Sr_pbe_v1.uspp.F.UPF
     MD5 check sum: 6b418c05fbe9db5448babca5e47b7a5b
     Pseudo is Ultrasoft + core correction, Zval = 10.0
     Generated by new atomic code, or converted to UPF format
     Using radial grid of  883 points,  6 beta functions with:
                l(1) =   0
                l(2) =   0
                l(3) =   1
                l(4) =   1
                l(5) =   2
                l(6) =   2
     Q(r) pseudized with  6 coefficients,  rinner =    1.400   1.400   1.400
                                                       1.400   1.400

     PseudoPot. # 2 for Ta read from file:
     /home/pragov/projects/rrg-bengioy-ad/pragov/crystal_structure_design/SSSP/Ta_pbe_v1.uspp.F.UPF
     MD5 check sum: f8bbe9446314a3b8ea5d9f3e3836c939
     Pseudo is Ultrasoft + core correction, Zval = 13.0
     Generated by new atomic code, or converted to UPF format
     Using radial grid of  921 points,  7 beta functions with:
                l(1) =   0
                l(2) =   0
                l(3) =   1
                l(4) =   1
                l(5) =   2
                l(6) =   2
                l(7) =   3
     Q(r) pseudized with  6 coefficients,  rinner =    1.300   1.300   1.300
                                                       1.300   1.300   1.300
                                                       1.300

     PseudoPot. # 3 for N  read from file:
     /home/pragov/projects/rrg-bengioy-ad/pragov/crystal_structure_design/SSSP/N.pbe-n-radius_5.UPF
     MD5 check sum: 16739722b17309cd8fe442a2ace49922
     Pseudo is Ultrasoft + core correction, Zval =  5.0
     Generated using "atomic" code by A. Dal Corso  v.5.1
     Using radial grid of 1085 points,  4 beta functions with:
                l(1) =   0
                l(2) =   0
                l(3) =   1
                l(4) =   1
     Q(r) pseudized with 0 coefficients

     PseudoPot. # 4 for O  read from file:
     /home/pragov/projects/rrg-bengioy-ad/pragov/crystal_structure_design/SSSP/O.pbe-n-kjpaw_psl.0.1.UPF
     MD5 check sum: 0234752ac141de4415c5fc33072bef88
     Pseudo is Projector augmented-wave + core cor, Zval =  6.0
     Generated using "atomic" code by A. Dal Corso  v.5.0.99 svn rev. 10869
     Shape of augmentation charge: BESSEL
     Using radial grid of 1095 points,  4 beta functions with:
                l(1) =   0
                l(2) =   0
                l(3) =   1
                l(4) =   1
     Q(r) pseudized with 0 coefficients

     atomic species   valence    mass     pseudopotential
        Sr            10.00    87.62000     Sr( 1.00)
        Ta            13.00   180.94788     Ta( 1.00)
        N              5.00    14.00700     N ( 1.00)
        O              6.00    15.99900     O ( 1.00)

      4 Sym. Ops. (no inversion) found

                                    s                        frac. trans.

      isym =  1     identity

 cryst.   s( 1) = (     1          0          0      )
                  (     0          1          0      )
                  (     0          0          1      )

 cart.    s( 1) = (  1.0000000  0.0000000  0.0000000 )
                  (  0.0000000  1.0000000  0.0000000 )
                  (  0.0000000  0.0000000  1.0000000 )

      isym =  2     180 deg rotation - cart. axis [0,1,0]

[...]

      isym =  3     inv. 180 deg rotation - cart. axis [0,0,1]

[...]

      isym =  4     inv. 180 deg rotation - cart. axis [1,0,0]

 cryst.   s( 4) = (    -1          0          0      )
                  (     0          1          0      )
                  (     0          0          1      )

 cart.    s( 4) = ( -1.0000000  0.0000000  0.0000000 )
                  (  0.0000000  1.0000000  0.0000000 )
                  (  0.0000000  0.0000000  1.0000000 )

   Cartesian axes

     site n.     atom                  positions (alat units)
         1           Sr  tau(   1) = (   0.0000000   1.0005047   0.0000000  )
         2           Ta  tau(   2) = (   0.5000000   0.4911150   0.5052270  )
         3           N   tau(   3) = (   0.5000000   0.5214434   0.0000000  )
         4           O   tau(   4) = (   0.0000000   0.4976253   0.5052270  )
         5           O   tau(   5) = (   0.5000000   0.0017728   0.5052270  )

   Crystallographic axes

     site n.     atom                  positions (cryst. coord.)
         1           Sr  tau(   1) = (  0.0000000  0.9955420  0.0000000  )
         2           Ta  tau(   2) = (  0.5000000  0.4886790  0.5000000  )
         3           N   tau(   3) = (  0.5000000  0.5188570  0.0000000  )
         4           O   tau(   4) = (  0.0000000  0.4951570  0.5000000  )
         5           O   tau(   5) = (  0.5000000  0.0017640  0.5000000  )

     number of k points=     1  Methfessel-Paxton smearing, width (Ry)=  0.0010
                       cart. coord. in units 2pi/alat
        k(    1) = (   0.0000000   0.0000000   0.0000000), wk =   2.0000000

                       cryst. coord.
        k(    1) = (   0.0000000   0.0000000   0.0000000), wk =   2.0000000

     Check: negative core charge=   -0.000006

     Initial potential from superposition of free atoms

     starting charge      39.9652, renormalised to      40.0000

     negative rho (up, down):  1.559E-01 0.000E+00
     Starting wfcs are   38 randomized atomic wfcs
     Checking if some PAW data can be deallocated...

     Self-consistent Calculation

     iteration #  1     ecut=    30.00 Ry     beta= 0.70
     Davidson diagonalization with overlap

     ethr =  1.00E-02,  avg # of iterations =  2.0

     negative rho (up, down):  1.596E-01 0.000E+00

     total energy              =    -312.75712454 Ry
     estimated scf accuracy    <       3.58092712 Ry

[...]

     WARNING: integrated charge=    40.00339997, expected=    40.00000000

[...]

     ethr =  1.89E-05,  avg # of iterations =  2.0
     Minimization algorithm failed to find Fermi energy: reverting to bisection
     Possible cause: smearing is larger than the electronic band-gap.

[...]

     WARNING: integrated charge=    39.99999478, expected=    40.00000000

[...]

     total energy              =    -314.50129102 Ry
     estimated scf accuracy    <       0.00013650 Ry

     iteration # 81     ecut=    30.00 Ry     beta= 0.70
     Davidson diagonalization with overlap

     ethr =  2.74E-07,  avg # of iterations =  1.0

[...]

     End of self-consistent calculation

          k = 0.0000 0.0000 0.0000 (   641 PWs)   bands (ev):

   -58.3122 -24.9243 -24.6685 -24.5084 -22.9882  -6.1192  -5.4980  -4.9838
    -4.9428  -4.9355  -1.7315   8.6231   8.6388   8.6885   9.9682  10.2369
    10.4317  11.0565  11.4657  11.4702  11.4852  11.7796  12.2710  15.5237

     occupation numbers
     1.0000   1.0000   1.0000   1.0000   1.0000   1.0000   1.0000   1.0000
     1.0000   1.0000   1.0000   1.0000   1.0000   1.0000   1.0000   1.0000
     1.0000   1.0000   1.0064   0.8935   0.1001  -0.0000  -0.0000  -0.0000

     the Fermi energy is    11.4776 ev

!    total energy              =    -314.50129140 Ry
     estimated scf accuracy    <       0.00000070 Ry
     smearing contrib. (-TS)   =      -0.00009481 Ry
     internal energy E=F+TS    =    -314.50119658 Ry

     The total energy is F=E-TS. E is the sum of the following terms:
     one-electron contribution =     -58.49226278 Ry
     hartree contribution      =      51.78710260 Ry
     xc contribution           =     -81.28668200 Ry
     ewald contribution        =    -207.55492296 Ry
     one-center paw contrib.   =     -18.95443143 Ry
      -> PAW hartree energy AE =      64.35357219 Ry
      -> PAW hartree energy PS =     -64.07322090 Ry
      -> PAW xc energy AE      =     -35.08577939 Ry
      -> PAW xc energy PS      =      15.85099667 Ry
      -> total E_H with PAW    =      52.06745388 Ry
      -> total E_XC with PAW   =    -100.52146472 Ry

     convergence has been achieved in  81 iterations

     negative rho (up, down):  1.655E-01 0.000E+00

     Forces acting on atoms (cartesian axes, Ry/au):

     atom    1 type  1   force =     0.00000000   -0.05359408    0.00000000
     atom    2 type  2   force =     0.00000000   -0.66793260    0.00000000
     atom    3 type  3   force =     0.00000000    0.49986198    0.00000000
     atom    4 type  4   force =     0.00000000   -0.07758624    0.00000000
     atom    5 type  4   force =     0.00000000    0.29925094    0.00000000
     The non-local contrib.  to forces
     atom    1 type  1   force =     0.00000000    0.01442645    0.00000000
     atom    2 type  2   force =     0.00000000   -0.35542254    0.00000000
     atom    3 type  3   force =     0.00000000   -0.20091336    0.00000000
     atom    4 type  4   force =     0.00000000   -0.14126443    0.00000000
     atom    5 type  4   force =     0.00000000    0.33692252    0.00000000
     The ionic contribution  to forces
     atom    1 type  1   force =    -0.00000000    0.15053956   -0.00000000
     atom    2 type  2   force =    -0.00000000    0.42113261    0.00000000
     atom    3 type  3   force =    -0.00000000    0.31998665   -0.00000000
     atom    4 type  4   force =    -0.00000000    0.15742343    0.00000000
     atom    5 type  4   force =    -0.00000000   -1.04908225    0.00000000
     The local contribution  to forces
     atom    1 type  1   force =     0.00006732   -0.21819329    0.00001934
     atom    2 type  2   force =    -0.00008976   -0.67958225   -0.00056630
     atom    3 type  3   force =    -0.00051921    0.37869677    0.00047082
     atom    4 type  4   force =     0.00007689   -0.09548330    0.00010433
     atom    5 type  4   force =     0.00006529    1.01459494   -0.00007854
     The core correction contribution to forces
     atom    1 type  1   force =    -0.00000072   -0.00047052   -0.00000214
     atom    2 type  2   force =    -0.00000809   -0.05363554   -0.00002282
     atom    3 type  3   force =    -0.00000339    0.00219525    0.00000028
     atom    4 type  4   force =     0.00000011    0.00175239    0.00000006
     atom    5 type  4   force =     0.00000046   -0.00328374    0.00000003
     The Hubbard contrib.    to forces
     atom    1 type  1   force =     0.00000000    0.00000000    0.00000000
     atom    2 type  2   force =     0.00000000    0.00000000    0.00000000
     atom    3 type  3   force =     0.00000000    0.00000000    0.00000000
     atom    4 type  4   force =     0.00000000    0.00000000    0.00000000
     atom    5 type  4   force =     0.00000000    0.00000000    0.00000000
     The SCF correction term to forces
     atom    1 type  1   force =    -0.00006807    0.00016542   -0.00005298
     atom    2 type  2   force =     0.00012496   -0.00036317    0.00044094
     atom    3 type  3   force =     0.00013960   -0.00004162   -0.00025576
     atom    4 type  4   force =    -0.00007763    0.00004736    0.00000607
     atom    5 type  4   force =    -0.00000308    0.00016116    0.00007802

     Total force =     0.891313     Total SCF correction =     0.000710

     Computing stress (Cartesian axis) and pressure

     negative rho (up, down):  1.655E-01 0.000E+00
          total   stress  (Ry/bohr**3)                   (kbar)     P=      158.07
   0.00108177   0.00000000   0.00000000          159.13        0.00        0.00
   0.00000000   0.00147424   0.00000000            0.00      216.87        0.00
   0.00000000   0.00000000   0.00066766            0.00        0.00       98.22

     kinetic stress (kbar)  23279.27      0.00      0.00
                                0.00  23713.58      0.00
                                0.00      0.00  23007.53

     local   stress (kbar)  -2939.55      0.78      0.00
                                0.78  -3083.50      0.15
                                0.00      0.15   3263.42

     nonloc. stress (kbar)    449.08      0.00      0.00
                                0.00    294.02      0.00
                                0.00      0.00    239.30

     hartree stress (kbar)   6298.03     -0.21      0.00
                               -0.21   6402.34     -0.06
                                0.00     -0.06   3966.63

     exc-cor stress (kbar)   7028.09     -0.00     -0.00
                               -0.00   7036.81     -0.00
                               -0.00     -0.00   7034.50

     corecor stress (kbar) -12894.73      0.00      0.00
                                0.00 -12914.06      0.01
                                0.00      0.01 -12907.68

     ewald   stress (kbar) -21061.05     -0.00      0.00
                               -0.00 -21232.31      0.00
                                0.00      0.00 -24505.48

     hubbard stress (kbar)      0.00      0.00      0.00
                                0.00      0.00      0.00
                                0.00      0.00      0.00

     DFT-D   stress (kbar)      0.00      0.00      0.00
                                0.00      0.00      0.00
                                0.00      0.00      0.00

     XDM     stress (kbar)      0.00      0.00      0.00
                                0.00      0.00      0.00
                                0.00      0.00      0.00

     dft-nl  stress (kbar)      0.00      0.00      0.00
                                0.00      0.00      0.00
                                0.00      0.00      0.00

     TS-vdW  stress (kbar)      0.00      0.00      0.00
                                0.00      0.00      0.00
                                0.00      0.00      0.00

[...]

                                0.00      0.00      0.00

     Writing all to output data dir new_calculations/myprefix.save/

     General routines

     Parallel routines

     PAW routines

   This run was terminated on:   8:44:13  20May2023

   JOB DONE.