     Program PWSCF v.7.0 starts on 21May2023 at  7:26: 3

     Reading input from espresso_25383.pwi
Warning: card &CELL ignored
Warning: card / ignored

     Current dimensions of program PWSCF are:
     Max number of different atomic species (ntypx) = 10
     Max number of k-points (npk) =  40000
     Max angular momentum in pseudopotentials (lmaxx) =  4
     file K.pbe-spn-kjpaw_psl.1.0.0.UPF: wavefunction(s)  3S renormalized

     gamma-point specific algorithms are used
     Message from routine setup:
     using ibrav=0 with symmetry is DISCOURAGED, use correct ibrav instead

     Subspace diagonalization in iterative solution of the eigenvalue problem:
     a serial algorithm will be used

     Using Slab Decomposition

     bravais-lattice index     =            0
     lattice parameter (alat)  =      11.5860  a.u.
     unit-cell volume          =    1099.7161 (a.u.)^3
     number of atoms/cell      =           10
     number of atomic types    =            4
     number of electrons       =        93.00
     number of Kohn-Sham states=           56
     kinetic-energy cutoff     =      30.0000  Ry
     charge density cutoff     =     240.0000  Ry
     scf convergence threshold =      1.0E-06
     mixing beta               =       0.7000
     number of iterations used =            8  plain     mixing
     Exchange-correlation=  SLA  PW   PBX  PBC
                           (   1   4   3   4   0   0   0)

     celldm(1)=  11.585956  celldm(2)=   0.000000  celldm(3)=   0.000000
     celldm(4)=   0.000000  celldm(5)=   0.000000  celldm(6)=   0.000000

     crystal axes: (cart. coord. in units of alat)
               a(1) = (   1.000000   0.000000   0.000000 )
               a(2) = (   0.500000   0.866025   0.000000 )
               a(3) = (   0.500000   0.288675   0.816497 )

     reciprocal axes: (cart. coord. in units 2 pi/alat)
               b(1) = (  1.000000 -0.577350 -0.408248 )
               b(2) = (  0.000000  1.154701 -0.408248 )
               b(3) = (  0.000000  0.000000  1.224745 )

     PseudoPot. # 1 for K  read from file:
     /home/pragov/projects/rrg-bengioy-ad/pragov/crystal_structure_design/SSSP/K.pbe-spn-kjpaw_psl.1.0.0.UPF
     MD5 check sum: 7d58810084cac21f60fbe77ea2b688fd
     Pseudo is Projector augmented-wave + core cor, Zval =  9.0
     Generated using "atomic" code by A. Dal Corso  v.5.1
     Shape of augmentation charge: PSQ
     Using radial grid of 1165 points,  6 beta functions with:
                l(1) =   0
                l(2) =   0
                l(3) =   1
                l(4) =   1
                l(5) =   2
                l(6) =   2
     Q(r) pseudized with 0 coefficients

     PseudoPot. # 2 for Cr read from file:
     /home/pragov/projects/rrg-bengioy-ad/pragov/crystal_structure_design/SSSP/cr_pbe_v1.5.uspp.F.UPF
     MD5 check sum: 0d52af634a40206e4dee301ad30da4bf
     Pseudo is Ultrasoft + core correction, Zval = 14.0
     Generated by new atomic code, or converted to UPF format
     Using radial grid of  857 points,  6 beta functions with:
                l(1) =   0
                l(2) =   0
                l(3) =   1
                l(4) =   1
                l(5) =   2
                l(6) =   2
     Q(r) pseudized with  8 coefficients,  rinner =    0.950   0.950   0.950
                                                       0.950   0.950

     PseudoPot. # 3 for Ag read from file:
     /home/pragov/projects/rrg-bengioy-ad/pragov/crystal_structure_design/SSSP/Ag_ONCV_PBE-1.0.oncvpsp.upf
     MD5 check sum: 94f47bd0669c641108e45594df92fabc
     Pseudo is Norm-conserving, Zval = 19.0
     Generated using ONCVPSP code by D. R. Hamann
     Using radial grid of 1398 points,  6 beta functions with:
                l(1) =   0
                l(2) =   0
                l(3) =   1
                l(4) =   1
                l(5) =   2
                l(6) =   2

     PseudoPot. # 4 for F  read from file:
     /home/pragov/projects/rrg-bengioy-ad/pragov/crystal_structure_design/SSSP/f_pbe_v1.4.uspp.F.UPF
     MD5 check sum: 4c38b6a325caf53ec0e86aed9459de46
     Pseudo is Ultrasoft, Zval =  7.0
     Generated by new atomic code, or converted to UPF format
     Using radial grid of  799 points,  4 beta functions with:
                l(1) =   0
                l(2) =   0
                l(3) =   1
                l(4) =   1
     Q(r) pseudized with  8 coefficients,  rinner =    0.950   0.950   0.950

     atomic species   valence    mass     pseudopotential
        K              9.00    39.09830     K ( 1.00)
        Cr            14.00    51.99610     Cr( 1.00)
        Ag            19.00   107.86820     Ag( 1.00)
        F              7.00    18.99840     F ( 1.00)

     12 Sym. Ops., with inversion, found

                                    s                        frac. trans.

      isym =  1     identity

 cryst.   s( 1) = (     1          0          0      )
                  (     0          1          0      )
                  (     0          0          1      )

 cart.    s( 1) = (  1.0000000  0.0000000  0.0000000 )
                  (  0.0000000  1.0000000  0.0000000 )
                  (  0.0000000  0.0000000  1.0000000 )

      isym =  2     180 deg rotation - cart. axis [1,0,0]

[...]

      isym =  3     120 deg rotation - cryst. axis [0,0,1]

[...]

      isym =  6     180 deg rotation - cryst. axis [1,1,0]

[...]

      isym =  7     inversion

[...]

      isym =  8     inv. 180 deg rotation - cart. axis [1,0,0]

[...]

      isym =  9     inv. 120 deg rotation - cryst. axis [0,0,1]

 cryst.   s( 9) = (     1         -1          0      )
                  (     1          0          0      )
                  (     1          0         -1      )

 cart.    s( 9) = (  0.5000000  0.8660255  0.0000000 )
                  ( -0.8660253  0.5000000  0.0000000 )
                  (  0.0000000  0.0000000 -1.0000000 )

[...]

 cryst.   s(10) = (     0          1          0      )
                  (    -1          1          0      )
                  (     0          1         -1      )

 cart.    s(10) = (  0.5000000 -0.8660255 -0.0000000 )
                  (  0.8660253  0.5000000  0.0000000 )
                  (  0.0000000  0.0000000 -1.0000000 )

[...]

      isym = 12     inv. 180 deg rotation - cryst. axis [1,1,0]

 cryst.   s(12) = (     1         -1          0      )
                  (     0         -1          0      )
                  (     0         -1          1      )

 cart.    s(12) = (  0.5000000 -0.8660255 -0.0000000 )
                  ( -0.8660253 -0.5000000 -0.0000000 )
                  (  0.0000000  0.0000000  1.0000000 )

   Cartesian axes

     site n.     atom                  positions (alat units)
         1           K   tau(   1) = (   0.5000000   0.2886751   0.2041241  )
         2           K   tau(   2) = (   1.5000000   0.8660253   0.6123724  )
         3           Cr  tau(   3) = (   0.0000000   0.0000000   0.0000000  )
         4           Ag  tau(   4) = (   1.0000000   0.5773502   0.4082483  )
         5           F   tau(   5) = (   0.7232590   0.7371267   0.1822902  )
         6           F   tau(   6) = (   1.2767410   0.7371267   0.1822902  )
         7           F   tau(   7) = (   1.2767410   0.4175737   0.6342064  )
         8           F   tau(   8) = (   1.0000000   0.2577973   0.1822902  )
         9           F   tau(   9) = (   1.0000000   0.8969032   0.6342064  )
        10           F   tau(  10) = (   0.7232590   0.4175737   0.6342064  )

   Crystallographic axes

     site n.     atom                  positions (cryst. coord.)
         1           K   tau(   1) = (  0.2500000  0.2500000  0.2500000  )
         2           K   tau(   2) = (  0.7500000  0.7500000  0.7500000  )
         3           Cr  tau(   3) = (  0.0000000  0.0000000  0.0000000  )
         4           Ag  tau(   4) = (  0.5000000  0.5000000  0.5000000  )
         5           F   tau(   5) = (  0.2232590  0.7767410  0.2232590  )
         6           F   tau(   6) = (  0.7767410  0.7767410  0.2232590  )
         7           F   tau(   7) = (  0.7767410  0.2232590  0.7767410  )
         8           F   tau(   8) = (  0.7767410  0.2232590  0.2232590  )
         9           F   tau(   9) = (  0.2232590  0.7767410  0.7767410  )
        10           F   tau(  10) = (  0.2232590  0.2232590  0.7767410  )

     number of k points=     1  Methfessel-Paxton smearing, width (Ry)=  0.0010
                       cart. coord. in units 2pi/alat
        k(    1) = (   0.0000000   0.0000000   0.0000000), wk =   2.0000000

                       cryst. coord.
        k(    1) = (   0.0000000   0.0000000   0.0000000), wk =   2.0000000

     Check: negative core charge=   -0.000005

     Initial potential from superposition of free atoms

     starting charge      91.9620, renormalised to      93.0000

     negative rho (up, down):  1.648E-03 0.000E+00
     Starting wfcs are   60 randomized atomic wfcs
     Checking if some PAW data can be deallocated...

     Self-consistent Calculation

     iteration #  1     ecut=    30.00 Ry     beta= 0.70
     Davidson diagonalization with overlap

     ethr =  1.00E-02,  avg # of iterations =  3.0

     negative rho (up, down):  7.948E-05 0.000E+00

     total energy              =    -972.32809983 Ry
     estimated scf accuracy    <      10.11125153 Ry

[...]

     total energy              =    -980.54649580 Ry
     estimated scf accuracy    <       0.00000165 Ry

     iteration # 43     ecut=    30.00 Ry     beta= 0.70
     Davidson diagonalization with overlap

     ethr =  1.77E-09,  avg # of iterations =  1.0

[...]

     End of self-consistent calculation

          k = 0.0000 0.0000 0.0000 (  1560 PWs)   bands (ev):

   -86.2911 -65.4928 -49.3574 -49.2414 -48.8000 -36.8496 -36.8386 -36.3988
   -24.8593 -23.7640 -17.5807 -17.4196 -17.2389 -17.1927 -17.0557 -17.0347
    -7.5674  -7.4548  -7.3591  -7.3471  -7.2751  -7.2383  -0.7016  -0.1929
     0.1349   0.4600   0.4912   0.5008   0.6471   0.7127   0.8507   1.8806
     1.8965   1.9867   2.0556   2.0680   2.2382   2.3895   2.4095   2.7307
     2.7433   2.8803   2.9309   3.6453   4.1318   7.1566   7.1575   7.1579
     7.6538   9.2377   9.6397  11.8335  11.8734  11.8998  12.1843  12.2368

     occupation numbers
     1.0000   1.0000   1.0000   1.0000   1.0000   1.0000   1.0000   1.0000
     1.0000   1.0000   1.0000   1.0000   1.0000   1.0000   1.0000   1.0000
     1.0000   1.0000   1.0000   1.0000   1.0000   1.0000   1.0000   1.0000
     1.0000   1.0000   1.0000   1.0000   1.0000   1.0000   1.0000   1.0000
     1.0000   1.0000   1.0000   1.0000   1.0000   1.0000   1.0000   1.0000
     1.0000   1.0000   1.0000   1.0000   1.0000   0.5460   0.4903   0.4637
    -0.0000  -0.0000  -0.0000  -0.0000  -0.0000  -0.0000  -0.0000  -0.0000

     the Fermi energy is     7.1573 ev

!    total energy              =    -980.54649596 Ry
     estimated scf accuracy    <       0.00000008 Ry
     smearing contrib. (-TS)   =      -0.00084212 Ry
     internal energy E=F+TS    =    -980.54565384 Ry

     The total energy is F=E-TS. E is the sum of the following terms:
     one-electron contribution =    -532.32061916 Ry
     hartree contribution      =     305.66393030 Ry
     xc contribution           =    -128.34814338 Ry
     ewald contribution        =    -514.72206009 Ry
     one-center paw contrib.   =    -110.81876151 Ry
      -> PAW hartree energy AE =      73.66792369 Ry
      -> PAW hartree energy PS =     -73.25237838 Ry
      -> PAW xc energy AE      =    -132.17532809 Ry
      -> PAW xc energy PS      =      20.94102128 Ry
      -> total E_H with PAW    =     306.07947561 Ry
      -> total E_XC with PAW   =    -239.58245019 Ry

     convergence has been achieved in  43 iterations

     negative rho (up, down):  1.558E-03 0.000E+00

     Forces acting on atoms (cartesian axes, Ry/au):

     atom    1 type  1   force =    -0.00000000   -0.00000000   -0.00674011
     atom    2 type  1   force =    -0.00000000   -0.00000000    0.00674011
     atom    3 type  2   force =     0.00000000    0.00000000    0.00000000
     atom    4 type  3   force =     0.00000000    0.00000000    0.00000000
     atom    5 type  4   force =     0.00030501   -0.00017610   -0.00741557
     atom    6 type  4   force =    -0.00030501   -0.00017610   -0.00741557
     atom    7 type  4   force =    -0.00030501    0.00017610    0.00741557
     atom    8 type  4   force =     0.00000000    0.00035219   -0.00741557
     atom    9 type  4   force =     0.00000000   -0.00035219    0.00741557
     atom   10 type  4   force =     0.00030501    0.00017610    0.00741557
     The non-local contrib.  to forces
     atom    1 type  1   force =     0.00000000    0.00000000   -0.00418435
     atom    2 type  1   force =    -0.00000000   -0.00000000    0.00418435
     atom    3 type  2   force =     0.00000000    0.00000000    0.00000000
     atom    4 type  3   force =    -0.00000000   -0.00000000    0.00000000
     atom    5 type  4   force =    -0.33121361    0.19122629   -0.24638545
     atom    6 type  4   force =     0.33121361    0.19122629   -0.24638545
     atom    7 type  4   force =     0.33121361   -0.19122629    0.24638545
     atom    8 type  4   force =     0.00000000   -0.38245257   -0.24638545
     atom    9 type  4   force =     0.00000000    0.38245257    0.24638545
     atom   10 type  4   force =    -0.33121361   -0.19122629    0.24638545
     The ionic contribution  to forces
     atom    1 type  1   force =    -0.00000000   -0.00000021    0.00000007
     atom    2 type  1   force =     0.00000000    0.00000021   -0.00000007
     atom    3 type  2   force =    -0.00000000    0.00000000   -0.00000000
     atom    4 type  3   force =     0.00000000   -0.00000000    0.00000000
     atom    5 type  4   force =     4.69815799   -2.71248269    3.83602990
     atom    6 type  4   force =    -4.69815799   -2.71248269    3.83602990
     atom    7 type  4   force =    -4.69815799    2.71248269   -3.83602990
     atom    8 type  4   force =     0.00000000    5.42496574    3.83603016
     atom    9 type  4   force =    -0.00000000   -5.42496574   -3.83603016
     atom   10 type  4   force =     4.69815799    2.71248269   -3.83602990
     The local contribution  to forces
     atom    1 type  1   force =    -0.00083585    0.00012769   -0.00237091
     atom    2 type  1   force =     0.00083548   -0.00012762    0.00237075
     atom    3 type  2   force =     0.00000362   -0.00000158    0.00000646
     atom    4 type  3   force =    -0.00000191    0.00000061   -0.00000425
     atom    5 type  4   force =    -4.38454697    2.54422554   -3.59164732
     atom    6 type  4   force =     4.33900760    2.53727230   -3.60325401
     atom    7 type  4   force =     4.38454676   -2.54422572    3.59164738
     atom    8 type  4   force =    -0.01113638   -5.03094217   -3.59628261
     atom    9 type  4   force =     0.01113686    5.03094254    3.59628371
     atom   10 type  4   force =    -4.33900744   -2.53727265    3.60325500
     The core correction contribution to forces
     atom    1 type  1   force =    -0.00003496   -0.00007605   -0.00018167
     atom    2 type  1   force =     0.00003495    0.00007606    0.00018167
     atom    3 type  2   force =     0.00000003    0.00000001    0.00000006
     atom    4 type  3   force =     0.00000000    0.00000000    0.00000000
     atom    5 type  4   force =     0.00000000    0.00000000    0.00000000
     atom    6 type  4   force =     0.00000000    0.00000000    0.00000000
     atom    7 type  4   force =     0.00000000    0.00000000    0.00000000
     atom    8 type  4   force =     0.00000000    0.00000000    0.00000000
     atom    9 type  4   force =     0.00000000    0.00000000    0.00000000
     atom   10 type  4   force =     0.00000000    0.00000000    0.00000000
     The Hubbard contrib.    to forces
     atom    1 type  1   force =     0.00000000    0.00000000    0.00000000
     atom    2 type  1   force =     0.00000000    0.00000000    0.00000000
     atom    3 type  2   force =     0.00000000    0.00000000    0.00000000
     atom    4 type  3   force =     0.00000000    0.00000000    0.00000000
     atom    5 type  4   force =     0.00000000    0.00000000    0.00000000
     atom    6 type  4   force =     0.00000000    0.00000000    0.00000000
     atom    7 type  4   force =     0.00000000    0.00000000    0.00000000
     atom    8 type  4   force =     0.00000000    0.00000000    0.00000000
     atom    9 type  4   force =     0.00000000    0.00000000    0.00000000
     atom   10 type  4   force =     0.00000000    0.00000000    0.00000000
     The SCF correction term to forces
     atom    1 type  1   force =    -0.00001501    0.00000942   -0.00000322
     atom    2 type  1   force =     0.00001534   -0.00000945    0.00000344
     atom    3 type  2   force =    -0.00000373    0.00000145   -0.00000724
     atom    4 type  3   force =     0.00000263   -0.00000070    0.00000568
     atom    5 type  4   force =     0.00002495   -0.00001491    0.00005292
     atom    6 type  4   force =    -0.00000163   -0.00005262   -0.00000287
     atom    7 type  4   force =    -0.00002495    0.00001486   -0.00005329
     atom    8 type  4   force =     0.00004487   -0.00002815   -0.00004679
     atom    9 type  4   force =    -0.00004557    0.00002803    0.00004551
     atom   10 type  4   force =     0.00000119    0.00005301    0.00000167

     Total force =     0.020532     Total SCF correction =     0.000154

     Computing stress (Cartesian axis) and pressure

     negative rho (up, down):  1.558E-03 0.000E+00
          total   stress  (Ry/bohr**3)                   (kbar)     P=     -244.46
  -0.00159363   0.00000000   0.00000000         -234.43        0.00        0.00
   0.00000000  -0.00159363  -0.00000000            0.00     -234.43       -0.00
   0.00000000  -0.00000000  -0.00179806            0.00       -0.00     -264.50

     kinetic stress (kbar)  25716.48     -0.00     -0.00
                               -0.00  25716.49      0.00
                               -0.00      0.00  25709.77

     local   stress (kbar) -13760.75     -6.85    -32.20
                               -6.85 -13765.54     18.63
                              -32.20     18.63 -13758.74

     nonloc. stress (kbar)   2492.92     -0.00     -0.00
                               -0.00   2492.92      0.00
                               -0.00      0.00   2452.46

     hartree stress (kbar)  13637.13     -4.95      5.81
                               -4.95  13613.65    -16.17
                                5.81    -16.17  13636.79

     exc-cor stress (kbar)  -4286.70     -0.10     -0.26
                               -0.10  -4287.38     -0.43
                               -0.26     -0.43  -4286.08

     corecor stress (kbar)  -1068.17     -0.08     -0.25
                               -0.08  -1068.23      0.16
                               -0.25      0.16  -1067.86

     ewald   stress (kbar) -22950.84     -0.00      0.00
                               -0.00 -22950.84      0.00
                                0.00      0.00 -22950.84

     hubbard stress (kbar)      0.00      0.00      0.00
                                0.00      0.00      0.00
                                0.00      0.00      0.00

     DFT-D   stress (kbar)      0.00      0.00      0.00
                                0.00      0.00      0.00
                                0.00      0.00      0.00

     XDM     stress (kbar)      0.00      0.00      0.00
                                0.00      0.00      0.00
                                0.00      0.00      0.00

     dft-nl  stress (kbar)      0.00      0.00      0.00
                                0.00      0.00      0.00
                                0.00      0.00      0.00

     TS-vdW  stress (kbar)      0.00      0.00      0.00
                                0.00      0.00      0.00
                                0.00      0.00      0.00

[...]

                                0.00      0.00      0.00

     Writing all to output data dir new_calculations/myprefix.save/

     General routines

     Parallel routines

     PAW routines

   This run was terminated on:   7:27:28  21May2023

   JOB DONE.