     Program PWSCF v.7.0 starts on 20May2023 at  7:18:12

     Reading input from espresso_15105.pwi
Warning: card &CELL ignored
Warning: card / ignored

     Current dimensions of program PWSCF are:
     Max number of different atomic species (ntypx) = 10
     Max number of k-points (npk) =  40000
     Max angular momentum in pseudopotentials (lmaxx) =  4
     file O.pbe-n-kjpaw_psl.0.1.UPF: wavefunction(s)  2P renormalized

     gamma-point specific algorithms are used

     Subspace diagonalization in iterative solution of the eigenvalue problem:
     a serial algorithm will be used

     Using Slab Decomposition

     bravais-lattice index     =            0
     lattice parameter (alat)  =       6.9696  a.u.
     unit-cell volume          =    1697.2762 (a.u.)^3
     number of atoms/cell      =           20
     number of atomic types    =            4
     number of electrons       =       152.00
     number of Kohn-Sham states=           91
     kinetic-energy cutoff     =      30.0000  Ry
     charge density cutoff     =     240.0000  Ry
     scf convergence threshold =      1.0E-06
     mixing beta               =       0.7000
     number of iterations used =            8  plain     mixing
     Exchange-correlation=  SLA  PW   PBX  PBC
                           (   1   4   3   4   0   0   0)

     celldm(1)=   6.969611  celldm(2)=   0.000000  celldm(3)=   0.000000
     celldm(4)=   0.000000  celldm(5)=   0.000000  celldm(6)=   0.000000

     crystal axes: (cart. coord. in units of alat)
               a(1) = (   1.000000   0.000000   0.000000 )
               a(2) = (   0.000018   2.699193   0.000000 )
               a(3) = (  -0.000027  -0.009896   1.857347 )

     reciprocal axes: (cart. coord. in units 2 pi/alat)
               b(1) = (  1.000000 -0.000007  0.000014 )
               b(2) = (  0.000000  0.370481  0.001974 )
               b(3) = (  0.000000  0.000000  0.538402 )

     PseudoPot. # 1 for Li read from file:
     /home/pragov/projects/rrg-bengioy-ad/pragov/crystal_structure_design/SSSP/li_pbe_v1.4.uspp.F.UPF
     MD5 check sum: e912e257baa3777c20ea3d68f190483c
     Pseudo is Ultrasoft, Zval =  3.0
     Generated by new atomic code, or converted to UPF format
     Using radial grid of  751 points,  5 beta functions with:
                l(1) =   0
                l(2) =   0
                l(3) =   0
                l(4) =   1
                l(5) =   1
     Q(r) pseudized with 10 coefficients,  rinner =    1.150   1.150   1.150

     PseudoPot. # 2 for Mn read from file:
     /home/pragov/projects/rrg-bengioy-ad/pragov/crystal_structure_design/SSSP/mn_pbe_v1.5.uspp.F.UPF
     MD5 check sum: 82ef2b46521d7a7d9e736dc3972e4928
     Pseudo is Ultrasoft + core correction, Zval = 15.0
     Generated by new atomic code, or converted to UPF format
     Using radial grid of  859 points,  6 beta functions with:
                l(1) =   0
                l(2) =   0
                l(3) =   1
                l(4) =   1
                l(5) =   2
                l(6) =   2
     Q(r) pseudized with  8 coefficients,  rinner =    0.950   0.950   0.950
                                                       0.950   0.950

     PseudoPot. # 3 for O  read from file:
     /home/pragov/projects/rrg-bengioy-ad/pragov/crystal_structure_design/SSSP/O.pbe-n-kjpaw_psl.0.1.UPF
     MD5 check sum: 0234752ac141de4415c5fc33072bef88
     Pseudo is Projector augmented-wave + core cor, Zval =  6.0
     Generated using "atomic" code by A. Dal Corso  v.5.0.99 svn rev. 10869
     Shape of augmentation charge: BESSEL
     Using radial grid of 1095 points,  4 beta functions with:
                l(1) =   0
                l(2) =   0
                l(3) =   1
                l(4) =   1
     Q(r) pseudized with 0 coefficients

     PseudoPot. # 4 for F  read from file:
     /home/pragov/projects/rrg-bengioy-ad/pragov/crystal_structure_design/SSSP/f_pbe_v1.4.uspp.F.UPF
     MD5 check sum: 4c38b6a325caf53ec0e86aed9459de46
     Pseudo is Ultrasoft, Zval =  7.0
     Generated by new atomic code, or converted to UPF format
     Using radial grid of  799 points,  4 beta functions with:
                l(1) =   0
                l(2) =   0
                l(3) =   1
                l(4) =   1
     Q(r) pseudized with  8 coefficients,  rinner =    0.950   0.950   0.950

     atomic species   valence    mass     pseudopotential
        Li             3.00     6.94000     Li( 1.00)
        Mn            15.00    54.93804     Mn( 1.00)
        O              6.00    15.99900     O ( 1.00)
        F              7.00    18.99840     F ( 1.00)

     No symmetry found

                                    s                        frac. trans.

      isym =  1     identity

 cryst.   s( 1) = (     1          0          0      )
                  (     0          1          0      )
                  (     0          0          1      )

 cart.    s( 1) = (  1.0000000 -0.0000000 -0.0000000 )
                  (  0.0000000  1.0000000 -0.0000000 )
                  (  0.0000000  0.0000000  1.0000000 )

   Cartesian axes

     site n.     atom                  positions (alat units)
         1           Li  tau(   1) = (   0.2500293   2.1115807   0.8278604  )
         2           Li  tau(   2) = (   0.2500386   1.9249360   1.7576168  )
         3           Li  tau(   3) = (   0.7499537   0.7643852   0.0996560  )
         4           Li  tau(   4) = (   0.7499561   0.5777053   1.0294290  )
         5           Mn  tau(   5) = (   0.2500106   1.2805098   0.6278056  )
         6           Mn  tau(   6) = (   0.2499660   0.0578159   1.5574003  )
         7           Mn  tau(   7) = (   0.7500134   2.6314908   0.3000600  )
         8           Mn  tau(   8) = (   0.7499938   1.4088218   1.2295452  )
         9           O   tau(   9) = (   0.2500165   2.5232039   0.1684874  )
        10           O   tau(  10) = (   0.2499964   1.5182986   1.0987898  )
        11           O   tau(  11) = (   0.7500080   1.1709952   0.7585554  )
        12           O   tau(  12) = (   0.7499568   0.1660462   1.6889507  )
        13           F   tau(  13) = (   0.2499745   0.9787406   0.2117933  )
        14           F   tau(  14) = (   0.2499540   0.3613256   1.1426975  )
        15           F   tau(  15) = (   0.2500322   1.7788653   0.4007040  )
        16           F   tau(  16) = (   0.2500201   2.2598623   1.3281053  )
        17           F   tau(  17) = (   0.7499913   0.4294722   0.5291972  )
        18           F   tau(  18) = (   0.7499592   0.9103937   1.4565891  )
        19           F   tau(  19) = (   0.7500174   2.3279031   0.7147183  )
        20           F   tau(  20) = (   0.7500248   1.7106128   1.6455092  )

   Crystallographic axes

     site n.     atom                  positions (cryst. coord.)
         1           Li  tau(   1) = (  0.2500270  0.7839350  0.4457220  )
         2           Li  tau(   2) = (  0.2500510  0.7166220  0.9463050  )
         3           Li  tau(   3) = (  0.7499500  0.2833870  0.0536550  )
         4           Li  tau(   4) = (  0.7499670  0.2160610  0.5542470  )
         5           Mn  tau(   5) = (  0.2500110  0.4756440  0.3380120  )
         6           Mn  tau(   6) = (  0.2499880  0.0244940  0.8385080  )
         7           Mn  tau(   7) = (  0.7500000  0.9755100  0.1615530  )
         8           Mn  tau(   8) = (  0.7500020  0.5243690  0.6619900  )
         9           O   tau(   9) = (  0.2500020  0.9351320  0.0907140  )
        10           O   tau(  10) = (  0.2500020  0.5646700  0.5915910  )
        11           O   tau(  11) = (  0.7500110  0.4353290  0.4084080  )
        12           O   tau(  12) = (  0.7499800  0.0648510  0.9093350  )
        13           F   tau(  13) = (  0.2499710  0.3630230  0.1140300  )
        14           F   tau(  14) = (  0.2499680  0.1361200  0.6152310  )
        15           F   tau(  15) = (  0.2500260  0.6598270  0.2157400  )
        16           F   tau(  16) = (  0.2500240  0.8398580  0.7150550  )
        17           F   tau(  17) = (  0.7499960  0.1601560  0.2849210  )
        18           F   tau(  18) = (  0.7499740  0.3401590  0.7842310  )
        19           F   tau(  19) = (  0.7500120  0.8638550  0.3848060  )
        20           F   tau(  20) = (  0.7500370  0.6369980  0.8859460  )

     number of k points=     1  Methfessel-Paxton smearing, width (Ry)=  0.0010
                       cart. coord. in units 2pi/alat
        k(    1) = (   0.0000000   0.0000000   0.0000000), wk =   2.0000000

                       cryst. coord.
        k(    1) = (   0.0000000   0.0000000   0.0000000), wk =   2.0000000

     Check: negative core charge=   -0.000019

     Initial potential from superposition of free atoms

     starting charge     148.1967, renormalised to     152.0000
     Starting wfcs are  120 randomized atomic wfcs
     Checking if some PAW data can be deallocated...

     Self-consistent Calculation

     iteration #  1     ecut=    30.00 Ry     beta= 0.70
     Davidson diagonalization with overlap

     ethr =  1.00E-02,  avg # of iterations =  2.0

     total energy              =   -1449.25372490 Ry
     estimated scf accuracy    <      13.28363693 Ry

[...]

     negative rho (up, down):  1.356E-07 0.000E+00

[...]

     total energy              =   -1458.61624057 Ry
     estimated scf accuracy    <       0.00000751 Ry

     iteration # 31     ecut=    30.00 Ry     beta= 0.70
     Davidson diagonalization with overlap

     ethr =  4.76E-09,  avg # of iterations =  1.0

     End of self-consistent calculation

          k = 0.0000 0.0000 0.0000 (  2356 PWs)   bands (ev):

   -74.9292 -74.9276 -74.9219 -74.9201 -44.0012 -43.9932 -43.9706 -43.9687
   -43.8881 -43.8852 -43.8802 -43.8786 -43.1298 -43.1290 -43.0938 -43.0934
   -39.8911 -39.8908 -39.8807 -39.8801 -18.3382 -18.2503 -18.2356 -18.2240
   -18.1342 -18.1147 -18.0619 -18.0107 -14.9897 -14.9725 -14.2552 -14.2488
    -1.5199  -1.5109  -1.2325  -1.1751  -1.1726  -1.1564  -0.9877  -0.9545
    -0.7466  -0.6830  -0.6135  -0.4025  -0.3628  -0.3441  -0.2744  -0.1943
    -0.1445  -0.0222   0.0009   0.1997   0.4336   0.4341   0.5057   0.5222
     0.6405   0.6671   0.7565   0.7796   0.8761   0.9147   0.9349   0.9746
     0.9870   1.1361   1.4932   1.5425   4.2050   4.2112   4.7137   4.7476
     4.8058   4.8077   4.8275   4.8460   5.1184   5.1219   5.2650   5.2764
     5.4528   5.4900   5.4969   5.5098   6.2949   6.4812   6.6298   6.7403
     8.2824   9.7046  10.4442

     occupation numbers
     1.0000   1.0000   1.0000   1.0000   1.0000   1.0000   1.0000   1.0000
     1.0000   1.0000   1.0000   1.0000   1.0000   1.0000   1.0000   1.0000
     1.0000   1.0000   1.0000   1.0000   1.0000   1.0000   1.0000   1.0000
     1.0000   1.0000   1.0000   1.0000   1.0000   1.0000   1.0000   1.0000
     1.0000   1.0000   1.0000   1.0000   1.0000   1.0000   1.0000   1.0000
     1.0000   1.0000   1.0000   1.0000   1.0000   1.0000   1.0000   1.0000
     1.0000   1.0000   1.0000   1.0000   1.0000   1.0000   1.0000   1.0000
     1.0000   1.0000   1.0000   1.0000   1.0000   1.0000   1.0000   1.0000
     1.0000   1.0000   1.0000   1.0000   1.0000   1.0000   1.0000   1.0000
     1.0000   1.0000   1.0000   1.0000  -0.0000  -0.0000  -0.0000  -0.0000
    -0.0000  -0.0000  -0.0000  -0.0000  -0.0000  -0.0000  -0.0000  -0.0000
    -0.0000  -0.0000  -0.0000

     the Fermi energy is     4.9765 ev

!    total energy              =   -1458.61624083 Ry
     estimated scf accuracy    <       0.00000003 Ry
     smearing contrib. (-TS)   =       0.00000000 Ry
     internal energy E=F+TS    =   -1458.61624083 Ry

     The total energy is F=E-TS. E is the sum of the following terms:
     one-electron contribution =   -1035.88272575 Ry
     hartree contribution      =     570.99569683 Ry
     xc contribution           =    -223.81469650 Ry
     ewald contribution        =    -731.82168886 Ry
     one-center paw contrib.   =     -38.09282656 Ry
      -> PAW hartree energy AE =     114.98407788 Ry
      -> PAW hartree energy PS =    -114.57746819 Ry
      -> PAW xc energy AE      =     -68.12411682 Ry
      -> PAW xc energy PS      =      29.62468057 Ry
      -> total E_H with PAW    =     571.40230652 Ry
      -> total E_XC with PAW   =    -262.31413275 Ry

     convergence has been achieved in  31 iterations

     Forces acting on atoms (cartesian axes, Ry/au):

     atom    1 type  1   force =    -0.00000358    0.02502164   -0.01240378
     atom    2 type  1   force =    -0.00000533   -0.02509309   -0.01223249
     atom    3 type  1   force =     0.00000750    0.02508670    0.01222084
     atom    4 type  1   force =     0.00000275   -0.02499553    0.01241253
     atom    5 type  2   force =    -0.00002505    0.12728849   -0.09191107
     atom    6 type  2   force =     0.00000782   -0.12768538   -0.09415277
     atom    7 type  2   force =    -0.00000120    0.12750890    0.09400288
     atom    8 type  2   force =     0.00002161   -0.12733414    0.09192301
     atom    9 type  3   force =    -0.00000764   -0.07645749   -0.11036599
     atom   10 type  3   force =     0.00001220    0.07882531   -0.11022776
     atom   11 type  3   force =    -0.00001346   -0.07873311    0.11016682
     atom   12 type  3   force =     0.00000561    0.07652573    0.11046293
     atom   13 type  4   force =     0.00000894   -0.01841423   -0.02018000
     atom   14 type  4   force =     0.00000325    0.01828120   -0.02008256
     atom   15 type  4   force =    -0.00000024   -0.05117994    0.03437165
     atom   16 type  4   force =    -0.00000387    0.05172000    0.03480556
     atom   17 type  4   force =    -0.00000462   -0.05169386   -0.03474501
     atom   18 type  4   force =     0.00000208    0.05117370   -0.03435271
     atom   19 type  4   force =     0.00000137   -0.01830108    0.02008119
     atom   20 type  4   force =    -0.00000814    0.01845620    0.02020673
     The non-local contrib.  to forces
     atom    1 type  1   force =    -0.00000935    0.00386046   -0.01657308
     atom    2 type  1   force =    -0.00000366   -0.00341026   -0.01674607
     atom    3 type  1   force =     0.00001090    0.00338123    0.01680898
     atom    4 type  1   force =    -0.00001206   -0.00387837    0.01655704
     atom    5 type  2   force =     0.00004935   -0.29822114    0.40241110
     atom    6 type  2   force =     0.00001185    0.29957073    0.40588085
     atom    7 type  2   force =    -0.00000444   -0.29946972   -0.40568467
     atom    8 type  2   force =    -0.00003987    0.29815694   -0.40241465
     atom    9 type  3   force =     0.00000508    0.73296610    0.15238262
     atom   10 type  3   force =     0.00006898   -0.73957261    0.14213525
     atom   11 type  3   force =    -0.00006996    0.73975616   -0.14212361
     atom   12 type  3   force =    -0.00005051   -0.73272712   -0.15231519
     atom   13 type  4   force =     0.00016526    0.37296476    0.64028653
     atom   14 type  4   force =     0.00003621   -0.37741142    0.63805602
     atom   15 type  4   force =     0.00000031   -0.53060997    0.30185293
     atom   16 type  4   force =    -0.00003246    0.53657176    0.29093135
     atom   17 type  4   force =    -0.00006945   -0.53685555   -0.29052361
     atom   18 type  4   force =     0.00001760    0.53042845   -0.30154070
     atom   19 type  4   force =    -0.00003939    0.37749668   -0.63809653
     atom   20 type  4   force =    -0.00013280   -0.37313301   -0.64032491
     The ionic contribution  to forces
     atom    1 type  1   force =    -0.00014846    0.78932110    0.43557589
     atom    2 type  1   force =    -0.00003262   -0.81876207    0.45560580
     atom    3 type  1   force =     0.00010708    0.81904417   -0.45500320
     atom    4 type  1   force =    -0.00020122   -0.78972697   -0.43500215
     atom    5 type  2   force =    -0.00012212   -3.76427877  -12.79229596
     atom    6 type  2   force =    -0.00124834    4.03540801  -12.79068237
     atom    7 type  2   force =     0.00052687   -4.03233658   12.79363890
     atom    8 type  2   force =     0.00039168    3.75787452   12.79280842
     atom    9 type  3   force =    -0.00041864   -8.93952852    5.52290573
     atom   10 type  3   force =    -0.00045852    8.85922262    5.58469506
     atom   11 type  3   force =     0.00044061   -8.86198512   -5.58373264
     atom   12 type  3   force =     0.00083548    8.93796923   -5.52479789
     atom   13 type  4   force =    -0.00079494   -5.66930255  -10.66554463
     atom   14 type  4   force =    -0.00001806    5.81526984  -10.64808834
     atom   15 type  4   force =     0.00024073    7.22008159   -5.85253337
     atom   16 type  4   force =     0.00042221   -7.23728702   -5.93460824
     atom   17 type  4   force =     0.00002990    7.24236867    5.93520550
     atom   18 type  4   force =    -0.00045598   -7.21959852    5.84945231
     atom   19 type  4   force =     0.00028617   -5.81388888   10.64575107
     atom   20 type  4   force =     0.00061816    5.67013526   10.66665010
     The local contribution  to forces
     atom    1 type  1   force =     0.00015431   -0.76815658   -0.43140834
     atom    2 type  1   force =     0.00003092    0.79707662   -0.45108697
     atom    3 type  1   force =    -0.00011043   -0.79735269    0.45040976
     atom    4 type  1   force =     0.00021597    0.76861683    0.43086934
     atom    5 type  2   force =     0.00004750    4.17800618   12.31659145
     atom    6 type  2   force =     0.00125040   -4.45092460   12.30941359
     atom    7 type  2   force =    -0.00052329    4.44772369  -12.31262688
     atom    8 type  2   force =    -0.00033576   -4.17167976  -12.31697713
     atom    9 type  3   force =     0.00040583    8.13838509   -5.78261279
     atom   10 type  3   force =     0.00040356   -8.04918733   -5.83412539
     atom   11 type  3   force =    -0.00038457    8.05184324    5.83323910
     atom   12 type  3   force =    -0.00078100   -8.13696995    5.78467642
     atom   13 type  4   force =     0.00063816    5.27784788   10.00500852
     atom   14 type  4   force =    -0.00001407   -5.41955943    9.98994537
     atom   15 type  4   force =    -0.00024184   -6.74058558    5.58503394
     atom   16 type  4   force =    -0.00039371    6.75241806    5.67848979
     atom   17 type  4   force =     0.00003496   -6.75728595   -5.67948303
     atom   18 type  4   force =     0.00044008    6.74037911   -5.58228521
     atom   19 type  4   force =    -0.00024536    5.41815243   -9.98766281
     atom   20 type  4   force =    -0.00049456   -5.27856142  -10.00616734
     The core correction contribution to forces
     atom    1 type  1   force =     0.00000000    0.00000000    0.00000000
     atom    2 type  1   force =     0.00000000    0.00000000    0.00000000
     atom    3 type  1   force =     0.00000000    0.00000000    0.00000000
     atom    4 type  1   force =     0.00000000    0.00000000    0.00000000
     atom    5 type  2   force =    -0.00000282    0.01172920   -0.01856522
     atom    6 type  2   force =    -0.00000320   -0.01167895   -0.01864329
     atom    7 type  2   force =     0.00000072    0.01167410    0.01863704
     atom    8 type  2   force =     0.00000298   -0.01172989    0.01856853
     atom    9 type  3   force =     0.00000007   -0.00824297   -0.00297601
     atom   10 type  3   force =    -0.00000073    0.00836135   -0.00285943
     atom   11 type  3   force =     0.00000068   -0.00836344    0.00285853
     atom   12 type  3   force =     0.00000038    0.00824033    0.00297565
     atom   13 type  4   force =     0.00000000    0.00000000    0.00000000
     atom   14 type  4   force =     0.00000000    0.00000000    0.00000000
     atom   15 type  4   force =     0.00000000    0.00000000    0.00000000
     atom   16 type  4   force =     0.00000000    0.00000000    0.00000000
     atom   17 type  4   force =     0.00000000    0.00000000    0.00000000
     atom   18 type  4   force =     0.00000000    0.00000000    0.00000000
     atom   19 type  4   force =     0.00000000    0.00000000    0.00000000
     atom   20 type  4   force =     0.00000000    0.00000000    0.00000000
     The Hubbard contrib.    to forces
     atom    1 type  1   force =     0.00000000    0.00000000    0.00000000
     atom    2 type  1   force =     0.00000000    0.00000000    0.00000000
     atom    3 type  1   force =     0.00000000    0.00000000    0.00000000
     atom    4 type  1   force =     0.00000000    0.00000000    0.00000000
     atom    5 type  2   force =     0.00000000    0.00000000    0.00000000
     atom    6 type  2   force =     0.00000000    0.00000000    0.00000000
     atom    7 type  2   force =     0.00000000    0.00000000    0.00000000
     atom    8 type  2   force =     0.00000000    0.00000000    0.00000000
     atom    9 type  3   force =     0.00000000    0.00000000    0.00000000
     atom   10 type  3   force =     0.00000000    0.00000000    0.00000000
     atom   11 type  3   force =     0.00000000    0.00000000    0.00000000
     atom   12 type  3   force =     0.00000000    0.00000000    0.00000000
     atom   13 type  4   force =     0.00000000    0.00000000    0.00000000
     atom   14 type  4   force =     0.00000000    0.00000000    0.00000000
     atom   15 type  4   force =     0.00000000    0.00000000    0.00000000
     atom   16 type  4   force =     0.00000000    0.00000000    0.00000000
     atom   17 type  4   force =     0.00000000    0.00000000    0.00000000
     atom   18 type  4   force =     0.00000000    0.00000000    0.00000000
     atom   19 type  4   force =     0.00000000    0.00000000    0.00000000
     atom   20 type  4   force =     0.00000000    0.00000000    0.00000000
     The SCF correction term to forces
     atom    1 type  1   force =    -0.00000005   -0.00000335    0.00000761
     atom    2 type  1   force =     0.00000006    0.00000262    0.00000062
     atom    3 type  1   force =    -0.00000002    0.00001399    0.00001117
     atom    4 type  1   force =     0.00000009   -0.00000702   -0.00000584
     atom    5 type  2   force =     0.00000307    0.00005301   -0.00004657
     atom    6 type  2   force =    -0.00000286   -0.00006057   -0.00011570
     atom    7 type  2   force =    -0.00000103   -0.00008260    0.00004434
     atom    8 type  2   force =     0.00000261    0.00004404   -0.00005629
     atom    9 type  3   force =     0.00000005   -0.00003720   -0.00005967
     atom   10 type  3   force =    -0.00000107    0.00000128   -0.00006739
     atom   11 type  3   force =    -0.00000019    0.00001604   -0.00006870
     atom   12 type  3   force =     0.00000128    0.00001324   -0.00007021
     atom   13 type  4   force =     0.00000049    0.00007568    0.00007543
     atom   14 type  4   force =    -0.00000081   -0.00001780    0.00001025
     atom   15 type  4   force =     0.00000059   -0.00006599    0.00002402
     atom   16 type  4   force =     0.00000012    0.00001720   -0.00000147
     atom   17 type  4   force =    -0.00000001    0.00007897    0.00006199
     atom   18 type  4   force =     0.00000040   -0.00003534    0.00002674
     atom   19 type  4   force =    -0.00000003   -0.00006131    0.00009532
     atom   20 type  4   force =     0.00000108    0.00001537    0.00005474

     Total force =     0.440243     Total SCF correction =     0.000318

     Computing stress (Cartesian axis) and pressure

          total   stress  (Ry/bohr**3)                   (kbar)     P=     -341.18
  -0.00293712  -0.00000003   0.00000012         -432.07       -0.00        0.02
  -0.00000003  -0.00215963   0.00000236           -0.00     -317.69        0.35
   0.00000012   0.00000236  -0.00186105            0.02        0.35     -273.77

     kinetic stress (kbar)  22407.80     -0.00     -0.00
                               -0.00  22721.06      0.41
                               -0.00      0.41  22926.24

     local   stress (kbar) -28589.00     -0.30     -0.58
                               -0.30  -4225.58     11.69
                               -0.58     11.69 -23508.24

     nonloc. stress (kbar)   6391.63     -0.00      0.01
                               -0.00   6536.25     -0.57
                                0.01     -0.57   6518.17

     hartree stress (kbar)  20880.15      0.13      0.25
                                0.13  10296.35     -3.72
                                0.25     -3.72  18312.42

     exc-cor stress (kbar)  -4694.37      0.00      0.00
                                0.00  -4701.72     -0.00
                                0.00     -0.00  -4688.21

     corecor stress (kbar)  -1389.61     -0.00     -0.00
                               -0.00  -1394.97      0.01
                               -0.00      0.01  -1393.99

     ewald   stress (kbar) -15438.67      0.17      0.35
                                0.17 -29549.08     -7.46
                                0.35     -7.46 -18440.16

     hubbard stress (kbar)      0.00      0.00      0.00
                                0.00      0.00      0.00
                                0.00      0.00      0.00

     DFT-D   stress (kbar)      0.00      0.00      0.00
                                0.00      0.00      0.00
                                0.00      0.00      0.00

     XDM     stress (kbar)      0.00      0.00      0.00
                                0.00      0.00      0.00
                                0.00      0.00      0.00

     dft-nl  stress (kbar)      0.00      0.00      0.00
                                0.00      0.00      0.00
                                0.00      0.00      0.00

     TS-vdW  stress (kbar)      0.00      0.00      0.00
                                0.00      0.00      0.00
                                0.00      0.00      0.00

[...]

                                0.00      0.00      0.00

     Writing all to output data dir new_calculations/myprefix.save/

     General routines

     Parallel routines

     PAW routines

   This run was terminated on:   7:21: 5  20May2023

   JOB DONE.