     Program PWSCF v.7.0 starts on 20May2023 at 12:42: 1

     Reading input from espresso_12295.pwi
Warning: card &CELL ignored
Warning: card / ignored

     Current dimensions of program PWSCF are:
     Max number of different atomic species (ntypx) = 10
     Max number of k-points (npk) =  40000
     Max angular momentum in pseudopotentials (lmaxx) =  4

     gamma-point specific algorithms are used

     Subspace diagonalization in iterative solution of the eigenvalue problem:
     a serial algorithm will be used

     Using Slab Decomposition

     bravais-lattice index     =            0
     lattice parameter (alat)  =      10.8541  a.u.
     unit-cell volume          =     990.6319 (a.u.)^3
     number of atoms/cell      =           11
     number of atomic types    =            3
     number of electrons       =        73.00
     number of Kohn-Sham states=           44
     kinetic-energy cutoff     =      30.0000  Ry
     charge density cutoff     =     240.0000  Ry
     scf convergence threshold =      1.0E-06
     mixing beta               =       0.7000
     number of iterations used =            8  plain     mixing
     Exchange-correlation=  SLA  PW   PBX  PBC
                           (   1   4   3   4   0   0   0)

     celldm(1)=  10.854118  celldm(2)=   0.000000  celldm(3)=   0.000000
     celldm(4)=   0.000000  celldm(5)=   0.000000  celldm(6)=   0.000000

     crystal axes: (cart. coord. in units of alat)
               a(1) = (   1.000000   0.000000   0.000000 )
               a(2) = (   0.432831   0.901475   0.000000 )
               a(3) = (   0.432832   0.272319   0.859360 )

     reciprocal axes: (cart. coord. in units 2 pi/alat)
               b(1) = (  1.000000 -0.480137 -0.351519 )
               b(2) = (  0.000000  1.109293 -0.351519 )
               b(3) = (  0.000000  0.000000  1.163657 )

     PseudoPot. # 1 for Li read from file:
     /home/pragov/projects/rrg-bengioy-ad/pragov/crystal_structure_design/SSSP/li_pbe_v1.4.uspp.F.UPF
     MD5 check sum: e912e257baa3777c20ea3d68f190483c
     Pseudo is Ultrasoft, Zval =  3.0
     Generated by new atomic code, or converted to UPF format
     Using radial grid of  751 points,  5 beta functions with:
                l(1) =   0
                l(2) =   0
                l(3) =   0
                l(4) =   1
                l(5) =   1
     Q(r) pseudized with 10 coefficients,  rinner =    1.150   1.150   1.150

     PseudoPot. # 2 for Mn read from file:
     /home/pragov/projects/rrg-bengioy-ad/pragov/crystal_structure_design/SSSP/mn_pbe_v1.5.uspp.F.UPF
     MD5 check sum: 82ef2b46521d7a7d9e736dc3972e4928
     Pseudo is Ultrasoft + core correction, Zval = 15.0
     Generated by new atomic code, or converted to UPF format
     Using radial grid of  859 points,  6 beta functions with:
                l(1) =   0
                l(2) =   0
                l(3) =   1
                l(4) =   1
                l(5) =   2
                l(6) =   2
     Q(r) pseudized with  8 coefficients,  rinner =    0.950   0.950   0.950
                                                       0.950   0.950

     PseudoPot. # 3 for F  read from file:
     /home/pragov/projects/rrg-bengioy-ad/pragov/crystal_structure_design/SSSP/f_pbe_v1.4.uspp.F.UPF
     MD5 check sum: 4c38b6a325caf53ec0e86aed9459de46
     Pseudo is Ultrasoft, Zval =  7.0
     Generated by new atomic code, or converted to UPF format
     Using radial grid of  799 points,  4 beta functions with:
                l(1) =   0
                l(2) =   0
                l(3) =   1
                l(4) =   1
     Q(r) pseudized with  8 coefficients,  rinner =    0.950   0.950   0.950

     atomic species   valence    mass     pseudopotential
        Li             3.00     6.94000     Li( 1.00)
        Mn            15.00    54.93804     Mn( 1.00)
        F              7.00    18.99840     F ( 1.00)

     No symmetry found

                                    s                        frac. trans.

      isym =  1     identity

 cryst.   s( 1) = (     1          0          0      )
                  (     0          1          0      )
                  (     0          0          1      )

 cart.    s( 1) = (  1.0000000 -0.0000000  0.0000000 )
                  (  0.0000000  1.0000000  0.0000000 )
                  (  0.0000000  0.0000000  1.0000000 )

   Cartesian axes

     site n.     atom                  positions (alat units)
         1           Li  tau(   1) = (   0.9376989   0.2628853   0.5355668  )
         2           Li  tau(   2) = (   0.6428501   0.7315269   0.5355668  )
         3           Li  tau(   3) = (   0.9376988   0.5899590   0.0888191  )
         4           Mn  tau(   4) = (   0.0028060   0.0017654   0.0012925  )
         5           F   tau(   5) = (   1.2151029   0.4028399   0.6743010  )
         6           F   tau(   6) = (   0.8890848   0.9210230   0.6743010  )
         7           F   tau(   7) = (   1.2151029   0.7644896   0.1803264  )
         8           F   tau(   8) = (   1.3938481   0.8769482   0.6420329  )
         9           F   tau(   9) = (   0.6690142   0.7723335   0.1968011  )
        10           F   tau(  10) = (   0.6690143   0.4209145   0.6768018  )
        11           F   tau(  11) = (   0.9858096   0.2688093   0.1968011  )

   Crystallographic axes

     site n.     atom                  positions (cryst. coord.)
         1           Li  tau(   1) = (  0.6232160  0.1033550  0.6232160  )
         2           Li  tau(   2) = (  0.1033550  0.6232160  0.6232160  )
         3           Li  tau(   3) = (  0.6232160  0.6232160  0.1033550  )
         4           Mn  tau(   4) = (  0.0015040  0.0015040  0.0015040  )
         5           F   tau(   5) = (  0.7846550  0.2098380  0.7846550  )
         6           F   tau(   6) = (  0.2098380  0.7846550  0.7846550  )
         7           F   tau(   7) = (  0.7846550  0.7846550  0.2098380  )
         8           F   tau(   8) = (  0.7471060  0.7471060  0.7471060  )
         9           F   tau(   9) = (  0.2290090  0.7875650  0.2290090  )
        10           F   tau(  10) = (  0.2290090  0.2290090  0.7875650  )
        11           F   tau(  11) = (  0.7875650  0.2290090  0.2290090  )

     number of k points=     1  Methfessel-Paxton smearing, width (Ry)=  0.0010
                       cart. coord. in units 2pi/alat
        k(    1) = (   0.0000000   0.0000000   0.0000000), wk =   2.0000000

                       cryst. coord.
        k(    1) = (   0.0000000   0.0000000   0.0000000), wk =   2.0000000

     Check: negative core charge=   -0.000009

     Initial potential from superposition of free atoms

     starting charge      71.1477, renormalised to      73.0000
     Starting wfcs are   56 randomized atomic wfcs

     Self-consistent Calculation

     iteration #  1     ecut=    30.00 Ry     beta= 0.70
     Davidson diagonalization with overlap

     ethr =  1.00E-02,  avg # of iterations =  2.0

     total energy              =    -588.41016037 Ry
     estimated scf accuracy    <       9.67086730 Ry

[...]

     negative rho (up, down):  3.868E-07 0.000E+00

[...]

     total energy              =    -595.65036977 Ry
     estimated scf accuracy    <       0.00000184 Ry

     iteration # 35     ecut=    30.00 Ry     beta= 0.70
     Davidson diagonalization with overlap

     ethr =  2.53E-09,  avg # of iterations =  1.0

[...]

     End of self-consistent calculation

          k = 0.0000 0.0000 0.0000 (  1376 PWs)   bands (ev):

   -79.6451 -48.3571 -48.3135 -48.3134 -42.2304 -42.2121 -42.2121 -21.8907
   -21.4142 -21.4142 -21.3159 -21.3080 -21.3079 -19.7791  -4.9975  -4.5723
    -4.5722  -4.1760  -4.1759  -4.1370  -3.8430  -3.8430  -3.6387  -2.6098
    -2.3480  -2.3480  -2.2154  -2.2154  -2.1728  -1.6264  -1.6264  -1.6082
    -1.2891  -1.2891  -0.7745   0.8257   0.8257   0.8267   3.0526   3.0526
     6.2527   9.9106  11.1166  11.4340

     occupation numbers
     1.0000   1.0000   1.0000   1.0000   1.0000   1.0000   1.0000   1.0000
     1.0000   1.0000   1.0000   1.0000   1.0000   1.0000   1.0000   1.0000
     1.0000   1.0000   1.0000   1.0000   1.0000   1.0000   1.0000   1.0000
     1.0000   1.0000   1.0000   1.0000   1.0000   1.0000   1.0000   1.0000
     1.0000   1.0000   1.0000   0.5195   0.5190   0.4615  -0.0000  -0.0000
    -0.0000  -0.0000  -0.0000  -0.0000

     the Fermi energy is     0.8260 ev

!    total energy              =    -595.65037066 Ry
     estimated scf accuracy    <       0.00000014 Ry
     smearing contrib. (-TS)   =      -0.00084366 Ry
     internal energy E=F+TS    =    -595.64952700 Ry

     The total energy is F=E-TS. E is the sum of the following terms:
     one-electron contribution =    -504.28085336 Ry
     hartree contribution      =     275.60078428 Ry
     xc contribution           =    -102.22074746 Ry
     ewald contribution        =    -264.74871047 Ry

     convergence has been achieved in  35 iterations

     negative rho (up, down):  4.081E-06 0.000E+00

     Forces acting on atoms (cartesian axes, Ry/au):

     atom    1 type  1   force =    -0.00052722   -0.00376067    0.00084885
     atom    2 type  1   force =    -0.00361884    0.00114996    0.00084471
     atom    3 type  1   force =    -0.00051534   -0.00032083   -0.00384118
     atom    4 type  2   force =    -0.00958313   -0.00603425   -0.00445058
     atom    5 type  3   force =     0.01160133   -0.01449076    0.01225284
     atom    6 type  3   force =    -0.00804281    0.01674367    0.01226393
     atom    7 type  3   force =     0.01154242    0.00726058   -0.01746882
     atom    8 type  3   force =     0.00166239    0.00104815    0.00076302
     atom    9 type  3   force =    -0.00262305    0.00424681   -0.00307671
     atom   10 type  3   force =    -0.00259082   -0.00162922    0.00494938
     atom   11 type  3   force =     0.00269507   -0.00421344   -0.00308542
     The non-local contrib.  to forces
     atom    1 type  1   force =    -0.02079124    0.10658582   -0.04749901
     atom    2 type  1   force =     0.08708589   -0.06487553   -0.04749913
     atom    3 type  1   force =    -0.02079603   -0.01308184    0.11595470
     atom    4 type  2   force =    -0.02920356   -0.01837969   -0.01349355
     atom    5 type  3   force =     0.52361042   -0.63615140    0.54719375
     atom    6 type  3   force =    -0.34683720    0.74738465    0.54720061
     atom    7 type  3   force =     0.52356153    0.32940722   -0.77170560
     atom    8 type  3   force =     0.35134672    0.22105671    0.16184618
     atom    9 type  3   force =    -0.43628645    0.13218214   -0.32982330
     atom   10 type  3   force =    -0.43625911   -0.27447218    0.22561679
     atom   11 type  3   force =    -0.06967761   -0.45052411   -0.32983412
     The ionic contribution  to forces
     atom    1 type  1   force =    -0.88109006    2.05030633   -1.23122213
     atom    2 type  1   force =     1.46693608   -1.68171766   -1.23122213
     atom    3 type  1   force =    -0.88109056   -0.55434361    2.32645006
     atom    4 type  2   force =     2.59606372    1.63332966    1.19579554
     atom    5 type  3   force =   -11.37153415    9.53395174  -10.52626236
     atom    6 type  3   force =     3.67265975  -14.37774653  -10.52626236
     atom    7 type  3   force =   -11.37153507   -7.15447212   12.26833505
     atom    8 type  3   force =    -3.52117919   -2.21537182   -1.62192183
     atom    9 type  3   force =    10.52377586   -5.89234971    8.81277997
     atom   10 type  3   force =    10.52377721    6.62109998   -8.27924978
     atom   11 type  3   force =    -0.75678358   12.03731374    8.81277997
     The local contribution  to forces
     atom    1 type  1   force =     0.90134447   -2.16063445    1.27958664
     atom    2 type  1   force =    -1.55763509    1.74772423    1.27957323
     atom    3 type  1   force =     0.90141128    0.56713742   -2.44622523
     atom    4 type  2   force =    -2.58074371   -1.62368389   -1.18864753
     atom    5 type  3   force =    10.85956454   -8.91226338    9.99133220
     atom    6 type  3   force =    -3.33382059   13.64712018    9.99132600
     atom    7 type  3   force =    10.85960504    6.83238608  -11.51409000
     atom    8 type  3   force =     3.17150515    1.99537134    1.46084231
     atom    9 type  3   force =   -10.09011287    5.76439037   -8.48602215
     atom   10 type  3   force =   -10.09016981   -6.34829819    8.05860614
     atom   11 type  3   force =     0.82912969  -11.59097921   -8.48600659
     The core correction contribution to forces
     atom    1 type  1   force =     0.00000000    0.00000000    0.00000000
     atom    2 type  1   force =     0.00000000    0.00000000    0.00000000
     atom    3 type  1   force =     0.00000000    0.00000000    0.00000000
     atom    4 type  2   force =     0.00429478    0.00270233    0.00197999
     atom    5 type  3   force =     0.00000000    0.00000000    0.00000000
     atom    6 type  3   force =     0.00000000    0.00000000    0.00000000
     atom    7 type  3   force =     0.00000000    0.00000000    0.00000000
     atom    8 type  3   force =     0.00000000    0.00000000    0.00000000
     atom    9 type  3   force =     0.00000000    0.00000000    0.00000000
     atom   10 type  3   force =     0.00000000    0.00000000    0.00000000
     atom   11 type  3   force =     0.00000000    0.00000000    0.00000000
     The Hubbard contrib.    to forces
     atom    1 type  1   force =     0.00000000    0.00000000    0.00000000
     atom    2 type  1   force =     0.00000000    0.00000000    0.00000000
     atom    3 type  1   force =     0.00000000    0.00000000    0.00000000
     atom    4 type  2   force =     0.00000000    0.00000000    0.00000000
     atom    5 type  3   force =     0.00000000    0.00000000    0.00000000
     atom    6 type  3   force =     0.00000000    0.00000000    0.00000000
     atom    7 type  3   force =     0.00000000    0.00000000    0.00000000
     atom    8 type  3   force =     0.00000000    0.00000000    0.00000000
     atom    9 type  3   force =     0.00000000    0.00000000    0.00000000
     atom   10 type  3   force =     0.00000000    0.00000000    0.00000000
     atom   11 type  3   force =     0.00000000    0.00000000    0.00000000
     The SCF correction term to forces
     atom    1 type  1   force =     0.00002560   -0.00000722   -0.00000734
     atom    2 type  1   force =     0.00001025    0.00003008    0.00000205
     atom    3 type  1   force =    -0.00002405   -0.00002165   -0.00001140
     atom    4 type  2   force =     0.00002162    0.00000849   -0.00007573
     atom    5 type  3   force =    -0.00002349   -0.00001657   -0.00000143
     atom    6 type  3   force =    -0.00002879   -0.00000349    0.00000898
     atom    7 type  3   force =    -0.00007309   -0.00004944    0.00000105
     atom    8 type  3   force =     0.00000569    0.00000308    0.00000568
     atom    9 type  3   force =     0.00001639    0.00003517   -0.00000192
     atom   10 type  3   force =     0.00007686    0.00005233   -0.00001445
     atom   11 type  3   force =     0.00004255   -0.00001270   -0.00001536

     Total force =     0.042213     Total SCF correction =     0.000177

     Computing stress (Cartesian axis) and pressure

     negative rho (up, down):  4.081E-06 0.000E+00
          total   stress  (Ry/bohr**3)                   (kbar)     P=     -157.87
  -0.00102306   0.00006793   0.00005034         -150.50        9.99        7.41
   0.00006793  -0.00108812   0.00003177            9.99     -160.07        4.67
   0.00005034   0.00003177  -0.00110829            7.41        4.67     -163.03

     kinetic stress (kbar)  17577.51     23.26     16.83
                               23.26  17555.12     10.56
                               16.83     10.56  17548.46

     local   stress (kbar) -16884.23   -650.44   -475.41
                             -650.44 -16259.40   -298.96
                             -475.41   -298.96 -16070.02

     nonloc. stress (kbar)   2948.97      3.66      2.49
                                3.66   2945.40      1.54
                                2.49      1.54   2944.46

     hartree stress (kbar)  13939.74    403.87    295.36
                              403.87  13551.82    185.77
                              295.36    185.77  13434.11

     exc-cor stress (kbar)  -4264.26     -0.96     -0.70
                               -0.96  -4263.35     -0.44
                               -0.70     -0.44  -4263.07

     corecor stress (kbar)   -533.49      0.10      0.08
                                0.10   -533.58      0.05
                                0.08      0.05   -533.61

     ewald   stress (kbar) -12934.73    230.50    168.76
                              230.50 -13156.08    106.17
                              168.76    106.17 -13223.37

     hubbard stress (kbar)      0.00      0.00      0.00
                                0.00      0.00      0.00
                                0.00      0.00      0.00

     DFT-D   stress (kbar)      0.00      0.00      0.00
                                0.00      0.00      0.00
                                0.00      0.00      0.00

     XDM     stress (kbar)      0.00      0.00      0.00
                                0.00      0.00      0.00
                                0.00      0.00      0.00

     dft-nl  stress (kbar)      0.00      0.00      0.00
                                0.00      0.00      0.00
                                0.00      0.00      0.00

     TS-vdW  stress (kbar)      0.00      0.00      0.00
                                0.00      0.00      0.00
                                0.00      0.00      0.00

[...]

                                0.00      0.00      0.00

     Writing all to output data dir new_calculations/myprefix.save/

     General routines

     Parallel routines

   This run was terminated on:  12:42:26  20May2023

   JOB DONE.