     Program PWSCF v.7.0 starts on 20May2023 at 21:26:26

     Reading input from espresso_14763.pwi
Warning: card &CELL ignored
Warning: card / ignored

     Current dimensions of program PWSCF are:
     Max number of different atomic species (ntypx) = 10
     Max number of k-points (npk) =  40000
     Max angular momentum in pseudopotentials (lmaxx) =  4

     gamma-point specific algorithms are used
     Message from routine setup:
     using ibrav=0 with symmetry is DISCOURAGED, use correct ibrav instead

     Subspace diagonalization in iterative solution of the eigenvalue problem:
     a serial algorithm will be used

     Using Slab Decomposition

     bravais-lattice index     =            0
     lattice parameter (alat)  =       8.4678  a.u.
     unit-cell volume          =    2928.6566 (a.u.)^3
     number of atoms/cell      =           12
     number of atomic types    =            2
     number of electrons       =       126.00
     number of Kohn-Sham states=           76
     kinetic-energy cutoff     =      30.0000  Ry
     charge density cutoff     =     240.0000  Ry
     scf convergence threshold =      1.0E-06
     mixing beta               =       0.7000
     number of iterations used =            8  plain     mixing
     Exchange-correlation= SLA  PW   PBE  PBE
                           (   1   4   3   4   0   0   0)

     celldm(1)=   8.467767  celldm(2)=   0.000000  celldm(3)=   0.000000
     celldm(4)=   0.000000  celldm(5)=   0.000000  celldm(6)=   0.000000

     crystal axes: (cart. coord. in units of alat)
               a(1) = (   1.000000   0.000000   0.000000 )
               a(2) = (  -0.500000   0.866025   0.000000 )
               a(3) = (   0.000000   0.000000   5.569690 )

     reciprocal axes: (cart. coord. in units 2 pi/alat)
               b(1) = (  1.000000  0.577350  0.000000 )
               b(2) = (  0.000000  1.154700  0.000000 )
               b(3) = (  0.000000  0.000000  0.179543 )

     PseudoPot. # 1 for Bi read from file:
     /home/pragov/projects/rrg-bengioy-ad/pragov/crystal_structure_design/SSSP/Bi_pbe_v1.uspp.F.UPF
     MD5 check sum: cceb9f28ec65b6d7ff33140f5b0b1758
     Pseudo is Ultrasoft + core correction, Zval = 15.0
     Generated by new atomic code, or converted to UPF format
     Using radial grid of  899 points,  6 beta functions with:
                l(1) =   0
                l(2) =   0
                l(3) =   1
                l(4) =   1
                l(5) =   2
                l(6) =   2
     Q(r) pseudized with  6 coefficients,  rinner =    1.000   1.000   1.000
                                                       1.000   1.000

     PseudoPot. # 2 for Te read from file:
     /home/pragov/projects/rrg-bengioy-ad/pragov/crystal_structure_design/SSSP/Te_pbe_v1.uspp.F.UPF
     MD5 check sum: c319670d6894cc26e93307826a071b75
     Pseudo is Ultrasoft + core correction, Zval =  6.0
     Generated by new atomic code, or converted to UPF format
     Using radial grid of  891 points,  5 beta functions with:
                l(1) =   0
                l(2) =   0
                l(3) =   1
                l(4) =   1
                l(5) =   2
     Q(r) pseudized with  6 coefficients,  rinner =    1.800   1.800   1.800
                                                       1.800   1.800

     atomic species   valence    mass     pseudopotential
        Bi            15.00   208.98040     Bi( 1.00)
        Te             6.00   127.60000     Te( 1.00)

     12 Sym. Ops., with inversion, found

                                    s                        frac. trans.

      isym =  1     identity

 cryst.   s( 1) = (     1          0          0      )
                  (     0          1          0      )
                  (     0          0          1      )

 cart.    s( 1) = (  1.0000000 -0.0000000  0.0000000 )
                  (  0.0000000  1.0000000  0.0000000 )
                  (  0.0000000  0.0000000  1.0000000 )

      isym =  2     180 deg rotation - cart. axis [1,0,0]

[...]

      isym =  3     120 deg rotation - cryst. axis [0,0,1]

[...]

      isym =  6     180 deg rotation - cryst. axis [1,1,0]

[...]

      isym =  7     inversion

[...]

      isym =  8     inv. 180 deg rotation - cart. axis [1,0,0]

[...]

      isym =  9     inv. 120 deg rotation - cryst. axis [0,0,1]

 cryst.   s( 9) = (     0         -1          0      )
                  (     1          1          0      )
                  (     0          0         -1      )

 cart.    s( 9) = (  0.4999999  0.8660253  0.0000000 )
                  ( -0.8660255  0.5000001  0.0000000 )
                  (  0.0000000  0.0000000 -1.0000000 )

[...]

 cryst.   s(10) = (     1          1          0      )
                  (    -1          0          0      )
                  (     0          0         -1      )

 cart.    s(10) = (  0.5000001 -0.8660253  0.0000000 )
                  (  0.8660255  0.4999999  0.0000000 )
                  (  0.0000000  0.0000000 -1.0000000 )

[...]

      isym = 12     inv. 180 deg rotation - cryst. axis [1,1,0]

 cryst.   s(12) = (     0         -1          0      )
                  (    -1          0          0      )
                  (     0          0          1      )

 cart.    s(12) = (  0.4999999 -0.8660255  0.0000000 )
                  ( -0.8660255 -0.4999999  0.0000000 )
                  (  0.0000000  0.0000000  1.0000000 )

   Cartesian axes

     site n.     atom                  positions (alat units)
         1           Bi  tau(   1) = (  -0.0000004   0.5773506   1.6207742  )
         2           Bi  tau(   2) = (   0.5000005   0.2886749   3.9489158  )
         3           Bi  tau(   3) = (   0.0000000   0.0000000   4.8529990  )
         4           Bi  tau(   4) = (   0.0000000   0.0000000   0.7166910  )
         5           Bi  tau(   5) = (   0.5000005   0.2886749   2.5975419  )
         6           Bi  tau(   6) = (  -0.0000004   0.5773506   2.9721481  )
         7           Te  tau(   7) = (  -0.0000004   0.5773506   0.3378908  )
         8           Te  tau(   8) = (   0.5000005   0.2886749   5.2317992  )
         9           Te  tau(   9) = (   0.0000000   0.0000000   3.5639834  )
        10           Te  tau(  10) = (   0.0000000   0.0000000   2.0057066  )
        11           Te  tau(  11) = (   0.5000005   0.2886749   1.1714729  )
        12           Te  tau(  12) = (  -0.0000004   0.5773506   4.3982171  )

   Crystallographic axes

     site n.     atom                  positions (cryst. coord.)
         1           Bi  tau(   1) = (  0.3333330  0.6666670  0.2909990  )
         2           Bi  tau(   2) = (  0.6666670  0.3333330  0.7090010  )
         3           Bi  tau(   3) = (  0.0000000  0.0000000  0.8713230  )
         4           Bi  tau(   4) = (  0.0000000  0.0000000  0.1286770  )
         5           Bi  tau(   5) = (  0.6666670  0.3333330  0.4663710  )
         6           Bi  tau(   6) = (  0.3333330  0.6666670  0.5336290  )
         7           Te  tau(   7) = (  0.3333330  0.6666670  0.0606660  )
         8           Te  tau(   8) = (  0.6666670  0.3333330  0.9393340  )
         9           Te  tau(   9) = (  0.0000000  0.0000000  0.6398890  )
        10           Te  tau(  10) = (  0.0000000  0.0000000  0.3601110  )
        11           Te  tau(  11) = (  0.6666670  0.3333330  0.2103300  )
        12           Te  tau(  12) = (  0.3333330  0.6666670  0.7896700  )

     number of k points=     1  Methfessel-Paxton smearing, width (Ry)=  0.0010
                       cart. coord. in units 2pi/alat
        k(    1) = (   0.0000000   0.0000000   0.0000000), wk =   2.0000000

                       cryst. coord.
        k(    1) = (   0.0000000   0.0000000   0.0000000), wk =   2.0000000

     Check: negative core charge=   -0.000002

     Initial potential from superposition of free atoms

     starting charge     119.9984, renormalised to     126.0000

     negative rho (up, down):  2.669E-01 0.000E+00
     Starting wfcs are   78 randomized atomic wfcs

     Self-consistent Calculation

     iteration #  1     ecut=    30.00 Ry     beta= 0.70
     Davidson diagonalization with overlap

     ethr =  1.00E-02,  avg # of iterations = 11.0

     negative rho (up, down):  2.613E-01 0.000E+00

     total energy              =    -852.82176996 Ry
     estimated scf accuracy    <     471.96418070 Ry

[...]

     total energy              =   -1267.80316562 Ry
     estimated scf accuracy    <       0.00000212 Ry

     iteration # 34     ecut=    30.00 Ry     beta= 0.70
     Davidson diagonalization with overlap

     ethr =  1.68E-09,  avg # of iterations =  1.0

[...]

     End of self-consistent calculation

          k = 0.0000 0.0000 0.0000 (  4101 PWs)   bands (ev):

   -15.4205 -15.4205 -15.4197 -15.4197 -15.3421 -15.3414 -15.3401 -15.3401
   -15.3394 -15.3394 -15.2813 -15.2813 -15.2807 -15.2807 -15.2355 -15.2350
   -15.2243 -15.2243 -15.2238 -15.2238 -15.1617 -15.1617 -15.1095 -15.0653
   -15.0653 -14.9698 -14.9038 -14.9038 -14.7919 -14.7919  -5.3441  -5.2607
    -5.0646  -4.7477  -4.7148  -3.1060  -3.0931  -1.8217  -1.6392  -0.9048
    -0.4663  -0.1527   5.1528   5.5132   5.5342   5.8893   5.8893   5.9050
     5.9050   6.0737   6.0758   6.0758   6.0965   6.1613   6.1613   6.5847
     6.5847   6.7565   6.7565   6.8580   6.8580   7.3452   7.6319   7.9953
     8.2737   8.3586   8.3586   8.3754   8.3754   8.7757   9.2321   9.2321
     9.4074   9.4156   9.4156   9.5524

     occupation numbers
     1.0000   1.0000   1.0000   1.0000   1.0000   1.0000   1.0000   1.0000
     1.0000   1.0000   1.0000   1.0000   1.0000   1.0000   1.0000   1.0000
     1.0000   1.0000   1.0000   1.0000   1.0000   1.0000   1.0000   1.0000
     1.0000   1.0000   1.0000   1.0000   1.0000   1.0000   1.0000   1.0000
     1.0000   1.0000   1.0000   1.0000   1.0000   1.0000   1.0000   1.0000
     1.0000   1.0000   1.0000   1.0000   1.0000   1.0000   1.0000   1.0000
     1.0000   1.0000   1.0000   1.0000   1.0000   1.0000   1.0000   1.0000
     1.0000   1.0000   1.0000   1.0000   1.0000   1.0000   1.0000  -0.0000
    -0.0000  -0.0000  -0.0000  -0.0000  -0.0000  -0.0000  -0.0000  -0.0000
    -0.0000  -0.0000  -0.0000  -0.0000

     the Fermi energy is     7.7162 ev

!    total energy              =   -1267.80316549 Ry
     estimated scf accuracy    <       0.00000026 Ry
     smearing contrib. (-TS)   =       0.00000000 Ry
     internal energy E=F+TS    =   -1267.80316549 Ry

     The total energy is F=E-TS. E is the sum of the following terms:
     one-electron contribution =    -519.36767978 Ry
     hartree contribution      =     328.13685842 Ry
     xc contribution           =    -475.27940470 Ry
     ewald contribution        =    -601.29293943 Ry

     convergence has been achieved in  34 iterations

     negative rho (up, down):  2.628E-01 0.000E+00

     Forces acting on atoms (cartesian axes, Ry/au):

     atom    1 type  1   force =    -0.00000000   -0.00000000    0.01045663
     atom    2 type  1   force =     0.00000000    0.00000000   -0.01045663
     atom    3 type  1   force =    -0.00000000    0.00000000    0.00546162
     atom    4 type  1   force =     0.00000000   -0.00000000   -0.00546162
     atom    5 type  1   force =     0.00000000   -0.00000000   -0.00540574
     atom    6 type  1   force =     0.00000000    0.00000000    0.00540574
     atom    7 type  2   force =     0.00000000    0.00000000    0.02841762
     atom    8 type  2   force =    -0.00000000   -0.00000000   -0.02841762
     atom    9 type  2   force =    -0.00000000    0.00000000    0.03262144
     atom   10 type  2   force =     0.00000000   -0.00000000   -0.03262144
     atom   11 type  2   force =     0.00000000    0.00000000    0.00863302
     atom   12 type  2   force =     0.00000000   -0.00000000   -0.00863302
     The non-local contrib.  to forces
     atom    1 type  1   force =    -0.00000000    0.00000000   -0.06218151
     atom    2 type  1   force =     0.00000000    0.00000000    0.06218151
     atom    3 type  1   force =     0.00000000    0.00000000    0.00095592
     atom    4 type  1   force =    -0.00000000   -0.00000000   -0.00095592
     atom    5 type  1   force =    -0.00000000    0.00000000   -0.05136196
     atom    6 type  1   force =    -0.00000000   -0.00000000    0.05136196
     atom    7 type  2   force =    -0.00000000   -0.00000000    0.03217552
     atom    8 type  2   force =     0.00000000    0.00000000   -0.03217552
     atom    9 type  2   force =     0.00000000    0.00000000    0.16754426
     atom   10 type  2   force =     0.00000000    0.00000000   -0.16754426
     atom   11 type  2   force =     0.00000000    0.00000000    0.01746528
     atom   12 type  2   force =    -0.00000000    0.00000000   -0.01746528
     The ionic contribution  to forces
     atom    1 type  1   force =     0.00001110   -0.00000641  -12.31135486
     atom    2 type  1   force =    -0.00001110    0.00000641   12.31135486
     atom    3 type  1   force =     0.00000212   -0.00000123   17.39933576
     atom    4 type  1   force =    -0.00000212    0.00000123  -17.39933576
     atom    5 type  1   force =    -0.00002290    0.00001322  -13.30741571
     atom    6 type  1   force =     0.00002290   -0.00001322   13.30741571
     atom    7 type  2   force =     0.00000575   -0.00000332   -8.58347051
     atom    8 type  2   force =    -0.00000575    0.00000332    8.58347051
     atom    9 type  2   force =     0.00000348   -0.00000201    2.93440393
     atom   10 type  2   force =    -0.00000348    0.00000201   -2.93440393
     atom   11 type  2   force =    -0.00000899    0.00000519   -6.01431107
     atom   12 type  2   force =     0.00000899   -0.00000519    6.01431107
     The local contribution  to forces
     atom    1 type  1   force =    -0.00001162    0.00000489   12.37639732
     atom    2 type  1   force =     0.00001040   -0.00000613  -12.37673711
     atom    3 type  1   force =     0.00000274   -0.00000110  -17.39939000
     atom    4 type  1   force =     0.00000320   -0.00000067   17.39914815
     atom    5 type  1   force =     0.00001828   -0.00001281   13.33617518
     atom    6 type  1   force =    -0.00001735    0.00000958  -13.33467246
     atom    7 type  2   force =     0.00000116    0.00000430    8.58443724
     atom    8 type  2   force =     0.00000372   -0.00000215   -8.58444286
     atom    9 type  2   force =    -0.00000191    0.00000107   -3.08333432
     atom   10 type  2   force =     0.00000328   -0.00000428    3.08387561
     atom   11 type  2   force =     0.00001140   -0.00000157    6.00380707
     atom   12 type  2   force =    -0.00000918    0.00000613   -6.00438507
     The core correction contribution to forces
     atom    1 type  1   force =    -0.00000020   -0.00000004    0.00806965
     atom    2 type  1   force =     0.00000007   -0.00000005   -0.00806528
     atom    3 type  1   force =     0.00000018   -0.00000007    0.00392274
     atom    4 type  1   force =     0.00000005    0.00000005   -0.00390916
     atom    5 type  1   force =    -0.00000016    0.00000005    0.01765982
     atom    6 type  1   force =     0.00000012   -0.00000013   -0.01765755
     atom    7 type  2   force =    -0.00000060   -0.00000024   -0.00448348
     atom    8 type  2   force =     0.00000009   -0.00000005    0.00446783
     atom    9 type  2   force =    -0.00000009    0.00000008    0.01399413
     atom   10 type  2   force =    -0.00000012    0.00000020   -0.01399239
     atom   11 type  2   force =    -0.00000031   -0.00000037    0.00153281
     atom   12 type  2   force =     0.00000001   -0.00000005   -0.00155063
     The Hubbard contrib.    to forces
     atom    1 type  1   force =     0.00000000    0.00000000    0.00000000
     atom    2 type  1   force =     0.00000000    0.00000000    0.00000000
     atom    3 type  1   force =     0.00000000    0.00000000    0.00000000
     atom    4 type  1   force =     0.00000000    0.00000000    0.00000000
     atom    5 type  1   force =     0.00000000    0.00000000    0.00000000
     atom    6 type  1   force =     0.00000000    0.00000000    0.00000000
     atom    7 type  2   force =     0.00000000    0.00000000    0.00000000
     atom    8 type  2   force =     0.00000000    0.00000000    0.00000000
     atom    9 type  2   force =     0.00000000    0.00000000    0.00000000
     atom   10 type  2   force =     0.00000000    0.00000000    0.00000000
     atom   11 type  2   force =     0.00000000    0.00000000    0.00000000
     atom   12 type  2   force =     0.00000000    0.00000000    0.00000000
     The SCF correction term to forces
     atom    1 type  1   force =     0.00000167    0.00000083   -0.00044454
     atom    2 type  1   force =    -0.00000179    0.00000267    0.00083881
     atom    3 type  1   force =    -0.00000409    0.00000176    0.00065893
     atom    4 type  1   force =    -0.00000144   -0.00000226   -0.00038720
     atom    5 type  1   force =     0.00000108    0.00000029   -0.00041949
     atom    6 type  1   force =    -0.00000318   -0.00000056   -0.00099836
     atom    7 type  2   force =     0.00000027    0.00000080   -0.00018225
     atom    8 type  2   force =     0.00000022   -0.00000000    0.00032133
     atom    9 type  2   force =     0.00000016   -0.00000026   -0.00000237
     atom   10 type  2   force =     0.00000052    0.00000027   -0.00057229
     atom   11 type  2   force =     0.00000037    0.00000013    0.00021878
     atom   12 type  2   force =     0.00000050   -0.00000060    0.00053674

     Total force =     0.065033     Total SCF correction =     0.001860

     Computing stress (Cartesian axis) and pressure

     negative rho (up, down):  2.628E-01 0.000E+00
          total   stress  (Ry/bohr**3)                   (kbar)     P=      223.98
   0.00233179  -0.00000000   0.00000000          343.02       -0.00        0.00
  -0.00000000   0.00233179   0.00000000           -0.00      343.02        0.00
   0.00000000   0.00000000  -0.00009579            0.00        0.00      -14.09

     kinetic stress (kbar)   4055.65     -0.00      0.00
                               -0.00   4055.65      0.00
                                0.00      0.00   3726.68

     local   stress (kbar)  -6342.30     -0.00     -0.00
                               -0.00  -6342.30      0.00
                               -0.00      0.00   9884.85

     nonloc. stress (kbar)   5361.25     -0.00      0.00
                               -0.00   5361.25      0.00
                                0.00      0.00   5413.32

     hartree stress (kbar)   8093.60      0.00      0.00
                                0.00   8093.60     -0.00
                                0.00     -0.00    294.96

     exc-cor stress (kbar)  14121.03     -0.00      0.00
                               -0.00  14121.03     -0.00
                                0.00     -0.00  14122.49

     corecor stress (kbar) -17718.46     -0.00      0.00
                               -0.00 -17718.46      0.00
                                0.00      0.00 -17709.22

     ewald   stress (kbar)  -7227.75      0.00      0.00
                                0.00  -7227.75     -0.00
                                0.00     -0.00 -15747.17

     hubbard stress (kbar)      0.00      0.00      0.00
                                0.00      0.00      0.00
                                0.00      0.00      0.00

     DFT-D   stress (kbar)      0.00      0.00      0.00
                                0.00      0.00      0.00
                                0.00      0.00      0.00

     XDM     stress (kbar)      0.00      0.00      0.00
                                0.00      0.00      0.00
                                0.00      0.00      0.00

     dft-nl  stress (kbar)      0.00      0.00      0.00
                                0.00      0.00      0.00
                                0.00      0.00      0.00

     TS-vdW  stress (kbar)      0.00      0.00      0.00
                                0.00      0.00      0.00
                                0.00      0.00      0.00

[...]

                                0.00      0.00      0.00

     Writing all to output data dir new_calculations/myprefix.save/

     General routines

     Parallel routines

   This run was terminated on:  21:27:23  20May2023

   JOB DONE.