     Program PWSCF v.7.0 starts on 21May2023 at  4:13:46

     Reading input from espresso_7950.pwi
Warning: card &CELL ignored
Warning: card / ignored

     Current dimensions of program PWSCF are:
     Max number of different atomic species (ntypx) = 10
     Max number of k-points (npk) =  40000
     Max angular momentum in pseudopotentials (lmaxx) =  4
     file O.pbe-n-kjpaw_psl.0.1.UPF: wavefunction(s)  2P renormalized

     gamma-point specific algorithms are used
     Message from routine setup:
     using ibrav=0 with symmetry is DISCOURAGED, use correct ibrav instead

     Subspace diagonalization in iterative solution of the eigenvalue problem:
     a serial algorithm will be used

     Using Slab Decomposition

     bravais-lattice index     =            0
     lattice parameter (alat)  =      14.0324  a.u.
     unit-cell volume          =    1921.8911 (a.u.)^3
     number of atoms/cell      =           18
     number of atomic types    =            5
     number of electrons       =       164.00
     number of Kohn-Sham states=           98
     kinetic-energy cutoff     =      30.0000  Ry
     charge density cutoff     =     240.0000  Ry
     scf convergence threshold =      1.0E-06
     mixing beta               =       0.7000
     number of iterations used =            8  plain     mixing
     Exchange-correlation=  SLA  PW   PBX  PBC
                           (   1   4   3   4   0   0   0)

     celldm(1)=  14.032353  celldm(2)=   0.000000  celldm(3)=   0.000000
     celldm(4)=   0.000000  celldm(5)=   0.000000  celldm(6)=   0.000000

     crystal axes: (cart. coord. in units of alat)
               a(1) = (   1.000000   0.000000   0.000000 )
               a(2) = (   0.031406   0.999507   0.000000 )
               a(3) = (  -0.513556  -0.501969   0.695908 )

     reciprocal axes: (cart. coord. in units 2 pi/alat)
               b(1) = (  1.000000 -0.031422  0.715301 )
               b(2) = (  0.000000  1.000494  0.721671 )
               b(3) = (  0.000000  0.000000  1.436972 )

     PseudoPot. # 1 for Rb read from file:
     /home/pragov/projects/rrg-bengioy-ad/pragov/crystal_structure_design/SSSP/Rb_ONCV_PBE-1.0.oncvpsp.upf
     MD5 check sum: 55a5172d6bfbce6759a58e35d43f6aa9
     Pseudo is Norm-conserving, Zval =  9.0
     Generated using ONCVPSP code by D. R. Hamann
     Using radial grid of 2308 points,  6 beta functions with:
                l(1) =   0
                l(2) =   0
                l(3) =   1
                l(4) =   1
                l(5) =   2
                l(6) =   2

     PseudoPot. # 2 for Ti read from file:
     /home/pragov/projects/rrg-bengioy-ad/pragov/crystal_structure_design/SSSP/ti_pbe_v1.4.uspp.F.UPF
     MD5 check sum: 88a00a6731bd790ddea75d31a80cb452
     Pseudo is Ultrasoft + core correction, Zval = 12.0
     Generated by new atomic code, or converted to UPF format
     Using radial grid of  851 points,  6 beta functions with:
                l(1) =   0
                l(2) =   0
                l(3) =   1
                l(4) =   1
                l(5) =   2
                l(6) =   2
     Q(r) pseudized with  6 coefficients,  rinner =    1.000   1.000   1.000
                                                       1.000   1.000

     PseudoPot. # 3 for Zn read from file:
     /home/pragov/projects/rrg-bengioy-ad/pragov/crystal_structure_design/SSSP/Zn_pbe_v1.uspp.F.UPF
     MD5 check sum: df62231357ef9e81f77b2b3087fa5675
     Pseudo is Ultrasoft, Zval = 20.0
     Generated by new atomic code, or converted to UPF format
     Using radial grid of  943 points,  6 beta functions with:
                l(1) =   0
                l(2) =   0
                l(3) =   1
                l(4) =   1
                l(5) =   2
                l(6) =   2
     Q(r) pseudized with  8 coefficients,  rinner =    1.100   1.100   1.100
                                                       1.100   1.100

     PseudoPot. # 4 for O  read from file:
     /home/pragov/projects/rrg-bengioy-ad/pragov/crystal_structure_design/SSSP/O.pbe-n-kjpaw_psl.0.1.UPF
     MD5 check sum: 0234752ac141de4415c5fc33072bef88
     Pseudo is Projector augmented-wave + core cor, Zval =  6.0
     Generated using "atomic" code by A. Dal Corso  v.5.0.99 svn rev. 10869
     Shape of augmentation charge: BESSEL
     Using radial grid of 1095 points,  4 beta functions with:
                l(1) =   0
                l(2) =   0
                l(3) =   1
                l(4) =   1
     Q(r) pseudized with 0 coefficients

     PseudoPot. # 5 for F  read from file:
     /home/pragov/projects/rrg-bengioy-ad/pragov/crystal_structure_design/SSSP/f_pbe_v1.4.uspp.F.UPF
     MD5 check sum: 4c38b6a325caf53ec0e86aed9459de46
     Pseudo is Ultrasoft, Zval =  7.0
     Generated by new atomic code, or converted to UPF format
     Using radial grid of  799 points,  4 beta functions with:
                l(1) =   0
                l(2) =   0
                l(3) =   1
                l(4) =   1
     Q(r) pseudized with  8 coefficients,  rinner =    0.950   0.950   0.950

     atomic species   valence    mass     pseudopotential
        Rb             9.00    85.46780     Rb( 1.00)
        Ti            12.00    47.86700     Ti( 1.00)
        Zn            20.00    65.38000     Zn( 1.00)
        O              6.00    15.99900     O ( 1.00)
        F              7.00    18.99840     F ( 1.00)

      2 Sym. Ops., with inversion, found

                                    s                        frac. trans.

      isym =  1     identity

 cryst.   s( 1) = (     1          0          0      )
                  (     0          1          0      )
                  (     0          0          1      )

 cart.    s( 1) = (  1.0000000 -0.0000000  0.0000000 )
                  (  0.0000000  1.0000000 -0.0000000 )
                  (  0.0000000  0.0000000  1.0000000 )

      isym =  2     inversion

 cryst.   s( 2) = (    -1          0          0      )
                  (     0         -1          0      )
                  (     0          0         -1      )

 cart.    s( 2) = ( -1.0000000  0.0000000 -0.0000000 )
                  (  0.0000000 -1.0000000  0.0000000 )
                  (  0.0000000  0.0000000 -1.0000000 )

   Cartesian axes

     site n.     atom                  positions (alat units)
         1           Rb  tau(   1) = (  -0.2479742  -0.0012587   0.5219307  )
         2           Rb  tau(   2) = (   0.7658242   0.4987967   0.1739769  )
         3           Ti  tau(   3) = (   0.5000000   0.0000000   0.0000000  )
         4           Ti  tau(   4) = (   0.2589250   0.2487690   0.3479538  )
         5           Zn  tau(   5) = (   0.0000000   0.0000000   0.0000000  )
         6           Zn  tau(   6) = (   0.2432219  -0.2509844   0.3479538  )
         7           O   tau(   7) = (   0.4148387   0.1586666   0.1739769  )
         8           O   tau(   8) = (   0.1030113   0.3388714   0.5219307  )
         9           F   tau(   9) = (   0.7397095   0.0137157   0.1095992  )
        10           F   tau(  10) = (   0.4422450  -0.3014586   0.5219307  )
        11           F   tau(  11) = (   0.0401620  -0.2963258   0.5394272  )
        12           F   tau(  12) = (   0.4661535   0.2960023   0.5044342  )
        13           F   tau(  13) = (   0.2376877   0.0096085   0.4575530  )
        14           F   tau(  14) = (   0.2801623   0.4879295   0.2383546  )
        15           F   tau(  15) = (   0.0516964   0.2015357   0.1914734  )
        16           F   tau(  16) = (   0.4776880   0.7938638   0.1564804  )
        17           F   tau(  17) = (  -0.2218596   0.4838223   0.5863084  )
        18           F   tau(  18) = (   0.0756050   0.7989965   0.1739769  )

   Crystallographic axes

     site n.     atom                  positions (cryst. coord.)
         1           Rb  tau(   1) = (  0.1254030  0.3754030  0.7500000  )
         2           Rb  tau(   2) = (  0.8745970  0.6245970  0.2500000  )
         3           Ti  tau(   3) = (  0.5000000  0.0000000  0.0000000  )
         4           Ti  tau(   4) = (  0.5000000  0.5000000  0.5000000  )
         5           Zn  tau(   5) = (  0.0000000  0.0000000  0.0000000  )
         6           Zn  tau(   6) = (  0.5000000  0.0000000  0.5000000  )
         7           O   tau(   7) = (  0.5342990  0.2842990  0.2500000  )
         8           O   tau(   8) = (  0.4657010  0.7157010  0.7500000  )
         9           F   tau(   9) = (  0.8176750  0.0928170  0.1574910  )
        10           F   tau(  10) = (  0.8250550  0.0750550  0.7500000  )
        11           F   tau(  11) = (  0.4353260  0.0928170  0.7751420  )
        12           F   tau(  12) = (  0.8176750  0.6601840  0.7248580  )
        13           F   tau(  13) = (  0.5646740  0.3398160  0.6574910  )
        14           F   tau(  14) = (  0.4353260  0.6601840  0.3425090  )
        15           F   tau(  15) = (  0.1823250  0.3398160  0.2751420  )
        16           F   tau(  16) = (  0.5646740  0.9071830  0.2248580  )
        17           F   tau(  17) = (  0.1823250  0.9071830  0.8425090  )
        18           F   tau(  18) = (  0.1749450  0.9249450  0.2500000  )

     number of k points=     1  Methfessel-Paxton smearing, width (Ry)=  0.0010
                       cart. coord. in units 2pi/alat
        k(    1) = (   0.0000000   0.0000000   0.0000000), wk =   2.0000000

                       cryst. coord.
        k(    1) = (   0.0000000   0.0000000   0.0000000), wk =   2.0000000

     Check: negative core charge=   -0.000005

     Initial potential from superposition of free atoms

     starting charge     161.9501, renormalised to     164.0000

     negative rho (up, down):  2.347E-03 0.000E+00
     Starting wfcs are  104 randomized atomic wfcs
     Checking if some PAW data can be deallocated...

     Self-consistent Calculation

     iteration #  1     ecut=    30.00 Ry     beta= 0.70
     Davidson diagonalization with overlap

     ethr =  1.00E-02,  avg # of iterations =  5.0

     total energy              =   -1642.39369745 Ry
     estimated scf accuracy    <     219.47011861 Ry

[...]

     negative rho (up, down):  3.973E-04 0.000E+00

[...]

     total energy              =   -1830.43259866 Ry
     estimated scf accuracy    <       0.00000724 Ry

     iteration # 22     ecut=    30.00 Ry     beta= 0.70
     Davidson diagonalization with overlap

     ethr =  4.42E-09,  avg # of iterations =  2.0

[...]

     End of self-consistent calculation

          k = 0.0000 0.0000 0.0000 (  2649 PWs)   bands (ev):

  -119.6948-119.6942 -73.8808 -73.8756 -73.8468 -73.8380 -73.7953 -73.7878
   -53.2202 -53.2166 -29.5813 -29.5758 -29.5693 -29.5639 -29.4246 -29.3041
   -21.3123 -21.2978 -18.7221 -18.5208 -18.4996 -18.3452 -18.2638 -18.2594
   -18.1917 -18.1851 -17.8526 -17.8144 -12.5099 -11.4805  -5.4385  -5.4362
    -5.4185  -5.3506  -5.3483  -5.3380  -2.5128  -2.2754  -2.0602  -1.9773
    -1.9098  -1.4865  -1.4084  -1.3031  -1.2118  -0.7993  -0.7992  -0.6694
    -0.6595  -0.6336  -0.4826  -0.4423  -0.3697  -0.2085  -0.2032  -0.0901
    -0.0862  -0.0799  -0.0590  -0.0035   0.2190   0.2633   0.4359   0.5045
     0.5535   0.7159   0.7634   0.9252   0.9333   0.9504   1.0263   1.2017
     1.2848   1.4510   1.6368   1.7109   1.9720   2.4966   2.8670   3.1148
     3.1746   3.2903   6.3225   6.3276   6.4657   6.5610   7.3263   7.8617
     8.1777   8.3011   8.7712   9.2987  10.9262  10.9461  11.1204  11.5534
    11.6414  11.7651

     occupation numbers
     1.0000   1.0000   1.0000   1.0000   1.0000   1.0000   1.0000   1.0000
     1.0000   1.0000   1.0000   1.0000   1.0000   1.0000   1.0000   1.0000
     1.0000   1.0000   1.0000   1.0000   1.0000   1.0000   1.0000   1.0000
     1.0000   1.0000   1.0000   1.0000   1.0000   1.0000   1.0000   1.0000
     1.0000   1.0000   1.0000   1.0000   1.0000   1.0000   1.0000   1.0000
     1.0000   1.0000   1.0000   1.0000   1.0000   1.0000   1.0000   1.0000
     1.0000   1.0000   1.0000   1.0000   1.0000   1.0000   1.0000   1.0000
     1.0000   1.0000   1.0000   1.0000   1.0000   1.0000   1.0000   1.0000
     1.0000   1.0000   1.0000   1.0000   1.0000   1.0000   1.0000   1.0000
     1.0000   1.0000   1.0000   1.0000   1.0000   1.0000   1.0000   1.0000
     1.0000   1.0000  -0.0000  -0.0000  -0.0000  -0.0000  -0.0000  -0.0000
    -0.0000  -0.0000  -0.0000  -0.0000  -0.0000  -0.0000  -0.0000  -0.0000
    -0.0000  -0.0000

     the Fermi energy is     3.6679 ev

!    total energy              =   -1830.43259983 Ry
     estimated scf accuracy    <       0.00000030 Ry
     smearing contrib. (-TS)   =       0.00000000 Ry
     internal energy E=F+TS    =   -1830.43259983 Ry

     The total energy is F=E-TS. E is the sum of the following terms:
     one-electron contribution =   -1688.41743365 Ry
     hartree contribution      =     907.95551007 Ry
     xc contribution           =    -244.02223809 Ry
     ewald contribution        =    -786.90662915 Ry
     one-center paw contrib.   =     -19.04180901 Ry
      -> PAW hartree energy AE =      60.49129246 Ry
      -> PAW hartree energy PS =     -60.27716510 Ry
      -> PAW xc energy AE      =     -34.53149766 Ry
      -> PAW xc energy PS      =      15.27556128 Ry
      -> total E_H with PAW    =     908.16963743 Ry
      -> total E_XC with PAW   =    -263.27817446 Ry

     convergence has been achieved in  22 iterations

     negative rho (up, down):  2.322E-03 0.000E+00

     Forces acting on atoms (cartesian axes, Ry/au):

     atom    1 type  1   force =     0.00113202    0.00109829    0.00000238
     atom    2 type  1   force =    -0.00113202   -0.00109829   -0.00000238
     atom    3 type  2   force =     0.00000000    0.00000000    0.00000000
     atom    4 type  2   force =     0.00000000    0.00000000    0.00000000
     atom    5 type  3   force =     0.00000000    0.00000000    0.00000000
     atom    6 type  3   force =     0.00000000    0.00000000    0.00000000
     atom    7 type  4   force =     0.00376491    0.00363595   -0.00000903
     atom    8 type  4   force =    -0.00376491   -0.00363595    0.00000903
     atom    9 type  5   force =    -0.00331569    0.00108269   -0.00584412
     atom   10 type  5   force =    -0.00232140   -0.00224325   -0.00000115
     atom   11 type  5   force =     0.00291386   -0.00533588    0.00305301
     atom   12 type  5   force =    -0.00525649    0.00306783   -0.00306992
     atom   13 type  5   force =    -0.00097443    0.00336013   -0.00585867
     atom   14 type  5   force =     0.00097443   -0.00336013    0.00585867
     atom   15 type  5   force =     0.00525649   -0.00306783    0.00306992
     atom   16 type  5   force =    -0.00291386    0.00533588   -0.00305301
     atom   17 type  5   force =     0.00331569   -0.00108269    0.00584412
     atom   18 type  5   force =     0.00232140    0.00224325    0.00000115
     The non-local contrib.  to forces
     atom    1 type  1   force =     0.00095625    0.00092657   -0.00000163
     atom    2 type  1   force =    -0.00095625   -0.00092657    0.00000163
     atom    3 type  2   force =     0.00000000    0.00000000    0.00000000
     atom    4 type  2   force =     0.00000000    0.00000000    0.00000000
     atom    5 type  3   force =     0.00000000    0.00000000    0.00000000
     atom    6 type  3   force =     0.00000000    0.00000000    0.00000000
     atom    7 type  4   force =    -0.15439005   -0.14964085   -0.00001864
     atom    8 type  4   force =     0.15439005    0.14964085    0.00001864
     atom    9 type  5   force =    -0.31637464   -0.08008776   -0.50464929
     atom   10 type  5   force =    -0.37876772   -0.36706217    0.00000312
     atom   11 type  5   force =     0.14850997   -0.55981683    0.16042087
     atom   12 type  5   force =    -0.55487454    0.16602821   -0.16041621
     atom   13 type  5   force =     0.08998696    0.31370287   -0.50467843
     atom   14 type  5   force =    -0.08998696   -0.31370287    0.50467843
     atom   15 type  5   force =     0.55487454   -0.16602821    0.16041621
     atom   16 type  5   force =    -0.14850997    0.55981683   -0.16042087
     atom   17 type  5   force =     0.31637464    0.08008776    0.50464929
     atom   18 type  5   force =     0.37876772    0.36706217   -0.00000312
     The ionic contribution  to forces
     atom    1 type  1   force =     0.29744047    0.28824116    0.00000000
     atom    2 type  1   force =    -0.29744047   -0.28824116   -0.00000000
     atom    3 type  2   force =     0.00000000    0.00000000   -0.00000000
     atom    4 type  2   force =    -0.00000000    0.00000000    0.00000000
     atom    5 type  3   force =    -0.00000000   -0.00000000   -0.00000000
     atom    6 type  3   force =     0.00000000   -0.00000000    0.00000000
     atom    7 type  4   force =     6.86359053    6.65131185   -0.00000000
     atom    8 type  4   force =    -6.86359053   -6.65131186    0.00000000
     atom    9 type  5   force =    -3.37081498    1.40915276   14.51817193
     atom   10 type  5   force =    12.20640861   11.82888606   -0.00000000
     atom   11 type  5   force =   -11.12705845    9.41293914    3.42207077
     atom   12 type  5   force =     9.05883639  -11.41719477   -3.42207077
     atom   13 type  5   force =    -1.30259291    3.41340839   14.51817194
     atom   14 type  5   force =     1.30259291   -3.41340839  -14.51817193
     atom   15 type  5   force =    -9.05883639   11.41719477    3.42207077
     atom   16 type  5   force =    11.12705845   -9.41293914   -3.42207077
     atom   17 type  5   force =     3.37081498   -1.40915276  -14.51817193
     atom   18 type  5   force =   -12.20640861  -11.82888605    0.00000000
     The local contribution  to forces
     atom    1 type  1   force =    -0.29733190   -0.28815439   -0.00002193
     atom    2 type  1   force =     0.29727559    0.28807498    0.00001702
     atom    3 type  2   force =    -0.00012623    0.00006189    0.00017330
     atom    4 type  2   force =     0.00000247   -0.00015015   -0.00022622
     atom    5 type  3   force =     0.00007947    0.00009774    0.00007257
     atom    6 type  3   force =     0.00008917    0.00008028   -0.00004220
     atom    7 type  4   force =    -6.70642126   -6.49907366   -0.00004974
     atom    8 type  4   force =     6.70634324    6.49901868    0.00005659
     atom    9 type  5   force =     3.68396893   -1.32796197  -14.01937602
     atom   10 type  5   force =   -11.82996639  -11.46409068    0.00000361
     atom   11 type  5   force =    10.98150832   -8.85843960   -3.57946416
     atom   12 type  5   force =    -8.50913004   11.25433443    3.57951152
     atom   13 type  5   force =     1.21161650   -3.72388756  -14.01942408
     atom   14 type  5   force =    -1.21161609    3.72386948   14.01937753
     atom   15 type  5   force =     8.50915411  -11.25437582   -3.57955323
     atom   16 type  5   force =   -10.98154998    8.85846445    3.57951647
     atom   17 type  5   force =    -3.68398843    1.32799069   14.01943367
     atom   18 type  5   force =    11.82999926   11.46413226    0.00000137
     The core correction contribution to forces
     atom    1 type  1   force =     0.00000000    0.00000000    0.00000000
     atom    2 type  1   force =     0.00000000    0.00000000    0.00000000
     atom    3 type  2   force =    -0.00000217    0.00000174    0.00000371
     atom    4 type  2   force =     0.00000048   -0.00000260   -0.00000463
     atom    5 type  3   force =     0.00000000    0.00000000    0.00000000
     atom    6 type  3   force =     0.00000000    0.00000000    0.00000000
     atom    7 type  4   force =     0.00098482    0.00095469    0.00000028
     atom    8 type  4   force =    -0.00098475   -0.00095457   -0.00000016
     atom    9 type  5   force =     0.00000000    0.00000000    0.00000000
     atom   10 type  5   force =     0.00000000    0.00000000    0.00000000
     atom   11 type  5   force =     0.00000000    0.00000000    0.00000000
     atom   12 type  5   force =     0.00000000    0.00000000    0.00000000
     atom   13 type  5   force =     0.00000000    0.00000000    0.00000000
     atom   14 type  5   force =     0.00000000    0.00000000    0.00000000
     atom   15 type  5   force =     0.00000000    0.00000000    0.00000000
     atom   16 type  5   force =     0.00000000    0.00000000    0.00000000
     atom   17 type  5   force =     0.00000000    0.00000000    0.00000000
     atom   18 type  5   force =     0.00000000    0.00000000    0.00000000
     The Hubbard contrib.    to forces
     atom    1 type  1   force =     0.00000000    0.00000000    0.00000000
     atom    2 type  1   force =     0.00000000    0.00000000    0.00000000
     atom    3 type  2   force =     0.00000000    0.00000000    0.00000000
     atom    4 type  2   force =     0.00000000    0.00000000    0.00000000
     atom    5 type  3   force =     0.00000000    0.00000000    0.00000000
     atom    6 type  3   force =     0.00000000    0.00000000    0.00000000
     atom    7 type  4   force =     0.00000000    0.00000000    0.00000000
     atom    8 type  4   force =     0.00000000    0.00000000    0.00000000
     atom    9 type  5   force =     0.00000000    0.00000000    0.00000000
     atom   10 type  5   force =     0.00000000    0.00000000    0.00000000
     atom   11 type  5   force =     0.00000000    0.00000000    0.00000000
     atom   12 type  5   force =     0.00000000    0.00000000    0.00000000
     atom   13 type  5   force =     0.00000000    0.00000000    0.00000000
     atom   14 type  5   force =     0.00000000    0.00000000    0.00000000
     atom   15 type  5   force =     0.00000000    0.00000000    0.00000000
     atom   16 type  5   force =     0.00000000    0.00000000    0.00000000
     atom   17 type  5   force =     0.00000000    0.00000000    0.00000000
     atom   18 type  5   force =     0.00000000    0.00000000    0.00000000
     The SCF correction term to forces
     atom    1 type  1   force =     0.00007280    0.00009282    0.00002768
     atom    2 type  1   force =    -0.00000528    0.00000234   -0.00001929
     atom    3 type  2   force =     0.00012324   -0.00004863   -0.00016245
     atom    4 type  2   force =     0.00001125    0.00014845    0.00021684
     atom    5 type  3   force =    -0.00017437   -0.00012130   -0.00014104
     atom    6 type  3   force =    -0.00017789   -0.00014366    0.00007612
     atom    7 type  4   force =     0.00000761    0.00009008    0.00006101
     atom    8 type  4   force =     0.00008382   -0.00002289   -0.00006410
     atom    9 type  5   force =    -0.00008901   -0.00002681   -0.00000267
     atom   10 type  5   force =    -0.00001382   -0.00000111   -0.00000771
     atom   11 type  5   force =    -0.00004155   -0.00002063    0.00001567
     atom   12 type  5   force =    -0.00008669   -0.00009577   -0.00008701
     atom   13 type  5   force =     0.00001675    0.00014206    0.00007770
     atom   14 type  5   force =    -0.00001370   -0.00011273   -0.00001954
     atom   15 type  5   force =     0.00006583    0.00014573    0.00014362
     atom   16 type  5   force =     0.00009208   -0.00000830   -0.00008769
     atom   17 type  5   force =     0.00012048   -0.00001484   -0.00007882
     atom   18 type  5   force =    -0.00005490   -0.00008978    0.00000307

     Total force =     0.021257     Total SCF correction =     0.000667

     Computing stress (Cartesian axis) and pressure

     negative rho (up, down):  2.322E-03 0.000E+00
          total   stress  (Ry/bohr**3)                   (kbar)     P=     -219.77
  -0.00148192   0.00003383  -0.00006872         -218.00        4.98      -10.11
   0.00003383  -0.00148399   0.00007091            4.98     -218.30       10.43
  -0.00006872   0.00007091  -0.00151593          -10.11       10.43     -223.00

     kinetic stress (kbar)  18982.79    -24.38    -59.11
                              -24.38  18984.32     60.99
                              -59.11     60.99  19008.70

     local   stress (kbar) -17308.54   1549.93  -5395.52
                             1549.93 -17405.79   5567.77
                            -5395.52   5567.77 -18839.13

     nonloc. stress (kbar)   1436.98     -9.76    -15.88
                               -9.76   1437.60     16.39
                              -15.88     16.39   1447.25

     hartree stress (kbar)  22954.45   -610.27   2719.85
                             -610.27  22992.66  -2806.70
                             2719.85  -2806.70  23549.48

     exc-cor stress (kbar)  -5265.63     -2.45     -1.94
                               -2.45  -5265.48      2.00
                               -1.94      2.00  -5263.08

     corecor stress (kbar)   -624.74      0.33      0.43
                                0.33   -624.76     -0.44
                                0.43     -0.44   -625.09

     ewald   stress (kbar) -20393.30   -898.43   2742.06
                             -898.43 -20336.84  -2829.57
                             2742.06  -2829.57 -19501.14

     hubbard stress (kbar)      0.00      0.00      0.00
                                0.00      0.00      0.00
                                0.00      0.00      0.00

     DFT-D   stress (kbar)      0.00      0.00      0.00
                                0.00      0.00      0.00
                                0.00      0.00      0.00

     XDM     stress (kbar)      0.00      0.00      0.00
                                0.00      0.00      0.00
                                0.00      0.00      0.00

     dft-nl  stress (kbar)      0.00      0.00      0.00
                                0.00      0.00      0.00
                                0.00      0.00      0.00

     TS-vdW  stress (kbar)      0.00      0.00      0.00
                                0.00      0.00      0.00
                                0.00      0.00      0.00

[...]

                                0.00      0.00      0.00

     Writing all to output data dir new_calculations/myprefix.save/

     General routines

     Parallel routines

     PAW routines

   This run was terminated on:   4:14:45  21May2023

   JOB DONE.