     Program PWSCF v.7.0 starts on 20May2023 at  7:43:16

     Reading input from espresso_9228.pwi
Warning: card &CELL ignored
Warning: card / ignored

     Current dimensions of program PWSCF are:
     Max number of different atomic species (ntypx) = 10
     Max number of k-points (npk) =  40000
     Max angular momentum in pseudopotentials (lmaxx) =  4
     file O.pbe-n-kjpaw_psl.0.1.UPF: wavefunction(s)  2P renormalized

     gamma-point specific algorithms are used
     Message from routine setup:
     using ibrav=0 with symmetry is DISCOURAGED, use correct ibrav instead

     Subspace diagonalization in iterative solution of the eigenvalue problem:
     a serial algorithm will be used

     Using Slab Decomposition

     bravais-lattice index     =            0
     lattice parameter (alat)  =      12.5512  a.u.
     unit-cell volume          =    1247.8412 (a.u.)^3
     number of atoms/cell      =            8
     number of atomic types    =            3
     number of electrons       =        80.00
     number of Kohn-Sham states=           48
     kinetic-energy cutoff     =      30.0000  Ry
     charge density cutoff     =     240.0000  Ry
     scf convergence threshold =      1.0E-06
     mixing beta               =       0.7000
     number of iterations used =            8  plain     mixing
     Exchange-correlation= SLA  PW   PBX  PBC
                           (   1   4   3   4   0   0   0)

     celldm(1)=  12.551176  celldm(2)=   0.000000  celldm(3)=   0.000000
     celldm(4)=   0.000000  celldm(5)=   0.000000  celldm(6)=   0.000000

     crystal axes: (cart. coord. in units of alat)
               a(1) = (   1.000000   0.000000   0.000000 )
               a(2) = (  -0.730043   0.683401   0.000000 )
               a(3) = (   0.000000   0.000000   0.923486 )

     reciprocal axes: (cart. coord. in units 2 pi/alat)
               b(1) = (  1.000000  1.068249  0.000000 )
               b(2) = (  0.000000  1.463269  0.000000 )
               b(3) = (  0.000000  0.000000  1.082854 )

     PseudoPot. # 1 for Rb read from file:
     /home/pragov/projects/rrg-bengioy-ad/pragov/crystal_structure_design/SSSP/Rb_ONCV_PBE-1.0.oncvpsp.upf
     MD5 check sum: 55a5172d6bfbce6759a58e35d43f6aa9
     Pseudo is Norm-conserving, Zval =  9.0
     Generated using ONCVPSP code by D. R. Hamann
     Using radial grid of 2308 points,  6 beta functions with:
                l(1) =   0
                l(2) =   0
                l(3) =   1
                l(4) =   1
                l(5) =   2
                l(6) =   2

     PseudoPot. # 2 for Au read from file:
     /home/pragov/projects/rrg-bengioy-ad/pragov/crystal_structure_design/SSSP/Au_ONCV_PBE-1.0.oncvpsp.upf
     MD5 check sum: d14007822ba0e19f0206237467fc06c2
     Pseudo is Norm-conserving, Zval = 19.0
     Generated using ONCVPSP code by D. R. Hamann
     Using radial grid of 1278 points,  8 beta functions with:
                l(1) =   0
                l(2) =   0
                l(3) =   1
                l(4) =   1
                l(5) =   2
                l(6) =   2
                l(7) =   3
                l(8) =   3

     PseudoPot. # 3 for O  read from file:
     /home/pragov/projects/rrg-bengioy-ad/pragov/crystal_structure_design/SSSP/O.pbe-n-kjpaw_psl.0.1.UPF
     MD5 check sum: 0234752ac141de4415c5fc33072bef88
     Pseudo is Projector augmented-wave + core cor, Zval =  6.0
     Generated using "atomic" code by A. Dal Corso  v.5.0.99 svn rev. 10869
     Shape of augmentation charge: BESSEL
     Using radial grid of 1095 points,  4 beta functions with:
                l(1) =   0
                l(2) =   0
                l(3) =   1
                l(4) =   1
     Q(r) pseudized with 0 coefficients

     atomic species   valence    mass     pseudopotential
        Rb             9.00    85.46780     Rb( 1.00)
        Au            19.00   196.96657     Au( 1.00)
        O              6.00    15.99900     O ( 1.00)

      4 Sym. Ops., with inversion, found ( 2 have fractional translation)

                                    s                        frac. trans.

      isym =  1     identity

 cryst.   s( 1) = (     1          0          0      )
                  (     0          1          0      )
                  (     0          0          1      )

 cart.    s( 1) = (  1.0000000  0.0000000  0.0000000 )
                  (  0.0000000  1.0000000  0.0000000 )
                  (  0.0000000  0.0000000  1.0000000 )

      isym =  2     180 deg rotation - cart. axis [0,0,1]

 cryst.   s( 2) = (    -1          0          0      )    f =( -0.0000000 )
                  (     0         -1          0      )       ( -0.0000000 )
                  (     0          0          1      )       (  0.5000000 )

 cart.    s( 2) = ( -1.0000000 -0.0000000  0.0000000 )    f =( -0.0000000 )
                  (  0.0000000 -1.0000000  0.0000000 )       ( -0.0000000 )
                  (  0.0000000  0.0000000  1.0000000 )       (  0.4617429 )

      isym =  3     inversion

 cryst.   s( 3) = (    -1          0          0      )
                  (     0         -1          0      )
                  (     0          0         -1      )

 cart.    s( 3) = ( -1.0000000 -0.0000000  0.0000000 )
                  (  0.0000000 -1.0000000  0.0000000 )
                  (  0.0000000  0.0000000 -1.0000000 )

      isym =  4     inv. 180 deg rotation - cart. axis [0,0,1]

 cryst.   s( 4) = (     1          0          0      )    f =(  0.0000000 )
                  (     0          1          0      )       (  0.0000000 )
                  (     0          0         -1      )       (  0.5000000 )

 cart.    s( 4) = (  1.0000000  0.0000000  0.0000000 )    f =(  0.0000000 )
                  (  0.0000000  1.0000000  0.0000000 )       (  0.0000000 )
                  (  0.0000000  0.0000000 -1.0000000 )       (  0.4617429 )

   Cartesian axes

     site n.     atom                  positions (alat units)
         1           Rb  tau(   1) = (  -0.2074557   0.4769690   0.6926144  )
         2           Rb  tau(   2) = (   0.4774129   0.2064323   0.2308715  )
         3           Au  tau(   3) = (   0.9957718   0.0016702   0.2308715  )
         4           Au  tau(   4) = (  -0.7258146   0.6817311   0.6926144  )
         5           O   tau(   5) = (   0.8113111   0.0745359   0.4660242  )
         6           O   tau(   6) = (  -0.5413540   0.6088655   0.4574617  )
         7           O   tau(   7) = (   0.8113111   0.0745359   0.9192046  )
         8           O   tau(   8) = (  -0.5413540   0.6088655   0.0042813  )

   Crystallographic axes

     site n.     atom                  positions (cryst. coord.)
         1           Rb  tau(   1) = (  0.3020660  0.6979340  0.7500000  )
         2           Rb  tau(   2) = (  0.6979340  0.3020660  0.2500000  )
         3           Au  tau(   3) = (  0.9975560  0.0024440  0.2500000  )
         4           Au  tau(   4) = (  0.0024440  0.9975560  0.7500000  )
         5           O   tau(   5) = (  0.8909340  0.1090660  0.5046360  )
         6           O   tau(   6) = (  0.1090660  0.8909340  0.4953640  )
         7           O   tau(   7) = (  0.8909340  0.1090660  0.9953640  )
         8           O   tau(   8) = (  0.1090660  0.8909340  0.0046360  )

     number of k points=     1  Methfessel-Paxton smearing, width (Ry)=  0.0010
                       cart. coord. in units 2pi/alat
        k(    1) = (   0.0000000   0.0000000   0.0000000), wk =   2.0000000

                       cryst. coord.
        k(    1) = (   0.0000000   0.0000000   0.0000000), wk =   2.0000000

     Check: negative core charge=   -0.000009

     Initial potential from superposition of free atoms

     starting charge      79.9503, renormalised to      80.0000
     Starting wfcs are   46 randomized atomic wfcs +    2 random wfcs
     Checking if some PAW data can be deallocated...

     Self-consistent Calculation

     iteration #  1     ecut=    30.00 Ry     beta= 0.70
     Davidson diagonalization with overlap

     ethr =  1.00E-02,  avg # of iterations =  6.0

     total energy              =    -812.22254709 Ry
     estimated scf accuracy    <       1.88340452 Ry

[...]

     total energy              =    -813.27612251 Ry
     estimated scf accuracy    <       0.00000173 Ry

     iteration #  9     ecut=    30.00 Ry     beta= 0.70
     Davidson diagonalization with overlap

     ethr =  2.16E-09,  avg # of iterations =  2.0

     End of self-consistent calculation

          k = 0.0000 0.0000 0.0000 (  1715 PWs)   bands (ev):

  -101.4317-101.4282 -52.7286 -52.6652 -52.5574 -52.5509 -51.9517 -51.9432
   -20.4239 -20.3797 -12.9068 -12.3298 -12.0455 -11.9068  -4.6701  -4.6245
    -4.6181  -4.4682  -4.4246  -4.3929  -1.4768  -1.4191  -1.2464   0.1136
     0.4584   0.7443   1.6414   1.7817   1.8377   1.9904   2.0248   2.1161
     2.7861   3.0287   3.0571   3.2672   3.3607   3.6406   5.1786   5.2423
     7.1308   7.8318   7.8971  10.7335  11.4918  11.6824  11.7693  11.9734

     occupation numbers
     1.0000   1.0000   1.0000   1.0000   1.0000   1.0000   1.0000   1.0000
     1.0000   1.0000   1.0000   1.0000   1.0000   1.0000   1.0000   1.0000
     1.0000   1.0000   1.0000   1.0000   1.0000   1.0000   1.0000   1.0000
     1.0000   1.0000   1.0000   1.0000   1.0000   1.0000   1.0000   1.0000
     1.0000   1.0000   1.0000   1.0000   1.0000   1.0000   1.0000   1.0000
    -0.0000  -0.0000  -0.0000  -0.0000  -0.0000  -0.0000  -0.0000  -0.0000

     the Fermi energy is     6.7809 ev

!    total energy              =    -813.27612229 Ry
     estimated scf accuracy    <       0.00000069 Ry
     smearing contrib. (-TS)   =       0.00000000 Ry
     internal energy E=F+TS    =    -813.27612229 Ry

     The total energy is F=E-TS. E is the sum of the following terms:
     one-electron contribution =    -615.42755761 Ry
     hartree contribution      =     325.22098940 Ry
     xc contribution           =     -94.87407696 Ry
     ewald contribution        =    -390.06573588 Ry
     one-center paw contrib.   =     -38.12974124 Ry
      -> PAW hartree energy AE =     112.49391881 Ry
      -> PAW hartree energy PS =    -112.11510339 Ry
      -> PAW xc energy AE      =     -67.75904979 Ry
      -> PAW xc energy PS      =      29.25049313 Ry
      -> total E_H with PAW    =     325.59980482 Ry
      -> total E_XC with PAW   =    -133.38263362 Ry

     convergence has been achieved in   9 iterations

     Forces acting on atoms (cartesian axes, Ry/au):

     atom    1 type  1   force =     0.01155116   -0.00456343    0.00000000
     atom    2 type  1   force =    -0.01155116    0.00456343    0.00000000
     atom    3 type  2   force =    -0.00169201    0.00066598    0.00000000
     atom    4 type  2   force =     0.00169201   -0.00066598    0.00000000
     atom    5 type  3   force =     0.02332038   -0.00921131    0.00539672
     atom    6 type  3   force =    -0.02332038    0.00921131   -0.00539672
     atom    7 type  3   force =     0.02332038   -0.00921131   -0.00539672
     atom    8 type  3   force =    -0.02332038    0.00921131    0.00539672
     The non-local contrib.  to forces
     atom    1 type  1   force =     0.00806429   -0.00318446    0.00000000
     atom    2 type  1   force =    -0.00806429    0.00318446    0.00000000
     atom    3 type  2   force =    -0.02460085    0.00971993    0.00000000
     atom    4 type  2   force =     0.02460085   -0.00971993    0.00000000
     atom    5 type  3   force =     1.26490740   -0.49966100   -0.02553322
     atom    6 type  3   force =    -1.26490740    0.49966100    0.02553322
     atom    7 type  3   force =     1.26490740   -0.49966100    0.02553322
     atom    8 type  3   force =    -1.26490740    0.49966100   -0.02553322
     The ionic contribution  to forces
     atom    1 type  1   force =    -2.08041506    0.82180534   -0.00000000
     atom    2 type  1   force =     2.08041505   -0.82180534   -0.00000000
     atom    3 type  2   force =    -2.67864114    1.05811655   -0.00000000
     atom    4 type  2   force =     2.67864114   -1.05811655   -0.00000000
     atom    5 type  3   force =   -15.54043697    6.13878184   -0.20351346
     atom    6 type  3   force =    15.54043697   -6.13878184    0.20351346
     atom    7 type  3   force =   -15.54043697    6.13878184    0.20351346
     atom    8 type  3   force =    15.54043697   -6.13878184   -0.20351346
     The local contribution  to forces
     atom    1 type  1   force =     2.08378196   -0.82313871   -0.00010104
     atom    2 type  1   force =    -2.08453586    0.82343251    0.00008740
     atom    3 type  2   force =     2.70376396   -1.06801942    0.00071469
     atom    4 type  2   force =    -2.69986513    1.06650735   -0.00080208
     atom    5 type  3   force =    14.31393998   -5.65429898    0.23375075
     atom    6 type  3   force =   -14.31395885    5.65430321   -0.23461013
     atom    7 type  3   force =    14.31366162   -5.65417807   -0.23376796
     atom    8 type  3   force =   -14.31376577    5.65422378    0.23463957
     The core correction contribution to forces
     atom    1 type  1   force =     0.00000000    0.00000000    0.00000000
     atom    2 type  1   force =     0.00000000    0.00000000    0.00000000
     atom    3 type  2   force =     0.00000000    0.00000000    0.00000000
     atom    4 type  2   force =     0.00000000    0.00000000    0.00000000
     atom    5 type  3   force =    -0.01487337    0.00587521    0.00028261
     atom    6 type  3   force =     0.01486866   -0.00587334   -0.00028167
     atom    7 type  3   force =    -0.01487624    0.00587642   -0.00028291
     atom    8 type  3   force =     0.01487163   -0.00587457    0.00028210
     The Hubbard contrib.    to forces
     atom    1 type  1   force =     0.00000000    0.00000000    0.00000000
     atom    2 type  1   force =     0.00000000    0.00000000    0.00000000
     atom    3 type  2   force =     0.00000000    0.00000000    0.00000000
     atom    4 type  2   force =     0.00000000    0.00000000    0.00000000
     atom    5 type  3   force =     0.00000000    0.00000000    0.00000000
     atom    6 type  3   force =     0.00000000    0.00000000    0.00000000
     atom    7 type  3   force =     0.00000000    0.00000000    0.00000000
     atom    8 type  3   force =     0.00000000    0.00000000    0.00000000
     The SCF correction term to forces
     atom    1 type  1   force =     0.00012452   -0.00004943    0.00011001
     atom    2 type  1   force =     0.00063850   -0.00025202   -0.00010000
     atom    3 type  2   force =    -0.00229215    0.00088195   -0.00081257
     atom    4 type  2   force =    -0.00176302    0.00069618    0.00090928
     atom    5 type  3   force =    -0.00026136    0.00010901    0.00046820
     atom    6 type  3   force =     0.00006319   -0.00002562    0.00052797
     atom    7 type  3   force =    -0.00011308    0.00004111   -0.00047737
     atom    8 type  3   force =    -0.00000110   -0.00000018   -0.00054168

     Total force =     0.054280     Total SCF correction =     0.003570

     Computing stress (Cartesian axis) and pressure

          total   stress  (Ry/bohr**3)                   (kbar)     P=     -364.44
  -0.00253400  -0.00003073   0.00000000         -372.76       -4.52        0.00
  -0.00003073  -0.00259965   0.00000000           -4.52     -382.42        0.00
   0.00000000   0.00000000  -0.00229851            0.00        0.00     -338.12

     kinetic stress (kbar)  20410.01    415.31      0.00
                              415.31  21297.31      0.00
                                0.00      0.00  20025.73

     local   stress (kbar) -11607.39  10687.59     -0.02
                            10687.59  11226.63      0.01
                               -0.02      0.01 -51364.91

     nonloc. stress (kbar)   2372.72    -22.86      0.00
                              -22.86   2323.87      0.00
                                0.00      0.00   2400.12

     hartree stress (kbar)   9910.19  -4250.23      0.01
                            -4250.23    829.59     -0.00
                                0.01     -0.00  27599.76

     exc-cor stress (kbar)  -3311.05     -6.21      0.00
                               -6.21  -3324.33     -0.00
                                0.00     -0.00  -3302.84

     corecor stress (kbar)   -197.79     -0.95      0.00
                               -0.95   -199.82     -0.00
                                0.00     -0.00   -197.18

     ewald   stress (kbar) -17949.45  -6827.16      0.00
                            -6827.16 -32535.67     -0.00
                                0.00     -0.00   4501.19

     hubbard stress (kbar)      0.00      0.00      0.00
                                0.00      0.00      0.00
                                0.00      0.00      0.00

     DFT-D   stress (kbar)      0.00      0.00      0.00
                                0.00      0.00      0.00
                                0.00      0.00      0.00

     XDM     stress (kbar)      0.00      0.00      0.00
                                0.00      0.00      0.00
                                0.00      0.00      0.00

     dft-nl  stress (kbar)      0.00      0.00      0.00
                                0.00      0.00      0.00
                                0.00      0.00      0.00

     TS-vdW  stress (kbar)      0.00      0.00      0.00
                                0.00      0.00      0.00
                                0.00      0.00      0.00

[...]

                                0.00      0.00      0.00

     Writing all to output data dir new_calculations/myprefix.save/

     General routines

     Parallel routines

     PAW routines

   This run was terminated on:   7:43:28  20May2023

   JOB DONE.