     Program PWSCF v.7.0 starts on 21May2023 at 18:40:40

     Reading input from espresso_15605.pwi
Warning: card &CELL ignored
Warning: card / ignored

     Current dimensions of program PWSCF are:
     Max number of different atomic species (ntypx) = 10
     Max number of k-points (npk) =  40000
     Max angular momentum in pseudopotentials (lmaxx) =  4
     file C.pbe-n-kjpaw_psl.1.0.0.UPF: wavefunction(s)  2S 2P renormalized

     gamma-point specific algorithms are used
     Message from routine setup:
     using ibrav=0 with symmetry is DISCOURAGED, use correct ibrav instead

     Subspace diagonalization in iterative solution of the eigenvalue problem:
     a serial algorithm will be used

     Using Slab Decomposition

     bravais-lattice index     =            0
     lattice parameter (alat)  =      10.1256  a.u.
     unit-cell volume          =     697.6844 (a.u.)^3
     number of atoms/cell      =           10
     number of atomic types    =            3
     number of electrons       =        66.00
     number of Kohn-Sham states=           40
     kinetic-energy cutoff     =      30.0000  Ry
     charge density cutoff     =     240.0000  Ry
     scf convergence threshold =      1.0E-06
     mixing beta               =       0.7000
     number of iterations used =            8  plain     mixing
     Exchange-correlation= SLA  PW   PBX  PBC
                           (   1   4   3   4   0   0   0)

     celldm(1)=  10.125563  celldm(2)=   0.000000  celldm(3)=   0.000000
     celldm(4)=   0.000000  celldm(5)=   0.000000  celldm(6)=   0.000000

     crystal axes: (cart. coord. in units of alat)
               a(1) = (   1.000000   0.000000   0.000000 )
               a(2) = (   0.000000   1.000000   0.000000 )
               a(3) = (   0.000000   0.000000   0.672050 )

     reciprocal axes: (cart. coord. in units 2 pi/alat)
               b(1) = (  1.000000  0.000000  0.000000 )
               b(2) = (  0.000000  1.000000  0.000000 )
               b(3) = (  0.000000  0.000000  1.487985 )

     PseudoPot. # 1 for Tb read from file:
     /home/pragov/projects/rrg-bengioy-ad/pragov/crystal_structure_design/SSSP/Tb.GGA-PBE-paw-v1.0.UPF
     MD5 check sum: f7bf3d58e9b293961564f5b9598c921e
     Pseudo is Projector augmented-wave + core cor, Zval = 19.0
     Generated using ATOMPAW code
     Shape of augmentation charge: BESSEL
     Using radial grid of 1111 points,  8 beta functions with:
                l(1) =   0
                l(2) =   0
                l(3) =   1
                l(4) =   1
                l(5) =   2
                l(6) =   2
                l(7) =   3
                l(8) =   3
     Q(r) pseudized with 0 coefficients

     PseudoPot. # 2 for B  read from file:
     /home/pragov/projects/rrg-bengioy-ad/pragov/crystal_structure_design/SSSP/b_pbe_v1.4.uspp.F.UPF
     MD5 check sum: cc6de2960df11db49a60e589f9ebb39b
     Pseudo is Ultrasoft + core correction, Zval =  3.0
     Generated by new atomic code, or converted to UPF format
     Using radial grid of  781 points,  4 beta functions with:
                l(1) =   0
                l(2) =   0
                l(3) =   1
                l(4) =   1
     Q(r) pseudized with  8 coefficients,  rinner =    1.100   1.100   1.100

     PseudoPot. # 3 for C  read from file:
     /home/pragov/projects/rrg-bengioy-ad/pragov/crystal_structure_design/SSSP/C.pbe-n-kjpaw_psl.1.0.0.UPF
     MD5 check sum: 5d2aebdfa2cae82b50a7e79e9516da0f
     Pseudo is Projector augmented-wave + core cor, Zval =  4.0
     Generated using "atomic" code by A. Dal Corso  v.5.1
     Shape of augmentation charge: PSQ
     Using radial grid of 1073 points,  4 beta functions with:
                l(1) =   0
                l(2) =   0
                l(3) =   1
                l(4) =   1
     Q(r) pseudized with 0 coefficients

     atomic species   valence    mass     pseudopotential
        Tb            19.00   158.92535     Tb( 1.00)
        B              3.00    10.81000     B ( 1.00)
        C              4.00    12.01100     C ( 1.00)

     16 Sym. Ops., with inversion, found ( 8 have fractional translation)

                                    s                        frac. trans.

      isym =  1     identity

 cryst.   s( 1) = (     1          0          0      )
                  (     0          1          0      )
                  (     0          0          1      )

 cart.    s( 1) = (  1.0000000  0.0000000  0.0000000 )
                  (  0.0000000  1.0000000  0.0000000 )
                  (  0.0000000  0.0000000  1.0000000 )

      isym =  2     180 deg rotation - cart. axis [0,0,1]

[...]

 cryst.   s( 3) = (    -1          0          0      )    f =(  0.5000000 )
                  (     0          1          0      )       (  0.5000000 )
                  (     0          0         -1      )       (  0.0000000 )

 cart.    s( 3) = ( -1.0000000  0.0000000  0.0000000 )    f =(  0.5000000 )
                  (  0.0000000  1.0000000  0.0000000 )       (  0.5000000 )
                  (  0.0000000  0.0000000 -1.0000000 )       (  0.0000000 )

[...]

 cryst.   s( 6) = (     0         -1          0      )    f =(  0.5000000 )
                  (    -1          0          0      )       (  0.5000000 )
                  (     0          0         -1      )       (  0.0000000 )

 cart.    s( 6) = (  0.0000000 -1.0000000  0.0000000 )    f =(  0.5000000 )
                  ( -1.0000000  0.0000000  0.0000000 )       (  0.5000000 )
                  (  0.0000000  0.0000000 -1.0000000 )       (  0.0000000 )

[...]

      isym =  8      90 deg rotation - cart. axis [0,0,1]

[...]

      isym =  9     inversion

 cryst.   s( 9) = (    -1          0          0      )
                  (     0         -1          0      )
                  (     0          0         -1      )

 cart.    s( 9) = ( -1.0000000  0.0000000  0.0000000 )
                  (  0.0000000 -1.0000000  0.0000000 )
                  (  0.0000000  0.0000000 -1.0000000 )

      isym = 10     inv. 180 deg rotation - cart. axis [0,0,1]

 cryst.   s(10) = (     1          0          0      )
                  (     0          1          0      )
                  (     0          0         -1      )

 cart.    s(10) = (  1.0000000  0.0000000  0.0000000 )
                  (  0.0000000  1.0000000  0.0000000 )
                  (  0.0000000  0.0000000 -1.0000000 )

[...]

 cryst.   s(11) = (     1          0          0      )    f =(  0.5000000 )
                  (     0         -1          0      )       (  0.5000000 )
                  (     0          0          1      )       (  0.0000000 )

 cart.    s(11) = (  1.0000000  0.0000000  0.0000000 )    f =(  0.5000000 )
                  (  0.0000000 -1.0000000  0.0000000 )       (  0.5000000 )
                  (  0.0000000  0.0000000  1.0000000 )       (  0.0000000 )

[...]

 cryst.   s(14) = (     0          1          0      )    f =(  0.5000000 )
                  (     1          0          0      )       (  0.5000000 )
                  (     0          0          1      )       (  0.0000000 )

 cart.    s(14) = (  0.0000000  1.0000000  0.0000000 )    f =(  0.5000000 )
                  (  1.0000000  0.0000000  0.0000000 )       (  0.5000000 )
                  (  0.0000000  0.0000000  1.0000000 )       (  0.0000000 )

[...]

      isym = 16     inv.  90 deg rotation - cart. axis [0,0,1]

 cryst.   s(16) = (     0         -1          0      )
                  (     1          0          0      )
                  (     0          0         -1      )

 cart.    s(16) = (  0.0000000  1.0000000  0.0000000 )
                  ( -1.0000000  0.0000000  0.0000000 )
                  (  0.0000000  0.0000000 -1.0000000 )

   Cartesian axes

     site n.     atom                  positions (alat units)
         1           Tb  tau(   1) = (   0.5000000   0.5000000   0.0000000  )
         2           Tb  tau(   2) = (   0.0000000   0.0000000   0.0000000  )
         3           B   tau(   3) = (   0.1369170   0.6369170   0.3360249  )
         4           B   tau(   4) = (   0.6369170   0.8630830   0.3360249  )
         5           B   tau(   5) = (   0.8630830   0.3630830   0.3360249  )
         6           B   tau(   6) = (   0.3630830   0.1369170   0.3360249  )
         7           C   tau(   7) = (   0.8383380   0.6616620   0.3360249  )
         8           C   tau(   8) = (   0.3383380   0.8383380   0.3360249  )
         9           C   tau(   9) = (   0.6616620   0.1616620   0.3360249  )
        10           C   tau(  10) = (   0.1616620   0.3383380   0.3360249  )

   Crystallographic axes

     site n.     atom                  positions (cryst. coord.)
         1           Tb  tau(   1) = (  0.5000000  0.5000000  0.0000000  )
         2           Tb  tau(   2) = (  0.0000000  0.0000000  0.0000000  )
         3           B   tau(   3) = (  0.1369170  0.6369170  0.5000000  )
         4           B   tau(   4) = (  0.6369170  0.8630830  0.5000000  )
         5           B   tau(   5) = (  0.8630830  0.3630830  0.5000000  )
         6           B   tau(   6) = (  0.3630830  0.1369170  0.5000000  )
         7           C   tau(   7) = (  0.8383380  0.6616620  0.5000000  )
         8           C   tau(   8) = (  0.3383380  0.8383380  0.5000000  )
         9           C   tau(   9) = (  0.6616620  0.1616620  0.5000000  )
        10           C   tau(  10) = (  0.1616620  0.3383380  0.5000000  )

     number of k points=     1  Methfessel-Paxton smearing, width (Ry)=  0.0010
                       cart. coord. in units 2pi/alat
        k(    1) = (   0.0000000   0.0000000   0.0000000), wk =   2.0000000

                       cryst. coord.
        k(    1) = (   0.0000000   0.0000000   0.0000000), wk =   2.0000000

     Check: negative core charge=   -0.000017

     Initial potential from superposition of free atoms

     starting charge      65.9899, renormalised to      66.0000
     Starting wfcs are   96 randomized atomic wfcs
     Checking if some PAW data can be deallocated...

     Self-consistent Calculation

     iteration #  1     ecut=    30.00 Ry     beta= 0.70
     Davidson diagonalization with overlap

     ethr =  1.00E-02,  avg # of iterations =  2.0

     total energy              =   -1554.85285604 Ry
     estimated scf accuracy    <       1.84152284 Ry

[...]

     ethr =  4.63E-04,  avg # of iterations =  1.0
     Minimization algorithm failed to find Fermi energy: reverting to bisection
     Possible cause: smearing is larger than the electronic band-gap.

[...]

     total energy              =   -1555.82368752 Ry
     estimated scf accuracy    <       0.00001840 Ry

     iteration # 80     ecut=    30.00 Ry     beta= 0.70
     Davidson diagonalization with overlap

     ethr =  2.20E-09,  avg # of iterations =  1.0

     End of self-consistent calculation

          k = 0.0000 0.0000 0.0000 (   966 PWs)   bands (ev):

   -30.2761 -30.2501  -7.7914  -7.7913  -7.4240  -7.4239  -7.2441  -7.1402
    -2.1903  -0.1454   1.7358   1.7358   4.1894   5.4922   5.8818   6.7200
     6.7200   8.8899  10.5984  10.5984  11.3127  11.4411  11.6787  11.6787
    12.6723  12.8723  12.8724  12.9860  12.9861  13.0662  13.2139  13.2140
    13.2222  13.2250  13.2365  13.3524  13.3562  13.3563  13.6970  15.0483

     occupation numbers
     1.0000   1.0000   1.0000   1.0000   1.0000   1.0000   1.0000   1.0000
     1.0000   1.0000   1.0000   1.0000   1.0000   1.0000   1.0000   1.0000
     1.0000   1.0000   1.0000   1.0000   1.0000   1.0000   1.0000   1.0000
     1.0000   1.0000   1.0000   1.0000   1.0000   1.0000   0.9760   0.9739
     0.6194   0.4440  -0.0133  -0.0000  -0.0000  -0.0000  -0.0000  -0.0000

     the Fermi energy is    13.2241 ev

!    total energy              =   -1555.82368615 Ry
     estimated scf accuracy    <       0.00000073 Ry
     smearing contrib. (-TS)   =      -0.00042560 Ry
     internal energy E=F+TS    =   -1555.82326056 Ry

     The total energy is F=E-TS. E is the sum of the following terms:
     one-electron contribution =    -231.15556129 Ry
     hartree contribution      =     161.64972053 Ry
     xc contribution           =     -81.13590119 Ry
     ewald contribution        =    -433.60974249 Ry
     one-center paw contrib.   =    -971.57177612 Ry
      -> PAW hartree energy AE =     472.49627644 Ry
      -> PAW hartree energy PS =    -445.70291481 Ry
      -> PAW xc energy AE      =   -1063.49521256 Ry
      -> PAW xc energy PS      =      65.13007481 Ry
      -> total E_H with PAW    =     188.44308216 Ry
      -> total E_XC with PAW   =   -1079.50103893 Ry

     convergence has been achieved in  80 iterations

     Forces acting on atoms (cartesian axes, Ry/au):

     atom    1 type  1   force =     0.00000000    0.00000000   -0.00000000
     atom    2 type  1   force =     0.00000000    0.00000000    0.00000000
     atom    3 type  2   force =    -0.05020607   -0.05020607    0.00000000
     atom    4 type  2   force =    -0.05020607    0.05020607    0.00000000
     atom    5 type  2   force =     0.05020607    0.05020607   -0.00000000
     atom    6 type  2   force =     0.05020607   -0.05020607    0.00000000
     atom    7 type  3   force =     0.07009724   -0.07009724    0.00000000
     atom    8 type  3   force =     0.07009724    0.07009724   -0.00000000
     atom    9 type  3   force =    -0.07009724   -0.07009724    0.00000000
     atom   10 type  3   force =    -0.07009724    0.07009724    0.00000000
     The non-local contrib.  to forces
     atom    1 type  1   force =     0.00000000    0.00000000   -0.00000000
     atom    2 type  1   force =     0.00000000    0.00000000    0.00000000
     atom    3 type  2   force =    -0.03729608   -0.03729608   -0.00000000
     atom    4 type  2   force =    -0.03729608    0.03729608    0.00000000
     atom    5 type  2   force =     0.03729608    0.03729608    0.00000000
     atom    6 type  2   force =     0.03729608   -0.03729608   -0.00000000
     atom    7 type  3   force =    -0.03888875    0.03888875   -0.00000000
     atom    8 type  3   force =    -0.03888875   -0.03888875   -0.00000000
     atom    9 type  3   force =     0.03888875    0.03888875   -0.00000000
     atom   10 type  3   force =     0.03888875   -0.03888875   -0.00000000
     The ionic contribution  to forces
     atom    1 type  1   force =     0.00000000    0.00000000    0.00000000
     atom    2 type  1   force =    -0.00000000   -0.00000000    0.00000000
     atom    3 type  2   force =    -0.59298927   -0.59298927   -0.00000000
     atom    4 type  2   force =    -0.59298927    0.59298927   -0.00000000
     atom    5 type  2   force =     0.59298927    0.59298927   -0.00000000
     atom    6 type  2   force =     0.59298927   -0.59298927   -0.00000000
     atom    7 type  3   force =     0.67748081   -0.67748081   -0.00000000
     atom    8 type  3   force =     0.67748081    0.67748081   -0.00000000
     atom    9 type  3   force =    -0.67748081   -0.67748081   -0.00000000
     atom   10 type  3   force =    -0.67748081    0.67748081   -0.00000000
     The local contribution  to forces
     atom    1 type  1   force =     0.00000581   -0.00002536   -0.00403972
     atom    2 type  1   force =     0.00000443    0.00001362    0.00404244
     atom    3 type  2   force =     0.57874789    0.57866069    0.00001125
     atom    4 type  2   force =     0.57864609   -0.57874325   -0.00001167
     atom    5 type  2   force =    -0.57874879   -0.57866160   -0.00001189
     atom    6 type  2   force =    -0.57864798    0.57874328    0.00001194
     atom    7 type  3   force =    -0.56914113    0.56900505   -0.00001614
     atom    8 type  3   force =    -0.56900336   -0.56913505    0.00001522
     atom    9 type  3   force =     0.56900599    0.56913994   -0.00001531
     atom   10 type  3   force =     0.56914051   -0.56900886    0.00001603
     The core correction contribution to forces
     atom    1 type  1   force =     0.00000000   -0.00000000   -0.00000015
     atom    2 type  1   force =     0.00000000    0.00000000    0.00000015
     atom    3 type  2   force =     0.00135262    0.00135245   -0.00000002
     atom    4 type  2   force =     0.00135255   -0.00135258    0.00000003
     atom    5 type  2   force =    -0.00135263   -0.00135245    0.00000001
     atom    6 type  2   force =    -0.00135257    0.00135256   -0.00000002
     atom    7 type  3   force =     0.00061277   -0.00061287   -0.00000001
     atom    8 type  3   force =     0.00061292    0.00061290   -0.00000001
     atom    9 type  3   force =    -0.00061288   -0.00061289   -0.00000000
     atom   10 type  3   force =    -0.00061279    0.00061284    0.00000001
     The Hubbard contrib.    to forces
     atom    1 type  1   force =     0.00000000    0.00000000    0.00000000
     atom    2 type  1   force =     0.00000000    0.00000000    0.00000000
     atom    3 type  2   force =     0.00000000    0.00000000    0.00000000
     atom    4 type  2   force =     0.00000000    0.00000000    0.00000000
     atom    5 type  2   force =     0.00000000    0.00000000    0.00000000
     atom    6 type  2   force =     0.00000000    0.00000000    0.00000000
     atom    7 type  3   force =     0.00000000    0.00000000    0.00000000
     atom    8 type  3   force =     0.00000000    0.00000000    0.00000000
     atom    9 type  3   force =     0.00000000    0.00000000    0.00000000
     atom   10 type  3   force =     0.00000000    0.00000000    0.00000000
     The SCF correction term to forces
     atom    1 type  1   force =    -0.00000767    0.00002245    0.00262310
     atom    2 type  1   force =     0.00000036   -0.00000686   -0.00263414
     atom    3 type  2   force =    -0.00001181    0.00006746   -0.00001029
     atom    4 type  2   force =     0.00007213    0.00001931    0.00001091
     atom    5 type  2   force =     0.00001246   -0.00006664    0.00001067
     atom    6 type  2   force =    -0.00007145   -0.00001983   -0.00001075
     atom    7 type  3   force =     0.00002878    0.00010175    0.00001477
     atom    8 type  3   force =    -0.00009912    0.00002794   -0.00001381
     atom    9 type  3   force =     0.00009842   -0.00003169    0.00001401
     atom   10 type  3   force =    -0.00002827   -0.00009896   -0.00001414

     Total force =     0.243873     Total SCF correction =     0.003726

     Computing stress (Cartesian axis) and pressure

          total   stress  (Ry/bohr**3)                   (kbar)     P=        1.67
  -0.00133343   0.00000000   0.00000000         -196.15        0.00        0.00
   0.00000000  -0.00133343   0.00000000            0.00     -196.15        0.00
   0.00000000   0.00000000   0.00270099            0.00        0.00      397.33

     kinetic stress (kbar)  12601.73      0.00      0.00
                                0.00  12601.73      0.00
                                0.00      0.00  13591.04

     local   stress (kbar)   3478.34      0.02      0.01
                                0.02   3477.59     -0.38
                                0.01     -0.38  -2448.45

     nonloc. stress (kbar)   9690.66      0.00      0.00
                                0.00   9690.66      0.00
                                0.00      0.00   9748.71

     hartree stress (kbar)  10042.34     -0.02     -0.00
                               -0.02  10042.58      0.13
                               -0.00      0.13  13998.54

     exc-cor stress (kbar)  -3414.00     -0.00     -0.00
                               -0.00  -3414.00      0.00
                               -0.00      0.00  -3450.79

     corecor stress (kbar)  -1610.74     -0.00      0.00
                               -0.00  -1610.74     -0.00
                                0.00     -0.00  -1584.61

     ewald   stress (kbar) -30984.23     -0.00     -0.00
                               -0.00 -30984.23     -0.00
                               -0.00     -0.00 -29457.11

     hubbard stress (kbar)      0.00      0.00      0.00
                                0.00      0.00      0.00
                                0.00      0.00      0.00

     DFT-D   stress (kbar)      0.00      0.00      0.00
                                0.00      0.00      0.00
                                0.00      0.00      0.00

     XDM     stress (kbar)      0.00      0.00      0.00
                                0.00      0.00      0.00
                                0.00      0.00      0.00

     dft-nl  stress (kbar)      0.00      0.00      0.00
                                0.00      0.00      0.00
                                0.00      0.00      0.00

     TS-vdW  stress (kbar)      0.00      0.00      0.00
                                0.00      0.00      0.00
                                0.00      0.00      0.00

[...]

                                0.00      0.00      0.00

     Writing all to output data dir new_calculations/myprefix.save/

     General routines

     Parallel routines

     PAW routines

   This run was terminated on:  18:42:38  21May2023

   JOB DONE.