     Program PWSCF v.7.0 starts on 20May2023 at 22:41:45

     Reading input from espresso_11662.pwi
Warning: card &CELL ignored
Warning: card / ignored

     Current dimensions of program PWSCF are:
     Max number of different atomic species (ntypx) = 10
     Max number of k-points (npk) =  40000
     Max angular momentum in pseudopotentials (lmaxx) =  4
     file K.pbe-spn-kjpaw_psl.1.0.0.UPF: wavefunction(s)  3S renormalized

     gamma-point specific algorithms are used
     Message from routine setup:
     using ibrav=0 with symmetry is DISCOURAGED, use correct ibrav instead

     Subspace diagonalization in iterative solution of the eigenvalue problem:
     a serial algorithm will be used

     Using Slab Decomposition

     bravais-lattice index     =            0
     lattice parameter (alat)  =      12.4673  a.u.
     unit-cell volume          =    1370.2664 (a.u.)^3
     number of atoms/cell      =           10
     number of atomic types    =            4
     number of electrons       =        80.00
     number of Kohn-Sham states=           48
     kinetic-energy cutoff     =      30.0000  Ry
     charge density cutoff     =     240.0000  Ry
     scf convergence threshold =      1.0E-06
     mixing beta               =       0.7000
     number of iterations used =            8  plain     mixing
     Exchange-correlation=  SLA  PW   PBX  PBC
                           (   1   4   3   4   0   0   0)

     celldm(1)=  12.467326  celldm(2)=   0.000000  celldm(3)=   0.000000
     celldm(4)=   0.000000  celldm(5)=   0.000000  celldm(6)=   0.000000

     crystal axes: (cart. coord. in units of alat)
               a(1) = (   1.000000   0.000000   0.000000 )
               a(2) = (   0.500000   0.866025   0.000000 )
               a(3) = (   0.500000   0.288675   0.816497 )

     reciprocal axes: (cart. coord. in units 2 pi/alat)
               b(1) = (  1.000000 -0.577350 -0.408248 )
               b(2) = (  0.000000  1.154701 -0.408248 )
               b(3) = (  0.000000  0.000000  1.224745 )

     PseudoPot. # 1 for Cs read from file:
     /home/pragov/projects/rrg-bengioy-ad/pragov/crystal_structure_design/SSSP/Cs_pbe_v1.uspp.F.UPF
     MD5 check sum: 3476d69cb178dfad3ffaa59df4e07ca4
     Pseudo is Ultrasoft + core correction, Zval =  9.0
     Generated by new atomic code, or converted to UPF format
     Using radial grid of  905 points,  6 beta functions with:
                l(1) =   0
                l(2) =   0
                l(3) =   1
                l(4) =   1
                l(5) =   2
                l(6) =   2
     Q(r) pseudized with  6 coefficients,  rinner =    1.500   1.500   1.500
                                                       1.500   1.500

     PseudoPot. # 2 for K  read from file:
     /home/pragov/projects/rrg-bengioy-ad/pragov/crystal_structure_design/SSSP/K.pbe-spn-kjpaw_psl.1.0.0.UPF
     MD5 check sum: 7d58810084cac21f60fbe77ea2b688fd
     Pseudo is Projector augmented-wave + core cor, Zval =  9.0
     Generated using "atomic" code by A. Dal Corso  v.5.1
     Shape of augmentation charge: PSQ
     Using radial grid of 1165 points,  6 beta functions with:
                l(1) =   0
                l(2) =   0
                l(3) =   1
                l(4) =   1
                l(5) =   2
                l(6) =   2
     Q(r) pseudized with 0 coefficients

     PseudoPot. # 3 for Sc read from file:
     /home/pragov/projects/rrg-bengioy-ad/pragov/crystal_structure_design/SSSP/Sc_ONCV_PBE-1.0.oncvpsp.upf
     MD5 check sum: e21af8023abb52e52cb7cd3133e4a229
     Pseudo is Norm-conserving, Zval = 11.0
     Generated using ONCVPSP code by D. R. Hamann
     Using radial grid of 1662 points,  6 beta functions with:
                l(1) =   0
                l(2) =   0
                l(3) =   1
                l(4) =   1
                l(5) =   2
                l(6) =   2

     PseudoPot. # 4 for F  read from file:
     /home/pragov/projects/rrg-bengioy-ad/pragov/crystal_structure_design/SSSP/f_pbe_v1.4.uspp.F.UPF
     MD5 check sum: 4c38b6a325caf53ec0e86aed9459de46
     Pseudo is Ultrasoft, Zval =  7.0
     Generated by new atomic code, or converted to UPF format
     Using radial grid of  799 points,  4 beta functions with:
                l(1) =   0
                l(2) =   0
                l(3) =   1
                l(4) =   1
     Q(r) pseudized with  8 coefficients,  rinner =    0.950   0.950   0.950

     atomic species   valence    mass     pseudopotential
        Cs             9.00   132.90545     Cs( 1.00)
        K              9.00    39.09830     K ( 1.00)
        Sc            11.00    44.95591     Sc( 1.00)
        F              7.00    18.99840     F ( 1.00)

     12 Sym. Ops., with inversion, found

                                    s                        frac. trans.

      isym =  1     identity

 cryst.   s( 1) = (     1          0          0      )
                  (     0          1          0      )
                  (     0          0          1      )

 cart.    s( 1) = (  1.0000000  0.0000000  0.0000000 )
                  (  0.0000000  1.0000000 -0.0000000 )
                  (  0.0000000  0.0000000  1.0000000 )

      isym =  2     180 deg rotation - cart. axis [1,0,0]

[...]

      isym =  3     120 deg rotation - cryst. axis [0,0,1]

[...]

      isym =  6     180 deg rotation - cryst. axis [1,1,0]

[...]

      isym =  7     inversion

[...]

      isym =  8     inv. 180 deg rotation - cart. axis [1,0,0]

[...]

      isym =  9     inv. 120 deg rotation - cryst. axis [0,0,1]

 cryst.   s( 9) = (     1         -1          0      )
                  (     1          0          0      )
                  (     1          0         -1      )

 cart.    s( 9) = (  0.5000000  0.8660254  0.0000000 )
                  ( -0.8660254  0.5000000 -0.0000000 )
                  (  0.0000000  0.0000000 -1.0000000 )

[...]

 cryst.   s(10) = (     0          1          0      )
                  (    -1          1          0      )
                  (     0          1         -1      )

 cart.    s(10) = (  0.5000000 -0.8660254  0.0000000 )
                  (  0.8660254  0.5000000  0.0000000 )
                  (  0.0000000  0.0000000 -1.0000000 )

[...]

      isym = 12     inv. 180 deg rotation - cryst. axis [1,1,0]

 cryst.   s(12) = (     1         -1          0      )
                  (     0         -1          0      )
                  (     0         -1          1      )

 cart.    s(12) = (  0.5000000 -0.8660254  0.0000000 )
                  ( -0.8660254 -0.5000000 -0.0000000 )
                  (  0.0000000  0.0000000  1.0000000 )

   Cartesian axes

     site n.     atom                  positions (alat units)
         1           Cs  tau(   1) = (   0.5000000   0.2886751   0.2041241  )
         2           Cs  tau(   2) = (   1.5000000   0.8660254   0.6123724  )
         3           K   tau(   3) = (   1.0000000   0.5773503   0.4082483  )
         4           Sc  tau(   4) = (   0.0000000   0.0000000   0.0000000  )
         5           F   tau(   5) = (   1.0000000   0.2531473   0.1790022  )
         6           F   tau(   6) = (   1.0000000   0.9015532   0.6374944  )
         7           F   tau(   7) = (   0.7192320   0.7394517   0.1790022  )
         8           F   tau(   8) = (   1.2807680   0.4152488   0.6374944  )
         9           F   tau(   9) = (   0.7192320   0.4152488   0.6374944  )
        10           F   tau(  10) = (   1.2807680   0.7394517   0.1790022  )

   Crystallographic axes

     site n.     atom                  positions (cryst. coord.)
         1           Cs  tau(   1) = (  0.2500000  0.2500000  0.2500000  )
         2           Cs  tau(   2) = (  0.7500000  0.7500000  0.7500000  )
         3           K   tau(   3) = (  0.5000000  0.5000000  0.5000000  )
         4           Sc  tau(   4) = (  0.0000000  0.0000000  0.0000000  )
         5           F   tau(   5) = (  0.7807680  0.2192320  0.2192320  )
         6           F   tau(   6) = (  0.2192320  0.7807680  0.7807680  )
         7           F   tau(   7) = (  0.2192320  0.7807680  0.2192320  )
         8           F   tau(   8) = (  0.7807680  0.2192320  0.7807680  )
         9           F   tau(   9) = (  0.2192320  0.2192320  0.7807680  )
        10           F   tau(  10) = (  0.7807680  0.7807680  0.2192320  )

     number of k points=     1  Methfessel-Paxton smearing, width (Ry)=  0.0010
                       cart. coord. in units 2pi/alat
        k(    1) = (   0.0000000   0.0000000   0.0000000), wk =   2.0000000

                       cryst. coord.
        k(    1) = (   0.0000000   0.0000000   0.0000000), wk =   2.0000000

     Check: negative core charge=   -0.000001

     Initial potential from superposition of free atoms

     starting charge      79.8998, renormalised to      80.0000
     Starting wfcs are   68 randomized atomic wfcs
     Checking if some PAW data can be deallocated...

     Self-consistent Calculation

     iteration #  1     ecut=    30.00 Ry     beta= 0.70
     Davidson diagonalization with overlap

     ethr =  1.00E-02,  avg # of iterations =  2.0

     total energy              =    -623.24731580 Ry
     estimated scf accuracy    <       1.54145822 Ry

[...]

     total energy              =    -623.97327804 Ry
     estimated scf accuracy    <       0.00000229 Ry

     iteration #  8     ecut=    30.00 Ry     beta= 0.70
     Davidson diagonalization with overlap

     ethr =  2.86E-09,  avg # of iterations =  4.0

     End of self-consistent calculation

          k = 0.0000 0.0000 0.0000 (  1920 PWs)   bands (ev):

   -43.8330 -23.8300 -22.6455 -22.6455 -22.6455 -17.3151 -17.0964 -17.0955
   -16.7911 -16.7909 -16.7897 -15.8088 -15.7847  -7.3608  -7.3608  -7.3607
    -3.0078  -3.0077  -3.0077  -2.6726  -2.6725  -2.6725   0.2521   0.5112
     0.5119   1.0699   1.0704   1.0705   1.2157   1.2158   1.2162   1.6516
     1.6522   1.6523   1.8901   1.8901   1.8903   2.0731   2.0737   2.0738
     8.6894   9.1498   9.1499   9.1499   9.8663   9.8663  10.7090  10.7091

     occupation numbers
     1.0000   1.0000   1.0000   1.0000   1.0000   1.0000   1.0000   1.0000
     1.0000   1.0000   1.0000   1.0000   1.0000   1.0000   1.0000   1.0000
     1.0000   1.0000   1.0000   1.0000   1.0000   1.0000   1.0000   1.0000
     1.0000   1.0000   1.0000   1.0000   1.0000   1.0000   1.0000   1.0000
     1.0000   1.0000   1.0000   1.0000   1.0000   1.0000   1.0000   1.0000
    -0.0000  -0.0000  -0.0000  -0.0000  -0.0000  -0.0000  -0.0000  -0.0000

     the Fermi energy is     3.9934 ev

!    total energy              =    -623.97327857 Ry
     estimated scf accuracy    <       0.00000017 Ry
     smearing contrib. (-TS)   =       0.00000000 Ry
     internal energy E=F+TS    =    -623.97327857 Ry

     The total energy is F=E-TS. E is the sum of the following terms:
     one-electron contribution =    -282.58699342 Ry
     hartree contribution      =     181.03163944 Ry
     xc contribution           =    -140.48885206 Ry
     ewald contribution        =    -326.50982347 Ry
     one-center paw contrib.   =     -55.41924905 Ry
      -> PAW hartree energy AE =      37.90243929 Ry
      -> PAW hartree energy PS =     -37.69135280 Ry
      -> PAW xc energy AE      =     -66.24815694 Ry
      -> PAW xc energy PS      =      10.61782140 Ry
      -> total E_H with PAW    =     181.24272592 Ry
      -> total E_XC with PAW   =    -196.11918760 Ry

     convergence has been achieved in   8 iterations

     Forces acting on atoms (cartesian axes, Ry/au):

     atom    1 type  1   force =     0.00000000   -0.00000000   -0.00000750
     atom    2 type  1   force =     0.00000000   -0.00000000    0.00000750
     atom    3 type  2   force =     0.00000000    0.00000000    0.00000000
     atom    4 type  3   force =     0.00000000    0.00000000    0.00000000
     atom    5 type  4   force =    -0.00000000   -0.01166174   -0.00824251
     atom    6 type  4   force =     0.00000000    0.01166174    0.00824251
     atom    7 type  4   force =    -0.01009936    0.00583087   -0.00824251
     atom    8 type  4   force =     0.01009936   -0.00583087    0.00824251
     atom    9 type  4   force =    -0.01009936   -0.00583087    0.00824251
     atom   10 type  4   force =     0.01009936    0.00583087   -0.00824251
     The non-local contrib.  to forces
     atom    1 type  1   force =    -0.00000000    0.00000000    0.00001369
     atom    2 type  1   force =     0.00000000    0.00000000   -0.00001369
     atom    3 type  2   force =     0.00000000    0.00000000    0.00000000
     atom    4 type  3   force =     0.00000000    0.00000000    0.00000000
     atom    5 type  4   force =     0.00000000   -0.39281268   -0.27775973
     atom    6 type  4   force =     0.00000000    0.39281268    0.27775973
     atom    7 type  4   force =    -0.34018576    0.19640634   -0.27775973
     atom    8 type  4   force =     0.34018576   -0.19640634    0.27775973
     atom    9 type  4   force =    -0.34018576   -0.19640634    0.27775973
     atom   10 type  4   force =     0.34018576    0.19640634   -0.27775973
     The ionic contribution  to forces
     atom    1 type  1   force =     0.00000000    0.00000000   -0.00000000
     atom    2 type  1   force =    -0.00000000   -0.00000000    0.00000000
     atom    3 type  2   force =     0.00000000    0.00000000    0.00000000
     atom    4 type  3   force =     0.00000000   -0.00000000   -0.00000000
     atom    5 type  4   force =     0.00000000    7.10022147    5.02061475
     atom    6 type  4   force =    -0.00000000   -7.10022147   -5.02061475
     atom    7 type  4   force =     6.14897216   -3.55011073    5.02061475
     atom    8 type  4   force =    -6.14897216    3.55011073   -5.02061475
     atom    9 type  4   force =     6.14897216    3.55011073   -5.02061475
     atom   10 type  4   force =    -6.14897216   -3.55011073    5.02061475
     The local contribution  to forces
     atom    1 type  1   force =     0.00006258    0.00001044   -0.00007400
     atom    2 type  1   force =    -0.00003439    0.00004140   -0.00001271
     atom    3 type  2   force =    -0.00000258    0.00005369   -0.00016712
     atom    4 type  3   force =     0.00003408    0.00000554   -0.00004762
     atom    5 type  4   force =    -0.00001817   -6.71873999   -4.75087266
     atom    6 type  4   force =     0.00001446    6.71874761    4.75087084
     atom    7 type  4   force =    -5.81861618    3.35937910   -4.75090715
     atom    8 type  4   force =     5.81863579   -3.35938789    4.75092412
     atom    9 type  4   force =    -5.81860006   -3.35939096    4.75086584
     atom   10 type  4   force =     5.81860109    3.35938105   -4.75087218
     The core correction contribution to forces
     atom    1 type  1   force =     0.00000364    0.00000168   -0.00000606
     atom    2 type  1   force =    -0.00000012    0.00000235   -0.00000199
     atom    3 type  2   force =     0.00000045    0.00000076   -0.00000336
     atom    4 type  3   force =     0.00000000    0.00000000    0.00000000
     atom    5 type  4   force =     0.00000000    0.00000000    0.00000000
     atom    6 type  4   force =     0.00000000    0.00000000    0.00000000
     atom    7 type  4   force =     0.00000000    0.00000000    0.00000000
     atom    8 type  4   force =     0.00000000    0.00000000    0.00000000
     atom    9 type  4   force =     0.00000000    0.00000000    0.00000000
     atom   10 type  4   force =     0.00000000    0.00000000    0.00000000
     The Hubbard contrib.    to forces
     atom    1 type  1   force =     0.00000000    0.00000000    0.00000000
     atom    2 type  1   force =     0.00000000    0.00000000    0.00000000
     atom    3 type  2   force =     0.00000000    0.00000000    0.00000000
     atom    4 type  3   force =     0.00000000    0.00000000    0.00000000
     atom    5 type  4   force =     0.00000000    0.00000000    0.00000000
     atom    6 type  4   force =     0.00000000    0.00000000    0.00000000
     atom    7 type  4   force =     0.00000000    0.00000000    0.00000000
     atom    8 type  4   force =     0.00000000    0.00000000    0.00000000
     atom    9 type  4   force =     0.00000000    0.00000000    0.00000000
     atom   10 type  4   force =     0.00000000    0.00000000    0.00000000
     The SCF correction term to forces
     atom    1 type  1   force =    -0.00002594    0.00000357    0.00002107
     atom    2 type  1   force =     0.00002908   -0.00001656   -0.00000192
     atom    3 type  2   force =     0.00002088   -0.00005034    0.00008281
     atom    4 type  3   force =    -0.00008196    0.00002133    0.00003451
     atom    5 type  4   force =     0.00002858   -0.00033484   -0.00022972
     atom    6 type  4   force =    -0.00003272    0.00032697    0.00022956
     atom    7 type  4   force =    -0.00027031    0.00015489   -0.00017531
     atom    8 type  4   force =     0.00024091   -0.00015232    0.00017219
     atom    9 type  4   force =    -0.00029061   -0.00012658    0.00023103
     atom   10 type  4   force =     0.00028968    0.00014884   -0.00023452

     Total force =     0.034980     Total SCF correction =     0.000949

     Computing stress (Cartesian axis) and pressure

          total   stress  (Ry/bohr**3)                   (kbar)     P=      -35.78
  -0.00024324   0.00000000   0.00000000          -35.78        0.00        0.00
   0.00000000  -0.00024324   0.00000000            0.00      -35.78        0.00
   0.00000000   0.00000000  -0.00024321            0.00        0.00      -35.78

     kinetic stress (kbar)  13280.07     -0.00     -0.00
                               -0.00  13280.07      0.00
                               -0.00      0.00  13280.07

     local   stress (kbar)  -8210.89     -0.01      0.02
                               -0.01  -8210.91     -0.02
                                0.02     -0.02  -8210.89

     nonloc. stress (kbar)   3545.91     -0.00     -0.00
                                0.00   3545.91      0.00
                               -0.00      0.00   3545.90

     hartree stress (kbar)   6478.21      0.01     -0.02
                                0.01   6478.24      0.02
                               -0.02      0.02   6478.22

     exc-cor stress (kbar)   1989.74     -0.00      0.00
                               -0.00   1989.74     -0.00
                                0.00     -0.00   1989.74

     corecor stress (kbar)  -5434.66     -0.00      0.00
                               -0.00  -5434.66     -0.00
                                0.00     -0.00  -5434.66

     ewald   stress (kbar) -11684.16     -0.00     -0.00
                               -0.00 -11684.16      0.00
                               -0.00      0.00 -11684.16

     hubbard stress (kbar)      0.00      0.00      0.00
                                0.00      0.00      0.00
                                0.00      0.00      0.00

     DFT-D   stress (kbar)      0.00      0.00      0.00
                                0.00      0.00      0.00
                                0.00      0.00      0.00

     XDM     stress (kbar)      0.00      0.00      0.00
                                0.00      0.00      0.00
                                0.00      0.00      0.00

     dft-nl  stress (kbar)      0.00      0.00      0.00
                                0.00      0.00      0.00
                                0.00      0.00      0.00

     TS-vdW  stress (kbar)      0.00      0.00      0.00
                                0.00      0.00      0.00
                                0.00      0.00      0.00

[...]

                                0.00      0.00      0.00

     Writing all to output data dir new_calculations/myprefix.save/

     General routines

     Parallel routines

     PAW routines

   This run was terminated on:  22:42:25  20May2023

   JOB DONE.