     Program PWSCF v.7.0 starts on 20May2023 at 15:45:34

     Reading input from espresso_11438.pwi
Warning: card &CELL ignored
Warning: card / ignored

     Current dimensions of program PWSCF are:
     Max number of different atomic species (ntypx) = 10
     Max number of k-points (npk) =  40000
     Max angular momentum in pseudopotentials (lmaxx) =  4
     file O.pbe-n-kjpaw_psl.0.1.UPF: wavefunction(s)  2P renormalized

     gamma-point specific algorithms are used
     Message from routine setup:
     using ibrav=0 with symmetry is DISCOURAGED, use correct ibrav instead

     Subspace diagonalization in iterative solution of the eigenvalue problem:
     a serial algorithm will be used

     Using Slab Decomposition

     bravais-lattice index     =            0
     lattice parameter (alat)  =      11.4892  a.u.
     unit-cell volume          =     920.6656 (a.u.)^3
     number of atoms/cell      =           15
     number of atomic types    =            3
     number of electrons       =        72.00
     number of Kohn-Sham states=           43
     kinetic-energy cutoff     =      30.0000  Ry
     charge density cutoff     =     240.0000  Ry
     scf convergence threshold =      1.0E-06
     mixing beta               =       0.7000
     number of iterations used =            8  plain     mixing
     Exchange-correlation= SLA  PW   PBX  PBC
                           (   1   4   3   4   0   0   0)

     celldm(1)=  11.489186  celldm(2)=   0.000000  celldm(3)=   0.000000
     celldm(4)=   0.000000  celldm(5)=   0.000000  celldm(6)=   0.000000

     crystal axes: (cart. coord. in units of alat)
               a(1) = (   1.000000   0.000000   0.000000 )
               a(2) = (   0.588576   0.808442   0.000000 )
               a(3) = (   0.588576   0.299532   0.750906 )

     reciprocal axes: (cart. coord. in units 2 pi/alat)
               b(1) = (  1.000000 -0.728037 -0.493411 )
               b(2) = (  0.000000  1.236947 -0.493411 )
               b(3) = (  0.000000  0.000000  1.331725 )

     PseudoPot. # 1 for Li read from file:
     /home/pragov/projects/rrg-bengioy-ad/pragov/crystal_structure_design/SSSP/li_pbe_v1.4.uspp.F.UPF
     MD5 check sum: e912e257baa3777c20ea3d68f190483c
     Pseudo is Ultrasoft, Zval =  3.0
     Generated by new atomic code, or converted to UPF format
     Using radial grid of  751 points,  5 beta functions with:
                l(1) =   0
                l(2) =   0
                l(3) =   0
                l(4) =   1
                l(5) =   1
     Q(r) pseudized with 10 coefficients,  rinner =    1.150   1.150   1.150

     PseudoPot. # 2 for Hf read from file:
     /home/pragov/projects/rrg-bengioy-ad/pragov/crystal_structure_design/SSSP/Hf-sp.oncvpsp.upf
     MD5 check sum: 417ed15784afe83d2e06dacf143de3f8
     Pseudo is Norm-conserving + core correction, Zval = 12.0
     Generated using ONCVPSP code by D. R. Hamann
     Using radial grid of 1656 points,  8 beta functions with:
                l(1) =   0
                l(2) =   0
                l(3) =   1
                l(4) =   1
                l(5) =   2
                l(6) =   2
                l(7) =   3
                l(8) =   3

     PseudoPot. # 3 for O  read from file:
     /home/pragov/projects/rrg-bengioy-ad/pragov/crystal_structure_design/SSSP/O.pbe-n-kjpaw_psl.0.1.UPF
     MD5 check sum: 0234752ac141de4415c5fc33072bef88
     Pseudo is Projector augmented-wave + core cor, Zval =  6.0
     Generated using "atomic" code by A. Dal Corso  v.5.0.99 svn rev. 10869
     Shape of augmentation charge: BESSEL
     Using radial grid of 1095 points,  4 beta functions with:
                l(1) =   0
                l(2) =   0
                l(3) =   1
                l(4) =   1
     Q(r) pseudized with 0 coefficients

     atomic species   valence    mass     pseudopotential
        Li             3.00     6.94000     Li( 1.00)
        Hf            12.00   178.49000     Hf( 1.00)
        O              6.00    15.99900     O ( 1.00)

      2 Sym. Ops., with inversion, found

                                    s                        frac. trans.

      isym =  1     identity

 cryst.   s( 1) = (     1          0          0      )
                  (     0          1          0      )
                  (     0          0          1      )

 cart.    s( 1) = (  1.0000000  0.0000000 -0.0000000 )
                  (  0.0000000  1.0000000 -0.0000000 )
                  (  0.0000000  0.0000000  1.0000000 )

      isym =  2     inversion

 cryst.   s( 2) = (    -1          0          0      )
                  (     0         -1          0      )
                  (     0          0         -1      )

 cart.    s( 2) = ( -1.0000000 -0.0000000  0.0000000 )
                  (  0.0000000 -1.0000000  0.0000000 )
                  (  0.0000000  0.0000000 -1.0000000 )

   Cartesian axes

     site n.     atom                  positions (alat units)
         1           Li  tau(   1) = (   1.0593491   0.6766771   0.6735592  )
         2           Li  tau(   2) = (   0.8451789   0.7673413   0.3719445  )
         3           Li  tau(   3) = (   1.0065904   0.3126062   0.5749225  )
         4           Li  tau(   4) = (   1.4268705   0.7261485   0.4921315  )
         5           Li  tau(   5) = (   0.7502814   0.3818256   0.2587741  )
         6           Li  tau(   6) = (   1.1705615   0.7953678   0.1759830  )
         7           Li  tau(   7) = (   1.3319731   0.3406327   0.3789610  )
         8           Li  tau(   8) = (   1.1178028   0.4312969   0.0773463  )
         9           Hf  tau(   9) = (   0.0000000   0.0000000   0.0000000  )
        10           O   tau(  10) = (   0.7688045   0.5399841   0.5751546  )
        11           O   tau(  11) = (   1.1310229   0.9186245   0.4624497  )
        12           O   tau(  12) = (   1.2881063   0.4612261   0.6819063  )
        13           O   tau(  13) = (   0.8890456   0.6467479   0.0689992  )
        14           O   tau(  14) = (   1.0461290   0.1893496   0.2884558  )
        15           O   tau(  15) = (   1.4083474   0.5679899   0.1757509  )

   Crystallographic axes

     site n.     atom                  positions (cryst. coord.)
         1           Li  tau(   1) = (  0.2343610  0.5046720  0.8969960  )
         2           Li  tau(   2) = (  0.1030040  0.7656390  0.4953280  )
         3           Li  tau(   3) = (  0.4953280  0.1030040  0.7656390  )
         4           Li  tau(   4) = (  0.6553840  0.6553840  0.6553840  )
         5           Li  tau(   5) = (  0.3446160  0.3446160  0.3446160  )
         6           Li  tau(   6) = (  0.5046720  0.8969960  0.2343610  )
         7           Li  tau(   7) = (  0.8969960  0.2343610  0.5046720  )
         8           Li  tau(   8) = (  0.7656390  0.4953280  0.1030040  )
         9           Hf  tau(   9) = (  0.0000000  0.0000000  0.0000000  )
        10           O   tau(  10) = (  0.0918880  0.3841440  0.7659480  )
        11           O   tau(  11) = (  0.2340520  0.9081120  0.6158560  )
        12           O   tau(  12) = (  0.6158560  0.2340520  0.9081120  )
        13           O   tau(  13) = (  0.3841440  0.7659480  0.0918880  )
        14           O   tau(  14) = (  0.7659480  0.0918880  0.3841440  )
        15           O   tau(  15) = (  0.9081120  0.6158560  0.2340520  )

     number of k points=     1  Methfessel-Paxton smearing, width (Ry)=  0.0010
                       cart. coord. in units 2pi/alat
        k(    1) = (   0.0000000   0.0000000   0.0000000), wk =   2.0000000

                       cryst. coord.
        k(    1) = (   0.0000000   0.0000000   0.0000000), wk =   2.0000000

     Check: negative core charge=   -0.000013

     Initial potential from superposition of free atoms

     starting charge      68.3922, renormalised to      72.0000
     Starting wfcs are   74 randomized atomic wfcs
     Checking if some PAW data can be deallocated...

     Self-consistent Calculation

     iteration #  1     ecut=    30.00 Ry     beta= 0.70
     Davidson diagonalization with overlap

     ethr =  1.00E-02,  avg # of iterations =  2.0

     total energy              =    -479.01679287 Ry
     estimated scf accuracy    <       1.69499467 Ry

[...]

     total energy              =    -479.68562110 Ry
     estimated scf accuracy    <       0.00000202 Ry

     iteration #  9     ecut=    30.00 Ry     beta= 0.70
     Davidson diagonalization with overlap

     ethr =  2.80E-09,  avg # of iterations =  5.0

     End of self-consistent calculation

          k = 0.0000 0.0000 0.0000 (  1272 PWs)   bands (ev):

   -55.0948 -38.8118 -38.8036 -38.2773 -38.1895 -38.1894 -38.1811 -38.1810
   -38.1262 -23.9838 -23.9679 -23.9678 -11.5585 -11.1119 -11.1111 -10.7433
   -10.6897 -10.6890   1.2512   1.6230   1.8987   1.8988   2.3848   2.4794
     2.4799   2.9017   2.9573   2.9574   2.9923   4.0159   4.0162   4.2887
     4.2888   4.5854   4.5858   4.6911   9.9839  10.6395  10.6396  10.8200
    12.6582  12.6613  13.0953

     occupation numbers
     1.0000   1.0000   1.0000   1.0000   1.0000   1.0000   1.0000   1.0000
     1.0000   1.0000   1.0000   1.0000   1.0000   1.0000   1.0000   1.0000
     1.0000   1.0000   1.0000   1.0000   1.0000   1.0000   1.0000   1.0000
     1.0000   1.0000   1.0000   1.0000   1.0000   1.0000   1.0000   1.0000
     1.0000   1.0000   1.0000   1.0000  -0.0000  -0.0000  -0.0000  -0.0000
    -0.0000  -0.0000  -0.0000

     the Fermi energy is     8.9525 ev

!    total energy              =    -479.68562155 Ry
     estimated scf accuracy    <       0.00000030 Ry
     smearing contrib. (-TS)   =       0.00000000 Ry
     internal energy E=F+TS    =    -479.68562155 Ry

     The total energy is F=E-TS. E is the sum of the following terms:
     one-electron contribution =    -153.56301532 Ry
     hartree contribution      =      99.81968115 Ry
     xc contribution           =    -101.54018371 Ry
     ewald contribution        =    -267.32627342 Ry
     one-center paw contrib.   =     -57.07583025 Ry
      -> PAW hartree energy AE =     180.34658879 Ry
      -> PAW hartree energy PS =    -179.69100714 Ry
      -> PAW xc energy AE      =    -103.35833878 Ry
      -> PAW xc energy PS      =      45.62692689 Ry
      -> total E_H with PAW    =     100.47526280 Ry
      -> total E_XC with PAW   =    -159.27159561 Ry

     convergence has been achieved in   9 iterations

     Forces acting on atoms (cartesian axes, Ry/au):

     atom    1 type  1   force =    -0.00408258   -0.00266646   -0.00095757
     atom    2 type  1   force =     0.00390175    0.00219846    0.00213763
     atom    3 type  1   force =     0.00456851    0.00153201    0.00122935
     atom    4 type  1   force =    -0.00146049   -0.00075564   -0.00049455
     atom    5 type  1   force =     0.00146049    0.00075564    0.00049455
     atom    6 type  1   force =    -0.00456851   -0.00153201   -0.00122935
     atom    7 type  1   force =    -0.00390175   -0.00219846   -0.00213763
     atom    8 type  1   force =     0.00408258    0.00266646    0.00095757
     atom    9 type  2   force =     0.00000000    0.00000000    0.00000000
     atom   10 type  3   force =    -0.00189772   -0.00140750    0.00238458
     atom   11 type  3   force =    -0.00027687    0.00251707    0.00214781
     atom   12 type  3   force =     0.00222610   -0.00195532    0.00153283
     atom   13 type  3   force =    -0.00222610    0.00195532   -0.00153283
     atom   14 type  3   force =     0.00027687   -0.00251707   -0.00214781
     atom   15 type  3   force =     0.00189772    0.00140750   -0.00238458
     The non-local contrib.  to forces
     atom    1 type  1   force =    -0.03493092   -0.01046642   -0.01089089
     atom    2 type  1   force =     0.03186132    0.02000928    0.00571100
     atom    3 type  1   force =     0.02903073    0.01829544    0.01642324
     atom    4 type  1   force =     0.04526629    0.02303189    0.01560711
     atom    5 type  1   force =    -0.04526629   -0.02303189   -0.01560711
     atom    6 type  1   force =    -0.02903073   -0.01829544   -0.01642324
     atom    7 type  1   force =    -0.03186132   -0.02000928   -0.00571100
     atom    8 type  1   force =     0.03493092    0.01046642    0.01089089
     atom    9 type  2   force =     0.00000000    0.00000000    0.00000000
     atom   10 type  3   force =    -0.02958314   -0.13244583    0.16933135
     atom   11 type  3   force =    -0.07005635    0.08763125    0.18572260
     atom   12 type  3   force =     0.12451496   -0.17727686    0.01255548
     atom   13 type  3   force =    -0.12451496    0.17727686   -0.01255548
     atom   14 type  3   force =     0.07005635   -0.08763125   -0.18572260
     atom   15 type  3   force =     0.02958314    0.13244583   -0.16933135
     The ionic contribution  to forces
     atom    1 type  1   force =    -0.14271210   -0.95204111   -0.10715707
     atom    2 type  1   force =     0.44962863   -0.15081999    0.84458229
     atom    3 type  1   force =     0.85366738   -0.06533538   -0.45300899
     atom    4 type  1   force =     0.37982572    0.19329689    0.13100217
     atom    5 type  1   force =    -0.37982572   -0.19329689   -0.13100217
     atom    6 type  1   force =    -0.85366738    0.06533538    0.45300899
     atom    7 type  1   force =    -0.44962863    0.15081999   -0.84458229
     atom    8 type  1   force =     0.14271210    0.95204111    0.10715707
     atom    9 type  2   force =     0.00000000    0.00000000   -0.00000000
     atom   10 type  3   force =     1.89250287    3.17063243   -2.74754697
     atom   11 type  3   force =    -0.00044063   -2.34060490   -3.96295902
     atom   12 type  3   force =    -3.67715392    2.67655970   -0.70572805
     atom   13 type  3   force =     3.67715392   -2.67655970    0.70572805
     atom   14 type  3   force =     0.00044063    2.34060490    3.96295902
     atom   15 type  3   force =    -1.89250287   -3.17063243    2.74754697
     The local contribution  to forces
     atom    1 type  1   force =     0.17351516    0.95990580    0.11713285
     atom    2 type  1   force =    -0.47762827    0.13309554   -0.84818515
     atom    3 type  1   force =    -0.87816031    0.04853448    0.43777048
     atom    4 type  1   force =    -0.42652893   -0.21706151   -0.14715072
     atom    5 type  1   force =     0.42655848    0.21705514    0.14712849
     atom    6 type  1   force =     0.87816419   -0.04859413   -0.43780492
     atom    7 type  1   force =     0.47758139   -0.13305714    0.84812663
     atom    8 type  1   force =    -0.17352141   -0.95990646   -0.11707411
     atom    9 type  2   force =     0.00011381    0.00006787    0.00017269
     atom   10 type  3   force =    -1.86502173   -3.04076819    2.58215152
     atom   11 type  3   force =     0.06945892    2.25627604    3.78097270
     atom   12 type  3   force =     3.55592570   -2.50291383    0.69486882
     atom   13 type  3   force =    -3.55586393    2.50288975   -0.69479098
     atom   14 type  3   force =    -0.06959191   -2.25628556   -3.78100995
     atom   15 type  3   force =     1.86494586    3.04064111   -2.58205919
     The core correction contribution to forces
     atom    1 type  1   force =     0.00000000    0.00000000    0.00000000
     atom    2 type  1   force =     0.00000000    0.00000000    0.00000000
     atom    3 type  1   force =     0.00000000    0.00000000    0.00000000
     atom    4 type  1   force =     0.00000000    0.00000000    0.00000000
     atom    5 type  1   force =     0.00000000    0.00000000    0.00000000
     atom    6 type  1   force =     0.00000000    0.00000000    0.00000000
     atom    7 type  1   force =     0.00000000    0.00000000    0.00000000
     atom    8 type  1   force =     0.00000000    0.00000000    0.00000000
     atom    9 type  2   force =     0.00000785    0.00000302    0.00000292
     atom   10 type  3   force =     0.00003546    0.00087608   -0.00132175
     atom   11 type  3   force =     0.00070802   -0.00056068   -0.00130349
     atom   12 type  3   force =    -0.00072999    0.00140736   -0.00003702
     atom   13 type  3   force =     0.00073032   -0.00140759    0.00003786
     atom   14 type  3   force =    -0.00070951    0.00056060    0.00130310
     atom   15 type  3   force =    -0.00003622   -0.00087716    0.00132204
     The Hubbard contrib.    to forces
     atom    1 type  1   force =     0.00000000    0.00000000    0.00000000
     atom    2 type  1   force =     0.00000000    0.00000000    0.00000000
     atom    3 type  1   force =     0.00000000    0.00000000    0.00000000
     atom    4 type  1   force =     0.00000000    0.00000000    0.00000000
     atom    5 type  1   force =     0.00000000    0.00000000    0.00000000
     atom    6 type  1   force =     0.00000000    0.00000000    0.00000000
     atom    7 type  1   force =     0.00000000    0.00000000    0.00000000
     atom    8 type  1   force =     0.00000000    0.00000000    0.00000000
     atom    9 type  2   force =     0.00000000    0.00000000    0.00000000
     atom   10 type  3   force =     0.00000000    0.00000000    0.00000000
     atom   11 type  3   force =     0.00000000    0.00000000    0.00000000
     atom   12 type  3   force =     0.00000000    0.00000000    0.00000000
     atom   13 type  3   force =     0.00000000    0.00000000    0.00000000
     atom   14 type  3   force =     0.00000000    0.00000000    0.00000000
     atom   15 type  3   force =     0.00000000    0.00000000    0.00000000
     The SCF correction term to forces
     atom    1 type  1   force =     0.00003586   -0.00007119   -0.00004702
     atom    2 type  1   force =     0.00004296   -0.00009596    0.00003265
     atom    3 type  1   force =     0.00003312    0.00004747    0.00004867
     atom    4 type  1   force =    -0.00002711   -0.00002736    0.00005114
     atom    5 type  1   force =    -0.00000952    0.00002485   -0.00002042
     atom    6 type  1   force =    -0.00003218    0.00003218   -0.00000613
     atom    7 type  1   force =     0.00000968    0.00003839    0.00003220
     atom    8 type  1   force =    -0.00004844    0.00005893   -0.00002085
     atom    9 type  2   force =    -0.00011013   -0.00004194   -0.00021954
     atom   10 type  3   force =     0.00014775    0.00030148   -0.00024695
     atom   11 type  3   force =     0.00001018   -0.00021999   -0.00028504
     atom   12 type  3   force =    -0.00032960    0.00026121   -0.00010393
     atom   13 type  3   force =     0.00026959   -0.00025109    0.00007017
     atom   14 type  3   force =     0.00003833    0.00023888    0.00032255
     atom   15 type  3   force =    -0.00011327   -0.00016640    0.00011958

     Total force =     0.014861     Total SCF correction =     0.000977

     Computing stress (Cartesian axis) and pressure

          total   stress  (Ry/bohr**3)                   (kbar)     P=     -377.96
  -0.00257719  -0.00000754  -0.00000502         -379.12       -1.11       -0.74
  -0.00000754  -0.00256647  -0.00000265           -1.11     -377.54       -0.39
  -0.00000502  -0.00000265  -0.00256435           -0.74       -0.39     -377.23

     kinetic stress (kbar)  16932.31     36.29     24.62
                               36.29  16879.44     12.51
                               24.62     12.51  16869.44

     local   stress (kbar)  -6032.55   -165.19   -111.94
                             -165.19  -5792.11    -56.99
                             -111.94    -56.99  -5746.69

     nonloc. stress (kbar)   2143.54     -7.51     -5.09
                               -7.51   2154.47     -2.59
                               -5.09     -2.59   2156.54

     hartree stress (kbar)   5375.40     55.56     37.63
                               55.56   5294.58     19.18
                               37.63     19.18   5279.34

     exc-cor stress (kbar)  -1680.14     -0.53     -0.36
                               -0.53  -1679.37     -0.18
                               -0.36     -0.18  -1679.23

     corecor stress (kbar)  -2964.81      0.22      0.15
                                0.22  -2965.13      0.07
                                0.15      0.07  -2965.18

     ewald   stress (kbar) -14152.85     80.05     54.25
                               80.05 -14269.42     27.61
                               54.25     27.61 -14291.45

     hubbard stress (kbar)      0.00      0.00      0.00
                                0.00      0.00      0.00
                                0.00      0.00      0.00

     DFT-D   stress (kbar)      0.00      0.00      0.00
                                0.00      0.00      0.00
                                0.00      0.00      0.00

     XDM     stress (kbar)      0.00      0.00      0.00
                                0.00      0.00      0.00
                                0.00      0.00      0.00

     dft-nl  stress (kbar)      0.00      0.00      0.00
                                0.00      0.00      0.00
                                0.00      0.00      0.00

     TS-vdW  stress (kbar)      0.00      0.00      0.00
                                0.00      0.00      0.00
                                0.00      0.00      0.00

[...]

                                0.00      0.00      0.00

     Writing all to output data dir new_calculations/myprefix.save/

     General routines

     Parallel routines

     PAW routines

   This run was terminated on:  15:45:46  20May2023

   JOB DONE.