     Program PWSCF v.7.0 starts on 20May2023 at 20:45:43

     Reading input from espresso_4658.pwi
Warning: card &CELL ignored
Warning: card / ignored

     Current dimensions of program PWSCF are:
     Max number of different atomic species (ntypx) = 10
     Max number of k-points (npk) =  40000
     Max angular momentum in pseudopotentials (lmaxx) =  4
     file Pb.pbe-dn-kjpaw_psl.0.2.2.UPF: wavefunction(s)  6S renormalized
     file O.pbe-n-kjpaw_psl.0.1.UPF: wavefunction(s)  2P renormalized

     gamma-point specific algorithms are used
     Message from routine setup:
     using ibrav=0 with symmetry is DISCOURAGED, use correct ibrav instead

     Subspace diagonalization in iterative solution of the eigenvalue problem:
     a serial algorithm will be used

     Using Slab Decomposition

     bravais-lattice index     =            0
     lattice parameter (alat)  =      11.1756  a.u.
     unit-cell volume          =    1717.9842 (a.u.)^3
     number of atoms/cell      =           16
     number of atomic types    =            4
     number of electrons       =       128.00
     number of Kohn-Sham states=           77
     kinetic-energy cutoff     =      30.0000  Ry
     charge density cutoff     =     240.0000  Ry
     scf convergence threshold =      1.0E-06
     mixing beta               =       0.7000
     number of iterations used =            8  plain     mixing
     Exchange-correlation= SLA  PW   PBX  PBC
                           (   1   4   3   4   0   0   0)

     celldm(1)=  11.175621  celldm(2)=   0.000000  celldm(3)=   0.000000
     celldm(4)=   0.000000  celldm(5)=   0.000000  celldm(6)=   0.000000

     crystal axes: (cart. coord. in units of alat)
               a(1) = (   1.000000   0.000000   0.000000 )
               a(2) = (  -0.239725   1.176637   0.000000 )
               a(3) = (  -0.393058  -0.441716   1.046072 )

     reciprocal axes: (cart. coord. in units 2 pi/alat)
               b(1) = (  1.000000  0.203738  0.461777 )
               b(2) = (  0.000000  0.849880  0.358871 )
               b(3) = (  0.000000  0.000000  0.955957 )

     PseudoPot. # 1 for Bi read from file:
     /home/pragov/projects/rrg-bengioy-ad/pragov/crystal_structure_design/SSSP/Bi_pbe_v1.uspp.F.UPF
     MD5 check sum: cceb9f28ec65b6d7ff33140f5b0b1758
     Pseudo is Ultrasoft + core correction, Zval = 15.0
     Generated by new atomic code, or converted to UPF format
     Using radial grid of  899 points,  6 beta functions with:
                l(1) =   0
                l(2) =   0
                l(3) =   1
                l(4) =   1
                l(5) =   2
                l(6) =   2
     Q(r) pseudized with  6 coefficients,  rinner =    1.000   1.000   1.000
                                                       1.000   1.000

     PseudoPot. # 2 for P  read from file:
     /home/pragov/projects/rrg-bengioy-ad/pragov/crystal_structure_design/SSSP/P.pbe-n-rrkjus_psl.1.0.0.UPF
     MD5 check sum: 8b930f418f0a4573dca56cd030ffe088
     Pseudo is Ultrasoft + core correction, Zval =  5.0
     Generated using "atomic" code by A. Dal Corso  v.5.1
     Using radial grid of 1147 points,  6 beta functions with:
                l(1) =   0
                l(2) =   0
                l(3) =   1
                l(4) =   1
                l(5) =   2
                l(6) =   2
     Q(r) pseudized with 0 coefficients

     PseudoPot. # 3 for Pb read from file:
     /home/pragov/projects/rrg-bengioy-ad/pragov/crystal_structure_design/SSSP/Pb.pbe-dn-kjpaw_psl.0.2.2.UPF
     MD5 check sum: 9d431e6316058b74ade52399a6cf67da
     Pseudo is Projector augmented-wave + core cor, Zval = 14.0
     Generated using "atomic" code by A. Dal Corso  v.5.0.99 svn rev. 10869
     Shape of augmentation charge: PSQ
     Using radial grid of 1281 points,  6 beta functions with:
                l(1) =   0
                l(2) =   0
                l(3) =   1
                l(4) =   1
                l(5) =   2
                l(6) =   2
     Q(r) pseudized with 0 coefficients

     PseudoPot. # 4 for O  read from file:
     /home/pragov/projects/rrg-bengioy-ad/pragov/crystal_structure_design/SSSP/O.pbe-n-kjpaw_psl.0.1.UPF
     MD5 check sum: 0234752ac141de4415c5fc33072bef88
     Pseudo is Projector augmented-wave + core cor, Zval =  6.0
     Generated using "atomic" code by A. Dal Corso  v.5.0.99 svn rev. 10869
     Shape of augmentation charge: BESSEL
     Using radial grid of 1095 points,  4 beta functions with:
                l(1) =   0
                l(2) =   0
                l(3) =   1
                l(4) =   1
     Q(r) pseudized with 0 coefficients

     atomic species   valence    mass     pseudopotential
        Bi            15.00   208.98040     Bi( 1.00)
        P              5.00    30.97376     P ( 1.00)
        Pb            14.00   207.20000     Pb( 1.00)
        O              6.00    15.99900     O ( 1.00)

      2 Sym. Ops., with inversion, found

                                    s                        frac. trans.

      isym =  1     identity

 cryst.   s( 1) = (     1          0          0      )
                  (     0          1          0      )
                  (     0          0          1      )

 cart.    s( 1) = (  1.0000000 -0.0000000 -0.0000000 )
                  (  0.0000000  1.0000000  0.0000000 )
                  (  0.0000000  0.0000000  1.0000000 )

      isym =  2     inversion

 cryst.   s( 2) = (    -1          0          0      )
                  (     0         -1          0      )
                  (     0          0         -1      )

 cart.    s( 2) = ( -1.0000000  0.0000000  0.0000000 )
                  (  0.0000000 -1.0000000 -0.0000000 )
                  (  0.0000000  0.0000000 -1.0000000 )

   Cartesian axes

     site n.     atom                  positions (alat units)
         1           Bi  tau(   1) = (   0.3334240   0.0697083   0.5833350  )
         2           Bi  tau(   2) = (   0.0337926   0.6652124   0.4627375  )
         3           P   tau(   3) = (  -0.3156383   0.3928696   0.8978115  )
         4           P   tau(   4) = (   0.6828548   0.3420511   0.1482609  )
         5           Pb  tau(   5) = (  -0.1818015  -0.2350473   0.8599374  )
         6           Pb  tau(   6) = (   0.5490181   0.9699681   0.1861350  )
         7           O   tau(   7) = (  -0.1669061   0.9657292   0.4946730  )
         8           O   tau(   8) = (   0.6836281   0.5606870   0.2978597  )
         9           O   tau(   9) = (   0.2272950  -0.0338936   0.9471286  )
        10           O   tau(  10) = (  -0.1264371   0.5596533   0.8179889  )
        11           O   tau(  11) = (   0.1399216   0.7688143   0.0989438  )
        12           O   tau(  12) = (   0.5341227  -0.2308085   0.5513994  )
        13           O   tau(  13) = (   0.4511162   0.5112935   0.8815075  )
        14           O   tau(  14) = (  -0.3164116   0.1742338   0.7482127  )
        15           O   tau(  15) = (  -0.0838996   0.2236272   0.1645650  )
        16           O   tau(  16) = (   0.4936536   0.1752675   0.2280835  )

   Crystallographic axes

     site n.     atom                  positions (cryst. coord.)
         1           Bi  tau(   1) = (  0.6169970  0.2685860  0.5576430  )
         2           Bi  tau(   2) = (  0.3830030  0.7314140  0.4423570  )
         3           P   tau(   3) = (  0.1789930  0.6560910  0.8582690  )
         4           P   tau(   4) = (  0.8210070  0.3439090  0.1417310  )
         5           Pb  tau(   5) = (  0.1674100  0.1088450  0.8220630  )
         6           Pb  tau(   6) = (  0.8325900  0.8911550  0.1779370  )
         7           O   tau(   7) = (  0.2582780  0.9982780  0.4728860  )
         8           O   tau(   8) = (  0.9354060  0.5834100  0.2847410  )
         9           O   tau(   9) = (  0.6577520  0.3110920  0.9054140  )
        10           O   tau(  10) = (  0.3653140  0.7691910  0.7819620  )
        11           O   tau(  11) = (  0.3422480  0.6889080  0.0945860  )
        12           O   tau(  12) = (  0.7417220  0.0017220  0.5271140  )
        13           O   tau(  13) = (  0.9623460  0.7508860  0.8426830  )
        14           O   tau(  14) = (  0.0645940  0.4165900  0.7152590  )
        15           O   tau(  15) = (  0.0376540  0.2491140  0.1573170  )
        16           O   tau(  16) = (  0.6346860  0.2308090  0.2180380  )

     number of k points=     1  Methfessel-Paxton smearing, width (Ry)=  0.0010
                       cart. coord. in units 2pi/alat
        k(    1) = (   0.0000000   0.0000000   0.0000000), wk =   2.0000000

                       cryst. coord.
        k(    1) = (   0.0000000   0.0000000   0.0000000), wk =   2.0000000

     Check: negative core charge=   -0.000010

     Initial potential from superposition of free atoms

     starting charge     125.9949, renormalised to     128.0000

     negative rho (up, down):  8.367E-02 0.000E+00
     Starting wfcs are   84 randomized atomic wfcs
     Checking if some PAW data can be deallocated...

     Self-consistent Calculation

     iteration #  1     ecut=    30.00 Ry     beta= 0.70
     Davidson diagonalization with overlap

     ethr =  1.00E-02,  avg # of iterations =  5.0

     negative rho (up, down):  7.785E-02 0.000E+00

     total energy              =   -2554.86329219 Ry
     estimated scf accuracy    <       3.25591595 Ry

[...]

     total energy              =   -2556.44768772 Ry
     estimated scf accuracy    <       0.00000101 Ry

     iteration # 12     ecut=    30.00 Ry     beta= 0.70
     Davidson diagonalization with overlap

     ethr =  7.85E-10,  avg # of iterations =  5.0

[...]

     End of self-consistent calculation

          k = 0.0000 0.0000 0.0000 (  2386 PWs)   bands (ev):

   -15.5051 -15.4924 -15.4539 -15.3807 -15.3378 -15.3208 -15.3129 -15.3067
   -15.2758 -15.2522 -13.9921 -13.7394 -11.7470 -11.5332 -11.5107 -11.5028
   -11.3141 -11.2506 -10.6148  -9.7574  -8.5909  -8.5883  -8.5735  -8.5582
    -8.5550  -8.5371  -8.5304  -8.5187  -8.5014  -8.2481  -3.2841  -3.1687
    -1.2130  -0.7839  -0.2466   0.8453   1.0332   1.1373   1.6626   1.7485
     1.9878   2.0170   2.5774   2.8407   3.0301   3.3959   3.6307   3.9074
     3.9282   4.0468   4.1791   4.3010   4.5723   5.0557   5.1229   5.2597
     5.4062   5.4442   5.5283   5.6598   5.6666   5.8939   5.9811   6.3157
     9.9765  10.9050  11.4038  11.4343  11.5278  12.0821  12.2124  12.3733
    12.4244  12.7460  13.1422  13.4322  14.4021

     occupation numbers
     1.0000   1.0000   1.0000   1.0000   1.0000   1.0000   1.0000   1.0000
     1.0000   1.0000   1.0000   1.0000   1.0000   1.0000   1.0000   1.0000
     1.0000   1.0000   1.0000   1.0000   1.0000   1.0000   1.0000   1.0000
     1.0000   1.0000   1.0000   1.0000   1.0000   1.0000   1.0000   1.0000
     1.0000   1.0000   1.0000   1.0000   1.0000   1.0000   1.0000   1.0000
     1.0000   1.0000   1.0000   1.0000   1.0000   1.0000   1.0000   1.0000
     1.0000   1.0000   1.0000   1.0000   1.0000   1.0000   1.0000   1.0000
     1.0000   1.0000   1.0000   1.0000   1.0000   1.0000   1.0000   1.0000
    -0.0000  -0.0000  -0.0000  -0.0000  -0.0000  -0.0000  -0.0000  -0.0000
    -0.0000  -0.0000  -0.0000  -0.0000  -0.0000

     the Fermi energy is     6.9933 ev

!    total energy              =   -2556.44768778 Ry
     estimated scf accuracy    <       0.00000025 Ry
     smearing contrib. (-TS)   =       0.00000000 Ry
     internal energy E=F+TS    =   -2556.44768778 Ry

     The total energy is F=E-TS. E is the sum of the following terms:
     one-electron contribution =    -315.18403328 Ry
     hartree contribution      =     244.54248244 Ry
     xc contribution           =    -301.97810282 Ry
     ewald contribution        =    -631.63030135 Ry
     one-center paw contrib.   =   -1552.19773277 Ry
      -> PAW hartree energy AE =     494.67106292 Ry
      -> PAW hartree energy PS =    -493.20169206 Ry
      -> PAW xc energy AE      =   -1717.40634407 Ry
      -> PAW xc energy PS      =     163.73924045 Ry
      -> total E_H with PAW    =     246.01185330 Ry
      -> total E_XC with PAW   =   -1855.64520645 Ry

     convergence has been achieved in  12 iterations

     negative rho (up, down):  8.066E-02 0.000E+00

     Forces acting on atoms (cartesian axes, Ry/au):

     atom    1 type  1   force =     0.00955752   -0.01751811    0.00683393
     atom    2 type  1   force =    -0.00955752    0.01751811   -0.00683393
     atom    3 type  2   force =    -0.01712589    0.00664975   -0.01227385
     atom    4 type  2   force =     0.01712589   -0.00664975    0.01227385
     atom    5 type  3   force =    -0.00904153    0.00202011    0.00007284
     atom    6 type  3   force =     0.00904153   -0.00202011   -0.00007284
     atom    7 type  4   force =    -0.00228184    0.00541406   -0.01373607
     atom    8 type  4   force =    -0.00998110    0.01679508    0.01327934
     atom    9 type  4   force =    -0.00865857   -0.00078142   -0.03312542
     atom   10 type  4   force =     0.01762811    0.00477298   -0.00811487
     atom   11 type  4   force =     0.00865857    0.00078142    0.03312542
     atom   12 type  4   force =     0.00228184   -0.00541406    0.01373607
     atom   13 type  4   force =     0.00174456    0.00280269   -0.00240438
     atom   14 type  4   force =     0.00998110   -0.01679508   -0.01327934
     atom   15 type  4   force =    -0.00174456   -0.00280269    0.00240438
     atom   16 type  4   force =    -0.01762811   -0.00477298    0.00811487
     The non-local contrib.  to forces
     atom    1 type  1   force =     0.28841710   -0.49060010    0.01491748
     atom    2 type  1   force =    -0.28841710    0.49060010   -0.01491748
     atom    3 type  2   force =     0.03117477   -0.03421468   -0.01003519
     atom    4 type  2   force =    -0.03117477    0.03421468    0.01003519
     atom    5 type  3   force =    -0.05380989   -0.01796325   -0.15375250
     atom    6 type  3   force =     0.05380989    0.01796325    0.15375250
     atom    7 type  4   force =     0.54863122   -0.38373194    0.01861970
     atom    8 type  4   force =     0.34556096   -1.16539889   -0.87118170
     atom    9 type  4   force =     0.52199322   -0.25384778    1.15758284
     atom   10 type  4   force =    -1.13614443   -0.86122024    0.14857412
     atom   11 type  4   force =    -0.52199322    0.25384778   -1.15758284
     atom   12 type  4   force =    -0.54863122    0.38373194   -0.01861970
     atom   13 type  4   force =     1.51995185   -0.64342632    0.20161328
     atom   14 type  4   force =    -0.34556096    1.16539889    0.87118170
     atom   15 type  4   force =    -1.51995185    0.64342632   -0.20161328
     atom   16 type  4   force =     1.13614443    0.86122024   -0.14857412
     The ionic contribution  to forces
     atom    1 type  1   force =    -7.12321089   13.54326898   -1.38493790
     atom    2 type  1   force =     7.12321089  -13.54326898    1.38493790
     atom    3 type  2   force =     0.28008280   -0.50446348   -0.49322322
     atom    4 type  2   force =    -0.28008280    0.50446348    0.49322322
     atom    5 type  3   force =    -0.03134378    0.48009562    5.39850810
     atom    6 type  3   force =     0.03134378   -0.48009562   -5.39850810
     atom    7 type  4   force =    -4.11202921    3.51756592   -0.43080656
     atom    8 type  4   force =    -4.16977504    1.53658600    2.64120706
     atom    9 type  4   force =    -2.62429281    2.71230384   -1.49332022
     atom   10 type  4   force =     5.00286470    1.02375255    0.24039124
     atom   11 type  4   force =     2.62429281   -2.71230384    1.49332022
     atom   12 type  4   force =     4.11202921   -3.51756592    0.43080656
     atom   13 type  4   force =    -6.92190379    1.65897309   -1.98868657
     atom   14 type  4   force =     4.16977504   -1.53658599   -2.64120706
     atom   15 type  4   force =     6.92190379   -1.65897309    1.98868657
     atom   16 type  4   force =    -5.00286470   -1.02375255   -0.24039124
     The local contribution  to forces
     atom    1 type  1   force =     6.85637373  -13.09007409    1.37680883
     atom    2 type  1   force =    -6.85652232   13.09010591   -1.37679943
     atom    3 type  2   force =    -0.32632403    0.54299793    0.49007319
     atom    4 type  2   force =     0.32631567   -0.54300159   -0.49010679
     atom    5 type  3   force =     0.07495088   -0.46130457   -5.25082133
     atom    6 type  3   force =    -0.07480959    0.46130600    5.25082511
     atom    7 type  4   force =     3.56691530   -3.13245107    0.39882594
     atom    8 type  4   force =     3.81769735   -0.36452563   -1.76414643
     atom    9 type  4   force =     2.09845931   -2.46101680    0.31209724
     atom   10 type  4   force =    -3.85903544   -0.16474037   -0.39644806
     atom   11 type  4   force =    -2.09846573    2.46100973   -0.31209519
     atom   12 type  4   force =    -3.56689943    3.13245396   -0.39881780
     atom   13 type  4   force =     5.41668964   -1.01791231    1.78643591
     atom   14 type  4   force =    -3.81768895    0.36459153    1.76416877
     atom   15 type  4   force =    -5.41669365    1.01791641   -1.78641433
     atom   16 type  4   force =     3.85903236    0.16471748    0.39642709
     The core correction contribution to forces
     atom    1 type  1   force =    -0.01232230    0.01993197   -0.00050061
     atom    2 type  1   force =     0.01232158   -0.01993195    0.00050036
     atom    3 type  2   force =    -0.00208298    0.00255038    0.00078945
     atom    4 type  2   force =     0.00208296   -0.00255040   -0.00079048
     atom    5 type  3   force =     0.00124088    0.00074705    0.00609777
     atom    6 type  3   force =    -0.00123905   -0.00074668   -0.00609778
     atom    7 type  4   force =    -0.00574278    0.00412344   -0.00034940
     atom    8 type  4   force =    -0.00350180    0.01026427    0.00768145
     atom    9 type  4   force =    -0.00495636    0.00173947   -0.00986654
     atom   10 type  4   force =     0.01024870    0.00728399   -0.00086378
     atom   11 type  4   force =     0.00495651   -0.00173965    0.00986700
     atom   12 type  4   force =     0.00574334   -0.00412376    0.00034960
     atom   13 type  4   force =    -0.01334587    0.00550293   -0.00189776
     atom   14 type  4   force =     0.00350161   -0.01026412   -0.00768139
     atom   15 type  4   force =     0.01334570   -0.00550263    0.00189787
     atom   16 type  4   force =    -0.01024865   -0.00728410    0.00086374
     The Hubbard contrib.    to forces
     atom    1 type  1   force =     0.00000000    0.00000000    0.00000000
     atom    2 type  1   force =     0.00000000    0.00000000    0.00000000
     atom    3 type  2   force =     0.00000000    0.00000000    0.00000000
     atom    4 type  2   force =     0.00000000    0.00000000    0.00000000
     atom    5 type  3   force =     0.00000000    0.00000000    0.00000000
     atom    6 type  3   force =     0.00000000    0.00000000    0.00000000
     atom    7 type  4   force =     0.00000000    0.00000000    0.00000000
     atom    8 type  4   force =     0.00000000    0.00000000    0.00000000
     atom    9 type  4   force =     0.00000000    0.00000000    0.00000000
     atom   10 type  4   force =     0.00000000    0.00000000    0.00000000
     atom   11 type  4   force =     0.00000000    0.00000000    0.00000000
     atom   12 type  4   force =     0.00000000    0.00000000    0.00000000
     atom   13 type  4   force =     0.00000000    0.00000000    0.00000000
     atom   14 type  4   force =     0.00000000    0.00000000    0.00000000
     atom   15 type  4   force =     0.00000000    0.00000000    0.00000000
     atom   16 type  4   force =     0.00000000    0.00000000    0.00000000
     The SCF correction term to forces
     atom    1 type  1   force =     0.00030564   -0.00004668    0.00054451
     atom    2 type  1   force =    -0.00014481    0.00001120   -0.00055691
     atom    3 type  2   force =     0.00002323   -0.00022046    0.00011498
     atom    4 type  2   force =    -0.00001548    0.00022401   -0.00009423
     atom    5 type  3   force =    -0.00009414    0.00044568    0.00004391
     atom    6 type  3   force =    -0.00007800   -0.00044665   -0.00004144
     atom    7 type  4   force =    -0.00003794   -0.00010166   -0.00002095
     atom    8 type  4   force =     0.00003165   -0.00012861   -0.00028284
     atom    9 type  4   force =     0.00014571    0.00003505    0.00039565
     atom   10 type  4   force =    -0.00030533   -0.00030512    0.00022826
     atom   11 type  4   force =    -0.00012417   -0.00003740   -0.00036937
     atom   12 type  4   force =     0.00005837    0.00008036    0.00002220
     atom   13 type  4   force =     0.00034843   -0.00032552    0.00013887
     atom   14 type  4   force =    -0.00005141    0.00006668    0.00025684
     atom   15 type  4   force =    -0.00035282    0.00033949   -0.00014434
     atom   16 type  4   force =     0.00030854    0.00032379   -0.00021394

     Total force =     0.082330     Total SCF correction =     0.001667

     Computing stress (Cartesian axis) and pressure

     negative rho (up, down):  8.066E-02 0.000E+00
          total   stress  (Ry/bohr**3)                   (kbar)     P=     -272.57
  -0.00177240  -0.00000519   0.00006120         -260.73       -0.76        9.00
  -0.00000519  -0.00186364  -0.00003707           -0.76     -274.15       -5.45
   0.00006120  -0.00003707  -0.00192271            9.00       -5.45     -282.84

     kinetic stress (kbar)  15768.64      9.01     -6.17
                                9.01  15674.65     21.27
                               -6.17     21.27  15745.21

     local   stress (kbar)  -6951.16  -3164.20    -44.23
                            -3164.20  -5297.86    -89.08
                              -44.23    -89.08  -6438.20

     nonloc. stress (kbar)   6572.17     -5.20     -0.71
                               -5.20   6580.21     -2.89
                               -0.71     -2.89   6536.19

     hartree stress (kbar)   7236.45   1353.64    -38.60
                             1353.64   6503.86     77.34
                              -38.60     77.34   7199.02

     exc-cor stress (kbar)   8343.62      1.37      0.57
                                1.37   8343.24     -0.84
                                0.57     -0.84   8342.19

     corecor stress (kbar) -13631.50      0.72     -0.39
                                0.72 -13631.03     -0.25
                               -0.39     -0.25 -13629.08

     ewald   stress (kbar) -17598.95   1803.91     98.54
                             1803.91 -18447.22    -11.01
                               98.54    -11.01 -18038.16

     hubbard stress (kbar)      0.00      0.00      0.00
                                0.00      0.00      0.00
                                0.00      0.00      0.00

     DFT-D   stress (kbar)      0.00      0.00      0.00
                                0.00      0.00      0.00
                                0.00      0.00      0.00

     XDM     stress (kbar)      0.00      0.00      0.00
                                0.00      0.00      0.00
                                0.00      0.00      0.00

     dft-nl  stress (kbar)      0.00      0.00      0.00
                                0.00      0.00      0.00
                                0.00      0.00      0.00

     TS-vdW  stress (kbar)      0.00      0.00      0.00
                                0.00      0.00      0.00
                                0.00      0.00      0.00

[...]

                                0.00      0.00      0.00

     Writing all to output data dir new_calculations/myprefix.save/

     General routines

     Parallel routines

     PAW routines

   This run was terminated on:  20:47: 7  20May2023

   JOB DONE.