     Program PWSCF v.7.0 starts on 21May2023 at  6:48:57

     Reading input from espresso_10106.pwi
Warning: card &CELL ignored
Warning: card / ignored

     Current dimensions of program PWSCF are:
     Max number of different atomic species (ntypx) = 10
     Max number of k-points (npk) =  40000
     Max angular momentum in pseudopotentials (lmaxx) =  4

     gamma-point specific algorithms are used
     Message from routine setup:
     using ibrav=0 with symmetry is DISCOURAGED, use correct ibrav instead

     Subspace diagonalization in iterative solution of the eigenvalue problem:
     a serial algorithm will be used

     Using Slab Decomposition

     bravais-lattice index     =            0
     lattice parameter (alat)  =       6.8088  a.u.
     unit-cell volume          =     690.5716 (a.u.)^3
     number of atoms/cell      =            6
     number of atomic types    =            3
     number of electrons       =        45.00
     number of Kohn-Sham states=           28
     kinetic-energy cutoff     =      30.0000  Ry
     charge density cutoff     =     240.0000  Ry
     scf convergence threshold =      1.0E-06
     mixing beta               =       0.7000
     number of iterations used =            8  plain     mixing
     Exchange-correlation=  SLA  PW   PBX  PBC
                           (   1   4   3   4   0   0   0)

     celldm(1)=   6.808783  celldm(2)=   0.000000  celldm(3)=   0.000000
     celldm(4)=   0.000000  celldm(5)=   0.000000  celldm(6)=   0.000000

     crystal axes: (cart. coord. in units of alat)
               a(1) = (   1.000000   0.000000   0.000000 )
               a(2) = (   0.000000   1.000000   0.000000 )
               a(3) = (   0.000000   0.000000   2.187762 )

     reciprocal axes: (cart. coord. in units 2 pi/alat)
               b(1) = (  1.000000  0.000000  0.000000 )
               b(2) = (  0.000000  1.000000  0.000000 )
               b(3) = (  0.000000  0.000000  0.457088 )

     PseudoPot. # 1 for Zr read from file:
     /home/pragov/projects/rrg-bengioy-ad/pragov/crystal_structure_design/SSSP/Zr_pbe_v1.uspp.F.UPF
     MD5 check sum: 5db81b1e868ab7776c4564c113de050b
     Pseudo is Ultrasoft + core correction, Zval = 12.0
     Generated by new atomic code, or converted to UPF format
     Using radial grid of  887 points,  6 beta functions with:
                l(1) =   0
                l(2) =   0
                l(3) =   1
                l(4) =   1
                l(5) =   2
                l(6) =   2
     Q(r) pseudized with  6 coefficients,  rinner =    1.200   1.200   1.200
                                                       1.200   1.200

     PseudoPot. # 2 for P  read from file:
     /home/pragov/projects/rrg-bengioy-ad/pragov/crystal_structure_design/SSSP/P.pbe-n-rrkjus_psl.1.0.0.UPF
     MD5 check sum: 8b930f418f0a4573dca56cd030ffe088
     Pseudo is Ultrasoft + core correction, Zval =  5.0
     Generated using "atomic" code by A. Dal Corso  v.5.1
     Using radial grid of 1147 points,  6 beta functions with:
                l(1) =   0
                l(2) =   0
                l(3) =   1
                l(4) =   1
                l(5) =   2
                l(6) =   2
     Q(r) pseudized with 0 coefficients

     PseudoPot. # 3 for S  read from file:
     /home/pragov/projects/rrg-bengioy-ad/pragov/crystal_structure_design/SSSP/s_pbe_v1.4.uspp.F.UPF
     MD5 check sum: 88d86576ff6df21479756cfb9bdac1df
     Pseudo is Ultrasoft + core correction, Zval =  6.0
     Generated by new atomic code, or converted to UPF format
     Using radial grid of  907 points,  6 beta functions with:
                l(1) =   0
                l(2) =   0
                l(3) =   1
                l(4) =   1
                l(5) =   2
                l(6) =   2
     Q(r) pseudized with  8 coefficients,  rinner =    1.300   1.300   1.300
                                                       1.300   1.300

     atomic species   valence    mass     pseudopotential
        Zr            12.00    91.22400     Zr( 1.00)
        P              5.00    30.97376     P ( 1.00)
        S              6.00    32.06000     S ( 1.00)

      8 Sym. Ops. (no inversion) found

                                    s                        frac. trans.

      isym =  1     identity

 cryst.   s( 1) = (     1          0          0      )
                  (     0          1          0      )
                  (     0          0          1      )

 cart.    s( 1) = (  1.0000000  0.0000000  0.0000000 )
                  (  0.0000000  1.0000000  0.0000000 )
                  (  0.0000000  0.0000000  1.0000000 )

      isym =  2     180 deg rotation - cart. axis [0,0,1]

[...]

      isym =  4      90 deg rotation - cart. axis [0,0,1]

[...]

      isym =  5     inv. 180 deg rotation - cart. axis [0,1,0]

[...]

      isym =  8     inv. 180 deg rotation - cart. axis [1,-1,0]

 cryst.   s( 8) = (     0          1          0      )
                  (     1          0          0      )
                  (     0          0          1      )

 cart.    s( 8) = (  0.0000000  1.0000000  0.0000000 )
                  (  1.0000000  0.0000000  0.0000000 )
                  (  0.0000000  0.0000000  1.0000000 )

   Cartesian axes

     site n.     atom                  positions (alat units)
         1           Zr  tau(   1) = (   0.5000000   0.5000000   0.5813497  )
         2           Zr  tau(   2) = (   0.0000000   0.0000000   1.6078238  )
         3           P   tau(   3) = (   0.5000000   0.0000000   2.1867451  )
         4           P   tau(   4) = (   0.0000000   0.5000000   2.1867451  )
         5           P   tau(   5) = (   0.0000000   0.0000000   0.8304812  )
         6           S   tau(   6) = (   0.5000000   0.5000000   1.3579048  )

   Crystallographic axes

     site n.     atom                  positions (cryst. coord.)
         1           Zr  tau(   1) = (  0.5000000  0.5000000  0.2657280  )
         2           Zr  tau(   2) = (  0.0000000  0.0000000  0.7349170  )
         3           P   tau(   3) = (  0.5000000  0.0000000  0.9995350  )
         4           P   tau(   4) = (  0.0000000  0.5000000  0.9995350  )
         5           P   tau(   5) = (  0.0000000  0.0000000  0.3796030  )
         6           S   tau(   6) = (  0.5000000  0.5000000  0.6206820  )

     number of k points=     1  Methfessel-Paxton smearing, width (Ry)=  0.0010
                       cart. coord. in units 2pi/alat
        k(    1) = (   0.0000000   0.0000000   0.0000000), wk =   2.0000000

                       cryst. coord.
        k(    1) = (   0.0000000   0.0000000   0.0000000), wk =   2.0000000

     Check: negative core charge=   -0.000002

     Initial potential from superposition of free atoms

     starting charge      44.9952, renormalised to      45.0000

     negative rho (up, down):  1.199E-01 0.000E+00
     Starting wfcs are   42 randomized atomic wfcs

     Self-consistent Calculation

     iteration #  1     ecut=    30.00 Ry     beta= 0.70
     Davidson diagonalization with overlap

     ethr =  1.00E-02,  avg # of iterations =  3.0

     negative rho (up, down):  1.210E-01 0.000E+00

     total energy              =    -263.42990522 Ry
     estimated scf accuracy    <       0.95796432 Ry

[...]

     total energy              =    -264.09063227 Ry
     estimated scf accuracy    <       0.00009052 Ry

     iteration # 17     ecut=    30.00 Ry     beta= 0.70
     Davidson diagonalization with overlap

     ethr =  2.01E-07,  avg # of iterations =  1.0

[...]

     End of self-consistent calculation

          k = 0.0000 0.0000 0.0000 (   951 PWs)   bands (ev):

   -36.4257 -35.6618 -14.8079 -14.2843 -14.2843 -13.9820 -13.6351 -13.6351
    -2.1369  -0.5304   2.0958   5.9279   7.1191   7.5978   7.5978   7.8116
    10.0316  10.0316  10.2322  12.1203  12.3414  12.4805  12.4805  12.7810
    13.9805  13.9806  14.5356  15.0031

     occupation numbers
     1.0000   1.0000   1.0000   1.0000   1.0000   1.0000   1.0000   1.0000
     1.0000   1.0000   1.0000   1.0000   1.0000   1.0000   1.0000   1.0000
     1.0000   1.0000   1.0000   1.0000   1.0000   0.7511   0.7489  -0.0000
    -0.0000  -0.0000  -0.0000  -0.0000

     the Fermi energy is    12.4847 ev

!    total energy              =    -264.09063334 Ry
     estimated scf accuracy    <       0.00000035 Ry
     smearing contrib. (-TS)   =      -0.00041261 Ry
     internal energy E=F+TS    =    -264.09022073 Ry

     The total energy is F=E-TS. E is the sum of the following terms:
     one-electron contribution =     -24.53946399 Ry
     hartree contribution      =      35.26385312 Ry
     xc contribution           =     -57.59064351 Ry
     ewald contribution        =    -217.22396635 Ry

     convergence has been achieved in  17 iterations

     negative rho (up, down):  1.203E-01 0.000E+00

     Forces acting on atoms (cartesian axes, Ry/au):

     atom    1 type  1   force =     0.00000000    0.00000000   -0.07929133
     atom    2 type  1   force =     0.00000000    0.00000000    0.04144498
     atom    3 type  2   force =     0.00000000    0.00000000    0.00742008
     atom    4 type  2   force =     0.00000000    0.00000000    0.00742008
     atom    5 type  2   force =     0.00000000    0.00000000   -0.00634783
     atom    6 type  3   force =     0.00000000    0.00000000    0.02935402
     The non-local contrib.  to forces
     atom    1 type  1   force =     0.00000000    0.00000000    0.28592536
     atom    2 type  1   force =     0.00000000    0.00000000   -0.24695952
     atom    3 type  2   force =     0.00000000    0.00000000    0.00755459
     atom    4 type  2   force =     0.00000000    0.00000000    0.00755459
     atom    5 type  2   force =     0.00000000    0.00000000   -0.24450713
     atom    6 type  3   force =     0.00000000    0.00000000    0.42383767
     The ionic contribution  to forces
     atom    1 type  1   force =     0.00000000    0.00000000    0.24584194
     atom    2 type  1   force =     0.00000000    0.00000000   -0.24352886
     atom    3 type  2   force =     0.00000000   -0.00000000    0.38298035
     atom    4 type  2   force =    -0.00000000    0.00000000    0.38298035
     atom    5 type  2   force =     0.00000000    0.00000000    0.33427448
     atom    6 type  3   force =     0.00000000    0.00000000   -1.10254827
     The local contribution  to forces
     atom    1 type  1   force =     0.00005286    0.00015660   -0.59468457
     atom    2 type  1   force =    -0.00002812   -0.00006377    0.51893760
     atom    3 type  2   force =     0.00001006   -0.00001416   -0.38269488
     atom    4 type  2   force =    -0.00000428    0.00003477   -0.38266886
     atom    5 type  2   force =    -0.00000306   -0.00001181   -0.10819568
     atom    6 type  3   force =     0.00004497    0.00005057    0.73211169
     The core correction contribution to forces
     atom    1 type  1   force =     0.00000055    0.00000300   -0.01658122
     atom    2 type  1   force =    -0.00000107   -0.00000169    0.01318858
     atom    3 type  2   force =    -0.00000059    0.00000256   -0.00051447
     atom    4 type  2   force =     0.00000159   -0.00000137   -0.00051368
     atom    5 type  2   force =     0.00000129    0.00000106    0.01213810
     atom    6 type  3   force =     0.00000246    0.00000384   -0.02383775
     The Hubbard contrib.    to forces
     atom    1 type  1   force =     0.00000000    0.00000000    0.00000000
     atom    2 type  1   force =     0.00000000    0.00000000    0.00000000
     atom    3 type  2   force =     0.00000000    0.00000000    0.00000000
     atom    4 type  2   force =     0.00000000    0.00000000    0.00000000
     atom    5 type  2   force =     0.00000000    0.00000000    0.00000000
     atom    6 type  3   force =     0.00000000    0.00000000    0.00000000
     The SCF correction term to forces
     atom    1 type  1   force =    -0.00002645   -0.00004399    0.00023268
     atom    2 type  1   force =     0.00001584    0.00002121   -0.00016730
     atom    3 type  2   force =     0.00000708   -0.00000975    0.00010916
     atom    4 type  2   force =    -0.00000178    0.00001608    0.00010402
     atom    5 type  2   force =     0.00000962    0.00001408   -0.00003207
     atom    6 type  3   force =    -0.00000943   -0.00001146   -0.00018380

     Total force =     0.094957     Total SCF correction =     0.000379

     Computing stress (Cartesian axis) and pressure

     negative rho (up, down):  1.203E-01 0.000E+00
          total   stress  (Ry/bohr**3)                   (kbar)     P=      198.60
   0.00120078   0.00000000   0.00000000          176.64        0.00        0.00
   0.00000000   0.00120078   0.00000000            0.00      176.64        0.00
   0.00000000   0.00000000   0.00164861            0.00        0.00      242.52

     kinetic stress (kbar)  11614.66      0.00      0.00
                                0.00  11614.66      0.00
                                0.00      0.00  11212.64

     local   stress (kbar)  -4201.12      1.54     -0.02
                                1.54  -4200.73     -0.00
                               -0.02     -0.00  -2084.68

     nonloc. stress (kbar)   8438.81      0.00      0.00
                                0.00   8438.81      0.00
                                0.00      0.00   8435.18

     hartree stress (kbar)   2782.72     -0.39      0.01
                               -0.39   2782.77      0.01
                                0.01      0.01   1946.40

     exc-cor stress (kbar)    868.56     -0.01      0.00
                               -0.01    868.55      0.00
                                0.00      0.00    860.43

     corecor stress (kbar)  -4171.21      0.02      0.00
                                0.02  -4171.20      0.00
                                0.00      0.00  -4166.57

     ewald   stress (kbar) -15156.00     -0.00     -0.00
                               -0.00 -15156.00     -0.00
                               -0.00     -0.00 -15960.89

     hubbard stress (kbar)      0.00      0.00      0.00
                                0.00      0.00      0.00
                                0.00      0.00      0.00

     DFT-D   stress (kbar)      0.00      0.00      0.00
                                0.00      0.00      0.00
                                0.00      0.00      0.00

     XDM     stress (kbar)      0.00      0.00      0.00
                                0.00      0.00      0.00
                                0.00      0.00      0.00

     dft-nl  stress (kbar)      0.00      0.00      0.00
                                0.00      0.00      0.00
                                0.00      0.00      0.00

     TS-vdW  stress (kbar)      0.00      0.00      0.00
                                0.00      0.00      0.00
                                0.00      0.00      0.00

[...]

                                0.00      0.00      0.00

     Writing all to output data dir new_calculations/myprefix.save/

     General routines

     Parallel routines

   This run was terminated on:   6:49: 6  21May2023

   JOB DONE.