     Program PWSCF v.7.0 starts on 20May2023 at 22:41:49

     Reading input from espresso_25155.pwi
Warning: card &CELL ignored
Warning: card / ignored

     Current dimensions of program PWSCF are:
     Max number of different atomic species (ntypx) = 10
     Max number of k-points (npk) =  40000
     Max angular momentum in pseudopotentials (lmaxx) =  4

     gamma-point specific algorithms are used

     Subspace diagonalization in iterative solution of the eigenvalue problem:
     a serial algorithm will be used

     Using Slab Decomposition

     bravais-lattice index     =            0
     lattice parameter (alat)  =      47.7182  a.u.
     unit-cell volume          =    2184.7490 (a.u.)^3
     number of atoms/cell      =           16
     number of atomic types    =            2
     number of electrons       =       208.00
     number of Kohn-Sham states=          125
     kinetic-energy cutoff     =      30.0000  Ry
     charge density cutoff     =     240.0000  Ry
     scf convergence threshold =      1.0E-06
     mixing beta               =       0.7000
     number of iterations used =            8  plain     mixing
     Exchange-correlation=  SLA  PW   PBX  PBC
                           (   1   4   3   4   0   0   0)

     celldm(1)=  47.718241  celldm(2)=   0.000000  celldm(3)=   0.000000
     celldm(4)=   0.000000  celldm(5)=   0.000000  celldm(6)=   0.000000

     crystal axes: (cart. coord. in units of alat)
               a(1) = (   1.000000   0.000000   0.000000 )
               a(2) = (   0.988346   0.152225   0.000000 )
               a(3) = (   0.988346   0.075667   0.132087 )

     reciprocal axes: (cart. coord. in units 2 pi/alat)
               b(1) = (  1.000000 -6.492654 -3.763184 )
               b(2) = (  0.000000  6.569213 -3.763184 )
               b(3) = (  0.000000  0.000000  7.570741 )

     PseudoPot. # 1 for Zn read from file:
     /home/pragov/projects/rrg-bengioy-ad/pragov/crystal_structure_design/SSSP/Zn_pbe_v1.uspp.F.UPF
     MD5 check sum: df62231357ef9e81f77b2b3087fa5675
     Pseudo is Ultrasoft, Zval = 20.0
     Generated by new atomic code, or converted to UPF format
     Using radial grid of  943 points,  6 beta functions with:
                l(1) =   0
                l(2) =   0
                l(3) =   1
                l(4) =   1
                l(5) =   2
                l(6) =   2
     Q(r) pseudized with  8 coefficients,  rinner =    1.100   1.100   1.100
                                                       1.100   1.100

     PseudoPot. # 2 for S  read from file:
     /home/pragov/projects/rrg-bengioy-ad/pragov/crystal_structure_design/SSSP/s_pbe_v1.4.uspp.F.UPF
     MD5 check sum: 88d86576ff6df21479756cfb9bdac1df
     Pseudo is Ultrasoft + core correction, Zval =  6.0
     Generated by new atomic code, or converted to UPF format
     Using radial grid of  907 points,  6 beta functions with:
                l(1) =   0
                l(2) =   0
                l(3) =   1
                l(4) =   1
                l(5) =   2
                l(6) =   2
     Q(r) pseudized with  8 coefficients,  rinner =    1.300   1.300   1.300
                                                       1.300   1.300

     atomic species   valence    mass     pseudopotential
        Zn            20.00    65.38000     Zn( 1.00)
        S              6.00    32.06000     S ( 1.00)

     No symmetry found

                                    s                        frac. trans.

      isym =  1     identity

 cryst.   s( 1) = (     1          0          0      )
                  (     0          1          0      )
                  (     0          0          1      )

 cart.    s( 1) = (  1.0000000  0.0000000 -0.0000000 )
                  (  0.0000000  1.0000000 -0.0000000 )
                  (  0.0000000  0.0000000  1.0000000 )

   Cartesian axes

     site n.     atom                  positions (alat units)
         1           Zn  tau(   1) = (   0.8682384   0.0664712   0.0385271  )
         2           Zn  tau(   2) = (   2.1085246   0.1614260   0.0935635  )
         3           Zn  tau(   3) = (   1.2403100   0.0949566   0.0550374  )
         4           Zn  tau(   4) = (   1.6123905   0.1234426   0.0715481  )
         5           Zn  tau(   5) = (   0.0000685   0.0000052   0.0000030  )
         6           Zn  tau(   6) = (   2.4806022   0.1899118   0.1100740  )
         7           Zn  tau(   7) = (   2.7286886   0.2089050   0.1210826  )
         8           Zn  tau(   8) = (   0.3721162   0.0284887   0.0165123  )
         9           S   tau(   9) = (   1.7054211   0.1305649   0.0756762  )
        10           S   tau(  10) = (   0.4650753   0.0356056   0.0206372  )
        11           S   tau(  11) = (   2.2014837   0.1685428   0.0976885  )
        12           S   tau(  12) = (   2.5735017   0.1970240   0.1141963  )
        13           S   tau(  13) = (   1.3332691   0.1020734   0.0591624  )
        14           S   tau(  14) = (   0.9612601   0.0735929   0.0426549  )
        15           S   tau(  15) = (   0.0929918   0.0071193   0.0041264  )
        16           S   tau(  16) = (   2.8215554   0.2160147   0.1252035  )

   Crystallographic axes

     site n.     atom                  positions (cryst. coord.)
         1           Zn  tau(   1) = (  0.2916790  0.2916790  0.2916790  )
         2           Zn  tau(   2) = (  0.7083450  0.7083450  0.7083450  )
         3           Zn  tau(   3) = (  0.4166740  0.4166740  0.4166740  )
         4           Zn  tau(   4) = (  0.5416720  0.5416720  0.5416720  )
         5           Zn  tau(   5) = (  0.0000230  0.0000230  0.0000230  )
         6           Zn  tau(   6) = (  0.8333420  0.8333420  0.8333420  )
         7           Zn  tau(   7) = (  0.9166850  0.9166850  0.9166850  )
         8           Zn  tau(   8) = (  0.1250100  0.1250100  0.1250100  )
         9           S   tau(   9) = (  0.5729250  0.5729250  0.5729250  )
        10           S   tau(  10) = (  0.1562390  0.1562390  0.1562390  )
        11           S   tau(  11) = (  0.7395740  0.7395740  0.7395740  )
        12           S   tau(  12) = (  0.8645510  0.8645510  0.8645510  )
        13           S   tau(  13) = (  0.4479030  0.4479030  0.4479030  )
        14           S   tau(  14) = (  0.3229290  0.3229290  0.3229290  )
        15           S   tau(  15) = (  0.0312400  0.0312400  0.0312400  )
        16           S   tau(  16) = (  0.9478830  0.9478830  0.9478830  )

     number of k points=     1  Methfessel-Paxton smearing, width (Ry)=  0.0010
                       cart. coord. in units 2pi/alat
        k(    1) = (   0.0000000   0.0000000   0.0000000), wk =   2.0000000

                       cryst. coord.
        k(    1) = (   0.0000000   0.0000000   0.0000000), wk =   2.0000000

     Initial potential from superposition of free atoms

     starting charge     207.9986, renormalised to     208.0000
     Starting wfcs are  136 randomized atomic wfcs

     Self-consistent Calculation

     iteration #  1     ecut=    30.00 Ry     beta= 0.70
     Davidson diagonalization with overlap

     ethr =  1.00E-02,  avg # of iterations =  4.0

     total energy              =   -3881.45352092 Ry
     estimated scf accuracy    <       2.34061500 Ry

[...]

     total energy              =   -3882.30460910 Ry
     estimated scf accuracy    <       0.00000657 Ry

     iteration # 11     ecut=    30.00 Ry     beta= 0.70
     Davidson diagonalization with overlap

     ethr =  2.76E-09,  avg # of iterations =  2.0

     End of self-consistent calculation

          k = 0.0000 0.0000 0.0000 (  3018 PWs)   bands (ev):

  -118.6176-118.6054-118.6043-118.6020-118.5947-118.5877-118.5866-118.5804
   -72.7827 -72.7708 -72.7683 -72.7638 -72.7584 -72.7513 -72.7486 -72.7420
   -72.7231 -72.7231 -72.7105 -72.7105 -72.7079 -72.7079 -72.6992 -72.6992
   -72.6976 -72.6976 -72.6927 -72.6927 -72.6843 -72.6843 -72.6752 -72.6752
    -5.7435  -5.6183  -5.6179  -5.2946  -5.2902  -4.9199  -4.9189  -4.7458
     0.0796   0.0918   0.1028   0.1271   0.1271   0.1515   0.1517   0.1517
     0.1560   0.1560   0.1604   0.1826   0.1826   0.1870   0.1870   0.2077
     0.2077   0.2150   0.2150   0.2319   0.2319   0.3814   0.3828   0.4793
     0.4793   0.4809   0.4809   0.4914   0.4914   0.5001   0.5001   0.5043
     0.5043   0.5107   0.5107   0.5126   0.5126   0.5295   0.5295   0.6943
     1.6756   2.5045   2.5048   4.0712   4.0788   5.8616   5.8618   6.3225
     6.3225   6.4393   6.4393   6.4399   6.4399   6.7355   6.7355   6.7453
     6.7453   7.0813   7.0813   7.0813   7.0820   7.0820   7.2402   7.2402
     8.8440   9.7163   9.7250   9.8604   9.9765  10.0120  10.1192  10.2490
    12.9861  12.9981  13.0417  13.0417  13.1211  13.2330  13.2331  13.2814
    13.2815  13.5580  13.5586  13.6514  13.6985

     occupation numbers
     1.0000   1.0000   1.0000   1.0000   1.0000   1.0000   1.0000   1.0000
     1.0000   1.0000   1.0000   1.0000   1.0000   1.0000   1.0000   1.0000
     1.0000   1.0000   1.0000   1.0000   1.0000   1.0000   1.0000   1.0000
     1.0000   1.0000   1.0000   1.0000   1.0000   1.0000   1.0000   1.0000
     1.0000   1.0000   1.0000   1.0000   1.0000   1.0000   1.0000   1.0000
     1.0000   1.0000   1.0000   1.0000   1.0000   1.0000   1.0000   1.0000
     1.0000   1.0000   1.0000   1.0000   1.0000   1.0000   1.0000   1.0000
     1.0000   1.0000   1.0000   1.0000   1.0000   1.0000   1.0000   1.0000
     1.0000   1.0000   1.0000   1.0000   1.0000   1.0000   1.0000   1.0000
     1.0000   1.0000   1.0000   1.0000   1.0000   1.0000   1.0000   1.0000
     1.0000   1.0000   1.0000   1.0000   1.0000   1.0000   1.0000   1.0000
     1.0000   1.0000   1.0000   1.0000   1.0000   1.0000   1.0000   1.0000
     1.0000   1.0000   1.0000   1.0000   1.0000   1.0000   1.0000   1.0000
    -0.0000  -0.0000  -0.0000  -0.0000  -0.0000  -0.0000  -0.0000  -0.0000
    -0.0000  -0.0000  -0.0000  -0.0000  -0.0000  -0.0000  -0.0000  -0.0000
    -0.0000  -0.0000  -0.0000  -0.0000  -0.0000

     the Fermi energy is     7.6195 ev

!    total energy              =   -3882.30460945 Ry
     estimated scf accuracy    <       0.00000095 Ry
     smearing contrib. (-TS)   =       0.00000000 Ry
     internal energy E=F+TS    =   -3882.30460945 Ry

     The total energy is F=E-TS. E is the sum of the following terms:
     one-electron contribution =   -3660.18462472 Ry
     hartree contribution      =    1886.80153267 Ry
     xc contribution           =    -407.00659291 Ry
     ewald contribution        =   -1701.91492449 Ry

     convergence has been achieved in  11 iterations

     Forces acting on atoms (cartesian axes, Ry/au):

     atom    1 type  1   force =     0.07529328    0.00579079    0.00333457
     atom    2 type  1   force =     0.07232703    0.00555037    0.00324311
     atom    3 type  1   force =     0.07229365    0.00552552    0.00321292
     atom    4 type  1   force =     0.07506931    0.00572399    0.00332212
     atom    5 type  1   force =     0.07517302    0.00572162    0.00332944
     atom    6 type  1   force =     0.07377098    0.00568776    0.00329609
     atom    7 type  1   force =     0.07401711    0.00564629    0.00329262
     atom    8 type  1   force =     0.07174736    0.00547887    0.00314717
     atom    9 type  2   force =    -0.07527886   -0.00576035   -0.00334074
     atom   10 type  2   force =    -0.07354439   -0.00562477   -0.00325371
     atom   11 type  2   force =    -0.07351245   -0.00562435   -0.00326979
     atom   12 type  2   force =    -0.07243522   -0.00555749   -0.00321621
     atom   13 type  2   force =    -0.07341127   -0.00561433   -0.00326758
     atom   14 type  2   force =    -0.07536603   -0.00577616   -0.00334333
     atom   15 type  2   force =    -0.07358181   -0.00562613   -0.00326270
     atom   16 type  2   force =    -0.07256170   -0.00554162   -0.00322399
     The non-local contrib.  to forces
     atom    1 type  1   force =    -0.96793422   -0.07409701   -0.04295290
     atom    2 type  1   force =    -0.96349254   -0.07376550   -0.04274400
     atom    3 type  1   force =    -0.96340164   -0.07375526   -0.04273007
     atom    4 type  1   force =    -0.96783479   -0.07410237   -0.04294485
     atom    5 type  1   force =    -0.95358615   -0.07300989   -0.04231393
     atom    6 type  1   force =    -0.95951648   -0.07345290   -0.04257415
     atom    7 type  1   force =    -0.95157241   -0.07285587   -0.04222211
     atom    8 type  1   force =    -0.96290675   -0.07372192   -0.04272591
     atom    9 type  2   force =     0.11266254    0.00859025    0.00499059
     atom   10 type  2   force =     0.10315976    0.00785853    0.00451361
     atom   11 type  2   force =     0.10245518    0.00782254    0.00460047
     atom   12 type  2   force =     0.09824658    0.00758590    0.00435880
     atom   13 type  2   force =     0.10292346    0.00786291    0.00464149
     atom   14 type  2   force =     0.11232493    0.00862887    0.00497177
     atom   15 type  2   force =     0.10233401    0.00778494    0.00452507
     atom   16 type  2   force =     0.09828981    0.00745543    0.00437973
     The ionic contribution  to forces
     atom    1 type  1   force =    -0.00629861   -0.00048221   -0.00028365
     atom    2 type  1   force =    -0.04210784   -0.00322372   -0.00186274
     atom    3 type  1   force =    -0.01897417   -0.00145264   -0.00083621
     atom    4 type  1   force =     0.03143555    0.00240667    0.00140190
     atom    5 type  1   force =     0.05135128    0.00393139    0.00228439
     atom    6 type  1   force =    -0.03709004   -0.00283957   -0.00164008
     atom    7 type  1   force =     0.06785768    0.00519510    0.00300807
     atom    8 type  1   force =    -0.02597394   -0.00198853   -0.00114682
     atom    9 type  2   force =     0.01278229    0.00097860    0.00057025
     atom   10 type  2   force =     0.04664869    0.00357137    0.00206424
     atom   11 type  2   force =     0.04670762    0.00357588    0.00206685
     atom   12 type  2   force =    -0.10879048   -0.00832886   -0.00483320
     atom   13 type  2   force =     0.04564083    0.00349420    0.00201952
     atom   14 type  2   force =     0.00417015    0.00031926    0.00017918
     atom   15 type  2   force =     0.04582530    0.00350833    0.00202770
     atom   16 type  2   force =    -0.11318429   -0.00866525   -0.00501940
     The local contribution  to forces
     atom    1 type  1   force =     1.04677052    0.08009320    0.04646426
     atom    2 type  1   force =     1.07998213    0.08267173    0.04788653
     atom    3 type  1   force =     1.05709424    0.08091995    0.04687493
     atom    4 type  1   force =     1.00964827    0.07732906    0.04479646
     atom    5 type  1   force =     0.97451147    0.07465297    0.04323993
     atom    6 type  1   force =     1.06969666    0.08185717    0.04743588
     atom    7 type  1   force =     0.95716696    0.07328986    0.04246589
     atom    8 type  1   force =     1.06424808    0.08148642    0.04726096
     atom    9 type  2   force =    -0.19458759   -0.01482955   -0.00861901
     atom   10 type  2   force =    -0.21753337   -0.01657044   -0.00951608
     atom   11 type  2   force =    -0.21616228   -0.01650462   -0.00969077
     atom   12 type  2   force =    -0.05708214   -0.00450068   -0.00252746
     atom   13 type  2   force =    -0.21490829   -0.01641590   -0.00967937
     atom   14 type  2   force =    -0.18677952   -0.01436428   -0.00825671
     atom   15 type  2   force =    -0.21539584   -0.01638932   -0.00951457
     atom   16 type  2   force =    -0.05322080   -0.00392539   -0.00240209
     The core correction contribution to forces
     atom    1 type  1   force =     0.00000000    0.00000000    0.00000000
     atom    2 type  1   force =     0.00000000    0.00000000    0.00000000
     atom    3 type  1   force =     0.00000000    0.00000000    0.00000000
     atom    4 type  1   force =     0.00000000    0.00000000    0.00000000
     atom    5 type  1   force =     0.00000000    0.00000000    0.00000000
     atom    6 type  1   force =     0.00000000    0.00000000    0.00000000
     atom    7 type  1   force =     0.00000000    0.00000000    0.00000000
     atom    8 type  1   force =     0.00000000    0.00000000    0.00000000
     atom    9 type  2   force =    -0.00606675   -0.00046210   -0.00026859
     atom   10 type  2   force =    -0.00553340   -0.00042083   -0.00024101
     atom   11 type  2   force =    -0.00548848   -0.00041868   -0.00024717
     atom   12 type  2   force =    -0.00525724   -0.00040692   -0.00023315
     atom   13 type  2   force =    -0.00551360   -0.00042091   -0.00024966
     atom   14 type  2   force =    -0.00604521   -0.00046490   -0.00026743
     atom   15 type  2   force =    -0.00548144   -0.00041612   -0.00024213
     atom   16 type  2   force =    -0.00525361   -0.00039732   -0.00023443
     The Hubbard contrib.    to forces
     atom    1 type  1   force =     0.00000000    0.00000000    0.00000000
     atom    2 type  1   force =     0.00000000    0.00000000    0.00000000
     atom    3 type  1   force =     0.00000000    0.00000000    0.00000000
     atom    4 type  1   force =     0.00000000    0.00000000    0.00000000
     atom    5 type  1   force =     0.00000000    0.00000000    0.00000000
     atom    6 type  1   force =     0.00000000    0.00000000    0.00000000
     atom    7 type  1   force =     0.00000000    0.00000000    0.00000000
     atom    8 type  1   force =     0.00000000    0.00000000    0.00000000
     atom    9 type  2   force =     0.00000000    0.00000000    0.00000000
     atom   10 type  2   force =     0.00000000    0.00000000    0.00000000
     atom   11 type  2   force =     0.00000000    0.00000000    0.00000000
     atom   12 type  2   force =     0.00000000    0.00000000    0.00000000
     atom   13 type  2   force =     0.00000000    0.00000000    0.00000000
     atom   14 type  2   force =     0.00000000    0.00000000    0.00000000
     atom   15 type  2   force =     0.00000000    0.00000000    0.00000000
     atom   16 type  2   force =     0.00000000    0.00000000    0.00000000
     The SCF correction term to forces
     atom    1 type  1   force =     0.00281982    0.00028409    0.00011136
     atom    2 type  1   force =    -0.00199050   -0.00012487   -0.00003219
     atom    3 type  1   force =    -0.00236055   -0.00017927   -0.00009124
     atom    4 type  1   force =     0.00188452    0.00009791    0.00007311
     atom    5 type  1   force =     0.00296065    0.00015442    0.00012355
     atom    6 type  1   force =     0.00074507    0.00013033    0.00007895
     atom    7 type  1   force =     0.00062910    0.00002447    0.00004527
     atom    8 type  1   force =    -0.00355579   -0.00028983   -0.00023657
     atom    9 type  2   force =    -0.00000512   -0.00003028   -0.00000949
     atom   10 type  2   force =    -0.00022184   -0.00005612   -0.00006997
     atom   11 type  2   force =    -0.00096027   -0.00009219    0.00000532
     atom   12 type  2   force =     0.00051230    0.00010035    0.00002330
     atom   13 type  2   force =    -0.00148943   -0.00012737    0.00000493
     atom   14 type  2   force =     0.00102785    0.00011217    0.00003436
     atom   15 type  2   force =    -0.00079961   -0.00010668   -0.00005428
     atom   16 type  2   force =     0.00087141   -0.00000182    0.00005669

     Total force =     0.296036     Total SCF correction =     0.007053

     Computing stress (Cartesian axis) and pressure

          total   stress  (Ry/bohr**3)                   (kbar)     P=      -17.37
  -0.00106947  -0.00010970  -0.00006357         -157.32      -16.14       -9.35
  -0.00010970   0.00035486  -0.00000488          -16.14       52.20       -0.72
  -0.00006357  -0.00000488   0.00036044           -9.35       -0.72       53.02

     kinetic stress (kbar)  17268.72    -37.88    -21.96
                              -37.88  17760.64     -1.68
                              -21.96     -1.68  17762.56

     local   stress (kbar) -14024.51    -19.51    -11.30
                              -19.51 -13771.41     -0.88
                              -11.30     -0.88 -13770.43

     nonloc. stress (kbar)    165.50    -21.16    -12.26
                              -21.16    440.26     -0.94
                              -12.26     -0.94    441.34

     hartree stress (kbar)  42594.79     28.48     16.50
                               28.48  42225.06      1.27
                               16.50      1.27  42223.62

     exc-cor stress (kbar)  -6152.67      0.14      0.08
                                0.14  -6154.50      0.01
                                0.08      0.01  -6154.50

     corecor stress (kbar)  -2090.06      1.61      0.93
                                1.61  -2110.94      0.07
                                0.93      0.07  -2111.02

     ewald   stress (kbar) -37919.10     32.18     18.65
                               32.18 -38336.91      1.43
                               18.65      1.43 -38338.54

     hubbard stress (kbar)      0.00      0.00      0.00
                                0.00      0.00      0.00
                                0.00      0.00      0.00

     DFT-D   stress (kbar)      0.00      0.00      0.00
                                0.00      0.00      0.00
                                0.00      0.00      0.00

     XDM     stress (kbar)      0.00      0.00      0.00
                                0.00      0.00      0.00
                                0.00      0.00      0.00

     dft-nl  stress (kbar)      0.00      0.00      0.00
                                0.00      0.00      0.00
                                0.00      0.00      0.00

     TS-vdW  stress (kbar)      0.00      0.00      0.00
                                0.00      0.00      0.00
                                0.00      0.00      0.00

[...]

                                0.00      0.00      0.00

     Writing all to output data dir new_calculations/myprefix.save/

     General routines

     Parallel routines

   This run was terminated on:  22:46:29  20May2023

   JOB DONE.