     Program PWSCF v.7.0 starts on 20May2023 at  4:12:59

     Reading input from espresso_1134.pwi
Warning: card &CELL ignored
Warning: card / ignored

     Current dimensions of program PWSCF are:
     Max number of different atomic species (ntypx) = 10
     Max number of k-points (npk) =  40000
     Max angular momentum in pseudopotentials (lmaxx) =  4
     file O.pbe-n-kjpaw_psl.0.1.UPF: wavefunction(s)  2P renormalized

     gamma-point specific algorithms are used
     Message from routine setup:
     using ibrav=0 with symmetry is DISCOURAGED, use correct ibrav instead

     Subspace diagonalization in iterative solution of the eigenvalue problem:
     a serial algorithm will be used

     Using Slab Decomposition

     bravais-lattice index     =            0
     lattice parameter (alat)  =      17.5158  a.u.
     unit-cell volume          =    1651.3060 (a.u.)^3
     number of atoms/cell      =           15
     number of atomic types    =            3
     number of electrons       =       120.00
     number of Kohn-Sham states=           72
     kinetic-energy cutoff     =      30.0000  Ry
     charge density cutoff     =     240.0000  Ry
     scf convergence threshold =      1.0E-06
     mixing beta               =       0.7000
     number of iterations used =            8  plain     mixing
     Exchange-correlation= SLA  PW   PBX  PBC
                           (   1   4   3   4   0   0   0)

     celldm(1)=  17.515800  celldm(2)=   0.000000  celldm(3)=   0.000000
     celldm(4)=   0.000000  celldm(5)=   0.000000  celldm(6)=   0.000000

     crystal axes: (cart. coord. in units of alat)
               a(1) = (   1.000000   0.000000   0.000000 )
               a(2) = (   0.810173   0.586191   0.000000 )
               a(3) = (   0.810173   0.262359   0.524202 )

     reciprocal axes: (cart. coord. in units 2 pi/alat)
               b(1) = (  1.000000 -1.382097 -0.853806 )
               b(2) = (  0.000000  1.705929 -0.853806 )
               b(3) = (  0.000000  0.000000  1.907663 )

     PseudoPot. # 1 for Ta read from file:
     /home/pragov/projects/rrg-bengioy-ad/pragov/crystal_structure_design/SSSP/Ta_pbe_v1.uspp.F.UPF
     MD5 check sum: f8bbe9446314a3b8ea5d9f3e3836c939
     Pseudo is Ultrasoft + core correction, Zval = 13.0
     Generated by new atomic code, or converted to UPF format
     Using radial grid of  921 points,  7 beta functions with:
                l(1) =   0
                l(2) =   0
                l(3) =   1
                l(4) =   1
                l(5) =   2
                l(6) =   2
                l(7) =   3
     Q(r) pseudized with  6 coefficients,  rinner =    1.300   1.300   1.300
                                                       1.300   1.300   1.300
                                                       1.300

     PseudoPot. # 2 for Mo read from file:
     /home/pragov/projects/rrg-bengioy-ad/pragov/crystal_structure_design/SSSP/Mo_ONCV_PBE-1.0.oncvpsp.upf
     MD5 check sum: 1b5d28e075c9ccadda658a603575cd1f
     Pseudo is Norm-conserving, Zval = 14.0
     Generated using ONCVPSP code by D. R. Hamann
     Using radial grid of 1526 points,  6 beta functions with:
                l(1) =   0
                l(2) =   0
                l(3) =   1
                l(4) =   1
                l(5) =   2
                l(6) =   2

     PseudoPot. # 3 for O  read from file:
     /home/pragov/projects/rrg-bengioy-ad/pragov/crystal_structure_design/SSSP/O.pbe-n-kjpaw_psl.0.1.UPF
     MD5 check sum: 0234752ac141de4415c5fc33072bef88
     Pseudo is Projector augmented-wave + core cor, Zval =  6.0
     Generated using "atomic" code by A. Dal Corso  v.5.0.99 svn rev. 10869
     Shape of augmentation charge: BESSEL
     Using radial grid of 1095 points,  4 beta functions with:
                l(1) =   0
                l(2) =   0
                l(3) =   1
                l(4) =   1
     Q(r) pseudized with 0 coefficients

     atomic species   valence    mass     pseudopotential
        Ta            13.00   180.94788     Ta( 1.00)
        Mo            14.00    95.95000     Mo( 1.00)
        O              6.00    15.99900     O ( 1.00)

      2 Sym. Ops., with inversion, found

                                    s                        frac. trans.

      isym =  1     identity

 cryst.   s( 1) = (     1          0          0      )
                  (     0          1          0      )
                  (     0          0          1      )

 cart.    s( 1) = (  1.0000000  0.0000000  0.0000000 )
                  (  0.0000000  1.0000000 -0.0000000 )
                  (  0.0000000  0.0000000  1.0000000 )

      isym =  2     inversion

 cryst.   s( 2) = (    -1          0          0      )
                  (     0         -1          0      )
                  (     0          0         -1      )

 cart.    s( 2) = ( -1.0000000 -0.0000000 -0.0000000 )
                  (  0.0000000 -1.0000000  0.0000000 )
                  (  0.0000000  0.0000000 -1.0000000 )

   Cartesian axes

     site n.     atom                  positions (alat units)
         1           Ta  tau(   1) = (   0.9744463   0.3155564   0.1949386  )
         2           Ta  tau(   2) = (   1.6458994   0.5329941   0.3292632  )
         3           Mo  tau(   3) = (   0.2956929   0.0957547   0.0591535  )
         4           Mo  tau(   4) = (   2.3246528   0.7527958   0.4650482  )
         5           O   tau(   5) = (   1.5448176   0.3439283   0.3872849  )
         6           O   tau(   6) = (   1.4531770   0.6269167   0.3872849  )
         7           O   tau(   7) = (   1.5448176   0.5002606   0.1342224  )
         8           O   tau(   8) = (   1.1671687   0.2216338   0.1369168  )
         9           O   tau(   9) = (   1.0755282   0.5046221   0.1369168  )
        10           O   tau(  10) = (   1.0755282   0.3482899   0.3899793  )
        11           O   tau(  11) = (   0.4702341   0.1522766   0.0940706  )
        12           O   tau(  12) = (   2.1501116   0.6962739   0.4301311  )
        13           O   tau(  13) = (   0.9050864   0.2930955   0.0000000  )
        14           O   tau(  14) = (   0.9050864   0.1311797   0.2621009  )
        15           O   tau(  15) = (   0.8101729   0.4242752   0.2621009  )

   Crystallographic axes

     site n.     atom                  positions (cryst. coord.)
         1           Ta  tau(   1) = (  0.3718770  0.3718770  0.3718770  )
         2           Ta  tau(   2) = (  0.6281230  0.6281230  0.6281230  )
         3           Mo  tau(   3) = (  0.1128450  0.1128450  0.1128450  )
         4           Mo  tau(   4) = (  0.8871550  0.8871550  0.8871550  )
         5           O   tau(   5) = (  0.7388090  0.2560510  0.7388090  )
         6           O   tau(   6) = (  0.2560510  0.7388090  0.7388090  )
         7           O   tau(   7) = (  0.7388090  0.7388090  0.2560510  )
         8           O   tau(   8) = (  0.7439490  0.2611910  0.2611910  )
         9           O   tau(   9) = (  0.2611910  0.7439490  0.2611910  )
        10           O   tau(  10) = (  0.2611910  0.2611910  0.7439490  )
        11           O   tau(  11) = (  0.1794550  0.1794550  0.1794550  )
        12           O   tau(  12) = (  0.8205450  0.8205450  0.8205450  )
        13           O   tau(  13) = (  0.5000000  0.5000000  0.0000000  )
        14           O   tau(  14) = (  0.5000000 -0.0000000  0.5000000  )
        15           O   tau(  15) = (  0.0000000  0.5000000  0.5000000  )

     number of k points=     1  Methfessel-Paxton smearing, width (Ry)=  0.0010
                       cart. coord. in units 2pi/alat
        k(    1) = (   0.0000000   0.0000000   0.0000000), wk =   2.0000000

                       cryst. coord.
        k(    1) = (   0.0000000   0.0000000   0.0000000), wk =   2.0000000

     Check: negative core charge=   -0.000011

     Initial potential from superposition of free atoms

     starting charge     119.9958, renormalised to     120.0000

     negative rho (up, down):  1.906E-01 0.000E+00
     Starting wfcs are   90 randomized atomic wfcs
     Checking if some PAW data can be deallocated...

     Self-consistent Calculation

     iteration #  1     ecut=    30.00 Ry     beta= 0.70
     Davidson diagonalization with overlap

     ethr =  1.00E-02,  avg # of iterations =  2.0

     negative rho (up, down):  1.910E-01 0.000E+00

     total energy              =   -1013.12435832 Ry
     estimated scf accuracy    <       6.31334721 Ry

[...]

     total energy              =   -1016.59106659 Ry
     estimated scf accuracy    <       0.00000156 Ry

     iteration # 13     ecut=    30.00 Ry     beta= 0.70
     Davidson diagonalization with overlap

     ethr =  1.30E-09,  avg # of iterations =  2.0

[...]

     End of self-consistent calculation

          k = 0.0000 0.0000 0.0000 (  2292 PWs)   bands (ev):

   -63.9604 -63.9578 -57.2033 -57.2029 -31.5391 -31.5351 -31.4521 -31.4520
   -31.4505 -31.4505 -30.4929 -30.4929 -30.4466 -30.4304 -30.4304 -30.4021
   -13.4271 -13.0499 -12.7960 -12.7953 -12.6311 -12.6303 -12.2971 -12.0725
   -12.0721 -12.0114 -11.9974  -1.3208  -1.3205  -1.1309  -0.5126  -0.5121
    -0.4612  -0.1499  -0.1498   0.2351   0.4948   0.4949   0.5418   1.0053
     1.0055   1.1029   1.4160   1.4161   1.5268   1.5388   1.5389   2.1998
     2.1999   2.2936   2.7383   3.2328   3.2423   3.2427   3.4217   3.4553
     3.4555   3.9047   3.9049   4.0326   6.2404   6.2404   7.2743   7.4692
     7.4692   8.4875   8.4876   9.4569   9.4570   9.4677   9.4678   9.5383

     occupation numbers
     1.0000   1.0000   1.0000   1.0000   1.0000   1.0000   1.0000   1.0000
     1.0000   1.0000   1.0000   1.0000   1.0000   1.0000   1.0000   1.0000
     1.0000   1.0000   1.0000   1.0000   1.0000   1.0000   1.0000   1.0000
     1.0000   1.0000   1.0000   1.0000   1.0000   1.0000   1.0000   1.0000
     1.0000   1.0000   1.0000   1.0000   1.0000   1.0000   1.0000   1.0000
     1.0000   1.0000   1.0000   1.0000   1.0000   1.0000   1.0000   1.0000
     1.0000   1.0000   1.0000   1.0000   1.0000   1.0000   1.0000   1.0000
     1.0000   1.0000   1.0000   1.0000  -0.0000  -0.0000  -0.0000  -0.0000
    -0.0000  -0.0000  -0.0000  -0.0000  -0.0000  -0.0000  -0.0000  -0.0000

     the Fermi energy is     5.0636 ev

!    total energy              =   -1016.59106655 Ry
     estimated scf accuracy    <       0.00000043 Ry
     smearing contrib. (-TS)   =       0.00000000 Ry
     internal energy E=F+TS    =   -1016.59106655 Ry

     The total energy is F=E-TS. E is the sum of the following terms:
     one-electron contribution =    -509.35278241 Ry
     hartree contribution      =     295.23122836 Ry
     xc contribution           =    -196.65966377 Ry
     ewald contribution        =    -501.04316101 Ry
     one-center paw contrib.   =    -104.76668771 Ry
      -> PAW hartree energy AE =     330.25089991 Ry
      -> PAW hartree energy PS =    -329.09793046 Ry
      -> PAW xc energy AE      =    -189.56428176 Ry
      -> PAW xc energy PS      =      83.64462459 Ry
      -> total E_H with PAW    =     296.38419782 Ry
      -> total E_XC with PAW   =    -302.57932094 Ry

     convergence has been achieved in  13 iterations

     negative rho (up, down):  1.941E-01 0.000E+00

     Forces acting on atoms (cartesian axes, Ry/au):

     atom    1 type  1   force =    -0.06032223   -0.01955558   -0.01209978
     atom    2 type  1   force =     0.06032223    0.01955558    0.01209978
     atom    3 type  2   force =    -0.05269384   -0.01708595   -0.01057610
     atom    4 type  2   force =     0.05269384    0.01708595    0.01057610
     atom    5 type  3   force =    -0.03495465   -0.03292961    0.00381967
     atom    6 type  3   force =    -0.04759405    0.00615765    0.00380263
     atom    7 type  3   force =    -0.03496183   -0.01132442   -0.03119841
     atom    8 type  3   force =     0.04759405   -0.00615765   -0.00380263
     atom    9 type  3   force =     0.03495465    0.03292961   -0.00381967
     atom   10 type  3   force =     0.03496183    0.01132442    0.03119841
     atom   11 type  3   force =    -0.04077670   -0.01320687   -0.00816091
     atom   12 type  3   force =     0.04077670    0.01320687    0.00816091
     atom   13 type  3   force =     0.00000000    0.00000000    0.00000000
     atom   14 type  3   force =     0.00000000    0.00000000    0.00000000
     atom   15 type  3   force =     0.00000000    0.00000000    0.00000000
     The non-local contrib.  to forces
     atom    1 type  1   force =     0.02074294    0.00668085    0.00409472
     atom    2 type  1   force =    -0.02074294   -0.00668085   -0.00409472
     atom    3 type  2   force =     0.14799221    0.04787967    0.02953769
     atom    4 type  2   force =    -0.14799221   -0.04787967   -0.02953769
     atom    5 type  3   force =     0.27734594   -0.39825674    0.29979480
     atom    6 type  3   force =    -0.00874362    0.48521349    0.29976252
     atom    7 type  3   force =     0.27735419    0.08983222   -0.49035519
     atom    8 type  3   force =     0.00874362   -0.48521349   -0.29976252
     atom    9 type  3   force =    -0.27734594    0.39825674   -0.29979480
     atom   10 type  3   force =    -0.27735419   -0.08983222    0.49035519
     atom   11 type  3   force =    -1.24356813   -0.40270104   -0.24877019
     atom   12 type  3   force =     1.24356813    0.40270104    0.24877019
     atom   13 type  3   force =     0.00000000    0.00000000    0.00000000
     atom   14 type  3   force =     0.00000000    0.00000000    0.00000000
     atom   15 type  3   force =     0.00000000    0.00000000    0.00000000
     The ionic contribution  to forces
     atom    1 type  1   force =     1.96653320    0.63682539    0.39340566
     atom    2 type  1   force =    -1.96653320   -0.63682540   -0.39340566
     atom    3 type  2   force =     2.81091530    0.91026292    0.56232297
     atom    4 type  2   force =    -2.81091531   -0.91026292   -0.56232297
     atom    5 type  3   force =    -3.67404346    2.60986543   -2.63668816
     atom    6 type  3   force =    -1.44673077   -4.26813343   -2.63668816
     atom    7 type  3   force =    -3.67404391   -1.18977115    3.51396578
     atom    8 type  3   force =     1.44673077    4.26813343    2.63668816
     atom    9 type  3   force =     3.67404346   -2.60986543    2.63668816
     atom   10 type  3   force =     3.67404390    1.18977115   -3.51396578
     atom   11 type  3   force =    11.64373763    3.77060902    2.32933707
     atom   12 type  3   force =   -11.64373762   -3.77060902   -2.32933707
     atom   13 type  3   force =     0.00000000    0.00000000    0.00000000
     atom   14 type  3   force =     0.00000000    0.00000000   -0.00000000
     atom   15 type  3   force =    -0.00000000    0.00000000    0.00000000
     The local contribution  to forces
     atom    1 type  1   force =    -2.04262283   -0.66164612   -0.40881432
     atom    2 type  1   force =     2.04313723    0.66171146    0.40896013
     atom    3 type  2   force =    -3.01288311   -0.97518331   -0.60220962
     atom    4 type  2   force =     3.01119695    0.97490911    0.60183642
     atom    5 type  3   force =     3.36484772   -2.24771547    2.34340848
     atom    6 type  3   force =     1.40853573    3.79347280    2.34342451
     atom    7 type  3   force =     3.36482014    1.08961352   -3.05886400
     atom    8 type  3   force =    -1.40889376   -3.79331564   -2.34334110
     atom    9 type  3   force =    -3.36504510    2.24740856   -2.34331033
     atom   10 type  3   force =    -3.36502827   -1.08965730    3.05854955
     atom   11 type  3   force =   -10.45082451   -3.38426845   -2.09064988
     atom   12 type  3   force =    10.45033424    3.38413179    2.09055552
     atom   13 type  3   force =     0.00029773    0.00008402    0.00050767
     atom   14 type  3   force =     0.00030490    0.00051668   -0.00013719
     atom   15 type  3   force =     0.00054010   -0.00025669   -0.00013783
     The core correction contribution to forces
     atom    1 type  1   force =    -0.00548265   -0.00177703   -0.00109811
     atom    2 type  1   force =     0.00548921    0.00177881    0.00110012
     atom    3 type  2   force =     0.00000000    0.00000000    0.00000000
     atom    4 type  2   force =     0.00000000    0.00000000    0.00000000
     atom    5 type  3   force =    -0.00294704    0.00289174   -0.00251504
     atom    6 type  3   force =    -0.00069261   -0.00407018   -0.00251475
     atom    7 type  3   force =    -0.00294718   -0.00095452    0.00371214
     atom    8 type  3   force =     0.00069327    0.00407017    0.00251462
     atom    9 type  3   force =     0.00294764   -0.00289118    0.00251513
     atom   10 type  3   force =     0.00294777    0.00095501   -0.00371128
     atom   11 type  3   force =     0.00963936    0.00312150    0.00192834
     atom   12 type  3   force =    -0.00963768   -0.00312091   -0.00192794
     atom   13 type  3   force =    -0.00000082   -0.00000024   -0.00000128
     atom   14 type  3   force =    -0.00000089   -0.00000125    0.00000040
     atom   15 type  3   force =    -0.00000125    0.00000045    0.00000026
     The Hubbard contrib.    to forces
     atom    1 type  1   force =     0.00000000    0.00000000    0.00000000
     atom    2 type  1   force =     0.00000000    0.00000000    0.00000000
     atom    3 type  2   force =     0.00000000    0.00000000    0.00000000
     atom    4 type  2   force =     0.00000000    0.00000000    0.00000000
     atom    5 type  3   force =     0.00000000    0.00000000    0.00000000
     atom    6 type  3   force =     0.00000000    0.00000000    0.00000000
     atom    7 type  3   force =     0.00000000    0.00000000    0.00000000
     atom    8 type  3   force =     0.00000000    0.00000000    0.00000000
     atom    9 type  3   force =     0.00000000    0.00000000    0.00000000
     atom   10 type  3   force =     0.00000000    0.00000000    0.00000000
     atom   11 type  3   force =     0.00000000    0.00000000    0.00000000
     atom   12 type  3   force =     0.00000000    0.00000000    0.00000000
     atom   13 type  3   force =     0.00000000    0.00000000    0.00000000
     atom   14 type  3   force =     0.00000000    0.00000000    0.00000000
     atom   15 type  3   force =     0.00000000    0.00000000    0.00000000
     The SCF correction term to forces
     atom    1 type  1   force =     0.00046705    0.00035285    0.00029734
     atom    2 type  1   force =    -0.00106814   -0.00043693   -0.00047503
     atom    3 type  2   force =     0.00117221   -0.00007015   -0.00024792
     atom    4 type  2   force =     0.00029486    0.00029453    0.00057957
     atom    5 type  3   force =    -0.00013274    0.00031627   -0.00018193
     atom    6 type  3   force =     0.00006464   -0.00032709   -0.00018796
     atom    7 type  3   force =    -0.00012247   -0.00002880    0.00037765
     atom    8 type  3   force =     0.00034757    0.00016582    0.00009174
     atom    9 type  3   force =     0.00037968    0.00005175    0.00008064
     atom   10 type  3   force =     0.00037521    0.00010346    0.00000552
     atom   11 type  3   force =     0.00025502    0.00003611   -0.00000111
     atom   12 type  3   force =     0.00026569    0.00010798    0.00010535
     atom   13 type  3   force =    -0.00034718   -0.00009770   -0.00059041
     atom   14 type  3   force =    -0.00035471   -0.00059864    0.00016440
     atom   15 type  3   force =    -0.00061472    0.00029707    0.00016105

     Total force =     0.180078     Total SCF correction =     0.002549

     Computing stress (Cartesian axis) and pressure

     negative rho (up, down):  1.941E-01 0.000E+00
          total   stress  (Ry/bohr**3)                   (kbar)     P=     -330.50
  -0.00245972  -0.00011113  -0.00006850         -361.84      -16.35      -10.08
  -0.00011113  -0.00215163  -0.00002235          -16.35     -316.52       -3.29
  -0.00006850  -0.00002235  -0.00212875          -10.08       -3.29     -313.15

     kinetic stress (kbar)  20890.32      7.05      4.36
                                7.05  20870.88      1.40
                                4.36      1.40  20869.51

     local   stress (kbar)  -9264.99   1139.10    703.76
                             1139.10 -12413.27    227.83
                              703.76    227.83 -12641.10

     nonloc. stress (kbar)    814.30    -11.03     -6.81
                              -11.03    844.78     -2.20
                               -6.81     -2.20    846.99

     hartree stress (kbar)   7728.92   -543.67   -335.91
                             -543.67   9231.41   -108.72
                             -335.91   -108.72   9340.07

     exc-cor stress (kbar)   1065.18      0.85      0.53
                                0.85   1062.82      0.17
                                0.53      0.17   1062.65

     corecor stress (kbar)  -5555.20     -0.10     -0.06
                               -0.10  -5554.92     -0.02
                               -0.06     -0.02  -5554.90

     ewald   stress (kbar) -16040.37   -608.55   -375.94
                             -608.55 -14358.23   -121.74
                             -375.94   -121.74 -14236.37

     hubbard stress (kbar)      0.00      0.00      0.00
                                0.00      0.00      0.00
                                0.00      0.00      0.00

     DFT-D   stress (kbar)      0.00      0.00      0.00
                                0.00      0.00      0.00
                                0.00      0.00      0.00

     XDM     stress (kbar)      0.00      0.00      0.00
                                0.00      0.00      0.00
                                0.00      0.00      0.00

     dft-nl  stress (kbar)      0.00      0.00      0.00
                                0.00      0.00      0.00
                                0.00      0.00      0.00

     TS-vdW  stress (kbar)      0.00      0.00      0.00
                                0.00      0.00      0.00
                                0.00      0.00      0.00

[...]

                                0.00      0.00      0.00

     Writing all to output data dir new_calculations/myprefix.save/

     General routines

     Parallel routines

     PAW routines

   This run was terminated on:   4:13:30  20May2023

   JOB DONE.