     Program PWSCF v.7.0 starts on 21May2023 at  2:28:15

     Reading input from espresso_16791.pwi
Warning: card &CELL ignored
Warning: card / ignored

     Current dimensions of program PWSCF are:
     Max number of different atomic species (ntypx) = 10
     Max number of k-points (npk) =  40000
     Max angular momentum in pseudopotentials (lmaxx) =  4

     gamma-point specific algorithms are used
     Message from routine setup:
     using ibrav=0 with symmetry is DISCOURAGED, use correct ibrav instead

     Subspace diagonalization in iterative solution of the eigenvalue problem:
     a serial algorithm will be used

     Using Slab Decomposition

     bravais-lattice index     =            0
     lattice parameter (alat)  =      10.7976  a.u.
     unit-cell volume          =     657.8263 (a.u.)^3
     number of atoms/cell      =            3
     number of atomic types    =            2
     number of electrons       =        43.00
     number of Kohn-Sham states=           26
     kinetic-energy cutoff     =      30.0000  Ry
     charge density cutoff     =     240.0000  Ry
     scf convergence threshold =      1.0E-06
     mixing beta               =       0.7000
     number of iterations used =            8  plain     mixing
     Exchange-correlation= SLA  PW   PBE  PBE
                           (   1   4   3   4   0   0   0)

     celldm(1)=  10.797639  celldm(2)=   0.000000  celldm(3)=   0.000000
     celldm(4)=   0.000000  celldm(5)=   0.000000  celldm(6)=   0.000000

     crystal axes: (cart. coord. in units of alat)
               a(1) = (   1.000000   0.000000   0.000000 )
               a(2) = (  -0.500000   0.866025   0.000000 )
               a(3) = (   0.000000   0.000000   0.603385 )

     reciprocal axes: (cart. coord. in units 2 pi/alat)
               b(1) = (  1.000000  0.577350  0.000000 )
               b(2) = (  0.000000  1.154701  0.000000 )
               b(3) = (  0.000000  0.000000  1.657318 )

     PseudoPot. # 1 for Tl read from file:
     /home/pragov/projects/rrg-bengioy-ad/pragov/crystal_structure_design/SSSP/Tl_pbe_v1.2.uspp.F.UPF
     MD5 check sum: b76cf1f7e72655a2b2c53cf6385d7059
     Pseudo is Ultrasoft + core correction, Zval = 13.0
     Generated by new atomic code, or converted to UPF format
     Using radial grid of  899 points,  6 beta functions with:
                l(1) =   0
                l(2) =   0
                l(3) =   1
                l(4) =   1
                l(5) =   2
                l(6) =   2
     Q(r) pseudized with  6 coefficients,  rinner =    1.100   1.100   1.100
                                                       1.100   1.100

     PseudoPot. # 2 for Bi read from file:
     /home/pragov/projects/rrg-bengioy-ad/pragov/crystal_structure_design/SSSP/Bi_pbe_v1.uspp.F.UPF
     MD5 check sum: cceb9f28ec65b6d7ff33140f5b0b1758
     Pseudo is Ultrasoft + core correction, Zval = 15.0
     Generated by new atomic code, or converted to UPF format
     Using radial grid of  899 points,  6 beta functions with:
                l(1) =   0
                l(2) =   0
                l(3) =   1
                l(4) =   1
                l(5) =   2
                l(6) =   2
     Q(r) pseudized with  6 coefficients,  rinner =    1.000   1.000   1.000
                                                       1.000   1.000

     atomic species   valence    mass     pseudopotential
        Tl            13.00   204.38000     Tl( 1.00)
        Bi            15.00   208.98040     Bi( 1.00)

     24 Sym. Ops., with inversion, found

                                    s                        frac. trans.

      isym =  1     identity

 cryst.   s( 1) = (     1          0          0      )
                  (     0          1          0      )
                  (     0          0          1      )

 cart.    s( 1) = (  1.0000000  0.0000000  0.0000000 )
                  (  0.0000000  1.0000000  0.0000000 )
                  (  0.0000000  0.0000000  1.0000000 )

      isym =  2     180 deg rotation - cart. axis [0,0,1]

[...]

      isym =  4     180 deg rotation - cart. axis [1,0,0]

[...]

      isym =  5      60 deg rotation - cryst. axis [0,0,1]

[...]

 cryst.   s( 9) = (     0         -1          0      )
                  (    -1          0          0      )
                  (     0          0         -1      )

 cart.    s( 9) = (  0.5000001 -0.8660253  0.0000000 )
                  ( -0.8660253 -0.5000001  0.0000000 )
                  (  0.0000000  0.0000000 -1.0000000 )

[...]

 cryst.   s(10) = (     1          1          0      )
                  (     0         -1          0      )
                  (     0          0         -1      )

 cart.    s(10) = (  0.4999999  0.8660256  0.0000000 )
                  (  0.8660253 -0.4999999  0.0000000 )
                  (  0.0000000  0.0000000 -1.0000000 )

[...]

      isym = 12     180 deg rotation - cryst. axis [1,1,0]

[...]

      isym = 13     inversion

[...]

      isym = 14     inv. 180 deg rotation - cart. axis [0,0,1]

[...]

      isym = 16     inv. 180 deg rotation - cart. axis [1,0,0]

[...]

      isym = 17     inv.  60 deg rotation - cryst. axis [0,0,1]

[...]

      isym = 24     inv. 180 deg rotation - cryst. axis [1,1,0]

 cryst.   s(24) = (     0         -1          0      )
                  (    -1          0          0      )
                  (     0          0          1      )

 cart.    s(24) = (  0.5000001 -0.8660253  0.0000000 )
                  ( -0.8660253 -0.5000001  0.0000000 )
                  (  0.0000000  0.0000000  1.0000000 )

   Cartesian axes

     site n.     atom                  positions (alat units)
         1           Tl  tau(   1) = (   0.0000000   0.0000000   0.0000000  )
         2           Bi  tau(   2) = (   0.5000005   0.2886748   0.3016923  )
         3           Bi  tau(   3) = (  -0.0000006   0.5773505   0.3016923  )

   Crystallographic axes

     site n.     atom                  positions (cryst. coord.)
         1           Tl  tau(   1) = (  0.0000000  0.0000000  0.0000000  )
         2           Bi  tau(   2) = (  0.6666670  0.3333330  0.5000000  )
         3           Bi  tau(   3) = (  0.3333330  0.6666670  0.5000000  )

     number of k points=     1  Methfessel-Paxton smearing, width (Ry)=  0.0010
                       cart. coord. in units 2pi/alat
        k(    1) = (   0.0000000   0.0000000   0.0000000), wk =   2.0000000

                       cryst. coord.
        k(    1) = (   0.0000000   0.0000000   0.0000000), wk =   2.0000000

     Check: negative core charge=   -0.000005

     Initial potential from superposition of free atoms

     starting charge      40.9951, renormalised to      43.0000

     negative rho (up, down):  1.438E-01 0.000E+00
     Starting wfcs are   27 randomized atomic wfcs

     Self-consistent Calculation

     iteration #  1     ecut=    30.00 Ry     beta= 0.70
     Davidson diagonalization with overlap

     ethr =  1.00E-02,  avg # of iterations =  2.0

     negative rho (up, down):  1.341E-01 0.000E+00

     total energy              =    -515.52961049 Ry
     estimated scf accuracy    <       1.00240285 Ry

[...]

     total energy              =    -515.80814404 Ry
     estimated scf accuracy    <       0.00000233 Ry

     iteration # 21     ecut=    30.00 Ry     beta= 0.70
     Davidson diagonalization with overlap

     ethr =  5.42E-09,  avg # of iterations =  1.0

[...]

     End of self-consistent calculation

          k = 0.0000 0.0000 0.0000 (   912 PWs)   bands (ev):

   -13.8077 -13.7295 -13.4782 -13.4782 -13.4315 -13.4315 -13.0817 -13.0817
   -13.0015 -13.0015  -2.7584  -0.4210  -0.0594  -0.0509  -0.0509   0.0054
     0.0054   5.1592   7.1888   7.1888   8.8569   8.8569  11.8218  14.5087
    16.9908  16.9910

     occupation numbers
     1.0000   1.0000   1.0000   1.0000   1.0000   1.0000   1.0000   1.0000
     1.0000   1.0000   1.0000   1.0000   1.0000   1.0000   1.0000   1.0000
     1.0000   1.0000   1.0000   1.0000   0.7500   0.7500  -0.0000  -0.0000
    -0.0000  -0.0000

     the Fermi energy is     8.8611 ev

!    total energy              =    -515.80814408 Ry
     estimated scf accuracy    <          4.9E-10 Ry
     smearing contrib. (-TS)   =      -0.00041261 Ry
     internal energy E=F+TS    =    -515.80773146 Ry

     The total energy is F=E-TS. E is the sum of the following terms:
     one-electron contribution =    -117.27959933 Ry
     hartree contribution      =      87.80914293 Ry
     xc contribution           =    -191.18108790 Ry
     ewald contribution        =    -295.15618716 Ry

     convergence has been achieved in  21 iterations

     negative rho (up, down):  1.407E-01 0.000E+00

     Forces acting on atoms (cartesian axes, Ry/au):

     atom    1 type  1   force =     0.00000000    0.00000000   -0.00000000
     atom    2 type  2   force =     0.00000000    0.00000000   -0.00000000
     atom    3 type  2   force =    -0.00000000    0.00000000    0.00000000
     The non-local contrib.  to forces
     atom    1 type  1   force =     0.00000000    0.00000000   -0.00000000
     atom    2 type  2   force =    -0.00000000    0.00000000    0.00000000
     atom    3 type  2   force =     0.00000000   -0.00000000    0.00000000
     The ionic contribution  to forces
     atom    1 type  1   force =     0.00000000    0.00000000    0.00000000
     atom    2 type  2   force =    -0.00007025    0.00004056    0.00000000
     atom    3 type  2   force =     0.00007025   -0.00004056    0.00000000
     The local contribution  to forces
     atom    1 type  1   force =     0.00000606    0.00001200    0.00000954
     atom    2 type  2   force =     0.00008216   -0.00011609    0.00000228
     atom    3 type  2   force =    -0.00008223    0.00010942   -0.00000007
     The core correction contribution to forces
     atom    1 type  1   force =     0.00000379    0.00000294    0.00000346
     atom    2 type  2   force =     0.00000087   -0.00000048   -0.00000002
     atom    3 type  2   force =    -0.00000123    0.00000100   -0.00000030
     The Hubbard contrib.    to forces
     atom    1 type  1   force =     0.00000000    0.00000000    0.00000000
     atom    2 type  2   force =     0.00000000    0.00000000    0.00000000
     atom    3 type  2   force =     0.00000000    0.00000000    0.00000000
     The SCF correction term to forces
     atom    1 type  1   force =    -0.00000154   -0.00002117    0.00001262
     atom    2 type  2   force =     0.00000159    0.00003126   -0.00000526
     atom    3 type  2   force =    -0.00000904   -0.00002209   -0.00000049

     Total force =     0.000000     Total SCF correction =     0.000047

     Computing stress (Cartesian axis) and pressure

     negative rho (up, down):  1.407E-01 0.000E+00
          total   stress  (Ry/bohr**3)                   (kbar)     P=     -149.55
   0.00088789   0.00000000   0.00000000          130.61        0.00        0.00
   0.00000000   0.00088789   0.00000000            0.00      130.61        0.00
   0.00000000   0.00000000  -0.00482572            0.00        0.00     -709.89

     kinetic stress (kbar)   6353.36      0.00      0.00
                                0.00   6353.36      0.00
                                0.00      0.00   5291.05

     local   stress (kbar)   -146.63     -0.02     -0.01
                               -0.02   -146.60     -0.01
                               -0.01     -0.01   2841.86

     nonloc. stress (kbar)  14986.57      0.00      0.00
                                0.00  14986.57      0.00
                                0.00      0.00  14211.30

     hartree stress (kbar)   6965.85      0.01      0.00
                                0.01   6965.83      0.00
                                0.00      0.00   5704.46

     exc-cor stress (kbar)  25921.05     -0.00      0.00
                               -0.00  25921.05      0.00
                                0.00      0.00  25903.57

     corecor stress (kbar) -32198.31      0.00     -0.00
                                0.00 -32198.31      0.00
                               -0.00      0.00 -32160.99

     ewald   stress (kbar) -21751.29      0.02      0.00
                                0.02 -21751.27     -0.00
                                0.00     -0.00 -22501.14

     hubbard stress (kbar)      0.00      0.00      0.00
                                0.00      0.00      0.00
                                0.00      0.00      0.00

     DFT-D   stress (kbar)      0.00      0.00      0.00
                                0.00      0.00      0.00
                                0.00      0.00      0.00

     XDM     stress (kbar)      0.00      0.00      0.00
                                0.00      0.00      0.00
                                0.00      0.00      0.00

     dft-nl  stress (kbar)      0.00      0.00      0.00
                                0.00      0.00      0.00
                                0.00      0.00      0.00

     TS-vdW  stress (kbar)      0.00      0.00      0.00
                                0.00      0.00      0.00
                                0.00      0.00      0.00

[...]

                                0.00      0.00      0.00

     Writing all to output data dir new_calculations/myprefix.save/

     General routines

     Parallel routines

   This run was terminated on:   2:28:33  21May2023

   JOB DONE.