     Program PWSCF v.7.0 starts on 20May2023 at  5:33:41

     Reading input from espresso_16074.pwi
Warning: card &CELL ignored
Warning: card / ignored

     Current dimensions of program PWSCF are:
     Max number of different atomic species (ntypx) = 10
     Max number of k-points (npk) =  40000
     Max angular momentum in pseudopotentials (lmaxx) =  4
     file O.pbe-n-kjpaw_psl.0.1.UPF: wavefunction(s)  2P renormalized

     gamma-point specific algorithms are used

     Subspace diagonalization in iterative solution of the eigenvalue problem:
     a serial algorithm will be used

     Using Slab Decomposition

     bravais-lattice index     =            0
     lattice parameter (alat)  =      10.6413  a.u.
     unit-cell volume          =    1387.5838 (a.u.)^3
     number of atoms/cell      =           18
     number of atomic types    =            3
     number of electrons       =       191.00
     number of Kohn-Sham states=          115
     kinetic-energy cutoff     =      30.0000  Ry
     charge density cutoff     =     240.0000  Ry
     scf convergence threshold =      1.0E-06
     mixing beta               =       0.7000
     number of iterations used =            8  plain     mixing
     Exchange-correlation=  SLA  PW   PBX  PBC
                           (   1   4   3   4   0   0   0)

     celldm(1)=  10.641302  celldm(2)=   0.000000  celldm(3)=   0.000000
     celldm(4)=   0.000000  celldm(5)=   0.000000  celldm(6)=   0.000000

     crystal axes: (cart. coord. in units of alat)
               a(1) = (   1.000000   0.000000   0.000000 )
               a(2) = (   0.308829   0.951117   0.000000 )
               a(3) = (   0.397805   0.289082   1.210712 )

     reciprocal axes: (cart. coord. in units 2 pi/alat)
               b(1) = (  1.000000 -0.324702 -0.251042 )
               b(2) = (  0.000000  1.051395 -0.251042 )
               b(3) = (  0.000000  0.000000  0.825960 )

     PseudoPot. # 1 for Ni read from file:
     /home/pragov/projects/rrg-bengioy-ad/pragov/crystal_structure_design/SSSP/ni_pbe_v1.4.uspp.F.UPF
     MD5 check sum: 1ee80287db30b12d2bc1f57a5b5d6409
     Pseudo is Ultrasoft + core correction, Zval = 18.0
     Generated by new atomic code, or converted to UPF format
     Using radial grid of  865 points,  6 beta functions with:
                l(1) =   0
                l(2) =   0
                l(3) =   1
                l(4) =   1
                l(5) =   2
                l(6) =   2
     Q(r) pseudized with 10 coefficients,  rinner =    0.980   0.980   0.980
                                                       0.980   0.980

     PseudoPot. # 2 for O  read from file:
     /home/pragov/projects/rrg-bengioy-ad/pragov/crystal_structure_design/SSSP/O.pbe-n-kjpaw_psl.0.1.UPF
     MD5 check sum: 0234752ac141de4415c5fc33072bef88
     Pseudo is Projector augmented-wave + core cor, Zval =  6.0
     Generated using "atomic" code by A. Dal Corso  v.5.0.99 svn rev. 10869
     Shape of augmentation charge: BESSEL
     Using radial grid of 1095 points,  4 beta functions with:
                l(1) =   0
                l(2) =   0
                l(3) =   1
                l(4) =   1
     Q(r) pseudized with 0 coefficients

     PseudoPot. # 3 for F  read from file:
     /home/pragov/projects/rrg-bengioy-ad/pragov/crystal_structure_design/SSSP/f_pbe_v1.4.uspp.F.UPF
     MD5 check sum: 4c38b6a325caf53ec0e86aed9459de46
     Pseudo is Ultrasoft, Zval =  7.0
     Generated by new atomic code, or converted to UPF format
     Using radial grid of  799 points,  4 beta functions with:
                l(1) =   0
                l(2) =   0
                l(3) =   1
                l(4) =   1
     Q(r) pseudized with  8 coefficients,  rinner =    0.950   0.950   0.950

     atomic species   valence    mass     pseudopotential
        Ni            18.00    58.69340     Ni( 1.00)
        O              6.00    15.99900     O ( 1.00)
        F              7.00    18.99840     F ( 1.00)

     No symmetry found

                                    s                        frac. trans.

      isym =  1     identity

 cryst.   s( 1) = (     1          0          0      )
                  (     0          1          0      )
                  (     0          0          1      )

 cart.    s( 1) = (  1.0000000 -0.0000000 -0.0000000 )
                  (  0.0000000  1.0000000 -0.0000000 )
                  (  0.0000000  0.0000000  1.0000000 )

   Cartesian axes

     site n.     atom                  positions (alat units)
         1           Ni  tau(   1) = (   1.2030410   0.8659923   1.0157170  )
         2           Ni  tau(   2) = (   1.0080322   0.7297731   0.4035363  )
         3           Ni  tau(   3) = (   0.7012249   0.5068183   0.8071755  )
         4           Ni  tau(   4) = (   0.5114399   0.3634105   0.1949948  )
         5           Ni  tau(   5) = (   0.5083341   1.0948303   0.6053559  )
         6           Ni  tau(   6) = (   0.9949303   0.0069764   0.0000000  )
         7           O   tau(   7) = (   0.7866965   0.2935263   0.0000000  )
         8           F   tau(   8) = (   0.9111964   0.2153754   0.8119772  )
         9           F   tau(   9) = (   1.2203833   0.4400594   0.3987346  )
        10           F   tau(  10) = (   1.2950118   0.9428509   0.3606747  )
        11           F   tau(  11) = (   0.9896732   0.7194838   0.7640451  )
        12           F   tau(  12) = (   0.6865992   0.5016379   1.1675584  )
        13           F   tau(  13) = (   0.4099351   0.2996717   0.8500371  )
        14           F   tau(  14) = (   1.0174762   0.7420840   0.0431534  )
        15           F   tau(  15) = (   0.7166810   0.5211022   0.4466667  )
        16           F   tau(  16) = (   0.7974217   1.0188898   0.4029540  )
        17           F   tau(  17) = (   0.4912837   0.7964214   0.8077579  )
        18           F   tau(  18) = (   0.5136440   0.6692728   0.0000000  )

   Crystallographic axes

     site n.     atom                  positions (cryst. coord.)
         1           Ni  tau(   1) = (  0.6668640  0.6555120  0.8389420  )
         2           Ni  tau(   2) = (  0.6697690  0.6659750  0.3333050  )
         3           Ni  tau(   3) = (  0.3340250  0.3302310  0.6666950  )
         4           Ni  tau(   4) = (  0.3444880  0.3331360  0.1610580  )
         5           Ni  tau(   5) = (  0.0008710  0.9991290  0.5000000  )
         6           Ni  tau(   6) = (  0.9926650  0.0073350  0.0000000  )
         7           O   tau(   7) = (  0.6913880  0.3086120  0.0000000  )
         8           F   tau(   8) = (  0.6374230  0.0226040  0.6706610  )
         9           F   tau(   9) = (  0.9773960  0.3625770  0.3293390  )
        10           F   tau(  10) = (  0.8983220  0.9007640  0.2979030  )
        11           F   tau(  11) = (  0.5642480  0.5646540  0.6310710  )
        12           F   tau(  12) = (  0.2306100  0.2343130  0.9643570  )
        13           F   tau(  13) = (  0.0992360  0.1016780  0.7020970  )
        14           F   tau(  14) = (  0.7656870  0.7693900  0.0356430  )
        15           F   tau(  15) = (  0.4353460  0.4357520  0.3689290  )
        16           F   tau(  16) = (  0.3654280  0.9700970  0.3328240  )
        17           F   tau(  17) = (  0.0299030  0.6345720  0.6671760  )
        18           F   tau(  18) = (  0.2963300  0.7036700  0.0000000  )

     number of k points=     1  Methfessel-Paxton smearing, width (Ry)=  0.0010
                       cart. coord. in units 2pi/alat
        k(    1) = (   0.0000000   0.0000000   0.0000000), wk =   2.0000000

                       cryst. coord.
        k(    1) = (   0.0000000   0.0000000   0.0000000), wk =   2.0000000

     Check: negative core charge=   -0.000008

     Initial potential from superposition of free atoms

     starting charge     179.0000, renormalised to     191.0000
     Starting wfcs are  126 randomized atomic wfcs
     Checking if some PAW data can be deallocated...

     Self-consistent Calculation

     iteration #  1     ecut=    30.00 Ry     beta= 0.70
     Davidson diagonalization with overlap

     ethr =  1.00E-02,  avg # of iterations =  4.0

     total energy              =   -2528.25761872 Ry
     estimated scf accuracy    <     149.13205172 Ry

[...]

     total energy              =   -2634.82630745 Ry
     estimated scf accuracy    <       0.00000158 Ry

     iteration # 79     ecut=    30.00 Ry     beta= 0.70
     Davidson diagonalization with overlap

     ethr =  5.87E-10,  avg # of iterations =  1.0

     End of self-consistent calculation

          k = 0.0000 0.0000 0.0000 (  1920 PWs)   bands (ev):

   -96.7635 -96.7576 -96.7566 -96.6000 -96.5977 -96.5936 -57.2259 -57.1995
   -57.1877 -57.1491 -57.1482 -57.1324 -57.1129 -57.1080 -57.0358 -57.0092
   -56.9408 -56.9394 -56.9341 -56.8649 -56.8594 -56.8043 -56.8013 -56.6989
   -17.2829 -16.9427 -16.8954 -16.7672 -16.7655 -16.7118 -16.6217 -16.5952
   -16.3061 -16.2985 -16.1219 -10.5627  -0.9427  -0.2317  -0.1432  -0.0566
    -0.0264   0.3963   0.4882   0.5063   0.6472   0.7730   0.9663   1.0305
     1.0764   1.1172   1.2154   1.2254   1.3290   1.4346   1.4666   1.5464
     1.5967   1.7936   2.0060   2.3193   2.4761   2.5057   2.5876   2.5968
     2.6868   2.8973   2.9737   3.0449   3.4324   3.4565   3.4933   4.5834
     5.3990   5.4508   5.4950   5.5074   5.5552   5.5625   5.5862   5.6226
     5.6613   5.6788   5.6834   5.7780   5.7846   5.9197   5.9405   5.9885
     6.0748   6.1870   6.2205   6.2598   6.7566   6.8185   6.9186   6.9273
     6.9423   7.0704   7.1175   7.1895   7.6375   7.8116   9.9478  13.9292
    14.0269  15.2518  15.2924  15.5169  15.6388  16.5253  16.6241  16.7660
    17.0720  17.1373  17.8954

     occupation numbers
     1.0000   1.0000   1.0000   1.0000   1.0000   1.0000   1.0000   1.0000
     1.0000   1.0000   1.0000   1.0000   1.0000   1.0000   1.0000   1.0000
     1.0000   1.0000   1.0000   1.0000   1.0000   1.0000   1.0000   1.0000
     1.0000   1.0000   1.0000   1.0000   1.0000   1.0000   1.0000   1.0000
     1.0000   1.0000   1.0000   1.0000   1.0000   1.0000   1.0000   1.0000
     1.0000   1.0000   1.0000   1.0000   1.0000   1.0000   1.0000   1.0000
     1.0000   1.0000   1.0000   1.0000   1.0000   1.0000   1.0000   1.0000
     1.0000   1.0000   1.0000   1.0000   1.0000   1.0000   1.0000   1.0000
     1.0000   1.0000   1.0000   1.0000   1.0000   1.0000   1.0000   1.0000
     1.0000   1.0000   1.0000   1.0000   1.0000   1.0000   1.0000   1.0000
     1.0000   1.0000   1.0000   1.0000   1.0000   1.0000   1.0000   1.0000
     1.0000   1.0000   1.0000   1.0000   1.0000   1.0000   0.9659   0.5619
    -0.0278  -0.0000  -0.0000  -0.0000  -0.0000  -0.0000  -0.0000  -0.0000
    -0.0000  -0.0000  -0.0000  -0.0000  -0.0000  -0.0000  -0.0000  -0.0000
    -0.0000  -0.0000  -0.0000

     the Fermi energy is     6.9283 ev

!    total energy              =   -2634.82630715 Ry
     estimated scf accuracy    <       0.00000036 Ry
     smearing contrib. (-TS)   =      -0.00016333 Ry
     internal energy E=F+TS    =   -2634.82614382 Ry

     The total energy is F=E-TS. E is the sum of the following terms:
     one-electron contribution =   -1897.94837366 Ry
     hartree contribution      =    1035.58342046 Ry
     xc contribution           =    -322.43386813 Ry
     ewald contribution        =   -1440.49546225 Ry
     one-center paw contrib.   =      -9.53186024 Ry
      -> PAW hartree energy AE =      27.86408856 Ry
      -> PAW hartree energy PS =     -27.76779249 Ry
      -> PAW xc energy AE      =     -16.90224313 Ry
      -> PAW xc energy PS      =       7.27408681 Ry
      -> total E_H with PAW    =    1035.67971653 Ry
      -> total E_XC with PAW   =    -332.06202445 Ry

     convergence has been achieved in  79 iterations

     Forces acting on atoms (cartesian axes, Ry/au):

     atom    1 type  1   force =    -0.00486696   -0.01507804    0.00932183
     atom    2 type  1   force =    -0.00572945    0.00202353   -0.00107528
     atom    3 type  1   force =    -0.00007416    0.00605754    0.00098071
     atom    4 type  1   force =     0.01587493   -0.00005845   -0.00923745
     atom    5 type  1   force =     0.00109407   -0.00152991   -0.00007921
     atom    6 type  1   force =    -0.04166466    0.05724455    0.00010473
     atom    7 type  2   force =     0.01230150   -0.01693614    0.00000679
     atom    8 type  3   force =     0.00642301   -0.00610845   -0.00183502
     atom    9 type  3   force =     0.00379696   -0.00793221    0.00180093
     atom   10 type  3   force =     0.00211024    0.00214458    0.00702303
     atom   11 type  3   force =     0.00043916   -0.00400208    0.00157376
     atom   12 type  3   force =    -0.00206047   -0.00150745    0.00154244
     atom   13 type  3   force =    -0.00274671   -0.00138808   -0.00702465
     atom   14 type  3   force =     0.00207291    0.00150197   -0.00143914
     atom   15 type  3   force =     0.00372378   -0.00161659   -0.00167407
     atom   16 type  3   force =     0.00376075    0.00434155   -0.00528447
     atom   17 type  3   force =    -0.00533238   -0.00219331    0.00527705
     atom   18 type  3   force =     0.01087747   -0.01496300    0.00001803
     The non-local contrib.  to forces
     atom    1 type  1   force =     0.03971980    0.03606606   -0.06545173
     atom    2 type  1   force =    -0.00389642    0.02642645    0.01751657
     atom    3 type  1   force =    -0.02384418    0.01186553   -0.01764524
     atom    4 type  1   force =    -0.04654106   -0.02667177    0.06557092
     atom    5 type  1   force =     0.02769389   -0.03812220   -0.00011150
     atom    6 type  1   force =    -0.01948014    0.02668807    0.00013637
     atom    7 type  2   force =    -0.04201385    0.05778026    0.00001898
     atom    8 type  3   force =     0.02304610   -0.05058196   -0.02662823
     atom    9 type  3   force =     0.04094136   -0.03744979    0.02659517
     atom   10 type  3   force =    -0.10035694   -0.09277363   -0.01782580
     atom   11 type  3   force =    -0.10208503   -0.07687755   -0.08478806
     atom   12 type  3   force =    -0.09637402   -0.08253602   -0.08750977
     atom   13 type  3   force =     0.11916790    0.06675546    0.01782658
     atom   14 type  3   force =     0.10827215    0.06617458    0.08764040
     atom   15 type  3   force =     0.10470840    0.07339563    0.08466858
     atom   16 type  3   force =    -0.01721997   -0.01553003    0.04050782
     atom   17 type  3   force =     0.02003093    0.01161975   -0.04049261
     atom   18 type  3   force =     0.01288144   -0.01770913    0.00001063
     The ionic contribution  to forces
     atom    1 type  1   force =     0.47515709    0.24903468   -0.93561832
     atom    2 type  1   force =     0.40172642   -0.59303466    0.56361754
     atom    3 type  1   force =     0.43998067   -0.56523555   -0.56361754
     atom    4 type  1   force =    -0.38360372   -0.37502097    0.93561832
     atom    5 type  1   force =    -0.16132680    0.22200125   -0.00000000
     atom    6 type  1   force =    -0.67104207    0.92341866    0.00000000
     atom    7 type  2   force =     2.40834318   -3.31411267   -0.00000000
     atom    8 type  3   force =    -1.84168900    2.34248536    0.13549510
     atom    9 type  3   force =    -1.65921096    2.47509091   -0.13549511
     atom   10 type  3   force =     2.09381450    1.43582693    2.21395153
     atom   11 type  3   force =     1.97372796    1.70182169    2.12977965
     atom   12 type  3   force =     1.72720403    1.40560805    2.43928636
     atom   13 type  3   force =    -2.01227154   -1.54803792   -2.21395153
     atom   14 type  3   force =    -1.87030973   -1.20868078   -2.43928637
     atom   15 type  3   force =    -2.22817754   -1.35167450   -2.12977965
     atom   16 type  3   force =     1.51760330   -2.22560535    0.14271556
     atom   17 type  3   force =     1.64813154   -2.13075136   -0.14271556
     atom   18 type  3   force =    -1.85805733    2.55686623   -0.00000000
     The local contribution  to forces
     atom    1 type  1   force =    -0.51829721   -0.30430403    1.01209291
     atom    2 type  1   force =    -0.40376932    0.56929812   -0.58229435
     atom    3 type  1   force =    -0.41698271    0.55985272    0.58260154
     atom    4 type  1   force =     0.44941323    0.39905578   -1.01235292
     atom    5 type  1   force =     0.13549660   -0.18640860    0.00025501
     atom    6 type  1   force =     0.64568578   -0.88825097   -0.00032207
     atom    7 type  2   force =    -2.35393671    3.23932742   -0.00011943
     atom    8 type  3   force =     1.82503508   -2.29801670   -0.11043908
     atom    9 type  3   force =     1.62222502   -2.44579033    0.11056814
     atom   10 type  3   force =    -1.99115036   -1.34074312   -2.18965376
     atom   11 type  3   force =    -1.87120062   -1.62896610   -2.04294312
     atom   12 type  3   force =    -1.63318697   -1.32476869   -2.35025967
     atom   13 type  3   force =     1.89037697    1.47994378    2.18966740
     atom   14 type  3   force =     1.76437563    1.14419663    2.34976035
     atom   15 type  3   force =     2.12697574    1.27649403    2.04341411
     atom   16 type  3   force =    -1.49674571    2.24570065   -0.18865855
     atom   17 type  3   force =    -1.67349944    2.11690983    0.18871675
     atom   18 type  3   force =     1.85584887   -2.55384783   -0.00009424
     The core correction contribution to forces
     atom    1 type  1   force =    -0.00144442    0.00394753   -0.00135318
     atom    2 type  1   force =     0.00039374   -0.00064194   -0.00024852
     atom    3 type  1   force =     0.00048862   -0.00057243    0.00024845
     atom    4 type  1   force =    -0.00330888    0.00259341    0.00135324
     atom    5 type  1   force =    -0.00076842    0.00105731    0.00000009
     atom    6 type  1   force =     0.00321106   -0.00441852   -0.00000000
     atom    7 type  2   force =     0.00012763   -0.00017510   -0.00000022
     atom    8 type  3   force =     0.00000000    0.00000000    0.00000000
     atom    9 type  3   force =     0.00000000    0.00000000    0.00000000
     atom   10 type  3   force =     0.00000000    0.00000000    0.00000000
     atom   11 type  3   force =     0.00000000    0.00000000    0.00000000
     atom   12 type  3   force =     0.00000000    0.00000000    0.00000000
     atom   13 type  3   force =     0.00000000    0.00000000    0.00000000
     atom   14 type  3   force =     0.00000000    0.00000000    0.00000000
     atom   15 type  3   force =     0.00000000    0.00000000    0.00000000
     atom   16 type  3   force =     0.00000000    0.00000000    0.00000000
     atom   17 type  3   force =     0.00000000    0.00000000    0.00000000
     atom   18 type  3   force =     0.00000000    0.00000000    0.00000000
     The Hubbard contrib.    to forces
     atom    1 type  1   force =     0.00000000    0.00000000    0.00000000
     atom    2 type  1   force =     0.00000000    0.00000000    0.00000000
     atom    3 type  1   force =     0.00000000    0.00000000    0.00000000
     atom    4 type  1   force =     0.00000000    0.00000000    0.00000000
     atom    5 type  1   force =     0.00000000    0.00000000    0.00000000
     atom    6 type  1   force =     0.00000000    0.00000000    0.00000000
     atom    7 type  2   force =     0.00000000    0.00000000    0.00000000
     atom    8 type  3   force =     0.00000000    0.00000000    0.00000000
     atom    9 type  3   force =     0.00000000    0.00000000    0.00000000
     atom   10 type  3   force =     0.00000000    0.00000000    0.00000000
     atom   11 type  3   force =     0.00000000    0.00000000    0.00000000
     atom   12 type  3   force =     0.00000000    0.00000000    0.00000000
     atom   13 type  3   force =     0.00000000    0.00000000    0.00000000
     atom   14 type  3   force =     0.00000000    0.00000000    0.00000000
     atom   15 type  3   force =     0.00000000    0.00000000    0.00000000
     atom   16 type  3   force =     0.00000000    0.00000000    0.00000000
     atom   17 type  3   force =     0.00000000    0.00000000    0.00000000
     atom   18 type  3   force =     0.00000000    0.00000000    0.00000000
     The SCF correction term to forces
     atom    1 type  1   force =    -0.00000118    0.00017628   -0.00034774
     atom    2 type  1   force =    -0.00018284   -0.00002590    0.00033358
     atom    3 type  1   force =     0.00028448    0.00014584   -0.00060639
     atom    4 type  1   force =    -0.00008361   -0.00001634    0.00057309
     atom    5 type  1   force =    -0.00000016   -0.00005912   -0.00022269
     atom    6 type  1   force =    -0.00003825   -0.00019415    0.00029055
     atom    7 type  2   force =    -0.00021770    0.00024250    0.00010757
     atom    8 type  3   force =     0.00003187    0.00000341   -0.00026271
     atom    9 type  3   force =    -0.00015743    0.00021557    0.00013283
     atom   10 type  3   force =    -0.00019593   -0.00016704    0.00055116
     atom   11 type  3   force =    -0.00000211    0.00001844   -0.00047460
     atom   12 type  3   force =     0.00029753    0.00018778    0.00002563
     atom   13 type  3   force =    -0.00001900   -0.00005084   -0.00056699
     atom   14 type  3   force =    -0.00026410   -0.00018991    0.00044658
     atom   15 type  3   force =     0.00021822    0.00016682    0.00002301
     atom   16 type  3   force =     0.00012417   -0.00022517    0.00015081
     atom   17 type  3   force =     0.00000562    0.00002703   -0.00023143
     atom   18 type  3   force =     0.00020553   -0.00027372    0.00010175

     Total force =     0.083696     Total SCF correction =     0.001804

     Computing stress (Cartesian axis) and pressure

          total   stress  (Ry/bohr**3)                   (kbar)     P=     -894.77
  -0.00609700   0.00004282  -0.00017827         -896.90        6.30      -26.22
   0.00004282  -0.00612484  -0.00012951            6.30     -900.99      -19.05
  -0.00017827  -0.00012951  -0.00602575          -26.22      -19.05     -886.42

     kinetic stress (kbar)  34986.77   -175.16    189.11
                             -175.16  35100.57    137.40
                              189.11    137.40  34898.01

     local   stress (kbar) -19378.45  -8699.74  16257.44
                            -8699.74 -13728.98  11814.26
                            16257.44  11814.26 -28782.16

     nonloc. stress (kbar)   9858.43    -88.65     15.21
                              -88.65   9916.06     11.03
                               15.21     11.03   9859.67

     hartree stress (kbar)  36054.28   3744.40  -6989.04
                             3744.40  33622.71  -5078.92
                            -6989.04  -5078.92  40110.67

     exc-cor stress (kbar)  -9641.26      0.26     -3.96
                                0.26  -9641.43     -2.88
                               -3.96     -2.88  -9638.37

     corecor stress (kbar)  -1188.59      0.55     -0.49
                                0.55  -1188.95     -0.36
                               -0.49     -0.36  -1188.78

     ewald   stress (kbar) -51588.08   5224.64  -9494.49
                             5224.64 -54980.98  -6899.58
                            -9494.49  -6899.58 -46145.47

     hubbard stress (kbar)      0.00      0.00      0.00
                                0.00      0.00      0.00
                                0.00      0.00      0.00

     DFT-D   stress (kbar)      0.00      0.00      0.00
                                0.00      0.00      0.00
                                0.00      0.00      0.00

     XDM     stress (kbar)      0.00      0.00      0.00
                                0.00      0.00      0.00
                                0.00      0.00      0.00

     dft-nl  stress (kbar)      0.00      0.00      0.00
                                0.00      0.00      0.00
                                0.00      0.00      0.00

     TS-vdW  stress (kbar)      0.00      0.00      0.00
                                0.00      0.00      0.00
                                0.00      0.00      0.00

[...]

                                0.00      0.00      0.00

     Writing all to output data dir new_calculations/myprefix.save/

     General routines

     Parallel routines

     PAW routines

   This run was terminated on:   5:35:30  20May2023

   JOB DONE.