     Program PWSCF v.7.0 starts on 21May2023 at 17:46:26

     Reading input from espresso_6915.pwi
Warning: card &CELL ignored
Warning: card / ignored

     Current dimensions of program PWSCF are:
     Max number of different atomic species (ntypx) = 10
     Max number of k-points (npk) =  40000
     Max angular momentum in pseudopotentials (lmaxx) =  4

     gamma-point specific algorithms are used
     Message from routine setup:
     using ibrav=0 with symmetry is DISCOURAGED, use correct ibrav instead

     Subspace diagonalization in iterative solution of the eigenvalue problem:
     a serial algorithm will be used

     Using Slab Decomposition

     bravais-lattice index     =            0
     lattice parameter (alat)  =      16.0974  a.u.
     unit-cell volume          =    2197.7802 (a.u.)^3
     number of atoms/cell      =           16
     number of atomic types    =            3
     number of electrons       =       276.00
     number of Kohn-Sham states=          166
     kinetic-energy cutoff     =      30.0000  Ry
     charge density cutoff     =     240.0000  Ry
     scf convergence threshold =      1.0E-06
     mixing beta               =       0.7000
     number of iterations used =            8  plain     mixing
     Exchange-correlation= SLA  PW   PBE  PBE
                           (   1   4   3   4   0   0   0)

     celldm(1)=  16.097393  celldm(2)=   0.000000  celldm(3)=   0.000000
     celldm(4)=   0.000000  celldm(5)=   0.000000  celldm(6)=   0.000000

     crystal axes: (cart. coord. in units of alat)
               a(1) = (   1.000000   0.000000   0.000000 )
               a(2) = (  -0.864706   0.502279   0.000000 )
               a(3) = (   0.000000   0.000000   1.048993 )

     reciprocal axes: (cart. coord. in units 2 pi/alat)
               b(1) = (  1.000000  1.721564  0.000000 )
               b(2) = (  0.000000  1.990925  0.000000 )
               b(3) = (  0.000000  0.000000  0.953295 )

     PseudoPot. # 1 for Ce read from file:
     /home/pragov/projects/rrg-bengioy-ad/pragov/crystal_structure_design/SSSP/Ce.GGA-PBE-paw-v1.0.UPF
     MD5 check sum: f2b950f613061344c13339c8d844425d
     Pseudo is Projector augmented-wave + core cor, Zval = 12.0
     Generated using ATOMPAW code
     Shape of augmentation charge: BESSEL
     Using radial grid of 1102 points,  8 beta functions with:
                l(1) =   0
                l(2) =   0
                l(3) =   1
                l(4) =   1
                l(5) =   2
                l(6) =   2
                l(7) =   3
                l(8) =   3
     Q(r) pseudized with 0 coefficients

     PseudoPot. # 2 for Zn read from file:
     /home/pragov/projects/rrg-bengioy-ad/pragov/crystal_structure_design/SSSP/Zn_pbe_v1.uspp.F.UPF
     MD5 check sum: df62231357ef9e81f77b2b3087fa5675
     Pseudo is Ultrasoft, Zval = 20.0
     Generated by new atomic code, or converted to UPF format
     Using radial grid of  943 points,  6 beta functions with:
                l(1) =   0
                l(2) =   0
                l(3) =   1
                l(4) =   1
                l(5) =   2
                l(6) =   2
     Q(r) pseudized with  8 coefficients,  rinner =    1.100   1.100   1.100
                                                       1.100   1.100

     PseudoPot. # 3 for Sn read from file:
     /home/pragov/projects/rrg-bengioy-ad/pragov/crystal_structure_design/SSSP/Sn_pbe_v1.uspp.F.UPF
     MD5 check sum: 4cf58ce39ec5d5d420df3dd08604eb00
     Pseudo is Ultrasoft + core correction, Zval = 14.0
     Generated by new atomic code, or converted to UPF format
     Using radial grid of  891 points,  6 beta functions with:
                l(1) =   0
                l(2) =   0
                l(3) =   1
                l(4) =   1
                l(5) =   2
                l(6) =   2
     Q(r) pseudized with  6 coefficients,  rinner =    1.200   1.200   1.200
                                                       1.200   1.200

     atomic species   valence    mass     pseudopotential
        Ce            12.00   140.11600     Ce( 1.00)
        Zn            20.00    65.38000     Zn( 1.00)
        Sn            14.00   118.71000     Sn( 1.00)

      4 Sym. Ops., with inversion, found ( 2 have fractional translation)

                                    s                        frac. trans.

      isym =  1     identity

 cryst.   s( 1) = (     1          0          0      )
                  (     0          1          0      )
                  (     0          0          1      )

 cart.    s( 1) = (  1.0000000  0.0000000  0.0000000 )
                  (  0.0000000  1.0000000  0.0000000 )
                  (  0.0000000  0.0000000  1.0000000 )

      isym =  2     180 deg rotation - cart. axis [0,0,1]

 cryst.   s( 2) = (    -1          0          0      )    f =( -0.0000000 )
                  (     0         -1          0      )       ( -0.0000000 )
                  (     0          0          1      )       (  0.5000000 )

 cart.    s( 2) = ( -1.0000000 -0.0000000  0.0000000 )    f =( -0.0000000 )
                  (  0.0000000 -1.0000000  0.0000000 )       ( -0.0000000 )
                  (  0.0000000  0.0000000  1.0000000 )       (  0.5244965 )

      isym =  3     inversion

 cryst.   s( 3) = (    -1          0          0      )
                  (     0         -1          0      )
                  (     0          0         -1      )

 cart.    s( 3) = ( -1.0000000 -0.0000000  0.0000000 )
                  (  0.0000000 -1.0000000  0.0000000 )
                  (  0.0000000  0.0000000 -1.0000000 )

      isym =  4     inv. 180 deg rotation - cart. axis [0,0,1]

 cryst.   s( 4) = (     1          0          0      )    f =(  0.0000000 )
                  (     0          1          0      )       (  0.0000000 )
                  (     0          0         -1      )       (  0.5000000 )

 cart.    s( 4) = (  1.0000000  0.0000000  0.0000000 )    f =(  0.0000000 )
                  (  0.0000000  1.0000000  0.0000000 )       (  0.0000000 )
                  (  0.0000000  0.0000000 -1.0000000 )       (  0.5244965 )

   Cartesian axes

     site n.     atom                  positions (alat units)
         1           Ce  tau(   1) = (  -0.4773485   0.3979401   0.2622482  )
         2           Ce  tau(   2) = (   0.6126428   0.1043389   0.7867447  )
         3           Ce  tau(   3) = (   0.0000000   0.0000000   0.5244965  )
         4           Ce  tau(   4) = (   0.0000000   0.0000000   0.0000000  )
         5           Zn  tau(   5) = (   0.6536943   0.0932812   0.4132476  )
         6           Zn  tau(   6) = (  -0.5184000   0.4089977   0.6357453  )
         7           Zn  tau(   7) = (   0.6536943   0.0932812   0.1112488  )
         8           Zn  tau(   8) = (  -0.5184000   0.4089977   0.9377441  )
         9           Zn  tau(   9) = (   0.3603687   0.1722917   0.5071178  )
        10           Zn  tau(  10) = (  -0.2250743   0.3299872   0.5418751  )
        11           Zn  tau(  11) = (   0.3603687   0.1722917   0.0173787  )
        12           Zn  tau(  12) = (  -0.2250743   0.3299872   1.0316143  )
        13           Zn  tau(  13) = (  -0.1282700   0.3039119   0.2622482  )
        14           Zn  tau(  14) = (   0.2635643   0.1983670   0.7867447  )
        15           Sn  tau(  15) = (   0.1727532   0.2228280   0.2622482  )
        16           Sn  tau(  16) = (  -0.0374588   0.2794509   0.7867447  )

   Crystallographic axes

     site n.     atom                  positions (cryst. coord.)
         1           Ce  tau(   1) = (  0.2077310  0.7922690  0.2500000  )
         2           Ce  tau(   2) = (  0.7922690  0.2077310  0.7500000  )
         3           Ce  tau(   3) = (  0.0000000  0.0000000  0.5000000  )
         4           Ce  tau(   4) = (  0.0000000  0.0000000  0.0000000  )
         5           Zn  tau(   5) = (  0.8142840  0.1857160  0.3939470  )
         6           Zn  tau(   6) = (  0.1857160  0.8142840  0.6060530  )
         7           Zn  tau(   7) = (  0.8142840  0.1857160  0.1060530  )
         8           Zn  tau(   8) = (  0.1857160  0.8142840  0.8939470  )
         9           Zn  tau(   9) = (  0.6569800  0.3430200  0.4834330  )
        10           Zn  tau(  10) = (  0.3430200  0.6569800  0.5165670  )
        11           Zn  tau(  11) = (  0.6569800  0.3430200  0.0165670  )
        12           Zn  tau(  12) = (  0.3430200  0.6569800  0.9834330  )
        13           Zn  tau(  13) = (  0.3949340  0.6050660  0.2500000  )
        14           Zn  tau(  14) = (  0.6050660  0.3949340  0.7500000  )
        15           Sn  tau(  15) = (  0.5563660  0.4436340  0.2500000  )
        16           Sn  tau(  16) = (  0.4436340  0.5563660  0.7500000  )

     number of k points=     1  Methfessel-Paxton smearing, width (Ry)=  0.0010
                       cart. coord. in units 2pi/alat
        k(    1) = (   0.0000000   0.0000000   0.0000000), wk =   2.0000000

                       cryst. coord.
        k(    1) = (   0.0000000   0.0000000   0.0000000), wk =   2.0000000

     Initial potential from superposition of free atoms

     starting charge     273.9705, renormalised to     276.0000
     Starting wfcs are  276 randomized atomic wfcs
     Checking if some PAW data can be deallocated...

     Self-consistent Calculation

     iteration #  1     ecut=    30.00 Ry     beta= 0.70
     Davidson diagonalization with overlap

     ethr =  1.00E-02,  avg # of iterations =  2.0

     total energy              =   -6817.14900873 Ry
     estimated scf accuracy    <      61.87092337 Ry

[...]

     total energy              =   -6869.54205278 Ry
     estimated scf accuracy    <       0.00001946 Ry

     iteration # 77     ecut=    30.00 Ry     beta= 0.70
     Davidson diagonalization with overlap

     ethr =  4.25E-10,  avg # of iterations =  6.0

     End of self-consistent calculation

          k = 0.0000 0.0000 0.0000 (  3061 PWs)   bands (ev):

  -113.7800-113.7799-113.6223-113.6214-113.6210-113.6203-113.5963-113.5953
  -113.5951-113.5943 -67.8705 -67.8692 -67.8667 -67.8662 -67.8587 -67.8580
   -67.7409 -67.7406 -67.7400 -67.7354 -67.7190 -67.7159 -67.7073 -67.7020
   -67.6937 -67.6920 -67.6888 -67.6853 -67.6814 -67.6782 -67.6761 -67.6736
   -67.6692 -67.6689 -67.6662 -67.6617 -67.6587 -67.6586 -67.6528 -67.6520
   -21.4873 -21.4806 -21.2824 -21.2808  -7.9754  -7.9750  -7.9723  -7.9717
    -7.9516  -7.9371  -7.9291  -7.9267  -7.9215  -7.9202  -4.4861  -4.3791
    -4.3782  -4.2634  -4.2591  -4.1827  -4.1364  -4.0903  -4.0880  -4.0572
    -3.9329  -3.9209   3.9456   4.9020   4.9568   4.9881   4.9885   5.0072
     5.0399   5.0550   5.0873   5.1314   5.1538   5.1588   5.1915   5.2103
     5.2941   5.3144   5.3164   5.3170   5.3257   5.3426   5.3624   5.4029
     5.4081   5.4269   5.4660   5.4893   5.5012   5.5315   5.5504   5.5702
     5.5773   5.5872   5.6439   5.6735   5.7297   5.7381   5.7443   5.7606
     5.7713   5.7805   5.8358   5.8370   5.8391   5.8404   5.8716   5.9192
     5.9463   5.9472   5.9814   6.0069   6.0345   6.1852   6.6010   6.7412
     6.8691   8.3021   8.3436   9.3204   9.9292  11.4947  11.7231  11.7631
    11.8621  11.9465  12.0019  12.1755  12.1913  12.4609  12.7289  12.7831
    13.0602  13.0687  13.0790  13.1590  13.1894  13.2088  13.3217  13.3236
    13.3268  13.3339  13.3499  13.3503  13.4047  13.4332  13.4338  13.4373
    13.4609  13.4617  13.4645  13.4677  13.5021  13.5271  13.5715  13.5911
    13.6495  13.6812  13.8016  13.8163  13.8584  13.8659

     occupation numbers
     1.0000   1.0000   1.0000   1.0000   1.0000   1.0000   1.0000   1.0000
     1.0000   1.0000   1.0000   1.0000   1.0000   1.0000   1.0000   1.0000
     1.0000   1.0000   1.0000   1.0000   1.0000   1.0000   1.0000   1.0000
     1.0000   1.0000   1.0000   1.0000   1.0000   1.0000   1.0000   1.0000
     1.0000   1.0000   1.0000   1.0000   1.0000   1.0000   1.0000   1.0000
     1.0000   1.0000   1.0000   1.0000   1.0000   1.0000   1.0000   1.0000
     1.0000   1.0000   1.0000   1.0000   1.0000   1.0000   1.0000   1.0000
     1.0000   1.0000   1.0000   1.0000   1.0000   1.0000   1.0000   1.0000
     1.0000   1.0000   1.0000   1.0000   1.0000   1.0000   1.0000   1.0000
     1.0000   1.0000   1.0000   1.0000   1.0000   1.0000   1.0000   1.0000
     1.0000   1.0000   1.0000   1.0000   1.0000   1.0000   1.0000   1.0000
     1.0000   1.0000   1.0000   1.0000   1.0000   1.0000   1.0000   1.0000
     1.0000   1.0000   1.0000   1.0000   1.0000   1.0000   1.0000   1.0000
     1.0000   1.0000   1.0000   1.0000   1.0000   1.0000   1.0000   1.0000
     1.0000   1.0000   1.0000   1.0000   1.0000   1.0000   1.0000   1.0000
     1.0000   1.0000   1.0000   1.0000   1.0000   1.0000   1.0000   1.0000
     1.0000   1.0000   1.0000   1.0000   1.0000   1.0000   1.0000   1.0000
     1.0239   0.7844   0.1917  -0.0000  -0.0000  -0.0000  -0.0000  -0.0000
    -0.0000  -0.0000  -0.0000  -0.0000  -0.0000  -0.0000  -0.0000  -0.0000
    -0.0000  -0.0000  -0.0000  -0.0000  -0.0000  -0.0000  -0.0000  -0.0000
    -0.0000  -0.0000  -0.0000  -0.0000  -0.0000  -0.0000

     the Fermi energy is    13.0736 ev

!    total energy              =   -6869.54205312 Ry
     estimated scf accuracy    <       0.00000018 Ry
     smearing contrib. (-TS)   =      -0.00024698 Ry
     internal energy E=F+TS    =   -6869.54180614 Ry

     The total energy is F=E-TS. E is the sum of the following terms:
     one-electron contribution =   -4672.90492241 Ry
     hartree contribution      =    2461.41519845 Ry
     xc contribution           =    -558.01312331 Ry
     ewald contribution        =   -2466.95160314 Ry
     one-center paw contrib.   =   -1633.08735573 Ry
      -> PAW hartree energy AE =     175.29647697 Ry
      -> PAW hartree energy PS =    -174.19941341 Ry
      -> PAW xc energy AE      =   -1668.35624208 Ry
      -> PAW xc energy PS      =      34.17182280 Ry
      -> total E_H with PAW    =    2462.51226201 Ry
      -> total E_XC with PAW   =   -2192.19754259 Ry

     convergence has been achieved in  77 iterations

     Forces acting on atoms (cartesian axes, Ry/au):

     atom    1 type  1   force =     0.02109658   -0.00568235    0.00000000
     atom    2 type  1   force =    -0.02109658    0.00568235    0.00000000
     atom    3 type  1   force =     0.00000000    0.00000000    0.00000000
     atom    4 type  1   force =     0.00000000   -0.00000000    0.00000000
     atom    5 type  2   force =    -0.02498653    0.00672960    0.00964771
     atom    6 type  2   force =     0.02498653   -0.00672960   -0.00964771
     atom    7 type  2   force =    -0.02498653    0.00672960   -0.00964771
     atom    8 type  2   force =     0.02498653   -0.00672960    0.00964771
     atom    9 type  2   force =     0.01202844   -0.00325554   -0.00760130
     atom   10 type  2   force =    -0.01202844    0.00325554    0.00760130
     atom   11 type  2   force =     0.01202844   -0.00325554    0.00760130
     atom   12 type  2   force =    -0.01202844    0.00325554   -0.00760130
     atom   13 type  2   force =     0.01413258   -0.00379401    0.00000000
     atom   14 type  2   force =    -0.01413258    0.00379401    0.00000000
     atom   15 type  3   force =    -0.01741578    0.00468797    0.00000000
     atom   16 type  3   force =     0.01741578   -0.00468797   -0.00000000
     The non-local contrib.  to forces
     atom    1 type  1   force =    -0.14869872    0.04005459    0.00000000
     atom    2 type  1   force =     0.14869872   -0.04005459    0.00000000
     atom    3 type  1   force =     0.00000000    0.00000000    0.00000000
     atom    4 type  1   force =     0.00000000   -0.00000000    0.00000000
     atom    5 type  2   force =     0.36435033   -0.09814038   -0.01649545
     atom    6 type  2   force =    -0.36435033    0.09814038    0.01649545
     atom    7 type  2   force =     0.36435033   -0.09814038    0.01649545
     atom    8 type  2   force =    -0.36435033    0.09814038   -0.01649545
     atom    9 type  2   force =     0.02822998   -0.00761593    0.33725500
     atom   10 type  2   force =    -0.02822998    0.00761593   -0.33725500
     atom   11 type  2   force =     0.02822998   -0.00761593   -0.33725500
     atom   12 type  2   force =    -0.02822998    0.00761593    0.33725500
     atom   13 type  2   force =    -0.16206659    0.04366521    0.00000000
     atom   14 type  2   force =     0.16206659   -0.04366521    0.00000000
     atom   15 type  3   force =    -0.00429011    0.00115505    0.00000000
     atom   16 type  3   force =     0.00429011   -0.00115505    0.00000000
     The ionic contribution  to forces
     atom    1 type  1   force =   -22.42136317    6.03944085   -0.00000000
     atom    2 type  1   force =    22.42136317   -6.03944085    0.00000000
     atom    3 type  1   force =     0.00000000    0.00000000   -0.00000000
     atom    4 type  1   force =     0.00000000    0.00000000    0.00000000
     atom    5 type  2   force =    16.40495075   -4.41885397    7.34757936
     atom    6 type  2   force =   -16.40495075    4.41885398   -7.34757936
     atom    7 type  2   force =    16.40495075   -4.41885397   -7.34757936
     atom    8 type  2   force =   -16.40495075    4.41885398    7.34757936
     atom    9 type  2   force =   -34.54207417    9.30428771  -26.91468304
     atom   10 type  2   force =    34.54207417   -9.30428771   26.91468304
     atom   11 type  2   force =   -34.54207417    9.30428771   26.91468304
     atom   12 type  2   force =    34.54207417   -9.30428771  -26.91468304
     atom   13 type  2   force =    48.77660417  -13.13851498    0.00000000
     atom   14 type  2   force =   -48.77660416   13.13851497    0.00000000
     atom   15 type  3   force =    -9.88960486    2.66387387    0.00000000
     atom   16 type  3   force =     9.88960486   -2.66387387    0.00000000
     The local contribution  to forces
     atom    1 type  1   force =    22.59148472   -6.08527302   -0.00045396
     atom    2 type  1   force =   -22.59096045    6.08512241    0.00052782
     atom    3 type  1   force =    -0.00003381    0.00000738    0.00076239
     atom    4 type  1   force =    -0.00050409    0.00013469   -0.00069753
     atom    5 type  2   force =   -16.79495660    4.52389760   -7.32157091
     atom    6 type  2   force =    16.79478410   -4.52384965    7.32208168
     atom    7 type  2   force =   -16.79448936    4.52378941    7.32044593
     atom    8 type  2   force =    16.79473381   -4.52385936   -7.32129216
     atom    9 type  2   force =    34.52665099   -9.30005958   26.57039020
     atom   10 type  2   force =   -34.52652932    9.30002841  -26.56926307
     atom   11 type  2   force =    34.52650769   -9.30011121  -26.57054883
     atom   12 type  2   force =   -34.52610827    9.30001304   26.56948787
     atom   13 type  2   force =   -48.60102215   13.09120298   -0.00101796
     atom   14 type  2   force =    48.60051365  -13.09105628    0.00069983
     atom   15 type  3   force =     9.87642782   -2.66031835   -0.00059900
     atom   16 type  3   force =    -9.87640059    2.66031170    0.00074030
     The core correction contribution to forces
     atom    1 type  1   force =     0.00020229   -0.00005449   -0.00000009
     atom    2 type  1   force =    -0.00020212    0.00005444    0.00000009
     atom    3 type  1   force =     0.00000002   -0.00000001    0.00000029
     atom    4 type  1   force =    -0.00000023    0.00000006   -0.00000024
     atom    5 type  2   force =     0.00000000    0.00000000    0.00000000
     atom    6 type  2   force =     0.00000000    0.00000000    0.00000000
     atom    7 type  2   force =     0.00000000    0.00000000    0.00000000
     atom    8 type  2   force =     0.00000000    0.00000000    0.00000000
     atom    9 type  2   force =     0.00000000    0.00000000    0.00000000
     atom   10 type  2   force =     0.00000000    0.00000000    0.00000000
     atom   11 type  2   force =     0.00000000    0.00000000    0.00000000
     atom   12 type  2   force =     0.00000000    0.00000000    0.00000000
     atom   13 type  2   force =     0.00000000    0.00000000    0.00000000
     atom   14 type  2   force =     0.00000000    0.00000000    0.00000000
     atom   15 type  3   force =     0.00008738   -0.00002372   -0.00000218
     atom   16 type  3   force =    -0.00008248    0.00002246    0.00000287
     The Hubbard contrib.    to forces
     atom    1 type  1   force =     0.00000000    0.00000000    0.00000000
     atom    2 type  1   force =     0.00000000    0.00000000    0.00000000
     atom    3 type  1   force =     0.00000000    0.00000000    0.00000000
     atom    4 type  1   force =     0.00000000    0.00000000    0.00000000
     atom    5 type  2   force =     0.00000000    0.00000000    0.00000000
     atom    6 type  2   force =     0.00000000    0.00000000    0.00000000
     atom    7 type  2   force =     0.00000000    0.00000000    0.00000000
     atom    8 type  2   force =     0.00000000    0.00000000    0.00000000
     atom    9 type  2   force =     0.00000000    0.00000000    0.00000000
     atom   10 type  2   force =     0.00000000    0.00000000    0.00000000
     atom   11 type  2   force =     0.00000000    0.00000000    0.00000000
     atom   12 type  2   force =     0.00000000    0.00000000    0.00000000
     atom   13 type  2   force =     0.00000000    0.00000000    0.00000000
     atom   14 type  2   force =     0.00000000    0.00000000    0.00000000
     atom   15 type  3   force =     0.00000000    0.00000000    0.00000000
     atom   16 type  3   force =     0.00000000    0.00000000    0.00000000
     The SCF correction term to forces
     atom    1 type  1   force =    -0.00046596    0.00013107    0.00038673
     atom    2 type  1   force =     0.00006668   -0.00001771   -0.00046783
     atom    3 type  1   force =     0.00002938   -0.00000680   -0.00053421
     atom    4 type  1   force =     0.00034428   -0.00009353    0.00050640
     atom    5 type  2   force =     0.00070010   -0.00018644    0.00016143
     atom    6 type  2   force =    -0.00048254    0.00012709   -0.00067562
     atom    7 type  2   force =     0.00016584   -0.00005123    0.00105026
     atom    8 type  2   force =    -0.00046497    0.00013547   -0.00014089
     atom    9 type  2   force =    -0.00078615    0.00012920   -0.00058366
     atom   10 type  2   force =     0.00067741   -0.00010324   -0.00058899
     atom   11 type  2   force =    -0.00064717    0.00019088    0.00073418
     atom   12 type  2   force =     0.00019499   -0.00007965    0.00034583
     atom   13 type  2   force =     0.00064005   -0.00015541    0.00110734
     atom   14 type  2   force =    -0.00008577   -0.00000766   -0.00071558
     atom   15 type  3   force =    -0.00002710   -0.00000114    0.00057731
     atom   16 type  3   force =     0.00001280    0.00000453   -0.00072840

     Total force =     0.077049     Total SCF correction =     0.003149

     Computing stress (Cartesian axis) and pressure

          total   stress  (Ry/bohr**3)                   (kbar)     P=     -324.41
  -0.00266061   0.00021418   0.00000000         -391.39       31.51        0.00
   0.00021418  -0.00192359   0.00000000           31.51     -282.97        0.00
   0.00000000   0.00000000  -0.00203159            0.00        0.00     -298.86

     kinetic stress (kbar)  23727.75     31.46      0.00
                               31.46  23836.14      0.00
                                0.00      0.00  23684.82

     local   stress (kbar)  26351.02 -18260.85      0.10
                           -18260.85 -36523.80     -0.03
                                0.10     -0.03 -36790.45

     nonloc. stress (kbar)   2706.96      4.51      0.00
                                4.51   2722.65      0.00
                                0.00      0.00   2754.90

     hartree stress (kbar)  34484.72   8959.77     -0.09
                             8959.77  65334.43      0.03
                               -0.09      0.03  64931.94

     exc-cor stress (kbar)  -7147.00      0.42     -0.00
                                0.42  -7145.56      0.00
                               -0.00      0.00  -7146.25

     corecor stress (kbar)  -3877.95     -0.06     -0.00
                               -0.06  -3878.15     -0.00
                               -0.00     -0.00  -3877.72

     ewald   stress (kbar) -76636.89   9296.26     -0.00
                             9296.26 -44628.67     -0.00
                               -0.00     -0.00 -43856.10

     hubbard stress (kbar)      0.00      0.00      0.00
                                0.00      0.00      0.00
                                0.00      0.00      0.00

     DFT-D   stress (kbar)      0.00      0.00      0.00
                                0.00      0.00      0.00
                                0.00      0.00      0.00

     XDM     stress (kbar)      0.00      0.00      0.00
                                0.00      0.00      0.00
                                0.00      0.00      0.00

     dft-nl  stress (kbar)      0.00      0.00      0.00
                                0.00      0.00      0.00
                                0.00      0.00      0.00

     TS-vdW  stress (kbar)      0.00      0.00      0.00
                                0.00      0.00      0.00
                                0.00      0.00      0.00

[...]

                                0.00      0.00      0.00

     Writing all to output data dir new_calculations/myprefix.save/

     General routines

     Parallel routines

     PAW routines

   This run was terminated on:  17:51:58  21May2023

   JOB DONE.