     Program PWSCF v.7.0 starts on 20May2023 at 16:56:33

     Reading input from espresso_18462.pwi
Warning: card &CELL ignored
Warning: card / ignored

     Current dimensions of program PWSCF are:
     Max number of different atomic species (ntypx) = 10
     Max number of k-points (npk) =  40000
     Max angular momentum in pseudopotentials (lmaxx) =  4

     gamma-point specific algorithms are used
     Message from routine setup:
     using ibrav=0 with symmetry is DISCOURAGED, use correct ibrav instead

     Subspace diagonalization in iterative solution of the eigenvalue problem:
     a serial algorithm will be used

     Using Slab Decomposition

     bravais-lattice index     =            0
     lattice parameter (alat)  =      16.0039  a.u.
     unit-cell volume          =    2898.4060 (a.u.)^3
     number of atoms/cell      =           10
     number of atomic types    =            3
     number of electrons       =        85.00
     number of Kohn-Sham states=           52
     kinetic-energy cutoff     =      30.0000  Ry
     charge density cutoff     =     240.0000  Ry
     scf convergence threshold =      1.0E-06
     mixing beta               =       0.7000
     number of iterations used =            8  plain     mixing
     Exchange-correlation=  SLA  PW   PBX  PBC
                           (   1   4   3   4   0   0   0)

     celldm(1)=  16.003860  celldm(2)=   0.000000  celldm(3)=   0.000000
     celldm(4)=   0.000000  celldm(5)=   0.000000  celldm(6)=   0.000000

     crystal axes: (cart. coord. in units of alat)
               a(1) = (   1.000000   0.000000   0.000000 )
               a(2) = (   0.500000   0.866025   0.000000 )
               a(3) = (   0.500000   0.288675   0.816497 )

     reciprocal axes: (cart. coord. in units 2 pi/alat)
               b(1) = (  1.000000 -0.577350 -0.408248 )
               b(2) = (  0.000000  1.154701 -0.408248 )
               b(3) = (  0.000000  0.000000  1.224745 )

     PseudoPot. # 1 for Cs read from file:
     /home/pragov/projects/rrg-bengioy-ad/pragov/crystal_structure_design/SSSP/Cs_pbe_v1.uspp.F.UPF
     MD5 check sum: 3476d69cb178dfad3ffaa59df4e07ca4
     Pseudo is Ultrasoft + core correction, Zval =  9.0
     Generated by new atomic code, or converted to UPF format
     Using radial grid of  905 points,  6 beta functions with:
                l(1) =   0
                l(2) =   0
                l(3) =   1
                l(4) =   1
                l(5) =   2
                l(6) =   2
     Q(r) pseudized with  6 coefficients,  rinner =    1.500   1.500   1.500
                                                       1.500   1.500

     PseudoPot. # 2 for Sm read from file:
     /home/pragov/projects/rrg-bengioy-ad/pragov/crystal_structure_design/SSSP/Sm.GGA-PBE-paw-v1.0.UPF
     MD5 check sum: 886f70968969f895acf876f5617e0641
     Pseudo is Projector augmented-wave + core cor, Zval = 16.0
     Generated using ATOMPAW code
     Shape of augmentation charge: BESSEL
     Using radial grid of 1107 points,  8 beta functions with:
                l(1) =   0
                l(2) =   0
                l(3) =   1
                l(4) =   1
                l(5) =   2
                l(6) =   2
                l(7) =   3
                l(8) =   3
     Q(r) pseudized with 0 coefficients

     PseudoPot. # 3 for Cl read from file:
     /home/pragov/projects/rrg-bengioy-ad/pragov/crystal_structure_design/SSSP/cl_pbe_v1.4.uspp.F.UPF
     MD5 check sum: fc6f6913ecf08c9257cb748ef0700058
     Pseudo is Ultrasoft + core correction, Zval =  7.0
     Generated by new atomic code, or converted to UPF format
     Using radial grid of  909 points,  6 beta functions with:
                l(1) =   0
                l(2) =   0
                l(3) =   1
                l(4) =   1
                l(5) =   2
                l(6) =   2
     Q(r) pseudized with  8 coefficients,  rinner =    1.300   1.300   1.300
                                                       1.300   1.300

     atomic species   valence    mass     pseudopotential
        Cs             9.00   132.90545     Cs( 1.00)
        Sm            16.00   150.36000     Sm( 1.00)
        Cl             7.00    35.45000     Cl( 1.00)

     12 Sym. Ops., with inversion, found

                                    s                        frac. trans.

      isym =  1     identity

 cryst.   s( 1) = (     1          0          0      )
                  (     0          1          0      )
                  (     0          0          1      )

 cart.    s( 1) = (  1.0000000  0.0000000  0.0000000 )
                  (  0.0000000  1.0000000 -0.0000000 )
                  (  0.0000000  0.0000000  1.0000000 )

      isym =  2     180 deg rotation - cart. axis [1,0,0]

[...]

      isym =  3     120 deg rotation - cryst. axis [0,0,1]

[...]

      isym =  6     180 deg rotation - cryst. axis [1,1,0]

[...]

      isym =  7     inversion

[...]

      isym =  8     inv. 180 deg rotation - cart. axis [1,0,0]

[...]

      isym =  9     inv. 120 deg rotation - cryst. axis [0,0,1]

 cryst.   s( 9) = (     1         -1          0      )
                  (     1          0          0      )
                  (     1          0         -1      )

 cart.    s( 9) = (  0.5000000  0.8660254 -0.0000000 )
                  ( -0.8660254  0.5000000 -0.0000000 )
                  (  0.0000000  0.0000000 -1.0000000 )

[...]

 cryst.   s(10) = (     0          1          0      )
                  (    -1          1          0      )
                  (     0          1         -1      )

 cart.    s(10) = (  0.5000000 -0.8660254  0.0000000 )
                  (  0.8660254  0.5000000 -0.0000000 )
                  (  0.0000000  0.0000000 -1.0000000 )

[...]

      isym = 12     inv. 180 deg rotation - cryst. axis [1,1,0]

 cryst.   s(12) = (     1         -1          0      )
                  (     0         -1          0      )
                  (     0         -1          1      )

 cart.    s(12) = (  0.5000000 -0.8660254  0.0000000 )
                  ( -0.8660254 -0.5000000  0.0000000 )
                  (  0.0000000  0.0000000  1.0000000 )

   Cartesian axes

     site n.     atom                  positions (alat units)
         1           Cs  tau(   1) = (   1.5000000   0.8660254   0.6123724  )
         2           Cs  tau(   2) = (   0.5000000   0.2886751   0.2041241  )
         3           Cs  tau(   3) = (   1.0000000   0.5773503   0.4082483  )
         4           Sm  tau(   4) = (   0.0000000   0.0000000   0.0000000  )
         5           Cl  tau(   5) = (   1.0000000   0.2604670   0.1841780  )
         6           Cl  tau(   6) = (   0.7255710   0.4189086   0.6323186  )
         7           Cl  tau(   7) = (   1.0000000   0.8942336   0.6323186  )
         8           Cl  tau(   8) = (   0.7255710   0.7357919   0.1841780  )
         9           Cl  tau(   9) = (   1.2744290   0.4189086   0.6323186  )
        10           Cl  tau(  10) = (   1.2744290   0.7357919   0.1841780  )

   Crystallographic axes

     site n.     atom                  positions (cryst. coord.)
         1           Cs  tau(   1) = (  0.7500000  0.7500000  0.7500000  )
         2           Cs  tau(   2) = (  0.2500000  0.2500000  0.2500000  )
         3           Cs  tau(   3) = (  0.5000000  0.5000000  0.5000000  )
         4           Sm  tau(   4) = (  0.0000000  0.0000000  0.0000000  )
         5           Cl  tau(   5) = (  0.7744290  0.2255710  0.2255710  )
         6           Cl  tau(   6) = (  0.2255710  0.2255710  0.7744290  )
         7           Cl  tau(   7) = (  0.2255710  0.7744290  0.7744290  )
         8           Cl  tau(   8) = (  0.2255710  0.7744290  0.2255710  )
         9           Cl  tau(   9) = (  0.7744290  0.2255710  0.7744290  )
        10           Cl  tau(  10) = (  0.7744290  0.7744290  0.2255710  )

     number of k points=     1  Methfessel-Paxton smearing, width (Ry)=  0.0010
                       cart. coord. in units 2pi/alat
        k(    1) = (   0.0000000   0.0000000   0.0000000), wk =   2.0000000

                       cryst. coord.
        k(    1) = (   0.0000000   0.0000000   0.0000000), wk =   2.0000000

     Initial potential from superposition of free atoms

     starting charge      84.8762, renormalised to      85.0000

     negative rho (up, down):  9.003E-02 0.000E+00
     Starting wfcs are   95 randomized atomic wfcs
     Checking if some PAW data can be deallocated...

     Self-consistent Calculation

     iteration #  1     ecut=    30.00 Ry     beta= 0.70
     Davidson diagonalization with overlap

     ethr =  1.00E-02,  avg # of iterations =  2.0

     Threshold (ethr) on eigenvalues was too large:
     Diagonalizing with lowered threshold

     Davidson diagonalization with overlap

[...]

     negative rho (up, down):  9.306E-02 0.000E+00

     total energy              =    -994.07278957 Ry
     estimated scf accuracy    <       0.46695461 Ry

[...]

     ethr =  3.24E-05,  avg # of iterations =  1.0
     Minimization algorithm failed to find Fermi energy: reverting to bisection
     Possible cause: smearing is larger than the electronic band-gap.

[...]

     ethr =  1.76E-06,  avg # of iterations =  1.0

[...]

     total energy              =    -994.34269293 Ry
     estimated scf accuracy    <       0.00000315 Ry

     iteration # 58     ecut=    30.00 Ry     beta= 0.70
     Davidson diagonalization with overlap

     ethr =  3.71E-09,  avg # of iterations =  1.0
     Minimization algorithm failed to find Fermi energy: reverting to bisection
     Possible cause: smearing is larger than the electronic band-gap.

[...]

     End of self-consistent calculation

          k = 0.0000 0.0000 0.0000 (  3996 PWs)   bands (ev):

   -36.5144 -19.0909 -19.0892 -17.8731 -16.2927 -16.2926 -16.2688 -11.5655
   -11.4263 -11.4263 -11.2328 -11.2328 -11.2316  -5.8786  -5.8786  -5.8783
    -5.8573  -5.8573  -5.8570  -4.8113  -4.8104  -4.8104  -0.8611  -0.5155
    -0.5155  -0.2727  -0.2726  -0.2682   0.1556   0.1565   0.1565   0.4566
     0.4566   0.4566   0.5986   0.6036   0.6036   0.8563   0.8605   0.8605
     2.8709   2.8709   2.8716   3.1072   3.1605   3.1605   3.2359   5.5121
     6.4398   6.4398   6.4507   6.9786

     occupation numbers
     1.0000   1.0000   1.0000   1.0000   1.0000   1.0000   1.0000   1.0000
     1.0000   1.0000   1.0000   1.0000   1.0000   1.0000   1.0000   1.0000
     1.0000   1.0000   1.0000   1.0000   1.0000   1.0000   1.0000   1.0000
     1.0000   1.0000   1.0000   1.0000   1.0000   1.0000   1.0000   1.0000
     1.0000   1.0000   1.0000   1.0000   1.0000   1.0000   1.0000   1.0000
     0.8454   0.8426   0.8120  -0.0000  -0.0000  -0.0000  -0.0000  -0.0000
    -0.0000  -0.0000  -0.0000  -0.0000

     the Fermi energy is     2.8771 ev

!    total energy              =    -994.34269278 Ry
     estimated scf accuracy    <       0.00000045 Ry
     smearing contrib. (-TS)   =      -0.00043161 Ry
     internal energy E=F+TS    =    -994.34226118 Ry

     The total energy is F=E-TS. E is the sum of the following terms:
     one-electron contribution =    -241.37092028 Ry
     hartree contribution      =     154.35255001 Ry
     xc contribution           =    -165.76483718 Ry
     ewald contribution        =    -291.84559457 Ry
     one-center paw contrib.   =    -449.71345916 Ry
      -> PAW hartree energy AE =     127.08730145 Ry
      -> PAW hartree energy PS =    -124.13039631 Ry
      -> PAW xc energy AE      =    -469.49471022 Ry
      -> PAW xc energy PS      =      16.82434592 Ry
      -> total E_H with PAW    =     157.30945515 Ry
      -> total E_XC with PAW   =    -618.43520148 Ry

     convergence has been achieved in  58 iterations

     negative rho (up, down):  8.919E-02 0.000E+00

     Forces acting on atoms (cartesian axes, Ry/au):

     atom    1 type  1   force =     0.00000000    0.00000000   -0.00003502
     atom    2 type  1   force =     0.00000000    0.00000000    0.00003502
     atom    3 type  1   force =     0.00000000    0.00000000    0.00000000
     atom    4 type  2   force =    -0.00000000    0.00000000    0.00000000
     atom    5 type  3   force =     0.00000000   -0.00437357   -0.00118565
     atom    6 type  3   force =    -0.00378762   -0.00218678    0.00118565
     atom    7 type  3   force =     0.00000000    0.00437357    0.00118565
     atom    8 type  3   force =    -0.00378762    0.00218678   -0.00118565
     atom    9 type  3   force =     0.00378762   -0.00218678    0.00118565
     atom   10 type  3   force =     0.00378762    0.00218678   -0.00118565
     The non-local contrib.  to forces
     atom    1 type  1   force =     0.00000000    0.00000000    0.00009937
     atom    2 type  1   force =     0.00000000    0.00000000   -0.00009937
     atom    3 type  1   force =     0.00000000    0.00000000   -0.00000000
     atom    4 type  2   force =     0.00000000    0.00000000    0.00000000
     atom    5 type  3   force =     0.00000000   -0.03586339   -0.02224886
     atom    6 type  3   force =    -0.03105860   -0.01793169    0.02224886
     atom    7 type  3   force =     0.00000000    0.03586339    0.02224886
     atom    8 type  3   force =    -0.03105860    0.01793169   -0.02224886
     atom    9 type  3   force =     0.03105860   -0.01793169    0.02224886
     atom   10 type  3   force =     0.03105860    0.01793169   -0.02224886
     The ionic contribution  to forces
     atom    1 type  1   force =     0.00000000    0.00000000   -0.00000000
     atom    2 type  1   force =    -0.00000000    0.00000000   -0.00000000
     atom    3 type  1   force =     0.00000000   -0.00000000    0.00000000
     atom    4 type  2   force =     0.00000000    0.00000000    0.00000000
     atom    5 type  3   force =     0.00000000    5.30823889    3.75349171
     atom    6 type  3   force =     4.59706973    2.65411944   -3.75349171
     atom    7 type  3   force =     0.00000000   -5.30823889   -3.75349171
     atom    8 type  3   force =     4.59706973   -2.65411944    3.75349171
     atom    9 type  3   force =    -4.59706973    2.65411944   -3.75349171
     atom   10 type  3   force =    -4.59706973   -2.65411944    3.75349171
     The local contribution  to forces
     atom    1 type  1   force =     0.00000428    0.00000234   -0.00012483
     atom    2 type  1   force =    -0.00000460   -0.00000121    0.00012531
     atom    3 type  1   force =    -0.00000009   -0.00000108   -0.00000112
     atom    4 type  2   force =     0.00000359   -0.00000505   -0.00000127
     atom    5 type  3   force =     0.00005347   -5.27704046   -3.73250441
     atom    6 type  3   force =    -4.57007313   -2.63851379    3.73255568
     atom    7 type  3   force =    -0.00005319    5.27704217    3.73250585
     atom    8 type  3   force =    -4.57004866    2.63855736   -3.73249632
     atom    9 type  3   force =     4.57004831   -2.63855807    3.73249539
     atom   10 type  3   force =     4.57007316    2.63851271   -3.73255587
     The core correction contribution to forces
     atom    1 type  1   force =    -0.00000035    0.00000000   -0.00001361
     atom    2 type  1   force =     0.00000036    0.00000004    0.00001362
     atom    3 type  1   force =    -0.00000005   -0.00000013   -0.00000020
     atom    4 type  2   force =     0.00000000   -0.00000000   -0.00000000
     atom    5 type  3   force =     0.00000019    0.00028147    0.00009020
     atom    6 type  3   force =     0.00024400    0.00014093   -0.00009034
     atom    7 type  3   force =    -0.00000018   -0.00028146   -0.00009020
     atom    8 type  3   force =     0.00024370   -0.00014060    0.00009020
     atom    9 type  3   force =    -0.00024372    0.00014060   -0.00009020
     atom   10 type  3   force =    -0.00024400   -0.00014092    0.00009034
     The Hubbard contrib.    to forces
     atom    1 type  1   force =     0.00000000    0.00000000    0.00000000
     atom    2 type  1   force =     0.00000000    0.00000000    0.00000000
     atom    3 type  1   force =     0.00000000    0.00000000    0.00000000
     atom    4 type  2   force =     0.00000000    0.00000000    0.00000000
     atom    5 type  3   force =     0.00000000    0.00000000    0.00000000
     atom    6 type  3   force =     0.00000000    0.00000000    0.00000000
     atom    7 type  3   force =     0.00000000    0.00000000    0.00000000
     atom    8 type  3   force =     0.00000000    0.00000000    0.00000000
     atom    9 type  3   force =     0.00000000    0.00000000    0.00000000
     atom   10 type  3   force =     0.00000000    0.00000000    0.00000000
     The SCF correction term to forces
     atom    1 type  1   force =    -0.00000660   -0.00000235    0.00000407
     atom    2 type  1   force =     0.00000691    0.00000153   -0.00000450
     atom    3 type  1   force =    -0.00000007    0.00000057    0.00000042
     atom    4 type  2   force =    -0.00000309    0.00000583    0.00000192
     atom    5 type  3   force =    -0.00004965    0.00000712   -0.00001701
     atom    6 type  3   force =     0.00003619    0.00000335   -0.00004238
     atom    7 type  3   force =     0.00004916   -0.00000893    0.00001546
     atom    8 type  3   force =     0.00000305   -0.00003834   -0.00002515
     atom    9 type  3   force =    -0.00000258    0.00003911    0.00002638
     atom   10 type  3   force =    -0.00003622   -0.00000198    0.00004263

     Total force =     0.011100     Total SCF correction =     0.000128

     Computing stress (Cartesian axis) and pressure

     negative rho (up, down):  8.919E-02 0.000E+00
          total   stress  (Ry/bohr**3)                   (kbar)     P=        7.85
   0.00004882  -0.00000000  -0.00000000            7.18       -0.00       -0.00
   0.00000000   0.00004882  -0.00000000            0.00        7.18       -0.00
   0.00000000  -0.00000000   0.00006251            0.00       -0.00        9.19

     kinetic stress (kbar)   4121.64     -0.00     -0.00
                               -0.00   4121.64     -0.00
                               -0.00     -0.00   4132.22

     local   stress (kbar)  -5293.67     -0.35     -0.11
                               -0.35  -5293.45      0.02
                               -0.11      0.02  -5305.29

     nonloc. stress (kbar)   5031.61     -0.00     -0.00
                                0.00   5031.61     -0.00
                               -0.00     -0.00   5032.40

     hartree stress (kbar)   2610.54      0.11      0.02
                                0.11   2610.46     -0.01
                                0.02     -0.01   2612.98

     exc-cor stress (kbar)   3266.69      0.00     -0.00
                                0.00   3266.69     -0.00
                               -0.00     -0.00   3266.78

     corecor stress (kbar)  -4792.28      0.00     -0.00
                                0.00  -4792.28      0.00
                               -0.00      0.00  -4792.46

     ewald   stress (kbar)  -4937.42     -0.00     -0.00
                               -0.00  -4937.42     -0.00
                               -0.00     -0.00  -4937.42

     hubbard stress (kbar)      0.00      0.00      0.00
                                0.00      0.00      0.00
                                0.00      0.00      0.00

     DFT-D   stress (kbar)      0.00      0.00      0.00
                                0.00      0.00      0.00
                                0.00      0.00      0.00

     XDM     stress (kbar)      0.00      0.00      0.00
                                0.00      0.00      0.00
                                0.00      0.00      0.00

     dft-nl  stress (kbar)      0.00      0.00      0.00
                                0.00      0.00      0.00
                                0.00      0.00      0.00

     TS-vdW  stress (kbar)      0.00      0.00      0.00
                                0.00      0.00      0.00
                                0.00      0.00      0.00

[...]

                                0.00      0.00      0.00

     Writing all to output data dir new_calculations/myprefix.save/

     General routines

     Parallel routines

     PAW routines

   This run was terminated on:  16:59:45  20May2023

   JOB DONE.