     Program PWSCF v.7.0 starts on 20May2023 at 15:14: 7

     Reading input from espresso_9450.pwi
Warning: card &CELL ignored
Warning: card / ignored

     Current dimensions of program PWSCF are:
     Max number of different atomic species (ntypx) = 10
     Max number of k-points (npk) =  40000
     Max angular momentum in pseudopotentials (lmaxx) =  4
     file Cd.pbe-dn-rrkjus_psl.0.3.1.UPF: wavefunction(s)  4D renormalized
     file O.pbe-n-kjpaw_psl.0.1.UPF: wavefunction(s)  2P renormalized

     gamma-point specific algorithms are used
     Message from routine setup:
     using ibrav=0 with symmetry is DISCOURAGED, use correct ibrav instead

     Subspace diagonalization in iterative solution of the eigenvalue problem:
     a serial algorithm will be used

     Using Slab Decomposition

     bravais-lattice index     =            0
     lattice parameter (alat)  =       6.7787  a.u.
     unit-cell volume          =     353.0262 (a.u.)^3
     number of atoms/cell      =            5
     number of atomic types    =            3
     number of electrons       =        26.00
     number of Kohn-Sham states=           17
     kinetic-energy cutoff     =      30.0000  Ry
     charge density cutoff     =     240.0000  Ry
     scf convergence threshold =      1.0E-06
     mixing beta               =       0.7000
     number of iterations used =            8  plain     mixing
     Exchange-correlation= SLA  PW   PBX  PBC
                           (   1   4   3   4   0   0   0)

     celldm(1)=   6.778685  celldm(2)=   0.000000  celldm(3)=   0.000000
     celldm(4)=   0.000000  celldm(5)=   0.000000  celldm(6)=   0.000000

     crystal axes: (cart. coord. in units of alat)
               a(1) = (   1.000000   0.000000   0.000000 )
               a(2) = (  -0.500000   0.866025   0.000000 )
               a(3) = (   0.000000   0.000000   1.308699 )

     reciprocal axes: (cart. coord. in units 2 pi/alat)
               b(1) = (  1.000000  0.577350  0.000000 )
               b(2) = (  0.000000  1.154700  0.000000 )
               b(3) = (  0.000000  0.000000  0.764117 )

     PseudoPot. # 1 for Cd read from file:
     /home/pragov/projects/rrg-bengioy-ad/pragov/crystal_structure_design/SSSP/Cd.pbe-dn-rrkjus_psl.0.3.1.UPF
     MD5 check sum: 558e9f355611b531a870a69ef6ace9e2
     Pseudo is Ultrasoft + core correction, Zval = 12.0
     Generated using "atomic" code by A. Dal Corso  v.5.0.99 svn rev. 10869
     Using radial grid of 1239 points,  6 beta functions with:
                l(1) =   0
                l(2) =   0
                l(3) =   1
                l(4) =   1
                l(5) =   2
                l(6) =   2
     Q(r) pseudized with 0 coefficients

     PseudoPot. # 2 for H  read from file:
     /home/pragov/projects/rrg-bengioy-ad/pragov/crystal_structure_design/SSSP/H.pbe-rrkjus_psl.1.0.0.UPF
     MD5 check sum: f52b6d4d1c606e5624b1dc7b2218f220
     Pseudo is Ultrasoft, Zval =  1.0
     Generated using "atomic" code by A. Dal Corso  v.5.1
     Using radial grid of  929 points,  2 beta functions with:
                l(1) =   0
                l(2) =   0
     Q(r) pseudized with 0 coefficients

     PseudoPot. # 3 for O  read from file:
     /home/pragov/projects/rrg-bengioy-ad/pragov/crystal_structure_design/SSSP/O.pbe-n-kjpaw_psl.0.1.UPF
     MD5 check sum: 0234752ac141de4415c5fc33072bef88
     Pseudo is Projector augmented-wave + core cor, Zval =  6.0
     Generated using "atomic" code by A. Dal Corso  v.5.0.99 svn rev. 10869
     Shape of augmentation charge: BESSEL
     Using radial grid of 1095 points,  4 beta functions with:
                l(1) =   0
                l(2) =   0
                l(3) =   1
                l(4) =   1
     Q(r) pseudized with 0 coefficients

     atomic species   valence    mass     pseudopotential
        Cd            12.00   112.41400     Cd( 1.00)
        H              1.00     1.00800     H ( 1.00)
        O              6.00    15.99900     O ( 1.00)

     12 Sym. Ops., with inversion, found

                                    s                        frac. trans.

      isym =  1     identity

 cryst.   s( 1) = (     1          0          0      )
                  (     0          1          0      )
                  (     0          0          1      )

 cart.    s( 1) = (  1.0000000 -0.0000000  0.0000000 )
                  (  0.0000000  1.0000000  0.0000000 )
                  (  0.0000000  0.0000000  1.0000000 )

      isym =  2     180 deg rotation - cart. axis [1,0,0]

[...]

      isym =  3     120 deg rotation - cryst. axis [0,0,1]

[...]

      isym =  6     180 deg rotation - cryst. axis [1,1,0]

[...]

      isym =  7     inversion

[...]

      isym =  8     inv. 180 deg rotation - cart. axis [1,0,0]

[...]

      isym =  9     inv. 120 deg rotation - cryst. axis [0,0,1]

 cryst.   s( 9) = (     0         -1          0      )
                  (     1          1          0      )
                  (     0          0         -1      )

 cart.    s( 9) = (  0.4999999  0.8660254  0.0000000 )
                  ( -0.8660254  0.5000001  0.0000000 )
                  (  0.0000000  0.0000000 -1.0000000 )

[...]

 cryst.   s(10) = (     1          1          0      )
                  (    -1          0          0      )
                  (     0          0         -1      )

 cart.    s(10) = (  0.5000001 -0.8660254  0.0000000 )
                  (  0.8660254  0.4999999  0.0000000 )
                  (  0.0000000  0.0000000 -1.0000000 )

[...]

      isym = 12     inv. 180 deg rotation - cryst. axis [1,1,0]

 cryst.   s(12) = (     0         -1          0      )
                  (    -1          0          0      )
                  (     0          0          1      )

 cart.    s(12) = (  0.4999999 -0.8660254  0.0000000 )
                  ( -0.8660254 -0.4999999  0.0000000 )
                  (  0.0000000  0.0000000  1.0000000 )

   Cartesian axes

     site n.     atom                  positions (alat units)
         1           Cd  tau(   1) = (   0.0000000   0.0000000   0.0000000  )
         2           H   tau(   2) = (   0.5000005   0.2886749   0.7259721  )
         3           H   tau(   3) = (  -0.0000005   0.5773506   0.5827272  )
         4           O   tau(   4) = (   0.5000005   0.2886749   0.9986567  )
         5           O   tau(   5) = (  -0.0000005   0.5773506   0.3100426  )

   Crystallographic axes

     site n.     atom                  positions (cryst. coord.)
         1           Cd  tau(   1) = (  0.0000000  0.0000000  0.0000000  )
         2           H   tau(   2) = (  0.6666670  0.3333330  0.5547280  )
         3           H   tau(   3) = (  0.3333330  0.6666670  0.4452720  )
         4           O   tau(   4) = (  0.6666670  0.3333330  0.7630910  )
         5           O   tau(   5) = (  0.3333330  0.6666670  0.2369090  )

     number of k points=     1  Methfessel-Paxton smearing, width (Ry)=  0.0010
                       cart. coord. in units 2pi/alat
        k(    1) = (   0.0000000   0.0000000   0.0000000), wk =   2.0000000

                       cryst. coord.
        k(    1) = (   0.0000000   0.0000000   0.0000000), wk =   2.0000000

     Check: negative core charge=   -0.000009

     Initial potential from superposition of free atoms

     starting charge      25.9951, renormalised to      26.0000
     Starting wfcs are   19 randomized atomic wfcs
     Checking if some PAW data can be deallocated...

     Self-consistent Calculation

     iteration #  1     ecut=    30.00 Ry     beta= 0.70
     Davidson diagonalization with overlap

     ethr =  1.00E-02,  avg # of iterations =  3.0

     total energy              =    -206.92094121 Ry
     estimated scf accuracy    <       1.19867402 Ry

[...]

     total energy              =    -207.42860944 Ry
     estimated scf accuracy    <       0.00001120 Ry

     iteration #  9     ecut=    30.00 Ry     beta= 0.70
     Davidson diagonalization with overlap

     ethr =  4.31E-08,  avg # of iterations =  2.0

     End of self-consistent calculation

          k = 0.0000 0.0000 0.0000 (   491 PWs)   bands (ev):

   -12.9124 -11.9065  -3.1083  -2.4893  -2.4892  -2.0999  -2.0999  -0.7527
     1.1240   4.5461   4.5462   4.9563   4.9564   6.0911  10.6844  14.5300
    16.8504

     occupation numbers
     1.0000   1.0000   1.0000   1.0000   1.0000   1.0000   1.0000   1.0000
     1.0000   1.0000   1.0000   1.0000   1.0000  -0.0000  -0.0000  -0.0000
    -0.0000

     the Fermi energy is     5.7234 ev

!    total energy              =    -207.42861043 Ry
     estimated scf accuracy    <       0.00000039 Ry
     smearing contrib. (-TS)   =       0.00000000 Ry
     internal energy E=F+TS    =    -207.42861043 Ry

     The total energy is F=E-TS. E is the sum of the following terms:
     one-electron contribution =     -69.83690905 Ry
     hartree contribution      =      55.76134282 Ry
     xc contribution           =     -59.57098463 Ry
     ewald contribution        =    -114.82165022 Ry
     one-center paw contrib.   =     -18.96040937 Ry
      -> PAW hartree energy AE =      64.01876637 Ry
      -> PAW hartree energy PS =     -63.74748446 Ry
      -> PAW xc energy AE      =     -35.03270915 Ry
      -> PAW xc energy PS      =      15.80101787 Ry
      -> total E_H with PAW    =      56.03262473 Ry
      -> total E_XC with PAW   =     -78.80267590 Ry

     convergence has been achieved in   9 iterations

     Forces acting on atoms (cartesian axes, Ry/au):

     atom    1 type  1   force =     0.00000000    0.00000000    0.00000000
     atom    2 type  2   force =    -0.00000000   -0.00000000    0.05962983
     atom    3 type  2   force =    -0.00000000   -0.00000000   -0.05962983
     atom    4 type  3   force =    -0.00000000   -0.00000000   -0.09554668
     atom    5 type  3   force =    -0.00000000    0.00000000    0.09554668
     The non-local contrib.  to forces
     atom    1 type  1   force =     0.00000000    0.00000000    0.00000000
     atom    2 type  2   force =    -0.00000000   -0.00000000    0.10712189
     atom    3 type  2   force =     0.00000000    0.00000000   -0.10712189
     atom    4 type  3   force =     0.00000000   -0.00000000   -0.93166031
     atom    5 type  3   force =     0.00000000    0.00000000    0.93166031
     The ionic contribution  to forces
     atom    1 type  1   force =    -0.00000000    0.00000000   -0.00000000
     atom    2 type  2   force =    -0.00000154    0.00000089   -3.23806670
     atom    3 type  2   force =     0.00000154   -0.00000089    3.23806670
     atom    4 type  3   force =    -0.00001124    0.00000649   -3.18523132
     atom    5 type  3   force =     0.00001124   -0.00000649    3.18523132
     The local contribution  to forces
     atom    1 type  1   force =    -0.00000111   -0.00000120    0.00051461
     atom    2 type  2   force =    -0.00000257   -0.00001582    3.19037160
     atom    3 type  2   force =     0.00000045   -0.00000199   -3.19057431
     atom    4 type  3   force =    -0.00009691   -0.00037995    4.01461517
     atom    5 type  3   force =    -0.00001559    0.00017748   -4.01446133
     The core correction contribution to forces
     atom    1 type  1   force =    -0.00000102    0.00000027    0.00001540
     atom    2 type  2   force =     0.00000000    0.00000000    0.00000000
     atom    3 type  2   force =     0.00000000    0.00000000    0.00000000
     atom    4 type  3   force =    -0.00000059   -0.00000324    0.00746408
     atom    5 type  3   force =     0.00000033    0.00000180   -0.00746422
     The Hubbard contrib.    to forces
     atom    1 type  1   force =     0.00000000    0.00000000    0.00000000
     atom    2 type  2   force =     0.00000000    0.00000000    0.00000000
     atom    3 type  2   force =     0.00000000    0.00000000    0.00000000
     atom    4 type  3   force =     0.00000000    0.00000000    0.00000000
     atom    5 type  3   force =     0.00000000    0.00000000    0.00000000
     The SCF correction term to forces
     atom    1 type  1   force =    -0.00000947   -0.00003140   -0.00048769
     atom    2 type  2   force =     0.00000413    0.00001095    0.00017548
     atom    3 type  2   force =    -0.00000114   -0.00000414   -0.00002789
     atom    4 type  3   force =     0.00005297    0.00019952   -0.00090169
     atom    5 type  3   force =     0.00001011   -0.00008791    0.00041320

     Total force =     0.159279     Total SCF correction =     0.001142

     Computing stress (Cartesian axis) and pressure

          total   stress  (Ry/bohr**3)                   (kbar)     P=     -296.62
  -0.00194615   0.00000000   0.00000000         -286.29        0.00        0.00
   0.00000000  -0.00194615   0.00000000            0.00     -286.29        0.00
   0.00000000  -0.00000000  -0.00215685            0.00       -0.00     -317.28

     kinetic stress (kbar)  22345.51     -0.00      0.00
                               -0.00  22345.51     -0.00
                                0.00      0.00  20192.46

     local   stress (kbar) -12956.22      0.00     -0.00
                                0.00 -12956.16      0.05
                               -0.00      0.05   4480.72

     nonloc. stress (kbar)  -1658.86      0.00      0.00
                                0.00  -1658.86     -0.00
                                0.00     -0.00  -1671.30

     hartree stress (kbar)  10395.91     -0.01     -0.00
                               -0.01  10395.86     -0.03
                               -0.00     -0.03   2443.83

     exc-cor stress (kbar)   6165.54     -0.00     -0.00
                               -0.00   6165.54     -0.00
                               -0.00     -0.00   6178.87

     corecor stress (kbar) -11088.17     -0.00      0.00
                               -0.00 -11088.16      0.00
                                0.00      0.00 -11076.02

     ewald   stress (kbar) -13490.00     -0.02      0.01
                               -0.02 -13490.02     -0.01
                                0.01     -0.01 -20865.86

     hubbard stress (kbar)      0.00      0.00      0.00
                                0.00      0.00      0.00
                                0.00      0.00      0.00

     DFT-D   stress (kbar)      0.00      0.00      0.00
                                0.00      0.00      0.00
                                0.00      0.00      0.00

     XDM     stress (kbar)      0.00      0.00      0.00
                                0.00      0.00      0.00
                                0.00      0.00      0.00

     dft-nl  stress (kbar)      0.00      0.00      0.00
                                0.00      0.00      0.00
                                0.00      0.00      0.00

     TS-vdW  stress (kbar)      0.00      0.00      0.00
                                0.00      0.00      0.00
                                0.00      0.00      0.00

[...]

                                0.00      0.00      0.00

     Writing all to output data dir new_calculations/myprefix.save/

     General routines

     Parallel routines

     PAW routines

   This run was terminated on:  15:14:11  20May2023

   JOB DONE.