     Program PWSCF v.7.0 starts on 21May2023 at  7:18:59

     Reading input from espresso_11936.pwi
Warning: card &CELL ignored
Warning: card / ignored

     Current dimensions of program PWSCF are:
     Max number of different atomic species (ntypx) = 10
     Max number of k-points (npk) =  40000
     Max angular momentum in pseudopotentials (lmaxx) =  4

     gamma-point specific algorithms are used
     Message from routine setup:
     using ibrav=0 with symmetry is DISCOURAGED, use correct ibrav instead

     Subspace diagonalization in iterative solution of the eigenvalue problem:
     a serial algorithm will be used

     Using Slab Decomposition

     bravais-lattice index     =            0
     lattice parameter (alat)  =       7.3112  a.u.
     unit-cell volume          =    1155.2289 (a.u.)^3
     number of atoms/cell      =            7
     number of atomic types    =            4
     number of electrons       =        56.00
     number of Kohn-Sham states=           34
     kinetic-energy cutoff     =      30.0000  Ry
     charge density cutoff     =     240.0000  Ry
     scf convergence threshold =      1.0E-06
     mixing beta               =       0.7000
     number of iterations used =            8  plain     mixing
     Exchange-correlation=  SLA  PW   PBX  PBC
                           (   1   4   3   4   0   0   0)

     celldm(1)=   7.311207  celldm(2)=   0.000000  celldm(3)=   0.000000
     celldm(4)=   0.000000  celldm(5)=   0.000000  celldm(6)=   0.000000

     crystal axes: (cart. coord. in units of alat)
               a(1) = (   1.000000   0.000000   0.000000 )
               a(2) = (   0.000000   1.705181   0.000000 )
               a(3) = (   0.000000   0.554462   1.733526 )

     reciprocal axes: (cart. coord. in units 2 pi/alat)
               b(1) = (  1.000000  0.000000  0.000000 )
               b(2) = (  0.000000  0.586448 -0.187573 )
               b(3) = (  0.000000  0.000000  0.576859 )

     PseudoPot. # 1 for Na read from file:
     /home/pragov/projects/rrg-bengioy-ad/pragov/crystal_structure_design/SSSP/na_pbe_v1.5.uspp.F.UPF
     MD5 check sum: 44600605ef58000f06b90626533354dc
     Pseudo is Ultrasoft, Zval =  9.0
     Generated by new atomic code, or converted to UPF format
     Using radial grid of  819 points,  5 beta functions with:
                l(1) =   0
                l(2) =   0
                l(3) =   1
                l(4) =   1
                l(5) =   2
     Q(r) pseudized with  8 coefficients,  rinner =    1.250   1.250   1.250
                                                       1.250   1.250

     PseudoPot. # 2 for Y  read from file:
     /home/pragov/projects/rrg-bengioy-ad/pragov/crystal_structure_design/SSSP/Y_pbe_v1.uspp.F.UPF
     MD5 check sum: 2cf71db95cafeb975fc457bd7f14888e
     Pseudo is Ultrasoft + core correction, Zval = 11.0
     Generated by new atomic code, or converted to UPF format
     Using radial grid of  885 points,  6 beta functions with:
                l(1) =   0
                l(2) =   0
                l(3) =   1
                l(4) =   1
                l(5) =   2
                l(6) =   2
     Q(r) pseudized with  6 coefficients,  rinner =    1.200   1.200   1.200
                                                       1.200   1.200

     PseudoPot. # 3 for Zr read from file:
     /home/pragov/projects/rrg-bengioy-ad/pragov/crystal_structure_design/SSSP/Zr_pbe_v1.uspp.F.UPF
     MD5 check sum: 5db81b1e868ab7776c4564c113de050b
     Pseudo is Ultrasoft + core correction, Zval = 12.0
     Generated by new atomic code, or converted to UPF format
     Using radial grid of  887 points,  6 beta functions with:
                l(1) =   0
                l(2) =   0
                l(3) =   1
                l(4) =   1
                l(5) =   2
                l(6) =   2
     Q(r) pseudized with  6 coefficients,  rinner =    1.200   1.200   1.200
                                                       1.200   1.200

     PseudoPot. # 4 for S  read from file:
     /home/pragov/projects/rrg-bengioy-ad/pragov/crystal_structure_design/SSSP/s_pbe_v1.4.uspp.F.UPF
     MD5 check sum: 88d86576ff6df21479756cfb9bdac1df
     Pseudo is Ultrasoft + core correction, Zval =  6.0
     Generated by new atomic code, or converted to UPF format
     Using radial grid of  907 points,  6 beta functions with:
                l(1) =   0
                l(2) =   0
                l(3) =   1
                l(4) =   1
                l(5) =   2
                l(6) =   2
     Q(r) pseudized with  8 coefficients,  rinner =    1.300   1.300   1.300
                                                       1.300   1.300

     atomic species   valence    mass     pseudopotential
        Na             9.00    22.98977     Na( 1.00)
        Y             11.00    88.90584     Y ( 1.00)
        Zr            12.00    91.22400     Zr( 1.00)
        S              6.00    32.06000     S ( 1.00)

      4 Sym. Ops., with inversion, found

                                    s                        frac. trans.

      isym =  1     identity

 cryst.   s( 1) = (     1          0          0      )
                  (     0          1          0      )
                  (     0          0          1      )

 cart.    s( 1) = (  1.0000000  0.0000000  0.0000000 )
                  (  0.0000000  1.0000000  0.0000000 )
                  (  0.0000000  0.0000000  1.0000000 )

      isym =  2     180 deg rotation - cart. axis [1,0,0]

[...]

      isym =  3     inversion

[...]

      isym =  4     inv. 180 deg rotation - cart. axis [1,0,0]

 cryst.   s( 4) = (    -1          0          0      )
                  (     0          1          0      )
                  (     0          0          1      )

 cart.    s( 4) = ( -1.0000000  0.0000000  0.0000000 )
                  (  0.0000000  1.0000000  0.0000000 )
                  (  0.0000000  0.0000000  1.0000000 )

   Cartesian axes

     site n.     atom                  positions (alat units)
         1           Na  tau(   1) = (   0.0000000   1.1298219   0.8667628  )
         2           Y   tau(   2) = (   0.5000000   0.8525907   0.0000000  )
         3           Zr  tau(   3) = (   0.0000000   0.0000000   0.0000000  )
         4           S   tau(   4) = (   0.5000000   1.4464355   0.3825544  )
         5           S   tau(   5) = (   0.0000000   0.5370449   0.3816097  )
         6           S   tau(   6) = (   0.5000000   0.8132083   1.3509712  )
         7           S   tau(   7) = (   0.0000000   1.7225989   1.3519160  )

   Crystallographic axes

     site n.     atom                  positions (cryst. coord.)
         1           Na  tau(   1) = (  0.0000000  0.5000000  0.5000000  )
         2           Y   tau(   2) = (  0.5000000  0.5000000  0.0000000  )
         3           Zr  tau(   3) = (  0.0000000  0.0000000  0.0000000  )
         4           S   tau(   4) = (  0.5000000  0.7765020  0.2206800  )
         5           S   tau(   5) = (  0.0000000  0.2433690  0.2201350  )
         6           S   tau(   6) = (  0.5000000  0.2234980  0.7793200  )
         7           S   tau(   7) = (  0.0000000  0.7566310  0.7798650  )

     number of k points=     1  Methfessel-Paxton smearing, width (Ry)=  0.0010
                       cart. coord. in units 2pi/alat
        k(    1) = (   0.0000000   0.0000000   0.0000000), wk =   2.0000000

                       cryst. coord.
        k(    1) = (   0.0000000   0.0000000   0.0000000), wk =   2.0000000

     Check: negative core charge=   -0.000003

     Initial potential from superposition of free atoms

     starting charge      55.9869, renormalised to      56.0000

     negative rho (up, down):  1.002E-01 0.000E+00
     Starting wfcs are   47 randomized atomic wfcs

     Self-consistent Calculation

     iteration #  1     ecut=    30.00 Ry     beta= 0.70
     Davidson diagonalization with overlap

     ethr =  1.00E-02,  avg # of iterations =  2.0

     negative rho (up, down):  1.021E-01 0.000E+00

     total energy              =    -378.61425514 Ry
     estimated scf accuracy    <       0.73456026 Ry

[...]

     total energy              =    -378.89216912 Ry
     estimated scf accuracy    <       0.00000518 Ry

     iteration # 11     ecut=    30.00 Ry     beta= 0.70
     Davidson diagonalization with overlap

     ethr =  9.24E-09,  avg # of iterations =  4.0

[...]

     End of self-consistent calculation

          k = 0.0000 0.0000 0.0000 (  1618 PWs)   bands (ev):

   -45.8558 -43.7220 -35.8371 -21.8839 -21.6878 -21.4793 -17.7759 -17.7700
   -17.7382 -16.0132 -15.9215 -15.6477  -6.2540  -5.3637  -5.2521  -4.7411
     1.6710   2.2552   3.0399   3.1671   3.3509   4.1819   4.4156   4.5175
     4.5692   5.5206   5.8105   5.8281   6.6795   7.8024   7.8989   8.9395
     9.7329   9.7802

     occupation numbers
     1.0000   1.0000   1.0000   1.0000   1.0000   1.0000   1.0000   1.0000
     1.0000   1.0000   1.0000   1.0000   1.0000   1.0000   1.0000   1.0000
     1.0000   1.0000   1.0000   1.0000   1.0000   1.0000   1.0000   1.0000
     1.0000   1.0000   1.0000   1.0000  -0.0000  -0.0000  -0.0000  -0.0000
    -0.0000  -0.0000

     the Fermi energy is     6.4220 ev

!    total energy              =    -378.89217056 Ry
     estimated scf accuracy    <       0.00000066 Ry
     smearing contrib. (-TS)   =       0.00000000 Ry
     internal energy E=F+TS    =    -378.89217056 Ry

     The total energy is F=E-TS. E is the sum of the following terms:
     one-electron contribution =    -170.62467697 Ry
     hartree contribution      =     102.98818242 Ry
     xc contribution           =     -88.29663886 Ry
     ewald contribution        =    -222.95903715 Ry

     convergence has been achieved in  11 iterations

     negative rho (up, down):  1.033E-01 0.000E+00

     Forces acting on atoms (cartesian axes, Ry/au):

     atom    1 type  1   force =     0.00000000    0.00000000    0.00000000
     atom    2 type  2   force =     0.00000000    0.00000000    0.00000000
     atom    3 type  3   force =     0.00000000    0.00000000    0.00000000
     atom    4 type  4   force =     0.00000000    0.03446049   -0.06549679
     atom    5 type  4   force =     0.00000000    0.02904722   -0.05447853
     atom    6 type  4   force =     0.00000000   -0.03446049    0.06549679
     atom    7 type  4   force =    -0.00000000   -0.02904722    0.05447853
     The non-local contrib.  to forces
     atom    1 type  1   force =     0.00000000    0.00000000    0.00000000
     atom    2 type  2   force =     0.00000000    0.00000000    0.00000000
     atom    3 type  3   force =     0.00000000    0.00000000    0.00000000
     atom    4 type  4   force =     0.00000000   -0.08111196    0.06901740
     atom    5 type  4   force =    -0.00000000    0.03353896    0.03410733
     atom    6 type  4   force =     0.00000000    0.08111196   -0.06901740
     atom    7 type  4   force =    -0.00000000   -0.03353896   -0.03410733
     The ionic contribution  to forces
     atom    1 type  1   force =    -0.00000000   -0.00000000   -0.00000000
     atom    2 type  2   force =     0.00000000    0.00000000    0.00000000
     atom    3 type  3   force =     0.00000000   -0.00000000   -0.00000000
     atom    4 type  4   force =     0.00000000    1.08519780    5.86985949
     atom    5 type  4   force =    -0.00000000   -0.59907525    6.94125553
     atom    6 type  4   force =    -0.00000000   -1.08519780   -5.86985949
     atom    7 type  4   force =    -0.00000000    0.59907525   -6.94125553
     The local contribution  to forces
     atom    1 type  1   force =     0.00001108   -0.00002377    0.00036519
     atom    2 type  2   force =    -0.00000061   -0.00042874   -0.00085628
     atom    3 type  3   force =    -0.00000967    0.00039194   -0.00056364
     atom    4 type  4   force =    -0.00001674   -0.97439597   -6.00045235
     atom    5 type  4   force =     0.00008296    0.59706384   -7.02798421
     atom    6 type  4   force =     0.00003761    0.97499964    5.99990100
     atom    7 type  4   force =    -0.00000919   -0.59729584    7.02752931
     The core correction contribution to forces
     atom    1 type  1   force =     0.00000000    0.00000000    0.00000000
     atom    2 type  2   force =     0.00000038   -0.00000918   -0.00001119
     atom    3 type  3   force =    -0.00000053    0.00000232   -0.00000451
     atom    4 type  4   force =     0.00000015    0.00448974   -0.00450034
     atom    5 type  4   force =     0.00000197   -0.00202803   -0.00265798
     atom    6 type  4   force =     0.00000100   -0.00447662    0.00448965
     atom    7 type  4   force =     0.00000046    0.00202592    0.00265114
     The Hubbard contrib.    to forces
     atom    1 type  1   force =     0.00000000    0.00000000    0.00000000
     atom    2 type  2   force =     0.00000000    0.00000000    0.00000000
     atom    3 type  3   force =     0.00000000    0.00000000    0.00000000
     atom    4 type  4   force =     0.00000000    0.00000000    0.00000000
     atom    5 type  4   force =     0.00000000    0.00000000    0.00000000
     atom    6 type  4   force =     0.00000000    0.00000000    0.00000000
     atom    7 type  4   force =     0.00000000    0.00000000    0.00000000
     The SCF correction term to forces
     atom    1 type  1   force =    -0.00000885    0.00018451   -0.00083152
     atom    2 type  2   force =    -0.00000463    0.00034238    0.00081912
     atom    3 type  3   force =     0.00000203   -0.00038142    0.00062454
     atom    4 type  4   force =     0.00000617    0.00040922    0.00043484
     atom    5 type  4   force =    -0.00004358   -0.00047614    0.00071821
     atom    6 type  4   force =    -0.00001762   -0.00076933   -0.00016115
     atom    7 type  4   force =     0.00000782    0.00066258   -0.00042165

     Total force =     0.136301     Total SCF correction =     0.002094

     Computing stress (Cartesian axis) and pressure

     negative rho (up, down):  1.033E-01 0.000E+00
          total   stress  (Ry/bohr**3)                   (kbar)     P=       36.12
   0.00092595   0.00000000   0.00000000          136.21        0.00        0.00
   0.00000000  -0.00001608   0.00020726            0.00       -2.37       30.49
   0.00000000   0.00020726  -0.00017325            0.00       30.49      -25.49

     kinetic stress (kbar)   8588.59      0.00      0.00
                                0.00   8293.97     62.56
                                0.00     62.56   8234.09

     local   stress (kbar)  -5818.97     -0.01      0.00
                               -0.01  -3996.70    190.05
                                0.00    190.05   6281.03

     nonloc. stress (kbar)    673.05      0.00      0.00
                                0.00    653.93     -9.45
                                0.00     -9.45    644.65

     hartree stress (kbar)   6314.71      0.00     -0.00
                                0.00   5507.61   -115.10
                               -0.00   -115.10   1292.04

     exc-cor stress (kbar)   1631.68      0.00     -0.00
                                0.00   1633.31      1.30
                               -0.00      1.30   1628.51

     corecor stress (kbar)  -4355.98     -0.00      0.00
                               -0.00  -4353.24      0.48
                                0.00      0.48  -4352.65

     ewald   stress (kbar)  -6896.86      0.00     -0.00
                                0.00  -7741.24    -99.35
                               -0.00    -99.35 -13753.16

     hubbard stress (kbar)      0.00      0.00      0.00
                                0.00      0.00      0.00
                                0.00      0.00      0.00

     DFT-D   stress (kbar)      0.00      0.00      0.00
                                0.00      0.00      0.00
                                0.00      0.00      0.00

     XDM     stress (kbar)      0.00      0.00      0.00
                                0.00      0.00      0.00
                                0.00      0.00      0.00

     dft-nl  stress (kbar)      0.00      0.00      0.00
                                0.00      0.00      0.00
                                0.00      0.00      0.00

     TS-vdW  stress (kbar)      0.00      0.00      0.00
                                0.00      0.00      0.00
                                0.00      0.00      0.00

[...]

                                0.00      0.00      0.00

     Writing all to output data dir new_calculations/myprefix.save/

     General routines

     Parallel routines

   This run was terminated on:   7:19:21  21May2023

   JOB DONE.