     Program PWSCF v.7.0 starts on 20May2023 at  4:10:37

     Reading input from espresso_17023.pwi
Warning: card &CELL ignored
Warning: card / ignored

     Current dimensions of program PWSCF are:
     Max number of different atomic species (ntypx) = 10
     Max number of k-points (npk) =  40000
     Max angular momentum in pseudopotentials (lmaxx) =  4

     gamma-point specific algorithms are used
     Message from routine setup:
     using ibrav=0 with symmetry is DISCOURAGED, use correct ibrav instead

     Subspace diagonalization in iterative solution of the eigenvalue problem:
     a serial algorithm will be used

     Using Slab Decomposition

     bravais-lattice index     =            0
     lattice parameter (alat)  =      12.4179  a.u.
     unit-cell volume          =    1353.8650 (a.u.)^3
     number of atoms/cell      =           16
     number of atomic types    =            3
     number of electrons       =       188.00
     number of Kohn-Sham states=          113
     kinetic-energy cutoff     =      30.0000  Ry
     charge density cutoff     =     240.0000  Ry
     scf convergence threshold =      1.0E-06
     mixing beta               =       0.7000
     number of iterations used =            8  plain     mixing
     Exchange-correlation= PBE
                           (   1   4   3   4   0   0   0)

     celldm(1)=  12.417944  celldm(2)=   0.000000  celldm(3)=   0.000000
     celldm(4)=   0.000000  celldm(5)=   0.000000  celldm(6)=   0.000000

     crystal axes: (cart. coord. in units of alat)
               a(1) = (   1.000000   0.000000   0.000000 )
               a(2) = (   0.000000   0.865570   0.000000 )
               a(3) = (   0.000000   0.000000   0.816816 )

     reciprocal axes: (cart. coord. in units 2 pi/alat)
               b(1) = (  1.000000  0.000000  0.000000 )
               b(2) = (  0.000000  1.155308  0.000000 )
               b(3) = (  0.000000  0.000000  1.224266 )

     PseudoPot. # 1 for Zn read from file:
     /home/pragov/projects/rrg-bengioy-ad/pragov/crystal_structure_design/SSSP/Zn_pbe_v1.uspp.F.UPF
     MD5 check sum: df62231357ef9e81f77b2b3087fa5675
     Pseudo is Ultrasoft, Zval = 20.0
     Generated by new atomic code, or converted to UPF format
     Using radial grid of  943 points,  6 beta functions with:
                l(1) =   0
                l(2) =   0
                l(3) =   1
                l(4) =   1
                l(5) =   2
                l(6) =   2
     Q(r) pseudized with  8 coefficients,  rinner =    1.100   1.100   1.100
                                                       1.100   1.100

     PseudoPot. # 2 for Mo read from file:
     /home/pragov/projects/rrg-bengioy-ad/pragov/crystal_structure_design/SSSP/Mo_ONCV_PBE-1.0.oncvpsp.upf
     MD5 check sum: 1b5d28e075c9ccadda658a603575cd1f
     Pseudo is Norm-conserving, Zval = 14.0
     Generated using ONCVPSP code by D. R. Hamann
     Using radial grid of 1526 points,  6 beta functions with:
                l(1) =   0
                l(2) =   0
                l(3) =   1
                l(4) =   1
                l(5) =   2
                l(6) =   2

     PseudoPot. # 3 for N  read from file:
     /home/pragov/projects/rrg-bengioy-ad/pragov/crystal_structure_design/SSSP/N.pbe-n-radius_5.UPF
     MD5 check sum: 16739722b17309cd8fe442a2ace49922
     Pseudo is Ultrasoft + core correction, Zval =  5.0
     Generated using "atomic" code by A. Dal Corso  v.5.1
     Using radial grid of 1085 points,  4 beta functions with:
                l(1) =   0
                l(2) =   0
                l(3) =   1
                l(4) =   1
     Q(r) pseudized with 0 coefficients

     atomic species   valence    mass     pseudopotential
        Zn            20.00    65.38000     Zn( 1.00)
        Mo            14.00    95.95000     Mo( 1.00)
        N              5.00    14.00700     N ( 1.00)

      4 Sym. Ops. (no inversion) found ( 2 have fractional translation)

                                    s                        frac. trans.

      isym =  1     identity

 cryst.   s( 1) = (     1          0          0      )
                  (     0          1          0      )
                  (     0          0          1      )

 cart.    s( 1) = (  1.0000000  0.0000000  0.0000000 )
                  (  0.0000000  1.0000000  0.0000000 )
                  (  0.0000000  0.0000000  1.0000000 )

      isym =  2     180 deg rotation - cart. axis [0,0,1]

 cryst.   s( 2) = (    -1          0          0      )    f =(  0.5000000 )
                  (     0         -1          0      )       ( -0.0000000 )
                  (     0          0          1      )       (  0.5000000 )

 cart.    s( 2) = ( -1.0000000  0.0000000  0.0000000 )    f =(  0.5000000 )
                  (  0.0000000 -1.0000000  0.0000000 )       ( -0.0000000 )
                  (  0.0000000  0.0000000  1.0000000 )       (  0.4084080 )

      isym =  3     inv. 180 deg rotation - cart. axis [0,1,0]

 cryst.   s( 3) = (     1          0          0      )    f =( -0.5000000 )
                  (     0         -1          0      )       ( -0.0000000 )
                  (     0          0          1      )       (  0.5000000 )

 cart.    s( 3) = (  1.0000000  0.0000000  0.0000000 )    f =( -0.5000000 )
                  (  0.0000000 -1.0000000  0.0000000 )       ( -0.0000000 )
                  (  0.0000000  0.0000000  1.0000000 )       (  0.4084080 )

      isym =  4     inv. 180 deg rotation - cart. axis [1,0,0]

 cryst.   s( 4) = (    -1          0          0      )
                  (     0          1          0      )
                  (     0          0          1      )

 cart.    s( 4) = ( -1.0000000  0.0000000  0.0000000 )
                  (  0.0000000  1.0000000  0.0000000 )
                  (  0.0000000  0.0000000  1.0000000 )

   Cartesian axes

     site n.     atom                  positions (alat units)
         1           Zn  tau(   1) = (   0.2514860   0.7202795   0.5970753  )
         2           Zn  tau(   2) = (   0.2485140   0.1452902   0.1886673  )
         3           Zn  tau(   3) = (   0.7485140   0.7202795   0.5970753  )
         4           Zn  tau(   4) = (   0.7514860   0.1452902   0.1886673  )
         5           Zn  tau(   5) = (   0.0000000   0.2891721   0.5960404  )
         6           Zn  tau(   6) = (   0.5000000   0.5763976   0.1876324  )
         7           Mo  tau(   7) = (   0.0000000   0.5801836   0.1873024  )
         8           Mo  tau(   8) = (   0.5000000   0.2853861   0.5957104  )
         9           N   tau(   9) = (   0.7633620   0.7154020   0.0927911  )
        10           N   tau(  10) = (   0.7366380   0.1501677   0.5011991  )
        11           N   tau(  11) = (   0.2366380   0.7154020   0.0927911  )
        12           N   tau(  12) = (   0.2633620   0.1501677   0.5011991  )
        13           N   tau(  13) = (   0.0000000   0.3096368   0.0923427  )
        14           N   tau(  14) = (   0.5000000   0.5559329   0.5007507  )
        15           N   tau(  15) = (   0.0000000   0.5812179   0.4721417  )
        16           N   tau(  16) = (   0.5000000   0.2843518   0.0637337  )

   Crystallographic axes

     site n.     atom                  positions (cryst. coord.)
         1           Zn  tau(   1) = (  0.2514860  0.8321450  0.7309790  )
         2           Zn  tau(   2) = (  0.2485140  0.1678550  0.2309790  )
         3           Zn  tau(   3) = (  0.7485140  0.8321450  0.7309790  )
         4           Zn  tau(   4) = (  0.7514860  0.1678550  0.2309790  )
         5           Zn  tau(   5) = (  0.0000000  0.3340830  0.7297120  )
         6           Zn  tau(   6) = (  0.5000000  0.6659170  0.2297120  )
         7           Mo  tau(   7) = (  0.0000000  0.6702910  0.2293080  )
         8           Mo  tau(   8) = (  0.5000000  0.3297090  0.7293080  )
         9           N   tau(   9) = (  0.7633620  0.8265100  0.1136010  )
        10           N   tau(  10) = (  0.7366380  0.1734900  0.6136010  )
        11           N   tau(  11) = (  0.2366380  0.8265100  0.1136010  )
        12           N   tau(  12) = (  0.2633620  0.1734900  0.6136010  )
        13           N   tau(  13) = (  0.0000000  0.3577260  0.1130520  )
        14           N   tau(  14) = (  0.5000000  0.6422740  0.6130520  )
        15           N   tau(  15) = (  0.0000000  0.6714860  0.5780270  )
        16           N   tau(  16) = (  0.5000000  0.3285140  0.0780270  )

     number of k points=     1  Methfessel-Paxton smearing, width (Ry)=  0.0010
                       cart. coord. in units 2pi/alat
        k(    1) = (   0.0000000   0.0000000   0.0000000), wk =   2.0000000

                       cryst. coord.
        k(    1) = (   0.0000000   0.0000000   0.0000000), wk =   2.0000000

     Check: negative core charge=   -0.000003

     Initial potential from superposition of free atoms

     starting charge     187.9971, renormalised to     188.0000
     Starting wfcs are  130 randomized atomic wfcs

     Self-consistent Calculation

     iteration #  1     ecut=    30.00 Ry     beta= 0.70
     Davidson diagonalization with overlap

     ethr =  1.00E-02,  avg # of iterations =  2.0

     total energy              =   -3202.67449775 Ry
     estimated scf accuracy    <       4.70818347 Ry

[...]

     total energy              =   -3205.14472363 Ry
     estimated scf accuracy    <       0.00001028 Ry

     iteration # 11     ecut=    30.00 Ry     beta= 0.70
     Davidson diagonalization with overlap

     ethr =  5.47E-09,  avg # of iterations =  2.0

     End of self-consistent calculation

          k = 0.0000 0.0000 0.0000 (  1872 PWs)   bands (ev):

  -114.3424-114.3399-114.3396-114.3394-114.2937-114.2925 -68.4693 -68.4626
   -68.4623 -68.4612 -68.4539 -68.4523 -68.4469 -68.4462 -68.4387 -68.4387
   -68.4340 -68.4295 -68.4241 -68.4177 -68.4078 -68.4040 -68.3792 -68.3743
   -50.6128 -50.6108 -24.8860 -24.8838 -24.8738 -24.8719 -24.8160 -24.8129
    -4.3208  -3.2684  -3.2418  -3.1631  -3.1102  -2.9185  -2.8452  -2.7557
     4.0124   4.0667   4.1031   4.1356   4.1422   4.1469   4.2784   4.3083
     4.3309   4.3709   4.3950   4.4305   4.5005   4.5151   4.5217   4.5787
     4.6033   4.7255   4.7649   4.7713   4.7973   4.8241   4.8331   4.8369
     4.8881   4.9211   4.9350   4.9895   5.0172   5.0532   5.3213   5.5659
     5.6708   5.9925   6.3440   6.5328   6.7869   6.9834   7.0505   7.2123
     7.6029   7.6223   7.6735   7.9303   8.1266   8.3044   8.4864   8.5974
     8.6993   8.7119   8.7908   9.0503   9.3638   9.8909  12.6074  12.7970
    12.9718  13.1894  13.4610  13.6854  14.4168  14.8099  14.8646  14.9420
    15.0487  15.8533  16.6938  16.9537  17.5594  17.6087  17.9957  18.5168
    18.6611

     occupation numbers
     1.0000   1.0000   1.0000   1.0000   1.0000   1.0000   1.0000   1.0000
     1.0000   1.0000   1.0000   1.0000   1.0000   1.0000   1.0000   1.0000
     1.0000   1.0000   1.0000   1.0000   1.0000   1.0000   1.0000   1.0000
     1.0000   1.0000   1.0000   1.0000   1.0000   1.0000   1.0000   1.0000
     1.0000   1.0000   1.0000   1.0000   1.0000   1.0000   1.0000   1.0000
     1.0000   1.0000   1.0000   1.0000   1.0000   1.0000   1.0000   1.0000
     1.0000   1.0000   1.0000   1.0000   1.0000   1.0000   1.0000   1.0000
     1.0000   1.0000   1.0000   1.0000   1.0000   1.0000   1.0000   1.0000
     1.0000   1.0000   1.0000   1.0000   1.0000   1.0000   1.0000   1.0000
     1.0000   1.0000   1.0000   1.0000   1.0000   1.0000   1.0000   1.0000
     1.0000   1.0000   1.0000   1.0000   1.0000   1.0000   1.0000   1.0000
     1.0000   1.0000   1.0000   1.0000   1.0000   1.0000  -0.0000  -0.0000
    -0.0000  -0.0000  -0.0000  -0.0000  -0.0000  -0.0000  -0.0000  -0.0000
    -0.0000  -0.0000  -0.0000  -0.0000  -0.0000  -0.0000  -0.0000  -0.0000
    -0.0000

     the Fermi energy is    10.4674 ev

!    total energy              =   -3205.14472482 Ry
     estimated scf accuracy    <       0.00000060 Ry
     smearing contrib. (-TS)   =       0.00000000 Ry
     internal energy E=F+TS    =   -3205.14472482 Ry

     The total energy is F=E-TS. E is the sum of the following terms:
     one-electron contribution =   -2531.62153349 Ry
     hartree contribution      =    1340.38542200 Ry
     xc contribution           =    -327.51583512 Ry
     ewald contribution        =   -1686.39277821 Ry

     convergence has been achieved in  11 iterations

     Forces acting on atoms (cartesian axes, Ry/au):

     atom    1 type  1   force =    -0.00468067   -0.01197974   -0.01259431
     atom    2 type  1   force =     0.00468067    0.01197974   -0.01259431
     atom    3 type  1   force =     0.00468067   -0.01197974   -0.01259431
     atom    4 type  1   force =    -0.00468067    0.01197974   -0.01259431
     atom    5 type  1   force =     0.00000000   -0.00263781   -0.01463036
     atom    6 type  1   force =     0.00000000    0.00263781   -0.01463036
     atom    7 type  2   force =     0.00000000    0.02522684    0.05487570
     atom    8 type  2   force =     0.00000000   -0.02522684    0.05487570
     atom    9 type  3   force =     0.01993930   -0.03895223    0.00541674
     atom   10 type  3   force =    -0.01993930    0.03895223    0.00541674
     atom   11 type  3   force =    -0.01993930   -0.03895223    0.00541674
     atom   12 type  3   force =     0.01993930    0.03895223    0.00541674
     atom   13 type  3   force =     0.00000000    0.01889722    0.00463368
     atom   14 type  3   force =     0.00000000   -0.01889722    0.00463368
     atom   15 type  3   force =     0.00000000   -0.00761694   -0.03052386
     atom   16 type  3   force =     0.00000000    0.00761694   -0.03052386
     The non-local contrib.  to forces
     atom    1 type  1   force =     0.06269500    0.04749619    0.04010829
     atom    2 type  1   force =    -0.06269500   -0.04749619    0.04010829
     atom    3 type  1   force =    -0.06269500    0.04749619    0.04010829
     atom    4 type  1   force =     0.06269500   -0.04749619    0.04010829
     atom    5 type  1   force =     0.00000000   -0.15694558    0.00061270
     atom    6 type  1   force =     0.00000000    0.15694558    0.00061270
     atom    7 type  2   force =     0.00000000   -0.01273532    0.03337496
     atom    8 type  2   force =    -0.00000000    0.01273532    0.03337496
     atom    9 type  3   force =     0.10622898    0.02323512   -0.04953054
     atom   10 type  3   force =    -0.10622898   -0.02323512   -0.04953054
     atom   11 type  3   force =    -0.10622898    0.02323512   -0.04953054
     atom   12 type  3   force =     0.10622898   -0.02323512   -0.04953054
     atom   13 type  3   force =     0.00000000    0.05552762   -0.11323095
     atom   14 type  3   force =     0.00000000   -0.05552762   -0.11323095
     atom   15 type  3   force =    -0.00000000    0.03383365   -0.03378733
     atom   16 type  3   force =     0.00000000   -0.03383365   -0.03378733
     The ionic contribution  to forces
     atom    1 type  1   force =    -0.29883535   -1.29899192    0.30663365
     atom    2 type  1   force =     0.29883535    1.29899192    0.30663365
     atom    3 type  1   force =     0.29883535   -1.29899192    0.30663365
     atom    4 type  1   force =    -0.29883535    1.29899192    0.30663365
     atom    5 type  1   force =    -0.00000000    1.84718046    0.29747775
     atom    6 type  1   force =     0.00000000   -1.84718046    0.29747775
     atom    7 type  2   force =     0.00000000   -0.40346063   -0.20381816
     atom    8 type  2   force =     0.00000000    0.40346063   -0.20381816
     atom    9 type  3   force =     1.34093520   -1.02506826    0.25232994
     atom   10 type  3   force =    -1.34093520    1.02506826    0.25232994
     atom   11 type  3   force =    -1.34093520   -1.02506826    0.25232994
     atom   12 type  3   force =     1.34093520    1.02506826    0.25232994
     atom   13 type  3   force =    -0.00000000    1.78064452    0.16244616
     atom   14 type  3   force =     0.00000000   -1.78064452    0.16244616
     atom   15 type  3   force =     0.00000000   -0.27495734   -1.37403292
     atom   16 type  3   force =    -0.00000000    0.27495734   -1.37403292
     The local contribution  to forces
     atom    1 type  1   force =     0.23099462    1.23927815   -0.35999471
     atom    2 type  1   force =    -0.23172828   -1.23917248   -0.35931251
     atom    3 type  1   force =    -0.23099223    1.23927181   -0.36001491
     atom    4 type  1   force =     0.23172844   -1.23915608   -0.35931365
     atom    5 type  1   force =     0.00003235   -1.69280565   -0.31295291
     atom    6 type  1   force =    -0.00005451    1.69250999   -0.31236727
     atom    7 type  2   force =     0.00004688    0.44120513    0.22574126
     atom    8 type  2   force =    -0.00003181   -0.44117296    0.22554850
     atom    9 type  3   force =    -1.42693027    0.96368522   -0.19810977
     atom   10 type  3   force =     1.42754779   -0.96398851   -0.19840729
     atom   11 type  3   force =     1.42693658    0.96368692   -0.19811373
     atom   12 type  3   force =    -1.42755037   -0.96398792   -0.19840460
     atom   13 type  3   force =     0.00000511   -1.81785333   -0.04588127
     atom   14 type  3   force =    -0.00000535    1.81830671   -0.04620512
     atom   15 type  3   force =     0.00000834    0.23403611    1.37827105
     atom   16 type  3   force =    -0.00000647   -0.23397664    1.37875735
     The core correction contribution to forces
     atom    1 type  1   force =     0.00000000    0.00000000    0.00000000
     atom    2 type  1   force =     0.00000000    0.00000000    0.00000000
     atom    3 type  1   force =     0.00000000    0.00000000    0.00000000
     atom    4 type  1   force =     0.00000000    0.00000000    0.00000000
     atom    5 type  1   force =     0.00000000    0.00000000    0.00000000
     atom    6 type  1   force =     0.00000000    0.00000000    0.00000000
     atom    7 type  2   force =     0.00000000    0.00000000    0.00000000
     atom    8 type  2   force =     0.00000000    0.00000000    0.00000000
     atom    9 type  3   force =    -0.00003040   -0.00080196    0.00085077
     atom   10 type  3   force =     0.00002990    0.00080190    0.00085084
     atom   11 type  3   force =     0.00003041   -0.00080196    0.00085074
     atom   12 type  3   force =    -0.00002992    0.00080191    0.00085085
     atom   13 type  3   force =    -0.00000003    0.00067074    0.00159727
     atom   14 type  3   force =     0.00000002   -0.00067157    0.00159690
     atom   15 type  3   force =     0.00000000   -0.00035443   -0.00107744
     atom   16 type  3   force =     0.00000001    0.00035443   -0.00107894
     The Hubbard contrib.    to forces
     atom    1 type  1   force =     0.00000000    0.00000000    0.00000000
     atom    2 type  1   force =     0.00000000    0.00000000    0.00000000
     atom    3 type  1   force =     0.00000000    0.00000000    0.00000000
     atom    4 type  1   force =     0.00000000    0.00000000    0.00000000
     atom    5 type  1   force =     0.00000000    0.00000000    0.00000000
     atom    6 type  1   force =     0.00000000    0.00000000    0.00000000
     atom    7 type  2   force =     0.00000000    0.00000000    0.00000000
     atom    8 type  2   force =     0.00000000    0.00000000    0.00000000
     atom    9 type  3   force =     0.00000000    0.00000000    0.00000000
     atom   10 type  3   force =     0.00000000    0.00000000    0.00000000
     atom   11 type  3   force =     0.00000000    0.00000000    0.00000000
     atom   12 type  3   force =     0.00000000    0.00000000    0.00000000
     atom   13 type  3   force =     0.00000000    0.00000000    0.00000000
     atom   14 type  3   force =     0.00000000    0.00000000    0.00000000
     atom   15 type  3   force =     0.00000000    0.00000000    0.00000000
     atom   16 type  3   force =     0.00000000    0.00000000    0.00000000
     The SCF correction term to forces
     atom    1 type  1   force =     0.00053993    0.00023154    0.00074839
     atom    2 type  1   force =     0.00034575   -0.00034875   -0.00003317
     atom    3 type  1   force =    -0.00054349    0.00024774    0.00077893
     atom    4 type  1   force =    -0.00034252   -0.00035740   -0.00003261
     atom    5 type  1   force =    -0.00002695   -0.00004167    0.00033567
     atom    6 type  1   force =     0.00007322    0.00038808   -0.00037174
     atom    7 type  2   force =    -0.00004050    0.00020787   -0.00040239
     atom    8 type  2   force =     0.00002753   -0.00025962   -0.00016418
     atom    9 type  3   force =    -0.00029736   -0.00000398   -0.00009275
     atom   10 type  3   force =    -0.00038771    0.00030447    0.00022945
     atom   11 type  3   force =     0.00029334   -0.00000409   -0.00009161
     atom   12 type  3   force =     0.00038914    0.00030466    0.00022724
     atom   13 type  3   force =    -0.00000631   -0.00013098   -0.00025817
     atom   14 type  3   force =     0.00000648   -0.00039888    0.00007273
     atom   15 type  3   force =    -0.00000767   -0.00017739    0.00021147
     atom   16 type  3   force =     0.00000671    0.00011301   -0.00040534

     Total force =     0.139811     Total SCF correction =     0.002086

     Computing stress (Cartesian axis) and pressure

          total   stress  (Ry/bohr**3)                   (kbar)     P=     -425.80
  -0.00257273   0.00000000   0.00000000         -378.46        0.00        0.00
   0.00000000  -0.00292350   0.00000000            0.00     -430.06        0.00
   0.00000000   0.00000000  -0.00318744            0.00        0.00     -468.89

     kinetic stress (kbar)  30284.71      0.00      0.00
                                0.00  30132.65      0.00
                                0.00      0.00  30178.17

     local   stress (kbar)  -8520.31      0.00     -0.00
                                0.00  -8053.08      0.02
                               -0.00      0.02 -11750.25

     nonloc. stress (kbar)   2709.32      0.00      0.00
                                0.00   2672.28      0.00
                                0.00      0.00   2650.58

     hartree stress (kbar)  48147.45     -0.00      0.00
                               -0.00  47905.25     -0.01
                                0.00     -0.01  49587.75

     exc-cor stress (kbar) -11005.84     -0.00      0.00
                               -0.00 -11006.31     -0.00
                                0.00     -0.00 -11003.67

     corecor stress (kbar)   -323.76      0.00     -0.00
                                0.00   -322.99      0.00
                               -0.00      0.00   -323.27

     ewald   stress (kbar) -61670.03     -0.00      0.00
                               -0.00 -61757.88     -0.00
                                0.00     -0.00 -59808.20

     hubbard stress (kbar)      0.00      0.00      0.00
                                0.00      0.00      0.00
                                0.00      0.00      0.00

     DFT-D   stress (kbar)      0.00      0.00      0.00
                                0.00      0.00      0.00
                                0.00      0.00      0.00

     XDM     stress (kbar)      0.00      0.00      0.00
                                0.00      0.00      0.00
                                0.00      0.00      0.00

     dft-nl  stress (kbar)      0.00      0.00      0.00
                                0.00      0.00      0.00
                                0.00      0.00      0.00

     TS-vdW  stress (kbar)      0.00      0.00      0.00
                                0.00      0.00      0.00
                                0.00      0.00      0.00

[...]

                                0.00      0.00      0.00

     Writing all to output data dir new_calculations/myprefix.save/

     General routines

     Parallel routines

   This run was terminated on:   4:11: 2  20May2023

   JOB DONE.