     Program PWSCF v.7.0 starts on 21May2023 at 10:41:17

     Reading input from espresso_20560.pwi
Warning: card &CELL ignored
Warning: card / ignored

     Current dimensions of program PWSCF are:
     Max number of different atomic species (ntypx) = 10
     Max number of k-points (npk) =  40000
     Max angular momentum in pseudopotentials (lmaxx) =  4

     gamma-point specific algorithms are used
     Message from routine setup:
     using ibrav=0 with symmetry is DISCOURAGED, use correct ibrav instead

     Subspace diagonalization in iterative solution of the eigenvalue problem:
     a serial algorithm will be used

     Using Slab Decomposition

     bravais-lattice index     =            0
     lattice parameter (alat)  =      15.1296  a.u.
     unit-cell volume          =     874.9173 (a.u.)^3
     number of atoms/cell      =            4
     number of atomic types    =            3
     number of electrons       =        36.00
     number of Kohn-Sham states=           22
     kinetic-energy cutoff     =      30.0000  Ry
     charge density cutoff     =     240.0000  Ry
     scf convergence threshold =      1.0E-06
     mixing beta               =       0.7000
     number of iterations used =            8  plain     mixing
     Exchange-correlation= SLA  PW   PBE  PBE
                           (   1   4   3   4   0   0   0)

     celldm(1)=  15.129629  celldm(2)=   0.000000  celldm(3)=   0.000000
     celldm(4)=   0.000000  celldm(5)=   0.000000  celldm(6)=   0.000000

     crystal axes: (cart. coord. in units of alat)
               a(1) = (   1.000000   0.000000   0.000000 )
               a(2) = (   0.846029   0.533137   0.000000 )
               a(3) = (   0.846029   0.244335   0.473852 )

     reciprocal axes: (cart. coord. in units 2 pi/alat)
               b(1) = (  1.000000 -1.586887 -0.967172 )
               b(2) = (  0.000000  1.875689 -0.967172 )
               b(3) = (  0.000000  0.000000  2.110362 )

     PseudoPot. # 1 for Na read from file:
     /home/pragov/projects/rrg-bengioy-ad/pragov/crystal_structure_design/SSSP/na_pbe_v1.5.uspp.F.UPF
     MD5 check sum: 44600605ef58000f06b90626533354dc
     Pseudo is Ultrasoft, Zval =  9.0
     Generated by new atomic code, or converted to UPF format
     Using radial grid of  819 points,  5 beta functions with:
                l(1) =   0
                l(2) =   0
                l(3) =   1
                l(4) =   1
                l(5) =   2
     Q(r) pseudized with  8 coefficients,  rinner =    1.250   1.250   1.250
                                                       1.250   1.250

     PseudoPot. # 2 for Sb read from file:
     /home/pragov/projects/rrg-bengioy-ad/pragov/crystal_structure_design/SSSP/sb_pbe_v1.4.uspp.F.UPF
     MD5 check sum: 9bc50dfb53373b713f5709b9110fe27f
     Pseudo is Ultrasoft + core correction, Zval = 15.0
     Generated by new atomic code, or converted to UPF format
     Using radial grid of  891 points,  6 beta functions with:
                l(1) =   0
                l(2) =   0
                l(3) =   1
                l(4) =   1
                l(5) =   2
                l(6) =   2
     Q(r) pseudized with  8 coefficients,  rinner =    1.350   1.350   1.350
                                                       1.350   1.350

     PseudoPot. # 3 for Te read from file:
     /home/pragov/projects/rrg-bengioy-ad/pragov/crystal_structure_design/SSSP/Te_pbe_v1.uspp.F.UPF
     MD5 check sum: c319670d6894cc26e93307826a071b75
     Pseudo is Ultrasoft + core correction, Zval =  6.0
     Generated by new atomic code, or converted to UPF format
     Using radial grid of  891 points,  5 beta functions with:
                l(1) =   0
                l(2) =   0
                l(3) =   1
                l(4) =   1
                l(5) =   2
     Q(r) pseudized with  6 coefficients,  rinner =    1.800   1.800   1.800
                                                       1.800   1.800

     atomic species   valence    mass     pseudopotential
        Na             9.00    22.98977     Na( 1.00)
        Sb            15.00   121.76000     Sb( 1.00)
        Te             6.00   127.60000     Te( 1.00)

      2 Sym. Ops., with inversion, found

                                    s                        frac. trans.

      isym =  1     identity

 cryst.   s( 1) = (     1          0          0      )
                  (     0          1          0      )
                  (     0          0          1      )

 cart.    s( 1) = (  1.0000000 -0.0000000 -0.0000000 )
                  (  0.0000000  1.0000000 -0.0000000 )
                  (  0.0000000  0.0000000  1.0000000 )

      isym =  2     inversion

 cryst.   s( 2) = (    -1          0          0      )
                  (     0         -1          0      )
                  (     0          0         -1      )

 cart.    s( 2) = ( -1.0000000  0.0000000  0.0000000 )
                  (  0.0000000 -1.0000000  0.0000000 )
                  (  0.0000000  0.0000000 -1.0000000 )

   Cartesian axes

     site n.     atom                  positions (alat units)
         1           Na  tau(   1) = (   0.0000000   0.0000000   0.0000000  )
         2           Sb  tau(   2) = (   1.3460286   0.3887363   0.2369261  )
         3           Te  tau(   3) = (   0.6560220   0.1894607   0.1154721  )
         4           Te  tau(   4) = (   2.0360352   0.5880118   0.3583802  )

   Crystallographic axes

     site n.     atom                  positions (cryst. coord.)
         1           Na  tau(   1) = (  0.0000000  0.0000000  0.0000000  )
         2           Sb  tau(   2) = (  0.5000000  0.5000000  0.5000000  )
         3           Te  tau(   3) = (  0.2436880  0.2436880  0.2436880  )
         4           Te  tau(   4) = (  0.7563120  0.7563120  0.7563120  )

     number of k points=     1  Methfessel-Paxton smearing, width (Ry)=  0.0010
                       cart. coord. in units 2pi/alat
        k(    1) = (   0.0000000   0.0000000   0.0000000), wk =   2.0000000

                       cryst. coord.
        k(    1) = (   0.0000000   0.0000000   0.0000000), wk =   2.0000000

     Check: negative core charge=   -0.000001

     Initial potential from superposition of free atoms

     starting charge      34.9933, renormalised to      36.0000
     Starting wfcs are   22 randomized atomic wfcs

     Self-consistent Calculation

     iteration #  1     ecut=    30.00 Ry     beta= 0.70
     Davidson diagonalization with overlap

     ethr =  1.00E-02,  avg # of iterations =  3.0

     total energy              =    -332.42783320 Ry
     estimated scf accuracy    <       0.70881255 Ry

[...]

     total energy              =    -332.70012472 Ry
     estimated scf accuracy    <       0.00026924 Ry

     iteration #  8     ecut=    30.00 Ry     beta= 0.70
     Davidson diagonalization with overlap

     ethr =  7.48E-07,  avg # of iterations =  2.0

     End of self-consistent calculation

          k = 0.0000 0.0000 0.0000 (  1243 PWs)   bands (ev):

   -46.9622 -22.9975 -22.9651 -22.9651 -22.9239 -22.9239 -18.9124 -18.8466
   -18.8466  -6.1983  -4.6640  -1.5759   4.0863   4.2840   4.2841   4.4919
     4.9116   4.9116   6.7896   7.2991   7.2991   9.8039

     occupation numbers
     1.0000   1.0000   1.0000   1.0000   1.0000   1.0000   1.0000   1.0000
     1.0000   1.0000   1.0000   1.0000   1.0000   1.0000   1.0000   1.0000
     1.0000   1.0000  -0.0000  -0.0000  -0.0000  -0.0000

     the Fermi energy is     6.3751 ev

!    total energy              =    -332.70015840 Ry
     estimated scf accuracy    <       0.00000039 Ry
     smearing contrib. (-TS)   =       0.00000000 Ry
     internal energy E=F+TS    =    -332.70015840 Ry

     The total energy is F=E-TS. E is the sum of the following terms:
     one-electron contribution =    -191.84701470 Ry
     hartree contribution      =     110.29726050 Ry
     xc contribution           =     -87.55119291 Ry
     ewald contribution        =    -163.59921130 Ry

     convergence has been achieved in   8 iterations

     Forces acting on atoms (cartesian axes, Ry/au):

     atom    1 type  1   force =     0.00000000    0.00000000    0.00000000
     atom    2 type  2   force =     0.00000000    0.00000000    0.00000000
     atom    3 type  3   force =    -0.03256228   -0.00940790   -0.00575253
     atom    4 type  3   force =     0.03256228    0.00940790    0.00575253
     The non-local contrib.  to forces
     atom    1 type  1   force =     0.00000000    0.00000000    0.00000000
     atom    2 type  2   force =     0.00000000    0.00000000    0.00000000
     atom    3 type  3   force =    -0.04049678   -0.01174265   -0.00713202
     atom    4 type  3   force =     0.04049678    0.01174265    0.00713202
     The ionic contribution  to forces
     atom    1 type  1   force =     0.00000000    0.00000000    0.00000000
     atom    2 type  2   force =    -0.00000000    0.00000000    0.00000000
     atom    3 type  3   force =     3.56918436    1.03078893    0.62824264
     atom    4 type  3   force =    -3.56918436   -1.03078893   -0.62824264
     The local contribution  to forces
     atom    1 type  1   force =    -0.00014323   -0.00003059   -0.00006787
     atom    2 type  2   force =     0.00282783    0.00073874    0.00045517
     atom    3 type  3   force =    -3.55881903   -1.02782581   -0.62642296
     atom    4 type  3   force =     3.55883246    1.02768655    0.62647463
     The core correction contribution to forces
     atom    1 type  1   force =     0.00000000    0.00000000    0.00000000
     atom    2 type  2   force =     0.00008086    0.00001089    0.00001152
     atom    3 type  3   force =    -0.00207214   -0.00059512   -0.00036594
     atom    4 type  3   force =     0.00204566    0.00060340    0.00035636
     The Hubbard contrib.    to forces
     atom    1 type  1   force =     0.00000000    0.00000000    0.00000000
     atom    2 type  2   force =     0.00000000    0.00000000    0.00000000
     atom    3 type  3   force =     0.00000000    0.00000000    0.00000000
     atom    4 type  3   force =     0.00000000    0.00000000    0.00000000
     The SCF correction term to forces
     atom    1 type  1   force =     0.00005730    0.00000315    0.00001243
     atom    2 type  2   force =    -0.00209443   -0.00059352   -0.00034566
     atom    3 type  3   force =    -0.00029751   -0.00008871   -0.00004243
     atom    4 type  3   force =     0.00043294    0.00010876    0.00006398

     Total force =     0.048619     Total SCF correction =     0.002272

     Computing stress (Cartesian axis) and pressure

          total   stress  (Ry/bohr**3)                   (kbar)     P=      127.54
  -0.00011858  -0.00045289  -0.00027616          -17.44      -66.62      -40.62
  -0.00045289   0.00131869  -0.00007966          -66.62      193.99      -11.72
  -0.00027616  -0.00007966   0.00140082          -40.62      -11.72      206.07

     kinetic stress (kbar)   6967.96    -73.56    -44.84
                              -73.56   7201.44    -12.94
                              -44.84    -12.94   7214.80

     local   stress (kbar)  10818.80   1097.01    668.59
                             1097.01   7337.14    193.11
                              668.59    193.11   7138.02

     nonloc. stress (kbar)  -9511.35     19.73     12.01
                               19.73  -9573.99      3.46
                               12.01      3.46  -9577.61

     hartree stress (kbar)   5059.69   -515.52   -314.19
                             -515.52   6695.83    -90.74
                             -314.19    -90.74   6789.42

     exc-cor stress (kbar)   4672.47      0.02      0.01
                                0.02   4672.40      0.00
                                0.01      0.00   4672.40

     corecor stress (kbar)  -7554.73      3.63      2.22
                                3.63  -7566.26      0.64
                                2.22      0.64  -7566.92

     ewald   stress (kbar) -10470.31   -597.94   -364.43
                             -597.94  -8572.57   -105.25
                             -364.43   -105.25  -8464.03

     hubbard stress (kbar)      0.00      0.00      0.00
                                0.00      0.00      0.00
                                0.00      0.00      0.00

     DFT-D   stress (kbar)      0.00      0.00      0.00
                                0.00      0.00      0.00
                                0.00      0.00      0.00

     XDM     stress (kbar)      0.00      0.00      0.00
                                0.00      0.00      0.00
                                0.00      0.00      0.00

     dft-nl  stress (kbar)      0.00      0.00      0.00
                                0.00      0.00      0.00
                                0.00      0.00      0.00

     TS-vdW  stress (kbar)      0.00      0.00      0.00
                                0.00      0.00      0.00
                                0.00      0.00      0.00

[...]

                                0.00      0.00      0.00

     Writing all to output data dir new_calculations/myprefix.save/

     General routines

     Parallel routines

   This run was terminated on:  10:41:36  21May2023

   JOB DONE.