     Program PWSCF v.7.0 starts on 21May2023 at 20: 3:24

     Reading input from espresso_26012.pwi
Warning: card &CELL ignored
Warning: card / ignored

     Current dimensions of program PWSCF are:
     Max number of different atomic species (ntypx) = 10
     Max number of k-points (npk) =  40000
     Max angular momentum in pseudopotentials (lmaxx) =  4
     file O.pbe-n-kjpaw_psl.0.1.UPF: wavefunction(s)  2P renormalized

     gamma-point specific algorithms are used

     Subspace diagonalization in iterative solution of the eigenvalue problem:
     a serial algorithm will be used

     Using Slab Decomposition

     bravais-lattice index     =            0
     lattice parameter (alat)  =      10.6789  a.u.
     unit-cell volume          =    1780.7523 (a.u.)^3
     number of atoms/cell      =           20
     number of atomic types    =            5
     number of electrons       =       155.00
     number of Kohn-Sham states=           94
     kinetic-energy cutoff     =      30.0000  Ry
     charge density cutoff     =     240.0000  Ry
     scf convergence threshold =      1.0E-06
     mixing beta               =       0.7000
     number of iterations used =            8  plain     mixing
     Exchange-correlation= SLA  PW   PBX  PBC
                           (   1   4   3   4   0   0   0)

     celldm(1)=  10.678857  celldm(2)=   0.000000  celldm(3)=   0.000000
     celldm(4)=   0.000000  celldm(5)=   0.000000  celldm(6)=   0.000000

     crystal axes: (cart. coord. in units of alat)
               a(1) = (   1.000000   0.000000   0.000000 )
               a(2) = (  -0.002916   1.023713   0.000000 )
               a(3) = (  -0.009520  -0.000180   1.428404 )

     reciprocal axes: (cart. coord. in units 2 pi/alat)
               b(1) = (  1.000000  0.002848  0.006665 )
               b(2) = (  0.000000  0.976837  0.000123 )
               b(3) = (  0.000000  0.000000  0.700082 )

     PseudoPot. # 1 for Li read from file:
     /home/pragov/projects/rrg-bengioy-ad/pragov/crystal_structure_design/SSSP/li_pbe_v1.4.uspp.F.UPF
     MD5 check sum: e912e257baa3777c20ea3d68f190483c
     Pseudo is Ultrasoft, Zval =  3.0
     Generated by new atomic code, or converted to UPF format
     Using radial grid of  751 points,  5 beta functions with:
                l(1) =   0
                l(2) =   0
                l(3) =   0
                l(4) =   1
                l(5) =   1
     Q(r) pseudized with 10 coefficients,  rinner =    1.150   1.150   1.150

     PseudoPot. # 2 for La read from file:
     /home/pragov/projects/rrg-bengioy-ad/pragov/crystal_structure_design/SSSP/La.GGA-PBE-paw-v1.0.UPF
     MD5 check sum: 436541e95c1ad8901025bd0b0ed42ae2
     Pseudo is Projector augmented-wave + core cor, Zval = 11.0
     Generated using ATOMPAW code
     Shape of augmentation charge: BESSEL
     Using radial grid of 1101 points,  8 beta functions with:
                l(1) =   0
                l(2) =   0
                l(3) =   1
                l(4) =   1
                l(5) =   2
                l(6) =   2
                l(7) =   3
                l(8) =   3
     Q(r) pseudized with 0 coefficients

     PseudoPot. # 3 for Nd read from file:
     /home/pragov/projects/rrg-bengioy-ad/pragov/crystal_structure_design/SSSP/Nd.GGA-PBE-paw-v1.0.UPF
     MD5 check sum: 1d1e94942b6eb1cde76049b71bb7dcb0
     Pseudo is Projector augmented-wave + core cor, Zval = 14.0
     Generated using ATOMPAW code
     Shape of augmentation charge: BESSEL
     Using radial grid of 1105 points,  8 beta functions with:
                l(1) =   0
                l(2) =   0
                l(3) =   1
                l(4) =   1
                l(5) =   2
                l(6) =   2
                l(7) =   3
                l(8) =   3
     Q(r) pseudized with 0 coefficients

     PseudoPot. # 4 for Sb read from file:
     /home/pragov/projects/rrg-bengioy-ad/pragov/crystal_structure_design/SSSP/sb_pbe_v1.4.uspp.F.UPF
     MD5 check sum: 9bc50dfb53373b713f5709b9110fe27f
     Pseudo is Ultrasoft + core correction, Zval = 15.0
     Generated by new atomic code, or converted to UPF format
     Using radial grid of  891 points,  6 beta functions with:
                l(1) =   0
                l(2) =   0
                l(3) =   1
                l(4) =   1
                l(5) =   2
                l(6) =   2
     Q(r) pseudized with  8 coefficients,  rinner =    1.350   1.350   1.350
                                                       1.350   1.350

     PseudoPot. # 5 for O  read from file:
     /home/pragov/projects/rrg-bengioy-ad/pragov/crystal_structure_design/SSSP/O.pbe-n-kjpaw_psl.0.1.UPF
     MD5 check sum: 0234752ac141de4415c5fc33072bef88
     Pseudo is Projector augmented-wave + core cor, Zval =  6.0
     Generated using "atomic" code by A. Dal Corso  v.5.0.99 svn rev. 10869
     Shape of augmentation charge: BESSEL
     Using radial grid of 1095 points,  4 beta functions with:
                l(1) =   0
                l(2) =   0
                l(3) =   1
                l(4) =   1
     Q(r) pseudized with 0 coefficients

     atomic species   valence    mass     pseudopotential
        Li             3.00     6.94000     Li( 1.00)
        La            11.00   138.90547     La( 1.00)
        Nd            14.00   144.24200     Nd( 1.00)
        Sb            15.00   121.76000     Sb( 1.00)
        O              6.00    15.99900     O ( 1.00)

     No symmetry found

                                    s                        frac. trans.

      isym =  1     identity

 cryst.   s( 1) = (     1          0          0      )
                  (     0          1          0      )
                  (     0          0          1      )

 cart.    s( 1) = (  1.0000000 -0.0000000  0.0000000 )
                  (  0.0000000  1.0000000  0.0000000 )
                  (  0.0000000  0.0000000  1.0000000 )

   Cartesian axes

     site n.     atom                  positions (alat units)
         1           Li  tau(   1) = (   0.4933480   1.0235792   0.7121436  )
         2           Li  tau(   2) = (   0.9977390   0.5108294   0.0018198  )
         3           La  tau(   3) = (   0.5052194   0.5586622   1.0693260  )
         4           La  tau(   4) = (   0.9800272   0.0447447   1.0722957  )
         5           La  tau(   5) = (   0.4835314   0.4647921   0.3588422  )
         6           Nd  tau(   6) = (   0.0114642   0.9691924   0.3541356  )
         7           Sb  tau(   7) = (   0.9926458   0.5113083   0.7117194  )
         8           Sb  tau(   8) = (   0.5013167   0.0003222   0.0023069  )
         9           O   tau(   9) = (   0.8988248   0.5498539   0.3714907  )
        10           O   tau(  10) = (   0.3937783   0.9913596   1.0889466  )
        11           O   tau(  11) = (   0.0886025   0.4788033   1.0539278  )
        12           O   tau(  12) = (   0.6035805   0.0332349   0.3417414  )
        13           O   tau(  13) = (   0.7080217   0.3109955   0.7832239  )
        14           O   tau(  14) = (   0.2152153   0.1995541   0.0755240  )
        15           O   tau(  15) = (   0.2740622   0.7164497   0.6412691  )
        16           O   tau(  16) = (   0.7719304   0.8221098   1.3604790  )
        17           O   tau(  17) = (   0.7983937   0.8004226   0.7896874  )
        18           O   tau(  18) = (   0.3000743   0.7376936   0.0811291  )
        19           O   tau(  19) = (   0.1848065   0.2205550   0.6336157  )
        20           O   tau(  20) = (   0.6825773   0.2910497   1.3520086  )

   Crystallographic axes

     site n.     atom                  positions (cryst. coord.)
         1           Li  tau(   1) = (  0.5010100  0.9999570  0.4985590  )
         2           Li  tau(   2) = (  0.9992060  0.4989970  0.0012740  )
         3           La  tau(   3) = (  0.5139380  0.5458530  0.7486160  )
         4           La  tau(   4) = (  0.9873020  0.0438400  0.7506950  )
         5           La  tau(   5) = (  0.4872470  0.4540700  0.2512190  )
         6           Nd  tau(   6) = (  0.0165850  0.9467860  0.2479240  )
         7           Sb  tau(   7) = (  0.9988460  0.4995520  0.4982620  )
         8           Sb  tau(   8) = (  0.5013330  0.0003150  0.0016150  )
         9           O   tau(   9) = (  0.9028670  0.5371630  0.2600740  )
        10           O   tau(  10) = (  0.4038600  0.9685300  0.7623520  )
        11           O   tau(  11) = (  0.0969910  0.4678420  0.7378360  )
        12           O   tau(  12) = (  0.6059530  0.0325070  0.2392470  )
        13           O   tau(  13) = (  0.7141280  0.3038880  0.5483210  )
        14           O   tau(  14) = (  0.2162870  0.1949410  0.0528730  )
        15           O   tau(  15) = (  0.2803770  0.6999330  0.4489410  )
        16           O   tau(  16) = (  0.7833400  0.8032340  0.9524470  )
        17           O   tau(  17) = (  0.8059370  0.7819790  0.5528460  )
        18           O   tau(  18) = (  0.3027160  0.7206160  0.0567970  )
        19           O   tau(  19) = (  0.1896580  0.2155240  0.4435830  )
        20           O   tau(  20) = (  0.6924180  0.2844740  0.9465170  )

     number of k points=     1  Methfessel-Paxton smearing, width (Ry)=  0.0010
                       cart. coord. in units 2pi/alat
        k(    1) = (   0.0000000   0.0000000   0.0000000), wk =   2.0000000

                       cryst. coord.
        k(    1) = (   0.0000000   0.0000000   0.0000000), wk =   2.0000000

     Check: negative core charge=   -0.000011

     Initial potential from superposition of free atoms

     starting charge     152.0667, renormalised to     155.0000
     Starting wfcs are  204 randomized atomic wfcs
     Checking if some PAW data can be deallocated...

     Self-consistent Calculation

     iteration #  1     ecut=    30.00 Ry     beta= 0.70
     Davidson diagonalization with overlap

     ethr =  1.00E-02,  avg # of iterations =  2.0

     total energy              =   -2805.92756230 Ry
     estimated scf accuracy    <       7.96840676 Ry

[...]

     c_bands:  1 eigenvalues not converged
     ethr =  7.94E-05,  avg # of iterations = 20.0

[...]

     c_bands:  2 eigenvalues not converged
     ethr =  1.15E-06,  avg # of iterations = 20.0

[...]

     total energy              =   -2811.76320655 Ry
     estimated scf accuracy    <       0.00000310 Ry

     iteration # 80     ecut=    30.00 Ry     beta= 0.70
     Davidson diagonalization with overlap

     ethr =  1.08E-09,  avg # of iterations =  1.0

     End of self-consistent calculation

          k = 0.0000 0.0000 0.0000 (  2470 PWs)   bands (ev):

   -33.7587 -33.7493 -25.3584 -20.6692 -20.6121 -20.5681 -18.9445 -18.9295
   -18.9275 -18.9076 -18.7827 -18.7677 -18.7662 -18.7533 -18.7473 -18.7348
    -8.9596  -8.4717  -8.2220  -8.1082  -7.5982  -7.3903  -7.3507  -7.2481
    -7.2221  -7.1055  -6.8054  -6.6962  -6.0231  -5.8491  -5.6612  -4.4104
    -4.2794  -4.2393  -4.1234  -3.9733  -3.8120  -3.6695  -3.5622  -3.4575
     1.8345   2.2853   5.1388   5.2370   5.2435   5.5080   5.5629   5.8258
     6.2126   6.6787   7.1564   7.2796   7.3423   7.4255   7.6469   7.6898
     7.9172   7.9211   7.9521   8.1431   8.1786   8.2041   8.2492   8.3538
     8.3831   8.5493   8.5733   8.6080   8.6134   8.7366   8.8314   8.8445
     8.8917   8.9549   8.9708   9.0013  11.8428  11.8431  11.8438  11.9875
    12.1144  12.1638  12.1713  13.1347  13.8868  14.1935  14.2153  14.2496
    14.2888  14.2959  14.3308  14.3387  14.3555  14.3652

     occupation numbers
     1.0000   1.0000   1.0000   1.0000   1.0000   1.0000   1.0000   1.0000
     1.0000   1.0000   1.0000   1.0000   1.0000   1.0000   1.0000   1.0000
     1.0000   1.0000   1.0000   1.0000   1.0000   1.0000   1.0000   1.0000
     1.0000   1.0000   1.0000   1.0000   1.0000   1.0000   1.0000   1.0000
     1.0000   1.0000   1.0000   1.0000   1.0000   1.0000   1.0000   1.0000
     1.0000   1.0000   1.0000   1.0000   1.0000   1.0000   1.0000   1.0000
     1.0000   1.0000   1.0000   1.0000   1.0000   1.0000   1.0000   1.0000
     1.0000   1.0000   1.0000   1.0000   1.0000   1.0000   1.0000   1.0000
     1.0000   1.0000   1.0000   1.0000   1.0000   1.0000   1.0000   1.0000
     1.0000   1.0000   1.0000   1.0000   0.5282   0.5090   0.4629  -0.0000
    -0.0000  -0.0000  -0.0000  -0.0000  -0.0000  -0.0000  -0.0000  -0.0000
    -0.0000  -0.0000  -0.0000  -0.0000  -0.0000  -0.0000

     the Fermi energy is    11.8432 ev

!    total energy              =   -2811.76320574 Ry
     estimated scf accuracy    <       0.00000041 Ry
     smearing contrib. (-TS)   =      -0.00084362 Ry
     internal energy E=F+TS    =   -2811.76236212 Ry

     The total energy is F=E-TS. E is the sum of the following terms:
     one-electron contribution =    -302.75865454 Ry
     hartree contribution      =     261.65217715 Ry
     xc contribution           =    -225.72190033 Ry
     ewald contribution        =    -806.29006803 Ry
     one-center paw contrib.   =   -1738.64391636 Ry
      -> PAW hartree energy AE =     541.86274905 Ry
      -> PAW hartree energy PS =    -540.36717970 Ry
      -> PAW xc energy AE      =   -1865.22343705 Ry
      -> PAW xc energy PS      =     125.08395134 Ry
      -> total E_H with PAW    =     263.14774649 Ry
      -> total E_XC with PAW   =   -1965.86138604 Ry

     convergence has been achieved in  80 iterations

     Forces acting on atoms (cartesian axes, Ry/au):

     atom    1 type  1   force =     0.00061611   -0.00028844   -0.00109243
     atom    2 type  1   force =    -0.00041456   -0.00043505    0.00087994
     atom    3 type  2   force =     0.00712110    0.01741942    0.00081363
     atom    4 type  2   force =    -0.00733374    0.01987577   -0.00188663
     atom    5 type  2   force =    -0.01167258   -0.01825145   -0.00045725
     atom    6 type  3   force =     0.00373313   -0.00844397   -0.00177631
     atom    7 type  4   force =     0.00146822   -0.00206123    0.00335631
     atom    8 type  4   force =    -0.00307377    0.00126088    0.00111232
     atom    9 type  5   force =    -0.01415229    0.02279689    0.01543295
     atom   10 type  5   force =    -0.01793143   -0.01915368    0.02002651
     atom   11 type  5   force =     0.01774545   -0.01943210   -0.02170678
     atom   12 type  5   force =     0.02320305    0.01396254   -0.01592465
     atom   13 type  5   force =    -0.01104487    0.01530082    0.01963596
     atom   14 type  5   force =    -0.01156961   -0.01843789    0.02405946
     atom   15 type  5   force =     0.01201661   -0.01550844   -0.02099528
     atom   16 type  5   force =     0.01251477    0.01290425   -0.02077695
     atom   17 type  5   force =     0.01795672    0.00601253    0.02753199
     atom   18 type  5   force =     0.01913854   -0.00523959    0.02702254
     atom   19 type  5   force =    -0.02058493   -0.00856609   -0.02810874
     atom   20 type  5   force =    -0.01773594    0.00628481   -0.02714657
     The non-local contrib.  to forces
     atom    1 type  1   force =    -0.00423733    0.00053510    0.00427006
     atom    2 type  1   force =     0.00501810   -0.00085247   -0.00516667
     atom    3 type  2   force =    -0.01123186    0.00086524    0.00345288
     atom    4 type  2   force =     0.00692359   -0.00137567   -0.00240388
     atom    5 type  2   force =     0.00854733    0.00288030   -0.00279973
     atom    6 type  3   force =    -0.03324839    0.02956689   -0.01034028
     atom    7 type  4   force =     0.00333409   -0.00406037    0.00779647
     atom    8 type  4   force =    -0.00749062   -0.00534577   -0.00448242
     atom    9 type  5   force =     0.15766376   -0.01277464    0.73727793
     atom   10 type  5   force =     0.15080989    0.03114788    0.71904347
     atom   11 type  5   force =    -0.14926531    0.02896196   -0.71662159
     atom   12 type  5   force =    -0.14407149   -0.03849474   -0.73717098
     atom   13 type  5   force =     0.63925677    0.52753760   -0.06397993
     atom   14 type  5   force =     0.64924608   -0.51411456   -0.04657492
     atom   15 type  5   force =    -0.64748524   -0.53341327    0.05129264
     atom   16 type  5   force =    -0.65551393    0.51916897    0.05472233
     atom   17 type  5   force =     0.46513429   -0.64983855   -0.01429022
     atom   18 type  5   force =     0.48100061    0.64183370   -0.02220048
     atom   19 type  5   force =    -0.47564328    0.65816246    0.01695642
     atom   20 type  5   force =    -0.47066193   -0.64559268    0.02932800
     The ionic contribution  to forces
     atom    1 type  1   force =    -0.02703575    0.07233750    0.50888048
     atom    2 type  1   force =     0.06652955   -0.19627630   -0.58170686
     atom    3 type  2   force =    -1.04103628   -1.21071221    0.29517200
     atom    4 type  2   force =     0.86338900   -0.81545218   -0.25924819
     atom    5 type  2   force =     0.89202442    0.96855135   -0.19182083
     atom    6 type  3   force =    -1.12806682    2.26382614    0.35823819
     atom    7 type  4   force =     0.13695457   -0.97737841    2.51238654
     atom    8 type  4   force =     0.03637007    0.33794750   -2.36104239
     atom    9 type  5   force =    -1.93897344   -1.66557506   -8.38300185
     atom   10 type  5   force =    -1.35697358    0.52935037   -8.57244985
     atom   11 type  5   force =     1.49521850    0.40195120    8.52481778
     atom   12 type  5   force =     0.47506875    0.09223253    8.34825354
     atom   13 type  5   force =    -6.92866091   -5.71193256    1.04714008
     atom   14 type  5   force =    -6.11984400    6.68982812   -1.16056284
     atom   15 type  5   force =     7.50508288    5.17205107    1.08631881
     atom   16 type  5   force =     6.34450780   -6.13232136   -1.58447983
     atom   17 type  5   force =    -5.27931596    6.25776980    1.55268351
     atom   18 type  5   force =    -4.05677029   -7.19277887   -1.01036249
     atom   19 type  5   force =     5.38562511   -5.56725708    1.01442677
     atom   20 type  5   force =     4.67590639    6.68383844   -1.14364258
     The local contribution  to forces
     atom    1 type  1   force =     0.03186577   -0.07316422   -0.51425028
     atom    2 type  1   force =    -0.07197376    0.19668815    0.58775269
     atom    3 type  2   force =     1.05936952    1.22730836   -0.29783067
     atom    4 type  2   force =    -0.87763017    0.83674785    0.25977236
     atom    5 type  2   force =    -0.91222285   -0.98972269    0.19418409
     atom    6 type  3   force =     1.16504983   -2.30194544   -0.34956146
     atom    7 type  4   force =    -0.13874911    0.97947425   -2.51664465
     atom    8 type  4   force =    -0.03207720   -0.33128904    2.36670709
     atom    9 type  5   force =     1.76940588    1.70064804    7.66823492
     atom   10 type  5   force =     1.19043929   -0.57891023    7.88029370
     atom   11 type  5   force =    -1.33039706   -0.44964425   -7.83679185
     atom   12 type  5   force =    -0.30972611   -0.04057207   -7.63417977
     atom   13 type  5   force =     6.28495008    5.20457862   -0.96465337
     atom   14 type  5   force =     5.46566859   -6.19895015    1.23034888
     atom   15 type  5   force =    -6.85229498   -4.65903032   -1.15766834
     atom   16 type  5   force =    -5.68323020    5.63086282    1.51005414
     atom   17 type  5   force =     4.83656652   -5.60885234   -1.51139329
     atom   18 type  5   force =     3.59958494    6.55249066    1.05897073
     atom   19 type  5   force =    -4.93517635    4.90746567   -1.05910790
     atom   20 type  5   force =    -4.22744598   -6.03887413    1.08784766
     The core correction contribution to forces
     atom    1 type  1   force =     0.00000000    0.00000000    0.00000000
     atom    2 type  1   force =     0.00000000    0.00000000    0.00000000
     atom    3 type  2   force =     0.00002073   -0.00004204    0.00001141
     atom    4 type  2   force =    -0.00002506   -0.00004017   -0.00000556
     atom    5 type  2   force =    -0.00001958    0.00004150   -0.00000736
     atom    6 type  3   force =     0.00000868    0.00000984    0.00000488
     atom    7 type  4   force =    -0.00003936   -0.00004380   -0.00019715
     atom    8 type  4   force =     0.00024266   -0.00002670   -0.00003843
     atom    9 type  5   force =    -0.00225913    0.00051612   -0.00707192
     atom   10 type  5   force =    -0.00220356   -0.00073968   -0.00687395
     atom   11 type  5   force =     0.00218561   -0.00069715    0.00688370
     atom   12 type  5   force =     0.00194568    0.00077689    0.00712691
     atom   13 type  5   force =    -0.00660770   -0.00486665    0.00114164
     atom   14 type  5   force =    -0.00663388    0.00484774    0.00083609
     atom   15 type  5   force =     0.00667460    0.00496193   -0.00098236
     atom   16 type  5   force =     0.00672642   -0.00478713   -0.00104142
     atom   17 type  5   force =    -0.00443330    0.00691022    0.00055026
     atom   18 type  5   force =    -0.00461037   -0.00683233    0.00059093
     atom   19 type  5   force =     0.00466412   -0.00697632   -0.00039257
     atom   20 type  5   force =     0.00446568    0.00690320   -0.00066599
     The Hubbard contrib.    to forces
     atom    1 type  1   force =     0.00000000    0.00000000    0.00000000
     atom    2 type  1   force =     0.00000000    0.00000000    0.00000000
     atom    3 type  2   force =     0.00000000    0.00000000    0.00000000
     atom    4 type  2   force =     0.00000000    0.00000000    0.00000000
     atom    5 type  2   force =     0.00000000    0.00000000    0.00000000
     atom    6 type  3   force =     0.00000000    0.00000000    0.00000000
     atom    7 type  4   force =     0.00000000    0.00000000    0.00000000
     atom    8 type  4   force =     0.00000000    0.00000000    0.00000000
     atom    9 type  5   force =     0.00000000    0.00000000    0.00000000
     atom   10 type  5   force =     0.00000000    0.00000000    0.00000000
     atom   11 type  5   force =     0.00000000    0.00000000    0.00000000
     atom   12 type  5   force =     0.00000000    0.00000000    0.00000000
     atom   13 type  5   force =     0.00000000    0.00000000    0.00000000
     atom   14 type  5   force =     0.00000000    0.00000000    0.00000000
     atom   15 type  5   force =     0.00000000    0.00000000    0.00000000
     atom   16 type  5   force =     0.00000000    0.00000000    0.00000000
     atom   17 type  5   force =     0.00000000    0.00000000    0.00000000
     atom   18 type  5   force =     0.00000000    0.00000000    0.00000000
     atom   19 type  5   force =     0.00000000    0.00000000    0.00000000
     atom   20 type  5   force =     0.00000000    0.00000000    0.00000000
     The SCF correction term to forces
     atom    1 type  1   force =     0.00002022    0.00000496    0.00000890
     atom    2 type  1   force =     0.00000836    0.00000735    0.00000237
     atom    3 type  2   force =    -0.00000421    0.00000185    0.00000960
     atom    4 type  2   force =     0.00000571   -0.00000228    0.00000023
     atom    5 type  2   force =    -0.00000510   -0.00000014   -0.00001183
     atom    6 type  3   force =    -0.00001337    0.00010039   -0.00011605
     atom    7 type  4   force =    -0.00003516   -0.00005112    0.00001669
     atom    8 type  4   force =    -0.00012188   -0.00002333   -0.00002995
     atom    9 type  5   force =     0.00000744   -0.00001579   -0.00000453
     atom   10 type  5   force =    -0.00000667   -0.00000024    0.00001472
     atom   11 type  5   force =     0.00000051   -0.00000208    0.00000677
     atom   12 type  5   force =    -0.00001699    0.00002172    0.00004724
     atom   13 type  5   force =     0.00001369   -0.00001441   -0.00001088
     atom   14 type  5   force =    -0.00000959   -0.00004726    0.00001385
     atom   15 type  5   force =     0.00003615   -0.00007606    0.00004556
     atom   16 type  5   force =     0.00002147   -0.00001727   -0.00003060
     atom   17 type  5   force =     0.00000197    0.00002518   -0.00001667
     atom   18 type  5   force =    -0.00006956    0.00004904    0.00002542
     atom   19 type  5   force =    -0.00005772    0.00004097    0.00001013
     atom   20 type  5   force =    -0.00000330    0.00001177   -0.00001209

     Total force =     0.116575     Total SCF correction =     0.000277

     Computing stress (Cartesian axis) and pressure

          total   stress  (Ry/bohr**3)                   (kbar)     P=     -346.62
  -0.00222575  -0.00002471   0.00000403         -327.42       -3.64        0.59
  -0.00002471  -0.00209882   0.00001070           -3.64     -308.75        1.57
   0.00000403   0.00001070  -0.00274428            0.59        1.57     -403.70

     kinetic stress (kbar)  19874.84     -7.69      3.82
                               -7.69  19909.43      2.41
                                3.82      2.41  19692.08

     local   stress (kbar)  -6526.58   -142.31   1438.04
                             -142.31  -5554.58    529.68
                             1438.04    529.68  -5239.59

     nonloc. stress (kbar)   5516.79      2.68      3.29
                                2.68   5531.40     -0.64
                                3.29     -0.64   5554.34

     hartree stress (kbar)   7421.98     65.86   -563.61
                               65.86   7090.25   -232.06
                             -563.61   -232.06   7102.44

     exc-cor stress (kbar)   -701.37     -0.01     -0.66
                               -0.01   -702.62     -0.04
                               -0.66     -0.04   -703.81

     corecor stress (kbar)  -4233.00     -0.00      0.13
                               -0.00  -4233.03     -0.00
                                0.13     -0.00  -4232.51

     ewald   stress (kbar) -21680.09     77.84   -880.41
                               77.84 -22349.59   -297.77
                             -880.41   -297.77 -22576.64

     hubbard stress (kbar)      0.00      0.00      0.00
                                0.00      0.00      0.00
                                0.00      0.00      0.00

     DFT-D   stress (kbar)      0.00      0.00      0.00
                                0.00      0.00      0.00
                                0.00      0.00      0.00

     XDM     stress (kbar)      0.00      0.00      0.00
                                0.00      0.00      0.00
                                0.00      0.00      0.00

     dft-nl  stress (kbar)      0.00      0.00      0.00
                                0.00      0.00      0.00
                                0.00      0.00      0.00

     TS-vdW  stress (kbar)      0.00      0.00      0.00
                                0.00      0.00      0.00
                                0.00      0.00      0.00

[...]

                                0.00      0.00      0.00

     Writing all to output data dir new_calculations/myprefix.save/

     General routines

     Parallel routines

     PAW routines

   This run was terminated on:  20: 7:32  21May2023

   JOB DONE.