     Program PWSCF v.7.0 starts on 20May2023 at 15: 6:13

     Reading input from espresso_6385.pwi
Warning: card &CELL ignored
Warning: card / ignored

     Current dimensions of program PWSCF are:
     Max number of different atomic species (ntypx) = 10
     Max number of k-points (npk) =  40000
     Max angular momentum in pseudopotentials (lmaxx) =  4
     file O.pbe-n-kjpaw_psl.0.1.UPF: wavefunction(s)  2P renormalized

     gamma-point specific algorithms are used

     Subspace diagonalization in iterative solution of the eigenvalue problem:
     a serial algorithm will be used

     Using Slab Decomposition

     bravais-lattice index     =            0
     lattice parameter (alat)  =       8.7495  a.u.
     unit-cell volume          =     661.4661 (a.u.)^3
     number of atoms/cell      =            5
     number of atomic types    =            3
     number of electrons       =        38.00
     number of Kohn-Sham states=           23
     kinetic-energy cutoff     =      30.0000  Ry
     charge density cutoff     =     240.0000  Ry
     scf convergence threshold =      1.0E-06
     mixing beta               =       0.7000
     number of iterations used =            8  plain     mixing
     Exchange-correlation= SLA  PW   PBX  PBC
                           (   1   4   3   4   0   0   0)

     celldm(1)=   8.749508  celldm(2)=   0.000000  celldm(3)=   0.000000
     celldm(4)=   0.000000  celldm(5)=   0.000000  celldm(6)=   0.000000

     crystal axes: (cart. coord. in units of alat)
               a(1) = (   1.000000   0.000000   0.000000 )
               a(2) = (   0.093822   0.995589   0.000000 )
               a(3) = (   0.093822   0.085396   0.991920 )

     reciprocal axes: (cart. coord. in units 2 pi/alat)
               b(1) = (  1.000000 -0.094238 -0.086473 )
               b(2) = (  0.000000  1.004431 -0.086473 )
               b(3) = (  0.000000  0.000000  1.008146 )

     PseudoPot. # 1 for Tl read from file:
     /home/pragov/projects/rrg-bengioy-ad/pragov/crystal_structure_design/SSSP/Tl_pbe_v1.2.uspp.F.UPF
     MD5 check sum: b76cf1f7e72655a2b2c53cf6385d7059
     Pseudo is Ultrasoft + core correction, Zval = 13.0
     Generated by new atomic code, or converted to UPF format
     Using radial grid of  899 points,  6 beta functions with:
                l(1) =   0
                l(2) =   0
                l(3) =   1
                l(4) =   1
                l(5) =   2
                l(6) =   2
     Q(r) pseudized with  6 coefficients,  rinner =    1.100   1.100   1.100
                                                       1.100   1.100

     PseudoPot. # 2 for Br read from file:
     /home/pragov/projects/rrg-bengioy-ad/pragov/crystal_structure_design/SSSP/br_pbe_v1.4.uspp.F.UPF
     MD5 check sum: d3ffb7b29f6225aa16fe06858fb2a80b
     Pseudo is Ultrasoft + core correction, Zval =  7.0
     Generated by new atomic code, or converted to UPF format
     Using radial grid of  879 points,  6 beta functions with:
                l(1) =   0
                l(2) =   0
                l(3) =   1
                l(4) =   1
                l(5) =   2
                l(6) =   2
     Q(r) pseudized with  8 coefficients,  rinner =    1.100   1.100   1.100
                                                       1.100   1.100

     PseudoPot. # 3 for O  read from file:
     /home/pragov/projects/rrg-bengioy-ad/pragov/crystal_structure_design/SSSP/O.pbe-n-kjpaw_psl.0.1.UPF
     MD5 check sum: 0234752ac141de4415c5fc33072bef88
     Pseudo is Projector augmented-wave + core cor, Zval =  6.0
     Generated using "atomic" code by A. Dal Corso  v.5.0.99 svn rev. 10869
     Shape of augmentation charge: BESSEL
     Using radial grid of 1095 points,  4 beta functions with:
                l(1) =   0
                l(2) =   0
                l(3) =   1
                l(4) =   1
     Q(r) pseudized with 0 coefficients

     atomic species   valence    mass     pseudopotential
        Tl            13.00   204.38000     Tl( 1.00)
        Br             7.00    79.90400     Br( 1.00)
        O              6.00    15.99900     O ( 1.00)

     No symmetry found

                                    s                        frac. trans.

      isym =  1     identity

 cryst.   s( 1) = (     1          0          0      )
                  (     0          1          0      )
                  (     0          0          1      )

 cart.    s( 1) = (  1.0000000  0.0000000  0.0000000 )
                  (  0.0000000  1.0000000  0.0000000 )
                  (  0.0000000  0.0000000  1.0000000 )

   Cartesian axes

     site n.     atom                  positions (alat units)
         1           Tl  tau(   1) = (   0.0052862   0.0048115   0.0044150  )
         2           Br  tau(   2) = (   0.5959790   0.5424557   0.4977613  )
         3           O   tau(   3) = (   0.5585937   0.9005608   0.4327776  )
         4           O   tau(   4) = (   0.9489969   0.4716371   0.4327776  )
         5           O   tau(   5) = (   0.5585938   0.5084279   0.8601205  )

   Crystallographic axes

     site n.     atom                  positions (cryst. coord.)
         1           Tl  tau(   1) = (  0.0044510  0.0044510  0.0044510  )
         2           Br  tau(   2) = (  0.5018160  0.5018160  0.5018160  )
         3           O   tau(   3) = (  0.4363030  0.8671270  0.4363030  )
         4           O   tau(   4) = (  0.8671270  0.4363030  0.4363030  )
         5           O   tau(   5) = (  0.4363030  0.4363030  0.8671270  )

     number of k points=     1  Methfessel-Paxton smearing, width (Ry)=  0.0010
                       cart. coord. in units 2pi/alat
        k(    1) = (   0.0000000   0.0000000   0.0000000), wk =   2.0000000

                       cryst. coord.
        k(    1) = (   0.0000000   0.0000000   0.0000000), wk =   2.0000000

     Check: negative core charge=   -0.000010

     Initial potential from superposition of free atoms

     starting charge      37.9951, renormalised to      38.0000

     negative rho (up, down):  5.083E-02 0.000E+00
     Starting wfcs are   25 randomized atomic wfcs
     Checking if some PAW data can be deallocated...

     Self-consistent Calculation

     iteration #  1     ecut=    30.00 Ry     beta= 0.70
     Davidson diagonalization with overlap

     ethr =  1.00E-02,  avg # of iterations =  2.0

     negative rho (up, down):  5.179E-02 0.000E+00

     total energy              =    -315.63901761 Ry
     estimated scf accuracy    <       1.49639371 Ry

[...]

     total energy              =    -316.41777528 Ry
     estimated scf accuracy    <       0.00001042 Ry

     iteration #  9     ecut=    30.00 Ry     beta= 0.70
     Davidson diagonalization with overlap

     ethr =  2.74E-08,  avg # of iterations =  2.0

[...]

     End of self-consistent calculation

          k = 0.0000 0.0000 0.0000 (   926 PWs)   bands (ev):

   -18.4035 -14.1595 -14.1582  -8.0120  -5.9305  -5.9305  -5.9010  -5.8724
    -5.8723  -2.7232  -2.6447  -2.6440   0.5308   1.8930   1.8937   2.2950
     2.2961   2.6475   3.0263   8.4960   9.3930   9.3934  10.1419

     occupation numbers
     1.0000   1.0000   1.0000   1.0000   1.0000   1.0000   1.0000   1.0000
     1.0000   1.0000   1.0000   1.0000   1.0000   1.0000   1.0000   1.0000
     1.0000   1.0000   1.0000  -0.0000  -0.0000  -0.0000  -0.0000

     the Fermi energy is     6.6758 ev

!    total energy              =    -316.41777652 Ry
     estimated scf accuracy    <       0.00000068 Ry
     smearing contrib. (-TS)   =       0.00000000 Ry
     internal energy E=F+TS    =    -316.41777652 Ry

     The total energy is F=E-TS. E is the sum of the following terms:
     one-electron contribution =     -78.77317283 Ry
     hartree contribution      =      62.31964815 Ry
     xc contribution           =    -110.17930122 Ry
     ewald contribution        =    -161.15472122 Ry
     one-center paw contrib.   =     -28.63022939 Ry
      -> PAW hartree energy AE =      86.20531978 Ry
      -> PAW hartree energy PS =     -85.93230485 Ry
      -> PAW xc energy AE      =     -51.14203333 Ry
      -> PAW xc energy PS      =      22.23878901 Ry
      -> total E_H with PAW    =      62.59266308 Ry
      -> total E_XC with PAW   =    -139.08254555 Ry

     convergence has been achieved in   9 iterations

     negative rho (up, down):  5.133E-02 0.000E+00

     Forces acting on atoms (cartesian axes, Ry/au):

     atom    1 type  1   force =    -0.01052644   -0.00949742   -0.00859745
     atom    2 type  2   force =    -0.04027417   -0.03668619   -0.03373250
     atom    3 type  3   force =     0.00021936    0.05064489   -0.00426292
     atom    4 type  3   force =     0.05038309   -0.00459227   -0.00429084
     atom    5 type  3   force =     0.00019815    0.00013099    0.05088371
     The non-local contrib.  to forces
     atom    1 type  1   force =     0.03291431    0.03014365    0.02787052
     atom    2 type  2   force =    -0.14631919   -0.13317128   -0.12223830
     atom    3 type  3   force =     0.26871476   -1.48033150    0.37285708
     atom    4 type  3   force =    -1.44874114    0.40631234    0.37278805
     atom    5 type  3   force =     0.26869403    0.24452270   -1.50675210
     The ionic contribution  to forces
     atom    1 type  1   force =    -1.09039071   -0.99246562   -0.91069361
     atom    2 type  2   force =    -3.82100944   -3.47785472   -3.19130234
     atom    3 type  3   force =    -0.56312561    6.11746777   -1.04111309
     atom    4 type  3   force =     6.03764970   -1.13459616   -1.04111309
     atom    5 type  3   force =    -0.56312394   -0.51255127    6.18422213
     The local contribution  to forces
     atom    1 type  1   force =     1.05011763    0.95557029    0.87674430
     atom    2 type  2   force =     3.98070630    3.62341397    3.32501815
     atom    3 type  3   force =     0.29790635   -4.60139971    0.66846892
     atom    4 type  3   force =    -4.55303371    0.72852410    0.66848741
     atom    5 type  3   force =     0.29789208    0.27125013   -4.64175890
     The core correction contribution to forces
     atom    1 type  1   force =    -0.00352500   -0.00322003   -0.00295699
     atom    2 type  2   force =    -0.05380161   -0.04897299   -0.04494734
     atom    3 type  3   force =    -0.00314263    0.01393834   -0.00406978
     atom    4 type  3   force =     0.01358387   -0.00443452   -0.00406824
     atom    5 type  3   force =    -0.00314242   -0.00285992    0.01423475
     The Hubbard contrib.    to forces
     atom    1 type  1   force =     0.00000000    0.00000000    0.00000000
     atom    2 type  2   force =     0.00000000    0.00000000    0.00000000
     atom    3 type  3   force =     0.00000000    0.00000000    0.00000000
     atom    4 type  3   force =     0.00000000    0.00000000    0.00000000
     atom    5 type  3   force =     0.00000000    0.00000000    0.00000000
     The SCF correction term to forces
     atom    1 type  1   force =     0.00038902    0.00054223    0.00052605
     atom    2 type  2   force =     0.00018147   -0.00003323   -0.00017495
     atom    3 type  3   force =    -0.00010182    0.00103793   -0.00031832
     atom    4 type  3   force =     0.00095606   -0.00033009   -0.00029725
     atom    5 type  3   force =    -0.00008992   -0.00016271    0.00102556

     Total force =     0.110141     Total SCF correction =     0.002043

     Computing stress (Cartesian axis) and pressure

     negative rho (up, down):  5.133E-02 0.000E+00
          total   stress  (Ry/bohr**3)                   (kbar)     P=     -260.61
  -0.00180255  -0.00017991  -0.00016486         -265.16      -26.47      -24.25
  -0.00017991  -0.00176871  -0.00014987          -26.47     -260.19      -22.05
  -0.00016486  -0.00014987  -0.00174347          -24.25      -22.05     -256.47

     kinetic stress (kbar)  10698.09    148.68    136.50
                              148.68  10670.16    124.32
                              136.50    124.32  10648.74

     local   stress (kbar)  -2915.42   2669.21   2449.33
                             2669.21  -3418.55   2229.34
                             2449.33   2229.34  -3802.53

     nonloc. stress (kbar)   3733.38    -10.67     -9.87
                              -10.67   3735.31     -8.99
                               -9.87     -8.99   3736.87

     hartree stress (kbar)   4462.32   -907.06   -832.34
                             -907.06   4633.30   -757.60
                             -832.34   -757.60   4763.80

     exc-cor stress (kbar)  11637.40     -3.44     -3.16
                               -3.44  11638.05     -2.88
                               -3.16     -2.88  11638.55

     corecor stress (kbar) -15600.91     -1.92     -1.75
                               -1.92 -15600.54     -1.60
                               -1.75     -1.60 -15600.26

     ewald   stress (kbar) -12280.04  -1921.26  -1762.96
                            -1921.26 -11917.93  -1604.64
                            -1762.96  -1604.64 -11641.63

     hubbard stress (kbar)      0.00      0.00      0.00
                                0.00      0.00      0.00
                                0.00      0.00      0.00

     DFT-D   stress (kbar)      0.00      0.00      0.00
                                0.00      0.00      0.00
                                0.00      0.00      0.00

     XDM     stress (kbar)      0.00      0.00      0.00
                                0.00      0.00      0.00
                                0.00      0.00      0.00

     dft-nl  stress (kbar)      0.00      0.00      0.00
                                0.00      0.00      0.00
                                0.00      0.00      0.00

     TS-vdW  stress (kbar)      0.00      0.00      0.00
                                0.00      0.00      0.00
                                0.00      0.00      0.00

[...]

                                0.00      0.00      0.00

     Writing all to output data dir new_calculations/myprefix.save/

     General routines

     Parallel routines

     PAW routines

   This run was terminated on:  15: 6:25  20May2023

   JOB DONE.