     Program PWSCF v.7.0 starts on 20May2023 at  0:39:39

     Reading input from espresso_53.pwi
Warning: card &CELL ignored
Warning: card / ignored

     Current dimensions of program PWSCF are:
     Max number of different atomic species (ntypx) = 10
     Max number of k-points (npk) =  40000
     Max angular momentum in pseudopotentials (lmaxx) =  4

     gamma-point specific algorithms are used
     Message from routine setup:
     using ibrav=0 with symmetry is DISCOURAGED, use correct ibrav instead

     Subspace diagonalization in iterative solution of the eigenvalue problem:
     a serial algorithm will be used

     Using Slab Decomposition

     bravais-lattice index     =            0
     lattice parameter (alat)  =      20.8164  a.u.
     unit-cell volume          =    1140.4832 (a.u.)^3
     number of atoms/cell      =            5
     number of atomic types    =            3
     number of electrons       =        50.00
     number of Kohn-Sham states=           30
     kinetic-energy cutoff     =      30.0000  Ry
     charge density cutoff     =     240.0000  Ry
     scf convergence threshold =      1.0E-06
     mixing beta               =       0.7000
     number of iterations used =            8  plain     mixing
     Exchange-correlation= SLA  PW   PBX  PBC
                           (   1   4   3   4   0   0   0)

     celldm(1)=  20.816446  celldm(2)=   0.000000  celldm(3)=   0.000000
     celldm(4)=   0.000000  celldm(5)=   0.000000  celldm(6)=   0.000000

     crystal axes: (cart. coord. in units of alat)
               a(1) = (   1.000000   0.000000   0.000000 )
               a(2) = (   0.925109   0.379702   0.000000 )
               a(3) = (   0.925109   0.182465   0.332986 )

     reciprocal axes: (cart. coord. in units 2 pi/alat)
               b(1) = (  1.000000 -2.436409 -1.443149 )
               b(2) = (  0.000000  2.633646 -1.443149 )
               b(3) = (  0.000000  0.000000  3.003126 )

     PseudoPot. # 1 for Y  read from file:
     /home/pragov/projects/rrg-bengioy-ad/pragov/crystal_structure_design/SSSP/Y_pbe_v1.uspp.F.UPF
     MD5 check sum: 2cf71db95cafeb975fc457bd7f14888e
     Pseudo is Ultrasoft + core correction, Zval = 11.0
     Generated by new atomic code, or converted to UPF format
     Using radial grid of  885 points,  6 beta functions with:
                l(1) =   0
                l(2) =   0
                l(3) =   1
                l(4) =   1
                l(5) =   2
                l(6) =   2
     Q(r) pseudized with  6 coefficients,  rinner =    1.200   1.200   1.200
                                                       1.200   1.200

     PseudoPot. # 2 for Ge read from file:
     /home/pragov/projects/rrg-bengioy-ad/pragov/crystal_structure_design/SSSP/ge_pbe_v1.4.uspp.F.UPF
     MD5 check sum: 9c9eaa91e581c3f09632fb3098b2c6b2
     Pseudo is Ultrasoft + core correction, Zval = 14.0
     Generated by new atomic code, or converted to UPF format
     Using radial grid of  873 points,  6 beta functions with:
                l(1) =   0
                l(2) =   0
                l(3) =   1
                l(4) =   1
                l(5) =   2
                l(6) =   2
     Q(r) pseudized with  8 coefficients,  rinner =    1.400   1.400   1.400
                                                       1.400   1.400

     PseudoPot. # 3 for I  read from file:
     /home/pragov/projects/rrg-bengioy-ad/pragov/crystal_structure_design/SSSP/I.pbe-n-kjpaw_psl.0.2.UPF
     MD5 check sum: d4ef18d9c8f18dc85e5843bca1e50dc0
     Pseudo is Projector augmented-wave + core cor, Zval =  7.0
     Generated using "atomic" code by A. Dal Corso  v.5.0.99 svn rev. 10869
     Shape of augmentation charge: PSQ
     Using radial grid of 1247 points,  4 beta functions with:
                l(1) =   0
                l(2) =   0
                l(3) =   1
                l(4) =   1
     Q(r) pseudized with 0 coefficients

     atomic species   valence    mass     pseudopotential
        Y             11.00    88.90584     Y ( 1.00)
        Ge            14.00    72.63000     Ge( 1.00)
        I              7.00   126.90447     I ( 1.00)

      2 Sym. Ops., with inversion, found

                                    s                        frac. trans.

      isym =  1     identity

 cryst.   s( 1) = (     1          0          0      )
                  (     0          1          0      )
                  (     0          0          1      )

 cart.    s( 1) = (  1.0000000  0.0000000 -0.0000000 )
                  (  0.0000000  1.0000000  0.0000000 )
                  (  0.0000000  0.0000000  1.0000000 )

      isym =  2     inversion

 cryst.   s( 2) = (    -1          0          0      )
                  (     0         -1          0      )
                  (     0          0         -1      )

 cart.    s( 2) = ( -1.0000000 -0.0000000  0.0000000 )
                  (  0.0000000 -1.0000000 -0.0000000 )
                  (  0.0000000  0.0000000 -1.0000000 )

   Cartesian axes

     site n.     atom                  positions (alat units)
         1           Y   tau(   1) = (   1.7615458   0.3474412   0.2057986  )
         2           Y   tau(   2) = (   1.0886730   0.2147263   0.1271878  )
         3           Ge  tau(   3) = (   0.0000000   0.0000000   0.0000000  )
         4           I   tau(   4) = (   0.6329878   0.1248483   0.0739509  )
         5           I   tau(   5) = (   2.2172301   0.4373188   0.2590354  )

   Crystallographic axes

     site n.     atom                  positions (cryst. coord.)
         1           Y   tau(   1) = (  0.6180390  0.6180390  0.6180390  )
         2           Y   tau(   2) = (  0.3819610  0.3819620  0.3819610  )
         3           Ge  tau(   3) = (  0.0000000  0.0000000  0.0000000  )
         4           I   tau(   4) = (  0.2220840  0.2220840  0.2220840  )
         5           I   tau(   5) = (  0.7779160  0.7779160  0.7779160  )

     number of k points=     1  Methfessel-Paxton smearing, width (Ry)=  0.0010
                       cart. coord. in units 2pi/alat
        k(    1) = (   0.0000000   0.0000000   0.0000000), wk =   2.0000000

                       cryst. coord.
        k(    1) = (   0.0000000   0.0000000   0.0000000), wk =   2.0000000

     Check: negative core charge=   -0.000003

     Initial potential from superposition of free atoms

     starting charge      49.9900, renormalised to      50.0000

     negative rho (up, down):  8.714E-02 0.000E+00
     Starting wfcs are   43 randomized atomic wfcs
     Checking if some PAW data can be deallocated...

     Self-consistent Calculation

     iteration #  1     ecut=    30.00 Ry     beta= 0.70
     Davidson diagonalization with overlap

     ethr =  1.00E-02,  avg # of iterations =  2.0

     Threshold (ethr) on eigenvalues was too large:
     Diagonalizing with lowered threshold

     Davidson diagonalization with overlap

[...]

     negative rho (up, down):  8.628E-02 0.000E+00

     total energy              =   -1146.07354789 Ry
     estimated scf accuracy    <       0.45833574 Ry

[...]

     total energy              =   -1146.23789083 Ry
     estimated scf accuracy    <       0.00001231 Ry

     iteration # 10     ecut=    30.00 Ry     beta= 0.70
     Davidson diagonalization with overlap

     ethr =  2.46E-08,  avg # of iterations =  5.0

[...]

     End of self-consistent calculation

          k = 0.0000 0.0000 0.0000 (  1554 PWs)   bands (ev):

   -35.9685 -35.9597 -16.2883 -16.2080 -16.2080 -16.1411 -16.0874 -16.0874
   -16.0780 -15.8068 -15.8068 -15.7193 -15.7192  -5.6503  -5.4541  -1.1692
     3.4017   3.5793   4.9729   4.9730   5.1342   5.1343   6.5188   6.7764
     6.7765   8.3724   8.4009   8.4010   9.4562   9.5938

     occupation numbers
     1.0000   1.0000   1.0000   1.0000   1.0000   1.0000   1.0000   1.0000
     1.0000   1.0000   1.0000   1.0000   1.0000   1.0000   1.0000   1.0000
     1.0000   1.0000   1.0000   1.0000   1.0000   1.0000   1.0000   1.0000
     1.0000  -0.0000  -0.0000  -0.0000  -0.0000  -0.0000

     the Fermi energy is     6.8652 ev

!    total energy              =   -1146.23789265 Ry
     estimated scf accuracy    <       0.00000049 Ry
     smearing contrib. (-TS)   =       0.00000000 Ry
     internal energy E=F+TS    =   -1146.23789265 Ry

     The total energy is F=E-TS. E is the sum of the following terms:
     one-electron contribution =    -350.25322169 Ry
     hartree contribution      =     200.29391910 Ry
     xc contribution           =    -186.22614815 Ry
     ewald contribution        =    -168.97690193 Ry
     one-center paw contrib.   =    -641.07553998 Ry
      -> PAW hartree energy AE =      21.42266179 Ry
      -> PAW hartree energy PS =     -21.56526296 Ry
      -> PAW xc energy AE      =    -722.44339604 Ry
      -> PAW xc energy PS      =      81.51045723 Ry
      -> total E_H with PAW    =     200.15131793 Ry
      -> total E_XC with PAW   =    -827.15908696 Ry

     convergence has been achieved in  10 iterations

     negative rho (up, down):  8.603E-02 0.000E+00

     Forces acting on atoms (cartesian axes, Ry/au):

     atom    1 type  1   force =     0.09323347    0.01841007    0.01085310
     atom    2 type  1   force =    -0.09323347   -0.01841007   -0.01085310
     atom    3 type  2   force =     0.00000000    0.00000000    0.00000000
     atom    4 type  3   force =     0.01346713    0.00265676    0.00156139
     atom    5 type  3   force =    -0.01346713   -0.00265676   -0.00156139
     The non-local contrib.  to forces
     atom    1 type  1   force =    -0.04659945   -0.00919651   -0.00541610
     atom    2 type  1   force =     0.04659945    0.00919651    0.00541610
     atom    3 type  2   force =     0.00000000    0.00000000    0.00000000
     atom    4 type  3   force =     0.11239443    0.02216525    0.01312887
     atom    5 type  3   force =    -0.11239443   -0.02216525   -0.01312887
     The ionic contribution  to forces
     atom    1 type  1   force =   -20.42756573   -4.02906163   -2.38651737
     atom    2 type  1   force =    20.42754367    4.02904578    2.38652109
     atom    3 type  2   force =    -0.00002132    0.00000486   -0.00000746
     atom    4 type  3   force =   -13.20932458   -2.60536145   -1.54322233
     atom    5 type  3   force =    13.20936796    2.60537244    1.54322606
     The local contribution  to forces
     atom    1 type  1   force =    20.56354558    4.05584127    2.40247307
     atom    2 type  1   force =   -20.56492400   -4.05622353   -2.40231527
     atom    3 type  2   force =    -0.00300662   -0.00050473   -0.00060207
     atom    4 type  3   force =    13.11587769    2.58692949    1.53231539
     atom    5 type  3   force =   -13.11492977   -2.58674417   -1.53217730
     The core correction contribution to forces
     atom    1 type  1   force =     0.00271074    0.00053206    0.00032097
     atom    2 type  1   force =    -0.00272104   -0.00053900   -0.00030467
     atom    3 type  2   force =    -0.00001038   -0.00000045   -0.00000419
     atom    4 type  3   force =    -0.00519393   -0.00102473   -0.00060150
     atom    5 type  3   force =     0.00518378    0.00102458    0.00060216
     The Hubbard contrib.    to forces
     atom    1 type  1   force =     0.00000000    0.00000000    0.00000000
     atom    2 type  1   force =     0.00000000    0.00000000    0.00000000
     atom    3 type  2   force =     0.00000000    0.00000000    0.00000000
     atom    4 type  3   force =     0.00000000    0.00000000    0.00000000
     atom    5 type  3   force =     0.00000000    0.00000000    0.00000000
     The SCF correction term to forces
     atom    1 type  1   force =     0.00119930    0.00028076    0.00009128
     atom    2 type  1   force =     0.00032542    0.00009604   -0.00007158
     atom    3 type  2   force =     0.00279528    0.00040534    0.00061104
     atom    4 type  3   force =    -0.00033785   -0.00006034   -0.00006721
     atom    5 type  3   force =    -0.00074604   -0.00015291   -0.00009161

     Total force =     0.136675     Total SCF correction =     0.003272

     Computing stress (Cartesian axis) and pressure

     negative rho (up, down):  8.603E-02 0.000E+00
          total   stress  (Ry/bohr**3)                   (kbar)     P=       77.40
  -0.00033042  -0.00026032  -0.00015406          -48.61      -38.29      -22.66
  -0.00026032   0.00093779  -0.00003042          -38.29      137.95       -4.47
  -0.00015406  -0.00003042   0.00097104          -22.66       -4.47      142.85

     kinetic stress (kbar)   6095.28    -79.87    -47.31
                              -79.87   6484.48     -9.32
                              -47.31     -9.32   6494.72

     local   stress (kbar)  20628.50   8648.52   5122.79
                             8648.52 -21514.26   1010.36
                             5122.79   1010.36 -22621.68

     nonloc. stress (kbar)   3450.85     11.46      6.78
                               11.46   3395.03      1.35
                                6.78      1.35   3393.59

     hartree stress (kbar)  -5100.88  -4166.37  -2467.87
                            -4166.37  15201.13   -486.73
                            -2467.87   -486.73  15734.63

     exc-cor stress (kbar)  13354.57     -0.49     -0.29
                               -0.49  13356.98     -0.06
                               -0.29     -0.06  13357.04

     corecor stress (kbar) -16554.05      2.04      1.21
                                2.04 -16564.01      0.24
                                1.21      0.24 -16564.27

     ewald   stress (kbar) -21922.88  -4453.58  -2637.97
                            -4453.58   -221.40   -520.31
                            -2637.97   -520.31    348.82

     hubbard stress (kbar)      0.00      0.00      0.00
                                0.00      0.00      0.00
                                0.00      0.00      0.00

     DFT-D   stress (kbar)      0.00      0.00      0.00
                                0.00      0.00      0.00
                                0.00      0.00      0.00

     XDM     stress (kbar)      0.00      0.00      0.00
                                0.00      0.00      0.00
                                0.00      0.00      0.00

     dft-nl  stress (kbar)      0.00      0.00      0.00
                                0.00      0.00      0.00
                                0.00      0.00      0.00

     TS-vdW  stress (kbar)      0.00      0.00      0.00
                                0.00      0.00      0.00
                                0.00      0.00      0.00

[...]

                                0.00      0.00      0.00

     Writing all to output data dir new_calculations/myprefix.save/

     General routines

     Parallel routines

     PAW routines

   This run was terminated on:   0:40: 5  20May2023

   JOB DONE.