     Program PWSCF v.7.0 starts on 21May2023 at  4:54:23

     Reading input from espresso_18887.pwi
Warning: card &CELL ignored
Warning: card / ignored

     Current dimensions of program PWSCF are:
     Max number of different atomic species (ntypx) = 10
     Max number of k-points (npk) =  40000
     Max angular momentum in pseudopotentials (lmaxx) =  4

     gamma-point specific algorithms are used
     Message from routine setup:
     using ibrav=0 with symmetry is DISCOURAGED, use correct ibrav instead

     Subspace diagonalization in iterative solution of the eigenvalue problem:
     a serial algorithm will be used

     Using Slab Decomposition

     bravais-lattice index     =            0
     lattice parameter (alat)  =       7.6713  a.u.
     unit-cell volume          =    1693.0772 (a.u.)^3
     number of atoms/cell      =           10
     number of atomic types    =            2
     number of electrons       =       100.00
     number of Kohn-Sham states=           60
     kinetic-energy cutoff     =      30.0000  Ry
     charge density cutoff     =     240.0000  Ry
     scf convergence threshold =      1.0E-06
     mixing beta               =       0.7000
     number of iterations used =            8  plain     mixing
     Exchange-correlation=  SLA  PW   PBX  PBC
                           (   1   4   3   4   0   0   0)

     celldm(1)=   7.671312  celldm(2)=   0.000000  celldm(3)=   0.000000
     celldm(4)=   0.000000  celldm(5)=   0.000000  celldm(6)=   0.000000

     crystal axes: (cart. coord. in units of alat)
               a(1) = (   1.000000   0.000000   0.000000 )
               a(2) = (   0.500436   0.865773   0.000000 )
               a(3) = (   0.483179   0.278801   4.331752 )

     reciprocal axes: (cart. coord. in units 2 pi/alat)
               b(1) = (  1.000000 -0.578022 -0.074341 )
               b(2) = (  0.000000  1.155037 -0.074341 )
               b(3) = (  0.000000  0.000000  0.230853 )

     PseudoPot. # 1 for Te read from file:
     /home/pragov/projects/rrg-bengioy-ad/pragov/crystal_structure_design/SSSP/Te_pbe_v1.uspp.F.UPF
     MD5 check sum: c319670d6894cc26e93307826a071b75
     Pseudo is Ultrasoft + core correction, Zval =  6.0
     Generated by new atomic code, or converted to UPF format
     Using radial grid of  891 points,  5 beta functions with:
                l(1) =   0
                l(2) =   0
                l(3) =   1
                l(4) =   1
                l(5) =   2
     Q(r) pseudized with  6 coefficients,  rinner =    1.800   1.800   1.800
                                                       1.800   1.800

     PseudoPot. # 2 for Pt read from file:
     /home/pragov/projects/rrg-bengioy-ad/pragov/crystal_structure_design/SSSP/pt_pbe_v1.4.uspp.F.UPF
     MD5 check sum: f09d6de1a584b5a045c4fc126da2d0c4
     Pseudo is Ultrasoft + core correction, Zval = 16.0
     Generated by new atomic code, or converted to UPF format
     Using radial grid of  985 points,  6 beta functions with:
                l(1) =   0
                l(2) =   0
                l(3) =   1
                l(4) =   1
                l(5) =   2
                l(6) =   2
     Q(r) pseudized with  8 coefficients,  rinner =    1.300   1.300   1.300
                                                       1.300   1.300

     atomic species   valence    mass     pseudopotential
        Te             6.00   127.60000     Te( 1.00)
        Pt            16.00   195.08400     Pt( 1.00)

      2 Sym. Ops., with inversion, found

                                    s                        frac. trans.

      isym =  1     identity

 cryst.   s( 1) = (     1          0          0      )
                  (     0          1          0      )
                  (     0          0          1      )

 cart.    s( 1) = (  1.0000000 -0.0000000  0.0000000 )
                  (  0.0000000  1.0000000 -0.0000000 )
                  (  0.0000000  0.0000000  1.0000000 )

      isym =  2     inversion

 cryst.   s( 2) = (    -1          0          0      )
                  (     0         -1          0      )
                  (     0          0         -1      )

 cart.    s( 2) = ( -1.0000000  0.0000000 -0.0000000 )
                  (  0.0000000 -1.0000000  0.0000000 )
                  (  0.0000000  0.0000000 -1.0000000 )

   Cartesian axes

     site n.     atom                  positions (alat units)
         1           Te  tau(   1) = (   1.5009214   0.8660533   3.1589564  )
         2           Te  tau(   2) = (   0.4837125   0.2791091   3.8500962  )
         3           Te  tau(   3) = (   0.5000907   0.2885595   2.4817173  )
         4           Te  tau(   4) = (   0.4826942   0.2785215   1.1727960  )
         5           Te  tau(   5) = (   1.4999032   0.8654658   0.4816562  )
         6           Te  tau(   6) = (   1.4835250   0.8560153   1.8500351  )
         7           Pt  tau(   7) = (   1.0008487   0.5775042   2.8161589  )
         8           Pt  tau(   8) = (   0.9827669   0.5670707   1.5155935  )
         9           Pt  tau(   9) = (   1.0000468   0.5770414   0.1822152  )
        10           Pt  tau(  10) = (   0.9835688   0.5675334   4.1495372  )

   Crystallographic axes

     site n.     atom                  positions (cryst. coord.)
         1           Te  tau(   1) = (  0.7654840  0.7654840  0.7292560  )
         2           Te  tau(   2) = (  0.0361620  0.0361620  0.8888080  )
         3           Te  tau(   3) = (  0.1488040  0.1488040  0.5729130  )
         4           Te  tau(   4) = (  0.2345160  0.2345160  0.2707440  )
         5           Te  tau(   5) = (  0.9638380  0.9638380  0.1111920  )
         6           Te  tau(   6) = (  0.8511960  0.8511960  0.4270870  )
         7           Pt  tau(   7) = (  0.4576830  0.4576830  0.6501200  )
         8           Pt  tau(   8) = (  0.5423170  0.5423170  0.3498800  )
         9           Pt  tau(   9) = (  0.6529580  0.6529580  0.0420650  )
        10           Pt  tau(  10) = (  0.3470420  0.3470420  0.9579350  )

     number of k points=     1  Methfessel-Paxton smearing, width (Ry)=  0.0010
                       cart. coord. in units 2pi/alat
        k(    1) = (   0.0000000   0.0000000   0.0000000), wk =   2.0000000

                       cryst. coord.
        k(    1) = (   0.0000000   0.0000000   0.0000000), wk =   2.0000000

     Initial potential from superposition of free atoms

     starting charge      97.9987, renormalised to     100.0000

     negative rho (up, down):  7.495E-01 0.000E+00
     Starting wfcs are   72 randomized atomic wfcs

     Self-consistent Calculation

     iteration #  1     ecut=    30.00 Ry     beta= 0.70
     Davidson diagonalization with overlap

     ethr =  1.00E-02,  avg # of iterations =  6.0

     negative rho (up, down):  6.720E-01 0.000E+00

     total energy              =    -988.63515684 Ry
     estimated scf accuracy    <      15.12044921 Ry

[...]

     total energy              =    -999.91295948 Ry
     estimated scf accuracy    <       0.00000172 Ry

     iteration # 24     ecut=    30.00 Ry     beta= 0.70
     Davidson diagonalization with overlap

     ethr =  1.72E-09,  avg # of iterations =  1.0

[...]

     End of self-consistent calculation

          k = 0.0000 0.0000 0.0000 (  2365 PWs)   bands (ev):

   -43.2928 -43.2923 -43.2872 -43.2867 -42.6712 -42.6708 -42.3852 -42.3782
   -42.2752 -42.2695 -41.8577 -41.7752  -2.4424  -2.0672  -1.9792  -1.1698
    -0.3889   0.4329   4.3516   5.0314   5.0438   5.0559   5.0778   5.2132
     5.2270   5.4903   5.5054   5.6404   5.6419   6.3559   6.7753   6.7837
     6.7945   6.8031   7.6641   7.6770   8.3352   8.4965   8.4985   8.6185
     8.9302   9.7882  10.2666  10.3015  10.4588  10.5419  10.6050  11.4718
    11.5064  12.3030  12.3167  12.3584  12.5379  12.6320  12.9202  13.1581
    13.1663  14.1339  14.7475  15.0798

     occupation numbers
     1.0000   1.0000   1.0000   1.0000   1.0000   1.0000   1.0000   1.0000
     1.0000   1.0000   1.0000   1.0000   1.0000   1.0000   1.0000   1.0000
     1.0000   1.0000   1.0000   1.0000   1.0000   1.0000   1.0000   1.0000
     1.0000   1.0000   1.0000   1.0000   1.0000   1.0000   1.0000   1.0000
     1.0000   1.0000   1.0000   1.0000   1.0000   1.0000   1.0000   1.0000
     1.0000   1.0000   1.0000   1.0000   1.0000   1.0000   1.0000   1.0000
     1.0000   0.8731   0.1269  -0.0000  -0.0000  -0.0000  -0.0000  -0.0000
    -0.0000  -0.0000  -0.0000  -0.0000

     the Fermi energy is    12.3098 ev

!    total energy              =    -999.91295955 Ry
     estimated scf accuracy    <       0.00000012 Ry
     smearing contrib. (-TS)   =      -0.00021364 Ry
     internal energy E=F+TS    =    -999.91274591 Ry

     The total energy is F=E-TS. E is the sum of the following terms:
     one-electron contribution =    -501.19840961 Ry
     hartree contribution      =     304.27593287 Ry
     xc contribution           =    -315.20641010 Ry
     ewald contribution        =    -487.78385907 Ry

     convergence has been achieved in  24 iterations

     negative rho (up, down):  6.985E-01 0.000E+00

     Forces acting on atoms (cartesian axes, Ry/au):

     atom    1 type  1   force =    -0.00616254   -0.00355585    0.06841785
     atom    2 type  1   force =    -0.00149650   -0.00086287   -0.12039934
     atom    3 type  1   force =     0.00286466    0.00165206   -0.05073515
     atom    4 type  1   force =     0.00616254    0.00355585   -0.06841785
     atom    5 type  1   force =     0.00149650    0.00086287    0.12039934
     atom    6 type  1   force =    -0.00286466   -0.00165206    0.05073515
     atom    7 type  2   force =     0.00559846    0.00323146    0.01504241
     atom    8 type  2   force =    -0.00559846   -0.00323146   -0.01504241
     atom    9 type  2   force =     0.00027379    0.00015318   -0.05401111
     atom   10 type  2   force =    -0.00027379   -0.00015318    0.05401111
     The non-local contrib.  to forces
     atom    1 type  1   force =     0.00616994    0.00356706   -0.14488097
     atom    2 type  1   force =    -0.00412315   -0.00237271   -0.25871027
     atom    3 type  1   force =    -0.01071362   -0.00618976   -0.12507753
     atom    4 type  1   force =    -0.00616994   -0.00356706    0.14488097
     atom    5 type  1   force =     0.00412315    0.00237271    0.25871027
     atom    6 type  1   force =     0.01071362    0.00618976    0.12507753
     atom    7 type  2   force =     0.00000343    0.00000025    0.00085240
     atom    8 type  2   force =    -0.00000343   -0.00000025   -0.00085240
     atom    9 type  2   force =    -0.00166507   -0.00095954    0.06548274
     atom   10 type  2   force =     0.00166507    0.00095954   -0.06548274
     The ionic contribution  to forces
     atom    1 type  1   force =    -0.01602982   -0.00924944    1.57572877
     atom    2 type  1   force =     0.01041135    0.00600750  -17.08702146
     atom    3 type  1   force =    -0.00491712   -0.00283725   -7.99829026
     atom    4 type  1   force =     0.01602982    0.00924944   -1.57572876
     atom    5 type  1   force =    -0.01041135   -0.00600750   17.08702146
     atom    6 type  1   force =     0.00491712    0.00283725    7.99829026
     atom    7 type  2   force =    -0.01309564   -0.00755637   -8.24276815
     atom    8 type  2   force =     0.01309564    0.00755637    8.24276815
     atom    9 type  2   force =     0.00640360    0.00369497   24.64319709
     atom   10 type  2   force =    -0.00640360   -0.00369497  -24.64319709
     The local contribution  to forces
     atom    1 type  1   force =     0.00277129    0.00173671   -1.35256057
     atom    2 type  1   force =    -0.00743943   -0.00419570   17.26114978
     atom    3 type  1   force =     0.01993117    0.01138127    8.09428005
     atom    4 type  1   force =    -0.00290779   -0.00152888    1.35246010
     atom    5 type  1   force =     0.00734684    0.00434347  -17.26122298
     atom    6 type  1   force =    -0.01981604   -0.01156371   -8.09408555
     atom    7 type  2   force =     0.02009396    0.01143861    8.25542892
     atom    8 type  2   force =    -0.01991932   -0.01164462   -8.25536919
     atom    9 type  2   force =    -0.00380134   -0.00220771  -24.72351242
     atom   10 type  2   force =     0.00383520    0.00212413   24.72349694
     The core correction contribution to forces
     atom    1 type  1   force =     0.00085573    0.00048375   -0.00997403
     atom    2 type  1   force =    -0.00039111   -0.00023560   -0.03587817
     atom    3 type  1   force =    -0.00136080   -0.00076741   -0.02153676
     atom    4 type  1   force =    -0.00084579   -0.00049945    0.00996883
     atom    5 type  1   force =     0.00040059    0.00022003    0.03588398
     atom    6 type  1   force =     0.00134380    0.00079471    0.02153603
     atom    7 type  2   force =    -0.00134786   -0.00078052    0.00169329
     atom    8 type  2   force =     0.00135116    0.00077666   -0.00169861
     atom    9 type  2   force =    -0.00076486   -0.00044731   -0.03937716
     atom   10 type  2   force =     0.00076992    0.00043710    0.03937734
     The Hubbard contrib.    to forces
     atom    1 type  1   force =     0.00000000    0.00000000    0.00000000
     atom    2 type  1   force =     0.00000000    0.00000000    0.00000000
     atom    3 type  1   force =     0.00000000    0.00000000    0.00000000
     atom    4 type  1   force =     0.00000000    0.00000000    0.00000000
     atom    5 type  1   force =     0.00000000    0.00000000    0.00000000
     atom    6 type  1   force =     0.00000000    0.00000000    0.00000000
     atom    7 type  2   force =     0.00000000    0.00000000    0.00000000
     atom    8 type  2   force =     0.00000000    0.00000000    0.00000000
     atom    9 type  2   force =     0.00000000    0.00000000    0.00000000
     atom   10 type  2   force =     0.00000000    0.00000000    0.00000000
     The SCF correction term to forces
     atom    1 type  1   force =     0.00001023   -0.00000255    0.00013964
     atom    2 type  1   force =    -0.00000017    0.00000800    0.00002559
     atom    3 type  1   force =    -0.00001022   -0.00003773   -0.00012183
     atom    4 type  1   force =    -0.00000385   -0.00000683    0.00003600
     atom    5 type  1   force =    -0.00000875    0.00000850   -0.00002858
     atom    6 type  1   force =     0.00004157   -0.00001300   -0.00009428
     atom    7 type  2   force =    -0.00002660    0.00007786   -0.00008851
     atom    8 type  2   force =    -0.00009368    0.00002876    0.00018516
     atom    9 type  2   force =     0.00012009    0.00004811    0.00025071
     atom   10 type  2   force =    -0.00012175   -0.00000361   -0.00013126

     Total force =     0.223611     Total SCF correction =     0.000469

     Computing stress (Cartesian axis) and pressure

     negative rho (up, down):  6.985E-01 0.000E+00
          total   stress  (Ry/bohr**3)                   (kbar)     P=      256.57
   0.00162737  -0.00002544  -0.00001374          239.40       -3.74       -2.02
  -0.00002544   0.00165676  -0.00000791           -3.74      243.72       -1.16
  -0.00001374  -0.00000791   0.00194827           -2.02       -1.16      286.60

     kinetic stress (kbar)  14916.88     -9.83     -7.49
                               -9.83  14928.24     -4.32
                               -7.49     -4.32  15439.04

     local   stress (kbar) -15887.52     -1.12     11.92
                               -1.12 -15886.24      6.88
                               11.92      6.88  30857.88

     nonloc. stress (kbar)  -4554.16      7.58     -2.39
                                7.58  -4562.92     -1.38
                               -2.39     -1.38  -4199.64

     hartree stress (kbar)  15992.40     -1.14     -4.51
                               -1.14  15993.72     -2.60
                               -4.51     -2.60  -5548.73

     exc-cor stress (kbar)  14345.49     -0.21     -0.06
                               -0.21  14345.74     -0.03
                               -0.06     -0.03  14349.52

     corecor stress (kbar) -19125.29      1.12      0.16
                                1.12 -19126.58      0.09
                                0.16      0.09 -19126.42

     ewald   stress (kbar)  -5448.40     -0.14      0.34
                               -0.14  -5448.24      0.19
                                0.34      0.19 -31485.05

     hubbard stress (kbar)      0.00      0.00      0.00
                                0.00      0.00      0.00
                                0.00      0.00      0.00

     DFT-D   stress (kbar)      0.00      0.00      0.00
                                0.00      0.00      0.00
                                0.00      0.00      0.00

     XDM     stress (kbar)      0.00      0.00      0.00
                                0.00      0.00      0.00
                                0.00      0.00      0.00

     dft-nl  stress (kbar)      0.00      0.00      0.00
                                0.00      0.00      0.00
                                0.00      0.00      0.00

     TS-vdW  stress (kbar)      0.00      0.00      0.00
                                0.00      0.00      0.00
                                0.00      0.00      0.00

[...]

                                0.00      0.00      0.00

     Writing all to output data dir new_calculations/myprefix.save/

     General routines

     Parallel routines

   This run was terminated on:   4:54:49  21May2023

   JOB DONE.