     Program PWSCF v.7.0 starts on 20May2023 at 22:13:26

     Reading input from espresso_2756.pwi
Warning: card &CELL ignored
Warning: card / ignored

     Current dimensions of program PWSCF are:
     Max number of different atomic species (ntypx) = 10
     Max number of k-points (npk) =  40000
     Max angular momentum in pseudopotentials (lmaxx) =  4
     file O.pbe-n-kjpaw_psl.0.1.UPF: wavefunction(s)  2P renormalized

     gamma-point specific algorithms are used
     Message from routine setup:
     using ibrav=0 with symmetry is DISCOURAGED, use correct ibrav instead

     Subspace diagonalization in iterative solution of the eigenvalue problem:
     a serial algorithm will be used

     Using Slab Decomposition

     bravais-lattice index     =            0
     lattice parameter (alat)  =      14.4104  a.u.
     unit-cell volume          =    1797.4530 (a.u.)^3
     number of atoms/cell      =           20
     number of atomic types    =            4
     number of electrons       =       176.00
     number of Kohn-Sham states=          106
     kinetic-energy cutoff     =      30.0000  Ry
     charge density cutoff     =     240.0000  Ry
     scf convergence threshold =      1.0E-06
     mixing beta               =       0.7000
     number of iterations used =            8  plain     mixing
     Exchange-correlation= SLA  PW   PBX  PBC
                           (   1   4   3   4   0   0   0)

     celldm(1)=  14.410352  celldm(2)=   0.000000  celldm(3)=   0.000000
     celldm(4)=   0.000000  celldm(5)=   0.000000  celldm(6)=   0.000000

     crystal axes: (cart. coord. in units of alat)
               a(1) = (   1.000000   0.000000   0.000000 )
               a(2) = (   0.000000   0.767920   0.000000 )
               a(3) = (   0.000000   0.150164   0.782200 )

     reciprocal axes: (cart. coord. in units 2 pi/alat)
               b(1) = (  1.000000  0.000000  0.000000 )
               b(2) = (  0.000000  1.302219 -0.249996 )
               b(3) = (  0.000000  0.000000  1.278446 )

     PseudoPot. # 1 for Ca read from file:
     /home/pragov/projects/rrg-bengioy-ad/pragov/crystal_structure_design/SSSP/Ca_pbe_v1.uspp.F.UPF
     MD5 check sum: 403a4c14b9e4d4dfdc3024c9a3812218
     Pseudo is Ultrasoft + core correction, Zval = 10.0
     Generated by new atomic code, or converted to UPF format
     Using radial grid of  845 points,  6 beta functions with:
                l(1) =   0
                l(2) =   0
                l(3) =   1
                l(4) =   1
                l(5) =   2
                l(6) =   2
     Q(r) pseudized with  8 coefficients,  rinner =    1.500   1.500   1.500
                                                       1.500   1.500

     PseudoPot. # 2 for Ta read from file:
     /home/pragov/projects/rrg-bengioy-ad/pragov/crystal_structure_design/SSSP/Ta_pbe_v1.uspp.F.UPF
     MD5 check sum: f8bbe9446314a3b8ea5d9f3e3836c939
     Pseudo is Ultrasoft + core correction, Zval = 13.0
     Generated by new atomic code, or converted to UPF format
     Using radial grid of  921 points,  7 beta functions with:
                l(1) =   0
                l(2) =   0
                l(3) =   1
                l(4) =   1
                l(5) =   2
                l(6) =   2
                l(7) =   3
     Q(r) pseudized with  6 coefficients,  rinner =    1.300   1.300   1.300
                                                       1.300   1.300   1.300
                                                       1.300

     PseudoPot. # 3 for Ag read from file:
     /home/pragov/projects/rrg-bengioy-ad/pragov/crystal_structure_design/SSSP/Ag_ONCV_PBE-1.0.oncvpsp.upf
     MD5 check sum: 94f47bd0669c641108e45594df92fabc
     Pseudo is Norm-conserving, Zval = 19.0
     Generated using ONCVPSP code by D. R. Hamann
     Using radial grid of 1398 points,  6 beta functions with:
                l(1) =   0
                l(2) =   0
                l(3) =   1
                l(4) =   1
                l(5) =   2
                l(6) =   2

     PseudoPot. # 4 for O  read from file:
     /home/pragov/projects/rrg-bengioy-ad/pragov/crystal_structure_design/SSSP/O.pbe-n-kjpaw_psl.0.1.UPF
     MD5 check sum: 0234752ac141de4415c5fc33072bef88
     Pseudo is Projector augmented-wave + core cor, Zval =  6.0
     Generated using "atomic" code by A. Dal Corso  v.5.0.99 svn rev. 10869
     Shape of augmentation charge: BESSEL
     Using radial grid of 1095 points,  4 beta functions with:
                l(1) =   0
                l(2) =   0
                l(3) =   1
                l(4) =   1
     Q(r) pseudized with 0 coefficients

     atomic species   valence    mass     pseudopotential
        Ca            10.00    40.07800     Ca( 1.00)
        Ta            13.00   180.94788     Ta( 1.00)
        Ag            19.00   107.86820     Ag( 1.00)
        O              6.00    15.99900     O ( 1.00)

      4 Sym. Ops., with inversion, found ( 2 have fractional translation)

                                    s                        frac. trans.

      isym =  1     identity

 cryst.   s( 1) = (     1          0          0      )
                  (     0          1          0      )
                  (     0          0          1      )

 cart.    s( 1) = (  1.0000000  0.0000000  0.0000000 )
                  (  0.0000000  1.0000000  0.0000000 )
                  (  0.0000000  0.0000000  1.0000000 )

      isym =  2     180 deg rotation - cart. axis [1,0,0]

 cryst.   s( 2) = (     1          0          0      )    f =( -0.5000000 )
                  (     0         -1          0      )       ( -0.0000000 )
                  (     0          0         -1      )       ( -0.0000000 )

 cart.    s( 2) = (  1.0000000  0.0000000  0.0000000 )    f =( -0.5000000 )
                  (  0.0000000 -1.0000000 -0.0000000 )       ( -0.0000000 )
                  (  0.0000000  0.0000000 -1.0000000 )       ( -0.0000000 )

      isym =  3     inversion

 cryst.   s( 3) = (    -1          0          0      )
                  (     0         -1          0      )
                  (     0          0         -1      )

 cart.    s( 3) = ( -1.0000000  0.0000000  0.0000000 )
                  (  0.0000000 -1.0000000 -0.0000000 )
                  (  0.0000000  0.0000000 -1.0000000 )

      isym =  4     inv. 180 deg rotation - cart. axis [1,0,0]

 cryst.   s( 4) = (    -1          0          0      )    f =( -0.5000000 )
                  (     0          1          0      )       (  0.0000000 )
                  (     0          0          1      )       (  0.0000000 )

 cart.    s( 4) = ( -1.0000000  0.0000000  0.0000000 )    f =( -0.5000000 )
                  (  0.0000000  1.0000000  0.0000000 )       (  0.0000000 )
                  (  0.0000000  0.0000000  1.0000000 )       (  0.0000000 )

   Cartesian axes

     site n.     atom                  positions (alat units)
         1           Ca  tau(   1) = (   0.7500000   0.7526539   0.0545733  )
         2           Ca  tau(   2) = (   0.7500000   0.4494205   0.4384309  )
         3           Ca  tau(   3) = (   0.2500000   0.4686638   0.3437690  )
         4           Ca  tau(   4) = (   0.2500000   0.1654304   0.7276266  )
         5           Ta  tau(   5) = (   0.0000000   0.0750821   0.3910999  )
         6           Ta  tau(   6) = (   0.5000000   0.0750821   0.3910999  )
         7           Ag  tau(   7) = (   0.0000000   0.3839600   0.0000000  )
         8           Ag  tau(   8) = (   0.5000000   0.3839600   0.0000000  )
         9           O   tau(   9) = (   0.4504350   0.1609281   0.1437128  )
        10           O   tau(  10) = (   0.5517930   0.6160542   0.2799345  )
        11           O   tau(  11) = (   0.5495650   0.7571562   0.6384871  )
        12           O   tau(  12) = (   0.0517930   0.3020301   0.5022654  )
        13           O   tau(  13) = (   0.2500000   0.7680859   0.4231232  )
        14           O   tau(  14) = (   0.4482070   0.3020301   0.5022654  )
        15           O   tau(  15) = (   0.9482070   0.6160542   0.2799345  )
        16           O   tau(  16) = (   0.0495650   0.1609281   0.1437128  )
        17           O   tau(  17) = (   0.7500000   0.4336597   0.7413198  )
        18           O   tau(  18) = (   0.9504350   0.7571562   0.6384871  )
        19           O   tau(  19) = (   0.2500000   0.4844246   0.0408801  )
        20           O   tau(  20) = (   0.7500000   0.1499983   0.3590767  )

   Crystallographic axes

     site n.     atom                  positions (cryst. coord.)
         1           Ca  tau(   1) = (  0.7500000  0.9664770  0.0697690  )
         2           Ca  tau(   2) = (  0.7500000  0.4756380  0.5605100  )
         3           Ca  tau(   3) = (  0.2500000  0.5243620  0.4394900  )
         4           Ca  tau(   4) = (  0.2500000  0.0335230  0.9302310  )
         5           Ta  tau(   5) = (  0.0000000  0.0000000  0.5000000  )
         6           Ta  tau(   6) = (  0.5000000  0.0000000  0.5000000  )
         7           Ag  tau(   7) = (  0.0000000  0.5000000  0.0000000  )
         8           Ag  tau(   8) = (  0.5000000  0.5000000  0.0000000  )
         9           O   tau(   9) = (  0.4504350  0.1736360  0.1837290  )
        10           O   tau(  10) = (  0.5517930  0.7322550  0.3578810  )
        11           O   tau(  11) = (  0.5495650  0.8263640  0.8162710  )
        12           O   tau(  12) = (  0.0517930  0.2677450  0.6421190  )
        13           O   tau(  13) = (  0.2500000  0.8944370  0.5409400  )
        14           O   tau(  14) = (  0.4482070  0.2677450  0.6421190  )
        15           O   tau(  15) = (  0.9482070  0.7322550  0.3578810  )
        16           O   tau(  16) = (  0.0495650  0.1736360  0.1837290  )
        17           O   tau(  17) = (  0.7500000  0.3793930  0.9477370  )
        18           O   tau(  18) = (  0.9504350  0.8263640  0.8162710  )
        19           O   tau(  19) = (  0.2500000  0.6206070  0.0522630  )
        20           O   tau(  20) = (  0.7500000  0.1055630  0.4590600  )

     number of k points=     1  Methfessel-Paxton smearing, width (Ry)=  0.0010
                       cart. coord. in units 2pi/alat
        k(    1) = (   0.0000000   0.0000000   0.0000000), wk =   2.0000000

                       cryst. coord.
        k(    1) = (   0.0000000   0.0000000   0.0000000), wk =   2.0000000

     Check: negative core charge=   -0.000011

     Initial potential from superposition of free atoms

     starting charge     175.9753, renormalised to     176.0000

     negative rho (up, down):  1.833E-01 0.000E+00
     Starting wfcs are  134 randomized atomic wfcs
     Checking if some PAW data can be deallocated...

     Self-consistent Calculation

     iteration #  1     ecut=    30.00 Ry     beta= 0.70
     Davidson diagonalization with overlap

     ethr =  1.00E-02,  avg # of iterations =  2.0

     negative rho (up, down):  1.839E-01 0.000E+00

     total energy              =   -1655.35992804 Ry
     estimated scf accuracy    <       5.63791765 Ry

[...]

     total energy              =   -1658.37318140 Ry
     estimated scf accuracy    <       0.00001254 Ry

[...]
   -84.5304 -84.5294 -58.7657 -58.7645 -47.7692 -47.7640 -47.6591 -47.6578
   -47.0809 -47.0795 -29.7234 -29.7179 -29.3458 -29.3384 -25.4471 -25.3470
   -25.3158 -25.2954 -25.2753 -25.2621 -10.9836 -10.9773 -10.9660 -10.8796
   -10.8310 -10.7375 -10.6301 -10.6121 -10.5996 -10.5271 -10.4934 -10.3465
    -8.9869  -8.4552  -8.1987  -8.1766  -8.0890  -7.6658  -7.6603  -7.6429
    -7.5377  -7.4304  -6.9170  -6.7382   2.1691   2.7295   3.0760   3.2449
     3.3057   3.8392   3.9059   4.1571   4.2872   4.5078   4.6855   4.7978
     5.1068   5.1678   5.4147   5.4213   5.5452   5.9310   5.9818   6.0708
     6.1582   6.1938   6.2903   6.3892   6.4389   6.6096   6.6980   6.9100
     6.9239   6.9548   7.0510   7.2934   7.3230   7.5029   7.5560   7.8073
     7.8605   7.8627   7.8913   7.9178   8.0362   8.1262   8.1281   8.1842
     8.8545   9.9143  12.5832  12.6825  12.7506  13.1708  13.3655  13.5440
    14.0480  14.4462  14.8312  15.0792  15.3520  15.4705  15.5507  15.6741
    15.7752  15.9254

     occupation numbers
     1.0000   1.0000   1.0000   1.0000   1.0000   1.0000   1.0000   1.0000
     1.0000   1.0000   1.0000   1.0000   1.0000   1.0000   1.0000   1.0000
     1.0000   1.0000   1.0000   1.0000   1.0000   1.0000   1.0000   1.0000
     1.0000   1.0000   1.0000   1.0000   1.0000   1.0000   1.0000   1.0000
     1.0000   1.0000   1.0000   1.0000   1.0000   1.0000   1.0000   1.0000
     1.0000   1.0000   1.0000   1.0000   1.0000   1.0000   1.0000   1.0000
     1.0000   1.0000   1.0000   1.0000   1.0000   1.0000   1.0000   1.0000
     1.0000   1.0000   1.0000   1.0000   1.0000   1.0000   1.0000   1.0000
     1.0000   1.0000   1.0000   1.0000   1.0000   1.0000   1.0000   1.0000
     1.0000   1.0000   1.0000   1.0000   1.0000   1.0000   1.0000   1.0000
     1.0000   1.0000   1.0000   1.0000   1.0000   1.0000   1.0000   1.0000
    -0.0000  -0.0000  -0.0000  -0.0000  -0.0000  -0.0000  -0.0000  -0.0000
    -0.0000  -0.0000  -0.0000  -0.0000  -0.0000  -0.0000  -0.0000  -0.0000
    -0.0000  -0.0000

     the Fermi energy is     8.5855 ev

!    total energy              =   -1658.37318406 Ry
     estimated scf accuracy    <       0.00000065 Ry
     smearing contrib. (-TS)   =       0.00000000 Ry
     internal energy E=F+TS    =   -1658.37318406 Ry

     The total energy is F=E-TS. E is the sum of the following terms:
     one-electron contribution =    -601.81455111 Ry
     hartree contribution      =     381.94442575 Ry
     xc contribution           =    -275.40581701 Ry
     ewald contribution        =   -1048.82907124 Ry
     one-center paw contrib.   =    -114.26817046 Ry
      -> PAW hartree energy AE =     353.70128858 Ry
      -> PAW hartree energy PS =    -352.45629493 Ry
      -> PAW xc energy AE      =    -205.73737394 Ry
      -> PAW xc energy PS      =      90.22420983 Ry
      -> total E_H with PAW    =     383.18941940 Ry
      -> total E_XC with PAW   =    -390.91898111 Ry

     convergence has been achieved in  12 iterations

     negative rho (up, down):  1.869E-01 0.000E+00

     Forces acting on atoms (cartesian axes, Ry/au):

     atom    1 type  1   force =     0.00000000   -0.00590413    0.01149911
     atom    2 type  1   force =     0.00000000   -0.00473622    0.00234272
     atom    3 type  1   force =     0.00000000    0.00473622   -0.00234272
     atom    4 type  1   force =     0.00000000    0.00590413   -0.01149911
     atom    5 type  2   force =     0.00000000    0.00000000    0.00000000
     atom    6 type  2   force =     0.00000000    0.00000000    0.00000000
     atom    7 type  3   force =     0.00000000    0.00000000   -0.00000000
     atom    8 type  3   force =     0.00000000    0.00000000    0.00000000
     atom    9 type  4   force =    -0.00637130   -0.01117782   -0.00853646
     atom   10 type  4   force =     0.00863619    0.00823809    0.00996186
     atom   11 type  4   force =     0.00637130    0.01117782    0.00853646
     atom   12 type  4   force =     0.00863619   -0.00823809   -0.00996186
     atom   13 type  4   force =     0.00000000   -0.00655793    0.00646054
     atom   14 type  4   force =    -0.00863619   -0.00823809   -0.00996186
     atom   15 type  4   force =    -0.00863619    0.00823809    0.00996186
     atom   16 type  4   force =     0.00637130   -0.01117782   -0.00853646
     atom   17 type  4   force =     0.00000000    0.01241039   -0.00911583
     atom   18 type  4   force =    -0.00637130    0.01117782    0.00853646
     atom   19 type  4   force =    -0.00000000   -0.01241039    0.00911583
     atom   20 type  4   force =     0.00000000    0.00655793   -0.00646054
     The non-local contrib.  to forces
     atom    1 type  1   force =     0.00000000   -0.00288596    0.00625697
     atom    2 type  1   force =     0.00000000   -0.00099293    0.00812461
     atom    3 type  1   force =     0.00000000    0.00099293   -0.00812461
     atom    4 type  1   force =     0.00000000    0.00288596   -0.00625697
     atom    5 type  2   force =     0.00000000    0.00000000    0.00000000
     atom    6 type  2   force =     0.00000000    0.00000000    0.00000000
     atom    7 type  3   force =     0.00000000    0.00000000    0.00000000
     atom    8 type  3   force =     0.00000000    0.00000000   -0.00000000
     atom    9 type  4   force =     0.23280866    0.55565925    0.23815869
     atom   10 type  4   force =    -0.01776923    0.48367229    0.24812723
     atom   11 type  4   force =    -0.23280866   -0.55565925   -0.23815869
     atom   12 type  4   force =    -0.01776923   -0.48367229   -0.24812723
     atom   13 type  4   force =     0.00000000    0.26504934   -0.11990104
     atom   14 type  4   force =     0.01776923   -0.48367229   -0.24812723
     atom   15 type  4   force =     0.01776923    0.48367229    0.24812723
     atom   16 type  4   force =    -0.23280866    0.55565925    0.23815869
     atom   17 type  4   force =     0.00000000    0.72326482    0.19781489
     atom   18 type  4   force =     0.23280866   -0.55565925   -0.23815869
     atom   19 type  4   force =     0.00000000   -0.72326482   -0.19781489
     atom   20 type  4   force =     0.00000000   -0.26504934    0.11990104
     The ionic contribution  to forces
     atom    1 type  1   force =    -0.00000000   -0.55405202   -1.88773128
     atom    2 type  1   force =     0.00000000   -0.35200973   -2.54585623
     atom    3 type  1   force =    -0.00000000    0.35200973    2.54585623
     atom    4 type  1   force =    -0.00000000    0.55405202    1.88773128
     atom    5 type  2   force =     0.00000000   -0.00000000    0.00000000
     atom    6 type  2   force =    -0.00000000   -0.00000000    0.00000000
     atom    7 type  3   force =     0.00000000    0.00000000   -0.00000000
     atom    8 type  3   force =    -0.00000000    0.00000000   -0.00000000
     atom    9 type  4   force =    -2.65336515   -4.39906500   -0.39649994
     atom   10 type  4   force =     0.64094123   -4.83726652   -1.94636352
     atom   11 type  4   force =     2.65336515    4.39906500    0.39649994
     atom   12 type  4   force =     0.64094123    4.83726652    1.94636352
     atom   13 type  4   force =    -0.00000000   -3.09188045    0.49127338
     atom   14 type  4   force =    -0.64094123    4.83726652    1.94636352
     atom   15 type  4   force =    -0.64094123   -4.83726652   -1.94636352
     atom   16 type  4   force =     2.65336515   -4.39906500   -0.39649994
     atom   17 type  4   force =     0.00000000   -4.89702909   -1.16954202
     atom   18 type  4   force =    -2.65336515    4.39906500    0.39649994
     atom   19 type  4   force =    -0.00000000    4.89702909    1.16954202
     atom   20 type  4   force =     0.00000000    3.09188045   -0.49127338
     The local contribution  to forces
     atom    1 type  1   force =     0.00007070    0.55045934    1.89357789
     atom    2 type  1   force =     0.00012865    0.34823073    2.53980900
     atom    3 type  1   force =    -0.00005674   -0.34784319   -2.54019063
     atom    4 type  1   force =    -0.00011548   -0.55122914   -1.89364604
     atom    5 type  2   force =    -0.00013039   -0.00025180    0.00089996
     atom    6 type  2   force =     0.00001255   -0.00023177   -0.00026961
     atom    7 type  3   force =     0.00079074    0.00166585   -0.00075411
     atom    8 type  3   force =    -0.00099254    0.00038908    0.00039952
     atom    9 type  4   force =     2.41666436    3.83969189    0.15156857
     atom   10 type  4   force =    -0.61460421    4.36536324    1.70974699
     atom   11 type  4   force =    -2.41669481   -3.83967811   -0.15152435
     atom   12 type  4   force =    -0.61463927   -4.36541529   -1.70972000
     atom   13 type  4   force =    -0.00006028    2.82235524   -0.36572735
     atom   14 type  4   force =     0.61457379   -4.36544035   -1.70987389
     atom   15 type  4   force =     0.61457938    4.36531140    1.70985632
     atom   16 type  4   force =    -2.41664317    3.83950813    0.15144129
     atom   17 type  4   force =     0.00015540    4.19532240    0.96551534
     atom   18 type  4   force =     2.41681859   -3.84011389   -0.15143539
     atom   19 type  4   force =    -0.00020607   -4.19530891   -0.96576096
     atom   20 type  4   force =     0.00000896   -2.82248892    0.36588440
     The core correction contribution to forces
     atom    1 type  1   force =     0.00000038    0.00026486   -0.00058747
     atom    2 type  1   force =     0.00000074   -0.00002163    0.00008671
     atom    3 type  1   force =     0.00000003    0.00002450   -0.00009174
     atom    4 type  1   force =    -0.00000064   -0.00026983    0.00058896
     atom    5 type  2   force =     0.00000132   -0.00000379    0.00000807
     atom    6 type  2   force =    -0.00000143   -0.00000342   -0.00000455
     atom    7 type  3   force =     0.00000000    0.00000000    0.00000000
     atom    8 type  3   force =     0.00000000    0.00000000    0.00000000
     atom    9 type  4   force =    -0.00248438   -0.00761340   -0.00161638
     atom   10 type  4   force =     0.00006550   -0.00363860   -0.00151346
     atom   11 type  4   force =     0.00248409    0.00761481    0.00161558
     atom   12 type  4   force =     0.00006528    0.00363829    0.00151322
     atom   13 type  4   force =     0.00000011   -0.00225288    0.00083360
     atom   14 type  4   force =    -0.00006510    0.00363788    0.00151312
     atom   15 type  4   force =    -0.00006557   -0.00363818   -0.00151302
     atom   16 type  4   force =     0.00248480   -0.00761775   -0.00161579
     atom   17 type  4   force =     0.00000006   -0.00932056   -0.00309761
     atom   18 type  4   force =    -0.00248388    0.00761038    0.00161658
     atom   19 type  4   force =    -0.00000019    0.00931828    0.00309578
     atom   20 type  4   force =    -0.00000004    0.00225337   -0.00083406
     The Hubbard contrib.    to forces
     atom    1 type  1   force =     0.00000000    0.00000000    0.00000000
     atom    2 type  1   force =     0.00000000    0.00000000    0.00000000
     atom    3 type  1   force =     0.00000000    0.00000000    0.00000000
     atom    4 type  1   force =     0.00000000    0.00000000    0.00000000
     atom    5 type  2   force =     0.00000000    0.00000000    0.00000000
     atom    6 type  2   force =     0.00000000    0.00000000    0.00000000
     atom    7 type  3   force =     0.00000000    0.00000000    0.00000000
     atom    8 type  3   force =     0.00000000    0.00000000    0.00000000
     atom    9 type  4   force =     0.00000000    0.00000000    0.00000000
     atom   10 type  4   force =     0.00000000    0.00000000    0.00000000
     atom   11 type  4   force =     0.00000000    0.00000000    0.00000000
     atom   12 type  4   force =     0.00000000    0.00000000    0.00000000
     atom   13 type  4   force =     0.00000000    0.00000000    0.00000000
     atom   14 type  4   force =     0.00000000    0.00000000    0.00000000
     atom   15 type  4   force =     0.00000000    0.00000000    0.00000000
     atom   16 type  4   force =     0.00000000    0.00000000    0.00000000
     atom   17 type  4   force =     0.00000000    0.00000000    0.00000000
     atom   18 type  4   force =     0.00000000    0.00000000    0.00000000
     atom   19 type  4   force =     0.00000000    0.00000000    0.00000000
     atom   20 type  4   force =     0.00000000    0.00000000    0.00000000
     The SCF correction term to forces
     atom    1 type  1   force =    -0.00007468    0.00028686    0.00000186
     atom    2 type  1   force =    -0.00013060    0.00006690    0.00014955
     atom    3 type  1   force =     0.00006586   -0.00043820    0.00017896
     atom    4 type  1   force =     0.00011878    0.00044233    0.00010252
     atom    5 type  2   force =     0.00013160    0.00030126   -0.00098612
     atom    6 type  2   force =    -0.00001263    0.00027764    0.00031081
     atom    7 type  3   force =    -0.00085058   -0.00182349    0.00082554
     atom    8 type  3   force =     0.00110553   -0.00045656   -0.00046719
     atom    9 type  4   force =    -0.00000667    0.00019736   -0.00016721
     atom   10 type  4   force =     0.00000437    0.00007595   -0.00004778
     atom   11 type  4   force =     0.00000461   -0.00012499    0.00007945
     atom   12 type  4   force =     0.00004445   -0.00004859    0.00000196
     atom   13 type  4   force =     0.00007033    0.00019354   -0.00003769
     atom   14 type  4   force =     0.00004083   -0.00005612    0.00016111
     atom   15 type  4   force =     0.00001600    0.00017131   -0.00014090
     atom   16 type  4   force =    -0.00000083    0.00013655   -0.00001834
     atom   17 type  4   force =    -0.00017515    0.00010787    0.00014365
     atom   18 type  4   force =    -0.00013254    0.00008286    0.00002114
     atom   19 type  4   force =     0.00021189   -0.00024899    0.00000396
     atom   20 type  4   force =    -0.00001319   -0.00001493   -0.00015819

     Total force =     0.054352     Total SCF correction =     0.002946

     Computing stress (Cartesian axis) and pressure

     negative rho (up, down):  1.869E-01 0.000E+00
          total   stress  (Ry/bohr**3)                   (kbar)     P=     -565.78
  -0.00391116   0.00000000   0.00000000         -575.35        0.00        0.00
   0.00000000  -0.00376551  -0.00008306            0.00     -553.93      -12.22
   0.00000000  -0.00008306  -0.00386168            0.00      -12.22     -568.07

     kinetic stress (kbar)  30237.39      0.00      0.00
                                0.00  30356.35    211.06
                                0.00    211.06  30762.69

     local   stress (kbar) -10044.09     -0.01     -0.03
                               -0.01  -8071.24   5182.02
                               -0.03   5182.02  -1653.43

     nonloc. stress (kbar)    -56.56      0.00      0.00
                                0.00    -99.16    -62.94
                                0.00    -62.94   -153.22

     hartree stress (kbar)  11923.87      0.01      0.02
                                0.01  10931.25  -2155.82
                                0.02  -2155.82   8403.54

     exc-cor stress (kbar)   -436.08     -0.00      0.00
                               -0.00   -435.05     -3.11
                                0.00     -3.11   -439.92

     corecor stress (kbar)  -5695.09      0.00      0.00
                                0.00  -5695.24     -1.49
                                0.00     -1.49  -5696.29

     ewald   stress (kbar) -26504.79     -0.00     -0.00
                               -0.00 -27540.83  -3181.95
                               -0.00  -3181.95 -31791.44

     hubbard stress (kbar)      0.00      0.00      0.00
                                0.00      0.00      0.00
                                0.00      0.00      0.00

     DFT-D   stress (kbar)      0.00      0.00      0.00
                                0.00      0.00      0.00
                                0.00      0.00      0.00

     XDM     stress (kbar)      0.00      0.00      0.00
                                0.00      0.00      0.00
                                0.00      0.00      0.00

     dft-nl  stress (kbar)      0.00      0.00      0.00
                                0.00      0.00      0.00
                                0.00      0.00      0.00

     TS-vdW  stress (kbar)      0.00      0.00      0.00
                                0.00      0.00      0.00
                                0.00      0.00      0.00

[...]

                                0.00      0.00      0.00

     Writing all to output data dir new_calculations/myprefix.save/

     General routines

     Parallel routines

     PAW routines

   This run was terminated on:  22:15: 1  20May2023

   JOB DONE.