     Program PWSCF v.7.0 starts on 21May2023 at 17: 8: 1

     Reading input from espresso_2009.pwi
Warning: card &CELL ignored
Warning: card / ignored

     Current dimensions of program PWSCF are:
     Max number of different atomic species (ntypx) = 10
     Max number of k-points (npk) =  40000
     Max angular momentum in pseudopotentials (lmaxx) =  4
     file O.pbe-n-kjpaw_psl.0.1.UPF: wavefunction(s)  2P renormalized

     gamma-point specific algorithms are used
     Message from routine setup:
     using ibrav=0 with symmetry is DISCOURAGED, use correct ibrav instead

     Subspace diagonalization in iterative solution of the eigenvalue problem:
     a serial algorithm will be used

     Using Slab Decomposition

     bravais-lattice index     =            0
     lattice parameter (alat)  =       7.1383  a.u.
     unit-cell volume          =    1262.0295 (a.u.)^3
     number of atoms/cell      =           14
     number of atomic types    =            4
     number of electrons       =       116.00
     number of Kohn-Sham states=           70
     kinetic-energy cutoff     =      30.0000  Ry
     charge density cutoff     =     240.0000  Ry
     scf convergence threshold =      1.0E-06
     mixing beta               =       0.7000
     number of iterations used =            8  plain     mixing
     Exchange-correlation= SLA  PW   PBX  PBC
                           (   1   4   3   4   0   0   0)

     celldm(1)=   7.138263  celldm(2)=   0.000000  celldm(3)=   0.000000
     celldm(4)=   0.000000  celldm(5)=   0.000000  celldm(6)=   0.000000

     crystal axes: (cart. coord. in units of alat)
               a(1) = (   1.000000   0.000000   0.000000 )
               a(2) = (   0.000000   1.000000   0.000000 )
               a(3) = (   0.000000   0.000000   3.469700 )

     reciprocal axes: (cart. coord. in units 2 pi/alat)
               b(1) = (  1.000000  0.000000  0.000000 )
               b(2) = (  0.000000  1.000000  0.000000 )
               b(3) = (  0.000000  0.000000  0.288209 )

     PseudoPot. # 1 for Na read from file:
     /home/pragov/projects/rrg-bengioy-ad/pragov/crystal_structure_design/SSSP/na_pbe_v1.5.uspp.F.UPF
     MD5 check sum: 44600605ef58000f06b90626533354dc
     Pseudo is Ultrasoft, Zval =  9.0
     Generated by new atomic code, or converted to UPF format
     Using radial grid of  819 points,  5 beta functions with:
                l(1) =   0
                l(2) =   0
                l(3) =   1
                l(4) =   1
                l(5) =   2
     Q(r) pseudized with  8 coefficients,  rinner =    1.250   1.250   1.250
                                                       1.250   1.250

     PseudoPot. # 2 for Pr read from file:
     /home/pragov/projects/rrg-bengioy-ad/pragov/crystal_structure_design/SSSP/Pr.GGA-PBE-paw-v1.0.UPF
     MD5 check sum: b5e1e58e76df433569641143f671cc27
     Pseudo is Projector augmented-wave + core cor, Zval = 13.0
     Generated using ATOMPAW code
     Shape of augmentation charge: BESSEL
     Using radial grid of 1103 points,  8 beta functions with:
                l(1) =   0
                l(2) =   0
                l(3) =   1
                l(4) =   1
                l(5) =   2
                l(6) =   2
                l(7) =   3
                l(8) =   3
     Q(r) pseudized with 0 coefficients

     PseudoPot. # 3 for Ti read from file:
     /home/pragov/projects/rrg-bengioy-ad/pragov/crystal_structure_design/SSSP/ti_pbe_v1.4.uspp.F.UPF
     MD5 check sum: 88a00a6731bd790ddea75d31a80cb452
     Pseudo is Ultrasoft + core correction, Zval = 12.0
     Generated by new atomic code, or converted to UPF format
     Using radial grid of  851 points,  6 beta functions with:
                l(1) =   0
                l(2) =   0
                l(3) =   1
                l(4) =   1
                l(5) =   2
                l(6) =   2
     Q(r) pseudized with  6 coefficients,  rinner =    1.000   1.000   1.000
                                                       1.000   1.000

     PseudoPot. # 4 for O  read from file:
     /home/pragov/projects/rrg-bengioy-ad/pragov/crystal_structure_design/SSSP/O.pbe-n-kjpaw_psl.0.1.UPF
     MD5 check sum: 0234752ac141de4415c5fc33072bef88
     Pseudo is Projector augmented-wave + core cor, Zval =  6.0
     Generated using "atomic" code by A. Dal Corso  v.5.0.99 svn rev. 10869
     Shape of augmentation charge: BESSEL
     Using radial grid of 1095 points,  4 beta functions with:
                l(1) =   0
                l(2) =   0
                l(3) =   1
                l(4) =   1
     Q(r) pseudized with 0 coefficients

     atomic species   valence    mass     pseudopotential
        Na             9.00    22.98977     Na( 1.00)
        Pr            13.00   140.90766     Pr( 1.00)
        Ti            12.00    47.86700     Ti( 1.00)
        O              6.00    15.99900     O ( 1.00)

     16 Sym. Ops., with inversion, found ( 8 have fractional translation)

                                    s                        frac. trans.

      isym =  1     identity

 cryst.   s( 1) = (     1          0          0      )
                  (     0          1          0      )
                  (     0          0          1      )

 cart.    s( 1) = (  1.0000000  0.0000000  0.0000000 )
                  (  0.0000000  1.0000000  0.0000000 )
                  (  0.0000000  0.0000000  1.0000000 )

      isym =  2     180 deg rotation - cart. axis [0,0,1]

[...]

 cryst.   s( 3) = (    -1          0          0      )    f =(  0.5000000 )
                  (     0          1          0      )       (  0.5000000 )
                  (     0          0         -1      )       (  0.0000000 )

 cart.    s( 3) = ( -1.0000000  0.0000000  0.0000000 )    f =(  0.5000000 )
                  (  0.0000000  1.0000000  0.0000000 )       (  0.5000000 )
                  (  0.0000000  0.0000000 -1.0000000 )       (  0.0000000 )

[...]

 cryst.   s( 6) = (     0         -1          0      )
                  (    -1          0          0      )
                  (     0          0         -1      )

 cart.    s( 6) = (  0.0000000 -1.0000000  0.0000000 )
                  ( -1.0000000  0.0000000  0.0000000 )
                  (  0.0000000  0.0000000 -1.0000000 )

[...]

      isym =  8      90 deg rotation - cart. axis [0,0,1]

[...]

      isym =  9     inversion

 cryst.   s( 9) = (    -1          0          0      )    f =(  0.5000000 )
                  (     0         -1          0      )       (  0.5000000 )
                  (     0          0         -1      )       (  0.0000000 )

 cart.    s( 9) = ( -1.0000000  0.0000000  0.0000000 )    f =(  0.5000000 )
                  (  0.0000000 -1.0000000  0.0000000 )       (  0.5000000 )
                  (  0.0000000  0.0000000 -1.0000000 )       (  0.0000000 )

      isym = 10     inv. 180 deg rotation - cart. axis [0,0,1]

 cryst.   s(10) = (     1          0          0      )    f =( -0.5000000 )
                  (     0          1          0      )       (  0.5000000 )
                  (     0          0         -1      )       (  0.0000000 )

 cart.    s(10) = (  1.0000000  0.0000000  0.0000000 )    f =( -0.5000000 )
                  (  0.0000000  1.0000000  0.0000000 )       (  0.5000000 )
                  (  0.0000000  0.0000000 -1.0000000 )       (  0.0000000 )

[...]

 cryst.   s(11) = (     1          0          0      )
                  (     0         -1          0      )
                  (     0          0          1      )

 cart.    s(11) = (  1.0000000  0.0000000  0.0000000 )
                  (  0.0000000 -1.0000000  0.0000000 )
                  (  0.0000000  0.0000000  1.0000000 )

[...]

 cryst.   s(14) = (     0          1          0      )    f =( -0.5000000 )
                  (     1          0          0      )       (  0.5000000 )
                  (     0          0          1      )       (  0.0000000 )

 cart.    s(14) = (  0.0000000  1.0000000  0.0000000 )    f =( -0.5000000 )
                  (  1.0000000  0.0000000  0.0000000 )       (  0.5000000 )
                  (  0.0000000  0.0000000  1.0000000 )       (  0.0000000 )

[...]

      isym = 16     inv.  90 deg rotation - cart. axis [0,0,1]

 cryst.   s(16) = (     0         -1          0      )
                  (     1          0          0      )
                  (     0          0         -1      )

 cart.    s(16) = (  0.0000000  1.0000000  0.0000000 )
                  ( -1.0000000  0.0000000  0.0000000 )
                  (  0.0000000  0.0000000 -1.0000000 )

   Cartesian axes

     site n.     atom                  positions (alat units)
         1           Na  tau(   1) = (   0.0000000   0.5000000   1.4403834  )
         2           Na  tau(   2) = (   0.5000000   0.0000000   2.0293164  )
         3           Pr  tau(   3) = (   0.0000000   0.5000000   0.3774339  )
         4           Pr  tau(   4) = (   0.5000000   0.0000000   3.0922659  )
         5           Ti  tau(   5) = (   0.0000000   0.5000000   2.5276278  )
         6           Ti  tau(   6) = (   0.5000000   0.0000000   0.9420721  )
         7           O   tau(   7) = (   0.0000000   0.0000000   2.6534842  )
         8           O   tau(   8) = (   0.5000000   0.5000000   2.6534842  )
         9           O   tau(   9) = (   0.5000000   0.5000000   0.8162157  )
        10           O   tau(  10) = (   0.0000000   0.0000000   0.8162157  )
        11           O   tau(  11) = (   0.0000000   0.5000000   3.2247147  )
        12           O   tau(  12) = (   0.5000000   0.0000000   0.2449851  )
        13           O   tau(  13) = (   0.0000000   0.5000000   2.0601794  )
        14           O   tau(  14) = (   0.5000000   0.0000000   1.4095205  )

   Crystallographic axes

     site n.     atom                  positions (cryst. coord.)
         1           Na  tau(   1) = (  0.0000000  0.5000000  0.4151320  )
         2           Na  tau(   2) = (  0.5000000  0.0000000  0.5848680  )
         3           Pr  tau(   3) = (  0.0000000  0.5000000  0.1087800  )
         4           Pr  tau(   4) = (  0.5000000  0.0000000  0.8912200  )
         5           Ti  tau(   5) = (  0.0000000  0.5000000  0.7284860  )
         6           Ti  tau(   6) = (  0.5000000  0.0000000  0.2715140  )
         7           O   tau(   7) = (  0.0000000  0.0000000  0.7647590  )
         8           O   tau(   8) = (  0.5000000  0.5000000  0.7647590  )
         9           O   tau(   9) = (  0.5000000  0.5000000  0.2352410  )
        10           O   tau(  10) = (  0.0000000  0.0000000  0.2352410  )
        11           O   tau(  11) = (  0.0000000  0.5000000  0.9293930  )
        12           O   tau(  12) = (  0.5000000  0.0000000  0.0706070  )
        13           O   tau(  13) = (  0.0000000  0.5000000  0.5937630  )
        14           O   tau(  14) = (  0.5000000  0.0000000  0.4062370  )

     number of k points=     1  Methfessel-Paxton smearing, width (Ry)=  0.0010
                       cart. coord. in units 2pi/alat
        k(    1) = (   0.0000000   0.0000000   0.0000000), wk =   2.0000000

                       cryst. coord.
        k(    1) = (   0.0000000   0.0000000   0.0000000), wk =   2.0000000

     Check: negative core charge=   -0.000013

     Initial potential from superposition of free atoms

     starting charge     113.9725, renormalised to     116.0000

     negative rho (up, down):  3.515E-03 0.000E+00
     Starting wfcs are  126 randomized atomic wfcs
     Checking if some PAW data can be deallocated...

     Self-consistent Calculation

     iteration #  1     ecut=    30.00 Ry     beta= 0.70
     Davidson diagonalization with overlap

     ethr =  1.00E-02,  avg # of iterations =  2.0

     negative rho (up, down):  1.627E-03 0.000E+00

     total energy              =   -1765.87390656 Ry
     estimated scf accuracy    <      18.33865563 Ry

[...]

     WARNING: integrated charge=   116.00006588, expected=   116.00000000

[...]

     ethr =  8.45E-06,  avg # of iterations =  1.0
     Minimization algorithm failed to find Fermi energy: reverting to bisection
     Possible cause: smearing is larger than the electronic band-gap.

[...]

     WARNING: integrated charge=   115.99994770, expected=   116.00000000

[...]

     total energy              =   -1779.59013208 Ry
     estimated scf accuracy    <       0.00000143 Ry

     iteration # 62     ecut=    30.00 Ry     beta= 0.70
     Davidson diagonalization with overlap

     ethr =  1.23E-09,  avg # of iterations =  1.0

[...]

     End of self-consistent calculation

          k = 0.0000 0.0000 0.0000 (  1750 PWs)   bands (ev):

   -47.8128 -47.8126 -42.3988 -42.3941 -25.5225 -25.4603 -24.1780 -24.1780
   -24.1779 -24.1779 -24.0649 -24.0648 -14.3188 -14.3054 -14.3054 -14.2968
   -14.2937 -14.2937  -9.8443  -9.7733  -8.3502  -8.3500  -8.2403  -7.7054
    -7.6202  -7.3580  -7.3321  -7.3321  -7.1934  -7.1934  -6.1070  -5.5164
     4.7668   4.8599   4.9848   4.9848   4.9855   4.9855   5.7432   5.7739
     5.7900   6.2779   6.4752   6.4752   6.6658   6.6658   6.9990   6.9990
     7.0808   7.3647   7.3647   7.9401   7.9401   8.0748   8.1031   8.1031
    10.1425  10.2161  10.2234  10.2504  10.3292  10.3292  10.4291  10.4292
    10.5166  10.5356  10.6089  10.6090  10.6681  10.7277

     occupation numbers
     1.0000   1.0000   1.0000   1.0000   1.0000   1.0000   1.0000   1.0000
     1.0000   1.0000   1.0000   1.0000   1.0000   1.0000   1.0000   1.0000
     1.0000   1.0000   1.0000   1.0000   1.0000   1.0000   1.0000   1.0000
     1.0000   1.0000   1.0000   1.0000   1.0000   1.0000   1.0000   1.0000
     1.0000   1.0000   1.0000   1.0000   1.0000   1.0000   1.0000   1.0000
     1.0000   1.0000   1.0000   1.0000   1.0000   1.0000   1.0000   1.0000
     1.0000   1.0000   1.0000   1.0000   1.0000   1.0000   1.0000   1.0000
     1.0000   0.7206   0.2827  -0.0033  -0.0000  -0.0000  -0.0000  -0.0000
    -0.0000  -0.0000  -0.0000  -0.0000  -0.0000  -0.0000

     the Fermi energy is    10.2198 ev

!    total energy              =   -1779.59013173 Ry
     estimated scf accuracy    <       0.00000038 Ry
     smearing contrib. (-TS)   =      -0.00043219 Ry
     internal energy E=F+TS    =   -1779.58969954 Ry

     The total energy is F=E-TS. E is the sum of the following terms:
     one-electron contribution =    -357.58874891 Ry
     hartree contribution      =     247.59693711 Ry
     xc contribution           =    -148.83070674 Ry
     ewald contribution        =    -605.64351241 Ry
     one-center paw contrib.   =    -915.12366858 Ry
      -> PAW hartree energy AE =     363.25390531 Ry
      -> PAW hartree energy PS =    -362.56059326 Ry
      -> PAW xc energy AE      =    -997.56993894 Ry
      -> PAW xc energy PS      =      81.75295832 Ry
      -> total E_H with PAW    =     248.29024915 Ry
      -> total E_XC with PAW   =   -1064.64768737 Ry

     convergence has been achieved in  62 iterations

     negative rho (up, down):  3.208E-03 0.000E+00

     Forces acting on atoms (cartesian axes, Ry/au):

     atom    1 type  1   force =     0.00000000    0.00000000    0.00552816
     atom    2 type  1   force =     0.00000000    0.00000000   -0.00552816
     atom    3 type  2   force =     0.00000000    0.00000000    0.11915224
     atom    4 type  2   force =     0.00000000    0.00000000   -0.11915224
     atom    5 type  3   force =     0.00000000    0.00000000   -0.41958791
     atom    6 type  3   force =     0.00000000    0.00000000    0.41958791
     atom    7 type  4   force =     0.00000000    0.00000000    0.27016947
     atom    8 type  4   force =     0.00000000    0.00000000    0.27016947
     atom    9 type  4   force =     0.00000000    0.00000000   -0.27016947
     atom   10 type  4   force =     0.00000000    0.00000000   -0.27016947
     atom   11 type  4   force =     0.00000000    0.00000000    0.05513735
     atom   12 type  4   force =     0.00000000    0.00000000   -0.05513735
     atom   13 type  4   force =     0.00000000    0.00000000    0.05859512
     atom   14 type  4   force =     0.00000000    0.00000000   -0.05859512
     The non-local contrib.  to forces
     atom    1 type  1   force =     0.00000000    0.00000000   -0.27636058
     atom    2 type  1   force =     0.00000000    0.00000000    0.27636058
     atom    3 type  2   force =     0.00000000    0.00000000    0.06878226
     atom    4 type  2   force =     0.00000000    0.00000000   -0.06878226
     atom    5 type  3   force =     0.00000000    0.00000000    0.20907103
     atom    6 type  3   force =     0.00000000    0.00000000   -0.20907103
     atom    7 type  4   force =     0.00000000    0.00000000   -0.51888622
     atom    8 type  4   force =     0.00000000    0.00000000   -0.51888622
     atom    9 type  4   force =     0.00000000    0.00000000    0.51888622
     atom   10 type  4   force =     0.00000000    0.00000000    0.51888622
     atom   11 type  4   force =     0.00000000    0.00000000    0.18071896
     atom   12 type  4   force =     0.00000000    0.00000000   -0.18071896
     atom   13 type  4   force =     0.00000000    0.00000000    0.48581791
     atom   14 type  4   force =     0.00000000    0.00000000   -0.48581791
     The ionic contribution  to forces
     atom    1 type  1   force =    -0.00000000    0.00000000    7.96190941
     atom    2 type  1   force =    -0.00000000   -0.00000000   -7.96190941
     atom    3 type  2   force =    -0.00000000   -0.00000000   -7.01850418
     atom    4 type  2   force =     0.00000000   -0.00000000    7.01850418
     atom    5 type  3   force =    -0.00000000    0.00000000   -8.27033010
     atom    6 type  3   force =    -0.00000000   -0.00000000    8.27033010
     atom    7 type  4   force =    -0.00000000    0.00000000   -2.11298185
     atom    8 type  4   force =    -0.00000000   -0.00000000   -2.11298185
     atom    9 type  4   force =    -0.00000000    0.00000000    2.11298185
     atom   10 type  4   force =     0.00000000   -0.00000000    2.11298185
     atom   11 type  4   force =    -0.00000000    0.00000000    2.55302819
     atom   12 type  4   force =    -0.00000000   -0.00000000   -2.55302819
     atom   13 type  4   force =    -0.00000000    0.00000000  -13.03487264
     atom   14 type  4   force =     0.00000000    0.00000000   13.03487264
     The local contribution  to forces
     atom    1 type  1   force =    -0.00000035    0.00000027   -7.67948956
     atom    2 type  1   force =    -0.00000045   -0.00000048    7.68102640
     atom    3 type  2   force =    -0.00000565   -0.00001164    7.06722847
     atom    4 type  2   force =     0.00000333   -0.00000093   -7.06957221
     atom    5 type  3   force =    -0.00000216   -0.00000052    7.66471258
     atom    6 type  3   force =     0.00000056    0.00000042   -7.66357484
     atom    7 type  4   force =     0.00000217   -0.00000112    2.89567230
     atom    8 type  4   force =    -0.00000376   -0.00000058    2.89568166
     atom    9 type  4   force =    -0.00000043   -0.00000033   -2.89553376
     atom   10 type  4   force =    -0.00000065   -0.00000123   -2.89552856
     atom   11 type  4   force =    -0.00000050   -0.00000059   -2.67772861
     atom   12 type  4   force =    -0.00000078   -0.00000276    2.67610362
     atom   13 type  4   force =    -0.00000445    0.00000217   12.61091292
     atom   14 type  4   force =    -0.00000018    0.00000053  -12.60967727
     The core correction contribution to forces
     atom    1 type  1   force =     0.00000000    0.00000000    0.00000000
     atom    2 type  1   force =     0.00000000    0.00000000    0.00000000
     atom    3 type  2   force =    -0.00000000   -0.00000000   -0.00001249
     atom    4 type  2   force =     0.00000000    0.00000000    0.00001248
     atom    5 type  3   force =    -0.00000010   -0.00000001   -0.02179489
     atom    6 type  3   force =     0.00000009    0.00000009    0.02179993
     atom    7 type  4   force =     0.00000001   -0.00000001    0.00679004
     atom    8 type  4   force =    -0.00000003    0.00000001    0.00679000
     atom    9 type  4   force =    -0.00000002   -0.00000001   -0.00679012
     atom   10 type  4   force =    -0.00000000   -0.00000003   -0.00679019
     atom   11 type  4   force =    -0.00000005   -0.00000003   -0.00152858
     atom   12 type  4   force =     0.00000003   -0.00000001    0.00152852
     atom   13 type  4   force =    -0.00000002    0.00000002   -0.00245124
     atom   14 type  4   force =     0.00000001    0.00000002    0.00245088
     The Hubbard contrib.    to forces
     atom    1 type  1   force =     0.00000000    0.00000000    0.00000000
     atom    2 type  1   force =     0.00000000    0.00000000    0.00000000
     atom    3 type  2   force =     0.00000000    0.00000000    0.00000000
     atom    4 type  2   force =     0.00000000    0.00000000    0.00000000
     atom    5 type  3   force =     0.00000000    0.00000000    0.00000000
     atom    6 type  3   force =     0.00000000    0.00000000    0.00000000
     atom    7 type  4   force =     0.00000000    0.00000000    0.00000000
     atom    8 type  4   force =     0.00000000    0.00000000    0.00000000
     atom    9 type  4   force =     0.00000000    0.00000000    0.00000000
     atom   10 type  4   force =     0.00000000    0.00000000    0.00000000
     atom   11 type  4   force =     0.00000000    0.00000000    0.00000000
     atom   12 type  4   force =     0.00000000    0.00000000    0.00000000
     atom   13 type  4   force =     0.00000000    0.00000000    0.00000000
     atom   14 type  4   force =     0.00000000    0.00000000    0.00000000
     The SCF correction term to forces
     atom    1 type  1   force =    -0.00000016    0.00000014   -0.00049667
     atom    2 type  1   force =    -0.00000155   -0.00000010   -0.00097130
     atom    3 type  2   force =    -0.00000042    0.00000430    0.00163848
     atom    4 type  2   force =     0.00000323    0.00000213    0.00066588
     atom    5 type  3   force =     0.00000138    0.00000096   -0.00119365
     atom    6 type  3   force =     0.00000050    0.00000047    0.00015665
     atom    7 type  4   force =    -0.00000122   -0.00000053   -0.00043408
     atom    8 type  4   force =     0.00000099    0.00000117   -0.00044704
     atom    9 type  4   force =     0.00000004   -0.00000068    0.00027852
     atom   10 type  4   force =    -0.00000014   -0.00000010    0.00026681
     atom   11 type  4   force =    -0.00000029    0.00000159    0.00063480
     atom   12 type  4   force =    -0.00000057    0.00000008    0.00096508
     atom   13 type  4   force =     0.00000417   -0.00000285   -0.00080662
     atom   14 type  4   force =     0.00000019    0.00000007   -0.00041827

     Total force =     0.827935     Total SCF correction =     0.002909

     Computing stress (Cartesian axis) and pressure

     negative rho (up, down):  3.208E-03 0.000E+00
          total   stress  (Ry/bohr**3)                   (kbar)     P=     -275.73
  -0.00125152   0.00000000   0.00000000         -184.10        0.00        0.00
   0.00000000  -0.00125152   0.00000000            0.00     -184.10        0.00
   0.00000000   0.00000000  -0.00312007            0.00        0.00     -458.98

     kinetic stress (kbar)  20572.04      0.00      0.00
                                0.00  20572.04      0.00
                                0.00      0.00  20249.51

     local   stress (kbar)  -2044.08      0.05     -0.00
                                0.05  -2044.08     -0.00
                               -0.00     -0.00   9225.07

     nonloc. stress (kbar)  -3123.61      0.00      0.00
                                0.00  -3123.61      0.00
                                0.00      0.00  -3211.45

     hartree stress (kbar)  11447.40     -0.01      0.00
                               -0.01  11447.40      0.00
                                0.00      0.00   5965.67

     exc-cor stress (kbar)  -4137.43      0.00     -0.00
                                0.00  -4137.43     -0.00
                               -0.00     -0.00  -4126.21

     corecor stress (kbar)  -1255.05      0.00     -0.00
                                0.00  -1255.05     -0.00
                               -0.00     -0.00  -1253.08

     ewald   stress (kbar) -21643.37      0.00      0.00
                                0.00 -21643.37     -0.00
                                0.00     -0.00 -27308.47

     hubbard stress (kbar)      0.00      0.00      0.00
                                0.00      0.00      0.00
                                0.00      0.00      0.00

     DFT-D   stress (kbar)      0.00      0.00      0.00
                                0.00      0.00      0.00
                                0.00      0.00      0.00

     XDM     stress (kbar)      0.00      0.00      0.00
                                0.00      0.00      0.00
                                0.00      0.00      0.00

     dft-nl  stress (kbar)      0.00      0.00      0.00
                                0.00      0.00      0.00
                                0.00      0.00      0.00

     TS-vdW  stress (kbar)      0.00      0.00      0.00
                                0.00      0.00      0.00
                                0.00      0.00      0.00

[...]

                                0.00      0.00      0.00

     Writing all to output data dir new_calculations/myprefix.save/

     General routines

     Parallel routines

     PAW routines

   This run was terminated on:  17: 9:36  21May2023

   JOB DONE.