     Program PWSCF v.7.0 starts on 20May2023 at 17:22:45

     Reading input from espresso_9544.pwi
Warning: card &CELL ignored
Warning: card / ignored

     Current dimensions of program PWSCF are:
     Max number of different atomic species (ntypx) = 10
     Max number of k-points (npk) =  40000
     Max angular momentum in pseudopotentials (lmaxx) =  4
     file Al.pbe-n-kjpaw_psl.1.0.0.UPF: wavefunction(s)  3S 3P renormalized

     gamma-point specific algorithms are used
     Message from routine setup:
     using ibrav=0 with symmetry is DISCOURAGED, use correct ibrav instead

     Subspace diagonalization in iterative solution of the eigenvalue problem:
     a serial algorithm will be used

     Using Slab Decomposition

     bravais-lattice index     =            0
     lattice parameter (alat)  =      12.4190  a.u.
     unit-cell volume          =    1474.4905 (a.u.)^3
     number of atoms/cell      =           13
     number of atomic types    =            2
     number of electrons       =        50.00
     number of Kohn-Sham states=           30
     kinetic-energy cutoff     =      30.0000  Ry
     charge density cutoff     =     240.0000  Ry
     scf convergence threshold =      1.0E-06
     mixing beta               =       0.7000
     number of iterations used =            8  plain     mixing
     Exchange-correlation= SLA  PW   PBE  PBE
                           (   1   4   3   4   0   0   0)

     celldm(1)=  12.419038  celldm(2)=   0.000000  celldm(3)=   0.000000
     celldm(4)=   0.000000  celldm(5)=   0.000000  celldm(6)=   0.000000

     crystal axes: (cart. coord. in units of alat)
               a(1) = (   1.000000   0.000000   0.000000 )
               a(2) = (  -0.333333   0.942809   0.000000 )
               a(3) = (  -0.333333  -0.471405   0.816497 )

     reciprocal axes: (cart. coord. in units 2 pi/alat)
               b(1) = (  1.000000  0.353553  0.612372 )
               b(2) = (  0.000000  1.060660  0.612372 )
               b(3) = (  0.000000  0.000000  1.224745 )

     PseudoPot. # 1 for Al read from file:
     /home/pragov/projects/rrg-bengioy-ad/pragov/crystal_structure_design/SSSP/Al.pbe-n-kjpaw_psl.1.0.0.UPF
     MD5 check sum: cfc449ca30b5f3223ec38ddd88ac046d
     Pseudo is Projector augmented-wave + core cor, Zval =  3.0
     Generated using "atomic" code by A. Dal Corso  v.5.1
     Shape of augmentation charge: PSQ
     Using radial grid of 1135 points,  6 beta functions with:
                l(1) =   0
                l(2) =   0
                l(3) =   1
                l(4) =   1
                l(5) =   2
                l(6) =   2
     Q(r) pseudized with 0 coefficients

     PseudoPot. # 2 for W  read from file:
     /home/pragov/projects/rrg-bengioy-ad/pragov/crystal_structure_design/SSSP/W_pbe_v1.2.uspp.F.UPF
     MD5 check sum: 9c083fa34c2a2ea0f02f1f893e16e1c8
     Pseudo is Ultrasoft + core correction, Zval = 14.0
     Generated by new atomic code, or converted to UPF format
     Using radial grid of  923 points,  8 beta functions with:
                l(1) =   0
                l(2) =   0
                l(3) =   0
                l(4) =   1
                l(5) =   1
                l(6) =   2
                l(7) =   2
                l(8) =   3
     Q(r) pseudized with  6 coefficients,  rinner =    1.350   1.350   1.350
                                                       1.350   1.350   1.350
                                                       1.350

     atomic species   valence    mass     pseudopotential
        Al             3.00    26.98154     Al( 1.00)
        W             14.00   183.84000     W ( 1.00)

      2 Sym. Ops., with inversion, found

                                    s                        frac. trans.

      isym =  1     identity

 cryst.   s( 1) = (     1          0          0      )
                  (     0          1          0      )
                  (     0          0          1      )

 cart.    s( 1) = (  1.0000000  0.0000000 -0.0000000 )
                  (  0.0000000  1.0000000 -0.0000000 )
                  (  0.0000000  0.0000000  1.0000000 )

      isym =  2     inversion

 cryst.   s( 2) = (    -1          0          0      )
                  (     0         -1          0      )
                  (     0          0         -1      )

 cart.    s( 2) = ( -1.0000000 -0.0000000  0.0000000 )
                  (  0.0000000 -1.0000000  0.0000000 )
                  (  0.0000000  0.0000000 -1.0000000 )

   Cartesian axes

     site n.     atom                  positions (alat units)
         1           Al  tau(   1) = (   0.3367013   0.7397982   0.1522072  )
         2           Al  tau(   2) = (   0.6700347   0.2333207   0.0997089  )
         3           Al  tau(   3) = (   0.0033680   0.4410946   0.5645804  )
         4           Al  tau(   4) = (   0.4147453   0.4138375   0.4123732  )
         5           Al  tau(   5) = (   0.3299653   0.0303099   0.2519161  )
         6           Al  tau(   6) = (  -0.3367013   0.2380838   0.7167877  )
         7           Al  tau(   7) = (   0.5852547  -0.1502069   0.5645804  )
         8           Al  tau(   8) = (  -0.2519213   0.6216114   0.2519161  )
         9           Al  tau(   9) = (  -0.0814120   0.0575670   0.4041233  )
        10           Al  tau(  10) = (   0.2519213   0.0926399   0.6642894  )
        11           Al  tau(  11) = (   0.0814120   0.3787646   0.1522072  )
        12           Al  tau(  12) = (  -0.0033680  -0.2683937   0.6642894  )
        13           W   tau(  13) = (   0.0000000   0.0000000   0.0000000  )

   Crystallographic axes

     site n.     atom                  positions (cryst. coord.)
         1           Al  tau(   1) = (  0.6914670  0.8778820  0.1864150  )
         2           Al  tau(   2) = (  0.8135850  0.3085330  0.1221180  )
         3           Al  tau(   3) = (  0.5050520  0.8135850  0.6914670  )
         4           Al  tau(   4) = (  0.8135850  0.6914670  0.5050520  )
         5           Al  tau(   5) = (  0.4949480  0.1864150  0.3085330  )
         6           Al  tau(   6) = (  0.1864150  0.6914670  0.8778820  )
         7           Al  tau(   7) = (  0.8778820  0.1864150  0.6914670  )
         8           Al  tau(   8) = (  0.1221180  0.8135850  0.3085330  )
         9           Al  tau(   9) = (  0.1864150  0.3085330  0.4949480  )
        10           Al  tau(  10) = (  0.6914670  0.5050520  0.8135850  )
        11           Al  tau(  11) = (  0.3085330  0.4949480  0.1864150  )
        12           Al  tau(  12) = (  0.3085330  0.1221180  0.8135850  )
        13           W   tau(  13) = (  0.0000000  0.0000000  0.0000000  )

     number of k points=     1  Methfessel-Paxton smearing, width (Ry)=  0.0010
                       cart. coord. in units 2pi/alat
        k(    1) = (   0.0000000   0.0000000   0.0000000), wk =   2.0000000

                       cryst. coord.
        k(    1) = (   0.0000000   0.0000000   0.0000000), wk =   2.0000000

     Initial potential from superposition of free atoms

     starting charge      49.8722, renormalised to      50.0000

     negative rho (up, down):  6.023E-02 0.000E+00
     Starting wfcs are   61 randomized atomic wfcs
     Checking if some PAW data can be deallocated...

     Self-consistent Calculation

     iteration #  1     ecut=    30.00 Ry     beta= 0.70
     Davidson diagonalization with overlap

     ethr =  1.00E-02,  avg # of iterations =  4.0

     negative rho (up, down):  5.963E-02 0.000E+00

     total energy              =    -632.45757869 Ry
     estimated scf accuracy    <       0.96552931 Ry

[...]

     total energy              =    -633.04359105 Ry
     estimated scf accuracy    <       0.00000419 Ry

     iteration # 25     ecut=    30.00 Ry     beta= 0.70
     Davidson diagonalization with overlap

     ethr =  3.51E-09,  avg # of iterations =  1.0

[...]

     End of self-consistent calculation

          k = 0.0000 0.0000 0.0000 (  2047 PWs)   bands (ev):

   -64.1828 -28.1915 -27.4104 -26.7808  -2.1981   2.2869   2.2978   2.3253
     2.7753   2.7811   2.7861   3.0167   3.0493   3.0681   3.2372   3.2486
     3.8470   6.6257   6.6953   7.5967   7.6148   7.6492   8.4473   8.6106
     8.6635   8.6837  11.2622  11.2666  11.2751  11.4134

     occupation numbers
     1.0000   1.0000   1.0000   1.0000   1.0000   1.0000   1.0000   1.0000
     1.0000   1.0000   1.0000   1.0000   1.0000   1.0000   1.0000   1.0000
     1.0000   1.0000   1.0000   1.0000   1.0000   1.0000   1.0000   1.0000
     0.9735   0.0265  -0.0000  -0.0000  -0.0000  -0.0000

     the Fermi energy is     8.6736 ev

!    total energy              =    -633.04359101 Ry
     estimated scf accuracy    <       0.00000021 Ry
     smearing contrib. (-TS)   =       0.00003243 Ry
     internal energy E=F+TS    =    -633.04362344 Ry

     The total energy is F=E-TS. E is the sum of the following terms:
     one-electron contribution =     -63.14890048 Ry
     hartree contribution      =      53.72077078 Ry
     xc contribution           =     -72.34143059 Ry
     ewald contribution        =    -135.06957823 Ry
     one-center paw contrib.   =    -416.20448493 Ry
      -> PAW hartree energy AE =      16.96832271 Ry
      -> PAW hartree energy PS =     -16.90995773 Ry
      -> PAW xc energy AE      =    -439.17540075 Ry
      -> PAW xc energy PS      =      22.91255085 Ry
      -> total E_H with PAW    =      53.77913576 Ry
      -> total E_XC with PAW   =    -488.60428049 Ry

     convergence has been achieved in  25 iterations

     negative rho (up, down):  5.655E-02 0.000E+00

     Forces acting on atoms (cartesian axes, Ry/au):

     atom    1 type  1   force =     0.01788477    0.02823900    0.00068185
     atom    2 type  1   force =     0.01783716   -0.01176312   -0.02778014
     atom    3 type  1   force =     0.01510870   -0.01841763    0.02295881
     atom    4 type  1   force =    -0.02141000    0.01483101    0.02167148
     atom    5 type  1   force =    -0.01510870    0.01841763   -0.02295881
     atom    6 type  1   force =    -0.01783716    0.01176312    0.02778014
     atom    7 type  1   force =     0.02006685   -0.00924575    0.02580168
     atom    8 type  1   force =    -0.02006685    0.00924575   -0.02580168
     atom    9 type  1   force =     0.02141000   -0.01483101   -0.02167148
     atom   10 type  1   force =     0.02369562    0.02521861   -0.00049342
     atom   11 type  1   force =    -0.02369562   -0.02521861    0.00049342
     atom   12 type  1   force =    -0.01788477   -0.02823900   -0.00068185
     atom   13 type  2   force =     0.00000000    0.00000000    0.00000000
     The non-local contrib.  to forces
     atom    1 type  1   force =    -0.01467574   -0.00305234    0.00774613
     atom    2 type  1   force =    -0.01471856    0.00655446   -0.00820275
     atom    3 type  1   force =    -0.01623187   -0.01000705   -0.00589821
     atom    4 type  1   force =    -0.00744585    0.00215989   -0.01638004
     atom    5 type  1   force =     0.01623187    0.01000705    0.00589821
     atom    6 type  1   force =     0.01471856   -0.00655446    0.00820275
     atom    7 type  1   force =     0.00467014    0.01904918   -0.00428079
     atom    8 type  1   force =    -0.00467014   -0.01904918    0.00428079
     atom    9 type  1   force =     0.00744585   -0.00215989    0.01638004
     atom   10 type  1   force =     0.00539634   -0.01249059   -0.01206830
     atom   11 type  1   force =    -0.00539634    0.01249059    0.01206830
     atom   12 type  1   force =     0.01467574    0.00305234   -0.00774613
     atom   13 type  2   force =     0.00000000    0.00000000    0.00000000
     The ionic contribution  to forces
     atom    1 type  1   force =    -1.42664876   -1.01275324    0.58014048
     atom    2 type  1   force =    -1.42664876    1.00879301    0.58699979
     atom    3 type  1   force =    -1.42664876    0.00396022   -1.16714027
     atom    4 type  1   force =     0.47928332   -0.33890449   -1.74728075
     atom    5 type  1   force =     1.42664876   -0.00396022    1.16714027
     atom    6 type  1   force =     1.42664876   -1.00879301   -0.58699979
     atom    7 type  1   force =    -0.47928332    1.34373727   -1.16714027
     atom    8 type  1   force =     0.47928332   -1.34373727    1.16714027
     atom    9 type  1   force =    -0.47928332    0.33890449    1.74728075
     atom   10 type  1   force =    -0.47928332   -1.68264176   -0.58014048
     atom   11 type  1   force =     0.47928332    1.68264176    0.58014048
     atom   12 type  1   force =     1.42664876    1.01275324   -0.58014048
     atom   13 type  2   force =     0.00000000   -0.00000000   -0.00000000
     The local contribution  to forces
     atom    1 type  1   force =     1.45679404    1.04268397   -0.58642408
     atom    2 type  1   force =     1.45707408   -1.02591811   -0.60724448
     atom    3 type  1   force =     1.45609806   -0.01256338    1.19507371
     atom    4 type  1   force =    -0.49358498    0.35126306    1.78219554
     atom    5 type  1   force =    -1.45610623    0.01256213   -1.19507127
     atom    6 type  1   force =    -1.45708224    1.02592092    0.60724587
     atom    7 type  1   force =     0.49489679   -1.36929594    1.19628826
     atom    8 type  1   force =    -0.49489373    1.36930047   -1.19628565
     atom    9 type  1   force =     0.49359630   -0.35126669   -1.78219294
     atom   10 type  1   force =     0.49759837    1.71813121    0.59004299
     atom   11 type  1   force =    -0.49759730   -1.71813413   -0.59004910
     atom   12 type  1   force =    -1.45679154   -1.04268023    0.58642466
     atom   13 type  2   force =     0.00004039    0.00000969   -0.00000525
     The core correction contribution to forces
     atom    1 type  1   force =     0.00250171    0.00140448   -0.00077894
     atom    2 type  1   force =     0.00221275   -0.00121641    0.00064159
     atom    3 type  1   force =     0.00193831    0.00020628    0.00096446
     atom    4 type  1   force =     0.00034381    0.00035501    0.00322763
     atom    5 type  1   force =    -0.00193885   -0.00020644   -0.00096436
     atom    6 type  1   force =    -0.00221291    0.00121625   -0.00064180
     atom    7 type  1   force =    -0.00017858   -0.00279081    0.00099470
     atom    8 type  1   force =     0.00017874    0.00279120   -0.00099458
     atom    9 type  1   force =    -0.00034322   -0.00035508   -0.00322676
     atom   10 type  1   force =     0.00003180    0.00228127    0.00171722
     atom   11 type  1   force =    -0.00003184   -0.00228111   -0.00171772
     atom   12 type  1   force =    -0.00250130   -0.00140416    0.00077902
     atom   13 type  2   force =    -0.00000026   -0.00000102   -0.00000121
     The Hubbard contrib.    to forces
     atom    1 type  1   force =     0.00000000    0.00000000    0.00000000
     atom    2 type  1   force =     0.00000000    0.00000000    0.00000000
     atom    3 type  1   force =     0.00000000    0.00000000    0.00000000
     atom    4 type  1   force =     0.00000000    0.00000000    0.00000000
     atom    5 type  1   force =     0.00000000    0.00000000    0.00000000
     atom    6 type  1   force =     0.00000000    0.00000000    0.00000000
     atom    7 type  1   force =     0.00000000    0.00000000    0.00000000
     atom    8 type  1   force =     0.00000000    0.00000000    0.00000000
     atom    9 type  1   force =     0.00000000    0.00000000    0.00000000
     atom   10 type  1   force =     0.00000000    0.00000000    0.00000000
     atom   11 type  1   force =     0.00000000    0.00000000    0.00000000
     atom   12 type  1   force =     0.00000000    0.00000000    0.00000000
     atom   13 type  2   force =     0.00000000    0.00000000    0.00000000
     The SCF correction term to forces
     atom    1 type  1   force =    -0.00008385   -0.00004216   -0.00000218
     atom    2 type  1   force =    -0.00008446    0.00002477    0.00002470
     atom    3 type  1   force =    -0.00005064   -0.00001346   -0.00003991
     atom    4 type  1   force =    -0.00000230   -0.00004256   -0.00008899
     atom    5 type  1   force =     0.00005216    0.00001536    0.00003930
     atom    6 type  1   force =     0.00008857   -0.00002573   -0.00002788
     atom    7 type  1   force =    -0.00003671    0.00005459   -0.00005781
     atom    8 type  1   force =     0.00003641   -0.00005943    0.00005991
     atom    9 type  1   force =    -0.00000161    0.00004606    0.00008935
     atom   10 type  1   force =    -0.00004778   -0.00006242   -0.00004693
     atom   11 type  1   force =     0.00004633    0.00006339    0.00004938
     atom   12 type  1   force =     0.00008621    0.00004155    0.00000064
     atom   13 type  2   force =    -0.00003805   -0.00000712    0.00000205

     Total force =     0.117815     Total SCF correction =     0.000314

     Computing stress (Cartesian axis) and pressure

     negative rho (up, down):  5.655E-02 0.000E+00
          total   stress  (Ry/bohr**3)                   (kbar)     P=      -62.17
  -0.00020809   0.00005158  -0.00001948          -30.61        7.59       -2.87
   0.00005158  -0.00052470   0.00006863            7.59      -77.19       10.10
  -0.00001948   0.00006863  -0.00053498           -2.87       10.10      -78.70

     kinetic stress (kbar)   4458.76      1.81     -2.14
                                1.81   4415.41      8.76
                               -2.14      8.76   4394.63

     local   stress (kbar)    198.70      4.37      0.10
                                4.37    195.17      4.02
                                0.10      4.02    205.77

     nonloc. stress (kbar)   -448.42      3.65     -1.73
                                3.65   -457.85     -0.37
                               -1.73     -0.37   -446.11

     hartree stress (kbar)   1784.52     -1.95      0.36
                               -1.95   1789.66     -1.47
                                0.36     -1.47   1785.37

     exc-cor stress (kbar)   2244.31     -0.05     -0.01
                               -0.05   2244.30     -0.09
                               -0.01     -0.09   2244.18

     corecor stress (kbar)  -3776.67     -0.25      0.55
                               -0.25  -3772.06     -0.76
                                0.55     -0.76  -3770.72

     ewald   stress (kbar)  -4491.82     -0.00     -0.00
                               -0.00  -4491.82     -0.00
                               -0.00     -0.00  -4491.82

     hubbard stress (kbar)      0.00      0.00      0.00
                                0.00      0.00      0.00
                                0.00      0.00      0.00

     DFT-D   stress (kbar)      0.00      0.00      0.00
                                0.00      0.00      0.00
                                0.00      0.00      0.00

     XDM     stress (kbar)      0.00      0.00      0.00
                                0.00      0.00      0.00
                                0.00      0.00      0.00

     dft-nl  stress (kbar)      0.00      0.00      0.00
                                0.00      0.00      0.00
                                0.00      0.00      0.00

     TS-vdW  stress (kbar)      0.00      0.00      0.00
                                0.00      0.00      0.00
                                0.00      0.00      0.00

[...]

                                0.00      0.00      0.00

     Writing all to output data dir new_calculations/myprefix.save/

     General routines

     Parallel routines

     PAW routines

   This run was terminated on:  17:23:36  20May2023

   JOB DONE.