     Program PWSCF v.7.0 starts on 21May2023 at  7:58:18

     Reading input from espresso_12926.pwi
Warning: card &CELL ignored
Warning: card / ignored

     Current dimensions of program PWSCF are:
     Max number of different atomic species (ntypx) = 10
     Max number of k-points (npk) =  40000
     Max angular momentum in pseudopotentials (lmaxx) =  4
     file O.pbe-n-kjpaw_psl.0.1.UPF: wavefunction(s)  2P renormalized

     gamma-point specific algorithms are used
     Message from routine setup:
     using ibrav=0 with symmetry is DISCOURAGED, use correct ibrav instead

     Subspace diagonalization in iterative solution of the eigenvalue problem:
     a serial algorithm will be used

     Using Slab Decomposition

     bravais-lattice index     =            0
     lattice parameter (alat)  =      17.9398  a.u.
     unit-cell volume          =    1442.1511 (a.u.)^3
     number of atoms/cell      =           18
     number of atomic types    =            3
     number of electrons       =       169.00
     number of Kohn-Sham states=          102
     kinetic-energy cutoff     =      30.0000  Ry
     charge density cutoff     =     240.0000  Ry
     scf convergence threshold =      1.0E-06
     mixing beta               =       0.7000
     number of iterations used =            8  plain     mixing
     Exchange-correlation=  SLA  PW   PBX  PBC
                           (   1   4   3   4   0   0   0)

     celldm(1)=  17.939820  celldm(2)=   0.000000  celldm(3)=   0.000000
     celldm(4)=   0.000000  celldm(5)=   0.000000  celldm(6)=   0.000000

     crystal axes: (cart. coord. in units of alat)
               a(1) = (   1.000000   0.000000   0.000000 )
               a(2) = (   0.000000   0.498471   0.000000 )
               a(3) = (   0.000000   0.039320   0.501091 )

     reciprocal axes: (cart. coord. in units 2 pi/alat)
               b(1) = (  1.000000  0.000000  0.000000 )
               b(2) = (  0.000000  2.006135 -0.157418 )
               b(3) = (  0.000000  0.000000  1.995645 )

     PseudoPot. # 1 for Mn read from file:
     /home/pragov/projects/rrg-bengioy-ad/pragov/crystal_structure_design/SSSP/mn_pbe_v1.5.uspp.F.UPF
     MD5 check sum: 82ef2b46521d7a7d9e736dc3972e4928
     Pseudo is Ultrasoft + core correction, Zval = 15.0
     Generated by new atomic code, or converted to UPF format
     Using radial grid of  859 points,  6 beta functions with:
                l(1) =   0
                l(2) =   0
                l(3) =   1
                l(4) =   1
                l(5) =   2
                l(6) =   2
     Q(r) pseudized with  8 coefficients,  rinner =    0.950   0.950   0.950
                                                       0.950   0.950

     PseudoPot. # 2 for O  read from file:
     /home/pragov/projects/rrg-bengioy-ad/pragov/crystal_structure_design/SSSP/O.pbe-n-kjpaw_psl.0.1.UPF
     MD5 check sum: 0234752ac141de4415c5fc33072bef88
     Pseudo is Projector augmented-wave + core cor, Zval =  6.0
     Generated using "atomic" code by A. Dal Corso  v.5.0.99 svn rev. 10869
     Shape of augmentation charge: BESSEL
     Using radial grid of 1095 points,  4 beta functions with:
                l(1) =   0
                l(2) =   0
                l(3) =   1
                l(4) =   1
     Q(r) pseudized with 0 coefficients

     PseudoPot. # 3 for F  read from file:
     /home/pragov/projects/rrg-bengioy-ad/pragov/crystal_structure_design/SSSP/f_pbe_v1.4.uspp.F.UPF
     MD5 check sum: 4c38b6a325caf53ec0e86aed9459de46
     Pseudo is Ultrasoft, Zval =  7.0
     Generated by new atomic code, or converted to UPF format
     Using radial grid of  799 points,  4 beta functions with:
                l(1) =   0
                l(2) =   0
                l(3) =   1
                l(4) =   1
     Q(r) pseudized with  8 coefficients,  rinner =    0.950   0.950   0.950

     atomic species   valence    mass     pseudopotential
        Mn            15.00    54.93804     Mn( 1.00)
        O              6.00    15.99900     O ( 1.00)
        F              7.00    18.99840     F ( 1.00)

      2 Sym. Ops. (no inversion) found

                                    s                        frac. trans.

      isym =  1     identity

 cryst.   s( 1) = (     1          0          0      )
                  (     0          1          0      )
                  (     0          0          1      )

 cart.    s( 1) = (  1.0000000  0.0000000  0.0000000 )
                  (  0.0000000  1.0000000 -0.0000000 )
                  (  0.0000000  0.0000000  1.0000000 )

      isym =  2     inv. 180 deg rotation - cart. axis [1,0,0]

 cryst.   s( 2) = (    -1          0          0      )
                  (     0          1          0      )
                  (     0          0          1      )

 cart.    s( 2) = ( -1.0000000  0.0000000  0.0000000 )
                  (  0.0000000  1.0000000 -0.0000000 )
                  (  0.0000000  0.0000000  1.0000000 )

   Cartesian axes

     site n.     atom                  positions (alat units)
         1           Mn  tau(   1) = (   0.0000000   0.4895422   0.0030411  )
         2           Mn  tau(   2) = (   0.6608730   0.0445099   0.4884701  )
         3           Mn  tau(   3) = (   0.3391270   0.0445099   0.4884701  )
         4           Mn  tau(   4) = (   0.1582420   0.2601977   0.2546590  )
         5           Mn  tau(   5) = (   0.8417580   0.2601977   0.2546590  )
         6           Mn  tau(   6) = (   0.5000000   0.2758779   0.2710838  )
         7           O   tau(   7) = (   0.5000000   0.4471278   0.4066179  )
         8           O   tau(   8) = (   0.0000000   0.1678900   0.3530036  )
         9           O   tau(   9) = (   0.6750200   0.1851787   0.3471564  )
        10           O   tau(  10) = (   0.3249800   0.1851787   0.3471564  )
        11           O   tau(  11) = (   0.0000000   0.3504936   0.1537793  )
        12           F   tau(  12) = (   0.8358330   0.4298780   0.4038073  )
        13           F   tau(  13) = (   0.1641670   0.4298780   0.4038073  )
        14           F   tau(  14) = (   0.6737490   0.3641803   0.1479562  )
        15           F   tau(  15) = (   0.3262510   0.3641803   0.1479562  )
        16           F   tau(  16) = (   0.8256440   0.0967093   0.0909611  )
        17           F   tau(  17) = (   0.5000000   0.1182992   0.1068191  )
        18           F   tau(  18) = (   0.1743560   0.0967093   0.0909611  )

   Crystallographic axes

     site n.     atom                  positions (cryst. coord.)
         1           Mn  tau(   1) = (  0.0000000  0.9816090  0.0060690  )
         2           Mn  tau(   2) = (  0.6608730  0.0123990  0.9748130  )
         3           Mn  tau(   3) = (  0.3391270  0.0123990  0.9748130  )
         4           Mn  tau(   4) = (  0.1582420  0.4819040  0.5082090  )
         5           Mn  tau(   5) = (  0.8417580  0.4819040  0.5082090  )
         6           Mn  tau(   6) = (  0.5000000  0.5107750  0.5409870  )
         7           O   tau(   7) = (  0.5000000  0.8329900  0.8114650  )
         8           O   tau(   8) = (  0.0000000  0.2812410  0.7044700  )
         9           O   tau(   9) = (  0.6750200  0.3168450  0.6928010  )
        10           O   tau(  10) = (  0.3249800  0.3168450  0.6928010  )
        11           O   tau(  11) = (  0.0000000  0.6789300  0.3068890  )
        12           F   tau(  12) = (  0.8358330  0.7988270  0.8058560  )
        13           F   tau(  13) = (  0.1641670  0.7988270  0.8058560  )
        14           F   tau(  14) = (  0.6737490  0.7073040  0.2952680  )
        15           F   tau(  15) = (  0.3262510  0.7073040  0.2952680  )
        16           F   tau(  16) = (  0.8256440  0.1796930  0.1815260  )
        17           F   tau(  17) = (  0.5000000  0.2205090  0.2131730  )
        18           F   tau(  18) = (  0.1743560  0.1796930  0.1815260  )

     number of k points=     1  Methfessel-Paxton smearing, width (Ry)=  0.0010
                       cart. coord. in units 2pi/alat
        k(    1) = (   0.0000000   0.0000000   0.0000000), wk =   2.0000000

                       cryst. coord.
        k(    1) = (   0.0000000   0.0000000   0.0000000), wk =   2.0000000

     Check: negative core charge=   -0.000028

     Initial potential from superposition of free atoms

     starting charge     165.9995, renormalised to     169.0000
     Starting wfcs are  126 randomized atomic wfcs
     Checking if some PAW data can be deallocated...

     Self-consistent Calculation

     iteration #  1     ecut=    30.00 Ry     beta= 0.70
     Davidson diagonalization with overlap

     ethr =  1.00E-02,  avg # of iterations =  2.0

     total energy              =   -1810.05698075 Ry
     estimated scf accuracy    <       8.14150200 Ry

[...]

     total energy              =   -1815.45105673 Ry
     estimated scf accuracy    <       0.00030300 Ry

     iteration # 40     ecut=    30.00 Ry     beta= 0.70
     Davidson diagonalization with overlap

     ethr =  1.18E-09,  avg # of iterations =  1.0

     End of self-consistent calculation

          k = 0.0000 0.0000 0.0000 (  2002 PWs)   bands (ev):

   -72.0698 -72.0674 -71.9973 -71.9955 -71.9617 -71.7908 -40.9382 -40.9363
   -40.9172 -40.8979 -40.8915 -40.8276 -40.8057 -40.7005 -40.6961 -40.6867
   -40.6721 -40.6554 -40.6355 -40.5470 -40.5205 -40.4389 -40.4316 -40.4218
   -16.6517 -16.5532 -16.2786 -16.2769 -16.1937 -16.1339 -15.8701 -11.2670
   -11.0525 -10.9462 -10.6559 -10.5968  -0.0089   0.4462   0.7887   1.0240
     1.0695   1.3487   1.4155   1.4335   1.4712   1.4971   1.5407   1.6649
     1.7391   1.8268   1.9885   1.9942   2.1964   2.2637   2.3974   2.4209
     2.5107   2.6876   2.9536   3.1113   3.1592   3.3519   3.4776   3.5362
     3.5655   3.8675   4.0672   4.2019   4.2382   4.4506   4.5015   5.1065
     7.0259   7.0384   7.0709   7.1951   7.2082   7.2510   7.2531   7.3099
     7.3466   7.4243   7.4694   7.5459   7.6232   7.6271   7.7059   7.8335
     8.0901   8.1471   8.1697   8.3970   8.4645   8.5956   8.7291   8.9203
     8.9497   9.3606   9.4995   9.5787  10.0310  10.1201

     occupation numbers
     1.0000   1.0000   1.0000   1.0000   1.0000   1.0000   1.0000   1.0000
     1.0000   1.0000   1.0000   1.0000   1.0000   1.0000   1.0000   1.0000
     1.0000   1.0000   1.0000   1.0000   1.0000   1.0000   1.0000   1.0000
     1.0000   1.0000   1.0000   1.0000   1.0000   1.0000   1.0000   1.0000
     1.0000   1.0000   1.0000   1.0000   1.0000   1.0000   1.0000   1.0000
     1.0000   1.0000   1.0000   1.0000   1.0000   1.0000   1.0000   1.0000
     1.0000   1.0000   1.0000   1.0000   1.0000   1.0000   1.0000   1.0000
     1.0000   1.0000   1.0000   1.0000   1.0000   1.0000   1.0000   1.0000
     1.0000   1.0000   1.0000   1.0000   1.0000   1.0000   1.0000   1.0000
     1.0000   1.0000   1.0000   1.0000   1.0000   1.0000   1.0000   1.0000
     1.0000   1.0000   1.0000   1.0000   0.3520   0.1480  -0.0000  -0.0000
    -0.0000  -0.0000  -0.0000  -0.0000  -0.0000  -0.0000  -0.0000  -0.0000
    -0.0000  -0.0000  -0.0000  -0.0000  -0.0000  -0.0000

     the Fermi energy is     7.6208 ev

!    total energy              =   -1815.45105976 Ry
     estimated scf accuracy    <       0.00000051 Ry
     smearing contrib. (-TS)   =      -0.00038333 Ry
     internal energy E=F+TS    =   -1815.45067643 Ry

     The total energy is F=E-TS. E is the sum of the following terms:
     one-electron contribution =   -1006.29101328 Ry
     hartree contribution      =     575.71921268 Ry
     xc contribution           =    -259.82802572 Ry
     ewald contribution        =   -1077.41732787 Ry
     one-center paw contrib.   =     -47.63352224 Ry
      -> PAW hartree energy AE =     141.64919166 Ry
      -> PAW hartree energy PS =    -141.15721624 Ry
      -> PAW xc energy AE      =     -84.83164450 Ry
      -> PAW xc energy PS      =      36.70614684 Ry
      -> total E_H with PAW    =     576.21118810 Ry
      -> total E_XC with PAW   =    -307.95352338 Ry

     convergence has been achieved in  40 iterations

     Forces acting on atoms (cartesian axes, Ry/au):

     atom    1 type  1   force =     0.00000000   -0.00578306   -0.00312454
     atom    2 type  1   force =    -0.04051647    0.02846843   -0.04648241
     atom    3 type  1   force =     0.04051647    0.02846843   -0.04648241
     atom    4 type  1   force =    -0.05710898   -0.02876596    0.04013407
     atom    5 type  1   force =     0.05710898   -0.02876596    0.04013407
     atom    6 type  1   force =     0.00000000   -0.00526643    0.05856893
     atom    7 type  2   force =     0.00000000   -0.01960223    0.00668452
     atom    8 type  2   force =     0.00000000    0.02648838   -0.02570545
     atom    9 type  2   force =    -0.03629624   -0.00791995    0.00034814
     atom   10 type  2   force =     0.03629624   -0.00791995    0.00034814
     atom   11 type  2   force =     0.00000000    0.02210212   -0.01935704
     atom   12 type  3   force =    -0.00068429   -0.00311427   -0.00252799
     atom   13 type  3   force =     0.00068429   -0.00311427   -0.00252799
     atom   14 type  3   force =    -0.01376822    0.00596383   -0.00517906
     atom   15 type  3   force =     0.01376822    0.00596383   -0.00517906
     atom   16 type  3   force =     0.02814010    0.00731575    0.01402893
     atom   17 type  3   force =     0.00000000   -0.02183447   -0.01770979
     atom   18 type  3   force =    -0.02814010    0.00731575    0.01402893
     The non-local contrib.  to forces
     atom    1 type  1   force =     0.00000000    0.02411608    0.02849890
     atom    2 type  1   force =    -0.04688549    0.01448073   -0.08918532
     atom    3 type  1   force =     0.04688549    0.01448073   -0.08918532
     atom    4 type  1   force =    -0.00128178   -0.00146235   -0.03837484
     atom    5 type  1   force =     0.00128178   -0.00146235   -0.03837484
     atom    6 type  1   force =     0.00000000    0.03293651    0.04420650
     atom    7 type  2   force =     0.00000000    0.08319770    0.18088929
     atom    8 type  2   force =     0.00000000    0.15912001   -0.12618311
     atom    9 type  2   force =    -0.09518685   -0.05609530    0.04871189
     atom   10 type  2   force =     0.09518685   -0.05609530    0.04871189
     atom   11 type  2   force =     0.00000000   -0.06712104    0.04696107
     atom   12 type  3   force =     0.08281964    0.09941084    0.11617313
     atom   13 type  3   force =    -0.08281964    0.09941084    0.11617313
     atom   14 type  3   force =    -0.02619994    0.06466210   -0.05224891
     atom   15 type  3   force =     0.02619994    0.06466210   -0.05224891
     atom   16 type  3   force =     0.04135266   -0.16689111   -0.11260903
     atom   17 type  3   force =     0.00000000   -0.17901396   -0.12379945
     atom   18 type  3   force =    -0.04135266   -0.16689111   -0.11260903
     The ionic contribution  to forces
     atom    1 type  1   force =     0.00000000    0.14803389    2.31681362
     atom    2 type  1   force =    -1.54887149   -0.69732984    0.64472155
     atom    3 type  1   force =     1.54887149   -0.69732984    0.64472155
     atom    4 type  1   force =     1.71083698   -0.30763743   -1.74977205
     atom    5 type  1   force =    -1.71083698   -0.30763743   -1.74977205
     atom    6 type  1   force =    -0.00000000    2.10163732   -0.59398976
     atom    7 type  2   force =    -0.00000000   -3.70924597   -3.19122768
     atom    8 type  2   force =    -0.00000000   -1.24442240    0.92602046
     atom    9 type  2   force =    -0.61740470   -0.04692308    0.08062097
     atom   10 type  2   force =     0.61740470   -0.04692308    0.08062097
     atom   11 type  2   force =    -0.00000000    1.26719387   -1.68341465
     atom   12 type  3   force =    -1.14002652   -2.92659151   -2.53714896
     atom   13 type  3   force =     1.14002652   -2.92659151   -2.53714896
     atom   14 type  3   force =    -1.04193720    0.03384366   -0.22318180
     atom   15 type  3   force =     1.04193720    0.03384366   -0.22318180
     atom   16 type  3   force =     0.08426537    3.65027679    3.71609815
     atom   17 type  3   force =    -0.00000000    2.02552610    2.36312231
     atom   18 type  3   force =    -0.08426537    3.65027679    3.71609815
     The local contribution  to forces
     atom    1 type  1   force =    -0.00081214   -0.17768675   -2.34753240
     atom    2 type  1   force =     1.54967061    0.71354312   -0.61436812
     atom    3 type  1   force =    -1.54866988    0.71352978   -0.61436791
     atom    4 type  1   force =    -1.76981760    0.27770267    1.83033075
     atom    5 type  1   force =     1.76898754    0.27762755    1.83041257
     atom    6 type  1   force =     0.00083048   -2.14073827    0.62048701
     atom    7 type  2   force =     0.00073956    3.60659893    3.01835810
     atom    8 type  2   force =    -0.00018727    1.11357767   -0.82688694
     atom    9 type  2   force =     0.67469130    0.09442098   -0.12835993
     atom   10 type  2   force =    -0.67457498    0.09488919   -0.12881077
     atom   11 type  2   force =    -0.00021596   -1.17846301    1.61732041
     atom   12 type  3   force =     1.05617431    2.82425655    2.41856933
     atom   13 type  3   force =    -1.05693749    2.82391510    2.41833361
     atom   14 type  3   force =     1.05426527   -0.09241626    0.27018245
     atom   15 type  3   force =    -1.05407097   -0.09286861    0.27068179
     atom   16 type  3   force =    -0.09783066   -3.47618001   -3.58958387
     atom   17 type  3   force =     0.00071764   -1.86809171   -2.25681905
     atom   18 type  3   force =     0.09702218   -3.47587211   -3.58926531
     The core correction contribution to forces
     atom    1 type  1   force =     0.00000045   -0.00022438   -0.00090379
     atom    2 type  1   force =     0.00596508   -0.00209507    0.01227461
     atom    3 type  1   force =    -0.00596376   -0.00209488    0.01227574
     atom    4 type  1   force =     0.00317819    0.00269665   -0.00205731
     atom    5 type  1   force =    -0.00317807    0.00269569   -0.00205636
     atom    6 type  1   force =    -0.00000015    0.00084653   -0.01214460
     atom    7 type  2   force =    -0.00000013   -0.00031084   -0.00155586
     atom    8 type  2   force =    -0.00000017   -0.00184628    0.00144159
     atom    9 type  2   force =     0.00139925    0.00063779   -0.00054137
     atom   10 type  2   force =    -0.00139878    0.00063753   -0.00054082
     atom   11 type  2   force =    -0.00000048    0.00063117   -0.00033439
     atom   12 type  3   force =     0.00000000    0.00000000    0.00000000
     atom   13 type  3   force =     0.00000000    0.00000000    0.00000000
     atom   14 type  3   force =     0.00000000    0.00000000    0.00000000
     atom   15 type  3   force =     0.00000000    0.00000000    0.00000000
     atom   16 type  3   force =     0.00000000    0.00000000    0.00000000
     atom   17 type  3   force =     0.00000000    0.00000000    0.00000000
     atom   18 type  3   force =     0.00000000    0.00000000    0.00000000
     The Hubbard contrib.    to forces
     atom    1 type  1   force =     0.00000000    0.00000000    0.00000000
     atom    2 type  1   force =     0.00000000    0.00000000    0.00000000
     atom    3 type  1   force =     0.00000000    0.00000000    0.00000000
     atom    4 type  1   force =     0.00000000    0.00000000    0.00000000
     atom    5 type  1   force =     0.00000000    0.00000000    0.00000000
     atom    6 type  1   force =     0.00000000    0.00000000    0.00000000
     atom    7 type  2   force =     0.00000000    0.00000000    0.00000000
     atom    8 type  2   force =     0.00000000    0.00000000    0.00000000
     atom    9 type  2   force =     0.00000000    0.00000000    0.00000000
     atom   10 type  2   force =     0.00000000    0.00000000    0.00000000
     atom   11 type  2   force =     0.00000000    0.00000000    0.00000000
     atom   12 type  3   force =     0.00000000    0.00000000    0.00000000
     atom   13 type  3   force =     0.00000000    0.00000000    0.00000000
     atom   14 type  3   force =     0.00000000    0.00000000    0.00000000
     atom   15 type  3   force =     0.00000000    0.00000000    0.00000000
     atom   16 type  3   force =     0.00000000    0.00000000    0.00000000
     atom   17 type  3   force =     0.00000000    0.00000000    0.00000000
     atom   18 type  3   force =     0.00000000    0.00000000    0.00000000
     The SCF correction term to forces
     atom    1 type  1   force =     0.00080621    0.00001873   -0.00000100
     atom    2 type  1   force =    -0.00037216   -0.00009318    0.00007717
     atom    3 type  1   force =    -0.00058386   -0.00007343    0.00007098
     atom    4 type  1   force =    -0.00003094   -0.00001640   -0.00000066
     atom    5 type  1   force =     0.00084853    0.00004272   -0.00006732
     atom    6 type  1   force =    -0.00080549    0.00009211    0.00000964
     atom    7 type  2   force =    -0.00075454    0.00019857    0.00022054
     atom    8 type  2   force =     0.00018756    0.00010000   -0.00009758
     atom    9 type  2   force =     0.00021158    0.00008322   -0.00009746
     atom   10 type  2   force =    -0.00031474   -0.00039060    0.00038066
     atom   11 type  2   force =     0.00019705   -0.00009824    0.00011039
     atom   12 type  3   force =     0.00034797   -0.00014047   -0.00013018
     atom   13 type  3   force =     0.00041460    0.00018288    0.00012266
     atom   14 type  3   force =     0.00010696   -0.00008985    0.00006613
     atom   15 type  3   force =    -0.00029465    0.00037211   -0.00042732
     atom   16 type  3   force =     0.00035242    0.00015766    0.00012059
     atom   17 type  3   force =    -0.00070403   -0.00021428   -0.00021374
     atom   18 type  3   force =     0.00045543   -0.00016416   -0.00019207

     Total force =     0.181529     Total SCF correction =     0.002367

     Computing stress (Cartesian axis) and pressure

          total   stress  (Ry/bohr**3)                   (kbar)     P=     -585.81
  -0.00451031   0.00000000   0.00000000         -663.49        0.00        0.00
   0.00000000  -0.00378961   0.00008393            0.00     -557.47       12.35
   0.00000000   0.00008393  -0.00364677            0.00       12.35     -536.46

     kinetic stress (kbar)  31130.07      0.00      0.00
                                0.00  31417.72    -63.91
                                0.00    -63.91  31423.45

     local   stress (kbar) -36971.53     -0.05     -0.05
                               -0.05  -7767.04   6545.61
                               -0.05   6545.61  -8947.47

     nonloc. stress (kbar)  11444.94      0.00      0.00
                                0.00  11277.44     23.47
                                0.00     23.47  11267.67

     hartree stress (kbar)  27325.22      0.01      0.03
                                0.01  15465.48  -2556.34
                                0.03  -2556.34  15934.93

     exc-cor stress (kbar)  -5860.76      0.00      0.00
                                0.00  -5875.70     -9.45
                                0.00     -9.45  -5874.89

     corecor stress (kbar)  -2418.99     -0.00     -0.00
                               -0.00  -2413.75     -1.15
                               -0.00     -1.15  -2413.40

     ewald   stress (kbar) -25312.44      0.00     -0.00
                                0.00 -42661.61  -3925.87
                               -0.00  -3925.87 -41926.75

     hubbard stress (kbar)      0.00      0.00      0.00
                                0.00      0.00      0.00
                                0.00      0.00      0.00

     DFT-D   stress (kbar)      0.00      0.00      0.00
                                0.00      0.00      0.00
                                0.00      0.00      0.00

     XDM     stress (kbar)      0.00      0.00      0.00
                                0.00      0.00      0.00
                                0.00      0.00      0.00

     dft-nl  stress (kbar)      0.00      0.00      0.00
                                0.00      0.00      0.00
                                0.00      0.00      0.00

     TS-vdW  stress (kbar)      0.00      0.00      0.00
                                0.00      0.00      0.00
                                0.00      0.00      0.00

[...]

                                0.00      0.00      0.00

     Writing all to output data dir new_calculations/myprefix.save/

     General routines

     Parallel routines

     PAW routines

   This run was terminated on:   7:58:39  21May2023

   JOB DONE.