     Program PWSCF v.7.0 starts on 20May2023 at 10: 1:38

     Reading input from espresso_8353.pwi
Warning: card &CELL ignored
Warning: card / ignored

     Current dimensions of program PWSCF are:
     Max number of different atomic species (ntypx) = 10
     Max number of k-points (npk) =  40000
     Max angular momentum in pseudopotentials (lmaxx) =  4

     gamma-point specific algorithms are used
     Message from routine setup:
     using ibrav=0 with symmetry is DISCOURAGED, use correct ibrav instead

     Subspace diagonalization in iterative solution of the eigenvalue problem:
     a serial algorithm will be used

     Using Slab Decomposition

     bravais-lattice index     =            0
     lattice parameter (alat)  =      11.4659  a.u.
     unit-cell volume          =     770.7544 (a.u.)^3
     number of atoms/cell      =            5
     number of atomic types    =            3
     number of electrons       =        76.00
     number of Kohn-Sham states=           46
     kinetic-energy cutoff     =      30.0000  Ry
     charge density cutoff     =     240.0000  Ry
     scf convergence threshold =      1.0E-06
     mixing beta               =       0.7000
     number of iterations used =            8  plain     mixing
     Exchange-correlation= SLA  PW   PBE  PBE
                           (   1   4   3   4   0   0   0)

     celldm(1)=  11.465932  celldm(2)=   0.000000  celldm(3)=   0.000000
     celldm(4)=   0.000000  celldm(5)=   0.000000  celldm(6)=   0.000000

     crystal axes: (cart. coord. in units of alat)
               a(1) = (   1.000000   0.000000   0.000000 )
               a(2) = (   0.745698   0.666284   0.000000 )
               a(3) = (   0.227182   0.086709   0.767413 )

     reciprocal axes: (cart. coord. in units 2 pi/alat)
               b(1) = (  1.000000 -1.119191 -0.169580 )
               b(2) = (  0.000000  1.500863 -0.169580 )
               b(3) = (  0.000000  0.000000  1.303080 )

     PseudoPot. # 1 for Sr read from file:
     /home/pragov/projects/rrg-bengioy-ad/pragov/crystal_structure_design/SSSP/Sr_pbe_v1.uspp.F.UPF
     MD5 check sum: 6b418c05fbe9db5448babca5e47b7a5b
     Pseudo is Ultrasoft + core correction, Zval = 10.0
     Generated by new atomic code, or converted to UPF format
     Using radial grid of  883 points,  6 beta functions with:
                l(1) =   0
                l(2) =   0
                l(3) =   1
                l(4) =   1
                l(5) =   2
                l(6) =   2
     Q(r) pseudized with  6 coefficients,  rinner =    1.400   1.400   1.400
                                                       1.400   1.400

     PseudoPot. # 2 for Cu read from file:
     /home/pragov/projects/rrg-bengioy-ad/pragov/crystal_structure_design/SSSP/Cu_pbe_v1.2.uspp.F.UPF
     MD5 check sum: 6e991ff952a84172a2a52a1c1e996048
     Pseudo is Ultrasoft + core correction, Zval = 19.0
     Generated by new atomic code, or converted to UPF format
     Using radial grid of  867 points,  6 beta functions with:
                l(1) =   0
                l(2) =   0
                l(3) =   1
                l(4) =   1
                l(5) =   2
                l(6) =   2
     Q(r) pseudized with  8 coefficients,  rinner =    1.150   1.150   1.150
                                                       1.150   1.150

     PseudoPot. # 3 for Sn read from file:
     /home/pragov/projects/rrg-bengioy-ad/pragov/crystal_structure_design/SSSP/Sn_pbe_v1.uspp.F.UPF
     MD5 check sum: 4cf58ce39ec5d5d420df3dd08604eb00
     Pseudo is Ultrasoft + core correction, Zval = 14.0
     Generated by new atomic code, or converted to UPF format
     Using radial grid of  891 points,  6 beta functions with:
                l(1) =   0
                l(2) =   0
                l(3) =   1
                l(4) =   1
                l(5) =   2
                l(6) =   2
     Q(r) pseudized with  6 coefficients,  rinner =    1.200   1.200   1.200
                                                       1.200   1.200

     atomic species   valence    mass     pseudopotential
        Sr            10.00    87.62000     Sr( 1.00)
        Cu            19.00    63.54600     Cu( 1.00)
        Sn            14.00   118.71000     Sn( 1.00)

      2 Sym. Ops., with inversion, found

                                    s                        frac. trans.

      isym =  1     identity

 cryst.   s( 1) = (     1          0          0      )
                  (     0          1          0      )
                  (     0          0          1      )

 cart.    s( 1) = (  1.0000000  0.0000000  0.0000000 )
                  (  0.0000000  1.0000000  0.0000000 )
                  (  0.0000000  0.0000000  1.0000000 )

      isym =  2     inversion

 cryst.   s( 2) = (    -1          0          0      )
                  (     0         -1          0      )
                  (     0          0         -1      )

 cart.    s( 2) = ( -1.0000000 -0.0000000 -0.0000000 )
                  (  0.0000000 -1.0000000 -0.0000000 )
                  (  0.0000000  0.0000000 -1.0000000 )

   Cartesian axes

     site n.     atom                  positions (alat units)
         1           Sr  tau(   1) = (   0.0000000   0.0000000   0.0000000  )
         2           Cu  tau(   2) = (   1.4866065   0.5673955   0.6621036  )
         3           Cu  tau(   3) = (   0.4862736   0.1855968   0.1053090  )
         4           Sn  tau(   4) = (   0.7494260   0.2860346   0.4396545  )
         5           Sn  tau(   5) = (   1.2234540   0.4669577   0.3277581  )

   Crystallographic axes

     site n.     atom                  positions (cryst. coord.)
         1           Sr  tau(   1) = (  0.0000000  0.0000000  0.0000000  )
         2           Cu  tau(   2) = (  0.7393030  0.7393030  0.8627740  )
         3           Cu  tau(   3) = (  0.2606970  0.2606970  0.1372260  )
         4           Sn  tau(   4) = (  0.3547420  0.3547420  0.5729050  )
         5           Sn  tau(   5) = (  0.6452580  0.6452580  0.4270950  )

     number of k points=     1  Methfessel-Paxton smearing, width (Ry)=  0.0010
                       cart. coord. in units 2pi/alat
        k(    1) = (   0.0000000   0.0000000   0.0000000), wk =   2.0000000

                       cryst. coord.
        k(    1) = (   0.0000000   0.0000000   0.0000000), wk =   2.0000000

     Check: negative core charge=   -0.000002

     Initial potential from superposition of free atoms

     starting charge      71.9663, renormalised to      76.0000

     negative rho (up, down):  6.729E-02 0.000E+00
     Starting wfcs are   57 randomized atomic wfcs

     Self-consistent Calculation

     iteration #  1     ecut=    30.00 Ry     beta= 0.70
     Davidson diagonalization with overlap

     ethr =  1.00E-02,  avg # of iterations =  3.0

     negative rho (up, down):  6.281E-02 0.000E+00

     total energy              =   -1174.34147486 Ry
     estimated scf accuracy    <      39.02901669 Ry

[...]

     total energy              =   -1203.95508329 Ry
     estimated scf accuracy    <       0.00002293 Ry

     iteration # 14     ecut=    30.00 Ry     beta= 0.70
     Davidson diagonalization with overlap

     ethr =  3.02E-08,  avg # of iterations =  2.0

[...]

     End of self-consistent calculation

          k = 0.0000 0.0000 0.0000 (  1064 PWs)   bands (ev):

  -101.7213-101.7175 -59.1535 -59.1501 -59.0893 -59.0537 -59.0122 -59.0000
   -24.8090  -9.9744  -9.9328  -9.9313  -9.9078  -9.8682  -9.8459  -9.8161
    -9.8000  -9.7877  -9.7836  -6.9194  -6.8834  -6.6926   1.4077   5.1676
     6.8100   7.7026   7.7849   7.8366   7.9067   8.1723   8.2127   8.4413
     8.4802   8.6381   8.6950   9.9543  10.1873  10.2875  11.6456  12.9431
    13.2369  13.9364  14.1195  14.6129  15.5444  16.4167

     occupation numbers
     1.0000   1.0000   1.0000   1.0000   1.0000   1.0000   1.0000   1.0000
     1.0000   1.0000   1.0000   1.0000   1.0000   1.0000   1.0000   1.0000
     1.0000   1.0000   1.0000   1.0000   1.0000   1.0000   1.0000   1.0000
     1.0000   1.0000   1.0000   1.0000   1.0000   1.0000   1.0000   1.0000
     1.0000   1.0000   1.0000   1.0000   1.0000   1.0000  -0.0000  -0.0000
    -0.0000  -0.0000  -0.0000  -0.0000  -0.0000  -0.0000

     the Fermi energy is    11.0022 ev

!    total energy              =   -1203.95508672 Ry
     estimated scf accuracy    <       0.00000054 Ry
     smearing contrib. (-TS)   =       0.00000000 Ry
     internal energy E=F+TS    =   -1203.95508672 Ry

     The total energy is F=E-TS. E is the sum of the following terms:
     one-electron contribution =    -946.08460906 Ry
     hartree contribution      =     513.89519456 Ry
     xc contribution           =    -191.09951112 Ry
     ewald contribution        =    -580.66616110 Ry

     convergence has been achieved in  14 iterations

     negative rho (up, down):  6.568E-02 0.000E+00

     Forces acting on atoms (cartesian axes, Ry/au):

     atom    1 type  1   force =     0.00000000    0.00000000    0.00000000
     atom    2 type  2   force =    -0.01381658   -0.00528302    0.00982002
     atom    3 type  2   force =     0.01381658    0.00528302   -0.00982002
     atom    4 type  3   force =    -0.08723999   -0.03328412   -0.02606023
     atom    5 type  3   force =     0.08723999    0.03328412    0.02606023
     The non-local contrib.  to forces
     atom    1 type  1   force =     0.00000000    0.00000000    0.00000000
     atom    2 type  2   force =     0.01332794    0.00507756    0.13457774
     atom    3 type  2   force =    -0.01332794   -0.00507756   -0.13457774
     atom    4 type  3   force =    -0.01082482   -0.00412198    0.27831056
     atom    5 type  3   force =     0.01082482    0.00412198   -0.27831056
     The ionic contribution  to forces
     atom    1 type  1   force =     0.00000000    0.00000000   -0.00000000
     atom    2 type  2   force =    -6.56193566   -2.50450448   -8.57366939
     atom    3 type  2   force =     6.56193566    2.50450448    8.57366939
     atom    4 type  3   force =    17.10837374    6.52978036  -12.30349859
     atom    5 type  3   force =   -17.10837374   -6.52978036   12.30349859
     The local contribution  to forces
     atom    1 type  1   force =    -0.00048885   -0.00021325    0.00054013
     atom    2 type  2   force =     6.53583066    2.49450925    8.44839298
     atom    3 type  2   force =    -6.53340862   -2.49362271   -8.44814526
     atom    4 type  3   force =   -17.18508089   -6.55902909   12.00627418
     atom    5 type  3   force =    17.18524201    6.55916088  -12.00722644
     The core correction contribution to forces
     atom    1 type  1   force =    -0.00000402   -0.00000248    0.00001013
     atom    2 type  2   force =    -0.00018519   -0.00007058   -0.00010565
     atom    3 type  2   force =     0.00018567    0.00007083    0.00010535
     atom    4 type  3   force =    -0.00026742   -0.00010152   -0.00796936
     atom    5 type  3   force =     0.00026809    0.00010359    0.00795987
     The Hubbard contrib.    to forces
     atom    1 type  1   force =     0.00000000    0.00000000    0.00000000
     atom    2 type  2   force =     0.00000000    0.00000000    0.00000000
     atom    3 type  2   force =     0.00000000    0.00000000    0.00000000
     atom    4 type  3   force =     0.00000000    0.00000000    0.00000000
     atom    5 type  3   force =     0.00000000    0.00000000    0.00000000
     The SCF correction term to forces
     atom    1 type  1   force =     0.00043808    0.00018906   -0.00039274
     atom    2 type  2   force =    -0.00106243   -0.00040193    0.00051740
     atom    3 type  2   force =    -0.00177629   -0.00069919   -0.00097870
     atom    4 type  3   force =     0.00053015    0.00016808    0.00094853
     atom    5 type  3   force =    -0.00075043   -0.00034198    0.00026431

     Total force =     0.139377     Total SCF correction =     0.002916

     Computing stress (Cartesian axis) and pressure

     negative rho (up, down):  6.568E-02 0.000E+00
          total   stress  (Ry/bohr**3)                   (kbar)     P=     -227.24
  -0.00184106   0.00009536  -0.00006527         -270.83       14.03       -9.60
   0.00009536  -0.00205454  -0.00002490           14.03     -302.23       -3.66
  -0.00006527  -0.00002490  -0.00073857           -9.60       -3.66     -108.65

     kinetic stress (kbar)  18700.08     90.46    -29.13
                               90.46  18497.58    -11.12
                              -29.13    -11.12  18773.07

     local   stress (kbar)  16595.85  23378.31 -17616.85
                            23378.31 -35733.72  -6723.85
                           -17616.85  -6723.85 -38744.61

     nonloc. stress (kbar)  13316.20    -31.55     90.09
                              -31.55  13386.82     34.39
                               90.09     34.39  13476.20

     hartree stress (kbar)  15848.99 -11138.67   8387.29
                           -11138.67  40781.58   3201.19
                             8387.29   3201.19  41450.74

     exc-cor stress (kbar)   4296.04      0.08      2.24
                                0.08   4295.86      0.86
                                2.24      0.86   4304.54

     corecor stress (kbar) -13032.04      0.05      0.01
                                0.05 -13032.15      0.01
                                0.01      0.01 -13037.63

     ewald   stress (kbar) -55995.95 -12284.65   9156.75
                           -12284.65 -28498.21   3494.87
                             9156.75   3494.87 -26330.95

     hubbard stress (kbar)      0.00      0.00      0.00
                                0.00      0.00      0.00
                                0.00      0.00      0.00

     DFT-D   stress (kbar)      0.00      0.00      0.00
                                0.00      0.00      0.00
                                0.00      0.00      0.00

     XDM     stress (kbar)      0.00      0.00      0.00
                                0.00      0.00      0.00
                                0.00      0.00      0.00

     dft-nl  stress (kbar)      0.00      0.00      0.00
                                0.00      0.00      0.00
                                0.00      0.00      0.00

     TS-vdW  stress (kbar)      0.00      0.00      0.00
                                0.00      0.00      0.00
                                0.00      0.00      0.00

[...]

                                0.00      0.00      0.00

     Writing all to output data dir new_calculations/myprefix.save/

     General routines

     Parallel routines

   This run was terminated on:  10: 1:53  20May2023

   JOB DONE.