     Program PWSCF v.7.0 starts on 20May2023 at 22:56:59

     Reading input from espresso_24191.pwi
Warning: card &CELL ignored
Warning: card / ignored

     Current dimensions of program PWSCF are:
     Max number of different atomic species (ntypx) = 10
     Max number of k-points (npk) =  40000
     Max angular momentum in pseudopotentials (lmaxx) =  4

     gamma-point specific algorithms are used
     Message from routine setup:
     using ibrav=0 with symmetry is DISCOURAGED, use correct ibrav instead

     Subspace diagonalization in iterative solution of the eigenvalue problem:
     a serial algorithm will be used

     Using Slab Decomposition

     bravais-lattice index     =            0
     lattice parameter (alat)  =      14.1160  a.u.
     unit-cell volume          =    2165.2903 (a.u.)^3
     number of atoms/cell      =           17
     number of atomic types    =            3
     number of electrons       =       136.00
     number of Kohn-Sham states=           82
     kinetic-energy cutoff     =      30.0000  Ry
     charge density cutoff     =     240.0000  Ry
     scf convergence threshold =      1.0E-06
     mixing beta               =       0.7000
     number of iterations used =            8  plain     mixing
     Exchange-correlation= SLA  PW   PBE  PBE
                           (   1   4   3   4   0   0   0)

     celldm(1)=  14.116033  celldm(2)=   0.000000  celldm(3)=   0.000000
     celldm(4)=   0.000000  celldm(5)=   0.000000  celldm(6)=   0.000000

     crystal axes: (cart. coord. in units of alat)
               a(1) = (   1.000000   0.000000   0.000000 )
               a(2) = (  -0.333333   0.942809   0.000000 )
               a(3) = (  -0.333333  -0.471405   0.816497 )

     reciprocal axes: (cart. coord. in units 2 pi/alat)
               b(1) = (  1.000000  0.353553  0.612372 )
               b(2) = (  0.000000  1.060660  0.612372 )
               b(3) = (  0.000000  0.000000  1.224745 )

     PseudoPot. # 1 for Ce read from file:
     /home/pragov/projects/rrg-bengioy-ad/pragov/crystal_structure_design/SSSP/Ce.GGA-PBE-paw-v1.0.UPF
     MD5 check sum: f2b950f613061344c13339c8d844425d
     Pseudo is Projector augmented-wave + core cor, Zval = 12.0
     Generated using ATOMPAW code
     Shape of augmentation charge: BESSEL
     Using radial grid of 1102 points,  8 beta functions with:
                l(1) =   0
                l(2) =   0
                l(3) =   1
                l(4) =   1
                l(5) =   2
                l(6) =   2
                l(7) =   3
                l(8) =   3
     Q(r) pseudized with 0 coefficients

     PseudoPot. # 2 for As read from file:
     /home/pragov/projects/rrg-bengioy-ad/pragov/crystal_structure_design/SSSP/As.pbe-n-rrkjus_psl.0.2.UPF
     MD5 check sum: 767315de957beeeb34f87d97bf945c8f
     Pseudo is Ultrasoft + core correction, Zval =  5.0
     Generated using "atomic" code by A. Dal Corso  v.5.0.99 svn rev. 10869
     Using radial grid of 1209 points,  4 beta functions with:
                l(1) =   0
                l(2) =   0
                l(3) =   1
                l(4) =   1
     Q(r) pseudized with 0 coefficients

     PseudoPot. # 3 for Os read from file:
     /home/pragov/projects/rrg-bengioy-ad/pragov/crystal_structure_design/SSSP/Os_pbe_v1.2.uspp.F.UPF
     MD5 check sum: a3fb40a04f0c37c25c34bbc47164c9a8
     Pseudo is Ultrasoft + core correction, Zval = 16.0
     Generated by new atomic code, or converted to UPF format
     Using radial grid of  983 points,  8 beta functions with:
                l(1) =   0
                l(2) =   0
                l(3) =   1
                l(4) =   1
                l(5) =   2
                l(6) =   2
                l(7) =   3
                l(8) =   3
     Q(r) pseudized with  8 coefficients,  rinner =    1.150   1.150   1.150
                                                       1.150   1.150   1.150
                                                       1.150

     atomic species   valence    mass     pseudopotential
        Ce            12.00   140.11600     Ce( 1.00)
        As             5.00    74.92159     As( 1.00)
        Os            16.00   190.23000     Os( 1.00)

      2 Sym. Ops., with inversion, found

                                    s                        frac. trans.

      isym =  1     identity

 cryst.   s( 1) = (     1          0          0      )
                  (     0          1          0      )
                  (     0          0          1      )

 cart.    s( 1) = (  1.0000000  0.0000000  0.0000000 )
                  (  0.0000000  1.0000000 -0.0000000 )
                  (  0.0000000  0.0000000  1.0000000 )

      isym =  2     inversion

 cryst.   s( 2) = (    -1          0          0      )
                  (     0         -1          0      )
                  (     0          0         -1      )

 cart.    s( 2) = ( -1.0000000 -0.0000000 -0.0000000 )
                  (  0.0000000 -1.0000000  0.0000000 )
                  (  0.0000000  0.0000000 -1.0000000 )

   Cartesian axes

     site n.     atom                  positions (alat units)
         1           Ce  tau(   1) = (   0.0000000   0.0000000   0.0000000  )
         2           As  tau(   2) = (  -0.0029527  -0.2150562   0.6947447  )
         3           As  tau(   3) = (   0.3362860   0.6864607   0.1217519  )
         4           As  tau(   4) = (   0.2017730   0.0744682   0.6947447  )
         5           As  tau(   5) = (   0.1315603   0.3969363   0.1217519  )
         6           As  tau(   6) = (  -0.2017727   0.6389011   0.2828801  )
         7           As  tau(   7) = (   0.5351060  -0.1674966   0.5336164  )
         8           As  tau(   8) = (   0.0029517   0.4941385   0.5336164  )
         9           As  tau(   9) = (   0.3303817  -0.0227340   0.2828801  )
        10           As  tau(  10) = (   0.6696193   0.2336144   0.1611283  )
        11           As  tau(  11) = (  -0.3362860   0.2377901   0.6553683  )
        12           As  tau(  12) = (   0.4648943   0.3783776   0.4118637  )
        13           As  tau(  13) = (  -0.1315610   0.0930270   0.4046328  )
        14           Os  tau(  14) = (   0.5000000   0.7071068   0.4082483  )
        15           Os  tau(  15) = (   0.5000000   0.0000000   0.0000000  )
        16           Os  tau(  16) = (   0.8333333   0.4714045   0.0000000  )
        17           Os  tau(  17) = (   0.1666667   0.2357023   0.4082483  )

   Crystallographic axes

     site n.     atom                  positions (cryst. coord.)
         1           Ce  tau(   1) = (  0.0000000  0.0000000  0.0000000  )
         2           As  tau(   2) = (  0.3464560  0.1973410  0.8508850  )
         3           As  tau(   3) = (  0.6535440  0.8026590  0.1491150  )
         4           As  tau(   4) = (  0.6535440  0.5044280  0.8508850  )
         5           As  tau(   5) = (  0.3464560  0.4955720  0.1491150  )
         6           As  tau(   6) = (  0.1973410  0.8508850  0.3464560  )
         7           As  tau(   7) = (  0.8026590  0.1491150  0.6535440  )
         8           As  tau(   8) = (  0.5044280  0.8508850  0.6535440  )
         9           As  tau(   9) = (  0.4955720  0.1491150  0.3464560  )
        10           As  tau(  10) = (  0.8508850  0.3464560  0.1973410  )
        11           As  tau(  11) = (  0.1491150  0.6535440  0.8026590  )
        12           As  tau(  12) = (  0.8508850  0.6535440  0.5044280  )
        13           As  tau(  13) = (  0.1491150  0.3464560  0.4955720  )
        14           Os  tau(  14) = (  1.0000000  1.0000000  0.5000000  )
        15           Os  tau(  15) = (  0.5000000  0.0000000  0.0000000  )
        16           Os  tau(  16) = (  1.0000000  0.5000000  0.0000000  )
        17           Os  tau(  17) = (  0.5000000  0.5000000  0.5000000  )

     number of k points=     1  Methfessel-Paxton smearing, width (Ry)=  0.0010
                       cart. coord. in units 2pi/alat
        k(    1) = (   0.0000000   0.0000000   0.0000000), wk =   2.0000000

                       cryst. coord.
        k(    1) = (   0.0000000   0.0000000   0.0000000), wk =   2.0000000

     Initial potential from superposition of free atoms

     starting charge     133.9900, renormalised to     136.0000

     negative rho (up, down):  5.041E-01 0.000E+00
     Starting wfcs are  132 randomized atomic wfcs
     Checking if some PAW data can be deallocated...

     Self-consistent Calculation

     iteration #  1     ecut=    30.00 Ry     beta= 0.70
     Davidson diagonalization with overlap

     ethr =  1.00E-02,  avg # of iterations =  5.0

     negative rho (up, down):  8.682E-01 0.000E+00

     total energy              =   -1495.29301547 Ry
     estimated scf accuracy    <       5.40477425 Ry

[...]

     c_bands:  3 eigenvalues not converged
     ethr =  3.44E-04,  avg # of iterations = 20.0

[...]

     c_bands:  1 eigenvalues not converged
     ethr =  1.87E-04,  avg # of iterations = 20.0

[...]

     total energy              =   -1498.83236782 Ry
     estimated scf accuracy    <       0.00004716 Ry

     iteration # 29     ecut=    30.00 Ry     beta= 0.70
     Davidson diagonalization with overlap

     ethr =  2.80E-09,  avg # of iterations =  1.0

[...]

     End of self-consistent calculation

          k = 0.0000 0.0000 0.0000 (  2990 PWs)   bands (ev):

   -82.7947 -81.6870 -81.1889 -78.3677 -37.0430 -37.0137 -36.8716 -36.5679
   -36.3580 -36.0861 -35.7606 -35.6833 -34.9987 -34.8890 -34.2181 -33.4337
   -23.1492 -10.0318  -8.3594  -6.4494  -2.4303  -2.0397  -1.4859  -1.0264
    -0.6402  -0.3523  -0.2378   0.1727   0.3547   0.4494   0.4634   0.9415
     5.2462   5.3148   5.4862   5.9258   6.0180   6.1569   6.6422   6.7380
     6.9221   7.2902   7.6384   7.6808   7.7733   7.7957   7.9052   8.0840
     8.2579   8.5573   8.9579   9.2908   9.3526   9.3685   9.4351   9.5964
     9.6591   9.8147   9.9001   9.9621  10.0368  10.1802  10.3253  10.5121
    10.6779  10.9695  11.2073  11.4337  11.4419  11.5447  11.6327  11.7478
    11.7861  11.9602  12.0859  12.1798  12.2620  12.2735  12.4932  12.6321
    12.6832  12.8164

     occupation numbers
     1.0000   1.0000   1.0000   1.0000   1.0000   1.0000   1.0000   1.0000
     1.0000   1.0000   1.0000   1.0000   1.0000   1.0000   1.0000   1.0000
     1.0000   1.0000   1.0000   1.0000   1.0000   1.0000   1.0000   1.0000
     1.0000   1.0000   1.0000   1.0000   1.0000   1.0000   1.0000   1.0000
     1.0000   1.0000   1.0000   1.0000   1.0000   1.0000   1.0000   1.0000
     1.0000   1.0000   1.0000   1.0000   1.0000   1.0000   1.0000   1.0000
     1.0000   1.0000   1.0000   1.0000   1.0000   1.0000   1.0000   1.0000
     1.0000   1.0000   1.0000   1.0000   1.0000   1.0000   1.0000   1.0000
     1.0000   1.0000   1.0000   0.7417   0.2583  -0.0000  -0.0000  -0.0000
    -0.0000  -0.0000  -0.0000  -0.0000  -0.0000  -0.0000  -0.0000  -0.0000
    -0.0000  -0.0000

     the Fermi energy is    11.4378 ev

!    total energy              =   -1498.83236724 Ry
     estimated scf accuracy    <       0.00000065 Ry
     smearing contrib. (-TS)   =      -0.00042279 Ry
     internal energy E=F+TS    =   -1498.83194445 Ry

     The total energy is F=E-TS. E is the sum of the following terms:
     one-electron contribution =    -337.86488173 Ry
     hartree contribution      =     223.97913417 Ry
     xc contribution           =    -271.09901393 Ry
     ewald contribution        =    -705.94416323 Ry
     one-center paw contrib.   =    -407.90301972 Ry
      -> PAW hartree energy AE =      40.25478439 Ry
      -> PAW hartree energy PS =     -40.02319868 Ry
      -> PAW xc energy AE      =    -416.26992631 Ry
      -> PAW xc energy PS      =       8.13532088 Ry
      -> total E_H with PAW    =     224.21071988 Ry
      -> total E_XC with PAW   =    -679.23361936 Ry

     convergence has been achieved in  29 iterations

     negative rho (up, down):  9.145E-01 0.000E+00

     Forces acting on atoms (cartesian axes, Ry/au):

     atom    1 type  1   force =     0.00000000    0.00000000    0.00000000
     atom    2 type  2   force =     0.03004158   -0.08623691   -0.18574084
     atom    3 type  2   force =    -0.03004158    0.08623691    0.18574084
     atom    4 type  2   force =     0.02901518   -0.04890027   -0.16601997
     atom    5 type  2   force =    -0.02901518    0.04890027    0.16601997
     atom    6 type  2   force =    -0.04890851   -0.02148798   -0.03360603
     atom    7 type  2   force =     0.04890851    0.02148798    0.03360603
     atom    8 type  2   force =    -0.00490151   -0.07813298    0.13950386
     atom    9 type  2   force =     0.00490151    0.07813298   -0.13950386
     atom   10 type  2   force =    -0.05682694    0.17737159   -0.11507735
     atom   11 type  2   force =     0.05682694   -0.17737159    0.11507735
     atom   12 type  2   force =     0.01697195    0.11790455   -0.09677256
     atom   13 type  2   force =    -0.01697195   -0.11790455    0.09677256
     atom   14 type  3   force =     0.00000000    0.00000000    0.00000000
     atom   15 type  3   force =     0.00000000    0.00000000    0.00000000
     atom   16 type  3   force =     0.00000000    0.00000000    0.00000000
     atom   17 type  3   force =     0.00000000    0.00000000    0.00000000
     The non-local contrib.  to forces
     atom    1 type  1   force =     0.00000000    0.00000000    0.00000000
     atom    2 type  2   force =    -0.08514541    0.03200465    0.01510921
     atom    3 type  2   force =     0.08514541   -0.03200465   -0.01510921
     atom    4 type  2   force =    -0.09379853    0.07157502    0.05103142
     atom    5 type  2   force =     0.09379853   -0.07157502   -0.05103142
     atom    6 type  2   force =     0.02375110    0.02226758   -0.04276905
     atom    7 type  2   force =    -0.02375110   -0.02226758    0.04276905
     atom    8 type  2   force =     0.03489530   -0.06123594   -0.01536708
     atom    9 type  2   force =    -0.03489530    0.06123594    0.01536708
     atom   10 type  2   force =     0.05203325   -0.02902070   -0.01536078
     atom   11 type  2   force =    -0.05203325    0.02902070    0.01536078
     atom   12 type  2   force =    -0.03852694    0.03577765    0.01498867
     atom   13 type  2   force =     0.03852694   -0.03577765   -0.01498867
     atom   14 type  3   force =     0.00000000    0.00000000    0.00000000
     atom   15 type  3   force =     0.00000000    0.00000000    0.00000000
     atom   16 type  3   force =     0.00000000    0.00000000    0.00000000
     atom   17 type  3   force =     0.00000000    0.00000000    0.00000000
     The ionic contribution  to forces
     atom    1 type  1   force =    -0.00000000    0.00000000   -0.00000000
     atom    2 type  2   force =     0.67885996    3.16100422    1.27072216
     atom    3 type  2   force =    -0.67885996   -3.16100422   -1.27072216
     atom    4 type  2   force =    -2.75395597   -1.69368750    1.27067665
     atom    5 type  2   force =     2.75395597    1.69368750   -1.27067665
     atom    6 type  2   force =     2.75393671    0.25362598    2.10215124
     atom    7 type  2   force =    -2.75393671   -0.25362598   -2.10215124
     atom    8 type  2   force =    -0.67883856    2.68094680   -2.10218278
     atom    9 type  2   force =     0.67883856   -2.68094680    2.10218278
     atom   10 type  2   force =    -0.67885803    0.48002717    3.37287104
     atom   11 type  2   force =     0.67885803   -0.48002717   -3.37287104
     atom   12 type  2   force =     2.75390040   -1.94736059   -0.83143807
     atom   13 type  2   force =    -2.75390040    1.94736059    0.83143807
     atom   14 type  3   force =     0.00000000   -0.00000000    0.00000000
     atom   15 type  3   force =    -0.00000000    0.00000000   -0.00000000
     atom   16 type  3   force =     0.00000000   -0.00000000   -0.00000000
     atom   17 type  3   force =    -0.00000000    0.00000000    0.00000000
     The local contribution  to forces
     atom    1 type  1   force =    -0.00000058   -0.00000675   -0.00005986
     atom    2 type  2   force =    -0.57357644   -3.25789299   -1.44772093
     atom    3 type  2   force =     0.57357041    3.25788359    1.44771993
     atom    4 type  2   force =     2.85481618    1.57808182   -1.46038833
     atom    5 type  2   force =    -2.85481128   -1.57807278    1.46039030
     atom    6 type  2   force =    -2.81353845   -0.29584064   -2.08625838
     atom    7 type  2   force =     2.81353818    0.29583877    2.08626345
     atom    8 type  2   force =     0.63824316   -2.69062392    2.23494558
     atom    9 type  2   force =    -0.63824060    2.69062537   -2.23494320
     atom   10 type  2   force =     0.57556735   -0.29334589   -3.45318966
     atom   11 type  2   force =    -0.57556026    0.29335138    3.45319917
     atom   12 type  2   force =    -2.69832258    2.01614428    0.72393868
     atom   13 type  2   force =     2.69831716   -2.01612578   -0.72393634
     atom   14 type  3   force =    -0.00002528   -0.00002784    0.00004553
     atom   15 type  3   force =     0.00000397    0.00000614   -0.00000011
     atom   16 type  3   force =     0.00003453    0.00006552   -0.00002301
     atom   17 type  3   force =     0.00001496    0.00004802    0.00001276
     The core correction contribution to forces
     atom    1 type  1   force =    -0.00000001   -0.00000000   -0.00000003
     atom    2 type  2   force =     0.01008140   -0.02137677   -0.02389336
     atom    3 type  2   force =    -0.01008099    0.02137649    0.02389343
     atom    4 type  2   force =     0.02195894   -0.00502696   -0.02737471
     atom    5 type  2   force =    -0.02195877    0.00502716    0.02737508
     atom    6 type  2   force =    -0.01298141   -0.00164676   -0.00662464
     atom    7 type  2   force =     0.01298031    0.00164775    0.00662550
     atom    8 type  2   force =     0.00061531   -0.00715958    0.02209281
     atom    9 type  2   force =    -0.00061597    0.00716032   -0.02209193
     atom   10 type  2   force =    -0.00571118    0.01974019   -0.01937997
     atom   11 type  2   force =     0.00571367   -0.01973883    0.01938070
     atom   12 type  2   force =     0.00001598    0.01332483   -0.00438927
     atom   13 type  2   force =    -0.00001576   -0.01332300    0.00438755
     atom   14 type  3   force =     0.00000034   -0.00000030   -0.00000044
     atom   15 type  3   force =    -0.00000066   -0.00000001   -0.00000216
     atom   16 type  3   force =    -0.00000048   -0.00000077    0.00000005
     atom   17 type  3   force =    -0.00000033   -0.00000016    0.00000130
     The Hubbard contrib.    to forces
     atom    1 type  1   force =     0.00000000    0.00000000    0.00000000
     atom    2 type  2   force =     0.00000000    0.00000000    0.00000000
     atom    3 type  2   force =     0.00000000    0.00000000    0.00000000
     atom    4 type  2   force =     0.00000000    0.00000000    0.00000000
     atom    5 type  2   force =     0.00000000    0.00000000    0.00000000
     atom    6 type  2   force =     0.00000000    0.00000000    0.00000000
     atom    7 type  2   force =     0.00000000    0.00000000    0.00000000
     atom    8 type  2   force =     0.00000000    0.00000000    0.00000000
     atom    9 type  2   force =     0.00000000    0.00000000    0.00000000
     atom   10 type  2   force =     0.00000000    0.00000000    0.00000000
     atom   11 type  2   force =     0.00000000    0.00000000    0.00000000
     atom   12 type  2   force =     0.00000000    0.00000000    0.00000000
     atom   13 type  2   force =     0.00000000    0.00000000    0.00000000
     atom   14 type  3   force =     0.00000000    0.00000000    0.00000000
     atom   15 type  3   force =     0.00000000    0.00000000    0.00000000
     atom   16 type  3   force =     0.00000000    0.00000000    0.00000000
     atom   17 type  3   force =     0.00000000    0.00000000    0.00000000
     The SCF correction term to forces
     atom    1 type  1   force =    -0.00000641    0.00000773    0.00004360
     atom    2 type  2   force =    -0.00017600    0.00002377    0.00004249
     atom    3 type  2   force =     0.00018547   -0.00001450   -0.00004074
     atom    4 type  2   force =    -0.00000460    0.00015785    0.00003674
     atom    5 type  2   force =     0.00000122   -0.00016608   -0.00003558
     atom    6 type  2   force =    -0.00008013    0.00011010   -0.00010324
     atom    7 type  2   force =     0.00007415   -0.00010073    0.00010122
     atom    8 type  2   force =     0.00018107   -0.00005808    0.00001776
     atom    9 type  2   force =    -0.00018738    0.00006042   -0.00001615
     atom   10 type  2   force =     0.00014994   -0.00002628   -0.00001443
     atom   11 type  2   force =    -0.00014298    0.00002521    0.00001131
     atom   12 type  2   force =    -0.00009468    0.00002366    0.00012075
     atom   13 type  2   force =     0.00010033   -0.00003344   -0.00013474
     atom   14 type  3   force =     0.00002098    0.00003861   -0.00004506
     atom   15 type  3   force =     0.00000699   -0.00000231    0.00002170
     atom   16 type  3   force =    -0.00003096   -0.00005516    0.00002136
     atom   17 type  3   force =    -0.00001182   -0.00004697   -0.00001694

     Total force =     0.591093     Total SCF correction =     0.000606

     Computing stress (Cartesian axis) and pressure

     negative rho (up, down):  9.145E-01 0.000E+00
          total   stress  (Ry/bohr**3)                   (kbar)     P=      -52.03
  -0.00098151  -0.00023526  -0.00006310         -144.39      -34.61       -9.28
  -0.00023526   0.00007351  -0.00045255          -34.61       10.81      -66.57
  -0.00006310  -0.00045255  -0.00015313           -9.28      -66.57      -22.53

     kinetic stress (kbar)  16369.69    -32.44    -53.49
                              -32.44  16146.04     19.56
                              -53.49     19.56  16216.02

     local   stress (kbar)   6965.82      1.40     38.85
                                1.40   7075.44     -6.65
                               38.85     -6.65   7043.23

     nonloc. stress (kbar)  -8559.57     -5.76     23.90
                               -5.76  -8299.32    -70.52
                               23.90    -70.52  -8363.44

     hartree stress (kbar)   5075.72      6.04    -18.51
                                6.04   5070.29     -7.25
                              -18.51     -7.25   5070.64

     exc-cor stress (kbar)   6025.54      0.02     -0.35
                                0.02   6023.10      0.01
                               -0.35      0.01   6023.62

     corecor stress (kbar) -10034.83     -3.87      0.33
                               -3.87 -10017.97     -1.72
                                0.33     -1.72 -10025.81

     ewald   stress (kbar) -15986.76     -0.00     -0.00
                               -0.00 -15986.77     -0.01
                               -0.00     -0.01 -15986.77

     hubbard stress (kbar)      0.00      0.00      0.00
                                0.00      0.00      0.00
                                0.00      0.00      0.00

     DFT-D   stress (kbar)      0.00      0.00      0.00
                                0.00      0.00      0.00
                                0.00      0.00      0.00

     XDM     stress (kbar)      0.00      0.00      0.00
                                0.00      0.00      0.00
                                0.00      0.00      0.00

     dft-nl  stress (kbar)      0.00      0.00      0.00
                                0.00      0.00      0.00
                                0.00      0.00      0.00

     TS-vdW  stress (kbar)      0.00      0.00      0.00
                                0.00      0.00      0.00
                                0.00      0.00      0.00

[...]

                                0.00      0.00      0.00

     Writing all to output data dir new_calculations/myprefix.save/

     General routines

     Parallel routines

     PAW routines

   This run was terminated on:  22:58:16  20May2023

   JOB DONE.