     Program PWSCF v.7.0 starts on 21May2023 at  5:55: 5

     Reading input from espresso_4988.pwi
Warning: card &CELL ignored
Warning: card / ignored

     Current dimensions of program PWSCF are:
     Max number of different atomic species (ntypx) = 10
     Max number of k-points (npk) =  40000
     Max angular momentum in pseudopotentials (lmaxx) =  4

     gamma-point specific algorithms are used
     Message from routine setup:
     using ibrav=0 with symmetry is DISCOURAGED, use correct ibrav instead

     Subspace diagonalization in iterative solution of the eigenvalue problem:
     a serial algorithm will be used

     Using Slab Decomposition

     bravais-lattice index     =            0
     lattice parameter (alat)  =       9.9275  a.u.
     unit-cell volume          =    1312.4292 (a.u.)^3
     number of atoms/cell      =           16
     number of atomic types    =            3
     number of electrons       =       184.00
     number of Kohn-Sham states=          110
     kinetic-energy cutoff     =      30.0000  Ry
     charge density cutoff     =     240.0000  Ry
     scf convergence threshold =      1.0E-06
     mixing beta               =       0.7000
     number of iterations used =            8  plain     mixing
     Exchange-correlation= SLA  PW   PBE  PBE
                           (   1   4   3   4   0   0   0)

     celldm(1)=   9.927459  celldm(2)=   0.000000  celldm(3)=   0.000000
     celldm(4)=   0.000000  celldm(5)=   0.000000  celldm(6)=   0.000000

     crystal axes: (cart. coord. in units of alat)
               a(1) = (   1.000000   0.000000   0.000000 )
               a(2) = (   0.000000   1.119018   0.000000 )
               a(3) = (   0.000000   0.000000   1.198739 )

     reciprocal axes: (cart. coord. in units 2 pi/alat)
               b(1) = (  1.000000  0.000000  0.000000 )
               b(2) = (  0.000000  0.893641  0.000000 )
               b(3) = (  0.000000  0.000000  0.834210 )

     PseudoPot. # 1 for Yb read from file:
     /home/pragov/projects/rrg-bengioy-ad/pragov/crystal_structure_design/SSSP/Yb.GGA-PBE-paw-v1.0.UPF
     MD5 check sum: 43b6465ad8021f06e3edb42ae292e187
     Pseudo is Projector augmented-wave + core cor, Zval = 24.0
     Generated using ATOMPAW code
     Shape of augmentation charge: BESSEL
     Using radial grid of 1117 points,  8 beta functions with:
                l(1) =   0
                l(2) =   0
                l(3) =   1
                l(4) =   1
                l(5) =   2
                l(6) =   2
                l(7) =   3
                l(8) =   3
     Q(r) pseudized with 0 coefficients

     PseudoPot. # 2 for B  read from file:
     /home/pragov/projects/rrg-bengioy-ad/pragov/crystal_structure_design/SSSP/b_pbe_v1.4.uspp.F.UPF
     MD5 check sum: cc6de2960df11db49a60e589f9ebb39b
     Pseudo is Ultrasoft + core correction, Zval =  3.0
     Generated by new atomic code, or converted to UPF format
     Using radial grid of  781 points,  4 beta functions with:
                l(1) =   0
                l(2) =   0
                l(3) =   1
                l(4) =   1
     Q(r) pseudized with  8 coefficients,  rinner =    1.100   1.100   1.100

     PseudoPot. # 3 for Os read from file:
     /home/pragov/projects/rrg-bengioy-ad/pragov/crystal_structure_design/SSSP/Os_pbe_v1.2.uspp.F.UPF
     MD5 check sum: a3fb40a04f0c37c25c34bbc47164c9a8
     Pseudo is Ultrasoft + core correction, Zval = 16.0
     Generated by new atomic code, or converted to UPF format
     Using radial grid of  983 points,  8 beta functions with:
                l(1) =   0
                l(2) =   0
                l(3) =   1
                l(4) =   1
                l(5) =   2
                l(6) =   2
                l(7) =   3
                l(8) =   3
     Q(r) pseudized with  8 coefficients,  rinner =    1.150   1.150   1.150
                                                       1.150   1.150   1.150
                                                       1.150

     atomic species   valence    mass     pseudopotential
        Yb            24.00   173.05400     Yb( 1.00)
        B              3.00    10.81000     B ( 1.00)
        Os            16.00   190.23000     Os( 1.00)

      8 Sym. Ops., with inversion, found ( 6 have fractional translation)

                                    s                        frac. trans.

      isym =  1     identity

 cryst.   s( 1) = (     1          0          0      )
                  (     0          1          0      )
                  (     0          0          1      )

 cart.    s( 1) = (  1.0000000  0.0000000  0.0000000 )
                  (  0.0000000  1.0000000  0.0000000 )
                  (  0.0000000  0.0000000  1.0000000 )

      isym =  2     180 deg rotation - cart. axis [0,0,1]

 cryst.   s( 2) = (    -1          0          0      )    f =(  0.0000000 )
                  (     0         -1          0      )       (  0.5000000 )
                  (     0          0          1      )       (  0.5000000 )

 cart.    s( 2) = ( -1.0000000  0.0000000  0.0000000 )    f =(  0.0000000 )
                  (  0.0000000 -1.0000000  0.0000000 )       (  0.5595091 )
                  (  0.0000000  0.0000000  1.0000000 )       (  0.5993693 )

[...]

      isym =  4     180 deg rotation - cart. axis [1,0,0]

[...]

      isym =  5     inversion

 cryst.   s( 5) = (    -1          0          0      )
                  (     0         -1          0      )
                  (     0          0         -1      )

 cart.    s( 5) = ( -1.0000000  0.0000000  0.0000000 )
                  (  0.0000000 -1.0000000  0.0000000 )
                  (  0.0000000  0.0000000 -1.0000000 )

      isym =  6     inv. 180 deg rotation - cart. axis [0,0,1]

[...]

      isym =  8     inv. 180 deg rotation - cart. axis [1,0,0]

 cryst.   s( 8) = (    -1          0          0      )    f =(  0.5000000 )
                  (     0          1          0      )       (  0.0000000 )
                  (     0          0          1      )       (  0.0000000 )

 cart.    s( 8) = ( -1.0000000  0.0000000  0.0000000 )    f =(  0.5000000 )
                  (  0.0000000  1.0000000  0.0000000 )       (  0.0000000 )
                  (  0.0000000  0.0000000  1.0000000 )       (  0.0000000 )

   Cartesian axes

     site n.     atom                  positions (alat units)
         1           Yb  tau(   1) = (   0.2500000   0.0071695   0.4181763  )
         2           Yb  tau(   2) = (   0.2500000   0.5666786   0.1811929  )
         3           Yb  tau(   3) = (   0.7500000   1.1118486   0.7805622  )
         4           Yb  tau(   4) = (   0.7500000   0.5523395   1.0175456  )
         5           B   tau(   5) = (   0.0730000   0.4165825   0.6515935  )
         6           B   tau(   6) = (   0.4270000   0.9760915   1.1465143  )
         7           B   tau(   7) = (   0.5730000   0.7024356   0.5471450  )
         8           B   tau(   8) = (   0.9270000   0.1429266   0.0522242  )
         9           B   tau(   9) = (   0.9270000   0.7024356   0.5471450  )
        10           B   tau(  10) = (   0.5730000   0.1429266   0.0522242  )
        11           B   tau(  11) = (   0.4270000   0.4165825   0.6515935  )
        12           B   tau(  12) = (   0.0730000   0.9760915   1.1465143  )
        13           Os  tau(  13) = (   0.2500000   0.2012688   0.9691957  )
        14           Os  tau(  14) = (   0.2500000   0.7607779   0.8289121  )
        15           Os  tau(  15) = (   0.7500000   0.9177493   0.2295428  )
        16           Os  tau(  16) = (   0.7500000   0.3582402   0.3698264  )

   Crystallographic axes

     site n.     atom                  positions (cryst. coord.)
         1           Yb  tau(   1) = (  0.2500000  0.0064070  0.3488470  )
         2           Yb  tau(   2) = (  0.2500000  0.5064070  0.1511530  )
         3           Yb  tau(   3) = (  0.7500000  0.9935930  0.6511530  )
         4           Yb  tau(   4) = (  0.7500000  0.4935930  0.8488470  )
         5           B   tau(   5) = (  0.0730000  0.3722750  0.5435660  )
         6           B   tau(   6) = (  0.4270000  0.8722750  0.9564340  )
         7           B   tau(   7) = (  0.5730000  0.6277250  0.4564340  )
         8           B   tau(   8) = (  0.9270000  0.1277250  0.0435660  )
         9           B   tau(   9) = (  0.9270000  0.6277250  0.4564340  )
        10           B   tau(  10) = (  0.5730000  0.1277250  0.0435660  )
        11           B   tau(  11) = (  0.4270000  0.3722750  0.5435660  )
        12           B   tau(  12) = (  0.0730000  0.8722750  0.9564340  )
        13           Os  tau(  13) = (  0.2500000  0.1798620  0.8085130  )
        14           Os  tau(  14) = (  0.2500000  0.6798620  0.6914870  )
        15           Os  tau(  15) = (  0.7500000  0.8201380  0.1914870  )
        16           Os  tau(  16) = (  0.7500000  0.3201380  0.3085130  )

     number of k points=     1  Methfessel-Paxton smearing, width (Ry)=  0.0010
                       cart. coord. in units 2pi/alat
        k(    1) = (   0.0000000   0.0000000   0.0000000), wk =   2.0000000

                       cryst. coord.
        k(    1) = (   0.0000000   0.0000000   0.0000000), wk =   2.0000000

     Check: negative core charge=   -0.000001

     Initial potential from superposition of free atoms

     starting charge     181.9816, renormalised to     184.0000

     negative rho (up, down):  5.078E-01 0.000E+00
     Starting wfcs are  212 randomized atomic wfcs
     Checking if some PAW data can be deallocated...

     Self-consistent Calculation

     iteration #  1     ecut=    30.00 Ry     beta= 0.70
     Davidson diagonalization with overlap

     ethr =  1.00E-02,  avg # of iterations =  2.0

     negative rho (up, down):  4.765E-01 0.000E+00

     total energy              =   -4875.29177909 Ry
     estimated scf accuracy    <      13.73669445 Ry

[...]

     total energy              =   -4890.28068745 Ry
     estimated scf accuracy    <       0.00000237 Ry

     iteration # 51     ecut=    30.00 Ry     beta= 0.70
     Davidson diagonalization with overlap

     ethr =  1.12E-09,  avg # of iterations =  1.0

[...]

     End of self-consistent calculation

          k = 0.0000 0.0000 0.0000 (  1830 PWs)   bands (ev):

   -67.2113 -67.2112 -67.2042 -67.2042 -32.4444 -32.4130 -32.4062 -32.3733
   -26.8215 -26.8193 -26.7152 -26.7151 -26.5978 -26.5975 -26.5177 -26.5158
   -26.4798 -26.4744 -26.4600 -26.4577  -5.1485  -5.0482  -4.9261  -4.9122
    -4.7677  -4.7252  -4.7188  -4.6301  -4.5210  -4.4406  -4.3277  -4.2369
     6.4672   8.4272   9.1590  10.1479  10.8335  11.0942  12.3838  12.7260
    13.3156  13.3739  13.6479  13.6721  14.1061  14.3232  14.8388  15.1710
    15.3055  15.4114  15.5945  15.6694  16.0046  16.4055  16.5379  16.5752
    16.7888  16.9535  17.0000  17.0874  17.2008  17.3050  17.7387  17.8214
    18.1690  18.1752  18.2468  18.2556  18.2770  18.2859  18.3333  18.4321
    18.4851  18.5200  18.5248  18.5270  18.5393  18.5643  18.5928  18.5935
    18.6346  18.6505  18.6789  18.6903  18.6914  18.7171  18.7576  18.7620
    18.7702  18.7838  18.8198  18.8249  19.0408  19.1163  19.6862  19.8435
    20.0220  20.8992  20.9992  21.6582  21.6752  21.7435  22.1641  22.2128
    22.7802  23.3722  23.4173  24.5751  24.9730  25.1312

     occupation numbers
     1.0000   1.0000   1.0000   1.0000   1.0000   1.0000   1.0000   1.0000
     1.0000   1.0000   1.0000   1.0000   1.0000   1.0000   1.0000   1.0000
     1.0000   1.0000   1.0000   1.0000   1.0000   1.0000   1.0000   1.0000
     1.0000   1.0000   1.0000   1.0000   1.0000   1.0000   1.0000   1.0000
     1.0000   1.0000   1.0000   1.0000   1.0000   1.0000   1.0000   1.0000
     1.0000   1.0000   1.0000   1.0000   1.0000   1.0000   1.0000   1.0000
     1.0000   1.0000   1.0000   1.0000   1.0000   1.0000   1.0000   1.0000
     1.0000   1.0000   1.0000   1.0000   1.0000   1.0000   1.0000   1.0000
     1.0000   1.0000   1.0000   1.0000   1.0000   1.0000   1.0000   1.0000
     1.0000   1.0000   1.0000   1.0000   1.0000   1.0000   1.0000   1.0000
     1.0000   1.0000   1.0000   1.0000   1.0000   1.0000   1.0000   1.0000
     1.0000   1.0000   1.0000   1.0000  -0.0000  -0.0000  -0.0000  -0.0000
    -0.0000  -0.0000  -0.0000  -0.0000  -0.0000  -0.0000  -0.0000  -0.0000
    -0.0000  -0.0000  -0.0000  -0.0000  -0.0000  -0.0000

     the Fermi energy is    18.9362 ev

!    total energy              =   -4890.28068685 Ry
     estimated scf accuracy    <       0.00000088 Ry
     smearing contrib. (-TS)   =       0.00000000 Ry
     internal energy E=F+TS    =   -4890.28068685 Ry

     The total energy is F=E-TS. E is the sum of the following terms:
     one-electron contribution =   -1459.83611732 Ry
     hartree contribution      =     717.69749231 Ry
     xc contribution           =    -326.91872152 Ry
     ewald contribution        =   -1881.28538185 Ry
     one-center paw contrib.   =   -1939.93795848 Ry
      -> PAW hartree energy AE =    1803.45533872 Ry
      -> PAW hartree energy PS =   -1553.42735994 Ry
      -> PAW xc energy AE      =   -2338.88796331 Ry
      -> PAW xc energy PS      =     148.92202605 Ry
      -> total E_H with PAW    =     967.72547110 Ry
      -> total E_XC with PAW   =   -2516.88465878 Ry

     convergence has been achieved in  51 iterations

     negative rho (up, down):  5.026E-01 0.000E+00

     Forces acting on atoms (cartesian axes, Ry/au):

     atom    1 type  1   force =     0.00000000    0.02177476   -0.00187029
     atom    2 type  1   force =     0.00000000    0.02177476    0.00187029
     atom    3 type  1   force =    -0.00000000   -0.02177476    0.00187029
     atom    4 type  1   force =     0.00000000   -0.02177476   -0.00187029
     atom    5 type  2   force =    -0.03303055   -0.01951477    0.04312348
     atom    6 type  2   force =     0.03303055   -0.01951477   -0.04312348
     atom    7 type  2   force =    -0.03303055    0.01951477   -0.04312348
     atom    8 type  2   force =     0.03303055    0.01951477    0.04312348
     atom    9 type  2   force =     0.03303055    0.01951477   -0.04312348
     atom   10 type  2   force =    -0.03303055    0.01951477    0.04312348
     atom   11 type  2   force =     0.03303055   -0.01951477    0.04312348
     atom   12 type  2   force =    -0.03303055   -0.01951477   -0.04312348
     atom   13 type  3   force =     0.00000000    0.04362285   -0.02903631
     atom   14 type  3   force =     0.00000000    0.04362285    0.02903631
     atom   15 type  3   force =     0.00000000   -0.04362285    0.02903631
     atom   16 type  3   force =     0.00000000   -0.04362285   -0.02903631
     The non-local contrib.  to forces
     atom    1 type  1   force =     0.00000000    0.14764715   -0.08051370
     atom    2 type  1   force =     0.00000000    0.14764715    0.08051370
     atom    3 type  1   force =     0.00000000   -0.14764715    0.08051370
     atom    4 type  1   force =     0.00000000   -0.14764715   -0.08051370
     atom    5 type  2   force =     0.04959407    0.02941173   -0.01661864
     atom    6 type  2   force =    -0.04959407    0.02941173    0.01661864
     atom    7 type  2   force =     0.04959407   -0.02941173    0.01661864
     atom    8 type  2   force =    -0.04959407   -0.02941173   -0.01661864
     atom    9 type  2   force =    -0.04959407   -0.02941173    0.01661864
     atom   10 type  2   force =     0.04959407   -0.02941173   -0.01661864
     atom   11 type  2   force =    -0.04959407    0.02941173   -0.01661864
     atom   12 type  2   force =     0.04959407    0.02941173    0.01661864
     atom   13 type  3   force =     0.00000000    0.08250344    0.09854125
     atom   14 type  3   force =    -0.00000000    0.08250344   -0.09854125
     atom   15 type  3   force =     0.00000000   -0.08250344   -0.09854125
     atom   16 type  3   force =     0.00000000   -0.08250344    0.09854125
     The ionic contribution  to forces
     atom    1 type  1   force =    -0.00000000    1.52847365   -4.73466178
     atom    2 type  1   force =    -0.00000000    1.52847365    4.73466178
     atom    3 type  1   force =    -0.00000000   -1.52847365    4.73466178
     atom    4 type  1   force =    -0.00000000   -1.52847365   -4.73466178
     atom    5 type  2   force =    -0.12980611    0.40062952   -0.58654699
     atom    6 type  2   force =     0.12980611    0.40062952    0.58654699
     atom    7 type  2   force =    -0.12980611   -0.40062952    0.58654699
     atom    8 type  2   force =     0.12980611   -0.40062952   -0.58654699
     atom    9 type  2   force =     0.12980611   -0.40062952    0.58654699
     atom   10 type  2   force =    -0.12980611   -0.40062952   -0.58654699
     atom   11 type  2   force =     0.12980611    0.40062952   -0.58654699
     atom   12 type  2   force =    -0.12980611    0.40062952    0.58654699
     atom   13 type  3   force =    -0.00000000   -1.28089870    1.65534202
     atom   14 type  3   force =     0.00000000   -1.28089870   -1.65534202
     atom   15 type  3   force =     0.00000000    1.28089870   -1.65534202
     atom   16 type  3   force =     0.00000000    1.28089870    1.65534202
     The local contribution  to forces
     atom    1 type  1   force =     0.00022880   -1.65423050    4.81510165
     atom    2 type  1   force =     0.00026885   -1.65410563   -4.81124016
     atom    3 type  1   force =    -0.00020451    1.65354082   -4.81461067
     atom    4 type  1   force =    -0.00021284    1.65443673    4.81091666
     atom    5 type  2   force =     0.04804004   -0.45054334    0.64525903
     atom    6 type  2   force =    -0.04795849   -0.45092459   -0.64545081
     atom    7 type  2   force =     0.04801589    0.45066667   -0.64516170
     atom    8 type  2   force =    -0.04810171    0.45086645    0.64522849
     atom    9 type  2   force =    -0.04804433    0.45067108   -0.64516087
     atom   10 type  2   force =     0.04807086    0.45085667    0.64522921
     atom   11 type  2   force =    -0.04801140   -0.45053990    0.64525891
     atom   12 type  2   force =     0.04799101   -0.45093178   -0.64544822
     atom   13 type  3   force =     0.00014682    1.23895987   -1.79354090
     atom   14 type  3   force =     0.00014094    1.23745394    1.79172077
     atom   15 type  3   force =    -0.00013801   -1.23906214    1.79356686
     atom   16 type  3   force =    -0.00015370   -1.23724120   -1.79147601
     The core correction contribution to forces
     atom    1 type  1   force =     0.00000000   -0.00000022   -0.00000011
     atom    2 type  1   force =     0.00000000   -0.00000022    0.00000011
     atom    3 type  1   force =    -0.00000000    0.00000022    0.00000010
     atom    4 type  1   force =    -0.00000000    0.00000022   -0.00000011
     atom    5 type  2   force =    -0.00085093    0.00118918    0.00101878
     atom    6 type  2   force =     0.00085129    0.00119067   -0.00101839
     atom    7 type  2   force =    -0.00085120   -0.00118945   -0.00101931
     atom    8 type  2   force =     0.00085120   -0.00119032    0.00101883
     atom    9 type  2   force =     0.00085108   -0.00118954   -0.00101925
     atom   10 type  2   force =    -0.00085124   -0.00119026    0.00101887
     atom   11 type  2   force =     0.00085092    0.00118921    0.00101876
     atom   12 type  2   force =    -0.00085134    0.00119072   -0.00101831
     atom   13 type  3   force =     0.00000211    0.00380791    0.00961119
     atom   14 type  3   force =     0.00000142    0.00379511   -0.00962724
     atom   15 type  3   force =    -0.00000177   -0.00381016   -0.00960412
     atom   16 type  3   force =    -0.00000229   -0.00379492    0.00962777
     The Hubbard contrib.    to forces
     atom    1 type  1   force =     0.00000000    0.00000000    0.00000000
     atom    2 type  1   force =     0.00000000    0.00000000    0.00000000
     atom    3 type  1   force =     0.00000000    0.00000000    0.00000000
     atom    4 type  1   force =     0.00000000    0.00000000    0.00000000
     atom    5 type  2   force =     0.00000000    0.00000000    0.00000000
     atom    6 type  2   force =     0.00000000    0.00000000    0.00000000
     atom    7 type  2   force =     0.00000000    0.00000000    0.00000000
     atom    8 type  2   force =     0.00000000    0.00000000    0.00000000
     atom    9 type  2   force =     0.00000000    0.00000000    0.00000000
     atom   10 type  2   force =     0.00000000    0.00000000    0.00000000
     atom   11 type  2   force =     0.00000000    0.00000000    0.00000000
     atom   12 type  2   force =     0.00000000    0.00000000    0.00000000
     atom   13 type  3   force =     0.00000000    0.00000000    0.00000000
     atom   14 type  3   force =     0.00000000    0.00000000    0.00000000
     atom   15 type  3   force =     0.00000000    0.00000000    0.00000000
     atom   16 type  3   force =     0.00000000    0.00000000    0.00000000
     The SCF correction term to forces
     atom    1 type  1   force =    -0.00025007   -0.00019409   -0.00187192
     atom    2 type  1   force =    -0.00029943   -0.00020372   -0.00220043
     atom    3 type  1   force =     0.00021149    0.00079709    0.00145204
     atom    4 type  1   force =     0.00024246   -0.00012531    0.00247561
     atom    5 type  2   force =     0.00000562   -0.00021640    0.00000603
     atom    6 type  2   force =    -0.00006609    0.00019514    0.00018422
     atom    7 type  2   force =     0.00001586    0.00009052   -0.00011559
     atom    8 type  2   force =     0.00007370   -0.00012729    0.00004377
     atom    9 type  2   force =     0.00000909    0.00008452   -0.00011411
     atom   10 type  2   force =    -0.00004711   -0.00011900    0.00004550
     atom   11 type  2   force =    -0.00003141   -0.00021928    0.00000907
     atom   12 type  2   force =     0.00003831    0.00020233    0.00018473
     atom   13 type  3   force =    -0.00017226   -0.00081938    0.00108630
     atom   14 type  3   force =    -0.00016471    0.00084729    0.00094879
     atom   15 type  3   force =     0.00016292    0.00092234   -0.00122657
     atom   16 type  3   force =     0.00018752   -0.00104164   -0.00120817

     Total force =     0.198863     Total SCF correction =     0.005137

     Computing stress (Cartesian axis) and pressure

     negative rho (up, down):  5.026E-01 0.000E+00
          total   stress  (Ry/bohr**3)                   (kbar)     P=      -25.73
  -0.00049351   0.00000000   0.00000000          -72.60        0.00        0.00
   0.00000000  -0.00009904   0.00000000            0.00      -14.57        0.00
   0.00000000   0.00000000   0.00006783            0.00        0.00        9.98

     kinetic stress (kbar)  27324.51      0.00      0.00
                                0.00  27039.53      0.00
                                0.00      0.00  27211.51

     local   stress (kbar)  28834.41      0.00     -0.00
                                0.00  33121.14      0.04
                               -0.00      0.04  35616.33

     nonloc. stress (kbar)  -5882.99      0.00      0.00
                                0.00  -6034.09      0.00
                                0.00      0.00  -6058.96

     hartree stress (kbar)  28784.58     -0.00      0.00
                               -0.00  26412.25     -0.04
                                0.00     -0.04  25247.09

     exc-cor stress (kbar)  -1187.80      0.00     -0.00
                                0.00  -1191.88     -0.00
                               -0.00     -0.00  -1188.62

     corecor stress (kbar)  -9083.90     -0.00      0.00
                               -0.00  -9090.19     -0.00
                                0.00     -0.00  -9084.16

     ewald   stress (kbar) -68861.40     -0.00     -0.00
                               -0.00 -70271.34      0.00
                               -0.00      0.00 -71733.22

     hubbard stress (kbar)      0.00      0.00      0.00
                                0.00      0.00      0.00
                                0.00      0.00      0.00

     DFT-D   stress (kbar)      0.00      0.00      0.00
                                0.00      0.00      0.00
                                0.00      0.00      0.00

     XDM     stress (kbar)      0.00      0.00      0.00
                                0.00      0.00      0.00
                                0.00      0.00      0.00

     dft-nl  stress (kbar)      0.00      0.00      0.00
                                0.00      0.00      0.00
                                0.00      0.00      0.00

     TS-vdW  stress (kbar)      0.00      0.00      0.00
                                0.00      0.00      0.00
                                0.00      0.00      0.00

[...]

                                0.00      0.00      0.00

     Writing all to output data dir new_calculations/myprefix.save/

     General routines

     Parallel routines

     PAW routines

   This run was terminated on:   5:57:24  21May2023

   JOB DONE.