     Program PWSCF v.7.0 starts on 20May2023 at  9:57:10

     Reading input from espresso_6239.pwi
Warning: card &CELL ignored
Warning: card / ignored

     Current dimensions of program PWSCF are:
     Max number of different atomic species (ntypx) = 10
     Max number of k-points (npk) =  40000
     Max angular momentum in pseudopotentials (lmaxx) =  4

     gamma-point specific algorithms are used
     Message from routine setup:
     using ibrav=0 with symmetry is DISCOURAGED, use correct ibrav instead

     Subspace diagonalization in iterative solution of the eigenvalue problem:
     a serial algorithm will be used

     Using Slab Decomposition

     bravais-lattice index     =            0
     lattice parameter (alat)  =      13.1595  a.u.
     unit-cell volume          =    1728.2562 (a.u.)^3
     number of atoms/cell      =            8
     number of atomic types    =            2
     number of electrons       =        66.00
     number of Kohn-Sham states=           40
     kinetic-energy cutoff     =      30.0000  Ry
     charge density cutoff     =     240.0000  Ry
     scf convergence threshold =      1.0E-06
     mixing beta               =       0.7000
     number of iterations used =            8  plain     mixing
     Exchange-correlation=  SLA  PW   PBX  PBC
                           (   1   4   3   4   0   0   0)

     celldm(1)=  13.159458  celldm(2)=   0.000000  celldm(3)=   0.000000
     celldm(4)=   0.000000  celldm(5)=   0.000000  celldm(6)=   0.000000

     crystal axes: (cart. coord. in units of alat)
               a(1) = (   1.000000   0.000000   0.000000 )
               a(2) = (  -0.500000   0.866025   0.000000 )
               a(3) = (   0.000000   0.000000   0.875716 )

     reciprocal axes: (cart. coord. in units 2 pi/alat)
               b(1) = (  1.000000  0.577350  0.000000 )
               b(2) = (  0.000000  1.154700  0.000000 )
               b(3) = (  0.000000  0.000000  1.141922 )

     PseudoPot. # 1 for Zr read from file:
     /home/pragov/projects/rrg-bengioy-ad/pragov/crystal_structure_design/SSSP/Zr_pbe_v1.uspp.F.UPF
     MD5 check sum: 5db81b1e868ab7776c4564c113de050b
     Pseudo is Ultrasoft + core correction, Zval = 12.0
     Generated by new atomic code, or converted to UPF format
     Using radial grid of  887 points,  6 beta functions with:
                l(1) =   0
                l(2) =   0
                l(3) =   1
                l(4) =   1
                l(5) =   2
                l(6) =   2
     Q(r) pseudized with  6 coefficients,  rinner =    1.200   1.200   1.200
                                                       1.200   1.200

     PseudoPot. # 2 for Cl read from file:
     /home/pragov/projects/rrg-bengioy-ad/pragov/crystal_structure_design/SSSP/cl_pbe_v1.4.uspp.F.UPF
     MD5 check sum: fc6f6913ecf08c9257cb748ef0700058
     Pseudo is Ultrasoft + core correction, Zval =  7.0
     Generated by new atomic code, or converted to UPF format
     Using radial grid of  909 points,  6 beta functions with:
                l(1) =   0
                l(2) =   0
                l(3) =   1
                l(4) =   1
                l(5) =   2
                l(6) =   2
     Q(r) pseudized with  8 coefficients,  rinner =    1.300   1.300   1.300
                                                       1.300   1.300

     atomic species   valence    mass     pseudopotential
        Zr            12.00    91.22400     Zr( 1.00)
        Cl             7.00    35.45000     Cl( 1.00)

     24 Sym. Ops., with inversion, found (12 have fractional translation)

                                    s                        frac. trans.

      isym =  1     identity

 cryst.   s( 1) = (     1          0          0      )
                  (     0          1          0      )
                  (     0          0          1      )

 cart.    s( 1) = (  1.0000000 -0.0000000  0.0000000 )
                  (  0.0000000  1.0000000  0.0000000 )
                  (  0.0000000  0.0000000  1.0000000 )

      isym =  2     180 deg rotation - cart. axis [0,0,1]

 cryst.   s( 2) = (    -1          0          0      )    f =(  0.0000000 )
                  (     0         -1          0      )       (  0.0000000 )
                  (     0          0          1      )       (  0.5000000 )

 cart.    s( 2) = ( -1.0000000  0.0000000  0.0000000 )    f =(  0.0000000 )
                  (  0.0000000 -1.0000000  0.0000000 )       (  0.0000000 )
                  (  0.0000000  0.0000000  1.0000000 )       (  0.4378582 )

[...]

      isym =  4     180 deg rotation - cart. axis [1,0,0]

[...]

      isym =  5      60 deg rotation - cryst. axis [0,0,1]

[...]

 cryst.   s( 6) = (     0         -1          0      )    f =(  0.0000000 )
                  (     1          1          0      )       (  0.0000000 )
                  (     0          0          1      )       (  0.5000000 )

 cart.    s( 6) = (  0.4999999  0.8660253  0.0000000 )    f =(  0.0000000 )
                  ( -0.8660255  0.5000001  0.0000000 )       (  0.0000000 )
                  (  0.0000000  0.0000000  1.0000000 )       (  0.4378582 )

[...]

 cryst.   s( 9) = (     0         -1          0      )
                  (    -1          0          0      )
                  (     0          0         -1      )

 cart.    s( 9) = (  0.4999999 -0.8660255  0.0000000 )
                  ( -0.8660255 -0.4999999  0.0000000 )
                  (  0.0000000  0.0000000 -1.0000000 )

[...]

 cryst.   s(10) = (     1          1          0      )
                  (     0         -1          0      )
                  (     0          0         -1      )

 cart.    s(10) = (  0.5000001  0.8660252  0.0000000 )
                  (  0.8660255 -0.5000001  0.0000000 )
                  (  0.0000000  0.0000000 -1.0000000 )

[...]

 cryst.   s(11) = (    -1         -1          0      )    f =(  0.0000000 )
                  (     0          1          0      )       (  0.0000000 )
                  (     0          0         -1      )       (  0.5000000 )

 cart.    s(11) = ( -0.5000001 -0.8660252  0.0000000 )    f =(  0.0000000 )
                  ( -0.8660255  0.5000001  0.0000000 )       (  0.0000000 )
                  (  0.0000000  0.0000000 -1.0000000 )       (  0.4378582 )

      isym = 12     180 deg rotation - cryst. axis [1,1,0]

[...]

      isym = 13     inversion

[...]

      isym = 14     inv. 180 deg rotation - cart. axis [0,0,1]

[...]

      isym = 16     inv. 180 deg rotation - cart. axis [1,0,0]

[...]

      isym = 17     inv.  60 deg rotation - cryst. axis [0,0,1]

[...]

 cryst.   s(22) = (    -1         -1          0      )
                  (     0          1          0      )
                  (     0          0          1      )

 cart.    s(22) = ( -0.5000001 -0.8660252  0.0000000 )
                  ( -0.8660255  0.5000001  0.0000000 )
                  (  0.0000000  0.0000000  1.0000000 )

[...]

      isym = 24     inv. 180 deg rotation - cryst. axis [1,1,0]

 cryst.   s(24) = (     0         -1          0      )    f =(  0.0000000 )
                  (    -1          0          0      )       (  0.0000000 )
                  (     0          0          1      )       (  0.5000000 )

 cart.    s(24) = (  0.4999999 -0.8660255  0.0000000 )    f =(  0.0000000 )
                  ( -0.8660255 -0.4999999  0.0000000 )       (  0.0000000 )
                  (  0.0000000  0.0000000  1.0000000 )       (  0.4378582 )

   Cartesian axes

     site n.     atom                  positions (alat units)
         1           Zr  tau(   1) = (   0.0000000   0.0000000   0.4378582  )
         2           Zr  tau(   2) = (   0.0000000   0.0000000   0.0000000  )
         3           Cl  tau(   3) = (   0.7036590   0.0000000   0.6567873  )
         4           Cl  tau(   4) = (   0.3518296   0.6093866   0.2189291  )
         5           Cl  tau(   5) = (   0.2963410   0.0000000   0.2189291  )
         6           Cl  tau(   6) = (   0.1481705   0.2566389   0.6567873  )
         7           Cl  tau(   7) = (   0.6481706   0.6093866   0.6567873  )
         8           Cl  tau(   8) = (   0.8518295   0.2566389   0.2189291  )

   Crystallographic axes

     site n.     atom                  positions (cryst. coord.)
         1           Zr  tau(   1) = (  0.0000000  0.0000000  0.5000000  )
         2           Zr  tau(   2) = (  0.0000000  0.0000000  0.0000000  )
         3           Cl  tau(   3) = (  0.7036590  0.0000000  0.7500000  )
         4           Cl  tau(   4) = (  0.7036590  0.7036590  0.2500000  )
         5           Cl  tau(   5) = (  0.2963410  0.0000000  0.2500000  )
         6           Cl  tau(   6) = (  0.2963410  0.2963410  0.7500000  )
         7           Cl  tau(   7) = (  1.0000000  0.7036590  0.7500000  )
         8           Cl  tau(   8) = (  1.0000000  0.2963410  0.2500000  )

     number of k points=     1  Methfessel-Paxton smearing, width (Ry)=  0.0010
                       cart. coord. in units 2pi/alat
        k(    1) = (   0.0000000   0.0000000   0.0000000), wk =   2.0000000

                       cryst. coord.
        k(    1) = (   0.0000000   0.0000000   0.0000000), wk =   2.0000000

     Check: negative core charge=   -0.000002

     Initial potential from superposition of free atoms

     starting charge      65.9957, renormalised to      66.0000

     negative rho (up, down):  2.092E-01 0.000E+00
     Starting wfcs are   50 randomized atomic wfcs

     Self-consistent Calculation

     iteration #  1     ecut=    30.00 Ry     beta= 0.70
     Davidson diagonalization with overlap

     ethr =  1.00E-02,  avg # of iterations =  2.0

     Threshold (ethr) on eigenvalues was too large:
     Diagonalizing with lowered threshold

     Davidson diagonalization with overlap

[...]

     negative rho (up, down):  2.136E-01 0.000E+00

     total energy              =    -399.09480165 Ry
     estimated scf accuracy    <       0.26929598 Ry

[...]

     total energy              =    -399.16551349 Ry
     estimated scf accuracy    <       0.00000166 Ry

     iteration #  8     ecut=    30.00 Ry     beta= 0.70
     Davidson diagonalization with overlap

     ethr =  2.52E-09,  avg # of iterations =  4.0

[...]

     End of self-consistent calculation

          k = 0.0000 0.0000 0.0000 (  2393 PWs)   bands (ev):

   -46.3393 -46.2557 -24.5762 -24.5240 -24.5240 -24.3864 -24.3864 -23.7239
   -12.5802 -12.1936 -12.1936 -11.9680 -11.9680 -11.9208  -2.2326  -1.9347
    -1.7369  -1.7369  -0.9495  -0.9495  -0.6193  -0.5139  -0.5138  -0.4662
    -0.4662  -0.4430  -0.4430  -0.1645   0.3824   0.3824   0.4865   0.5335
     2.9091   4.9711   4.9711   5.3493   5.3494   6.6953   6.6953   7.1074

     occupation numbers
     1.0000   1.0000   1.0000   1.0000   1.0000   1.0000   1.0000   1.0000
     1.0000   1.0000   1.0000   1.0000   1.0000   1.0000   1.0000   1.0000
     1.0000   1.0000   1.0000   1.0000   1.0000   1.0000   1.0000   1.0000
     1.0000   1.0000   1.0000   1.0000   1.0000   1.0000   1.0000   1.0000
     1.0000  -0.0000  -0.0000  -0.0000  -0.0000  -0.0000  -0.0000  -0.0000

     the Fermi energy is     3.8861 ev

!    total energy              =    -399.16551361 Ry
     estimated scf accuracy    <       0.00000019 Ry
     smearing contrib. (-TS)   =       0.00000000 Ry
     internal energy E=F+TS    =    -399.16551361 Ry

     The total energy is F=E-TS. E is the sum of the following terms:
     one-electron contribution =    -233.60312715 Ry
     hartree contribution      =     133.08688155 Ry
     xc contribution           =     -92.20583719 Ry
     ewald contribution        =    -206.44343082 Ry

     convergence has been achieved in   8 iterations

     negative rho (up, down):  2.135E-01 0.000E+00

     Forces acting on atoms (cartesian axes, Ry/au):

     atom    1 type  1   force =    -0.00000000   -0.00000000   -0.00000000
     atom    2 type  1   force =     0.00000000    0.00000000    0.00000000
     atom    3 type  2   force =     0.00470458   -0.00000000    0.00000000
     atom    4 type  2   force =     0.00235229    0.00407428    0.00000000
     atom    5 type  2   force =    -0.00470458    0.00000000    0.00000000
     atom    6 type  2   force =    -0.00235229   -0.00407428    0.00000000
     atom    7 type  2   force =    -0.00235229    0.00407428    0.00000000
     atom    8 type  2   force =     0.00235229   -0.00407428    0.00000000
     The non-local contrib.  to forces
     atom    1 type  1   force =     0.00000000    0.00000000    0.00000000
     atom    2 type  1   force =     0.00000000    0.00000000   -0.00000000
     atom    3 type  2   force =     0.20449367   -0.00000003    0.00000000
     atom    4 type  2   force =     0.10224684    0.17709668   -0.00000000
     atom    5 type  2   force =    -0.20449367    0.00000003    0.00000000
     atom    6 type  2   force =    -0.10224684   -0.17709668    0.00000000
     atom    7 type  2   force =    -0.10224684    0.17709671    0.00000000
     atom    8 type  2   force =     0.10224684   -0.17709671   -0.00000000
     The ionic contribution  to forces
     atom    1 type  1   force =     0.00000000   -0.00000000   -0.00000000
     atom    2 type  1   force =     0.00000000   -0.00000000    0.00000000
     atom    3 type  2   force =   -10.45880475    0.00000002   -0.00000000
     atom    4 type  2   force =    -5.22940269   -9.05758968   -0.00000000
     atom    5 type  2   force =    10.45880475   -0.00000002   -0.00000000
     atom    6 type  2   force =     5.22940269    9.05758968   -0.00000000
     atom    7 type  2   force =     5.22940112   -9.05759134   -0.00000000
     atom    8 type  2   force =    -5.22940112    9.05759134   -0.00000000
     The local contribution  to forces
     atom    1 type  1   force =    -0.00000237   -0.00002295   -0.00001186
     atom    2 type  1   force =     0.00001223   -0.00001890   -0.00001663
     atom    3 type  2   force =    10.26236710   -0.00001464   -0.00001322
     atom    4 type  2   force =     5.13116511    8.88744357    0.00000191
     atom    5 type  2   force =   -10.26235267    0.00000651    0.00000505
     atom    6 type  2   force =    -5.13117013   -8.88745149   -0.00000579
     atom    7 type  2   force =    -5.13119623    8.88746475    0.00000250
     atom    8 type  2   force =     5.13117608   -8.88744673    0.00000053
     The core correction contribution to forces
     atom    1 type  1   force =    -0.00000017   -0.00000042   -0.00000032
     atom    2 type  1   force =     0.00000029   -0.00000025   -0.00000040
     atom    3 type  2   force =    -0.00389233   -0.00000021    0.00000360
     atom    4 type  2   force =    -0.00194650   -0.00337110   -0.00000391
     atom    5 type  2   force =     0.00389233    0.00000008   -0.00000369
     atom    6 type  2   force =     0.00194654    0.00337126    0.00000382
     atom    7 type  2   force =     0.00194586   -0.00337078    0.00000396
     atom    8 type  2   force =    -0.00194632    0.00337113   -0.00000373
     The Hubbard contrib.    to forces
     atom    1 type  1   force =     0.00000000    0.00000000    0.00000000
     atom    2 type  1   force =     0.00000000    0.00000000    0.00000000
     atom    3 type  2   force =     0.00000000    0.00000000    0.00000000
     atom    4 type  2   force =     0.00000000    0.00000000    0.00000000
     atom    5 type  2   force =     0.00000000    0.00000000    0.00000000
     atom    6 type  2   force =     0.00000000    0.00000000    0.00000000
     atom    7 type  2   force =     0.00000000    0.00000000    0.00000000
     atom    8 type  2   force =     0.00000000    0.00000000    0.00000000
     The SCF correction term to forces
     atom    1 type  1   force =     0.00000091    0.00001685    0.00000681
     atom    2 type  1   force =    -0.00000599    0.00001557    0.00000961
     atom    3 type  2   force =     0.00054514    0.00000903    0.00010288
     atom    4 type  2   force =     0.00028347    0.00049228   -0.00010181
     atom    5 type  2   force =    -0.00055379   -0.00000402   -0.00009894
     atom    6 type  2   force =    -0.00028196   -0.00048572    0.00010171
     atom    7 type  2   force =    -0.00026665    0.00047904    0.00009608
     atom    8 type  2   force =     0.00027596   -0.00048937   -0.00009925

     Total force =     0.011524     Total SCF correction =     0.001385
     SCF correction compared to forces is large: reduce conv_thr to get better values

     Computing stress (Cartesian axis) and pressure

     negative rho (up, down):  2.135E-01 0.000E+00
          total   stress  (Ry/bohr**3)                   (kbar)     P=      -14.00
   0.00001839  -0.00000000   0.00000000            2.71       -0.00        0.00
  -0.00000000   0.00001839   0.00000000           -0.00        2.71        0.00
   0.00000000   0.00000000  -0.00032220            0.00        0.00      -47.40

     kinetic stress (kbar)   6952.64     -0.00      0.00
                               -0.00   6952.64      0.00
                                0.00      0.00   6987.22

     local   stress (kbar)  -3103.20     -0.01      0.00
                               -0.01  -3103.21      0.00
                                0.00      0.00 -20394.97

     nonloc. stress (kbar)   5977.11     -0.00      0.00
                               -0.00   5977.11      0.00
                                0.00      0.00   6011.16

     hartree stress (kbar)   1400.63      0.00     -0.00
                                0.00   1400.63     -0.00
                               -0.00     -0.00   8526.78

     exc-cor stress (kbar)    971.20     -0.00      0.00
                               -0.00    971.20     -0.00
                                0.00     -0.00    979.33

     corecor stress (kbar)  -2991.84     -0.00      0.00
                               -0.00  -2991.84      0.00
                                0.00      0.00  -2992.61

     ewald   stress (kbar)  -9203.84     -0.00      0.00
                               -0.00  -9203.84     -0.00
                                0.00     -0.00    835.70

     hubbard stress (kbar)      0.00      0.00      0.00
                                0.00      0.00      0.00
                                0.00      0.00      0.00

     DFT-D   stress (kbar)      0.00      0.00      0.00
                                0.00      0.00      0.00
                                0.00      0.00      0.00

     XDM     stress (kbar)      0.00      0.00      0.00
                                0.00      0.00      0.00
                                0.00      0.00      0.00

     dft-nl  stress (kbar)      0.00      0.00      0.00
                                0.00      0.00      0.00
                                0.00      0.00      0.00

     TS-vdW  stress (kbar)      0.00      0.00      0.00
                                0.00      0.00      0.00
                                0.00      0.00      0.00

[...]

                                0.00      0.00      0.00

     Writing all to output data dir new_calculations/myprefix.save/

     General routines

     Parallel routines

   This run was terminated on:   9:57:32  20May2023

   JOB DONE.