     Program PWSCF v.7.0 starts on 21May2023 at  5:36:26

     Reading input from espresso_14105.pwi
Warning: card &CELL ignored
Warning: card / ignored

     Current dimensions of program PWSCF are:
     Max number of different atomic species (ntypx) = 10
     Max number of k-points (npk) =  40000
     Max angular momentum in pseudopotentials (lmaxx) =  4

     gamma-point specific algorithms are used
     Message from routine setup:
     using ibrav=0 with symmetry is DISCOURAGED, use correct ibrav instead

     Subspace diagonalization in iterative solution of the eigenvalue problem:
     a serial algorithm will be used

     Using Slab Decomposition

     bravais-lattice index     =            0
     lattice parameter (alat)  =      14.8265  a.u.
     unit-cell volume          =    2304.6324 (a.u.)^3
     number of atoms/cell      =            9
     number of atomic types    =            3
     number of electrons       =        66.00
     number of Kohn-Sham states=           40
     kinetic-energy cutoff     =      30.0000  Ry
     charge density cutoff     =     240.0000  Ry
     scf convergence threshold =      1.0E-06
     mixing beta               =       0.7000
     number of iterations used =            8  plain     mixing
     Exchange-correlation=  SLA  PW   PBX  PBC
                           (   1   4   3   4   0   0   0)

     celldm(1)=  14.826508  celldm(2)=   0.000000  celldm(3)=   0.000000
     celldm(4)=   0.000000  celldm(5)=   0.000000  celldm(6)=   0.000000

     crystal axes: (cart. coord. in units of alat)
               a(1) = (   1.000000   0.000000   0.000000 )
               a(2) = (   0.500000   0.866025   0.000000 )
               a(3) = (   0.500000   0.288675   0.816497 )

     reciprocal axes: (cart. coord. in units 2 pi/alat)
               b(1) = (  1.000000 -0.577350 -0.408248 )
               b(2) = (  0.000000  1.154701 -0.408248 )
               b(3) = (  0.000000  0.000000  1.224745 )

     PseudoPot. # 1 for Rb read from file:
     /home/pragov/projects/rrg-bengioy-ad/pragov/crystal_structure_design/SSSP/Rb_ONCV_PBE-1.0.oncvpsp.upf
     MD5 check sum: 55a5172d6bfbce6759a58e35d43f6aa9
     Pseudo is Norm-conserving, Zval =  9.0
     Generated using ONCVPSP code by D. R. Hamann
     Using radial grid of 2308 points,  6 beta functions with:
                l(1) =   0
                l(2) =   0
                l(3) =   1
                l(4) =   1
                l(5) =   2
                l(6) =   2

     PseudoPot. # 2 for Te read from file:
     /home/pragov/projects/rrg-bengioy-ad/pragov/crystal_structure_design/SSSP/Te_pbe_v1.uspp.F.UPF
     MD5 check sum: c319670d6894cc26e93307826a071b75
     Pseudo is Ultrasoft + core correction, Zval =  6.0
     Generated by new atomic code, or converted to UPF format
     Using radial grid of  891 points,  5 beta functions with:
                l(1) =   0
                l(2) =   0
                l(3) =   1
                l(4) =   1
                l(5) =   2
     Q(r) pseudized with  6 coefficients,  rinner =    1.800   1.800   1.800
                                                       1.800   1.800

     PseudoPot. # 3 for Br read from file:
     /home/pragov/projects/rrg-bengioy-ad/pragov/crystal_structure_design/SSSP/br_pbe_v1.4.uspp.F.UPF
     MD5 check sum: d3ffb7b29f6225aa16fe06858fb2a80b
     Pseudo is Ultrasoft + core correction, Zval =  7.0
     Generated by new atomic code, or converted to UPF format
     Using radial grid of  879 points,  6 beta functions with:
                l(1) =   0
                l(2) =   0
                l(3) =   1
                l(4) =   1
                l(5) =   2
                l(6) =   2
     Q(r) pseudized with  8 coefficients,  rinner =    1.100   1.100   1.100
                                                       1.100   1.100

     atomic species   valence    mass     pseudopotential
        Rb             9.00    85.46780     Rb( 1.00)
        Te             6.00   127.60000     Te( 1.00)
        Br             7.00    79.90400     Br( 1.00)

     12 Sym. Ops., with inversion, found

                                    s                        frac. trans.

      isym =  1     identity

 cryst.   s( 1) = (     1          0          0      )
                  (     0          1          0      )
                  (     0          0          1      )

 cart.    s( 1) = (  1.0000000  0.0000000  0.0000000 )
                  (  0.0000000  1.0000000 -0.0000000 )
                  (  0.0000000  0.0000000  1.0000000 )

      isym =  2     180 deg rotation - cart. axis [1,0,0]

[...]

      isym =  3     120 deg rotation - cryst. axis [0,0,1]

[...]

      isym =  6     180 deg rotation - cryst. axis [1,1,0]

[...]

      isym =  7     inversion

[...]

      isym =  8     inv. 180 deg rotation - cart. axis [1,0,0]

[...]

      isym =  9     inv. 120 deg rotation - cryst. axis [0,0,1]

 cryst.   s( 9) = (     1         -1          0      )
                  (     1          0          0      )
                  (     1          0         -1      )

 cart.    s( 9) = (  0.5000000  0.8660254  0.0000000 )
                  ( -0.8660254  0.5000000  0.0000000 )
                  (  0.0000000  0.0000000 -1.0000000 )

[...]

 cryst.   s(10) = (     0          1          0      )
                  (    -1          1          0      )
                  (     0          1         -1      )

 cart.    s(10) = (  0.5000000 -0.8660254 -0.0000000 )
                  (  0.8660254  0.5000000  0.0000000 )
                  (  0.0000000  0.0000000 -1.0000000 )

[...]

      isym = 12     inv. 180 deg rotation - cryst. axis [1,1,0]

 cryst.   s(12) = (     1         -1          0      )
                  (     0         -1          0      )
                  (     0         -1          1      )

 cart.    s(12) = (  0.5000000 -0.8660254 -0.0000000 )
                  ( -0.8660254 -0.5000000 -0.0000000 )
                  (  0.0000000  0.0000000  1.0000000 )

   Cartesian axes

     site n.     atom                  positions (alat units)
         1           Rb  tau(   1) = (   1.5000000   0.8660254   0.6123724  )
         2           Rb  tau(   2) = (   0.5000000   0.2886751   0.2041241  )
         3           Te  tau(   3) = (   0.0000000   0.0000000   0.0000000  )
         4           Br  tau(   4) = (   1.2535290   0.4309752   0.6152539  )
         5           Br  tau(   5) = (   0.7464710   0.4309752   0.6152539  )
         6           Br  tau(   6) = (   1.2535290   0.7237253   0.2012427  )
         7           Br  tau(   7) = (   0.7464710   0.7237253   0.2012427  )
         8           Br  tau(   8) = (   1.0000000   0.8701003   0.6152539  )
         9           Br  tau(   9) = (   1.0000000   0.2846002   0.2012427  )

   Crystallographic axes

     site n.     atom                  positions (cryst. coord.)
         1           Rb  tau(   1) = (  0.7500000  0.7500000  0.7500000  )
         2           Rb  tau(   2) = (  0.2500000  0.2500000  0.2500000  )
         3           Te  tau(   3) = (  0.0000000  0.0000000  0.0000000  )
         4           Br  tau(   4) = (  0.7535290  0.2464710  0.7535290  )
         5           Br  tau(   5) = (  0.2464710  0.2464710  0.7535290  )
         6           Br  tau(   6) = (  0.7535290  0.7535290  0.2464710  )
         7           Br  tau(   7) = (  0.2464710  0.7535290  0.2464710  )
         8           Br  tau(   8) = (  0.2464710  0.7535290  0.7535290  )
         9           Br  tau(   9) = (  0.7535290  0.2464710  0.2464710  )

     number of k points=     1  Methfessel-Paxton smearing, width (Ry)=  0.0010
                       cart. coord. in units 2pi/alat
        k(    1) = (   0.0000000   0.0000000   0.0000000), wk =   2.0000000

                       cryst. coord.
        k(    1) = (   0.0000000   0.0000000   0.0000000), wk =   2.0000000

     Check: negative core charge=   -0.000001

     Initial potential from superposition of free atoms

     starting charge      65.9501, renormalised to      66.0000
     Starting wfcs are   38 randomized atomic wfcs +    2 random wfcs

     Self-consistent Calculation

     iteration #  1     ecut=    30.00 Ry     beta= 0.70
     Davidson diagonalization with overlap

     ethr =  1.00E-02,  avg # of iterations =  5.0

     Threshold (ethr) on eigenvalues was too large:
     Diagonalizing with lowered threshold

     Davidson diagonalization with overlap

[...]

     total energy              =    -405.66878876 Ry
     estimated scf accuracy    <       0.56808561 Ry

[...]

     total energy              =    -405.93688248 Ry
     estimated scf accuracy    <       0.00003247 Ry

     iteration #  6     ecut=    30.00 Ry     beta= 0.70
     Davidson diagonalization with overlap

     ethr =  4.92E-08,  avg # of iterations =  2.0

     End of self-consistent calculation

          k = 0.0000 0.0000 0.0000 (  3188 PWs)   bands (ev):

   -23.7520 -23.7510 -12.3409 -11.3337 -11.3336 -11.3334 -11.0918 -11.0916
    -8.4587  -7.8407  -7.8407  -7.8406  -7.8228  -7.8227  -7.8227  -2.1230
    -2.1229  -2.1228  -0.0620  -0.0620  -0.0619   0.8151   0.8152   0.9852
     1.0995   1.0996   1.0996   1.1980   1.1981   1.1981   1.7424   1.7425
     1.7425   4.5325   4.5325   4.5326   6.0672   7.3435   7.7519   7.7519

     occupation numbers
     1.0000   1.0000   1.0000   1.0000   1.0000   1.0000   1.0000   1.0000
     1.0000   1.0000   1.0000   1.0000   1.0000   1.0000   1.0000   1.0000
     1.0000   1.0000   1.0000   1.0000   1.0000   1.0000   1.0000   1.0000
     1.0000   1.0000   1.0000   1.0000   1.0000   1.0000   1.0000   1.0000
     1.0000  -0.0000  -0.0000  -0.0000  -0.0000  -0.0000  -0.0000  -0.0000

     the Fermi energy is     3.9160 ev

!    total energy              =    -405.93689246 Ry
     estimated scf accuracy    <       0.00000042 Ry
     smearing contrib. (-TS)   =       0.00000000 Ry
     internal energy E=F+TS    =    -405.93689246 Ry

     The total energy is F=E-TS. E is the sum of the following terms:
     one-electron contribution =     -55.91550608 Ry
     hartree contribution      =      51.76164918 Ry
     xc contribution           =    -186.39292891 Ry
     ewald contribution        =    -215.39010663 Ry

     convergence has been achieved in   6 iterations

     Forces acting on atoms (cartesian axes, Ry/au):

     atom    1 type  1   force =    -0.00000000    0.00000000   -0.00001025
     atom    2 type  1   force =     0.00000000   -0.00000000    0.00001025
     atom    3 type  2   force =    -0.00000000   -0.00000000    0.00000000
     atom    4 type  3   force =     0.00847275   -0.00489175    0.00692448
     atom    5 type  3   force =    -0.00847275   -0.00489175    0.00692448
     atom    6 type  3   force =     0.00847275    0.00489175   -0.00692448
     atom    7 type  3   force =    -0.00847275    0.00489175   -0.00692448
     atom    8 type  3   force =     0.00000000    0.00978349    0.00692448
     atom    9 type  3   force =     0.00000000   -0.00978349   -0.00692448
     The non-local contrib.  to forces
     atom    1 type  1   force =     0.00000000    0.00000000   -0.00000227
     atom    2 type  1   force =     0.00000000    0.00000000    0.00000227
     atom    3 type  2   force =     0.00000000    0.00000000   -0.00000000
     atom    4 type  3   force =    -0.02199744    0.01270023   -0.01797100
     atom    5 type  3   force =     0.02199744    0.01270023   -0.01797100
     atom    6 type  3   force =    -0.02199744   -0.01270023    0.01797100
     atom    7 type  3   force =     0.02199744   -0.01270023    0.01797100
     atom    8 type  3   force =     0.00000000   -0.02540046   -0.01797100
     atom    9 type  3   force =     0.00000000    0.02540046    0.01797100
     The ionic contribution  to forces
     atom    1 type  1   force =    -0.00000000    0.00000000   -0.00000000
     atom    2 type  1   force =    -0.00000000   -0.00000000    0.00000000
     atom    3 type  2   force =    -0.00000000    0.00000000    0.00000000
     atom    4 type  3   force =    -1.93942936    1.11973006   -1.58353744
     atom    5 type  3   force =     1.93942936    1.11973006   -1.58353744
     atom    6 type  3   force =    -1.93942936   -1.11973006    1.58353744
     atom    7 type  3   force =     1.93942936   -1.11973006    1.58353744
     atom    8 type  3   force =     0.00000000   -2.23946013   -1.58353744
     atom    9 type  3   force =    -0.00000000    2.23946013    1.58353744
     The local contribution  to forces
     atom    1 type  1   force =    -0.00033432    0.00012061   -0.00002763
     atom    2 type  1   force =     0.00018578    0.00002708    0.00002532
     atom    3 type  2   force =    -0.00000715    0.00004338   -0.00000064
     atom    4 type  3   force =     1.98557424   -1.14635831    1.62126143
     atom    5 type  3   force =    -1.98558318   -1.14670684    1.62121248
     atom    6 type  3   force =     1.98562825    1.14644333   -1.62112204
     atom    7 type  3   force =    -1.98568895    1.14633062   -1.62149505
     atom    8 type  3   force =     0.00031269    2.29289028    1.62131510
     atom    9 type  3   force =    -0.00013834   -2.29285561   -1.62121013
     The core correction contribution to forces
     atom    1 type  1   force =     0.00000000    0.00000000    0.00000000
     atom    2 type  1   force =     0.00000000    0.00000000    0.00000000
     atom    3 type  2   force =     0.00000781   -0.00002883   -0.00000398
     atom    4 type  3   force =    -0.01591137    0.00919192   -0.01298673
     atom    5 type  3   force =     0.01591188    0.00916954   -0.01299329
     atom    6 type  3   force =    -0.01590557   -0.00918054    0.01299555
     atom    7 type  3   force =     0.01589218   -0.00918474    0.01297182
     atom    8 type  3   force =     0.00001383   -0.01834741   -0.01297685
     atom    9 type  3   force =    -0.00000703    0.01837781    0.01299809
     The Hubbard contrib.    to forces
     atom    1 type  1   force =     0.00000000    0.00000000    0.00000000
     atom    2 type  1   force =     0.00000000    0.00000000    0.00000000
     atom    3 type  2   force =     0.00000000    0.00000000    0.00000000
     atom    4 type  3   force =     0.00000000    0.00000000    0.00000000
     atom    5 type  3   force =     0.00000000    0.00000000    0.00000000
     atom    6 type  3   force =     0.00000000    0.00000000    0.00000000
     atom    7 type  3   force =     0.00000000    0.00000000    0.00000000
     atom    8 type  3   force =     0.00000000    0.00000000    0.00000000
     atom    9 type  3   force =     0.00000000    0.00000000    0.00000000
     The SCF correction term to forces
     atom    1 type  1   force =     0.00041814   -0.00013485    0.00002053
     atom    2 type  1   force =    -0.00023195   -0.00005122   -0.00001646
     atom    3 type  2   force =    -0.00008143    0.00030231    0.00005077
     atom    4 type  3   force =     0.00028997   -0.00022145    0.00015026
     atom    5 type  3   force =    -0.00028760    0.00032594    0.00025288
     atom    6 type  3   force =     0.00017915    0.00004403   -0.00036941
     atom    7 type  3   force =    -0.00003207    0.00020647    0.00020041
     atom    8 type  3   force =    -0.00044816    0.00000549    0.00004105
     atom    9 type  3   force =     0.00020449   -0.00023862   -0.00029042

     Total force =     0.029360     Total SCF correction =     0.001183

     Computing stress (Cartesian axis) and pressure

          total   stress  (Ry/bohr**3)                   (kbar)     P=       31.59
   0.00021474  -0.00000000  -0.00000000           31.59       -0.00       -0.00
   0.00000000   0.00021474   0.00000000            0.00       31.59        0.00
   0.00000000   0.00000000   0.00021470            0.00        0.00       31.58

     kinetic stress (kbar)   3668.39      0.00     -0.00
                                0.00   3668.39      0.00
                               -0.00      0.00   3668.39

     local   stress (kbar)   3135.80      0.01      0.01
                                0.01   3135.80     -0.01
                                0.01     -0.01   3135.79

     nonloc. stress (kbar)  -1885.49      0.00      0.00
                                0.00  -1885.49     -0.00
                                0.00     -0.00  -1885.49

     hartree stress (kbar)   1101.32     -0.01     -0.01
                               -0.01   1101.32      0.00
                               -0.01      0.00   1101.32

     exc-cor stress (kbar)   7161.76     -0.00      0.00
                               -0.00   7161.76      0.00
                                0.00      0.00   7161.76

     corecor stress (kbar)  -8567.39      0.00      0.00
                                0.00  -8567.39     -0.00
                                0.00     -0.00  -8567.39

     ewald   stress (kbar)  -4582.80     -0.00      0.00
                               -0.00  -4582.80     -0.00
                                0.00     -0.00  -4582.80

     hubbard stress (kbar)      0.00      0.00      0.00
                                0.00      0.00      0.00
                                0.00      0.00      0.00

     DFT-D   stress (kbar)      0.00      0.00      0.00
                                0.00      0.00      0.00
                                0.00      0.00      0.00

     XDM     stress (kbar)      0.00      0.00      0.00
                                0.00      0.00      0.00
                                0.00      0.00      0.00

     dft-nl  stress (kbar)      0.00      0.00      0.00
                                0.00      0.00      0.00
                                0.00      0.00      0.00

     TS-vdW  stress (kbar)      0.00      0.00      0.00
                                0.00      0.00      0.00
                                0.00      0.00      0.00

[...]

                                0.00      0.00      0.00

     Writing all to output data dir new_calculations/myprefix.save/

     General routines

     Parallel routines

   This run was terminated on:   5:36:51  21May2023

   JOB DONE.