     Program PWSCF v.7.0 starts on 20May2023 at 10:24: 5

     Reading input from espresso_4341.pwi
Warning: card &CELL ignored
Warning: card / ignored

     Current dimensions of program PWSCF are:
     Max number of different atomic species (ntypx) = 10
     Max number of k-points (npk) =  40000
     Max angular momentum in pseudopotentials (lmaxx) =  4

     gamma-point specific algorithms are used
     Message from routine setup:
     using ibrav=0 with symmetry is DISCOURAGED, use correct ibrav instead

     Subspace diagonalization in iterative solution of the eigenvalue problem:
     a serial algorithm will be used

     Using Slab Decomposition

     bravais-lattice index     =            0
     lattice parameter (alat)  =       8.9513  a.u.
     unit-cell volume          =    1536.8805 (a.u.)^3
     number of atoms/cell      =            8
     number of atomic types    =            3
     number of electrons       =       120.00
     number of Kohn-Sham states=           72
     kinetic-energy cutoff     =      30.0000  Ry
     charge density cutoff     =     240.0000  Ry
     scf convergence threshold =      1.0E-06
     mixing beta               =       0.7000
     number of iterations used =            8  plain     mixing
     Exchange-correlation= PBE
                           (   1   4   3   4   0   0   0)

     celldm(1)=   8.951268  celldm(2)=   0.000000  celldm(3)=   0.000000
     celldm(4)=   0.000000  celldm(5)=   0.000000  celldm(6)=   0.000000

     crystal axes: (cart. coord. in units of alat)
               a(1) = (   1.000000   0.000000   0.000000 )
               a(2) = (   0.000000   1.000000   0.000000 )
               a(3) = (   0.000000   0.000000   2.142824 )

     reciprocal axes: (cart. coord. in units 2 pi/alat)
               b(1) = (  1.000000  0.000000  0.000000 )
               b(2) = (  0.000000  1.000000  0.000000 )
               b(3) = (  0.000000  0.000000  0.466674 )

     PseudoPot. # 1 for La read from file:
     /home/pragov/projects/rrg-bengioy-ad/pragov/crystal_structure_design/SSSP/La.GGA-PBE-paw-v1.0.UPF
     MD5 check sum: 436541e95c1ad8901025bd0b0ed42ae2
     Pseudo is Projector augmented-wave + core cor, Zval = 11.0
     Generated using ATOMPAW code
     Shape of augmentation charge: BESSEL
     Using radial grid of 1101 points,  8 beta functions with:
                l(1) =   0
                l(2) =   0
                l(3) =   1
                l(4) =   1
                l(5) =   2
                l(6) =   2
                l(7) =   3
                l(8) =   3
     Q(r) pseudized with 0 coefficients

     PseudoPot. # 2 for Bi read from file:
     /home/pragov/projects/rrg-bengioy-ad/pragov/crystal_structure_design/SSSP/Bi_pbe_v1.uspp.F.UPF
     MD5 check sum: cceb9f28ec65b6d7ff33140f5b0b1758
     Pseudo is Ultrasoft + core correction, Zval = 15.0
     Generated by new atomic code, or converted to UPF format
     Using radial grid of  899 points,  6 beta functions with:
                l(1) =   0
                l(2) =   0
                l(3) =   1
                l(4) =   1
                l(5) =   2
                l(6) =   2
     Q(r) pseudized with  6 coefficients,  rinner =    1.000   1.000   1.000
                                                       1.000   1.000

     PseudoPot. # 3 for Au read from file:
     /home/pragov/projects/rrg-bengioy-ad/pragov/crystal_structure_design/SSSP/Au_ONCV_PBE-1.0.oncvpsp.upf
     MD5 check sum: d14007822ba0e19f0206237467fc06c2
     Pseudo is Norm-conserving, Zval = 19.0
     Generated using ONCVPSP code by D. R. Hamann
     Using radial grid of 1278 points,  8 beta functions with:
                l(1) =   0
                l(2) =   0
                l(3) =   1
                l(4) =   1
                l(5) =   2
                l(6) =   2
                l(7) =   3
                l(8) =   3

     atomic species   valence    mass     pseudopotential
        La            11.00   138.90547     La( 1.00)
        Bi            15.00   208.98040     Bi( 1.00)
        Au            19.00   196.96657     Au( 1.00)

     16 Sym. Ops., with inversion, found ( 8 have fractional translation)

                                    s                        frac. trans.

      isym =  1     identity

 cryst.   s( 1) = (     1          0          0      )
                  (     0          1          0      )
                  (     0          0          1      )

 cart.    s( 1) = (  1.0000000  0.0000000  0.0000000 )
                  (  0.0000000  1.0000000  0.0000000 )
                  (  0.0000000  0.0000000  1.0000000 )

      isym =  2     180 deg rotation - cart. axis [0,0,1]

[...]

 cryst.   s( 3) = (    -1          0          0      )    f =(  0.5000000 )
                  (     0          1          0      )       ( -0.5000000 )
                  (     0          0         -1      )       (  0.0000000 )

 cart.    s( 3) = ( -1.0000000  0.0000000  0.0000000 )    f =(  0.5000000 )
                  (  0.0000000  1.0000000  0.0000000 )       ( -0.5000000 )
                  (  0.0000000  0.0000000 -1.0000000 )       (  0.0000000 )

[...]

 cryst.   s( 6) = (     0         -1          0      )
                  (    -1          0          0      )
                  (     0          0         -1      )

 cart.    s( 6) = (  0.0000000 -1.0000000  0.0000000 )
                  ( -1.0000000  0.0000000  0.0000000 )
                  (  0.0000000  0.0000000 -1.0000000 )

[...]

      isym =  8      90 deg rotation - cart. axis [0,0,1]

[...]

      isym =  9     inversion

 cryst.   s( 9) = (    -1          0          0      )    f =(  0.5000000 )
                  (     0         -1          0      )       (  0.5000000 )
                  (     0          0         -1      )       (  0.0000000 )

 cart.    s( 9) = ( -1.0000000  0.0000000  0.0000000 )    f =(  0.5000000 )
                  (  0.0000000 -1.0000000  0.0000000 )       (  0.5000000 )
                  (  0.0000000  0.0000000 -1.0000000 )       (  0.0000000 )

      isym = 10     inv. 180 deg rotation - cart. axis [0,0,1]

 cryst.   s(10) = (     1          0          0      )    f =(  0.5000000 )
                  (     0          1          0      )       ( -0.5000000 )
                  (     0          0         -1      )       (  0.0000000 )

 cart.    s(10) = (  1.0000000  0.0000000  0.0000000 )    f =(  0.5000000 )
                  (  0.0000000  1.0000000  0.0000000 )       ( -0.5000000 )
                  (  0.0000000  0.0000000 -1.0000000 )       (  0.0000000 )

[...]

 cryst.   s(11) = (     1          0          0      )
                  (     0         -1          0      )
                  (     0          0          1      )

 cart.    s(11) = (  1.0000000  0.0000000  0.0000000 )
                  (  0.0000000 -1.0000000  0.0000000 )
                  (  0.0000000  0.0000000  1.0000000 )

[...]

 cryst.   s(14) = (     0          1          0      )    f =(  0.5000000 )
                  (     1          0          0      )       ( -0.5000000 )
                  (     0          0          1      )       (  0.0000000 )

 cart.    s(14) = (  0.0000000  1.0000000  0.0000000 )    f =(  0.5000000 )
                  (  1.0000000  0.0000000  0.0000000 )       ( -0.5000000 )
                  (  0.0000000  0.0000000  1.0000000 )       (  0.0000000 )

[...]

      isym = 16     inv.  90 deg rotation - cart. axis [0,0,1]

 cryst.   s(16) = (     0         -1          0      )
                  (     1          0          0      )
                  (     0          0         -1      )

 cart.    s(16) = (  0.0000000  1.0000000  0.0000000 )
                  ( -1.0000000  0.0000000  0.0000000 )
                  (  0.0000000  0.0000000 -1.0000000 )

   Cartesian axes

     site n.     atom                  positions (alat units)
         1           La  tau(   1) = (   0.5000000   0.0000000   0.5001950  )
         2           La  tau(   2) = (   0.0000000   0.5000000   1.6426286  )
         3           Bi  tau(   3) = (   0.0000000   0.5000000   0.3989016  )
         4           Bi  tau(   4) = (   0.5000000   0.0000000   1.7439220  )
         5           Bi  tau(   5) = (   0.0000000   0.0000000   1.0714118  )
         6           Bi  tau(   6) = (   0.5000000   0.5000000   1.0714118  )
         7           Au  tau(   7) = (   0.0000000   0.0000000   0.0000000  )
         8           Au  tau(   8) = (   0.5000000   0.5000000   0.0000000  )

   Crystallographic axes

     site n.     atom                  positions (cryst. coord.)
         1           La  tau(   1) = (  0.5000000  0.0000000  0.2334280  )
         2           La  tau(   2) = (  0.0000000  0.5000000  0.7665720  )
         3           Bi  tau(   3) = (  0.0000000  0.5000000  0.1861570  )
         4           Bi  tau(   4) = (  0.5000000  0.0000000  0.8138430  )
         5           Bi  tau(   5) = (  0.0000000  0.0000000  0.5000000  )
         6           Bi  tau(   6) = (  0.5000000  0.5000000  0.5000000  )
         7           Au  tau(   7) = (  0.0000000  0.0000000  0.0000000  )
         8           Au  tau(   8) = (  0.5000000  0.5000000  0.0000000  )

     number of k points=     1  Methfessel-Paxton smearing, width (Ry)=  0.0010
                       cart. coord. in units 2pi/alat
        k(    1) = (   0.0000000   0.0000000   0.0000000), wk =   2.0000000

                       cryst. coord.
        k(    1) = (   0.0000000   0.0000000   0.0000000), wk =   2.0000000

     Check: negative core charge=   -0.000004

     Initial potential from superposition of free atoms

     starting charge     115.9826, renormalised to     120.0000

     negative rho (up, down):  1.781E-01 0.000E+00
     Starting wfcs are  120 randomized atomic wfcs
     Checking if some PAW data can be deallocated...

     Self-consistent Calculation

     iteration #  1     ecut=    30.00 Ry     beta= 0.70
     Davidson diagonalization with overlap

     ethr =  1.00E-02,  avg # of iterations =  7.0

     negative rho (up, down):  1.935E-01 0.000E+00

     total energy              =   -2039.89931628 Ry
     estimated scf accuracy    <     198.00389935 Ry

[...]

     c_bands:  1 eigenvalues not converged
     ethr =  9.61E-07,  avg # of iterations = 20.0

[...]

     total energy              =   -2206.36838449 Ry
     estimated scf accuracy    <       0.00000271 Ry

     iteration # 33     ecut=    30.00 Ry     beta= 0.70
     Davidson diagonalization with overlap

     ethr =  2.26E-09,  avg # of iterations =  3.0

[...]

     End of self-consistent calculation

          k = 0.0000 0.0000 0.0000 (  2137 PWs)   bands (ev):

   -92.9945 -92.9938 -44.0844 -44.0811 -43.9850 -43.9850 -43.9752 -43.9752
   -19.3760 -19.3748 -10.0797 -10.0077  -9.8953  -9.8911  -9.8911  -9.8649
    -9.8245  -9.8244  -9.7712  -9.7443  -9.3451  -9.3442  -9.3105  -9.3104
    -9.3092  -9.3092  -9.2826  -9.2812  -9.2457  -9.2428  -3.3298  -3.2298
    -3.1514  -3.1514  -3.1489  -3.1489   0.6629   2.1401   2.2457   3.9532
     7.7962   8.1246   8.4998   8.4998   8.5196   9.2202   9.3375   9.3375
     9.7944  10.0006  10.0817  10.0817  10.3309  10.6972  11.7672  11.8508
    11.8509  12.7563  13.2240  13.3683  13.3683  14.4501  14.6962  14.8174
    14.8175  15.2024  15.2025  15.2558  15.3181  15.3944  15.5615  15.5624

     occupation numbers
     1.0000   1.0000   1.0000   1.0000   1.0000   1.0000   1.0000   1.0000
     1.0000   1.0000   1.0000   1.0000   1.0000   1.0000   1.0000   1.0000
     1.0000   1.0000   1.0000   1.0000   1.0000   1.0000   1.0000   1.0000
     1.0000   1.0000   1.0000   1.0000   1.0000   1.0000   1.0000   1.0000
     1.0000   1.0000   1.0000   1.0000   1.0000   1.0000   1.0000   1.0000
     1.0000   1.0000   1.0000   1.0000   1.0000   1.0000   1.0000   1.0000
     1.0000   1.0000   1.0000   1.0000   1.0000   1.0000   1.0000   1.0000
     1.0000   1.0000   1.0000   0.5002   0.4998  -0.0000  -0.0000  -0.0000
    -0.0000  -0.0000  -0.0000  -0.0000  -0.0000  -0.0000  -0.0000  -0.0000

     the Fermi energy is    13.3683 ev

!    total energy              =   -2206.36838479 Ry
     estimated scf accuracy    <       0.00000024 Ry
     smearing contrib. (-TS)   =      -0.00056419 Ry
     internal energy E=F+TS    =   -2206.36782060 Ry

     The total energy is F=E-TS. E is the sum of the following terms:
     one-electron contribution =    -590.96526760 Ry
     hartree contribution      =     360.04754923 Ry
     xc contribution           =    -326.87707560 Ry
     ewald contribution        =    -852.32753620 Ry
     one-center paw contrib.   =    -796.24549044 Ry
      -> PAW hartree energy AE =      70.91551607 Ry
      -> PAW hartree energy PS =     -70.97077157 Ry
      -> PAW xc energy AE      =    -810.91609237 Ry
      -> PAW xc energy PS      =      14.72585743 Ry
      -> total E_H with PAW    =     359.99229373 Ry
      -> total E_XC with PAW   =   -1123.06731054 Ry

     convergence has been achieved in  33 iterations

     negative rho (up, down):  1.828E-01 0.000E+00

     Forces acting on atoms (cartesian axes, Ry/au):

     atom    1 type  1   force =     0.00000000    0.00000000    0.01957448
     atom    2 type  1   force =     0.00000000    0.00000000   -0.01957448
     atom    3 type  2   force =     0.00000000    0.00000000   -0.03861468
     atom    4 type  2   force =     0.00000000    0.00000000    0.03861468
     atom    5 type  2   force =     0.00000000    0.00000000    0.00000000
     atom    6 type  2   force =     0.00000000    0.00000000    0.00000000
     atom    7 type  3   force =     0.00000000    0.00000000   -0.00000000
     atom    8 type  3   force =     0.00000000    0.00000000   -0.00000000
     The non-local contrib.  to forces
     atom    1 type  1   force =     0.00000000    0.00000000   -0.17636028
     atom    2 type  1   force =     0.00000000    0.00000000    0.17636028
     atom    3 type  2   force =     0.00000000    0.00000000   -0.33060492
     atom    4 type  2   force =     0.00000000    0.00000000    0.33060492
     atom    5 type  2   force =     0.00000000    0.00000000    0.00000000
     atom    6 type  2   force =     0.00000000    0.00000000    0.00000000
     atom    7 type  3   force =     0.00000000    0.00000000   -0.00000000
     atom    8 type  3   force =     0.00000000    0.00000000    0.00000000
     The ionic contribution  to forces
     atom    1 type  1   force =    -0.00000000   -0.00000000   19.33982779
     atom    2 type  1   force =    -0.00000000   -0.00000000  -19.33982779
     atom    3 type  2   force =     0.00000000   -0.00000000   31.04338961
     atom    4 type  2   force =    -0.00000000   -0.00000000  -31.04338961
     atom    5 type  2   force =    -0.00000000   -0.00000000   -0.00000000
     atom    6 type  2   force =     0.00000000    0.00000000   -0.00000000
     atom    7 type  3   force =    -0.00000000   -0.00000000   -0.00000000
     atom    8 type  3   force =     0.00000000    0.00000000   -0.00000000
     The local contribution  to forces
     atom    1 type  1   force =     0.00019505   -0.00005064  -19.14353966
     atom    2 type  1   force =    -0.00000403    0.00002084   19.14342480
     atom    3 type  2   force =    -0.00013005    0.00004449  -30.76612427
     atom    4 type  2   force =     0.00002477   -0.00001795   30.76685768
     atom    5 type  2   force =    -0.00000044   -0.00008635   -0.00109456
     atom    6 type  2   force =     0.00001810    0.00007493   -0.00099457
     atom    7 type  3   force =     0.00021199   -0.00007959    0.00178944
     atom    8 type  3   force =    -0.00035175    0.00003014    0.00075457
     The core correction contribution to forces
     atom    1 type  1   force =     0.00000011   -0.00000002    0.00027673
     atom    2 type  1   force =    -0.00000001    0.00000000   -0.00027689
     atom    3 type  2   force =    -0.00000381    0.00000095    0.01564141
     atom    4 type  2   force =     0.00000217    0.00000060   -0.01563979
     atom    5 type  2   force =     0.00000041   -0.00000149   -0.00000507
     atom    6 type  2   force =    -0.00000078    0.00000115   -0.00000345
     atom    7 type  3   force =     0.00000000    0.00000000    0.00000000
     atom    8 type  3   force =     0.00000000    0.00000000    0.00000000
     The Hubbard contrib.    to forces
     atom    1 type  1   force =     0.00000000    0.00000000    0.00000000
     atom    2 type  1   force =     0.00000000    0.00000000    0.00000000
     atom    3 type  2   force =     0.00000000    0.00000000    0.00000000
     atom    4 type  2   force =     0.00000000    0.00000000    0.00000000
     atom    5 type  2   force =     0.00000000    0.00000000    0.00000000
     atom    6 type  2   force =     0.00000000    0.00000000    0.00000000
     atom    7 type  3   force =     0.00000000    0.00000000    0.00000000
     atom    8 type  3   force =     0.00000000    0.00000000    0.00000000
     The SCF correction term to forces
     atom    1 type  1   force =    -0.00012641    0.00002983   -0.00068499
     atom    2 type  1   force =     0.00000536   -0.00001034    0.00069023
     atom    3 type  2   force =     0.00012491   -0.00003760   -0.00093777
     atom    4 type  2   force =    -0.00001426    0.00003803    0.00016022
     atom    5 type  2   force =    -0.00001174    0.00009694    0.00107993
     atom    6 type  2   force =     0.00000040   -0.00008829    0.00093865
     atom    7 type  3   force =    -0.00023300    0.00008729   -0.00181065
     atom    8 type  3   force =     0.00033752   -0.00004029   -0.00085305

     Total force =     0.061225     Total SCF correction =     0.002852

     Computing stress (Cartesian axis) and pressure

     negative rho (up, down):  1.828E-01 0.000E+00
          total   stress  (Ry/bohr**3)                   (kbar)     P=     -106.57
  -0.00041149   0.00000000   0.00000000          -60.53        0.00        0.00
   0.00000000  -0.00041149   0.00000000            0.00      -60.53        0.00
   0.00000000   0.00000000  -0.00135030            0.00        0.00     -198.64

     kinetic stress (kbar)  16634.91      0.00      0.00
                                0.00  16634.91      0.00
                                0.00      0.00  16444.32

     local   stress (kbar) -20046.73     -0.08      0.06
                               -0.08 -20046.73      0.00
                                0.06      0.00  14729.63

     nonloc. stress (kbar)  13309.85      0.00      0.00
                                0.00  13309.85      0.00
                                0.00      0.00  13272.76

     hartree stress (kbar)  17041.95      0.02     -0.03
                                0.02  17041.97      0.00
                               -0.03      0.00    378.63

     exc-cor stress (kbar)  12490.43      0.00     -0.00
                                0.00  12490.43      0.00
                               -0.00      0.00  12489.69

     corecor stress (kbar) -18305.18     -0.00      0.00
                               -0.00 -18305.18      0.00
                                0.00      0.00 -18303.25

     ewald   stress (kbar) -21185.77      0.00      0.00
                                0.00 -21185.77     -0.00
                                0.00     -0.00 -39210.41

     hubbard stress (kbar)      0.00      0.00      0.00
                                0.00      0.00      0.00
                                0.00      0.00      0.00

     DFT-D   stress (kbar)      0.00      0.00      0.00
                                0.00      0.00      0.00
                                0.00      0.00      0.00

     XDM     stress (kbar)      0.00      0.00      0.00
                                0.00      0.00      0.00
                                0.00      0.00      0.00

     dft-nl  stress (kbar)      0.00      0.00      0.00
                                0.00      0.00      0.00
                                0.00      0.00      0.00

     TS-vdW  stress (kbar)      0.00      0.00      0.00
                                0.00      0.00      0.00
                                0.00      0.00      0.00

[...]

                                0.00      0.00      0.00

     Writing all to output data dir new_calculations/myprefix.save/

     General routines

     Parallel routines

     PAW routines

   This run was terminated on:  10:25:11  20May2023

   JOB DONE.