     Program PWSCF v.7.0 starts on 21May2023 at 13:37: 4

     Reading input from espresso_26756.pwi
Warning: card &CELL ignored
Warning: card / ignored

     Current dimensions of program PWSCF are:
     Max number of different atomic species (ntypx) = 10
     Max number of k-points (npk) =  40000
     Max angular momentum in pseudopotentials (lmaxx) =  4
     file O.pbe-n-kjpaw_psl.0.1.UPF: wavefunction(s)  2P renormalized

     gamma-point specific algorithms are used
     Message from routine setup:
     using ibrav=0 with symmetry is DISCOURAGED, use correct ibrav instead

     Subspace diagonalization in iterative solution of the eigenvalue problem:
     a serial algorithm will be used

     Using Slab Decomposition

     bravais-lattice index     =            0
     lattice parameter (alat)  =      12.0076  a.u.
     unit-cell volume          =     920.6412 (a.u.)^3
     number of atoms/cell      =           12
     number of atomic types    =            3
     number of electrons       =        96.00
     number of Kohn-Sham states=           58
     kinetic-energy cutoff     =      30.0000  Ry
     charge density cutoff     =     240.0000  Ry
     scf convergence threshold =      1.0E-06
     mixing beta               =       0.7000
     number of iterations used =            8  plain     mixing
     Exchange-correlation= SLA  PW   PBX  PBC
                           (   1   4   3   4   0   0   0)

     celldm(1)=  12.007621  celldm(2)=   0.000000  celldm(3)=   0.000000
     celldm(4)=   0.000000  celldm(5)=   0.000000  celldm(6)=   0.000000

     crystal axes: (cart. coord. in units of alat)
               a(1) = (   1.000000   0.000000   0.000000 )
               a(2) = (   0.353624   0.935388   0.000000 )
               a(3) = (  -0.676812  -0.467694   0.568496 )

     reciprocal axes: (cart. coord. in units 2 pi/alat)
               b(1) = (  1.000000 -0.378050  0.879513 )
               b(2) = (  0.000000  1.069075  0.879513 )
               b(3) = (  0.000000  0.000000  1.759026 )

     PseudoPot. # 1 for Hf read from file:
     /home/pragov/projects/rrg-bengioy-ad/pragov/crystal_structure_design/SSSP/Hf-sp.oncvpsp.upf
     MD5 check sum: 417ed15784afe83d2e06dacf143de3f8
     Pseudo is Norm-conserving + core correction, Zval = 12.0
     Generated using ONCVPSP code by D. R. Hamann
     Using radial grid of 1656 points,  8 beta functions with:
                l(1) =   0
                l(2) =   0
                l(3) =   1
                l(4) =   1
                l(5) =   2
                l(6) =   2
                l(7) =   3
                l(8) =   3

     PseudoPot. # 2 for Zr read from file:
     /home/pragov/projects/rrg-bengioy-ad/pragov/crystal_structure_design/SSSP/Zr_pbe_v1.uspp.F.UPF
     MD5 check sum: 5db81b1e868ab7776c4564c113de050b
     Pseudo is Ultrasoft + core correction, Zval = 12.0
     Generated by new atomic code, or converted to UPF format
     Using radial grid of  887 points,  6 beta functions with:
                l(1) =   0
                l(2) =   0
                l(3) =   1
                l(4) =   1
                l(5) =   2
                l(6) =   2
     Q(r) pseudized with  6 coefficients,  rinner =    1.200   1.200   1.200
                                                       1.200   1.200

     PseudoPot. # 3 for O  read from file:
     /home/pragov/projects/rrg-bengioy-ad/pragov/crystal_structure_design/SSSP/O.pbe-n-kjpaw_psl.0.1.UPF
     MD5 check sum: 0234752ac141de4415c5fc33072bef88
     Pseudo is Projector augmented-wave + core cor, Zval =  6.0
     Generated using "atomic" code by A. Dal Corso  v.5.0.99 svn rev. 10869
     Shape of augmentation charge: BESSEL
     Using radial grid of 1095 points,  4 beta functions with:
                l(1) =   0
                l(2) =   0
                l(3) =   1
                l(4) =   1
     Q(r) pseudized with 0 coefficients

     atomic species   valence    mass     pseudopotential
        Hf            12.00   178.49000     Hf( 1.00)
        Zr            12.00    91.22400     Zr( 1.00)
        O              6.00    15.99900     O ( 1.00)

      2 Sym. Ops., with inversion, found ( 1 have fractional translation)

                                    s                        frac. trans.

      isym =  1     identity

 cryst.   s( 1) = (     1          0          0      )
                  (     0          1          0      )
                  (     0          0          1      )

 cart.    s( 1) = (  1.0000000 -0.0000000 -0.0000000 )
                  (  0.0000000  1.0000000  0.0000000 )
                  (  0.0000000  0.0000000  1.0000000 )

      isym =  2     inversion

 cryst.   s( 2) = (    -1          0          0      )    f =(  0.2500000 )
                  (     0         -1          0      )       ( -0.2500000 )
                  (     0          0         -1      )       ( -0.5000000 )

 cart.    s( 2) = ( -1.0000000  0.0000000  0.0000000 )    f =(  0.5000000 )
                  (  0.0000000 -1.0000000 -0.0000000 )       (  0.0000000 )
                  (  0.0000000  0.0000000 -1.0000000 )       ( -0.2842482 )

   Cartesian axes

     site n.     atom                  positions (alat units)
         1           Hf  tau(   1) = (   0.0000000   0.0000000   0.0000000  )
         2           Hf  tau(   2) = (   0.5000000  -0.0000000   0.2842482  )
         3           Zr  tau(   3) = (   0.6768118   0.4676939   0.0000000  )
         4           Zr  tau(   4) = (   0.1768118   0.4676939   0.2842482  )
         5           O   tau(   5) = (   0.0289827  -0.3338137   0.5611754  )
         6           O   tau(   6) = (   0.4788081   0.3225395   0.2769271  )
         7           O   tau(   7) = (   0.8174806   0.5560006   0.2911003  )
         8           O   tau(   8) = (   0.7212787   0.8350352   0.0068521  )
         9           O   tau(   9) = (   0.1323448   0.1003526   0.2773962  )
        10           O   tau(  10) = (   0.3593311  -0.0883067   0.5616444  )
        11           O   tau(  11) = (  -0.2057944  -0.1338802   0.2915693  )
        12           O   tau(  12) = (   0.3748154   0.6128483   0.0073211  )

   Crystallographic axes

     site n.     atom                  positions (cryst. coord.)
         1           Hf  tau(   1) = (  0.0000000  0.0000000  0.0000000  )
         2           Hf  tau(   2) = (  0.7500000  0.2500000  0.5000000  )
         3           Zr  tau(   3) = (  0.5000000  0.5000000  0.0000000  )
         4           Zr  tau(   4) = (  0.2500000  0.7500000  0.5000000  )
         5           O   tau(   5) = (  0.6487420  0.1366890  0.9871220  )
         6           O   tau(   6) = (  0.6004330  0.5883800  0.4871220  )
         7           O   tau(   7) = (  0.8633110  0.8504330  0.5120530  )
         8           O   tau(   8) = (  0.4116200  0.8987420  0.0120530  )
         9           O   tau(   9) = (  0.3383800  0.3512580  0.4879470  )
        10           O   tau(  10) = (  0.8866890  0.3995670  0.9879470  )
        11           O   tau(  11) = (  0.1012580  0.1133110  0.5128780  )
        12           O   tau(  12) = (  0.1495670  0.6616200  0.0128780  )

     number of k points=     1  Methfessel-Paxton smearing, width (Ry)=  0.0010
                       cart. coord. in units 2pi/alat
        k(    1) = (   0.0000000   0.0000000   0.0000000), wk =   2.0000000

                       cryst. coord.
        k(    1) = (   0.0000000   0.0000000   0.0000000), wk =   2.0000000

     Check: negative core charge=   -0.000014

     Initial potential from superposition of free atoms

     starting charge      95.9920, renormalised to      96.0000

     negative rho (up, down):  1.241E-01 0.000E+00
     Starting wfcs are   78 randomized atomic wfcs
     Checking if some PAW data can be deallocated...

     Self-consistent Calculation

     iteration #  1     ecut=    30.00 Ry     beta= 0.70
     Davidson diagonalization with overlap

     ethr =  1.00E-02,  avg # of iterations =  2.0

     negative rho (up, down):  1.263E-01 0.000E+00

     total energy              =    -757.08080732 Ry
     estimated scf accuracy    <       3.66326084 Ry

[...]

     c_bands:  1 eigenvalues not converged
     ethr =  2.62E-06,  avg # of iterations = 20.0

[...]

     total energy              =    -758.79803639 Ry
     estimated scf accuracy    <       0.00000265 Ry

     iteration # 11     ecut=    30.00 Ry     beta= 0.70
     Davidson diagonalization with overlap

     ethr =  2.76E-09,  avg # of iterations =  2.0

[...]

     End of self-consistent calculation

          k = 0.0000 0.0000 0.0000 (  1275 PWs)   bands (ev):

   -48.9213 -48.8465 -36.3298 -36.3023 -18.3788 -18.0228 -17.9486 -17.9247
   -17.8954 -17.7305 -15.0799 -14.7425 -14.6383 -14.6238 -14.5887 -14.3222
    -6.8146  -5.6913  -5.2726  -5.1744  -5.1394  -5.0760  -5.0642  -5.0554
     6.0343   6.4726   6.8442   6.8904   6.8958   6.9197   6.9906   7.0389
     8.6973   8.7864   9.2777   9.2842   9.2926   9.3045   9.8099   9.8169
     9.9330   9.9878  10.5958  10.9799  11.0860  11.1282  11.1837  11.2558
    15.0721  15.6572  16.1326  16.2523  16.6947  17.0058  17.0340  17.3099
    17.4607  17.6573

     occupation numbers
     1.0000   1.0000   1.0000   1.0000   1.0000   1.0000   1.0000   1.0000
     1.0000   1.0000   1.0000   1.0000   1.0000   1.0000   1.0000   1.0000
     1.0000   1.0000   1.0000   1.0000   1.0000   1.0000   1.0000   1.0000
     1.0000   1.0000   1.0000   1.0000   1.0000   1.0000   1.0000   1.0000
     1.0000   1.0000   1.0000   1.0000   1.0000   1.0000   1.0000   1.0000
     1.0000   1.0000   1.0000   1.0000   1.0000   1.0000   1.0000   1.0000
    -0.0000  -0.0000  -0.0000  -0.0000  -0.0000  -0.0000  -0.0000  -0.0000
    -0.0000  -0.0000

     the Fermi energy is    13.6152 ev

!    total energy              =    -758.79803623 Ry
     estimated scf accuracy    <       0.00000051 Ry
     smearing contrib. (-TS)   =       0.00000000 Ry
     internal energy E=F+TS    =    -758.79803623 Ry

     The total energy is F=E-TS. E is the sum of the following terms:
     one-electron contribution =    -111.29493539 Ry
     hartree contribution      =     114.07199069 Ry
     xc contribution           =    -152.95980515 Ry
     ewald contribution        =    -532.50051223 Ry
     one-center paw contrib.   =     -76.11477415 Ry
      -> PAW hartree energy AE =     249.81297466 Ry
      -> PAW hartree energy PS =    -248.97517442 Ry
      -> PAW xc energy AE      =    -139.17113405 Ry
      -> PAW xc energy PS      =      62.21855966 Ry
      -> total E_H with PAW    =     114.90979093 Ry
      -> total E_XC with PAW   =    -229.91237954 Ry

     convergence has been achieved in  11 iterations

     negative rho (up, down):  1.272E-01 0.000E+00

     Forces acting on atoms (cartesian axes, Ry/au):

     atom    1 type  1   force =     0.00694738   -0.00673639   -0.00357900
     atom    2 type  1   force =    -0.00694738    0.00673639    0.00357900
     atom    3 type  2   force =     0.01245372   -0.01308347   -0.01068057
     atom    4 type  2   force =    -0.01245372    0.01308347    0.01068057
     atom    5 type  3   force =     0.03651590    0.05600979   -0.05584919
     atom    6 type  3   force =    -0.04181932   -0.04828684   -0.05134413
     atom    7 type  3   force =    -0.03465714   -0.06453772    0.02614486
     atom    8 type  3   force =     0.04125421    0.05548186    0.04762843
     atom    9 type  3   force =    -0.04125421   -0.05548186   -0.04762843
     atom   10 type  3   force =     0.03465714    0.06453772   -0.02614486
     atom   11 type  3   force =    -0.03651590   -0.05600979    0.05584919
     atom   12 type  3   force =     0.04181932    0.04828684    0.05134413
     The non-local contrib.  to forces
     atom    1 type  1   force =     0.00623907   -0.00532208   -0.00415189
     atom    2 type  1   force =    -0.00623907    0.00532208    0.00415189
     atom    3 type  2   force =     0.00955421   -0.01286581   -0.00691299
     atom    4 type  2   force =    -0.00955421    0.01286581    0.00691299
     atom    5 type  3   force =     0.04674068    0.01034930   -0.01181456
     atom    6 type  3   force =    -0.00274907   -0.04003158   -0.02753271
     atom    7 type  3   force =    -0.01654920   -0.05233927    0.03930055
     atom    8 type  3   force =     0.02081094    0.03133036    0.05905615
     atom    9 type  3   force =    -0.02081094   -0.03133036   -0.05905615
     atom   10 type  3   force =     0.01654920    0.05233927   -0.03930055
     atom   11 type  3   force =    -0.04674068   -0.01034930    0.01181456
     atom   12 type  3   force =     0.00274907    0.04003158    0.02753271
     The ionic contribution  to forces
     atom    1 type  1   force =    -0.00000000   -0.00000000   -0.00000000
     atom    2 type  1   force =     0.00000000    0.00000000    0.00000000
     atom    3 type  2   force =     0.00000000   -0.00000000    0.00000000
     atom    4 type  2   force =     0.00000000    0.00000000   -0.00000000
     atom    5 type  3   force =    -1.04086516   -0.20382315   -0.02831470
     atom    6 type  3   force =     0.55872808    0.90153596   -0.02831470
     atom    7 type  3   force =     0.81589343    0.52938546   -0.42404579
     atom    8 type  3   force =    -0.78369982   -0.57597365   -0.42404579
     atom    9 type  3   force =     0.78369982    0.57597365    0.42404579
     atom   10 type  3   force =    -0.81589343   -0.52938546    0.42404579
     atom   11 type  3   force =     1.04086516    0.20382315    0.02831469
     atom   12 type  3   force =    -0.55872808   -0.90153596    0.02831470
     The local contribution  to forces
     atom    1 type  1   force =     0.00248248   -0.00108357   -0.00210355
     atom    2 type  1   force =     0.00027289    0.00205284   -0.00313535
     atom    3 type  2   force =     0.00689047   -0.00112311   -0.00726278
     atom    4 type  2   force =     0.00183077   -0.00162023   -0.00047333
     atom    5 type  3   force =     1.03073076    0.24962086   -0.02129100
     atom    6 type  3   force =    -0.59519439   -0.90761077   -0.00072963
     atom    7 type  3   force =    -0.82844984   -0.54756283    0.41193953
     atom    8 type  3   force =     0.79912038    0.60013380    0.41695544
     atom    9 type  3   force =    -0.80781514   -0.59836009   -0.40810227
     atom   10 type  3   force =     0.83794871    0.53511621   -0.40948262
     atom   11 type  3   force =    -1.02975952   -0.24823271    0.00883176
     atom   12 type  3   force =     0.59853563    0.91079155   -0.01048702
     The core correction contribution to forces
     atom    1 type  1   force =    -0.00009053    0.00009463    0.00001009
     atom    2 type  1   force =     0.00055266   -0.00006053   -0.00011170
     atom    3 type  2   force =     0.00024357   -0.00066859   -0.00029472
     atom    4 type  2   force =    -0.00009551    0.00038265    0.00043584
     atom    5 type  3   force =     0.00036224    0.00063826   -0.00077893
     atom    6 type  3   force =    -0.00093548   -0.00060375   -0.00045300
     atom    7 type  3   force =    -0.00065495   -0.00036924    0.00027256
     atom    8 type  3   force =     0.00043754    0.00097313    0.00032435
     atom    9 type  3   force =    -0.00065954   -0.00084590   -0.00007568
     atom   10 type  3   force =     0.00096533   -0.00007230   -0.00029792
     atom   11 type  3   force =    -0.00043198   -0.00043191    0.00052508
     atom   12 type  3   force =     0.00093390    0.00062699    0.00030372
     The Hubbard contrib.    to forces
     atom    1 type  1   force =     0.00000000    0.00000000    0.00000000
     atom    2 type  1   force =     0.00000000    0.00000000    0.00000000
     atom    3 type  2   force =     0.00000000    0.00000000    0.00000000
     atom    4 type  2   force =     0.00000000    0.00000000    0.00000000
     atom    5 type  3   force =     0.00000000    0.00000000    0.00000000
     atom    6 type  3   force =     0.00000000    0.00000000    0.00000000
     atom    7 type  3   force =     0.00000000    0.00000000    0.00000000
     atom    8 type  3   force =     0.00000000    0.00000000    0.00000000
     atom    9 type  3   force =     0.00000000    0.00000000    0.00000000
     atom   10 type  3   force =     0.00000000    0.00000000    0.00000000
     atom   11 type  3   force =     0.00000000    0.00000000    0.00000000
     atom   12 type  3   force =     0.00000000    0.00000000    0.00000000
     The SCF correction term to forces
     atom    1 type  1   force =    -0.00005559    0.00006032   -0.00006639
     atom    2 type  1   force =     0.00009419   -0.00009231   -0.00005858
     atom    3 type  2   force =     0.00017774    0.00006372    0.00003928
     atom    4 type  2   force =    -0.00022250   -0.00005509    0.00005442
     atom    5 type  3   force =     0.00002364    0.00012101    0.00004364
     atom    6 type  3   force =     0.00012929    0.00003435   -0.00004731
     atom    7 type  3   force =    -0.00009752   -0.00012134   -0.00015836
     atom    8 type  3   force =     0.00006472   -0.00011612   -0.00005430
     atom    9 type  3   force =    -0.00018885   -0.00005348    0.00016731
     atom   10 type  3   force =    -0.00011361    0.00007049    0.00005408
     atom   11 type  3   force =     0.00002738    0.00007749    0.00005675
     atom   12 type  3   force =     0.00012655   -0.00001628   -0.00005319

     Total force =     0.236438     Total SCF correction =     0.000590

     Computing stress (Cartesian axis) and pressure

     negative rho (up, down):  1.272E-01 0.000E+00
          total   stress  (Ry/bohr**3)                   (kbar)     P=     -360.69
  -0.00270013  -0.00081386  -0.00015497         -397.20     -119.72      -22.80
  -0.00081386  -0.00282302   0.00053623         -119.72     -415.28       78.88
  -0.00015497   0.00053623  -0.00183267          -22.80       78.88     -269.59

     kinetic stress (kbar)  26868.90    -77.03    -13.05
                              -77.03  26898.07     42.52
                              -13.05     42.52  27007.29

     local   stress (kbar)  -7953.27    451.43     -5.80
                              451.43  -8389.18     24.73
                               -5.80     24.73  -8685.48

     nonloc. stress (kbar)   9881.71     13.77     -5.34
                               13.77   9884.51     10.85
                               -5.34     10.85   9872.44

     hartree stress (kbar)   6014.56    -79.94      0.33
                              -79.94   6080.75     -0.09
                                0.33     -0.09   6131.73

     exc-cor stress (kbar)   1144.35     -1.74      0.21
                               -1.74   1145.12     -0.12
                                0.21     -0.12   1145.97

     corecor stress (kbar)  -7680.22     -2.34      0.85
                               -2.34  -7681.81      0.99
                                0.85      0.99  -7681.69

     ewald   stress (kbar) -28673.23   -423.86      0.00
                             -423.86 -28352.75      0.00
                                0.00      0.00 -28059.85

     hubbard stress (kbar)      0.00      0.00      0.00
                                0.00      0.00      0.00
                                0.00      0.00      0.00

     DFT-D   stress (kbar)      0.00      0.00      0.00
                                0.00      0.00      0.00
                                0.00      0.00      0.00

     XDM     stress (kbar)      0.00      0.00      0.00
                                0.00      0.00      0.00
                                0.00      0.00      0.00

     dft-nl  stress (kbar)      0.00      0.00      0.00
                                0.00      0.00      0.00
                                0.00      0.00      0.00

     TS-vdW  stress (kbar)      0.00      0.00      0.00
                                0.00      0.00      0.00
                                0.00      0.00      0.00

[...]

                                0.00      0.00      0.00

     Writing all to output data dir new_calculations/myprefix.save/

     General routines

     Parallel routines

     PAW routines

   This run was terminated on:  13:37:22  21May2023

   JOB DONE.