     Program PWSCF v.7.0 starts on 20May2023 at 17:30:15

     Reading input from espresso_10552.pwi
Warning: card &CELL ignored
Warning: card / ignored

     Current dimensions of program PWSCF are:
     Max number of different atomic species (ntypx) = 10
     Max number of k-points (npk) =  40000
     Max angular momentum in pseudopotentials (lmaxx) =  4
     file Mg.pbe-n-kjpaw_psl.0.3.0.UPF: wavefunction(s)  3S renormalized

     gamma-point specific algorithms are used
     Message from routine setup:
     using ibrav=0 with symmetry is DISCOURAGED, use correct ibrav instead

     Subspace diagonalization in iterative solution of the eigenvalue problem:
     a serial algorithm will be used

     Using Slab Decomposition

     bravais-lattice index     =            0
     lattice parameter (alat)  =      11.2688  a.u.
     unit-cell volume          =    1688.4672 (a.u.)^3
     number of atoms/cell      =           15
     number of atomic types    =            3
     number of electrons       =       124.00
     number of Kohn-Sham states=           74
     kinetic-energy cutoff     =      30.0000  Ry
     charge density cutoff     =     240.0000  Ry
     scf convergence threshold =      1.0E-06
     mixing beta               =       0.7000
     number of iterations used =            8  plain     mixing
     Exchange-correlation=  SLA  PW   PBX  PBC
                           (   1   4   3   4   0   0   0)

     celldm(1)=  11.268813  celldm(2)=   0.000000  celldm(3)=   0.000000
     celldm(4)=   0.000000  celldm(5)=   0.000000  celldm(6)=   0.000000

     crystal axes: (cart. coord. in units of alat)
               a(1) = (   1.000000   0.000000   0.000000 )
               a(2) = (   0.000000   1.000000   0.000000 )
               a(3) = (   0.000000   0.000000   1.179935 )

     reciprocal axes: (cart. coord. in units 2 pi/alat)
               b(1) = (  1.000000  0.000000  0.000000 )
               b(2) = (  0.000000  1.000000  0.000000 )
               b(3) = (  0.000000  0.000000  0.847504 )

     PseudoPot. # 1 for Mg read from file:
     /home/pragov/projects/rrg-bengioy-ad/pragov/crystal_structure_design/SSSP/Mg.pbe-n-kjpaw_psl.0.3.0.UPF
     MD5 check sum: 24ecedc7f3e3cbe212e682f4413594e4
     Pseudo is Projector augmented-wave + core cor, Zval =  2.0
     Generated using "atomic" code by A. Dal Corso  v.5.0.99 svn rev. 10869
     Shape of augmentation charge: PSQ
     Using radial grid of 1129 points,  4 beta functions with:
                l(1) =   0
                l(2) =   0
                l(3) =   1
                l(4) =   1
     Q(r) pseudized with 0 coefficients

     PseudoPot. # 2 for Au read from file:
     /home/pragov/projects/rrg-bengioy-ad/pragov/crystal_structure_design/SSSP/Au_ONCV_PBE-1.0.oncvpsp.upf
     MD5 check sum: d14007822ba0e19f0206237467fc06c2
     Pseudo is Norm-conserving, Zval = 19.0
     Generated using ONCVPSP code by D. R. Hamann
     Using radial grid of 1278 points,  8 beta functions with:
                l(1) =   0
                l(2) =   0
                l(3) =   1
                l(4) =   1
                l(5) =   2
                l(6) =   2
                l(7) =   3
                l(8) =   3

     PseudoPot. # 3 for F  read from file:
     /home/pragov/projects/rrg-bengioy-ad/pragov/crystal_structure_design/SSSP/f_pbe_v1.4.uspp.F.UPF
     MD5 check sum: 4c38b6a325caf53ec0e86aed9459de46
     Pseudo is Ultrasoft, Zval =  7.0
     Generated by new atomic code, or converted to UPF format
     Using radial grid of  799 points,  4 beta functions with:
                l(1) =   0
                l(2) =   0
                l(3) =   1
                l(4) =   1
     Q(r) pseudized with  8 coefficients,  rinner =    0.950   0.950   0.950

     atomic species   valence    mass     pseudopotential
        Mg             2.00    24.30500     Mg( 1.00)
        Au            19.00   196.96657     Au( 1.00)
        F              7.00    18.99840     F ( 1.00)

      8 Sym. Ops. (no inversion) found

                                    s                        frac. trans.

      isym =  1     identity

 cryst.   s( 1) = (     1          0          0      )
                  (     0          1          0      )
                  (     0          0          1      )

 cart.    s( 1) = (  1.0000000  0.0000000  0.0000000 )
                  (  0.0000000  1.0000000  0.0000000 )
                  (  0.0000000  0.0000000  1.0000000 )

      isym =  2     180 deg rotation - cart. axis [0,0,1]

[...]

      isym =  4     180 deg rotation - cart. axis [1,-1,0]

[...]

      isym =  5     inv. 180 deg rotation - cart. axis [0,1,0]

[...]

      isym =  8     inv.  90 deg rotation - cart. axis [0,0,1]

 cryst.   s( 8) = (     0         -1          0      )
                  (     1          0          0      )
                  (     0          0         -1      )

 cart.    s( 8) = (  0.0000000  1.0000000  0.0000000 )
                  ( -1.0000000  0.0000000  0.0000000 )
                  (  0.0000000  0.0000000 -1.0000000 )

   Cartesian axes

     site n.     atom                  positions (alat units)
         1           Mg  tau(   1) = (   0.0000000   0.0000000   0.0000000  )
         2           Au  tau(   2) = (   0.0000000   0.5000000   0.2552034  )
         3           Au  tau(   3) = (   0.5000000   0.0000000   0.9247317  )
         4           F   tau(   4) = (   0.2417690   0.2043210   0.9447068  )
         5           F   tau(   5) = (   0.7582310   0.7956790   0.9447068  )
         6           F   tau(   6) = (   0.2043210   0.7582310   0.2352283  )
         7           F   tau(   7) = (   0.7956790   0.2417690   0.2352283  )
         8           F   tau(   8) = (   0.0000000   0.5000000   0.5795039  )
         9           F   tau(   9) = (   0.5000000   0.0000000   0.6004312  )
        10           F   tau(  10) = (   0.0000000   0.5000000   1.1087650  )
        11           F   tau(  11) = (   0.5000000   0.0000000   0.0711701  )
        12           F   tau(  12) = (   0.2043210   0.2417690   0.2352283  )
        13           F   tau(  13) = (   0.7956790   0.7582310   0.2352283  )
        14           F   tau(  14) = (   0.2417690   0.7956790   0.9447068  )
        15           F   tau(  15) = (   0.7582310   0.2043210   0.9447068  )

   Crystallographic axes

     site n.     atom                  positions (cryst. coord.)
         1           Mg  tau(   1) = (  0.0000000  0.0000000  0.0000000  )
         2           Au  tau(   2) = (  0.0000000  0.5000000  0.2162860  )
         3           Au  tau(   3) = (  0.5000000  0.0000000  0.7837140  )
         4           F   tau(   4) = (  0.2417690  0.2043210  0.8006430  )
         5           F   tau(   5) = (  0.7582310  0.7956790  0.8006430  )
         6           F   tau(   6) = (  0.2043210  0.7582310  0.1993570  )
         7           F   tau(   7) = (  0.7956790  0.2417690  0.1993570  )
         8           F   tau(   8) = (  0.0000000  0.5000000  0.4911320  )
         9           F   tau(   9) = (  0.5000000  0.0000000  0.5088680  )
        10           F   tau(  10) = (  0.0000000  0.5000000  0.9396830  )
        11           F   tau(  11) = (  0.5000000  0.0000000  0.0603170  )
        12           F   tau(  12) = (  0.2043210  0.2417690  0.1993570  )
        13           F   tau(  13) = (  0.7956790  0.7582310  0.1993570  )
        14           F   tau(  14) = (  0.2417690  0.7956790  0.8006430  )
        15           F   tau(  15) = (  0.7582310  0.2043210  0.8006430  )

     number of k points=     1  Methfessel-Paxton smearing, width (Ry)=  0.0010
                       cart. coord. in units 2pi/alat
        k(    1) = (   0.0000000   0.0000000   0.0000000), wk =   2.0000000

                       cryst. coord.
        k(    1) = (   0.0000000   0.0000000   0.0000000), wk =   2.0000000

     Initial potential from superposition of free atoms

     starting charge     123.9989, renormalised to     124.0000
     Starting wfcs are   72 randomized atomic wfcs +    2 random wfcs
     Checking if some PAW data can be deallocated...

     Self-consistent Calculation

     iteration #  1     ecut=    30.00 Ry     beta= 0.70
     Davidson diagonalization with overlap

     ethr =  1.00E-02,  avg # of iterations =  4.0

     total energy              =   -1162.75725687 Ry
     estimated scf accuracy    <       4.49833921 Ry

[...]

     negative rho (up, down):  2.190E-05 0.000E+00

[...]

     negative rho (up, down):  4.672E-07 0.000E+00

[...]

     total energy              =   -1165.39029222 Ry
     estimated scf accuracy    <       0.00000117 Ry

     iteration # 12     ecut=    30.00 Ry     beta= 0.70
     Davidson diagonalization with overlap

     ethr =  9.45E-10,  avg # of iterations =  2.0

     End of self-consistent calculation

          k = 0.0000 0.0000 0.0000 (  2338 PWs)   bands (ev):

  -108.1168-108.1157 -59.1987 -59.1978 -58.9088 -58.9079 -58.8611 -58.8601
   -22.1175 -21.9072 -21.5505 -21.5501 -21.5038 -21.4130 -21.2731 -21.2727
   -20.8854 -20.7734 -20.3729 -20.3641  -6.9306  -6.6480  -6.6415  -6.4852
    -5.9796  -5.8238  -5.8234  -5.7002  -5.4359  -5.2828  -5.2823  -4.8912
    -3.9065  -3.9063  -3.6682  -3.6680  -3.3362  -2.8500  -2.6655  -2.6651
    -2.3809  -2.1466  -1.8990  -1.8986  -1.8195  -1.7859  -1.7343  -1.7097
    -1.7096  -1.4979  -1.4645  -1.3963  -1.3962  -1.3600  -1.1823  -1.1823
    -0.9536  -0.9535  -0.3360  -0.3359  -0.1331  -0.1329   1.4642   1.4774
     1.5538   2.1862   5.6113   8.2689   8.5781  10.4504  10.7322  10.7323
    11.0516  11.4671

     occupation numbers
     1.0000   1.0000   1.0000   1.0000   1.0000   1.0000   1.0000   1.0000
     1.0000   1.0000   1.0000   1.0000   1.0000   1.0000   1.0000   1.0000
     1.0000   1.0000   1.0000   1.0000   1.0000   1.0000   1.0000   1.0000
     1.0000   1.0000   1.0000   1.0000   1.0000   1.0000   1.0000   1.0000
     1.0000   1.0000   1.0000   1.0000   1.0000   1.0000   1.0000   1.0000
     1.0000   1.0000   1.0000   1.0000   1.0000   1.0000   1.0000   1.0000
     1.0000   1.0000   1.0000   1.0000   1.0000   1.0000   1.0000   1.0000
     1.0000   1.0000   1.0000   1.0000   1.0000   1.0000  -0.0000  -0.0000
    -0.0000  -0.0000  -0.0000  -0.0000  -0.0000  -0.0000  -0.0000  -0.0000
    -0.0000  -0.0000

     the Fermi energy is     0.3667 ev

!    total energy              =   -1165.39029234 Ry
     estimated scf accuracy    <       0.00000014 Ry
     smearing contrib. (-TS)   =       0.00000000 Ry
     internal energy E=F+TS    =   -1165.39029234 Ry

     The total energy is F=E-TS. E is the sum of the following terms:
     one-electron contribution =    -971.35921391 Ry
     hartree contribution      =     521.39158261 Ry
     xc contribution           =    -163.10947192 Ry
     ewald contribution        =    -521.09137934 Ry
     one-center paw contrib.   =     -31.22180977 Ry
      -> PAW hartree energy AE =       0.20073052 Ry
      -> PAW hartree energy PS =      -0.20040136 Ry
      -> PAW xc energy AE      =     -32.16206076 Ry
      -> PAW xc energy PS      =       0.93992184 Ry
      -> total E_H with PAW    =     521.39191176 Ry
      -> total E_XC with PAW   =    -194.33161085 Ry

     convergence has been achieved in  12 iterations

     Forces acting on atoms (cartesian axes, Ry/au):

     atom    1 type  1   force =     0.00000000    0.00000000    0.00000000
     atom    2 type  2   force =     0.00000000    0.00000000   -0.02578421
     atom    3 type  2   force =     0.00000000    0.00000000    0.02578421
     atom    4 type  3   force =     0.01253886   -0.01645310   -0.00518168
     atom    5 type  3   force =    -0.01253886    0.01645310   -0.00518168
     atom    6 type  3   force =    -0.01645310   -0.01253886    0.00518168
     atom    7 type  3   force =     0.01645310    0.01253886    0.00518168
     atom    8 type  3   force =     0.00000000    0.00000000   -0.02284940
     atom    9 type  3   force =     0.00000000    0.00000000    0.02284940
     atom   10 type  3   force =     0.00000000    0.00000000    0.04116244
     atom   11 type  3   force =     0.00000000    0.00000000   -0.04116244
     atom   12 type  3   force =    -0.01645310    0.01253886    0.00518168
     atom   13 type  3   force =     0.01645310   -0.01253886    0.00518168
     atom   14 type  3   force =     0.01253886    0.01645310   -0.00518168
     atom   15 type  3   force =    -0.01253886   -0.01645310   -0.00518168
     The non-local contrib.  to forces
     atom    1 type  1   force =     0.00000000    0.00000000    0.00000000
     atom    2 type  2   force =     0.00000000    0.00000000    0.04837225
     atom    3 type  2   force =     0.00000000    0.00000000   -0.04837225
     atom    4 type  3   force =     0.82970688   -1.12763994    0.17278919
     atom    5 type  3   force =    -0.82970688    1.12763994    0.17278919
     atom    6 type  3   force =    -1.12763994   -0.82970688   -0.17278919
     atom    7 type  3   force =     1.12763994    0.82970688   -0.17278919
     atom    8 type  3   force =     0.00000000    0.00000000   -1.54446159
     atom    9 type  3   force =     0.00000000    0.00000000    1.54446159
     atom   10 type  3   force =     0.00000000    0.00000000    1.48488718
     atom   11 type  3   force =     0.00000000    0.00000000   -1.48488718
     atom   12 type  3   force =    -1.12763994    0.82970688   -0.17278919
     atom   13 type  3   force =     1.12763994   -0.82970688   -0.17278919
     atom   14 type  3   force =     0.82970688    1.12763994    0.17278919
     atom   15 type  3   force =    -0.82970688   -1.12763994    0.17278919
     The ionic contribution  to forces
     atom    1 type  1   force =    -0.00000000   -0.00000000   -0.00000000
     atom    2 type  2   force =    -0.00000000   -0.00000000   15.41228619
     atom    3 type  2   force =     0.00000000   -0.00000000  -15.41228619
     atom    4 type  3   force =    -9.36177901   11.87272351   -6.20187758
     atom    5 type  3   force =     9.36177901  -11.87272351   -6.20187758
     atom    6 type  3   force =    11.87272351    9.36177901    6.20187758
     atom    7 type  3   force =   -11.87272351   -9.36177901    6.20187758
     atom    8 type  3   force =    -0.00000000   -0.00000000   17.23830122
     atom    9 type  3   force =    -0.00000000   -0.00000000  -17.23830122
     atom   10 type  3   force =    -0.00000000    0.00000000  -17.45327909
     atom   11 type  3   force =    -0.00000000    0.00000000   17.45327909
     atom   12 type  3   force =    11.87272351   -9.36177901    6.20187758
     atom   13 type  3   force =   -11.87272351    9.36177901    6.20187758
     atom   14 type  3   force =    -9.36177901  -11.87272351   -6.20187758
     atom   15 type  3   force =     9.36177901   11.87272351   -6.20187758
     The local contribution  to forces
     atom    1 type  1   force =    -0.00001153    0.00003484   -0.00000482
     atom    2 type  2   force =    -0.00015741   -0.00043452  -15.48644951
     atom    3 type  2   force =     0.00016455    0.00049132   15.48712552
     atom    4 type  3   force =     8.54446392  -10.76142030    6.02398187
     atom    5 type  3   force =    -8.54448882   10.76148517    6.02395981
     atom    6 type  3   force =   -10.76162097   -8.54474638   -6.02391921
     atom    7 type  3   force =    10.76165209    8.54475090   -6.02395794
     atom    8 type  3   force =    -0.00002015   -0.00006438  -15.71669377
     atom    9 type  3   force =     0.00002331    0.00006193   15.71660899
     atom   10 type  3   force =    -0.00003822   -0.00014460   16.00966804
     atom   11 type  3   force =     0.00004728    0.00011294  -16.00961321
     atom   12 type  3   force =   -10.76166294    8.54475220   -6.02394861
     atom   13 type  3   force =    10.76160519   -8.54474022   -6.02392850
     atom   14 type  3   force =     8.54448528   10.76147000    6.02395132
     atom   15 type  3   force =    -8.54446761  -10.76143702    6.02399136
     The core correction contribution to forces
     atom    1 type  1   force =     0.00000020   -0.00000053    0.00000128
     atom    2 type  2   force =     0.00000000    0.00000000    0.00000000
     atom    3 type  2   force =     0.00000000    0.00000000    0.00000000
     atom    4 type  3   force =     0.00000000    0.00000000    0.00000000
     atom    5 type  3   force =     0.00000000    0.00000000    0.00000000
     atom    6 type  3   force =     0.00000000    0.00000000    0.00000000
     atom    7 type  3   force =     0.00000000    0.00000000    0.00000000
     atom    8 type  3   force =     0.00000000    0.00000000    0.00000000
     atom    9 type  3   force =     0.00000000    0.00000000    0.00000000
     atom   10 type  3   force =     0.00000000    0.00000000    0.00000000
     atom   11 type  3   force =     0.00000000    0.00000000    0.00000000
     atom   12 type  3   force =     0.00000000    0.00000000    0.00000000
     atom   13 type  3   force =     0.00000000    0.00000000    0.00000000
     atom   14 type  3   force =     0.00000000    0.00000000    0.00000000
     atom   15 type  3   force =     0.00000000    0.00000000    0.00000000
     The Hubbard contrib.    to forces
     atom    1 type  1   force =     0.00000000    0.00000000    0.00000000
     atom    2 type  2   force =     0.00000000    0.00000000    0.00000000
     atom    3 type  2   force =     0.00000000    0.00000000    0.00000000
     atom    4 type  3   force =     0.00000000    0.00000000    0.00000000
     atom    5 type  3   force =     0.00000000    0.00000000    0.00000000
     atom    6 type  3   force =     0.00000000    0.00000000    0.00000000
     atom    7 type  3   force =     0.00000000    0.00000000    0.00000000
     atom    8 type  3   force =     0.00000000    0.00000000    0.00000000
     atom    9 type  3   force =     0.00000000    0.00000000    0.00000000
     atom   10 type  3   force =     0.00000000    0.00000000    0.00000000
     atom   11 type  3   force =     0.00000000    0.00000000    0.00000000
     atom   12 type  3   force =     0.00000000    0.00000000    0.00000000
     atom   13 type  3   force =     0.00000000    0.00000000    0.00000000
     atom   14 type  3   force =     0.00000000    0.00000000    0.00000000
     atom   15 type  3   force =     0.00000000    0.00000000    0.00000000
     The SCF correction term to forces
     atom    1 type  1   force =     0.00001314   -0.00003928    0.00001407
     atom    2 type  2   force =     0.00017913    0.00050090   -0.00002089
     atom    3 type  2   force =    -0.00018529   -0.00054914   -0.00071061
     atom    4 type  3   force =     0.00016908   -0.00014928   -0.00006983
     atom    5 type  3   force =    -0.00013345    0.00004222   -0.00005313
     atom    6 type  3   force =     0.00010991    0.00015449    0.00001312
     atom    7 type  3   force =    -0.00011460   -0.00015231    0.00005713
     atom    8 type  3   force =     0.00002598    0.00008441    0.00001054
     atom    9 type  3   force =    -0.00002947   -0.00007732    0.00008584
     atom   10 type  3   force =     0.00004642    0.00017469   -0.00012692
     atom   11 type  3   force =    -0.00005793   -0.00013595    0.00004564
     atom   12 type  3   force =     0.00013617   -0.00015791    0.00004678
     atom   13 type  3   force =    -0.00007940    0.00014841    0.00002115
     atom   14 type  3   force =     0.00013647    0.00005257   -0.00004315
     atom   15 type  3   force =    -0.00016671   -0.00013571   -0.00008071

     Total force =     0.096957     Total SCF correction =     0.001235

     Computing stress (Cartesian axis) and pressure

          total   stress  (Ry/bohr**3)                   (kbar)     P=     -264.67
  -0.00178180  -0.00000000   0.00000000         -262.11       -0.00        0.00
  -0.00000000  -0.00178180   0.00000000           -0.00     -262.11        0.00
   0.00000000   0.00000000  -0.00183402            0.00        0.00     -269.79

     kinetic stress (kbar)  22015.53      0.00      0.00
                                0.00  22015.53      0.00
                                0.00      0.00  22076.33

     local   stress (kbar) -21474.91      0.01     -0.02
                                0.01 -21474.95     -0.05
                               -0.02     -0.05 -17173.97

     nonloc. stress (kbar)   2218.50      0.00      0.00
                                0.00   2218.50      0.00
                                0.00      0.00   2211.81

     hartree stress (kbar)  15796.89     -0.01      0.01
                               -0.01  15796.94      0.04
                                0.01      0.04  13831.60

     exc-cor stress (kbar)  -4424.22      0.00      0.00
                                0.00  -4424.22      0.00
                                0.00      0.00  -4423.61

     corecor stress (kbar)    -60.11      0.00     -0.00
                                0.00    -60.11     -0.00
                               -0.00     -0.00    -60.26

     ewald   stress (kbar) -14333.79      0.00     -0.00
                                0.00 -14333.79     -0.00
                               -0.00     -0.00 -16731.70

     hubbard stress (kbar)      0.00      0.00      0.00
                                0.00      0.00      0.00
                                0.00      0.00      0.00

     DFT-D   stress (kbar)      0.00      0.00      0.00
                                0.00      0.00      0.00
                                0.00      0.00      0.00

     XDM     stress (kbar)      0.00      0.00      0.00
                                0.00      0.00      0.00
                                0.00      0.00      0.00

     dft-nl  stress (kbar)      0.00      0.00      0.00
                                0.00      0.00      0.00
                                0.00      0.00      0.00

     TS-vdW  stress (kbar)      0.00      0.00      0.00
                                0.00      0.00      0.00
                                0.00      0.00      0.00

[...]

                                0.00      0.00      0.00

     Writing all to output data dir new_calculations/myprefix.save/

     General routines

     Parallel routines

     PAW routines

   This run was terminated on:  17:30:33  20May2023

   JOB DONE.