     Program PWSCF v.7.0 starts on 21May2023 at  1:43: 1

     Reading input from espresso_13.pwi
Warning: card &CELL ignored
Warning: card / ignored

     Current dimensions of program PWSCF are:
     Max number of different atomic species (ntypx) = 10
     Max number of k-points (npk) =  40000
     Max angular momentum in pseudopotentials (lmaxx) =  4

     gamma-point specific algorithms are used
     Message from routine setup:
     using ibrav=0 with symmetry is DISCOURAGED, use correct ibrav instead

     Subspace diagonalization in iterative solution of the eigenvalue problem:
     a serial algorithm will be used

     Using Slab Decomposition

     bravais-lattice index     =            0
     lattice parameter (alat)  =      10.0658  a.u.
     unit-cell volume          =    1416.8105 (a.u.)^3
     number of atoms/cell      =           12
     number of atomic types    =            3
     number of electrons       =       164.00
     number of Kohn-Sham states=           98
     kinetic-energy cutoff     =      30.0000  Ry
     charge density cutoff     =     240.0000  Ry
     scf convergence threshold =      1.0E-06
     mixing beta               =       0.7000
     number of iterations used =            8  plain     mixing
     Exchange-correlation= SLA  PW   PBE  PBE
                           (   1   4   3   4   0   0   0)

     celldm(1)=  10.065760  celldm(2)=   0.000000  celldm(3)=   0.000000
     celldm(4)=   0.000000  celldm(5)=   0.000000  celldm(6)=   0.000000

     crystal axes: (cart. coord. in units of alat)
               a(1) = (   1.000000   0.000000   0.000000 )
               a(2) = (  -0.500000   0.866025   0.000000 )
               a(3) = (   0.000000   0.000000   1.604137 )

     reciprocal axes: (cart. coord. in units 2 pi/alat)
               b(1) = (  1.000000  0.577351  0.000000 )
               b(2) = (  0.000000  1.154701  0.000000 )
               b(3) = (  0.000000  0.000000  0.623388 )

     PseudoPot. # 1 for Zr read from file:
     /home/pragov/projects/rrg-bengioy-ad/pragov/crystal_structure_design/SSSP/Zr_pbe_v1.uspp.F.UPF
     MD5 check sum: 5db81b1e868ab7776c4564c113de050b
     Pseudo is Ultrasoft + core correction, Zval = 12.0
     Generated by new atomic code, or converted to UPF format
     Using radial grid of  887 points,  6 beta functions with:
                l(1) =   0
                l(2) =   0
                l(3) =   1
                l(4) =   1
                l(5) =   2
                l(6) =   2
     Q(r) pseudized with  6 coefficients,  rinner =    1.200   1.200   1.200
                                                       1.200   1.200

     PseudoPot. # 2 for V  read from file:
     /home/pragov/projects/rrg-bengioy-ad/pragov/crystal_structure_design/SSSP/v_pbe_v1.4.uspp.F.UPF
     MD5 check sum: 22b79981416ebb76fdaf5b1b8640f6fb
     Pseudo is Ultrasoft + core correction, Zval = 13.0
     Generated by new atomic code, or converted to UPF format
     Using radial grid of  853 points,  6 beta functions with:
                l(1) =   0
                l(2) =   0
                l(3) =   1
                l(4) =   1
                l(5) =   2
                l(6) =   2
     Q(r) pseudized with  8 coefficients,  rinner =    1.100   1.100   1.100
                                                       1.100   1.100

     PseudoPot. # 3 for Re read from file:
     /home/pragov/projects/rrg-bengioy-ad/pragov/crystal_structure_design/SSSP/Re_pbe_v1.2.uspp.F.UPF
     MD5 check sum: 85f993410f3e006da9d71c142b4ad953
     Pseudo is Ultrasoft + core correction, Zval = 15.0
     Generated by new atomic code, or converted to UPF format
     Using radial grid of  981 points,  8 beta functions with:
                l(1) =   0
                l(2) =   0
                l(3) =   1
                l(4) =   1
                l(5) =   2
                l(6) =   2
                l(7) =   3
                l(8) =   3
     Q(r) pseudized with  8 coefficients,  rinner =    1.150   1.150   1.150
                                                       1.150   1.150   1.150
                                                       1.150

     atomic species   valence    mass     pseudopotential
        Zr            12.00    91.22400     Zr( 1.00)
        V             13.00    50.94150     V ( 1.00)
        Re            15.00   186.20700     Re( 1.00)

     24 Sym. Ops., with inversion, found (12 have fractional translation)

                                    s                        frac. trans.

      isym =  1     identity

 cryst.   s( 1) = (     1          0          0      )
                  (     0          1          0      )
                  (     0          0          1      )

 cart.    s( 1) = (  1.0000000 -0.0000000  0.0000000 )
                  (  0.0000000  1.0000000  0.0000000 )
                  (  0.0000000  0.0000000  1.0000000 )

      isym =  2     180 deg rotation - cart. axis [0,0,1]

 cryst.   s( 2) = (    -1          0          0      )    f =(  0.0000000 )
                  (     0         -1          0      )       (  0.0000000 )
                  (     0          0          1      )       ( -0.5000000 )

 cart.    s( 2) = ( -1.0000000  0.0000000  0.0000000 )    f =(  0.0000000 )
                  (  0.0000000 -1.0000000  0.0000000 )       (  0.0000000 )
                  (  0.0000000  0.0000000  1.0000000 )       ( -0.8020685 )

[...]

      isym =  4     180 deg rotation - cart. axis [1,0,0]

[...]

      isym =  5      60 deg rotation - cryst. axis [0,0,1]

[...]

 cryst.   s( 8) = (    -1         -1          0      )
                  (     1          0          0      )
                  (     0          0          1      )

 cart.    s( 8) = ( -0.4999998  0.8660255  0.0000000 )
                  ( -0.8660253 -0.5000002  0.0000000 )
                  (  0.0000000  0.0000000  1.0000000 )

[...]

 cryst.   s( 9) = (     0         -1          0      )    f =(  0.0000000 )
                  (    -1          0          0      )       (  0.0000000 )
                  (     0          0         -1      )       (  0.5000000 )

 cart.    s( 9) = (  0.5000002 -0.8660253  0.0000000 )    f =(  0.0000000 )
                  ( -0.8660253 -0.5000002  0.0000000 )       (  0.0000000 )
                  (  0.0000000  0.0000000 -1.0000000 )       (  0.8020685 )

[...]

 cryst.   s(10) = (     1          1          0      )    f =(  0.0000000 )
                  (     0         -1          0      )       ( -0.0000010 )
                  (     0          0         -1      )       (  0.5000000 )

 cart.    s(10) = (  0.4999998  0.8660257  0.0000000 )    f =(  0.0000005 )
                  (  0.8660253 -0.4999998  0.0000000 )       ( -0.0000009 )
                  (  0.0000000  0.0000000 -1.0000000 )       (  0.8020685 )

[...]

 cryst.   s(11) = (    -1         -1          0      )
                  (     0          1          0      )
                  (     0          0         -1      )

 cart.    s(11) = ( -0.4999998 -0.8660257  0.0000000 )
                  ( -0.8660253  0.4999998  0.0000000 )
                  (  0.0000000  0.0000000 -1.0000000 )

      isym = 12     180 deg rotation - cryst. axis [1,1,0]

[...]

      isym = 13     inversion

[...]

      isym = 14     inv. 180 deg rotation - cart. axis [0,0,1]

[...]

      isym = 16     inv. 180 deg rotation - cart. axis [1,0,0]

[...]

      isym = 17     inv.  60 deg rotation - cryst. axis [0,0,1]

[...]

 cryst.   s(22) = (    -1         -1          0      )    f =(  0.0000000 )
                  (     0          1          0      )       ( -0.0000010 )
                  (     0          0          1      )       ( -0.5000000 )

 cart.    s(22) = ( -0.4999998 -0.8660257  0.0000000 )    f =(  0.0000005 )
                  ( -0.8660253  0.4999998  0.0000000 )       ( -0.0000009 )
                  (  0.0000000  0.0000000  1.0000000 )       ( -0.8020685 )

[...]

      isym = 24     inv. 180 deg rotation - cryst. axis [1,1,0]

 cryst.   s(24) = (     0         -1          0      )
                  (    -1          0          0      )
                  (     0          0          1      )

 cart.    s(24) = (  0.5000002 -0.8660253  0.0000000 )
                  ( -0.8660253 -0.5000002  0.0000000 )
                  (  0.0000000  0.0000000  1.0000000 )

   Cartesian axes

     site n.     atom                  positions (alat units)
         1           Zr  tau(   1) = (  -0.0000006   0.5773505   0.7012709  )
         2           Zr  tau(   2) = (   0.5000004   0.2886748   0.9028660  )
         3           Zr  tau(   3) = (   0.5000004   0.2886748   1.5033394  )
         4           Zr  tau(   4) = (  -0.0000006   0.5773505   0.1007975  )
         5           V   tau(   5) = (   0.0000000   0.0000000   0.8020685  )
         6           V   tau(   6) = (   0.0000000   0.0000000   0.0000000  )
         7           Re  tau(   7) = (   0.7472635   0.1459175   0.4010342  )
         8           Re  tau(   8) = (   0.5000004   0.5741895   0.4010342  )
         9           Re  tau(   9) = (   0.2527375   0.1459175   0.4010342  )
        10           Re  tau(  10) = (  -0.2472636   0.7201078   1.2031027  )
        11           Re  tau(  11) = (  -0.0000006   0.2918358   1.2031027  )
        12           Re  tau(  12) = (   0.2472624   0.7201078   1.2031027  )

   Crystallographic axes

     site n.     atom                  positions (cryst. coord.)
         1           Zr  tau(   1) = (  0.3333330  0.6666670  0.4371640  )
         2           Zr  tau(   2) = (  0.6666670  0.3333330  0.5628360  )
         3           Zr  tau(   3) = (  0.6666670  0.3333330  0.9371640  )
         4           Zr  tau(   4) = (  0.3333330  0.6666670  0.0628360  )
         5           V   tau(   5) = (  0.0000000  0.0000000  0.5000000  )
         6           V   tau(   6) = (  0.0000000  0.0000000  0.0000000  )
         7           Re  tau(   7) = (  0.8315090  0.1684910  0.2500000  )
         8           Re  tau(   8) = (  0.8315090  0.6630170  0.2500000  )
         9           Re  tau(   9) = (  0.3369830  0.1684910  0.2500000  )
        10           Re  tau(  10) = (  0.1684910  0.8315090  0.7500000  )
        11           Re  tau(  11) = (  0.1684910  0.3369830  0.7500000  )
        12           Re  tau(  12) = (  0.6630170  0.8315090  0.7500000  )

     number of k points=     1  Methfessel-Paxton smearing, width (Ry)=  0.0010
                       cart. coord. in units 2pi/alat
        k(    1) = (   0.0000000   0.0000000   0.0000000), wk =   2.0000000

                       cryst. coord.
        k(    1) = (   0.0000000   0.0000000   0.0000000), wk =   2.0000000

     Check: negative core charge=   -0.000003

     Initial potential from superposition of free atoms

     starting charge     160.9887, renormalised to     164.0000

     negative rho (up, down):  1.044E+00 0.000E+00
     Starting wfcs are  150 randomized atomic wfcs

     Self-consistent Calculation

     iteration #  1     ecut=    30.00 Ry     beta= 0.70
     Davidson diagonalization with overlap

     ethr =  1.00E-02,  avg # of iterations =  2.0

     negative rho (up, down):  1.056E+00 0.000E+00

     total energy              =   -1829.14626103 Ry
     estimated scf accuracy    <       2.32519745 Ry

[...]

     ethr =  2.69E-05,  avg # of iterations =  2.0
     Minimization algorithm failed to find Fermi energy: reverting to bisection
     Possible cause: smearing is larger than the electronic band-gap.

[...]

     total energy              =   -1830.33952716 Ry
     estimated scf accuracy    <       0.00000236 Ry

     iteration # 48     ecut=    30.00 Ry     beta= 0.70
     Davidson diagonalization with overlap

     ethr =  1.44E-09,  avg # of iterations =  1.0

[...]

     End of self-consistent calculation

          k = 0.0000 0.0000 0.0000 (  1980 PWs)   bands (ev):

   -61.9665 -61.9663 -61.8773 -61.8773 -61.8771 -61.8770 -45.1761 -45.1752
   -29.3118 -29.2891 -29.2531 -29.2278 -24.6014 -24.5860 -23.8931 -23.8931
   -23.8917 -23.8917 -23.8835 -23.8543 -23.7253 -23.7252 -23.7171 -23.7171
   -23.3103 -23.3103 -23.3099 -23.3098 -23.2033 -23.2031 -19.1865 -19.1724
   -18.9491 -18.9491 -18.9416 -18.9416  -7.6310  -7.6265  -7.4478  -7.4478
    -7.4270  -7.4270  -7.3555  -7.3457  -7.1890  -7.1890  -7.1626  -7.1626
    10.0829  10.9082  12.7932  13.2559  13.6560  13.6560  13.7736  13.7736
    13.7826  13.9424  14.8264  14.9735  15.2641  15.2641  15.4580  15.4580
    15.7971  15.9808  15.9808  16.0731  16.0731  17.6751  17.6751  18.0101
    18.2655  18.2655  18.2717  18.2717  18.3029  18.3029  18.8748  18.9854
    18.9854  19.2066  19.2066  19.2474  19.2603  19.2603  19.3382  19.4255
    19.4539  19.5788  19.7223  19.7223  19.7900  19.7900  19.8396  19.8396
    21.1412  21.1412

     occupation numbers
     1.0000   1.0000   1.0000   1.0000   1.0000   1.0000   1.0000   1.0000
     1.0000   1.0000   1.0000   1.0000   1.0000   1.0000   1.0000   1.0000
     1.0000   1.0000   1.0000   1.0000   1.0000   1.0000   1.0000   1.0000
     1.0000   1.0000   1.0000   1.0000   1.0000   1.0000   1.0000   1.0000
     1.0000   1.0000   1.0000   1.0000   1.0000   1.0000   1.0000   1.0000
     1.0000   1.0000   1.0000   1.0000   1.0000   1.0000   1.0000   1.0000
     1.0000   1.0000   1.0000   1.0000   1.0000   1.0000   1.0000   1.0000
     1.0000   1.0000   1.0000   1.0000   1.0000   1.0000   1.0000   1.0000
     1.0000   1.0000   1.0000   1.0000   1.0000   1.0000   1.0000   1.0000
     1.0000   1.0000   1.0000   1.0000   1.0000   1.0000   1.0000   1.0000
     1.0000   0.5006   0.4995  -0.0001  -0.0000  -0.0000  -0.0000  -0.0000
    -0.0000  -0.0000  -0.0000  -0.0000  -0.0000  -0.0000  -0.0000  -0.0000
    -0.0000  -0.0000

     the Fermi energy is    19.2066 ev

!    total energy              =   -1830.33952702 Ry
     estimated scf accuracy    <       0.00000025 Ry
     smearing contrib. (-TS)   =      -0.00056358 Ry
     internal energy E=F+TS    =   -1830.33896344 Ry

     The total energy is F=E-TS. E is the sum of the following terms:
     one-electron contribution =    -369.97636863 Ry
     hartree contribution      =     267.73751874 Ry
     xc contribution           =    -425.69703842 Ry
     ewald contribution        =   -1302.40307513 Ry

     convergence has been achieved in  48 iterations

     negative rho (up, down):  1.045E+00 0.000E+00

     Forces acting on atoms (cartesian axes, Ry/au):

     atom    1 type  1   force =    -0.00000000   -0.00000000   -0.02714214
     atom    2 type  1   force =    -0.00000000   -0.00000000    0.02714214
     atom    3 type  1   force =     0.00000000   -0.00000000   -0.02714214
     atom    4 type  1   force =    -0.00000000   -0.00000000    0.02714214
     atom    5 type  2   force =     0.00000000    0.00000000    0.00000000
     atom    6 type  2   force =     0.00000000   -0.00000000    0.00000000
     atom    7 type  3   force =     0.00788012   -0.00454959    0.00000000
     atom    8 type  3   force =     0.00000000    0.00909918    0.00000000
     atom    9 type  3   force =    -0.00788012   -0.00454959    0.00000000
     atom   10 type  3   force =    -0.00788012    0.00454959   -0.00000000
     atom   11 type  3   force =     0.00000000   -0.00909918    0.00000000
     atom   12 type  3   force =     0.00788012    0.00454959   -0.00000000
     The non-local contrib.  to forces
     atom    1 type  1   force =     0.00000000   -0.00000000   -0.02792892
     atom    2 type  1   force =    -0.00000000    0.00000000    0.02792892
     atom    3 type  1   force =    -0.00000000   -0.00000000   -0.02792892
     atom    4 type  1   force =     0.00000000    0.00000000    0.02792892
     atom    5 type  2   force =    -0.00000000    0.00000000    0.00000000
     atom    6 type  2   force =     0.00000000   -0.00000000   -0.00000000
     atom    7 type  3   force =    -0.00984645    0.00568485   -0.00000000
     atom    8 type  3   force =     0.00000000   -0.01136970    0.00000000
     atom    9 type  3   force =     0.00984645    0.00568485   -0.00000000
     atom   10 type  3   force =     0.00984645   -0.00568485    0.00000000
     atom   11 type  3   force =    -0.00000000    0.01136970   -0.00000000
     atom   12 type  3   force =    -0.00984645   -0.00568485    0.00000000
     The ionic contribution  to forces
     atom    1 type  1   force =     0.00009171   -0.00005295    0.11386855
     atom    2 type  1   force =    -0.00009171    0.00005295   -0.11386855
     atom    3 type  1   force =    -0.00009171    0.00005295    0.11386855
     atom    4 type  1   force =     0.00009171   -0.00005295   -0.11386855
     atom    5 type  2   force =    -0.00000000   -0.00000000    0.00000000
     atom    6 type  2   force =    -0.00000000   -0.00000000   -0.00000000
     atom    7 type  3   force =    -4.27699650    2.46932451   -0.00000000
     atom    8 type  3   force =    -0.00007727   -4.93866781    0.00000000
     atom    9 type  3   force =     4.27697266    2.46940168    0.00000000
     atom   10 type  3   force =     4.27699650   -2.46932451    0.00000000
     atom   11 type  3   force =     0.00007727    4.93866781    0.00000000
     atom   12 type  3   force =    -4.27697265   -2.46940167    0.00000000
     The local contribution  to forces
     atom    1 type  1   force =    -0.00012216    0.00012812   -0.11444139
     atom    2 type  1   force =    -0.00000649   -0.00006909    0.11412737
     atom    3 type  1   force =     0.00011228    0.00004946   -0.11409900
     atom    4 type  1   force =    -0.00024944    0.00001277    0.11444150
     atom    5 type  2   force =     0.00027039   -0.00011639   -0.00021129
     atom    6 type  2   force =     0.00028878   -0.00011173    0.00020089
     atom    7 type  3   force =     4.29480822   -2.47971332   -0.00008233
     atom    8 type  3   force =     0.00000980    4.95930067   -0.00008023
     atom    9 type  3   force =    -4.29480722   -2.47972777   -0.00008215
     atom   10 type  3   force =    -4.29486010    2.47973621    0.00009932
     atom   11 type  3   force =    -0.00001491   -4.95929612    0.00010230
     atom   12 type  3   force =     4.29481377    2.47972239    0.00007343
     The core correction contribution to forces
     atom    1 type  1   force =    -0.00000026    0.00000015    0.00120614
     atom    2 type  1   force =    -0.00000034   -0.00000000   -0.00120542
     atom    3 type  1   force =     0.00000057    0.00000068    0.00120617
     atom    4 type  1   force =    -0.00000102   -0.00000035   -0.00120597
     atom    5 type  2   force =    -0.00000040   -0.00000017    0.00000122
     atom    6 type  2   force =    -0.00000019   -0.00000028    0.00000025
     atom    7 type  3   force =    -0.00027671    0.00016891   -0.00000127
     atom    8 type  3   force =     0.00000661   -0.00032539   -0.00000072
     atom    9 type  3   force =     0.00028057    0.00016288    0.00000206
     atom   10 type  3   force =     0.00028075   -0.00016921   -0.00000014
     atom   11 type  3   force =    -0.00000482    0.00032495    0.00000147
     atom   12 type  3   force =    -0.00027887   -0.00016402   -0.00000275
     The Hubbard contrib.    to forces
     atom    1 type  1   force =     0.00000000    0.00000000    0.00000000
     atom    2 type  1   force =     0.00000000    0.00000000    0.00000000
     atom    3 type  1   force =     0.00000000    0.00000000    0.00000000
     atom    4 type  1   force =     0.00000000    0.00000000    0.00000000
     atom    5 type  2   force =     0.00000000    0.00000000    0.00000000
     atom    6 type  2   force =     0.00000000    0.00000000    0.00000000
     atom    7 type  3   force =     0.00000000    0.00000000    0.00000000
     atom    8 type  3   force =     0.00000000    0.00000000    0.00000000
     atom    9 type  3   force =     0.00000000    0.00000000    0.00000000
     atom   10 type  3   force =     0.00000000    0.00000000    0.00000000
     atom   11 type  3   force =     0.00000000    0.00000000    0.00000000
     atom   12 type  3   force =     0.00000000    0.00000000    0.00000000
     The SCF correction term to forces
     atom    1 type  1   force =     0.00003662   -0.00006929    0.00014397
     atom    2 type  1   force =     0.00008848    0.00001024    0.00016903
     atom    3 type  1   force =    -0.00001146   -0.00008957   -0.00017185
     atom    4 type  1   force =     0.00014288    0.00002993   -0.00015540
     atom    5 type  2   force =    -0.00027785    0.00012039    0.00022131
     atom    6 type  2   force =    -0.00029070    0.00011789   -0.00018729
     atom    7 type  3   force =     0.00017823   -0.00004026    0.00007853
     atom    8 type  3   force =     0.00003007    0.00016035    0.00007868
     atom    9 type  3   force =    -0.00017029   -0.00006865    0.00007371
     atom   10 type  3   force =    -0.00014216    0.00001753   -0.00009466
     atom   11 type  3   force =    -0.00004125   -0.00015149   -0.00010414
     atom   12 type  3   force =     0.00016828    0.00008205   -0.00006407

     Total force =     0.058682     Total SCF correction =     0.000798

     Computing stress (Cartesian axis) and pressure

     negative rho (up, down):  1.045E+00 0.000E+00
          total   stress  (Ry/bohr**3)                   (kbar)     P=       -3.40
  -0.00054674  -0.00000000   0.00000000          -80.43       -0.00        0.00
  -0.00000000  -0.00054674   0.00000000           -0.00      -80.43        0.00
   0.00000000   0.00000000   0.00102422            0.00        0.00      150.67

     kinetic stress (kbar)  33815.37      0.01      0.00
                                0.01  33815.38      0.00
                                0.00     -0.00  33874.14

     local   stress (kbar)  16820.36      0.08      0.07
                                0.08  16820.38      0.06
                                0.07      0.06  18911.10

     nonloc. stress (kbar)  -6291.39     -0.00      0.00
                               -0.00  -6291.39      0.00
                                0.00      0.00  -6288.06

     hartree stress (kbar)   9368.22     -0.10     -0.03
                               -0.10   9368.32     -0.02
                               -0.03     -0.02   9062.21

     exc-cor stress (kbar)  16418.08      0.00     -0.00
                                0.00  16418.07     -0.00
                               -0.00     -0.00  16412.72

     corecor stress (kbar) -25681.30     -0.00      0.00
                               -0.00 -25681.29      0.00
                                0.00      0.00 -25654.75

     ewald   stress (kbar) -44529.81     -0.03      0.00
                               -0.03 -44529.84     -0.00
                                0.00     -0.00 -46166.69

     hubbard stress (kbar)      0.00      0.00      0.00
                                0.00      0.00      0.00
                                0.00      0.00      0.00

     DFT-D   stress (kbar)      0.00      0.00      0.00
                                0.00      0.00      0.00
                                0.00      0.00      0.00

     XDM     stress (kbar)      0.00      0.00      0.00
                                0.00      0.00      0.00
                                0.00      0.00      0.00

     dft-nl  stress (kbar)      0.00      0.00      0.00
                                0.00      0.00      0.00
                                0.00      0.00      0.00

     TS-vdW  stress (kbar)      0.00      0.00      0.00
                                0.00      0.00      0.00
                                0.00      0.00      0.00

[...]

                                0.00      0.00      0.00

     Writing all to output data dir new_calculations/myprefix.save/

     General routines

     Parallel routines

   This run was terminated on:   1:44: 9  21May2023

   JOB DONE.