     Program PWSCF v.7.0 starts on 20May2023 at 22: 4:58

     Reading input from espresso_11639.pwi
Warning: card &CELL ignored
Warning: card / ignored

     Current dimensions of program PWSCF are:
     Max number of different atomic species (ntypx) = 10
     Max number of k-points (npk) =  40000
     Max angular momentum in pseudopotentials (lmaxx) =  4

     gamma-point specific algorithms are used
     Message from routine setup:
     using ibrav=0 with symmetry is DISCOURAGED, use correct ibrav instead

     Subspace diagonalization in iterative solution of the eigenvalue problem:
     a serial algorithm will be used

     Using Slab Decomposition

     bravais-lattice index     =            0
     lattice parameter (alat)  =       7.5852  a.u.
     unit-cell volume          =     634.5649 (a.u.)^3
     number of atoms/cell      =            6
     number of atomic types    =            4
     number of electrons       =        63.00
     number of Kohn-Sham states=           38
     kinetic-energy cutoff     =      30.0000  Ry
     charge density cutoff     =     240.0000  Ry
     scf convergence threshold =      1.0E-06
     mixing beta               =       0.7000
     number of iterations used =            8  plain     mixing
     Exchange-correlation= PBE
                           (   1   4   3   4   0   0   0)

     celldm(1)=   7.585181  celldm(2)=   0.000000  celldm(3)=   0.000000
     celldm(4)=   0.000000  celldm(5)=   0.000000  celldm(6)=   0.000000

     crystal axes: (cart. coord. in units of alat)
               a(1) = (   1.000000   0.000000   0.000000 )
               a(2) = (  -0.500000   0.866025   0.000000 )
               a(3) = (   0.000000   0.000000   1.678988 )

     reciprocal axes: (cart. coord. in units 2 pi/alat)
               b(1) = (  1.000000  0.577351  0.000000 )
               b(2) = (  0.000000  1.154701  0.000000 )
               b(3) = (  0.000000  0.000000  0.595597 )

     PseudoPot. # 1 for Li read from file:
     /home/pragov/projects/rrg-bengioy-ad/pragov/crystal_structure_design/SSSP/li_pbe_v1.4.uspp.F.UPF
     MD5 check sum: e912e257baa3777c20ea3d68f190483c
     Pseudo is Ultrasoft, Zval =  3.0
     Generated by new atomic code, or converted to UPF format
     Using radial grid of  751 points,  5 beta functions with:
                l(1) =   0
                l(2) =   0
                l(3) =   0
                l(4) =   1
                l(5) =   1
     Q(r) pseudized with 10 coefficients,  rinner =    1.150   1.150   1.150

     PseudoPot. # 2 for Ce read from file:
     /home/pragov/projects/rrg-bengioy-ad/pragov/crystal_structure_design/SSSP/Ce.GGA-PBE-paw-v1.0.UPF
     MD5 check sum: f2b950f613061344c13339c8d844425d
     Pseudo is Projector augmented-wave + core cor, Zval = 12.0
     Generated using ATOMPAW code
     Shape of augmentation charge: BESSEL
     Using radial grid of 1102 points,  8 beta functions with:
                l(1) =   0
                l(2) =   0
                l(3) =   1
                l(4) =   1
                l(5) =   2
                l(6) =   2
                l(7) =   3
                l(8) =   3
     Q(r) pseudized with 0 coefficients

     PseudoPot. # 3 for Cu read from file:
     /home/pragov/projects/rrg-bengioy-ad/pragov/crystal_structure_design/SSSP/Cu_pbe_v1.2.uspp.F.UPF
     MD5 check sum: 6e991ff952a84172a2a52a1c1e996048
     Pseudo is Ultrasoft + core correction, Zval = 19.0
     Generated by new atomic code, or converted to UPF format
     Using radial grid of  867 points,  6 beta functions with:
                l(1) =   0
                l(2) =   0
                l(3) =   1
                l(4) =   1
                l(5) =   2
                l(6) =   2
     Q(r) pseudized with  8 coefficients,  rinner =    1.150   1.150   1.150
                                                       1.150   1.150

     PseudoPot. # 4 for P  read from file:
     /home/pragov/projects/rrg-bengioy-ad/pragov/crystal_structure_design/SSSP/P.pbe-n-rrkjus_psl.1.0.0.UPF
     MD5 check sum: 8b930f418f0a4573dca56cd030ffe088
     Pseudo is Ultrasoft + core correction, Zval =  5.0
     Generated using "atomic" code by A. Dal Corso  v.5.1
     Using radial grid of 1147 points,  6 beta functions with:
                l(1) =   0
                l(2) =   0
                l(3) =   1
                l(4) =   1
                l(5) =   2
                l(6) =   2
     Q(r) pseudized with 0 coefficients

     atomic species   valence    mass     pseudopotential
        Li             3.00     6.94000     Li( 1.00)
        Ce            12.00   140.11600     Ce( 1.00)
        Cu            19.00    63.54600     Cu( 1.00)
        P              5.00    30.97376     P ( 1.00)

     12 Sym. Ops., with inversion, found

                                    s                        frac. trans.

      isym =  1     identity

 cryst.   s( 1) = (     1          0          0      )
                  (     0          1          0      )
                  (     0          0          1      )

 cart.    s( 1) = (  1.0000000 -0.0000000  0.0000000 )
                  (  0.0000000  1.0000000  0.0000000 )
                  (  0.0000000  0.0000000  1.0000000 )

      isym =  2     180 deg rotation - cart. axis [1,0,0]

[...]

      isym =  3     120 deg rotation - cryst. axis [0,0,1]

[...]

      isym =  6     180 deg rotation - cryst. axis [1,1,0]

[...]

      isym =  7     inversion

[...]

      isym =  8     inv. 180 deg rotation - cart. axis [1,0,0]

[...]

      isym =  9     inv. 120 deg rotation - cryst. axis [0,0,1]

 cryst.   s( 9) = (     0         -1          0      )
                  (     1          1          0      )
                  (     0          0         -1      )

 cart.    s( 9) = (  0.5000003  0.8660255  0.0000000 )
                  ( -0.8660253  0.4999997  0.0000000 )
                  (  0.0000000  0.0000000 -1.0000000 )

[...]

 cryst.   s(10) = (     1          1          0      )
                  (    -1          0          0      )
                  (     0          0         -1      )

 cart.    s(10) = (  0.4999997 -0.8660255  0.0000000 )
                  (  0.8660253  0.5000003  0.0000000 )
                  (  0.0000000  0.0000000 -1.0000000 )

[...]

      isym = 12     inv. 180 deg rotation - cryst. axis [1,1,0]

 cryst.   s(12) = (     0         -1          0      )
                  (    -1          0          0      )
                  (     0          0          1      )

 cart.    s(12) = (  0.5000003 -0.8660253  0.0000000 )
                  ( -0.8660253 -0.5000003  0.0000000 )
                  (  0.0000000  0.0000000  1.0000000 )

   Cartesian axes

     site n.     atom                  positions (alat units)
         1           Li  tau(   1) = (   0.0000000   0.0000000   0.8394941  )
         2           Ce  tau(   2) = (   0.0000000   0.0000000   0.0000000  )
         3           Cu  tau(   3) = (   0.5000004   0.2886748   0.5698469  )
         4           Cu  tau(   4) = (  -0.0000007   0.5773505   1.1091413  )
         5           P   tau(   5) = (   0.5000004   0.2886748   1.2276023  )
         6           P   tau(   6) = (  -0.0000007   0.5773505   0.4513859  )

   Crystallographic axes

     site n.     atom                  positions (cryst. coord.)
         1           Li  tau(   1) = (  0.0000000  0.0000000  0.5000000  )
         2           Ce  tau(   2) = (  0.0000000  0.0000000  0.0000000  )
         3           Cu  tau(   3) = (  0.6666670  0.3333330  0.3393990  )
         4           Cu  tau(   4) = (  0.3333330  0.6666670  0.6606010  )
         5           P   tau(   5) = (  0.6666670  0.3333330  0.7311560  )
         6           P   tau(   6) = (  0.3333330  0.6666670  0.2688440  )

     number of k points=     1  Methfessel-Paxton smearing, width (Ry)=  0.0010
                       cart. coord. in units 2pi/alat
        k(    1) = (   0.0000000   0.0000000   0.0000000), wk =   2.0000000

                       cryst. coord.
        k(    1) = (   0.0000000   0.0000000   0.0000000), wk =   2.0000000

     Initial potential from superposition of free atoms

     starting charge      60.5419, renormalised to      63.0000
     Starting wfcs are   71 randomized atomic wfcs
     Checking if some PAW data can be deallocated...

     Self-consistent Calculation

     iteration #  1     ecut=    30.00 Ry     beta= 0.70
     Davidson diagonalization with overlap

     ethr =  1.00E-02,  avg # of iterations =  4.0

     total energy              =   -1323.62287626 Ry
     estimated scf accuracy    <      10.50788179 Ry

[...]

     c_bands:  1 eigenvalues not converged
     ethr =  1.37E-07,  avg # of iterations = 20.0

[...]

     total energy              =   -1331.29544866 Ry
     estimated scf accuracy    <       0.00000218 Ry

     iteration # 44     ecut=    30.00 Ry     beta= 0.70
     Davidson diagonalization with overlap

     ethr =  2.51E-09,  avg # of iterations =  2.0

     End of self-consistent calculation

          k = 0.0000 0.0000 0.0000 (   882 PWs)   bands (ev):

  -101.1263-101.1259 -58.5485 -58.5485 -58.5479 -58.5479 -58.4499 -58.4451
   -35.4500 -21.0560  -4.6248  -3.6404  -3.6404   0.4592   2.3558   7.4906
     7.5324   7.5324   7.5784   7.5784   8.5581   8.5581   8.6477   8.7676
     8.9604   8.9604  11.4500  11.4500  12.3672  12.6891  12.6891  13.4926
    13.4955  14.0448  14.1212  14.1212  14.2895  14.2896

     occupation numbers
     1.0000   1.0000   1.0000   1.0000   1.0000   1.0000   1.0000   1.0000
     1.0000   1.0000   1.0000   1.0000   1.0000   1.0000   1.0000   1.0000
     1.0000   1.0000   1.0000   1.0000   1.0000   1.0000   1.0000   1.0000
     1.0000   1.0000   1.0000   1.0000   1.0000   1.0000   1.0000   0.3244
     0.1756  -0.0000  -0.0000  -0.0000  -0.0000  -0.0000

     the Fermi energy is    13.4897 ev

!    total energy              =   -1331.29544820 Ry
     estimated scf accuracy    <       0.00000050 Ry
     smearing contrib. (-TS)   =      -0.00039713 Ry
     internal energy E=F+TS    =   -1331.29505107 Ry

     The total energy is F=E-TS. E is the sum of the following terms:
     one-electron contribution =    -760.04937016 Ry
     hartree contribution      =     412.21901996 Ry
     xc contribution           =    -100.61399274 Ry
     ewald contribution        =    -474.43164446 Ry
     one-center paw contrib.   =    -408.41906367 Ry
      -> PAW hartree energy AE =      44.98014748 Ry
      -> PAW hartree energy PS =     -44.72025354 Ry
      -> PAW xc energy AE      =    -417.35702300 Ry
      -> PAW xc energy PS      =       8.67806539 Ry
      -> total E_H with PAW    =     412.47891390 Ry
      -> total E_XC with PAW   =    -509.29295035 Ry

     convergence has been achieved in  44 iterations

     Forces acting on atoms (cartesian axes, Ry/au):

     atom    1 type  1   force =     0.00000000    0.00000000    0.00000000
     atom    2 type  2   force =     0.00000000   -0.00000000    0.00000000
     atom    3 type  3   force =     0.00000000    0.00000000   -0.00607549
     atom    4 type  3   force =     0.00000000   -0.00000000    0.00607549
     atom    5 type  4   force =    -0.00000000   -0.00000000    0.20434602
     atom    6 type  4   force =    -0.00000000    0.00000000   -0.20434602
     The non-local contrib.  to forces
     atom    1 type  1   force =     0.00000000    0.00000000    0.00000000
     atom    2 type  2   force =     0.00000000    0.00000000    0.00000000
     atom    3 type  3   force =     0.00000000   -0.00000000    0.15051440
     atom    4 type  3   force =     0.00000000    0.00000000   -0.15051440
     atom    5 type  4   force =     0.00000000   -0.00000000   -0.21995848
     atom    6 type  4   force =     0.00000000    0.00000000    0.21995848
     The ionic contribution  to forces
     atom    1 type  1   force =    -0.00000000    0.00000000   -0.00000000
     atom    2 type  2   force =    -0.00000000    0.00000000    0.00000000
     atom    3 type  3   force =    -0.00006562    0.00003788  -18.23926623
     atom    4 type  3   force =     0.00006562   -0.00003788   18.23926623
     atom    5 type  4   force =    -0.00004098    0.00002366    8.04795701
     atom    6 type  4   force =     0.00004098   -0.00002366   -8.04795701
     The local contribution  to forces
     atom    1 type  1   force =     0.00000409   -0.00000244    0.00003377
     atom    2 type  2   force =     0.00004164    0.00002753   -0.00001088
     atom    3 type  3   force =     0.00002861   -0.00015025   18.08170628
     atom    4 type  3   force =    -0.00004738    0.00008823  -18.08169851
     atom    5 type  4   force =     0.00001205   -0.00004022   -7.63504034
     atom    6 type  4   force =    -0.00005878    0.00006777    7.63517729
     The core correction contribution to forces
     atom    1 type  1   force =     0.00000000    0.00000000    0.00000000
     atom    2 type  2   force =     0.00000002    0.00000002    0.00000009
     atom    3 type  3   force =     0.00000003   -0.00000008   -0.00050634
     atom    4 type  3   force =     0.00000002    0.00000007    0.00050612
     atom    5 type  4   force =    -0.00000043   -0.00000030    0.01199838
     atom    6 type  4   force =    -0.00000060    0.00000107   -0.01199349
     The Hubbard contrib.    to forces
     atom    1 type  1   force =     0.00000000    0.00000000    0.00000000
     atom    2 type  2   force =     0.00000000    0.00000000    0.00000000
     atom    3 type  3   force =     0.00000000    0.00000000    0.00000000
     atom    4 type  3   force =     0.00000000    0.00000000    0.00000000
     atom    5 type  4   force =     0.00000000    0.00000000    0.00000000
     atom    6 type  4   force =     0.00000000    0.00000000    0.00000000
     The SCF correction term to forces
     atom    1 type  1   force =    -0.00000256    0.00000142   -0.00002208
     atom    2 type  2   force =    -0.00002912   -0.00001484    0.00008372
     atom    3 type  3   force =     0.00009816    0.00009153    0.00149783
     atom    4 type  3   force =    -0.00007050   -0.00004251   -0.00146251
     atom    5 type  4   force =     0.00001509    0.00000788   -0.00056280
     atom    6 type  4   force =     0.00000677   -0.00001669    0.00051649

     Total force =     0.289117     Total SCF correction =     0.002236

     Computing stress (Cartesian axis) and pressure

          total   stress  (Ry/bohr**3)                   (kbar)     P=      -65.90
   0.00079997   0.00000000   0.00000000          117.68        0.00        0.00
   0.00000000   0.00079997   0.00000000            0.00      117.68        0.00
   0.00000000   0.00000000  -0.00294389            0.00        0.00     -433.06

     kinetic stress (kbar)  18775.59      0.01     -0.00
                                0.01  18775.60     -0.00
                               -0.00     -0.00  18392.22

     local   stress (kbar) -27108.86     -0.08     -0.01
                               -0.08 -27109.00      0.00
                               -0.01      0.00  -5568.02

     nonloc. stress (kbar)  13376.73      0.00      0.00
                                0.00  13376.73      0.00
                                0.00      0.00  13309.25

     hartree stress (kbar)  35156.86      0.03      0.01
                                0.03  35156.93     -0.00
                                0.01     -0.00  25246.98

     exc-cor stress (kbar)  -6669.20      0.00      0.00
                                0.00  -6669.20     -0.00
                                0.00     -0.00  -6670.48

     corecor stress (kbar)   -664.52      0.00     -0.00
                                0.00   -664.52      0.00
                               -0.00      0.00   -657.85

     ewald   stress (kbar) -32748.92      0.06      0.00
                                0.06 -32748.85     -0.00
                                0.00     -0.00 -44485.15

     hubbard stress (kbar)      0.00      0.00      0.00
                                0.00      0.00      0.00
                                0.00      0.00      0.00

     DFT-D   stress (kbar)      0.00      0.00      0.00
                                0.00      0.00      0.00
                                0.00      0.00      0.00

     XDM     stress (kbar)      0.00      0.00      0.00
                                0.00      0.00      0.00
                                0.00      0.00      0.00

     dft-nl  stress (kbar)      0.00      0.00      0.00
                                0.00      0.00      0.00
                                0.00      0.00      0.00

     TS-vdW  stress (kbar)      0.00      0.00      0.00
                                0.00      0.00      0.00
                                0.00      0.00      0.00

[...]

                                0.00      0.00      0.00

     Writing all to output data dir new_calculations/myprefix.save/

     General routines

     Parallel routines

     PAW routines

   This run was terminated on:  22: 5:55  20May2023

   JOB DONE.