     Program PWSCF v.7.0 starts on 21May2023 at  1:54: 6

     Reading input from espresso_11745.pwi
Warning: card &CELL ignored
Warning: card / ignored

     Current dimensions of program PWSCF are:
     Max number of different atomic species (ntypx) = 10
     Max number of k-points (npk) =  40000
     Max angular momentum in pseudopotentials (lmaxx) =  4
     file Ba.pbe-spn-kjpaw_psl.1.0.0.UPF: wavefunction(s)  5S 6S renormalized
     file Nb.pbe-spn-kjpaw_psl.0.3.0.UPF: wavefunction(s)  4S 4P renormalized
     file O.pbe-n-kjpaw_psl.0.1.UPF: wavefunction(s)  2P renormalized

     gamma-point specific algorithms are used
     Message from routine setup:
     using ibrav=0 with symmetry is DISCOURAGED, use correct ibrav instead

     Subspace diagonalization in iterative solution of the eigenvalue problem:
     a serial algorithm will be used

     Using Slab Decomposition

     bravais-lattice index     =            0
     lattice parameter (alat)  =      11.4380  a.u.
     unit-cell volume          =    1058.1167 (a.u.)^3
     number of atoms/cell      =           10
     number of atomic types    =            4
     number of electrons       =        89.00
     number of Kohn-Sham states=           54
     kinetic-energy cutoff     =      30.0000  Ry
     charge density cutoff     =     240.0000  Ry
     scf convergence threshold =      1.0E-06
     mixing beta               =       0.7000
     number of iterations used =            8  plain     mixing
     Exchange-correlation= SLA  PW   PBX  PBC
                           (   1   4   3   4   0   0   0)

     celldm(1)=  11.437985  celldm(2)=   0.000000  celldm(3)=   0.000000
     celldm(4)=   0.000000  celldm(5)=   0.000000  celldm(6)=   0.000000

     crystal axes: (cart. coord. in units of alat)
               a(1) = (   1.000000   0.000000   0.000000 )
               a(2) = (   0.500000   0.866025   0.000000 )
               a(3) = (   0.500000   0.288675   0.816497 )

     reciprocal axes: (cart. coord. in units 2 pi/alat)
               b(1) = (  1.000000 -0.577350 -0.408248 )
               b(2) = (  0.000000  1.154701 -0.408248 )
               b(3) = (  0.000000  0.000000  1.224745 )

     PseudoPot. # 1 for Ba read from file:
     /home/pragov/projects/rrg-bengioy-ad/pragov/crystal_structure_design/SSSP/Ba.pbe-spn-kjpaw_psl.1.0.0.UPF
     MD5 check sum: c432291d3e53af55f19d5e8866385beb
     Pseudo is Projector augmented-wave + core cor, Zval = 10.0
     Generated using "atomic" code by A. Dal Corso  v.5.1
     Shape of augmentation charge: PSQ
     Using radial grid of 1251 points,  7 beta functions with:
                l(1) =   0
                l(2) =   0
                l(3) =   0
                l(4) =   1
                l(5) =   1
                l(6) =   2
                l(7) =   2
     Q(r) pseudized with 0 coefficients

     PseudoPot. # 2 for Dy read from file:
     /home/pragov/projects/rrg-bengioy-ad/pragov/crystal_structure_design/SSSP/Dy.GGA-PBE-paw-v1.0.UPF
     MD5 check sum: 733414aae3e3693a823ce0c917a68f08
     Pseudo is Projector augmented-wave + core cor, Zval = 20.0
     Generated using ATOMPAW code
     Shape of augmentation charge: BESSEL
     Using radial grid of 1112 points,  8 beta functions with:
                l(1) =   0
                l(2) =   0
                l(3) =   1
                l(4) =   1
                l(5) =   2
                l(6) =   2
                l(7) =   3
                l(8) =   3
     Q(r) pseudized with 0 coefficients

     PseudoPot. # 3 for Nb read from file:
     /home/pragov/projects/rrg-bengioy-ad/pragov/crystal_structure_design/SSSP/Nb.pbe-spn-kjpaw_psl.0.3.0.UPF
     MD5 check sum: 411d72ad547312f8017e2943ceca08cc
     Pseudo is Projector augmented-wave + core cor, Zval = 13.0
     Generated using "atomic" code by A. Dal Corso  v.5.0.99 svn rev. 10869
     Shape of augmentation charge: PSQ
     Using radial grid of 1227 points,  6 beta functions with:
                l(1) =   0
                l(2) =   0
                l(3) =   1
                l(4) =   1
                l(5) =   2
                l(6) =   2
     Q(r) pseudized with 0 coefficients

     PseudoPot. # 4 for O  read from file:
     /home/pragov/projects/rrg-bengioy-ad/pragov/crystal_structure_design/SSSP/O.pbe-n-kjpaw_psl.0.1.UPF
     MD5 check sum: 0234752ac141de4415c5fc33072bef88
     Pseudo is Projector augmented-wave + core cor, Zval =  6.0
     Generated using "atomic" code by A. Dal Corso  v.5.0.99 svn rev. 10869
     Shape of augmentation charge: BESSEL
     Using radial grid of 1095 points,  4 beta functions with:
                l(1) =   0
                l(2) =   0
                l(3) =   1
                l(4) =   1
     Q(r) pseudized with 0 coefficients

     atomic species   valence    mass     pseudopotential
        Ba            10.00   137.32700     Ba( 1.00)
        Dy            20.00   162.50000     Dy( 1.00)
        Nb            13.00    92.90637     Nb( 1.00)
        O              6.00    15.99900     O ( 1.00)

     12 Sym. Ops., with inversion, found

                                    s                        frac. trans.

      isym =  1     identity

 cryst.   s( 1) = (     1          0          0      )
                  (     0          1          0      )
                  (     0          0          1      )

 cart.    s( 1) = (  1.0000000  0.0000000 -0.0000000 )
                  (  0.0000000  1.0000000 -0.0000000 )
                  (  0.0000000  0.0000000  1.0000000 )

      isym =  2     180 deg rotation - cart. axis [1,0,0]

[...]

      isym =  3     120 deg rotation - cryst. axis [0,0,1]

[...]

      isym =  6     180 deg rotation - cryst. axis [1,1,0]

[...]

      isym =  7     inversion

[...]

      isym =  8     inv. 180 deg rotation - cart. axis [1,0,0]

[...]

      isym =  9     inv. 120 deg rotation - cryst. axis [0,0,1]

 cryst.   s( 9) = (     1         -1          0      )
                  (     1          0          0      )
                  (     1          0         -1      )

 cart.    s( 9) = (  0.5000000  0.8660254 -0.0000000 )
                  ( -0.8660254  0.5000000 -0.0000000 )
                  (  0.0000000  0.0000000 -1.0000000 )

[...]

 cryst.   s(10) = (     0          1          0      )
                  (    -1          1          0      )
                  (     0          1         -1      )

 cart.    s(10) = (  0.5000000 -0.8660254  0.0000000 )
                  (  0.8660254  0.5000000 -0.0000000 )
                  (  0.0000000  0.0000000 -1.0000000 )

[...]

      isym = 12     inv. 180 deg rotation - cryst. axis [1,1,0]

 cryst.   s(12) = (     1         -1          0      )
                  (     0         -1          0      )
                  (     0         -1          1      )

 cart.    s(12) = (  0.5000000 -0.8660254  0.0000000 )
                  ( -0.8660254 -0.5000000  0.0000000 )
                  (  0.0000000  0.0000000  1.0000000 )

   Cartesian axes

     site n.     atom                  positions (alat units)
         1           Ba  tau(   1) = (   0.5000000   0.2886751   0.2041241  )
         2           Ba  tau(   2) = (   1.5000000   0.8660254   0.6123724  )
         3           Dy  tau(   3) = (   1.0000000   0.5773503   0.4082483  )
         4           Nb  tau(   4) = (   0.0000000   0.0000000   0.0000000  )
         5           O   tau(   5) = (   1.2631380   0.7292731   0.1933970  )
         6           O   tau(   6) = (   1.2631380   0.4254275   0.6230996  )
         7           O   tau(   7) = (   0.7368620   0.7292731   0.1933970  )
         8           O   tau(   8) = (   1.0000000   0.2735047   0.1933970  )
         9           O   tau(   9) = (   0.7368620   0.4254275   0.6230996  )
        10           O   tau(  10) = (   1.0000000   0.8811959   0.6230996  )

   Crystallographic axes

     site n.     atom                  positions (cryst. coord.)
         1           Ba  tau(   1) = (  0.2500000  0.2500000  0.2500000  )
         2           Ba  tau(   2) = (  0.7500000  0.7500000  0.7500000  )
         3           Dy  tau(   3) = (  0.5000000  0.5000000  0.5000000  )
         4           Nb  tau(   4) = (  0.0000000  0.0000000  0.0000000  )
         5           O   tau(   5) = (  0.7631380  0.7631380  0.2368620  )
         6           O   tau(   6) = (  0.7631380  0.2368620  0.7631380  )
         7           O   tau(   7) = (  0.2368620  0.7631380  0.2368620  )
         8           O   tau(   8) = (  0.7631380  0.2368620  0.2368620  )
         9           O   tau(   9) = (  0.2368620  0.2368620  0.7631380  )
        10           O   tau(  10) = (  0.2368620  0.7631380  0.7631380  )

     number of k points=     1  Methfessel-Paxton smearing, width (Ry)=  0.0010
                       cart. coord. in units 2pi/alat
        k(    1) = (   0.0000000   0.0000000   0.0000000), wk =   2.0000000

                       cryst. coord.
        k(    1) = (   0.0000000   0.0000000   0.0000000), wk =   2.0000000

     Check: negative core charge=   -0.000013

     Initial potential from superposition of free atoms

     starting charge      88.9600, renormalised to      89.0000
     Starting wfcs are   76 randomized atomic wfcs
     Checking if some PAW data can be deallocated...

     Self-consistent Calculation

     iteration #  1     ecut=    30.00 Ry     beta= 0.70
     Davidson diagonalization with overlap

     ethr =  1.00E-02,  avg # of iterations =  3.0

     total energy              =   -2231.49573421 Ry
     estimated scf accuracy    <       4.42183994 Ry

[...]

     ethr =  3.07E-06,  avg # of iterations =  2.0
     Minimization algorithm failed to find Fermi energy: reverting to bisection
     Possible cause: smearing is larger than the electronic band-gap.

[...]

     ethr =  9.09E-08,  avg # of iterations =  2.0
     Minimization algorithm failed to find Fermi energy: reverting to bisection
     Possible cause: smearing is larger than the electronic band-gap.

[...]

     total energy              =   -2233.84274797 Ry
     estimated scf accuracy    <       0.00001207 Ry

     iteration # 77     ecut=    30.00 Ry     beta= 0.70
     Davidson diagonalization with overlap

     ethr =  6.87E-09,  avg # of iterations =  1.0

     End of self-consistent calculation

          k = 0.0000 0.0000 0.0000 (  1446 PWs)   bands (ev):

   -44.6552 -32.8556 -20.7497 -20.7395 -20.7395 -16.4409 -16.3560  -9.6065
    -9.4951  -9.4951  -6.0863  -5.7195  -5.7192  -4.7131  -4.6966  -4.6963
    -1.8463  -1.8463  -1.8432  -1.4911  -1.4911  -1.4878   6.5813   6.5815
     6.8415   7.4053   7.4117   7.4118   8.8347   8.8665   8.8665   9.3956
     9.3957   9.4024   9.9332   9.9333   9.9374  10.4424  10.4426  10.4474
    11.9966  11.9966  12.0309  12.1198  12.2750  12.2807  12.2807  12.9518
    12.9700  12.9701  14.0569  14.0569  15.1795  15.4324

     occupation numbers
     1.0000   1.0000   1.0000   1.0000   1.0000   1.0000   1.0000   1.0000
     1.0000   1.0000   1.0000   1.0000   1.0000   1.0000   1.0000   1.0000
     1.0000   1.0000   1.0000   1.0000   1.0000   1.0000   1.0000   1.0000
     1.0000   1.0000   1.0000   1.0000   1.0000   1.0000   1.0000   1.0000
     1.0000   1.0000   1.0000   1.0000   1.0000   1.0000   1.0000   1.0000
     1.0000   1.0000   1.0000   1.0000   0.3452   0.0778   0.0770  -0.0000
    -0.0000  -0.0000  -0.0000  -0.0000  -0.0000  -0.0000

     the Fermi energy is    12.2724 ev

!    total energy              =   -2233.84274736 Ry

     total all-electron energy =    -41862.817315 Ry
     estimated scf accuracy    <       0.00000062 Ry
     smearing contrib. (-TS)   =      -0.00035752 Ry
     internal energy E=F+TS    =   -2233.84238984 Ry

     The total energy is F=E-TS. E is the sum of the following terms:
     one-electron contribution =    -292.95803711 Ry
     hartree contribution      =     204.93563542 Ry
     xc contribution           =    -142.57520440 Ry
     ewald contribution        =    -507.31066582 Ry
     one-center paw contrib.   =   -1495.93411793 Ry
      -> PAW hartree energy AE =     562.23177486 Ry
      -> PAW hartree energy PS =    -542.90466249 Ry
      -> PAW xc energy AE      =   -1652.90623671 Ry
      -> PAW xc energy PS      =     137.64500641 Ry
      -> total E_H with PAW    =     224.26274778 Ry
      -> total E_XC with PAW   =   -1657.83643469 Ry

     convergence has been achieved in  77 iterations

     Forces acting on atoms (cartesian axes, Ry/au):

     atom    1 type  1   force =     0.00000000    0.00000000   -0.00052410
     atom    2 type  1   force =    -0.00000000    0.00000000    0.00052410
     atom    3 type  2   force =    -0.00000000    0.00000000   -0.00000000
     atom    4 type  3   force =     0.00000000    0.00000000   -0.00000000
     atom    5 type  4   force =     0.04790095    0.02765563   -0.04318213
     atom    6 type  4   force =     0.04790095   -0.02765563    0.04318213
     atom    7 type  4   force =    -0.04790095    0.02765563   -0.04318213
     atom    8 type  4   force =     0.00000000   -0.05531125   -0.04318213
     atom    9 type  4   force =    -0.04790095   -0.02765563    0.04318213
     atom   10 type  4   force =     0.00000000    0.05531125    0.04318213
     The non-local contrib.  to forces
     atom    1 type  1   force =     0.00000000    0.00000000   -0.00004173
     atom    2 type  1   force =     0.00000000    0.00000000    0.00004173
     atom    3 type  2   force =     0.00000000    0.00000000    0.00000000
     atom    4 type  3   force =    -0.00000000    0.00000000   -0.00000000
     atom    5 type  4   force =     0.17831750    0.10295166   -0.14393900
     atom    6 type  4   force =     0.17831750   -0.10295166    0.14393900
     atom    7 type  4   force =    -0.17831750    0.10295166   -0.14393900
     atom    8 type  4   force =     0.00000000   -0.20590331   -0.14393900
     atom    9 type  4   force =    -0.17831750   -0.10295166    0.14393900
     atom   10 type  4   force =     0.00000000    0.20590331    0.14393900
     The ionic contribution  to forces
     atom    1 type  1   force =     0.00000000   -0.00000000    0.00000000
     atom    2 type  1   force =    -0.00000000   -0.00000000    0.00000000
     atom    3 type  2   force =     0.00000000    0.00000000   -0.00000000
     atom    4 type  3   force =    -0.00000000   -0.00000000    0.00000000
     atom    5 type  4   force =     0.02819275    0.01627709   -0.02301928
     atom    6 type  4   force =     0.02819275   -0.01627709    0.02301928
     atom    7 type  4   force =    -0.02819275    0.01627709   -0.02301928
     atom    8 type  4   force =     0.00000000   -0.03255418   -0.02301928
     atom    9 type  4   force =    -0.02819275   -0.01627709    0.02301928
     atom   10 type  4   force =    -0.00000000    0.03255418    0.02301928
     The local contribution  to forces
     atom    1 type  1   force =    -0.00033950    0.00043069   -0.00062042
     atom    2 type  1   force =    -0.00000927   -0.00025794    0.00015829
     atom    3 type  2   force =    -0.00003312   -0.00001342   -0.00002145
     atom    4 type  3   force =    -0.00000875    0.00000272   -0.00001239
     atom    5 type  4   force =    -0.15735956   -0.09082655    0.12284713
     atom    6 type  4   force =    -0.15737491    0.09085382   -0.12286008
     atom    7 type  4   force =     0.15738261   -0.09086293    0.12286861
     atom    8 type  4   force =    -0.00001870    0.18176781    0.12290927
     atom    9 type  4   force =     0.15735246    0.09083830   -0.12285793
     atom   10 type  4   force =     0.00000744   -0.18176013   -0.12291690
     The core correction contribution to forces
     atom    1 type  1   force =    -0.00001888    0.00001575   -0.00003735
     atom    2 type  1   force =     0.00001688    0.00000521    0.00002295
     atom    3 type  2   force =    -0.00000000   -0.00000000   -0.00000000
     atom    4 type  3   force =    -0.00000011   -0.00000010   -0.00000013
     atom    5 type  4   force =    -0.00135998   -0.00078534    0.00107166
     atom    6 type  4   force =    -0.00135985    0.00078515   -0.00107163
     atom    7 type  4   force =     0.00135981   -0.00078523    0.00107164
     atom    8 type  4   force =     0.00000005    0.00157046    0.00107165
     atom    9 type  4   force =     0.00136001    0.00078538   -0.00107164
     atom   10 type  4   force =    -0.00000003   -0.00157048   -0.00107162
     The Hubbard contrib.    to forces
     atom    1 type  1   force =     0.00000000    0.00000000    0.00000000
     atom    2 type  1   force =     0.00000000    0.00000000    0.00000000
     atom    3 type  2   force =     0.00000000    0.00000000    0.00000000
     atom    4 type  3   force =     0.00000000    0.00000000    0.00000000
     atom    5 type  4   force =     0.00000000    0.00000000    0.00000000
     atom    6 type  4   force =     0.00000000    0.00000000    0.00000000
     atom    7 type  4   force =     0.00000000    0.00000000    0.00000000
     atom    8 type  4   force =     0.00000000    0.00000000    0.00000000
     atom    9 type  4   force =     0.00000000    0.00000000    0.00000000
     atom   10 type  4   force =     0.00000000    0.00000000    0.00000000
     The SCF correction term to forces
     atom    1 type  1   force =     0.00001890   -0.00002644   -0.00004022
     atom    2 type  1   force =     0.00000596    0.00002155    0.00008550
     atom    3 type  2   force =     0.00003104    0.00001120    0.00001400
     atom    4 type  3   force =     0.00000769   -0.00000464    0.00001181
     atom    5 type  4   force =     0.00011596    0.00003272   -0.00014384
     atom    6 type  4   force =     0.00012899   -0.00006369    0.00015314
     atom    7 type  4   force =    -0.00013902    0.00007105   -0.00016186
     atom    8 type  4   force =     0.00002195   -0.00019064   -0.00020357
     atom    9 type  4   force =    -0.00010642   -0.00004164    0.00015731
     atom   10 type  4   force =    -0.00000616    0.00018037    0.00021310

     Total force =     0.171886     Total SCF correction =     0.000580

     Computing stress (Cartesian axis) and pressure

          total   stress  (Ry/bohr**3)                   (kbar)     P=     -166.49
  -0.00115591   0.00000000   0.00000000         -170.04        0.00        0.00
   0.00000000  -0.00115591   0.00000000            0.00     -170.04        0.00
   0.00000000   0.00000000  -0.00108347            0.00        0.00     -159.38

     kinetic stress (kbar)  18987.68     -0.00     -0.00
                               -0.00  18987.68     -0.00
                               -0.00     -0.00  19080.23

     local   stress (kbar)  -7965.73     -0.04     -0.24
                               -0.04  -7966.18     -0.50
                               -0.24     -0.50  -7939.53

     nonloc. stress (kbar)   7880.06      0.00      0.00
                                0.00   7880.06     -0.00
                                0.00     -0.00   7785.12

     hartree stress (kbar)   9501.45     -0.02      0.13
                               -0.02   9501.71      0.25
                                0.13      0.25   9488.10

     exc-cor stress (kbar)    999.01      0.00      0.00
                                0.00    999.01      0.00
                                0.00      0.00    999.45

     corecor stress (kbar)  -6062.72     -0.00      0.00
                               -0.00  -6062.73     -0.00
                                0.00     -0.00  -6063.06

     ewald   stress (kbar) -23509.69     -0.00      0.00
                               -0.00 -23509.69      0.00
                                0.00      0.00 -23509.69

     hubbard stress (kbar)      0.00      0.00      0.00
                                0.00      0.00      0.00
                                0.00      0.00      0.00

     DFT-D   stress (kbar)      0.00      0.00      0.00
                                0.00      0.00      0.00
                                0.00      0.00      0.00

     XDM     stress (kbar)      0.00      0.00      0.00
                                0.00      0.00      0.00
                                0.00      0.00      0.00

     dft-nl  stress (kbar)      0.00      0.00      0.00
                                0.00      0.00      0.00
                                0.00      0.00      0.00

     TS-vdW  stress (kbar)      0.00      0.00      0.00
                                0.00      0.00      0.00
                                0.00      0.00      0.00

[...]

                                0.00      0.00      0.00

     Writing all to output data dir new_calculations/myprefix.save/

     General routines

     Parallel routines

     PAW routines

   This run was terminated on:   1:56:14  21May2023

   JOB DONE.