     Program PWSCF v.7.0 starts on 21May2023 at  1:44:49

     Reading input from espresso_7841.pwi
Warning: card &CELL ignored
Warning: card / ignored

     Current dimensions of program PWSCF are:
     Max number of different atomic species (ntypx) = 10
     Max number of k-points (npk) =  40000
     Max angular momentum in pseudopotentials (lmaxx) =  4

     gamma-point specific algorithms are used
     Message from routine setup:
     using ibrav=0 with symmetry is DISCOURAGED, use correct ibrav instead

     Subspace diagonalization in iterative solution of the eigenvalue problem:
     a serial algorithm will be used

     Using Slab Decomposition

     bravais-lattice index     =            0
     lattice parameter (alat)  =       7.4865  a.u.
     unit-cell volume          =    2258.3795 (a.u.)^3
     number of atoms/cell      =           16
     number of atomic types    =            3
     number of electrons       =       168.00
     number of Kohn-Sham states=          101
     kinetic-energy cutoff     =      30.0000  Ry
     charge density cutoff     =     240.0000  Ry
     scf convergence threshold =      1.0E-06
     mixing beta               =       0.7000
     number of iterations used =            8  plain     mixing
     Exchange-correlation= SLA  PW   PBE  PBE
                           (   1   4   3   4   0   0   0)

     celldm(1)=   7.486460  celldm(2)=   0.000000  celldm(3)=   0.000000
     celldm(4)=   0.000000  celldm(5)=   0.000000  celldm(6)=   0.000000

     crystal axes: (cart. coord. in units of alat)
               a(1) = (   1.000000   0.000000   0.000000 )
               a(2) = (   0.000000   1.581306   0.000000 )
               a(3) = (   0.000000   0.000000   3.403702 )

     reciprocal axes: (cart. coord. in units 2 pi/alat)
               b(1) = (  1.000000  0.000000  0.000000 )
               b(2) = (  0.000000  0.632389  0.000000 )
               b(3) = (  0.000000  0.000000  0.293798 )

     PseudoPot. # 1 for S  read from file:
     /home/pragov/projects/rrg-bengioy-ad/pragov/crystal_structure_design/SSSP/s_pbe_v1.4.uspp.F.UPF
     MD5 check sum: 88d86576ff6df21479756cfb9bdac1df
     Pseudo is Ultrasoft + core correction, Zval =  6.0
     Generated by new atomic code, or converted to UPF format
     Using radial grid of  907 points,  6 beta functions with:
                l(1) =   0
                l(2) =   0
                l(3) =   1
                l(4) =   1
                l(5) =   2
                l(6) =   2
     Q(r) pseudized with  8 coefficients,  rinner =    1.300   1.300   1.300
                                                       1.300   1.300

     PseudoPot. # 2 for Cu read from file:
     /home/pragov/projects/rrg-bengioy-ad/pragov/crystal_structure_design/SSSP/Cu_pbe_v1.2.uspp.F.UPF
     MD5 check sum: 6e991ff952a84172a2a52a1c1e996048
     Pseudo is Ultrasoft + core correction, Zval = 19.0
     Generated by new atomic code, or converted to UPF format
     Using radial grid of  867 points,  6 beta functions with:
                l(1) =   0
                l(2) =   0
                l(3) =   1
                l(4) =   1
                l(5) =   2
                l(6) =   2
     Q(r) pseudized with  8 coefficients,  rinner =    1.150   1.150   1.150
                                                       1.150   1.150

     PseudoPot. # 3 for Y  read from file:
     /home/pragov/projects/rrg-bengioy-ad/pragov/crystal_structure_design/SSSP/Y_pbe_v1.uspp.F.UPF
     MD5 check sum: 2cf71db95cafeb975fc457bd7f14888e
     Pseudo is Ultrasoft + core correction, Zval = 11.0
     Generated by new atomic code, or converted to UPF format
     Using radial grid of  885 points,  6 beta functions with:
                l(1) =   0
                l(2) =   0
                l(3) =   1
                l(4) =   1
                l(5) =   2
                l(6) =   2
     Q(r) pseudized with  6 coefficients,  rinner =    1.200   1.200   1.200
                                                       1.200   1.200

     atomic species   valence    mass     pseudopotential
        S              6.00    32.06000     S ( 1.00)
        Cu            19.00    63.54600     Cu( 1.00)
        Y             11.00    88.90584     Y ( 1.00)

      4 Sym. Ops. (no inversion) found ( 3 have fractional translation)

                                    s                        frac. trans.

      isym =  1     identity

 cryst.   s( 1) = (     1          0          0      )
                  (     0          1          0      )
                  (     0          0          1      )

 cart.    s( 1) = (  1.0000000  0.0000000  0.0000000 )
                  (  0.0000000  1.0000000  0.0000000 )
                  (  0.0000000  0.0000000  1.0000000 )

      isym =  2     180 deg rotation - cart. axis [0,0,1]

 cryst.   s( 2) = (    -1          0          0      )    f =(  0.5000000 )
                  (     0         -1          0      )       (  0.0000000 )
                  (     0          0          1      )       (  0.5000000 )

 cart.    s( 2) = ( -1.0000000  0.0000000  0.0000000 )    f =(  0.5000000 )
                  (  0.0000000 -1.0000000  0.0000000 )       (  0.0000000 )
                  (  0.0000000  0.0000000  1.0000000 )       (  1.7018508 )

[...]

      isym =  4     180 deg rotation - cart. axis [1,0,0]

 cryst.   s( 4) = (     1          0          0      )    f =( -0.5000000 )
                  (     0         -1          0      )       (  0.5000000 )
                  (     0          0         -1      )       ( -0.0000000 )

 cart.    s( 4) = (  1.0000000  0.0000000  0.0000000 )    f =( -0.5000000 )
                  (  0.0000000 -1.0000000  0.0000000 )       (  0.7906531 )
                  (  0.0000000  0.0000000 -1.0000000 )       ( -0.0000000 )

   Cartesian axes

     site n.     atom                  positions (alat units)
         1           S   tau(   1) = (   0.7465165   0.8037411   2.3949563  )
         2           S   tau(   2) = (   0.2465165   1.5682182   1.0087454  )
         3           S   tau(   3) = (   0.2534835   0.0130880   2.7105962  )
         4           S   tau(   4) = (   0.7534835   0.7775651   0.6931054  )
         5           S   tau(   5) = (   0.7454668   1.5773946   1.8363730  )
         6           S   tau(   6) = (   0.7545332   0.0039116   0.1345222  )
         7           S   tau(   7) = (   0.2545332   0.7867415   3.2691795  )
         8           S   tau(   8) = (   0.2454668   0.7945647   1.5673286  )
         9           Cu  tau(   9) = (   0.7564657   0.9871029   0.1516533  )
        10           Cu  tau(  10) = (   0.2435343   0.1964498   1.5501975  )
        11           Cu  tau(  11) = (   0.2564657   1.3848564   3.2520484  )
        12           Cu  tau(  12) = (   0.7435343   0.5942033   1.8535041  )
        13           Y   tau(  13) = (   0.2461792   1.1861209   2.1562144  )
        14           Y   tau(  14) = (   0.7461792   1.1858384   1.2474873  )
        15           Y   tau(  15) = (   0.7538208   0.3954678   2.9493381  )
        16           Y   tau(  16) = (   0.2538208   0.3951853   0.4543635  )

   Crystallographic axes

     site n.     atom                  positions (cryst. coord.)
         1           S   tau(   1) = (  0.7465165  0.5082767  0.7036328  )
         2           S   tau(   2) = (  0.2465165  0.9917233  0.2963672  )
         3           S   tau(   3) = (  0.2534835  0.0082767  0.7963672  )
         4           S   tau(   4) = (  0.7534835  0.4917233  0.2036328  )
         5           S   tau(   5) = (  0.7454668  0.9975264  0.5395223  )
         6           S   tau(   6) = (  0.7545332  0.0024736  0.0395223  )
         7           S   tau(   7) = (  0.2545332  0.4975264  0.9604777  )
         8           S   tau(   8) = (  0.2454668  0.5024736  0.4604777  )
         9           Cu  tau(   9) = (  0.7564657  0.6242326  0.0445554  )
        10           Cu  tau(  10) = (  0.2435343  0.1242326  0.4554446  )
        11           Cu  tau(  11) = (  0.2564657  0.8757674  0.9554446  )
        12           Cu  tau(  12) = (  0.7435343  0.3757674  0.5445554  )
        13           Y   tau(  13) = (  0.2461792  0.7500893  0.6334910  )
        14           Y   tau(  14) = (  0.7461792  0.7499107  0.3665090  )
        15           Y   tau(  15) = (  0.7538208  0.2500893  0.8665090  )
        16           Y   tau(  16) = (  0.2538208  0.2499107  0.1334910  )

     number of k points=     1  Methfessel-Paxton smearing, width (Ry)=  0.0010
                       cart. coord. in units 2pi/alat
        k(    1) = (   0.0000000   0.0000000   0.0000000), wk =   2.0000000

                       cryst. coord.
        k(    1) = (   0.0000000   0.0000000   0.0000000), wk =   2.0000000

     Check: negative core charge=   -0.000004

     Initial potential from superposition of free atoms

     starting charge     163.9818, renormalised to     168.0000

     negative rho (up, down):  1.768E-01 0.000E+00
     Starting wfcs are  136 randomized atomic wfcs

     Self-consistent Calculation

     iteration #  1     ecut=    30.00 Ry     beta= 0.70
     Davidson diagonalization with overlap

     ethr =  1.00E-02,  avg # of iterations =  3.0

     negative rho (up, down):  1.717E-01 0.000E+00

     total energy              =   -2156.98383914 Ry
     estimated scf accuracy    <       3.17808311 Ry

[...]

     total energy              =   -2158.65679885 Ry
     estimated scf accuracy    <       0.00000342 Ry

     iteration # 17     ecut=    30.00 Ry     beta= 0.70
     Davidson diagonalization with overlap

     ethr =  2.04E-09,  avg # of iterations =  2.0

[...]

     End of self-consistent calculation

          k = 0.0000 0.0000 0.0000 (  3151 PWs)   bands (ev):

  -103.4149-103.4134-103.4106-103.4097 -60.8849 -60.8833 -60.8785 -60.8779
   -60.8611 -60.8589 -60.8581 -60.8559 -60.6858 -60.6838 -60.6820 -60.6816
   -33.8501 -33.8491 -33.8458 -33.8447 -14.0057 -13.9909 -13.9821 -13.9767
   -13.9625 -13.9502 -13.8998 -13.8723 -13.6896 -13.6847 -13.6738 -13.6686
    -4.6903  -4.5421  -3.8770  -3.8614  -3.5364  -3.2831  -3.1989  -3.1383
     3.1617   3.3018   3.6603   4.4416   4.6780   4.6956   4.6989   4.7039
     4.7061   4.7124   4.7260   4.7465   4.9463   4.9728   5.1543   5.2008
     5.3930   5.5755   5.8096   5.8250   5.9543   5.9958   6.0106   6.0838
     6.4979   6.5934   6.5973   6.6306   6.6515   6.7298   6.9246   6.9950
     7.1625   7.2348   7.3685   7.3878   7.4394   7.6793   7.9332   8.2794
     8.3058   8.4591   8.4841   8.5450  10.2131  10.3118  10.6633  10.7226
    10.9230  10.9635  11.2460  11.2566  11.7654  11.8216  11.8577  12.0975
    12.1663  12.2406  12.9694  13.1273  13.1707

     occupation numbers
     1.0000   1.0000   1.0000   1.0000   1.0000   1.0000   1.0000   1.0000
     1.0000   1.0000   1.0000   1.0000   1.0000   1.0000   1.0000   1.0000
     1.0000   1.0000   1.0000   1.0000   1.0000   1.0000   1.0000   1.0000
     1.0000   1.0000   1.0000   1.0000   1.0000   1.0000   1.0000   1.0000
     1.0000   1.0000   1.0000   1.0000   1.0000   1.0000   1.0000   1.0000
     1.0000   1.0000   1.0000   1.0000   1.0000   1.0000   1.0000   1.0000
     1.0000   1.0000   1.0000   1.0000   1.0000   1.0000   1.0000   1.0000
     1.0000   1.0000   1.0000   1.0000   1.0000   1.0000   1.0000   1.0000
     1.0000   1.0000   1.0000   1.0000   1.0000   1.0000   1.0000   1.0000
     1.0000   1.0000   1.0000   1.0000   1.0000   1.0000   1.0000   1.0000
     1.0000   1.0000   1.0000   1.0000  -0.0000  -0.0000  -0.0000  -0.0000
    -0.0000  -0.0000  -0.0000  -0.0000  -0.0000  -0.0000  -0.0000  -0.0000
    -0.0000  -0.0000  -0.0000  -0.0000  -0.0000

     the Fermi energy is     9.6550 ev

!    total energy              =   -2158.65679856 Ry
     estimated scf accuracy    <       0.00000084 Ry
     smearing contrib. (-TS)   =       0.00000000 Ry
     internal energy E=F+TS    =   -2158.65679856 Ry

     The total energy is F=E-TS. E is the sum of the following terms:
     one-electron contribution =   -1894.07662692 Ry
     hartree contribution      =    1012.57678025 Ry
     xc contribution           =    -311.74013502 Ry
     ewald contribution        =    -965.41681687 Ry

     convergence has been achieved in  17 iterations

     negative rho (up, down):  1.736E-01 0.000E+00

     Forces acting on atoms (cartesian axes, Ry/au):

     atom    1 type  1   force =     0.00025427    0.05340265   -0.03136948
     atom    2 type  1   force =     0.00025427   -0.05340265    0.03136948
     atom    3 type  1   force =    -0.00025427    0.05340265    0.03136948
     atom    4 type  1   force =    -0.00025427   -0.05340265   -0.03136948
     atom    5 type  1   force =     0.00072491   -0.06241240    0.08538756
     atom    6 type  1   force =    -0.00072491    0.06241240    0.08538756
     atom    7 type  1   force =    -0.00072491   -0.06241240   -0.08538756
     atom    8 type  1   force =     0.00072491    0.06241240   -0.08538756
     atom    9 type  2   force =     0.00020747    0.01843684    0.03522402
     atom   10 type  2   force =    -0.00020747    0.01843684   -0.03522402
     atom   11 type  2   force =     0.00020747   -0.01843684   -0.03522402
     atom   12 type  2   force =    -0.00020747   -0.01843684    0.03522402
     atom   13 type  3   force =     0.00005139   -0.02117481    0.00272579
     atom   14 type  3   force =     0.00005139    0.02117481   -0.00272579
     atom   15 type  3   force =    -0.00005139   -0.02117481   -0.00272579
     atom   16 type  3   force =    -0.00005139    0.02117481    0.00272579
     The non-local contrib.  to forces
     atom    1 type  1   force =     0.00073737   -0.07365092   -0.06034086
     atom    2 type  1   force =     0.00073737    0.07365092    0.06034086
     atom    3 type  1   force =    -0.00073737   -0.07365092    0.06034086
     atom    4 type  1   force =    -0.00073737    0.07365092   -0.06034086
     atom    5 type  1   force =     0.00454411    0.21351780   -0.18619109
     atom    6 type  1   force =    -0.00454411   -0.21351780   -0.18619109
     atom    7 type  1   force =    -0.00454411    0.21351780    0.18619109
     atom    8 type  1   force =     0.00454411   -0.21351780    0.18619109
     atom    9 type  2   force =    -0.00899799   -0.05469092   -0.62972578
     atom   10 type  2   force =     0.00899799   -0.05469092    0.62972578
     atom   11 type  2   force =    -0.00899799    0.05469092    0.62972578
     atom   12 type  2   force =     0.00899799    0.05469092   -0.62972578
     atom   13 type  3   force =    -0.00003816   -0.02781523   -0.00427916
     atom   14 type  3   force =    -0.00003816    0.02781523    0.00427916
     atom   15 type  3   force =     0.00003816   -0.02781523    0.00427916
     atom   16 type  3   force =     0.00003816    0.02781523   -0.00427916
     The ionic contribution  to forces
     atom    1 type  1   force =     0.01968367    1.58331783    9.85990137
     atom    2 type  1   force =     0.01968367   -1.58331783   -9.85990137
     atom    3 type  1   force =    -0.01968367    1.58331783   -9.85990137
     atom    4 type  1   force =    -0.01968367   -1.58331783    9.85990137
     atom    5 type  1   force =    -0.05345175   -8.43432115    8.22517230
     atom    6 type  1   force =     0.05345175    8.43432115    8.22517230
     atom    7 type  1   force =     0.05345175   -8.43432115   -8.22517230
     atom    8 type  1   force =    -0.05345175    8.43432115   -8.22517230
     atom    9 type  2   force =    -0.04864412   -9.35769303   15.92403262
     atom   10 type  2   force =     0.04864412   -9.35769303  -15.92403262
     atom   11 type  2   force =    -0.04864412    9.35769303  -15.92403262
     atom   12 type  2   force =     0.04864412    9.35769303   15.92403262
     atom   13 type  3   force =    -0.04391735    3.24140763   11.95180740
     atom   14 type  3   force =    -0.04391735   -3.24140763  -11.95180740
     atom   15 type  3   force =     0.04391735    3.24140763  -11.95180740
     atom   16 type  3   force =     0.04391735   -3.24140763   11.95180740
     The local contribution  to forces
     atom    1 type  1   force =    -0.02011706   -1.46085563   -9.83451464
     atom    2 type  1   force =    -0.02010383    1.46071671    9.83432015
     atom    3 type  1   force =     0.02010982   -1.46064582    9.83412234
     atom    4 type  1   force =     0.02010570    1.46057376   -9.83394041
     atom    5 type  1   force =     0.04989488    8.17121925   -7.96417595
     atom    6 type  1   force =    -0.04992455   -8.17094856   -7.96440130
     atom    7 type  1   force =    -0.04990583    8.17091800    7.96406069
     atom    8 type  1   force =     0.04990558   -8.17121117    7.96456398
     atom    9 type  2   force =     0.05786983    9.43095718  -15.26094064
     atom   10 type  2   force =    -0.05783845    9.43144827   15.26127996
     atom   11 type  2   force =     0.05787608   -9.43062348   15.26015281
     atom   12 type  2   force =    -0.05786486   -9.43108157  -15.26018743
     atom   13 type  3   force =     0.04402460   -3.23817507  -11.94493681
     atom   14 type  3   force =     0.04402081    3.23788255   11.94504780
     atom   15 type  3   force =    -0.04401571   -3.23811011   11.94445847
     atom   16 type  3   force =    -0.04402303    3.23798929  -11.94469027
     The core correction contribution to forces
     atom    1 type  1   force =    -0.00005913    0.00434095    0.00303867
     atom    2 type  1   force =    -0.00005869   -0.00434077   -0.00303778
     atom    3 type  1   force =     0.00005886    0.00434155   -0.00303636
     atom    4 type  1   force =     0.00005878   -0.00434423    0.00303989
     atom    5 type  1   force =    -0.00027365   -0.01235462    0.01046781
     atom    6 type  1   force =     0.00027278    0.01235609    0.01046931
     atom    7 type  1   force =     0.00027331   -0.01235730   -0.01047056
     atom    8 type  1   force =    -0.00027362    0.01235327   -0.01047001
     atom    9 type  2   force =     0.00000476    0.00018056    0.00080128
     atom   10 type  2   force =    -0.00000475    0.00018056   -0.00080138
     atom   11 type  2   force =     0.00000469   -0.00018061   -0.00080113
     atom   12 type  2   force =    -0.00000466   -0.00018052    0.00080113
     atom   13 type  3   force =    -0.00001427    0.00319020   -0.00047078
     atom   14 type  3   force =    -0.00001393   -0.00319292    0.00047322
     atom   15 type  3   force =     0.00001465    0.00319172    0.00046764
     atom   16 type  3   force =     0.00001389   -0.00319257   -0.00047126
     The Hubbard contrib.    to forces
     atom    1 type  1   force =     0.00000000    0.00000000    0.00000000
     atom    2 type  1   force =     0.00000000    0.00000000    0.00000000
     atom    3 type  1   force =     0.00000000    0.00000000    0.00000000
     atom    4 type  1   force =     0.00000000    0.00000000    0.00000000
     atom    5 type  1   force =     0.00000000    0.00000000    0.00000000
     atom    6 type  1   force =     0.00000000    0.00000000    0.00000000
     atom    7 type  1   force =     0.00000000    0.00000000    0.00000000
     atom    8 type  1   force =     0.00000000    0.00000000    0.00000000
     atom    9 type  2   force =     0.00000000    0.00000000    0.00000000
     atom   10 type  2   force =     0.00000000    0.00000000    0.00000000
     atom   11 type  2   force =     0.00000000    0.00000000    0.00000000
     atom   12 type  2   force =     0.00000000    0.00000000    0.00000000
     atom   13 type  3   force =     0.00000000    0.00000000    0.00000000
     atom   14 type  3   force =     0.00000000    0.00000000    0.00000000
     atom   15 type  3   force =     0.00000000    0.00000000    0.00000000
     atom   16 type  3   force =     0.00000000    0.00000000    0.00000000
     The SCF correction term to forces
     atom    1 type  1   force =     0.00000440    0.00024201    0.00055956
     atom    2 type  1   force =    -0.00000110   -0.00009469   -0.00033602
     atom    3 type  1   force =    -0.00000131    0.00002496   -0.00012566
     atom    4 type  1   force =    -0.00000018   -0.00000574    0.00000365
     atom    5 type  1   force =     0.00000324   -0.00047252    0.00008146
     atom    6 type  1   force =     0.00000490    0.00021546    0.00033624
     atom    7 type  1   force =     0.00000362   -0.00021339   -0.00001582
     atom    8 type  1   force =    -0.00000200    0.00041052   -0.00051608
     atom    9 type  2   force =    -0.00004682   -0.00030943    0.00103938
     atom   10 type  2   force =    -0.00001320   -0.00088059   -0.00149127
     atom   11 type  2   force =    -0.00003347   -0.00005959   -0.00021911
     atom   12 type  2   force =     0.00000263    0.00041919    0.00027487
     atom   13 type  3   force =    -0.00000385    0.00020801    0.00060164
     atom   14 type  3   force =     0.00000146    0.00008545   -0.00074391
     atom   15 type  3   force =    -0.00000169    0.00015829   -0.00010648
     atom   16 type  3   force =    -0.00000091   -0.00003993    0.00035445

     Total force =     0.261223     Total SCF correction =     0.002644

     Computing stress (Cartesian axis) and pressure

     negative rho (up, down):  1.736E-01 0.000E+00
          total   stress  (Ry/bohr**3)                   (kbar)     P=     -115.06
  -0.00005150   0.00000000   0.00000000           -7.58        0.00        0.00
   0.00000000  -0.00142761   0.00000000            0.00     -210.01        0.00
   0.00000000   0.00000000  -0.00086745            0.00        0.00     -127.61

     kinetic stress (kbar)  14063.87      0.00      0.00
                                0.00  13738.49      0.00
                                0.00      0.00  13842.18

     local   stress (kbar) -38571.22     -0.00     -0.00
                               -0.00 -29717.24     -0.05
                               -0.00     -0.05   6099.83

     nonloc. stress (kbar)  11098.04      0.00      0.00
                                0.00  11055.72      0.00
                                0.00      0.00  11116.71

     hartree stress (kbar)  30504.54      0.00      0.00
                                0.00  26093.80      0.04
                                0.00      0.04   9358.33

     exc-cor stress (kbar)    -55.53     -0.00      0.00
                               -0.00    -54.23      0.00
                                0.00      0.00    -55.52

     corecor stress (kbar)  -5329.10      0.00     -0.00
                                0.00  -5325.03     -0.00
                               -0.00     -0.00  -5324.05

     ewald   stress (kbar) -11718.18      0.00     -0.00
                                0.00 -16001.53      0.00
                               -0.00      0.00 -35165.08

     hubbard stress (kbar)      0.00      0.00      0.00
                                0.00      0.00      0.00
                                0.00      0.00      0.00

     DFT-D   stress (kbar)      0.00      0.00      0.00
                                0.00      0.00      0.00
                                0.00      0.00      0.00

     XDM     stress (kbar)      0.00      0.00      0.00
                                0.00      0.00      0.00
                                0.00      0.00      0.00

     dft-nl  stress (kbar)      0.00      0.00      0.00
                                0.00      0.00      0.00
                                0.00      0.00      0.00

     TS-vdW  stress (kbar)      0.00      0.00      0.00
                                0.00      0.00      0.00
                                0.00      0.00      0.00

[...]

                                0.00      0.00      0.00

     Writing all to output data dir new_calculations/myprefix.save/

     General routines

     Parallel routines

   This run was terminated on:   1:45:43  21May2023

   JOB DONE.