     Program PWSCF v.7.0 starts on 21May2023 at 19:48: 7

     Reading input from espresso_21236.pwi
Warning: card &CELL ignored
Warning: card / ignored

     Current dimensions of program PWSCF are:
     Max number of different atomic species (ntypx) = 10
     Max number of k-points (npk) =  40000
     Max angular momentum in pseudopotentials (lmaxx) =  4
     file C.pbe-n-kjpaw_psl.1.0.0.UPF: wavefunction(s)  2S 2P renormalized

     gamma-point specific algorithms are used
     Message from routine setup:
     using ibrav=0 with symmetry is DISCOURAGED, use correct ibrav instead

     Subspace diagonalization in iterative solution of the eigenvalue problem:
     a serial algorithm will be used

     Using Slab Decomposition

     bravais-lattice index     =            0
     lattice parameter (alat)  =      11.0922  a.u.
     unit-cell volume          =     532.8945 (a.u.)^3
     number of atoms/cell      =            6
     number of atomic types    =            4
     number of electrons       =        55.00
     number of Kohn-Sham states=           34
     kinetic-energy cutoff     =      30.0000  Ry
     charge density cutoff     =     240.0000  Ry
     scf convergence threshold =      1.0E-06
     mixing beta               =       0.7000
     number of iterations used =            8  plain     mixing
     Exchange-correlation= SLA  PW   PBX  PBC
                           (   1   4   3   4   0   0   0)

     celldm(1)=  11.092160  celldm(2)=   0.000000  celldm(3)=   0.000000
     celldm(4)=   0.000000  celldm(5)=   0.000000  celldm(6)=   0.000000

     crystal axes: (cart. coord. in units of alat)
               a(1) = (   1.000000   0.000000   0.000000 )
               a(2) = (   0.557523   0.830161   0.000000 )
               a(3) = (  -0.778762  -0.415081   0.470360 )

     reciprocal axes: (cart. coord. in units 2 pi/alat)
               b(1) = (  1.000000 -0.671584  1.063016 )
               b(2) = (  0.000000  1.204585  1.063016 )
               b(3) = (  0.000000  0.000000  2.126032 )

     PseudoPot. # 1 for La read from file:
     /home/pragov/projects/rrg-bengioy-ad/pragov/crystal_structure_design/SSSP/La.GGA-PBE-paw-v1.0.UPF
     MD5 check sum: 436541e95c1ad8901025bd0b0ed42ae2
     Pseudo is Projector augmented-wave + core cor, Zval = 11.0
     Generated using ATOMPAW code
     Shape of augmentation charge: BESSEL
     Using radial grid of 1101 points,  8 beta functions with:
                l(1) =   0
                l(2) =   0
                l(3) =   1
                l(4) =   1
                l(5) =   2
                l(6) =   2
                l(7) =   3
                l(8) =   3
     Q(r) pseudized with 0 coefficients

     PseudoPot. # 2 for B  read from file:
     /home/pragov/projects/rrg-bengioy-ad/pragov/crystal_structure_design/SSSP/b_pbe_v1.4.uspp.F.UPF
     MD5 check sum: cc6de2960df11db49a60e589f9ebb39b
     Pseudo is Ultrasoft + core correction, Zval =  3.0
     Generated by new atomic code, or converted to UPF format
     Using radial grid of  781 points,  4 beta functions with:
                l(1) =   0
                l(2) =   0
                l(3) =   1
                l(4) =   1
     Q(r) pseudized with  8 coefficients,  rinner =    1.100   1.100   1.100

     PseudoPot. # 3 for Rh read from file:
     /home/pragov/projects/rrg-bengioy-ad/pragov/crystal_structure_design/SSSP/Rh_ONCV_PBE-1.0.oncvpsp.upf
     MD5 check sum: ba07c69523b14cacd10683cd4c4284c1
     Pseudo is Norm-conserving, Zval = 17.0
     Generated using ONCVPSP code by D. R. Hamann
     Using radial grid of 1442 points,  6 beta functions with:
                l(1) =   0
                l(2) =   0
                l(3) =   1
                l(4) =   1
                l(5) =   2
                l(6) =   2

     PseudoPot. # 4 for C  read from file:
     /home/pragov/projects/rrg-bengioy-ad/pragov/crystal_structure_design/SSSP/C.pbe-n-kjpaw_psl.1.0.0.UPF
     MD5 check sum: 5d2aebdfa2cae82b50a7e79e9516da0f
     Pseudo is Projector augmented-wave + core cor, Zval =  4.0
     Generated using "atomic" code by A. Dal Corso  v.5.1
     Shape of augmentation charge: PSQ
     Using radial grid of 1073 points,  4 beta functions with:
                l(1) =   0
                l(2) =   0
                l(3) =   1
                l(4) =   1
     Q(r) pseudized with 0 coefficients

     atomic species   valence    mass     pseudopotential
        La            11.00   138.90547     La( 1.00)
        B              3.00    10.81000     B ( 1.00)
        Rh            17.00   102.90550     Rh( 1.00)
        C              4.00    12.01100     C ( 1.00)

      4 Sym. Ops., with inversion, found

                                    s                        frac. trans.

      isym =  1     identity

 cryst.   s( 1) = (     1          0          0      )
                  (     0          1          0      )
                  (     0          0          1      )

 cart.    s( 1) = (  1.0000000 -0.0000000 -0.0000000 )
                  (  0.0000000  1.0000000 -0.0000000 )
                  (  0.0000000  0.0000000  1.0000000 )

      isym =  2     180 deg rotation - cart. axis [0,0,1]

[...]

      isym =  3     inversion

[...]

      isym =  4     inv. 180 deg rotation - cart. axis [0,0,1]

 cryst.   s( 4) = (     1          0          0      )
                  (     0          1          0      )
                  (    -1         -1         -1      )

 cart.    s( 4) = (  1.0000000 -0.0000000  0.0000000 )
                  (  0.0000000  1.0000000  0.0000000 )
                  (  0.0000000  0.0000000 -1.0000000 )

   Cartesian axes

     site n.     atom                  positions (alat units)
         1           La  tau(   1) = (   0.0000000   0.0000000   0.0000000  )
         2           B   tau(   2) = (   0.5529659   0.2947314   0.0000000  )
         3           B   tau(   3) = (   1.0045573   0.5354300   0.0000000  )
         4           Rh  tau(   4) = (   0.2787616   0.4150807   0.2351799  )
         5           Rh  tau(   5) = (   0.5000000  -0.0000000   0.2351799  )
         6           C   tau(   6) = (   0.7787616   0.4150807   0.0000000  )

   Crystallographic axes

     site n.     atom                  positions (cryst. coord.)
         1           La  tau(   1) = (  0.0000000  0.0000000  0.0000000  )
         2           B   tau(   2) = (  0.3550290  0.3550290  0.0000000  )
         3           B   tau(   3) = (  0.6449710  0.6449710  0.0000000  )
         4           Rh  tau(   4) = (  0.2500000  0.7500000  0.5000000  )
         5           Rh  tau(   5) = (  0.7500000  0.2500000  0.5000000  )
         6           C   tau(   6) = (  0.5000000  0.5000000  0.0000000  )

     number of k points=     1  Methfessel-Paxton smearing, width (Ry)=  0.0010
                       cart. coord. in units 2pi/alat
        k(    1) = (   0.0000000   0.0000000   0.0000000), wk =   2.0000000

                       cryst. coord.
        k(    1) = (   0.0000000   0.0000000   0.0000000), wk =   2.0000000

     Check: negative core charge=   -0.000009

     Initial potential from superposition of free atoms

     starting charge      54.9900, renormalised to      55.0000
     Starting wfcs are   64 randomized atomic wfcs
     Checking if some PAW data can be deallocated...

     Self-consistent Calculation

     iteration #  1     ecut=    30.00 Ry     beta= 0.70
     Davidson diagonalization with overlap

     ethr =  1.00E-02,  avg # of iterations =  3.0

     total energy              =    -922.44177990 Ry
     estimated scf accuracy    <       1.08429320 Ry

[...]

     ethr =  7.35E-05,  avg # of iterations =  1.0
     Minimization algorithm failed to find Fermi energy: reverting to bisection
     Possible cause: smearing is larger than the electronic band-gap.

[...]

     ethr =  1.85E-05,  avg # of iterations =  1.0
     Minimization algorithm failed to find Fermi energy: reverting to bisection
     Possible cause: smearing is larger than the electronic band-gap.

[...]

     total energy              =    -922.99842481 Ry
     estimated scf accuracy    <       0.00000181 Ry

     iteration # 46     ecut=    30.00 Ry     beta= 0.70
     Davidson diagonalization with overlap

     ethr =  3.28E-09,  avg # of iterations =  1.0

     End of self-consistent calculation

          k = 0.0000 0.0000 0.0000 (   759 PWs)   bands (ev):

   -62.9867 -62.9339 -31.3965 -31.3444 -31.2025 -31.0755 -30.2752 -30.2065
   -15.5193   0.4219   0.7397   0.7528   3.8869   7.3874   7.5313  10.2988
    10.5732  11.2890  11.2941  13.5933  13.6005  13.6437  14.3935  14.6321
    15.4527  15.4528  15.4531  15.4545  15.8082  16.3583  18.0892  19.5863
    19.7025  19.7614

     occupation numbers
     1.0000   1.0000   1.0000   1.0000   1.0000   1.0000   1.0000   1.0000
     1.0000   1.0000   1.0000   1.0000   1.0000   1.0000   1.0000   1.0000
     1.0000   1.0000   1.0000   1.0000   1.0000   1.0000   1.0000   1.0000
     0.8979   0.8944   0.8837   0.8239  -0.0000  -0.0000  -0.0000  -0.0000
    -0.0000  -0.0000

     the Fermi energy is    15.4602 ev

!    total energy              =    -922.99842451 Ry
     estimated scf accuracy    <       0.00000041 Ry
     smearing contrib. (-TS)   =      -0.00041316 Ry
     internal energy E=F+TS    =    -922.99801135 Ry

     The total energy is F=E-TS. E is the sum of the following terms:
     one-electron contribution =    -196.07129491 Ry
     hartree contribution      =     129.44445065 Ry
     xc contribution           =     -63.55197629 Ry
     ewald contribution        =    -388.47308433 Ry
     one-center paw contrib.   =    -404.34610647 Ry
      -> PAW hartree energy AE =      44.52972461 Ry
      -> PAW hartree energy PS =     -44.55638639 Ry
      -> PAW xc energy AE      =    -415.99190263 Ry
      -> PAW xc energy PS      =      11.67245793 Ry
      -> total E_H with PAW    =     129.41778887 Ry
      -> total E_XC with PAW   =    -467.87142098 Ry

     convergence has been achieved in  46 iterations

     Forces acting on atoms (cartesian axes, Ry/au):

     atom    1 type  1   force =     0.00000000    0.00000000    0.00000000
     atom    2 type  2   force =     0.03344061    0.01808131    0.00000000
     atom    3 type  2   force =    -0.03344061   -0.01808131   -0.00000000
     atom    4 type  3   force =     0.00000000    0.00000000    0.00121767
     atom    5 type  3   force =     0.00000000    0.00000000   -0.00121767
     atom    6 type  4   force =     0.00000000    0.00000000    0.00000000
     The non-local contrib.  to forces
     atom    1 type  1   force =     0.00000000    0.00000000    0.00000000
     atom    2 type  2   force =    -0.26688645   -0.14203586   -0.00000000
     atom    3 type  2   force =     0.26688645    0.14203586    0.00000000
     atom    4 type  3   force =     0.00000000    0.00000000   -0.00011691
     atom    5 type  3   force =     0.00000000    0.00000000    0.00011691
     atom    6 type  4   force =     0.00000000    0.00000000    0.00000000
     The ionic contribution  to forces
     atom    1 type  1   force =     0.00000000   -0.00000000   -0.00000000
     atom    2 type  2   force =     3.96713036    2.11448437    0.00000000
     atom    3 type  2   force =    -3.96713036   -2.11448437   -0.00000000
     atom    4 type  3   force =     0.00000000   -0.00000000    0.00000000
     atom    5 type  3   force =    -0.00000000    0.00000000   -0.00000000
     atom    6 type  4   force =     0.00000000    0.00000000   -0.00000000
     The local contribution  to forces
     atom    1 type  1   force =    -0.00048563   -0.00025431   -0.00000554
     atom    2 type  2   force =    -3.67798017   -1.96034909   -0.00004148
     atom    3 type  2   force =     3.67780475    1.96025425    0.00004075
     atom    4 type  3   force =     0.01170154    0.00492008    0.00133657
     atom    5 type  3   force =    -0.01187986   -0.00501522   -0.00133235
     atom    6 type  4   force =     0.00040080    0.00021330    0.00000271
     The core correction contribution to forces
     atom    1 type  1   force =    -0.00000029   -0.00000015   -0.00000000
     atom    2 type  2   force =     0.01131397    0.00605429   -0.00002011
     atom    3 type  2   force =    -0.01131575   -0.00605517    0.00002007
     atom    4 type  3   force =     0.00000000    0.00000000    0.00000000
     atom    5 type  3   force =     0.00000000    0.00000000    0.00000000
     atom    6 type  4   force =     0.00000098    0.00000055    0.00000002
     The Hubbard contrib.    to forces
     atom    1 type  1   force =     0.00000000    0.00000000    0.00000000
     atom    2 type  2   force =     0.00000000    0.00000000    0.00000000
     atom    3 type  2   force =     0.00000000    0.00000000    0.00000000
     atom    4 type  3   force =     0.00000000    0.00000000    0.00000000
     atom    5 type  3   force =     0.00000000    0.00000000    0.00000000
     atom    6 type  4   force =     0.00000000    0.00000000    0.00000000
     The SCF correction term to forces
     atom    1 type  1   force =     0.00017238    0.00009044    0.00000221
     atom    2 type  2   force =    -0.00021611   -0.00011489    0.00000011
     atom    3 type  2   force =     0.00023529    0.00012562   -0.00000054
     atom    4 type  3   force =     0.00017363    0.00008656   -0.00000024
     atom    5 type  3   force =    -0.00031751   -0.00016411   -0.00000048
     atom    6 type  4   force =    -0.00019573   -0.00010385   -0.00000125

     Total force =     0.053790     Total SCF correction =     0.000619

     Computing stress (Cartesian axis) and pressure

          total   stress  (Ry/bohr**3)                   (kbar)     P=       39.27
  -0.00079081  -0.00101101  -0.00000000         -116.33     -148.72       -0.00
  -0.00101101   0.00055822  -0.00000000         -148.72       82.12       -0.00
  -0.00000000  -0.00000000   0.00103340           -0.00       -0.00      152.02

     kinetic stress (kbar)  32345.74    475.99      0.00
                              475.99  31703.68      0.00
                                0.00      0.00  31466.89

     local   stress (kbar)  10175.34  18715.00     15.26
                            18715.00 -14967.32    -22.48
                               15.26    -22.48 -24953.49

     nonloc. stress (kbar)   7190.46    -92.54      0.00
                              -92.54   7321.79      0.00
                                0.00      0.00   7353.19

     hartree stress (kbar)   2609.16  -8667.43     -4.04
                            -8667.43  14250.73      7.24
                               -4.04      7.24  18873.15

     exc-cor stress (kbar)  -4578.33      6.56     -0.15
                                6.56  -4587.23      0.34
                               -0.15      0.34  -4590.65

     corecor stress (kbar)   -750.86      1.54      0.08
                                1.54   -752.95     -0.14
                                0.08     -0.14   -753.82

     ewald   stress (kbar) -47107.84 -10587.85     -0.00
                           -10587.85 -32886.58     -0.00
                               -0.00     -0.00 -27243.25

     hubbard stress (kbar)      0.00      0.00      0.00
                                0.00      0.00      0.00
                                0.00      0.00      0.00

     DFT-D   stress (kbar)      0.00      0.00      0.00
                                0.00      0.00      0.00
                                0.00      0.00      0.00

     XDM     stress (kbar)      0.00      0.00      0.00
                                0.00      0.00      0.00
                                0.00      0.00      0.00

     dft-nl  stress (kbar)      0.00      0.00      0.00
                                0.00      0.00      0.00
                                0.00      0.00      0.00

     TS-vdW  stress (kbar)      0.00      0.00      0.00
                                0.00      0.00      0.00
                                0.00      0.00      0.00

[...]

                                0.00      0.00      0.00

     Writing all to output data dir new_calculations/myprefix.save/

     General routines

     Parallel routines

     PAW routines

   This run was terminated on:  19:48:47  21May2023

   JOB DONE.