     Program PWSCF v.7.0 starts on 21May2023 at  0:59:38

     Reading input from espresso_18711.pwi
Warning: card &CELL ignored
Warning: card / ignored

     Current dimensions of program PWSCF are:
     Max number of different atomic species (ntypx) = 10
     Max number of k-points (npk) =  40000
     Max angular momentum in pseudopotentials (lmaxx) =  4

     gamma-point specific algorithms are used
     Message from routine setup:
     using ibrav=0 with symmetry is DISCOURAGED, use correct ibrav instead

     Subspace diagonalization in iterative solution of the eigenvalue problem:
     a serial algorithm will be used

     Using Slab Decomposition

     bravais-lattice index     =            0
     lattice parameter (alat)  =       8.8834  a.u.
     unit-cell volume          =    2066.4756 (a.u.)^3
     number of atoms/cell      =           12
     number of atomic types    =            3
     number of electrons       =       152.00
     number of Kohn-Sham states=           91
     kinetic-energy cutoff     =      30.0000  Ry
     charge density cutoff     =     240.0000  Ry
     scf convergence threshold =      1.0E-06
     mixing beta               =       0.7000
     number of iterations used =            8  plain     mixing
     Exchange-correlation= SLA  PW   PBE  PBE
                           (   1   4   3   4   0   0   0)

     celldm(1)=   8.883438  celldm(2)=   0.000000  celldm(3)=   0.000000
     celldm(4)=   0.000000  celldm(5)=   0.000000  celldm(6)=   0.000000

     crystal axes: (cart. coord. in units of alat)
               a(1) = (   1.000000   0.000000   0.000000 )
               a(2) = (   0.000000   1.635029   0.000000 )
               a(3) = (   0.000000   0.000000   1.802859 )

     reciprocal axes: (cart. coord. in units 2 pi/alat)
               b(1) = (  1.000000  0.000000  0.000000 )
               b(2) = (  0.000000  0.611610  0.000000 )
               b(3) = (  0.000000  0.000000  0.554675 )

     PseudoPot. # 1 for Tl read from file:
     /home/pragov/projects/rrg-bengioy-ad/pragov/crystal_structure_design/SSSP/Tl_pbe_v1.2.uspp.F.UPF
     MD5 check sum: b76cf1f7e72655a2b2c53cf6385d7059
     Pseudo is Ultrasoft + core correction, Zval = 13.0
     Generated by new atomic code, or converted to UPF format
     Using radial grid of  899 points,  6 beta functions with:
                l(1) =   0
                l(2) =   0
                l(3) =   1
                l(4) =   1
                l(5) =   2
                l(6) =   2
     Q(r) pseudized with  6 coefficients,  rinner =    1.100   1.100   1.100
                                                       1.100   1.100

     PseudoPot. # 2 for Ag read from file:
     /home/pragov/projects/rrg-bengioy-ad/pragov/crystal_structure_design/SSSP/Ag_ONCV_PBE-1.0.oncvpsp.upf
     MD5 check sum: 94f47bd0669c641108e45594df92fabc
     Pseudo is Norm-conserving, Zval = 19.0
     Generated using ONCVPSP code by D. R. Hamann
     Using radial grid of 1398 points,  6 beta functions with:
                l(1) =   0
                l(2) =   0
                l(3) =   1
                l(4) =   1
                l(5) =   2
                l(6) =   2

     PseudoPot. # 3 for Se read from file:
     /home/pragov/projects/rrg-bengioy-ad/pragov/crystal_structure_design/SSSP/Se_pbe_v1.uspp.F.UPF
     MD5 check sum: 1b3568f3a8ae88f9a2a0ad0698632c85
     Pseudo is Ultrasoft + core correction, Zval =  6.0
     Generated by new atomic code, or converted to UPF format
     Using radial grid of  877 points,  6 beta functions with:
                l(1) =   0
                l(2) =   0
                l(3) =   1
                l(4) =   1
                l(5) =   2
                l(6) =   2
     Q(r) pseudized with  8 coefficients,  rinner =    1.300   1.300   1.300
                                                       1.300   1.300

     atomic species   valence    mass     pseudopotential
        Tl            13.00   204.38000     Tl( 1.00)
        Ag            19.00   107.86820     Ag( 1.00)
        Se             6.00    78.97100     Se( 1.00)

      8 Sym. Ops., with inversion, found ( 6 have fractional translation)

                                    s                        frac. trans.

      isym =  1     identity

 cryst.   s( 1) = (     1          0          0      )
                  (     0          1          0      )
                  (     0          0          1      )

 cart.    s( 1) = (  1.0000000  0.0000000  0.0000000 )
                  (  0.0000000  1.0000000  0.0000000 )
                  (  0.0000000  0.0000000  1.0000000 )

      isym =  2     180 deg rotation - cart. axis [0,0,1]

 cryst.   s( 2) = (    -1          0          0      )    f =(  0.5000000 )
                  (     0         -1          0      )       (  0.5000000 )
                  (     0          0          1      )       ( -0.5000000 )

 cart.    s( 2) = ( -1.0000000  0.0000000  0.0000000 )    f =(  0.5000000 )
                  (  0.0000000 -1.0000000  0.0000000 )       (  0.8175143 )
                  (  0.0000000  0.0000000  1.0000000 )       ( -0.9014294 )

[...]

      isym =  4     180 deg rotation - cart. axis [1,0,0]

[...]

      isym =  5     inversion

 cryst.   s( 5) = (    -1          0          0      )
                  (     0         -1          0      )
                  (     0          0         -1      )

 cart.    s( 5) = ( -1.0000000  0.0000000  0.0000000 )
                  (  0.0000000 -1.0000000  0.0000000 )
                  (  0.0000000  0.0000000 -1.0000000 )

      isym =  6     inv. 180 deg rotation - cart. axis [0,0,1]

[...]

      isym =  8     inv. 180 deg rotation - cart. axis [1,0,0]

 cryst.   s( 8) = (    -1          0          0      )    f =(  0.5000000 )
                  (     0          1          0      )       (  0.0000000 )
                  (     0          0          1      )       (  0.0000000 )

 cart.    s( 8) = ( -1.0000000  0.0000000  0.0000000 )    f =(  0.5000000 )
                  (  0.0000000  1.0000000  0.0000000 )       (  0.0000000 )
                  (  0.0000000  0.0000000  1.0000000 )       (  0.0000000 )

   Cartesian axes

     site n.     atom                  positions (alat units)
         1           Tl  tau(   1) = (   0.7500000   0.3001536   0.0013756  )
         2           Tl  tau(   2) = (   0.2500000   1.3348749   1.8014831  )
         3           Tl  tau(   3) = (   0.7500000   0.5173606   0.9028049  )
         4           Tl  tau(   4) = (   0.2500000   1.1176679   0.9000538  )
         5           Ag  tau(   5) = (   0.2500000   0.1380651   1.2175210  )
         6           Ag  tau(   6) = (   0.7500000   1.4969635   0.5853377  )
         7           Ag  tau(   7) = (   0.2500000   0.6794492   0.3160916  )
         8           Ag  tau(   8) = (   0.7500000   0.9555794   1.4867671  )
         9           Se  tau(   9) = (   0.7500000   0.9805544   0.3327807  )
        10           Se  tau(  10) = (   0.2500000   0.6544741   1.4700780  )
        11           Se  tau(  11) = (   0.7500000   1.4719884   1.2342100  )
        12           Se  tau(  12) = (   0.2500000   0.1630401   0.5686487  )

   Crystallographic axes

     site n.     atom                  positions (cryst. coord.)
         1           Tl  tau(   1) = (  0.7500000  0.1835770  0.0007630  )
         2           Tl  tau(   2) = (  0.2500000  0.8164230  0.9992370  )
         3           Tl  tau(   3) = (  0.7500000  0.3164230  0.5007630  )
         4           Tl  tau(   4) = (  0.2500000  0.6835770  0.4992370  )
         5           Ag  tau(   5) = (  0.2500000  0.0844420  0.6753280  )
         6           Ag  tau(   6) = (  0.7500000  0.9155580  0.3246720  )
         7           Ag  tau(   7) = (  0.2500000  0.4155580  0.1753280  )
         8           Ag  tau(   8) = (  0.7500000  0.5844420  0.8246720  )
         9           Se  tau(   9) = (  0.7500000  0.5997170  0.1845850  )
        10           Se  tau(  10) = (  0.2500000  0.4002830  0.8154150  )
        11           Se  tau(  11) = (  0.7500000  0.9002830  0.6845850  )
        12           Se  tau(  12) = (  0.2500000  0.0997170  0.3154150  )

     number of k points=     1  Methfessel-Paxton smearing, width (Ry)=  0.0010
                       cart. coord. in units 2pi/alat
        k(    1) = (   0.0000000   0.0000000   0.0000000), wk =   2.0000000

                       cryst. coord.
        k(    1) = (   0.0000000   0.0000000   0.0000000), wk =   2.0000000

     Check: negative core charge=   -0.000004

     Initial potential from superposition of free atoms

     starting charge     151.9791, renormalised to     152.0000

     negative rho (up, down):  2.044E-01 0.000E+00
     Starting wfcs are   92 randomized atomic wfcs

     Self-consistent Calculation

     iteration #  1     ecut=    30.00 Ry     beta= 0.70
     Davidson diagonalization with overlap

     ethr =  1.00E-02,  avg # of iterations =  3.0

     Threshold (ethr) on eigenvalues was too large:
     Diagonalizing with lowered threshold

     Davidson diagonalization with overlap

[...]

     negative rho (up, down):  2.062E-01 0.000E+00

     total energy              =   -1901.95809280 Ry
     estimated scf accuracy    <       0.82029716 Ry

[...]

     total energy              =   -1902.28500680 Ry
     estimated scf accuracy    <       0.00000137 Ry

     iteration # 10     ecut=    30.00 Ry     beta= 0.70
     Davidson diagonalization with overlap

     ethr =  9.00E-10,  avg # of iterations =  9.0

[...]

     End of self-consistent calculation

          k = 0.0000 0.0000 0.0000 (  2863 PWs)   bands (ev):

   -83.1161 -83.1160 -83.1159 -83.1156 -46.2197 -46.2187 -46.2165 -46.2147
   -46.1426 -46.1403 -46.1395 -46.1391 -46.1390 -46.1389 -46.1358 -46.1349
    -3.0554  -2.7250  -2.6823  -2.6441  -2.0639  -2.0616  -2.0202  -2.0179
    -1.9829  -1.9534  -1.9315  -1.9242  -1.9206  -1.9156  -1.9111  -1.8981
    -1.8892  -1.8847  -1.8796  -1.8464  -1.8462  -1.8312  -1.8143  -1.6560
     2.4589   3.1657   3.2785   3.7317   4.6056   4.8069   4.8640   4.8953
     4.9632   5.0397   5.2399   5.2654   5.3001   5.4913   5.5202   5.6036
     5.6700   5.7446   5.7492   5.7808   5.8307   5.8334   6.1310   6.1333
     6.2420   7.0011   7.0871   7.3414   7.5144   8.3455   8.6715   8.9843
     9.0212   9.0992   9.3484   9.3638  10.1022  10.3653  11.2437  11.9668
    12.0352  12.5442  12.5778  12.9541  13.2750  13.3659  13.4128  13.4278
    13.6088  14.0729  14.3193

     occupation numbers
     1.0000   1.0000   1.0000   1.0000   1.0000   1.0000   1.0000   1.0000
     1.0000   1.0000   1.0000   1.0000   1.0000   1.0000   1.0000   1.0000
     1.0000   1.0000   1.0000   1.0000   1.0000   1.0000   1.0000   1.0000
     1.0000   1.0000   1.0000   1.0000   1.0000   1.0000   1.0000   1.0000
     1.0000   1.0000   1.0000   1.0000   1.0000   1.0000   1.0000   1.0000
     1.0000   1.0000   1.0000   1.0000   1.0000   1.0000   1.0000   1.0000
     1.0000   1.0000   1.0000   1.0000   1.0000   1.0000   1.0000   1.0000
     1.0000   1.0000   1.0000   1.0000   1.0000   1.0000   1.0000   1.0000
     1.0000   1.0000   1.0000   1.0000   1.0000   1.0000   1.0000   1.0000
     1.0000   1.0000   1.0000   1.0000  -0.0000  -0.0000  -0.0000  -0.0000
    -0.0000  -0.0000  -0.0000  -0.0000  -0.0000  -0.0000  -0.0000  -0.0000
    -0.0000  -0.0000  -0.0000

     the Fermi energy is     9.8753 ev

!    total energy              =   -1902.28500734 Ry
     estimated scf accuracy    <       0.00000038 Ry
     smearing contrib. (-TS)   =       0.00000000 Ry
     internal energy E=F+TS    =   -1902.28500734 Ry

     The total energy is F=E-TS. E is the sum of the following terms:
     one-electron contribution =    -831.98044888 Ry
     hartree contribution      =     489.70507459 Ry
     xc contribution           =    -475.50904701 Ry
     ewald contribution        =   -1084.50058604 Ry

     convergence has been achieved in  10 iterations

     negative rho (up, down):  2.058E-01 0.000E+00

     Forces acting on atoms (cartesian axes, Ry/au):

     atom    1 type  1   force =     0.00000000    0.00155040   -0.00059298
     atom    2 type  1   force =     0.00000000   -0.00155040    0.00059298
     atom    3 type  1   force =     0.00000000   -0.00155040   -0.00059298
     atom    4 type  1   force =     0.00000000    0.00155040    0.00059298
     atom    5 type  2   force =     0.00000000    0.03217860   -0.00495982
     atom    6 type  2   force =     0.00000000   -0.03217860    0.00495982
     atom    7 type  2   force =     0.00000000   -0.03217860   -0.00495982
     atom    8 type  2   force =     0.00000000    0.03217860    0.00495982
     atom    9 type  3   force =     0.00000000    0.01445979   -0.01243184
     atom   10 type  3   force =    -0.00000000   -0.01445979    0.01243184
     atom   11 type  3   force =    -0.00000000   -0.01445979   -0.01243184
     atom   12 type  3   force =     0.00000000    0.01445979    0.01243184
     The non-local contrib.  to forces
     atom    1 type  1   force =     0.00000000    0.07258996   -0.05781275
     atom    2 type  1   force =     0.00000000   -0.07258996    0.05781275
     atom    3 type  1   force =    -0.00000000   -0.07258996   -0.05781275
     atom    4 type  1   force =     0.00000000    0.07258996    0.05781275
     atom    5 type  2   force =    -0.00000000   -0.08241164   -0.03829162
     atom    6 type  2   force =     0.00000000    0.08241164    0.03829162
     atom    7 type  2   force =     0.00000000    0.08241164   -0.03829162
     atom    8 type  2   force =     0.00000000   -0.08241164    0.03829162
     atom    9 type  3   force =     0.00000000    0.04833658   -0.00299970
     atom   10 type  3   force =     0.00000000   -0.04833658    0.00299970
     atom   11 type  3   force =     0.00000000   -0.04833658   -0.00299970
     atom   12 type  3   force =    -0.00000000    0.04833658    0.00299970
     The ionic contribution  to forces
     atom    1 type  1   force =    -0.00000000   -4.96827911   -1.14658718
     atom    2 type  1   force =     0.00000000    4.96827911    1.14658718
     atom    3 type  1   force =     0.00000000    4.96827911   -1.14658718
     atom    4 type  1   force =     0.00000000   -4.96827911    1.14658718
     atom    5 type  2   force =    -0.00000000    1.30604546    3.76128565
     atom    6 type  2   force =    -0.00000000   -1.30604546   -3.76128565
     atom    7 type  2   force =    -0.00000000   -1.30604546    3.76128565
     atom    8 type  2   force =    -0.00000000    1.30604546   -3.76128565
     atom    9 type  3   force =    -0.00000000    0.39576895    1.36120167
     atom   10 type  3   force =     0.00000000   -0.39576895   -1.36120167
     atom   11 type  3   force =    -0.00000000   -0.39576895    1.36120167
     atom   12 type  3   force =    -0.00000000    0.39576895   -1.36120167
     The local contribution  to forces
     atom    1 type  1   force =     0.00000583    4.90111490    1.20016005
     atom    2 type  1   force =    -0.00001719   -4.90028685   -1.19990304
     atom    3 type  1   force =     0.00000519   -4.90176566    1.19995471
     atom    4 type  1   force =    -0.00003482    4.90095153   -1.19971638
     atom    5 type  2   force =    -0.00000666   -1.19024446   -3.72814291
     atom    6 type  2   force =     0.00001156    1.19345763    3.72806290
     atom    7 type  2   force =    -0.00003818    1.18939182   -3.72756867
     atom    8 type  2   force =     0.00003198   -1.19250207    3.72714665
     atom    9 type  3   force =    -0.00000224   -0.42387638   -1.37068917
     atom   10 type  3   force =    -0.00000189    0.42329156    1.37047576
     atom   11 type  3   force =     0.00001685    0.42399653   -1.37079716
     atom   12 type  3   force =    -0.00001225   -0.42342390    1.37070140
     The core correction contribution to forces
     atom    1 type  1   force =    -0.00000030   -0.00411304    0.00391661
     atom    2 type  1   force =     0.00000057    0.00412088   -0.00389075
     atom    3 type  1   force =    -0.00000008    0.00412018    0.00389540
     atom    4 type  1   force =    -0.00000055   -0.00412612   -0.00390401
     atom    5 type  2   force =     0.00000000    0.00000000    0.00000000
     atom    6 type  2   force =     0.00000000    0.00000000    0.00000000
     atom    7 type  2   force =     0.00000000    0.00000000    0.00000000
     atom    8 type  2   force =     0.00000000    0.00000000    0.00000000
     atom    9 type  3   force =    -0.00000196   -0.00598815    0.00008608
     atom   10 type  3   force =     0.00000027    0.00598799   -0.00009690
     atom   11 type  3   force =     0.00000139    0.00598532    0.00008596
     atom   12 type  3   force =    -0.00000016   -0.00598937   -0.00009551
     The Hubbard contrib.    to forces
     atom    1 type  1   force =     0.00000000    0.00000000    0.00000000
     atom    2 type  1   force =     0.00000000    0.00000000    0.00000000
     atom    3 type  1   force =     0.00000000    0.00000000    0.00000000
     atom    4 type  1   force =     0.00000000    0.00000000    0.00000000
     atom    5 type  2   force =     0.00000000    0.00000000    0.00000000
     atom    6 type  2   force =     0.00000000    0.00000000    0.00000000
     atom    7 type  2   force =     0.00000000    0.00000000    0.00000000
     atom    8 type  2   force =     0.00000000    0.00000000    0.00000000
     atom    9 type  3   force =     0.00000000    0.00000000    0.00000000
     atom   10 type  3   force =     0.00000000    0.00000000    0.00000000
     atom   11 type  3   force =     0.00000000    0.00000000    0.00000000
     atom   12 type  3   force =     0.00000000    0.00000000    0.00000000
     The SCF correction term to forces
     atom    1 type  1   force =    -0.00000243    0.00021727   -0.00027651
     atom    2 type  1   force =     0.00002989   -0.00110879   -0.00000339
     atom    3 type  1   force =     0.00000407    0.00041886   -0.00001374
     atom    4 type  1   force =     0.00004355    0.00041227   -0.00017371
     atom    5 type  2   force =     0.00002057   -0.00130068    0.00025485
     atom    6 type  2   force =    -0.00001739   -0.00218200   -0.00017951
     atom    7 type  2   force =     0.00005589    0.00223252   -0.00040749
     atom    8 type  2   force =    -0.00004576    0.00112631    0.00092114
     atom    9 type  3   force =    -0.00000520    0.00020546   -0.00008468
     atom   10 type  3   force =     0.00000366    0.00036517    0.00021687
     atom   11 type  3   force =    -0.00000894   -0.00034608    0.00003977
     atom   12 type  3   force =     0.00000685   -0.00023015   -0.00002556

     Total force =     0.075537     Total SCF correction =     0.003995

     Computing stress (Cartesian axis) and pressure

     negative rho (up, down):  2.058E-01 0.000E+00
          total   stress  (Ry/bohr**3)                   (kbar)     P=     -348.43
  -0.00189201   0.00000000   0.00000000         -278.32        0.00        0.00
   0.00000000  -0.00245708   0.00000000            0.00     -361.45        0.00
   0.00000000   0.00000000  -0.00275662            0.00        0.00     -405.51

     kinetic stress (kbar)  21899.90      0.00      0.00
                                0.00  21757.18      0.00
                                0.00      0.00  21744.85

     local   stress (kbar)  -8934.70     -0.00      0.00
                               -0.00  -7460.92      0.05
                                0.00      0.05  -4841.50

     nonloc. stress (kbar)   4519.51      0.00      0.00
                                0.00   4468.83      0.00
                                0.00      0.00   4459.64

     hartree stress (kbar)  12330.69      0.00     -0.00
                                0.00  11610.21     -0.04
                               -0.00     -0.04  10919.47

     exc-cor stress (kbar)  15492.39      0.00     -0.00
                                0.00  15491.23     -0.00
                               -0.00     -0.00  15485.84

     corecor stress (kbar) -20934.12     -0.00      0.00
                               -0.00 -20927.82      0.00
                                0.00      0.00 -20924.21

     ewald   stress (kbar) -24651.99      0.00      0.00
                                0.00 -25300.16      0.00
                                0.00      0.00 -27249.61

     hubbard stress (kbar)      0.00      0.00      0.00
                                0.00      0.00      0.00
                                0.00      0.00      0.00

     DFT-D   stress (kbar)      0.00      0.00      0.00
                                0.00      0.00      0.00
                                0.00      0.00      0.00

     XDM     stress (kbar)      0.00      0.00      0.00
                                0.00      0.00      0.00
                                0.00      0.00      0.00

     dft-nl  stress (kbar)      0.00      0.00      0.00
                                0.00      0.00      0.00
                                0.00      0.00      0.00

     TS-vdW  stress (kbar)      0.00      0.00      0.00
                                0.00      0.00      0.00
                                0.00      0.00      0.00

[...]

                                0.00      0.00      0.00

     Writing all to output data dir new_calculations/myprefix.save/

     General routines

     Parallel routines

   This run was terminated on:   1: 0: 5  21May2023

   JOB DONE.