     Program PWSCF v.7.0 starts on 20May2023 at 17:50: 6

     Reading input from espresso_20127.pwi
Warning: card &CELL ignored
Warning: card / ignored

     Current dimensions of program PWSCF are:
     Max number of different atomic species (ntypx) = 10
     Max number of k-points (npk) =  40000
     Max angular momentum in pseudopotentials (lmaxx) =  4
     file K.pbe-spn-kjpaw_psl.1.0.0.UPF: wavefunction(s)  3S renormalized

     gamma-point specific algorithms are used
     Message from routine setup:
     using ibrav=0 with symmetry is DISCOURAGED, use correct ibrav instead

     Subspace diagonalization in iterative solution of the eigenvalue problem:
     a serial algorithm will be used

     Using Slab Decomposition

     bravais-lattice index     =            0
     lattice parameter (alat)  =      13.5472  a.u.
     unit-cell volume          =    1373.0506 (a.u.)^3
     number of atoms/cell      =            4
     number of atomic types    =            2
     number of electrons       =        40.00
     number of Kohn-Sham states=           24
     kinetic-energy cutoff     =      30.0000  Ry
     charge density cutoff     =     240.0000  Ry
     scf convergence threshold =      1.0E-06
     mixing beta               =       0.7000
     number of iterations used =            8  plain     mixing
     Exchange-correlation= SLA  PW   PBE  PBE
                           (   1   4   3   4   0   0   0)

     celldm(1)=  13.547189  celldm(2)=   0.000000  celldm(3)=   0.000000
     celldm(4)=   0.000000  celldm(5)=   0.000000  celldm(6)=   0.000000

     crystal axes: (cart. coord. in units of alat)
               a(1) = (   1.000000   0.000000   0.000000 )
               a(2) = (   0.320299   0.947316   0.000000 )
               a(3) = (  -0.660150  -0.473658   0.582967 )

     reciprocal axes: (cart. coord. in units 2 pi/alat)
               b(1) = (  1.000000 -0.338112  0.857682 )
               b(2) = (  0.000000  1.055613  0.857682 )
               b(3) = (  0.000000  0.000000  1.715363 )

     PseudoPot. # 1 for K  read from file:
     /home/pragov/projects/rrg-bengioy-ad/pragov/crystal_structure_design/SSSP/K.pbe-spn-kjpaw_psl.1.0.0.UPF
     MD5 check sum: 7d58810084cac21f60fbe77ea2b688fd
     Pseudo is Projector augmented-wave + core cor, Zval =  9.0
     Generated using "atomic" code by A. Dal Corso  v.5.1
     Shape of augmentation charge: PSQ
     Using radial grid of 1165 points,  6 beta functions with:
                l(1) =   0
                l(2) =   0
                l(3) =   1
                l(4) =   1
                l(5) =   2
                l(6) =   2
     Q(r) pseudized with 0 coefficients

     PseudoPot. # 2 for Tl read from file:
     /home/pragov/projects/rrg-bengioy-ad/pragov/crystal_structure_design/SSSP/Tl_pbe_v1.2.uspp.F.UPF
     MD5 check sum: b76cf1f7e72655a2b2c53cf6385d7059
     Pseudo is Ultrasoft + core correction, Zval = 13.0
     Generated by new atomic code, or converted to UPF format
     Using radial grid of  899 points,  6 beta functions with:
                l(1) =   0
                l(2) =   0
                l(3) =   1
                l(4) =   1
                l(5) =   2
                l(6) =   2
     Q(r) pseudized with  6 coefficients,  rinner =    1.100   1.100   1.100
                                                       1.100   1.100

     atomic species   valence    mass     pseudopotential
        K              9.00    39.09830     K ( 1.00)
        Tl            13.00   204.38000     Tl( 1.00)

      4 Sym. Ops., with inversion, found

                                    s                        frac. trans.

      isym =  1     identity

 cryst.   s( 1) = (     1          0          0      )
                  (     0          1          0      )
                  (     0          0          1      )

 cart.    s( 1) = (  1.0000000 -0.0000000  0.0000000 )
                  (  0.0000000  1.0000000 -0.0000000 )
                  (  0.0000000  0.0000000  1.0000000 )

      isym =  2     180 deg rotation - cart. axis [0,0,1]

[...]

      isym =  3     inversion

[...]

      isym =  4     inv. 180 deg rotation - cart. axis [0,0,1]

 cryst.   s( 4) = (     1          0          0      )
                  (     0          1          0      )
                  (    -1         -1         -1      )

 cart.    s( 4) = (  1.0000000 -0.0000000 -0.0000000 )
                  (  0.0000000  1.0000000 -0.0000000 )
                  (  0.0000000  0.0000000 -1.0000000 )

   Cartesian axes

     site n.     atom                  positions (alat units)
         1           K   tau(   1) = (   0.5000000   0.0000000   0.2914835  )
         2           K   tau(   2) = (   0.1601495   0.4736582   0.2914835  )
         3           K   tau(   3) = (   0.6601495   0.4736582   0.0000000  )
         4           Tl  tau(   4) = (   0.0000000   0.0000000   0.0000000  )

   Crystallographic axes

     site n.     atom                  positions (cryst. coord.)
         1           K   tau(   1) = (  0.7500000  0.2500000  0.5000000  )
         2           K   tau(   2) = (  0.2500000  0.7500000  0.5000000  )
         3           K   tau(   3) = (  0.5000000  0.5000000  0.0000000  )
         4           Tl  tau(   4) = (  0.0000000  0.0000000  0.0000000  )

     number of k points=     1  Methfessel-Paxton smearing, width (Ry)=  0.0010
                       cart. coord. in units 2pi/alat
        k(    1) = (   0.0000000   0.0000000   0.0000000), wk =   2.0000000

                       cryst. coord.
        k(    1) = (   0.0000000   0.0000000   0.0000000), wk =   2.0000000

     Check: negative core charge=   -0.000005

     Initial potential from superposition of free atoms

     starting charge      39.9386, renormalised to      40.0000

     negative rho (up, down):  5.071E-02 0.000E+00
     Starting wfcs are   33 randomized atomic wfcs
     Checking if some PAW data can be deallocated...

     Self-consistent Calculation

     iteration #  1     ecut=    30.00 Ry     beta= 0.70
     Davidson diagonalization with overlap

     ethr =  1.00E-02,  avg # of iterations =  5.0

     Threshold (ethr) on eigenvalues was too large:
     Diagonalizing with lowered threshold

     Davidson diagonalization with overlap

[...]

     negative rho (up, down):  4.964E-02 0.000E+00

     total energy              =    -483.88086982 Ry
     estimated scf accuracy    <       0.13442812 Ry

[...]

     ethr =  1.02E-04,  avg # of iterations =  1.0
     Minimization algorithm failed to find Fermi energy: reverting to bisection
     Possible cause: smearing is larger than the electronic band-gap.

[...]

     total energy              =    -483.90893021 Ry
     estimated scf accuracy    <       0.00084503 Ry

     iteration # 53     ecut=    30.00 Ry     beta= 0.70
     Davidson diagonalization with overlap

     ethr =  5.41E-07,  avg # of iterations =  1.0

[...]

     End of self-consistent calculation

          k = 0.0000 0.0000 0.0000 (  1898 PWs)   bands (ev):

   -28.3807 -27.7660 -27.6766 -12.0216 -11.9549 -11.8532 -11.3470 -11.2869
   -11.2693 -11.2410 -11.2071 -11.1346  -7.7452  -7.7309  -7.5194  -7.5183
    -7.4487  -2.4647   3.2848   4.2184   4.2256   4.2259   5.7286   5.8733

     occupation numbers
     1.0000   1.0000   1.0000   1.0000   1.0000   1.0000   1.0000   1.0000
     1.0000   1.0000   1.0000   1.0000   1.0000   1.0000   1.0000   1.0000
     1.0000   1.0000   1.0000   0.6160   0.1989   0.1851  -0.0000  -0.0000

     the Fermi energy is     4.2203 ev

!    total energy              =    -483.90893978 Ry
     estimated scf accuracy    <       0.00000098 Ry
     smearing contrib. (-TS)   =      -0.00059661 Ry
     internal energy E=F+TS    =    -483.90834316 Ry

     The total energy is F=E-TS. E is the sum of the following terms:
     one-electron contribution =    -136.51227077 Ry
     hartree contribution      =      82.03714121 Ry
     xc contribution           =     -95.71286674 Ry
     ewald contribution        =    -167.48309124 Ry
     one-center paw contrib.   =    -166.23725562 Ry
      -> PAW hartree energy AE =     112.82043448 Ry
      -> PAW hartree energy PS =    -112.19838765 Ry
      -> PAW xc energy AE      =    -198.56007164 Ry
      -> PAW xc energy PS      =      31.70076919 Ry
      -> total E_H with PAW    =      82.65918804 Ry
      -> total E_XC with PAW   =    -262.57216919 Ry

     convergence has been achieved in  53 iterations

     negative rho (up, down):  4.965E-02 0.000E+00

     Forces acting on atoms (cartesian axes, Ry/au):

     atom    1 type  1   force =     0.00000000    0.00000000   -0.00005025
     atom    2 type  1   force =     0.00000000    0.00000000    0.00005025
     atom    3 type  1   force =     0.00000000    0.00000000    0.00000000
     atom    4 type  2   force =     0.00000000    0.00000000    0.00000000
     The non-local contrib.  to forces
     atom    1 type  1   force =     0.00000000    0.00000000   -0.00012596
     atom    2 type  1   force =     0.00000000    0.00000000    0.00012596
     atom    3 type  1   force =     0.00000000    0.00000000    0.00000000
     atom    4 type  2   force =     0.00000000    0.00000000    0.00000000
     The ionic contribution  to forces
     atom    1 type  1   force =    -0.00000000   -0.00000000   -0.00000000
     atom    2 type  1   force =     0.00000000    0.00000000   -0.00000000
     atom    3 type  1   force =     0.00000000   -0.00000000    0.00000000
     atom    4 type  2   force =    -0.00000000    0.00000000    0.00000000
     The local contribution  to forces
     atom    1 type  1   force =     0.00050305   -0.00022238   -0.00081471
     atom    2 type  1   force =    -0.00053911    0.00023210    0.00084154
     atom    3 type  1   force =     0.00001639   -0.00003155   -0.00002484
     atom    4 type  2   force =     0.00003125    0.00006196    0.00000884
     The core correction contribution to forces
     atom    1 type  1   force =     0.00001245   -0.00000488    0.00002149
     atom    2 type  1   force =    -0.00001280    0.00000507   -0.00002121
     atom    3 type  1   force =     0.00000060    0.00000003   -0.00000032
     atom    4 type  2   force =     0.00000020    0.00000105    0.00000044
     The Hubbard contrib.    to forces
     atom    1 type  1   force =     0.00000000    0.00000000    0.00000000
     atom    2 type  1   force =     0.00000000    0.00000000    0.00000000
     atom    3 type  1   force =     0.00000000    0.00000000    0.00000000
     atom    4 type  2   force =     0.00000000    0.00000000    0.00000000
     The SCF correction term to forces
     atom    1 type  1   force =    -0.00039894    0.00021466    0.00087055
     atom    2 type  1   force =     0.00043898   -0.00022018   -0.00089442
     atom    3 type  1   force =    -0.00000482    0.00004301    0.00002543
     atom    4 type  2   force =    -0.00003009   -0.00007126   -0.00001019

     Total force =     0.000071     Total SCF correction =     0.001419
     SCF correction compared to forces is large: reduce conv_thr to get better values

     Computing stress (Cartesian axis) and pressure

     negative rho (up, down):  4.965E-02 0.000E+00
          total   stress  (Ry/bohr**3)                   (kbar)     P=       42.10
   0.00021406   0.00010235  -0.00000000           31.49       15.06       -0.00
   0.00010235   0.00033415  -0.00000000           15.06       49.16       -0.00
  -0.00000000  -0.00000000   0.00031042           -0.00       -0.00       45.66

     kinetic stress (kbar)   5786.39     23.69     -0.00
                               23.69   5784.07     -0.00
                               -0.00     -0.00   5772.11

     local   stress (kbar)  -3820.30    -53.81     -1.41
                              -53.81  -3771.77     -1.30
                               -1.41     -1.30  -3737.84

     nonloc. stress (kbar)   3050.20     24.09     -0.00
                               24.09   3037.50     -0.00
                               -0.00     -0.00   3024.44

     hartree stress (kbar)   2953.37     34.00      0.42
                               34.00   2928.71     -0.28
                                0.42     -0.28   2907.17

     exc-cor stress (kbar)   4103.75      1.03      0.00
                                1.03   4103.08     -0.03
                                0.00     -0.03   4102.41

     corecor stress (kbar)  -6051.71     -0.95     -0.00
                               -0.95  -6051.02     -0.07
                               -0.00     -0.07  -6050.53

     ewald   stress (kbar)  -5990.21    -13.00     -0.00
                              -13.00  -5981.41     -0.00
                               -0.00     -0.00  -5972.09

     hubbard stress (kbar)      0.00      0.00      0.00
                                0.00      0.00      0.00
                                0.00      0.00      0.00

     DFT-D   stress (kbar)      0.00      0.00      0.00
                                0.00      0.00      0.00
                                0.00      0.00      0.00

     XDM     stress (kbar)      0.00      0.00      0.00
                                0.00      0.00      0.00
                                0.00      0.00      0.00

     dft-nl  stress (kbar)      0.00      0.00      0.00
                                0.00      0.00      0.00
                                0.00      0.00      0.00

     TS-vdW  stress (kbar)      0.00      0.00      0.00
                                0.00      0.00      0.00
                                0.00      0.00      0.00

[...]

                                0.00      0.00      0.00

     Writing all to output data dir new_calculations/myprefix.save/

     General routines

     Parallel routines

     PAW routines

   This run was terminated on:  17:50:50  20May2023

   JOB DONE.