     Program PWSCF v.7.0 starts on 20May2023 at 16:53:41

     Reading input from espresso_13544.pwi
Warning: card &CELL ignored
Warning: card / ignored

     Current dimensions of program PWSCF are:
     Max number of different atomic species (ntypx) = 10
     Max number of k-points (npk) =  40000
     Max angular momentum in pseudopotentials (lmaxx) =  4
     file Cd.pbe-dn-rrkjus_psl.0.3.1.UPF: wavefunction(s)  4D renormalized
     file O.pbe-n-kjpaw_psl.0.1.UPF: wavefunction(s)  2P renormalized

     gamma-point specific algorithms are used
     Message from routine setup:
     using ibrav=0 with symmetry is DISCOURAGED, use correct ibrav instead

     Subspace diagonalization in iterative solution of the eigenvalue problem:
     a serial algorithm will be used

     Using Slab Decomposition

     bravais-lattice index     =            0
     lattice parameter (alat)  =      10.9803  a.u.
     unit-cell volume          =    1080.1927 (a.u.)^3
     number of atoms/cell      =           12
     number of atomic types    =            3
     number of electrons       =        96.00
     number of Kohn-Sham states=           58
     kinetic-energy cutoff     =      30.0000  Ry
     charge density cutoff     =     240.0000  Ry
     scf convergence threshold =      1.0E-06
     mixing beta               =       0.7000
     number of iterations used =            8  plain     mixing
     Exchange-correlation= SLA  PW   PBX  PBC
                           (   1   4   3   4   0   0   0)

     celldm(1)=  10.980323  celldm(2)=   0.000000  celldm(3)=   0.000000
     celldm(4)=   0.000000  celldm(5)=   0.000000  celldm(6)=   0.000000

     crystal axes: (cart. coord. in units of alat)
               a(1) = (   1.000000   0.000000   0.000000 )
               a(2) = (  -0.498237   0.867041   0.000000 )
               a(3) = (   0.169029   0.292081   0.941058 )

     reciprocal axes: (cart. coord. in units 2 pi/alat)
               b(1) = (  1.000000  0.574641 -0.357971 )
               b(2) = (  0.000000  1.153348 -0.357971 )
               b(3) = (  0.000000  0.000000  1.062634 )

     PseudoPot. # 1 for Na read from file:
     /home/pragov/projects/rrg-bengioy-ad/pragov/crystal_structure_design/SSSP/na_pbe_v1.5.uspp.F.UPF
     MD5 check sum: 44600605ef58000f06b90626533354dc
     Pseudo is Ultrasoft, Zval =  9.0
     Generated by new atomic code, or converted to UPF format
     Using radial grid of  819 points,  5 beta functions with:
                l(1) =   0
                l(2) =   0
                l(3) =   1
                l(4) =   1
                l(5) =   2
     Q(r) pseudized with  8 coefficients,  rinner =    1.250   1.250   1.250
                                                       1.250   1.250

     PseudoPot. # 2 for Cd read from file:
     /home/pragov/projects/rrg-bengioy-ad/pragov/crystal_structure_design/SSSP/Cd.pbe-dn-rrkjus_psl.0.3.1.UPF
     MD5 check sum: 558e9f355611b531a870a69ef6ace9e2
     Pseudo is Ultrasoft + core correction, Zval = 12.0
     Generated using "atomic" code by A. Dal Corso  v.5.0.99 svn rev. 10869
     Using radial grid of 1239 points,  6 beta functions with:
                l(1) =   0
                l(2) =   0
                l(3) =   1
                l(4) =   1
                l(5) =   2
                l(6) =   2
     Q(r) pseudized with 0 coefficients

     PseudoPot. # 3 for O  read from file:
     /home/pragov/projects/rrg-bengioy-ad/pragov/crystal_structure_design/SSSP/O.pbe-n-kjpaw_psl.0.1.UPF
     MD5 check sum: 0234752ac141de4415c5fc33072bef88
     Pseudo is Projector augmented-wave + core cor, Zval =  6.0
     Generated using "atomic" code by A. Dal Corso  v.5.0.99 svn rev. 10869
     Shape of augmentation charge: BESSEL
     Using radial grid of 1095 points,  4 beta functions with:
                l(1) =   0
                l(2) =   0
                l(3) =   1
                l(4) =   1
     Q(r) pseudized with 0 coefficients

     atomic species   valence    mass     pseudopotential
        Na             9.00    22.98977     Na( 1.00)
        Cd            12.00   112.41400     Cd( 1.00)
        O              6.00    15.99900     O ( 1.00)

      2 Sym. Ops., with inversion, found

                                    s                        frac. trans.

      isym =  1     identity

 cryst.   s( 1) = (     1          0          0      )
                  (     0          1          0      )
                  (     0          0          1      )

 cart.    s( 1) = (  1.0000000 -0.0000000 -0.0000000 )
                  (  0.0000000  1.0000000  0.0000000 )
                  (  0.0000000  0.0000000  1.0000000 )

      isym =  2     inversion

 cryst.   s( 2) = (    -1          0          0      )
                  (     0         -1          0      )
                  (     0          0         -1      )

 cart.    s( 2) = ( -1.0000000  0.0000000  0.0000000 )
                  (  0.0000000 -1.0000000 -0.0000000 )
                  (  0.0000000  0.0000000 -1.0000000 )

   Cartesian axes

     site n.     atom                  positions (alat units)
         1           Na  tau(   1) = (   0.2508815   0.4335205   0.0000000  )
         2           Na  tau(   2) = (   0.7576032   0.1402768   0.0000000  )
         3           Na  tau(   3) = (  -0.2558402   0.7267641   0.0000000  )
         4           Na  tau(   4) = (   0.0845147   0.1460405   0.4705289  )
         5           Cd  tau(   5) = (   0.5843133   0.4355107   0.4705289  )
         6           Cd  tau(   6) = (   0.0864792   0.7236111   0.4705289  )
         7           O   tau(   7) = (   0.2295426   1.0132452   0.6838507  )
         8           O   tau(   8) = (   0.4412499   0.1458767   0.2572071  )
         9           O   tau(   9) = (   0.4078933   0.7048349   0.2533337  )
        10           O   tau(  10) = (   0.7641585   0.7038590   0.6838507  )
        11           O   tau(  11) = (  -0.0933660   0.4552629   0.2572071  )
        12           O   tau(  12) = (   0.2628993   0.4542869   0.6877241  )

   Crystallographic axes

     site n.     atom                  positions (cryst. coord.)
         1           Na  tau(   1) = (  0.5000000  0.5000000  0.0000000  )
         2           Na  tau(   2) = (  0.8382120  0.1617880  0.0000000  )
         3           Na  tau(   3) = (  0.1617880  0.8382120  0.0000000  )
         4           Na  tau(   4) = (  0.0000000  0.0000000  0.5000000  )
         5           Cd  tau(   5) = (  0.6661400  0.3338600  0.5000000  )
         6           Cd  tau(   6) = (  0.3338600  0.6661400  0.5000000  )
         7           O   tau(   7) = (  0.5669960  0.9238260  0.7266830  )
         8           O   tau(   8) = (  0.4330040  0.0761740  0.2733170  )
         9           O   tau(   9) = (  0.7222340  0.7222340  0.2692010  )
        10           O   tau(  10) = (  0.9238260  0.5669960  0.7266830  )
        11           O   tau(  11) = (  0.0761740  0.4330040  0.2733170  )
        12           O   tau(  12) = (  0.2777660  0.2777660  0.7307990  )

     number of k points=     1  Methfessel-Paxton smearing, width (Ry)=  0.0010
                       cart. coord. in units 2pi/alat
        k(    1) = (   0.0000000   0.0000000   0.0000000), wk =   2.0000000

                       cryst. coord.
        k(    1) = (   0.0000000   0.0000000   0.0000000), wk =   2.0000000

     Check: negative core charge=   -0.000010

     Initial potential from superposition of free atoms

     starting charge      95.9651, renormalised to      96.0000
     Starting wfcs are   62 randomized atomic wfcs
     Checking if some PAW data can be deallocated...

     Self-consistent Calculation

     iteration #  1     ecut=    30.00 Ry     beta= 0.70
     Davidson diagonalization with overlap

     ethr =  1.00E-02,  avg # of iterations =  4.0

     total energy              =    -874.55403720 Ry
     estimated scf accuracy    <       1.45361252 Ry

[...]

     total energy              =    -875.26647468 Ry
     estimated scf accuracy    <       0.00000259 Ry

     iteration # 34     ecut=    30.00 Ry     beta= 0.70
     Davidson diagonalization with overlap

     ethr =  1.53E-09,  avg # of iterations =  1.0

     End of self-consistent calculation

          k = 0.0000 0.0000 0.0000 (  1517 PWs)   bands (ev):

   -44.6558 -44.6505 -44.5873 -44.1262 -16.6192 -16.6160 -16.6138 -16.5885
   -16.5818 -16.5620 -16.5291 -16.5149 -16.4873 -16.0880 -16.0610 -16.0567
   -11.9433 -11.3230 -11.3043 -11.2864 -11.2741 -11.2226  -2.3943  -2.3573
    -2.2618  -2.1344  -2.1332  -2.0778  -2.0715  -1.8959  -1.8939  -1.8776
     1.0483   1.4822   2.1775   2.3373   2.5452   2.8544   3.0089   3.2239
     3.4628   3.9601   4.1001   4.1122   4.1212   4.3443   4.5176   4.5780
     4.6204   4.6458   7.8080  11.9672  12.5111  13.5146  14.0886  14.2325
    14.3094  14.8252

     occupation numbers
     1.0000   1.0000   1.0000   1.0000   1.0000   1.0000   1.0000   1.0000
     1.0000   1.0000   1.0000   1.0000   1.0000   1.0000   1.0000   1.0000
     1.0000   1.0000   1.0000   1.0000   1.0000   1.0000   1.0000   1.0000
     1.0000   1.0000   1.0000   1.0000   1.0000   1.0000   1.0000   1.0000
     1.0000   1.0000   1.0000   1.0000   1.0000   1.0000   1.0000   1.0000
     1.0000   1.0000   1.0000   1.0000   1.0000   1.0000   1.0000   1.0250
    -0.0250  -0.0000  -0.0000  -0.0000  -0.0000  -0.0000  -0.0000  -0.0000
    -0.0000  -0.0000

     the Fermi energy is     4.5992 ev

!    total energy              =    -875.26647472 Ry
     estimated scf accuracy    <       0.00000005 Ry
     smearing contrib. (-TS)   =       0.00019206 Ry
     internal energy E=F+TS    =    -875.26666677 Ry

     The total energy is F=E-TS. E is the sum of the following terms:
     one-electron contribution =    -373.70963275 Ry
     hartree contribution      =     245.23870330 Ry
     xc contribution           =    -187.55326337 Ry
     ewald contribution        =    -502.05668305 Ry
     one-center paw contrib.   =     -57.18579091 Ry
      -> PAW hartree energy AE =     166.10555789 Ry
      -> PAW hartree energy PS =    -165.52437741 Ry
      -> PAW xc energy AE      =    -101.24496253 Ry
      -> PAW xc energy PS      =      43.47799114 Ry
      -> total E_H with PAW    =     245.81988378 Ry
      -> total E_XC with PAW   =    -245.32023475 Ry

     convergence has been achieved in  34 iterations

     Forces acting on atoms (cartesian axes, Ry/au):

     atom    1 type  1   force =     0.00000000    0.00000000    0.00000000
     atom    2 type  1   force =     0.00027646   -0.00017264    0.00000290
     atom    3 type  1   force =    -0.00027646    0.00017264   -0.00000290
     atom    4 type  1   force =     0.00000000    0.00000000    0.00000000
     atom    5 type  2   force =     0.00365946   -0.00218595    0.00001850
     atom    6 type  2   force =    -0.00365946    0.00218595   -0.00001850
     atom    7 type  3   force =    -0.00805393   -0.00633874   -0.01270457
     atom    8 type  3   force =     0.00805393    0.00633874    0.01270457
     atom    9 type  3   force =    -0.00547951   -0.00945876    0.01491600
     atom   10 type  3   force =    -0.00148124   -0.01013679   -0.01270316
     atom   11 type  3   force =     0.00148124    0.01013679    0.01270316
     atom   12 type  3   force =     0.00547951    0.00945876   -0.01491600
     The non-local contrib.  to forces
     atom    1 type  1   force =     0.00000000    0.00000000    0.00000000
     atom    2 type  1   force =     0.18110832   -0.10481462   -0.00000527
     atom    3 type  1   force =    -0.18110832    0.10481462    0.00000527
     atom    4 type  1   force =     0.00000000    0.00000000    0.00000000
     atom    5 type  2   force =    -0.00083376    0.00043910    0.00001442
     atom    6 type  2   force =     0.00083376   -0.00043910   -0.00001442
     atom    7 type  3   force =    -0.32522925    0.01300989   -0.31986148
     atom    8 type  3   force =     0.32522925   -0.01300989    0.31986148
     atom    9 type  3   force =    -0.16131319   -0.27874333    0.28784762
     atom   10 type  3   force =     0.17333527   -0.27550154   -0.31987769
     atom   11 type  3   force =    -0.17333527    0.27550154    0.31987769
     atom   12 type  3   force =     0.16131319    0.27874333   -0.28784762
     The ionic contribution  to forces
     atom    1 type  1   force =     0.00000000   -0.00000000   -0.00000000
     atom    2 type  1   force =     1.10431727   -0.63907669    0.00000000
     atom    3 type  1   force =    -1.10431727    0.63907669   -0.00000000
     atom    4 type  1   force =     0.00000000   -0.00000000    0.00000000
     atom    5 type  2   force =    -0.05005426    0.02896677    0.00000000
     atom    6 type  2   force =     0.05005426   -0.02896677    0.00000000
     atom    7 type  3   force =     2.04833276    0.01085833    3.46572318
     atom    8 type  3   force =    -2.04833276   -0.01085833   -3.46572318
     atom    9 type  3   force =     0.98964989    1.71010379   -3.35614519
     atom   10 type  3   force =    -1.01114036    1.78139837    3.46572318
     atom   11 type  3   force =     1.01114036   -1.78139837   -3.46572318
     atom   12 type  3   force =    -0.98964989   -1.71010379    3.35614519
     The local contribution  to forces
     atom    1 type  1   force =     0.00004346   -0.00009420    0.00015966
     atom    2 type  1   force =    -1.28514511    0.74380018    0.00013625
     atom    3 type  1   force =     1.28510539   -0.74371813    0.00014463
     atom    4 type  1   force =     0.00010138    0.00001732   -0.00013987
     atom    5 type  2   force =     0.05406167   -0.03116952   -0.00025113
     atom    6 type  2   force =    -0.05422639    0.03115634   -0.00020466
     atom    7 type  3   force =    -1.73499617   -0.03001177   -3.16216472
     atom    8 type  3   force =     1.73497741    0.03003694    3.16213721
     atom    9 type  3   force =    -0.83568953   -1.44414388    3.08649762
     atom   10 type  3   force =     0.83838324   -1.51929568   -3.16220796
     atom   11 type  3   force =    -0.83841335    1.51926807    3.16212112
     atom   12 type  3   force =     0.83572910    1.44415709   -3.08654266
     The core correction contribution to forces
     atom    1 type  1   force =     0.00000000    0.00000000    0.00000000
     atom    2 type  1   force =     0.00000000    0.00000000    0.00000000
     atom    3 type  1   force =     0.00000000    0.00000000    0.00000000
     atom    4 type  1   force =     0.00000000    0.00000000    0.00000000
     atom    5 type  2   force =     0.00051169   -0.00029254   -0.00000043
     atom    6 type  2   force =    -0.00051220    0.00029180    0.00000138
     atom    7 type  3   force =     0.00384432   -0.00018081    0.00358411
     atom    8 type  3   force =    -0.00384385    0.00018060   -0.00358370
     atom    9 type  3   force =     0.00191715    0.00331281   -0.00330366
     atom   10 type  3   force =    -0.00207243    0.00324257    0.00358366
     atom   11 type  3   force =     0.00207188   -0.00324322   -0.00358449
     atom   12 type  3   force =    -0.00191700   -0.00331228    0.00330309
     The Hubbard contrib.    to forces
     atom    1 type  1   force =     0.00000000    0.00000000    0.00000000
     atom    2 type  1   force =     0.00000000    0.00000000    0.00000000
     atom    3 type  1   force =     0.00000000    0.00000000    0.00000000
     atom    4 type  1   force =     0.00000000    0.00000000    0.00000000
     atom    5 type  2   force =     0.00000000    0.00000000    0.00000000
     atom    6 type  2   force =     0.00000000    0.00000000    0.00000000
     atom    7 type  3   force =     0.00000000    0.00000000    0.00000000
     atom    8 type  3   force =     0.00000000    0.00000000    0.00000000
     atom    9 type  3   force =     0.00000000    0.00000000    0.00000000
     atom   10 type  3   force =     0.00000000    0.00000000    0.00000000
     atom   11 type  3   force =     0.00000000    0.00000000    0.00000000
     atom   12 type  3   force =     0.00000000    0.00000000    0.00000000
     The SCF correction term to forces
     atom    1 type  1   force =    -0.00004068    0.00008763   -0.00015722
     atom    2 type  1   force =    -0.00000255   -0.00007711   -0.00012446
     atom    3 type  1   force =     0.00004520    0.00000385   -0.00014917
     atom    4 type  1   force =    -0.00009539   -0.00000983    0.00013809
     atom    5 type  2   force =    -0.00003353   -0.00013329    0.00024580
     atom    6 type  2   force =     0.00018345    0.00014016    0.00018937
     atom    7 type  3   force =     0.00000268   -0.00001580    0.00001942
     atom    8 type  3   force =     0.00003216   -0.00001200    0.00001784
     atom    9 type  3   force =    -0.00003792    0.00002920    0.00000185
     atom   10 type  3   force =     0.00000292   -0.00000063    0.00004870
     atom   11 type  3   force =     0.00000749   -0.00001132   -0.00001492
     atom   12 type  3   force =     0.00001002   -0.00000825    0.00000825

     Total force =     0.042262     Total SCF correction =     0.000533

     Computing stress (Cartesian axis) and pressure

          total   stress  (Ry/bohr**3)                   (kbar)     P=     -377.88
  -0.00260324  -0.00001445   0.00000575         -382.95       -2.12        0.85
  -0.00001445  -0.00261964   0.00000983           -2.12     -385.36        1.45
   0.00000575   0.00000983  -0.00248338            0.85        1.45     -365.32

     kinetic stress (kbar)  22441.35    -20.65     -3.32
                              -20.65  22417.68     -5.76
                               -3.32     -5.76  23043.55

     local   stress (kbar)  16181.67     89.99     89.57
                               89.99  16285.08    154.79
                               89.57    154.79  18295.69

     nonloc. stress (kbar) -22084.97      2.04      1.51
                                2.04 -22082.62      2.60
                                1.51      2.60 -22127.23

     hartree stress (kbar)  11474.59    -34.14    -34.91
                              -34.14  11435.34    -60.32
                              -34.91    -60.32  10487.68

     exc-cor stress (kbar)   1174.46     -0.20      0.03
                               -0.20   1174.23      0.05
                                0.03      0.05   1176.34

     corecor stress (kbar)  -7347.45      0.00      0.21
                                0.00  -7347.45      0.36
                                0.21      0.36  -7359.44

     ewald   stress (kbar) -22222.61    -39.16    -52.24
                              -39.16 -22267.61    -90.27
                              -52.24    -90.27 -23881.92

     hubbard stress (kbar)      0.00      0.00      0.00
                                0.00      0.00      0.00
                                0.00      0.00      0.00

     DFT-D   stress (kbar)      0.00      0.00      0.00
                                0.00      0.00      0.00
                                0.00      0.00      0.00

     XDM     stress (kbar)      0.00      0.00      0.00
                                0.00      0.00      0.00
                                0.00      0.00      0.00

     dft-nl  stress (kbar)      0.00      0.00      0.00
                                0.00      0.00      0.00
                                0.00      0.00      0.00

     TS-vdW  stress (kbar)      0.00      0.00      0.00
                                0.00      0.00      0.00
                                0.00      0.00      0.00

[...]

                                0.00      0.00      0.00

     Writing all to output data dir new_calculations/myprefix.save/

     General routines

     Parallel routines

     PAW routines

   This run was terminated on:  16:54: 5  20May2023

   JOB DONE.