     Program PWSCF v.7.0 starts on 21May2023 at  2:15:38

     Reading input from espresso_14961.pwi
Warning: card &CELL ignored
Warning: card / ignored

     Current dimensions of program PWSCF are:
     Max number of different atomic species (ntypx) = 10
     Max number of k-points (npk) =  40000
     Max angular momentum in pseudopotentials (lmaxx) =  4
     file C.pbe-n-kjpaw_psl.1.0.0.UPF: wavefunction(s)  2S 2P renormalized

     gamma-point specific algorithms are used
     Message from routine setup:
     using ibrav=0 with symmetry is DISCOURAGED, use correct ibrav instead

     Subspace diagonalization in iterative solution of the eigenvalue problem:
     a serial algorithm will be used

     Using Slab Decomposition

     bravais-lattice index     =            0
     lattice parameter (alat)  =      11.4223  a.u.
     unit-cell volume          =     911.8432 (a.u.)^3
     number of atoms/cell      =            7
     number of atomic types    =            4
     number of electrons       =        64.00
     number of Kohn-Sham states=           38
     kinetic-energy cutoff     =      30.0000  Ry
     charge density cutoff     =     240.0000  Ry
     scf convergence threshold =      1.0E-06
     mixing beta               =       0.7000
     number of iterations used =            8  plain     mixing
     Exchange-correlation= SLA  PW   PBX  PBC
                           (   1   4   3   4   0   0   0)

     celldm(1)=  11.422261  celldm(2)=   0.000000  celldm(3)=   0.000000
     celldm(4)=   0.000000  celldm(5)=   0.000000  celldm(6)=   0.000000

     crystal axes: (cart. coord. in units of alat)
               a(1) = (   1.000000   0.000000   0.000000 )
               a(2) = (   0.765728   0.643164   0.000000 )
               a(3) = (   0.705551   0.256996   0.951354 )

     reciprocal axes: (cart. coord. in units 2 pi/alat)
               b(1) = (  1.000000 -1.190564 -0.420013 )
               b(2) = (  0.000000  1.554813 -0.420013 )
               b(3) = (  0.000000  0.000000  1.051134 )

     PseudoPot. # 1 for La read from file:
     /home/pragov/projects/rrg-bengioy-ad/pragov/crystal_structure_design/SSSP/La.GGA-PBE-paw-v1.0.UPF
     MD5 check sum: 436541e95c1ad8901025bd0b0ed42ae2
     Pseudo is Projector augmented-wave + core cor, Zval = 11.0
     Generated using ATOMPAW code
     Shape of augmentation charge: BESSEL
     Using radial grid of 1101 points,  8 beta functions with:
                l(1) =   0
                l(2) =   0
                l(3) =   1
                l(4) =   1
                l(5) =   2
                l(6) =   2
                l(7) =   3
                l(8) =   3
     Q(r) pseudized with 0 coefficients

     PseudoPot. # 2 for Re read from file:
     /home/pragov/projects/rrg-bengioy-ad/pragov/crystal_structure_design/SSSP/Re_pbe_v1.2.uspp.F.UPF
     MD5 check sum: 85f993410f3e006da9d71c142b4ad953
     Pseudo is Ultrasoft + core correction, Zval = 15.0
     Generated by new atomic code, or converted to UPF format
     Using radial grid of  981 points,  8 beta functions with:
                l(1) =   0
                l(2) =   0
                l(3) =   1
                l(4) =   1
                l(5) =   2
                l(6) =   2
                l(7) =   3
                l(8) =   3
     Q(r) pseudized with  8 coefficients,  rinner =    1.150   1.150   1.150
                                                       1.150   1.150   1.150
                                                       1.150

     PseudoPot. # 3 for Si read from file:
     /home/pragov/projects/rrg-bengioy-ad/pragov/crystal_structure_design/SSSP/Si.pbe-n-rrkjus_psl.1.0.0.UPF
     MD5 check sum: 0b0bb1205258b0d07b9f9672cf965d36
     Pseudo is Ultrasoft + core correction, Zval =  4.0
     Generated using "atomic" code by A. Dal Corso  v.5.1
     Using radial grid of 1141 points,  6 beta functions with:
                l(1) =   0
                l(2) =   0
                l(3) =   1
                l(4) =   1
                l(5) =   2
                l(6) =   2
     Q(r) pseudized with 0 coefficients

     PseudoPot. # 4 for C  read from file:
     /home/pragov/projects/rrg-bengioy-ad/pragov/crystal_structure_design/SSSP/C.pbe-n-kjpaw_psl.1.0.0.UPF
     MD5 check sum: 5d2aebdfa2cae82b50a7e79e9516da0f
     Pseudo is Projector augmented-wave + core cor, Zval =  4.0
     Generated using "atomic" code by A. Dal Corso  v.5.1
     Shape of augmentation charge: PSQ
     Using radial grid of 1073 points,  4 beta functions with:
                l(1) =   0
                l(2) =   0
                l(3) =   1
                l(4) =   1
     Q(r) pseudized with 0 coefficients

     atomic species   valence    mass     pseudopotential
        La            11.00   138.90547     La( 1.00)
        Re            15.00   186.20700     Re( 1.00)
        Si             4.00    28.08500     Si( 1.00)
        C              4.00    12.01100     C ( 1.00)

      2 Sym. Ops., with inversion, found

                                    s                        frac. trans.

      isym =  1     identity

 cryst.   s( 1) = (     1          0          0      )
                  (     0          1          0      )
                  (     0          0          1      )

 cart.    s( 1) = (  1.0000000  0.0000000 -0.0000000 )
                  (  0.0000000  1.0000000  0.0000000 )
                  (  0.0000000  0.0000000  1.0000000 )

      isym =  2     inversion

 cryst.   s( 2) = (    -1          0          0      )
                  (     0         -1          0      )
                  (     0          0         -1      )

 cart.    s( 2) = ( -1.0000000 -0.0000000  0.0000000 )
                  (  0.0000000 -1.0000000 -0.0000000 )
                  (  0.0000000  0.0000000 -1.0000000 )

   Cartesian axes

     site n.     atom                  positions (alat units)
         1           La  tau(   1) = (   0.9743192   0.3548945   0.2884828  )
         2           La  tau(   2) = (   1.4969605   0.5452659   0.6628710  )
         3           Re  tau(   3) = (   1.4714623   0.5359782   0.0821446  )
         4           Re  tau(   4) = (   0.9998174   0.3641822   0.8692091  )
         5           Si  tau(   5) = (   1.9905140   0.7250421   0.6778167  )
         6           Si  tau(   6) = (   0.4807656   0.1751182   0.2735370  )
         7           C   tau(   7) = (   0.0000000   0.0000000   0.0000000  )

   Crystallographic axes

     site n.     atom                  positions (cryst. coord.)
         1           La  tau(   1) = (  0.4306280  0.4306280  0.3032340  )
         2           La  tau(   2) = (  0.5693720  0.5693720  0.6967660  )
         3           Re  tau(   3) = (  0.7988440  0.7988440  0.0863450  )
         4           Re  tau(   4) = (  0.2011560  0.2011560  0.9136550  )
         5           Si  tau(   5) = (  0.8426130  0.8426130  0.7124760  )
         6           Si  tau(   6) = (  0.1573870  0.1573870  0.2875240  )
         7           C   tau(   7) = (  0.0000000  0.0000000  0.0000000  )

     number of k points=     1  Methfessel-Paxton smearing, width (Ry)=  0.0010
                       cart. coord. in units 2pi/alat
        k(    1) = (   0.0000000   0.0000000   0.0000000), wk =   2.0000000

                       cryst. coord.
        k(    1) = (   0.0000000   0.0000000   0.0000000), wk =   2.0000000

     Check: negative core charge=   -0.000004

     Initial potential from superposition of free atoms

     starting charge      62.9817, renormalised to      64.0000

     negative rho (up, down):  2.624E-01 0.000E+00
     Starting wfcs are  102 randomized atomic wfcs
     Checking if some PAW data can be deallocated...

     Self-consistent Calculation

     iteration #  1     ecut=    30.00 Ry     beta= 0.70
     Davidson diagonalization with overlap

     ethr =  1.00E-02,  avg # of iterations =  2.0

     negative rho (up, down):  2.533E-01 0.000E+00

     total energy              =   -1338.73969485 Ry
     estimated scf accuracy    <       0.74461544 Ry

[...]

     total energy              =   -1339.20072311 Ry
     estimated scf accuracy    <       0.00000114 Ry

     iteration # 18     ecut=    30.00 Ry     beta= 0.70
     Davidson diagonalization with overlap

     ethr =  1.78E-09,  avg # of iterations =  6.0

[...]

     End of self-consistent calculation

          k = 0.0000 0.0000 0.0000 (  1254 PWs)   bands (ev):

   -65.7684 -65.7543 -27.8880 -27.8654 -27.7839 -27.7329 -27.3518 -27.3408
   -18.2753 -18.1634  -2.6095  -2.3109  -2.0467  -1.8051  -1.7893  -1.7880
     2.9717   5.0274   6.1443   9.0395   9.4548   9.8045   9.9527  10.6480
    10.7772  10.8442  11.4178  12.2975  12.3978  13.3072  13.4900  14.1519
    14.1539  14.5602  14.9613  15.6131  15.9428  16.0885

     occupation numbers
     1.0000   1.0000   1.0000   1.0000   1.0000   1.0000   1.0000   1.0000
     1.0000   1.0000   1.0000   1.0000   1.0000   1.0000   1.0000   1.0000
     1.0000   1.0000   1.0000   1.0000   1.0000   1.0000   1.0000   1.0000
     1.0000   1.0000   1.0000   1.0000   1.0000   1.0000   1.0000   0.5625
     0.4375  -0.0000  -0.0000  -0.0000  -0.0000  -0.0000

     the Fermi energy is    14.1529 ev

!    total energy              =   -1339.20072322 Ry
     estimated scf accuracy    <       0.00000006 Ry
     smearing contrib. (-TS)   =      -0.00055495 Ry
     internal energy E=F+TS    =   -1339.20016826 Ry

     The total energy is F=E-TS. E is the sum of the following terms:
     one-electron contribution =    -138.59692992 Ry
     hartree contribution      =     101.90585859 Ry
     xc contribution           =    -139.75484853 Ry
     ewald contribution        =    -360.39062532 Ry
     one-center paw contrib.   =    -802.36362308 Ry
      -> PAW hartree energy AE =      78.01575454 Ry
      -> PAW hartree energy PS =     -78.08133653 Ry
      -> PAW xc energy AE      =    -820.94968931 Ry
      -> PAW xc energy PS      =      18.65164822 Ry
      -> total E_H with PAW    =     101.84027660 Ry
      -> total E_XC with PAW   =    -942.05288962 Ry

     convergence has been achieved in  18 iterations

     negative rho (up, down):  2.528E-01 0.000E+00

     Forces acting on atoms (cartesian axes, Ry/au):

     atom    1 type  1   force =     0.00428815    0.00155248    0.01379589
     atom    2 type  1   force =    -0.00428815   -0.00155248   -0.01379589
     atom    3 type  2   force =     0.08296456    0.03021263    0.00360525
     atom    4 type  2   force =    -0.08296456   -0.03021263   -0.00360525
     atom    5 type  3   force =     0.00576632    0.00210705   -0.03226446
     atom    6 type  3   force =    -0.00576632   -0.00210705    0.03226446
     atom    7 type  4   force =     0.00000000    0.00000000    0.00000000
     The non-local contrib.  to forces
     atom    1 type  1   force =     0.08884131    0.03236235   -0.04572059
     atom    2 type  1   force =    -0.08884131   -0.03236235    0.04572059
     atom    3 type  2   force =    -0.07426714   -0.02706410    0.02532115
     atom    4 type  2   force =     0.07426714    0.02706410   -0.02532115
     atom    5 type  3   force =    -0.04464255   -0.01625796   -0.03604680
     atom    6 type  3   force =     0.04464255    0.01625796    0.03604680
     atom    7 type  4   force =     0.00000000    0.00000000    0.00000000
     The ionic contribution  to forces
     atom    1 type  1   force =    -0.61265860   -0.22316008    7.43834531
     atom    2 type  1   force =     0.61265860    0.22316008   -7.43834531
     atom    3 type  2   force =     1.15463570    0.42057452    7.43895958
     atom    4 type  2   force =    -1.15463570   -0.42057452   -7.43895958
     atom    5 type  3   force =     0.09682663    0.03526897   -5.93330267
     atom    6 type  3   force =    -0.09682663   -0.03526897    5.93330267
     atom    7 type  4   force =     0.00000000    0.00000000    0.00000000
     The local contribution  to forces
     atom    1 type  1   force =     0.52828810    0.19223383   -7.37860778
     atom    2 type  1   force =    -0.52801692   -0.19247767    7.37889321
     atom    3 type  2   force =    -1.01480805   -0.36960798   -7.42562907
     atom    4 type  2   force =     1.01468833    0.36964598    7.42511811
     atom    5 type  3   force =    -0.05160391   -0.01879424    5.93138938
     atom    6 type  3   force =     0.05144881    0.01873827   -5.93145080
     atom    7 type  4   force =     0.00015624    0.00003991   -0.00004852
     The core correction contribution to forces
     atom    1 type  1   force =     0.00004710    0.00001704   -0.00000761
     atom    2 type  1   force =    -0.00004700   -0.00001722    0.00000771
     atom    3 type  2   force =     0.01724726    0.00629224   -0.03518385
     atom    4 type  2   force =    -0.01724344   -0.00627012    0.03518028
     atom    5 type  3   force =     0.00512756    0.00186721    0.00563798
     atom    6 type  3   force =    -0.00512985   -0.00186904   -0.00564108
     atom    7 type  4   force =     0.00000039   -0.00000031   -0.00000004
     The Hubbard contrib.    to forces
     atom    1 type  1   force =     0.00000000    0.00000000    0.00000000
     atom    2 type  1   force =     0.00000000    0.00000000    0.00000000
     atom    3 type  2   force =     0.00000000    0.00000000    0.00000000
     atom    4 type  2   force =     0.00000000    0.00000000    0.00000000
     atom    5 type  3   force =     0.00000000    0.00000000    0.00000000
     atom    6 type  3   force =     0.00000000    0.00000000    0.00000000
     atom    7 type  4   force =     0.00000000    0.00000000    0.00000000
     The SCF correction term to forces
     atom    1 type  1   force =    -0.00017750    0.00001584   -0.00016119
     atom    2 type  1   force =     0.00001073    0.00006118   -0.00001984
     atom    3 type  2   force =     0.00013676    0.00003125    0.00020770
     atom    4 type  2   force =    -0.00006093   -0.00006477    0.00044736
     atom    5 type  3   force =     0.00004102    0.00000965    0.00003432
     atom    6 type  3   force =     0.00008123    0.00002130   -0.00001646
     atom    7 type  4   force =    -0.00012745   -0.00004628    0.00003665

     Total force =     0.134898     Total SCF correction =     0.000602

     Computing stress (Cartesian axis) and pressure

     negative rho (up, down):  2.528E-01 0.000E+00
          total   stress  (Ry/bohr**3)                   (kbar)     P=        2.69
   0.00022777   0.00015655  -0.00023312           33.51       23.03      -34.29
   0.00015655  -0.00014477  -0.00008500           23.03      -21.30      -12.50
  -0.00023312  -0.00008500  -0.00002814          -34.29      -12.50       -4.14

     kinetic stress (kbar)  16073.86    -41.39    -49.22
                              -41.39  16172.43    -17.93
                              -49.22    -17.93  16521.78

     local   stress (kbar)  -3130.34  -1129.10      5.53
                            -1129.10   -441.78      2.01
                                5.53      2.01  16211.15

     nonloc. stress (kbar)  -2063.02     31.64     19.08
                               31.64  -2138.37      6.94
                               19.08      6.94  -2189.87

     hartree stress (kbar)   8622.95    403.24     93.54
                              403.24   7662.77     34.07
                               93.54     34.07    154.47

     exc-cor stress (kbar)   8594.39      0.40     -1.53
                                0.40   8593.44     -0.56
                               -1.53     -0.56   8594.56

     corecor stress (kbar) -13028.08     -0.12     -2.17
                               -0.12 -13027.78     -0.79
                               -2.17     -0.79 -13033.67

     ewald   stress (kbar) -15036.25    758.36    -99.52
                              758.36 -16842.00    -36.25
                              -99.52    -36.25 -26262.55

     hubbard stress (kbar)      0.00      0.00      0.00
                                0.00      0.00      0.00
                                0.00      0.00      0.00

     DFT-D   stress (kbar)      0.00      0.00      0.00
                                0.00      0.00      0.00
                                0.00      0.00      0.00

     XDM     stress (kbar)      0.00      0.00      0.00
                                0.00      0.00      0.00
                                0.00      0.00      0.00

     dft-nl  stress (kbar)      0.00      0.00      0.00
                                0.00      0.00      0.00
                                0.00      0.00      0.00

     TS-vdW  stress (kbar)      0.00      0.00      0.00
                                0.00      0.00      0.00
                                0.00      0.00      0.00

[...]

                                0.00      0.00      0.00

     Writing all to output data dir new_calculations/myprefix.save/

     General routines

     Parallel routines

     PAW routines

   This run was terminated on:   2:16:13  21May2023

   JOB DONE.