     Program PWSCF v.7.0 starts on 20May2023 at  8:32:39

     Reading input from espresso_5263.pwi
Warning: card &CELL ignored
Warning: card / ignored

     Current dimensions of program PWSCF are:
     Max number of different atomic species (ntypx) = 10
     Max number of k-points (npk) =  40000
     Max angular momentum in pseudopotentials (lmaxx) =  4

     gamma-point specific algorithms are used
     Message from routine setup:
     using ibrav=0 with symmetry is DISCOURAGED, use correct ibrav instead

     Subspace diagonalization in iterative solution of the eigenvalue problem:
     a serial algorithm will be used

     Using Slab Decomposition

     bravais-lattice index     =            0
     lattice parameter (alat)  =       6.7250  a.u.
     unit-cell volume          =    2443.9324 (a.u.)^3
     number of atoms/cell      =            9
     number of atomic types    =            2
     number of electrons       =        78.00
     number of Kohn-Sham states=           47
     kinetic-energy cutoff     =      30.0000  Ry
     charge density cutoff     =     240.0000  Ry
     scf convergence threshold =      1.0E-06
     mixing beta               =       0.7000
     number of iterations used =            8  plain     mixing
     Exchange-correlation= PBE
                           (   1   4   3   4   0   0   0)

     celldm(1)=   6.724988  celldm(2)=   0.000000  celldm(3)=   0.000000
     celldm(4)=   0.000000  celldm(5)=   0.000000  celldm(6)=   0.000000

     crystal axes: (cart. coord. in units of alat)
               a(1) = (   1.000000   0.000000   0.000000 )
               a(2) = (  -0.500000   0.866025   0.000000 )
               a(3) = (   0.000000   0.000000   9.278632 )

     reciprocal axes: (cart. coord. in units 2 pi/alat)
               b(1) = (  1.000000  0.577351  0.000000 )
               b(2) = (  0.000000  1.154701  0.000000 )
               b(3) = (  0.000000  0.000000  0.107775 )

     PseudoPot. # 1 for Te read from file:
     /home/pragov/projects/rrg-bengioy-ad/pragov/crystal_structure_design/SSSP/Te_pbe_v1.uspp.F.UPF
     MD5 check sum: c319670d6894cc26e93307826a071b75
     Pseudo is Ultrasoft + core correction, Zval =  6.0
     Generated by new atomic code, or converted to UPF format
     Using radial grid of  891 points,  5 beta functions with:
                l(1) =   0
                l(2) =   0
                l(3) =   1
                l(4) =   1
                l(5) =   2
     Q(r) pseudized with  6 coefficients,  rinner =    1.800   1.800   1.800
                                                       1.800   1.800

     PseudoPot. # 2 for Mo read from file:
     /home/pragov/projects/rrg-bengioy-ad/pragov/crystal_structure_design/SSSP/Mo_ONCV_PBE-1.0.oncvpsp.upf
     MD5 check sum: 1b5d28e075c9ccadda658a603575cd1f
     Pseudo is Norm-conserving, Zval = 14.0
     Generated using ONCVPSP code by D. R. Hamann
     Using radial grid of 1526 points,  6 beta functions with:
                l(1) =   0
                l(2) =   0
                l(3) =   1
                l(4) =   1
                l(5) =   2
                l(6) =   2

     atomic species   valence    mass     pseudopotential
        Te             6.00   127.60000     Te( 1.00)
        Mo            14.00    95.95000     Mo( 1.00)

     12 Sym. Ops. (no inversion) found

                                    s                        frac. trans.

      isym =  1     identity

 cryst.   s( 1) = (     1          0          0      )
                  (     0          1          0      )
                  (     0          0          1      )

 cart.    s( 1) = (  1.0000000 -0.0000000  0.0000000 )
                  (  0.0000000  1.0000000  0.0000000 )
                  (  0.0000000  0.0000000  1.0000000 )

      isym =  2     180 deg rotation - cart. axis [0,1,0]

[...]

      isym =  3     120 deg rotation - cryst. axis [0,0,1]

[...]

      isym =  6     180 deg rotation - cryst. axis [2,1,0]

[...]

      isym =  7     inv. 180 deg rotation - cart. axis [0,0,1]

[...]

      isym =  8     inv. 180 deg rotation - cart. axis [1,0,0]

[...]

      isym =  9     inv.  60 deg rotation - cryst. axis [0,0,1]

 cryst.   s( 9) = (    -1         -1          0      )
                  (     1          0          0      )
                  (     0          0         -1      )

 cart.    s( 9) = ( -0.4999998  0.8660255  0.0000000 )
                  ( -0.8660253 -0.5000002  0.0000000 )
                  (  0.0000000  0.0000000 -1.0000000 )

[...]

 cryst.   s(10) = (     0          1          0      )
                  (    -1         -1          0      )
                  (     0          0         -1      )

 cart.    s(10) = ( -0.5000002 -0.8660255  0.0000000 )
                  (  0.8660253 -0.4999998  0.0000000 )
                  (  0.0000000  0.0000000 -1.0000000 )

[...]

      isym = 12     inv. 180 deg rotation - cryst. axis [1,1,0]

 cryst.   s(12) = (     0         -1          0      )
                  (    -1          0          0      )
                  (     0          0          1      )

 cart.    s(12) = (  0.5000002 -0.8660253  0.0000000 )
                  ( -0.8660253 -0.5000002  0.0000000 )
                  (  0.0000000  0.0000000  1.0000000 )

   Cartesian axes

     site n.     atom                  positions (alat units)
         1           Te  tau(   1) = (   0.0000000   0.0000000   8.7701170  )
         2           Te  tau(   2) = (  -0.0000006   0.5773505   6.6139113  )
         3           Te  tau(   3) = (  -0.0000006   0.5773505   1.6476903  )
         4           Te  tau(   4) = (  -0.0000006   0.5773505   7.6309422  )
         5           Te  tau(   5) = (  -0.0000006   0.5773505   2.6647212  )
         6           Te  tau(   6) = (   0.0000000   0.0000000   0.5085155  )
         7           Mo  tau(   7) = (   0.0000000   0.0000000   7.1224267  )
         8           Mo  tau(   8) = (   0.0000000   0.0000000   2.1562057  )
         9           Mo  tau(   9) = (  -0.0000006   0.5773505   0.0000000  )

   Crystallographic axes

     site n.     atom                  positions (cryst. coord.)
         1           Te  tau(   1) = (  0.0000000  0.0000000  0.9451950  )
         2           Te  tau(   2) = (  0.3333330  0.6666670  0.7128110  )
         3           Te  tau(   3) = (  0.3333330  0.6666670  0.1775790  )
         4           Te  tau(   4) = (  0.3333330  0.6666670  0.8224210  )
         5           Te  tau(   5) = (  0.3333330  0.6666670  0.2871890  )
         6           Te  tau(   6) = (  0.0000000  0.0000000  0.0548050  )
         7           Mo  tau(   7) = (  0.0000000  0.0000000  0.7676160  )
         8           Mo  tau(   8) = (  0.0000000  0.0000000  0.2323840  )
         9           Mo  tau(   9) = (  0.3333330  0.6666670  0.0000000  )

     number of k points=     1  Methfessel-Paxton smearing, width (Ry)=  0.0010
                       cart. coord. in units 2pi/alat
        k(    1) = (   0.0000000   0.0000000   0.0000000), wk =   2.0000000

                       cryst. coord.
        k(    1) = (   0.0000000   0.0000000   0.0000000), wk =   2.0000000

     Initial potential from superposition of free atoms

     starting charge      77.9957, renormalised to      78.0000

     negative rho (up, down):  5.022E-05 0.000E+00
     Starting wfcs are   54 randomized atomic wfcs

     Self-consistent Calculation

     iteration #  1     ecut=    30.00 Ry     beta= 0.70
     Davidson diagonalization with overlap

     ethr =  1.00E-02,  avg # of iterations =  2.0

     total energy              =    -559.29539558 Ry
     estimated scf accuracy    <      13.07384457 Ry

[...]

     negative rho (up, down):  6.482E-08 0.000E+00

[...]

     total energy              =    -568.67188087 Ry
     estimated scf accuracy    <       0.00000109 Ry

     iteration # 29     ecut=    30.00 Ry     beta= 0.70
     Davidson diagonalization with overlap

     ethr =  1.40E-09,  avg # of iterations =  5.0

[...]

     End of self-consistent calculation

          k = 0.0000 0.0000 0.0000 (  3370 PWs)   bands (ev):

   -54.5518 -54.5501 -54.5492 -28.7329 -28.7329 -28.7293 -28.7293 -28.7284
   -28.7284 -28.5928 -28.5921 -28.5905  -8.9519  -8.9062  -8.8686  -8.2454
    -8.1785  -8.1312  -0.9460  -0.6909  -0.4374   1.6203   2.1654   2.6996
     3.1488   3.1488   3.1548   3.1548   3.1573   3.1573   3.8200   3.8200
     3.8308   3.8308   3.8385   3.8385   4.3539   4.6253   4.8337   7.0242
     7.0242   7.0346   7.0346   7.0376   7.0376   7.2246   7.2247

     occupation numbers
     1.0000   1.0000   1.0000   1.0000   1.0000   1.0000   1.0000   1.0000
     1.0000   1.0000   1.0000   1.0000   1.0000   1.0000   1.0000   1.0000
     1.0000   1.0000   1.0000   1.0000   1.0000   1.0000   1.0000   1.0000
     1.0000   1.0000   1.0000   1.0000   1.0000   1.0000   1.0000   1.0000
     1.0000   1.0000   1.0000   1.0000   1.0000   1.0000   1.0000  -0.0000
    -0.0000  -0.0000  -0.0000  -0.0000  -0.0000  -0.0000  -0.0000

     the Fermi energy is     5.4217 ev

!    total energy              =    -568.67188030 Ry
     estimated scf accuracy    <       0.00000093 Ry
     smearing contrib. (-TS)   =       0.00000000 Ry
     internal energy E=F+TS    =    -568.67188030 Ry

     The total energy is F=E-TS. E is the sum of the following terms:
     one-electron contribution =   -2542.55001674 Ry
     hartree contribution      =    1288.06758094 Ry
     xc contribution           =    -134.23312711 Ry
     ewald contribution        =     820.04368261 Ry

     convergence has been achieved in  29 iterations

     negative rho (up, down):  2.593E-06 0.000E+00

     Forces acting on atoms (cartesian axes, Ry/au):

     atom    1 type  1   force =     0.00000000    0.00000000    0.11027349
     atom    2 type  1   force =     0.00000000    0.00000000    0.08975681
     atom    3 type  1   force =    -0.00000000   -0.00000000    0.11050385
     atom    4 type  1   force =    -0.00000000   -0.00000000   -0.11050385
     atom    5 type  1   force =     0.00000000   -0.00000000   -0.08975681
     atom    6 type  1   force =     0.00000000   -0.00000000   -0.11027349
     atom    7 type  2   force =     0.00000000    0.00000000   -0.00387612
     atom    8 type  2   force =     0.00000000    0.00000000    0.00387612
     atom    9 type  2   force =     0.00000000    0.00000000    0.00000000
     The non-local contrib.  to forces
     atom    1 type  1   force =    -0.00000000   -0.00000000    0.21331861
     atom    2 type  1   force =    -0.00000000   -0.00000000    0.24695573
     atom    3 type  1   force =     0.00000000    0.00000000    0.21134916
     atom    4 type  1   force =     0.00000000    0.00000000   -0.21134916
     atom    5 type  1   force =     0.00000000    0.00000000   -0.24695573
     atom    6 type  1   force =     0.00000000    0.00000000   -0.21331861
     atom    7 type  2   force =     0.00000000    0.00000000   -0.00171601
     atom    8 type  2   force =    -0.00000000   -0.00000000    0.00171601
     atom    9 type  2   force =     0.00000000    0.00000000    0.00000000
     The ionic contribution  to forces
     atom    1 type  1   force =    -0.00000222    0.00000128  -20.28812494
     atom    2 type  1   force =     0.00000221   -0.00000128  -50.59653199
     atom    3 type  1   force =     0.00000222   -0.00000128   10.02812158
     atom    4 type  1   force =     0.00000222   -0.00000128  -10.02812158
     atom    5 type  1   force =     0.00000221   -0.00000128   50.59653199
     atom    6 type  1   force =    -0.00000222    0.00000128   20.28812494
     atom    7 type  2   force =    -0.00000442    0.00000255  -70.73893053
     atom    8 type  2   force =    -0.00000442    0.00000255   70.73893053
     atom    9 type  2   force =     0.00000442   -0.00000255    0.00000000
     The local contribution  to forces
     atom    1 type  1   force =     0.00000774    0.00000243   20.17209315
     atom    2 type  1   force =    -0.00000688    0.00000298   50.42278181
     atom    3 type  1   force =    -0.00000083    0.00000731  -10.14128928
     atom    4 type  1   force =     0.00000477   -0.00000185   10.14125423
     atom    5 type  1   force =     0.00000761    0.00000058  -50.42128826
     atom    6 type  1   force =    -0.00000623    0.00000095  -20.17226896
     atom    7 type  2   force =     0.00002462   -0.00001375   70.73746877
     atom    8 type  2   force =     0.00000421    0.00001331  -70.73208785
     atom    9 type  2   force =     0.00000453   -0.00001047    0.00067422
     The core correction contribution to forces
     atom    1 type  1   force =    -0.00000098   -0.00000024    0.01285817
     atom    2 type  1   force =     0.00000056   -0.00000032    0.01664543
     atom    3 type  1   force =     0.00000003   -0.00000064    0.01262752
     atom    4 type  1   force =    -0.00000056    0.00000019   -0.01262610
     atom    5 type  1   force =    -0.00000099   -0.00000007   -0.01664730
     atom    6 type  1   force =     0.00000071   -0.00000017   -0.01285399
     atom    7 type  2   force =     0.00000000    0.00000000    0.00000000
     atom    8 type  2   force =     0.00000000    0.00000000    0.00000000
     atom    9 type  2   force =     0.00000000    0.00000000    0.00000000
     The Hubbard contrib.    to forces
     atom    1 type  1   force =     0.00000000    0.00000000    0.00000000
     atom    2 type  1   force =     0.00000000    0.00000000    0.00000000
     atom    3 type  1   force =     0.00000000    0.00000000    0.00000000
     atom    4 type  1   force =     0.00000000    0.00000000    0.00000000
     atom    5 type  1   force =     0.00000000    0.00000000    0.00000000
     atom    6 type  1   force =     0.00000000    0.00000000    0.00000000
     atom    7 type  2   force =     0.00000000    0.00000000    0.00000000
     atom    8 type  2   force =     0.00000000    0.00000000    0.00000000
     atom    9 type  2   force =     0.00000000    0.00000000    0.00000000
     The SCF correction term to forces
     atom    1 type  1   force =     0.00000338   -0.00000025    0.00010233
     atom    2 type  1   force =     0.00000050    0.00000076   -0.00009458
     atom    3 type  1   force =    -0.00000077    0.00000027   -0.00032383
     atom    4 type  1   force =     0.00000006   -0.00000026    0.00032005
     atom    5 type  1   force =     0.00000071    0.00000062   -0.00139791
     atom    6 type  1   force =     0.00000046   -0.00000024    0.00001695
     atom    7 type  2   force =    -0.00001971    0.00001602   -0.00072112
     atom    8 type  2   force =     0.00000113   -0.00001235   -0.00470533
     atom    9 type  2   force =    -0.00000646    0.00001125   -0.00068853

     Total force =     0.254726     Total SCF correction =     0.005032

     Computing stress (Cartesian axis) and pressure

     negative rho (up, down):  2.593E-06 0.000E+00
          total   stress  (Ry/bohr**3)                   (kbar)     P=       65.64
   0.00097553   0.00000000   0.00000000          143.51        0.00        0.00
   0.00000000   0.00097553   0.00000000            0.00      143.51        0.00
   0.00000000  -0.00000000  -0.00061249            0.00       -0.00      -90.10

     kinetic stress (kbar)   6371.40      0.00      0.00
                                0.00   6371.40      0.00
                                0.00      0.00   6537.50

     local   stress (kbar)-143319.23      0.00      0.00
                                0.00-143319.22     -0.00
                                0.00     -0.00 148230.68

     nonloc. stress (kbar)   -895.85     -0.00     -0.00
                               -0.00   -895.85     -0.00
                               -0.00     -0.00   -886.18

     hartree stress (kbar)  73693.52     -0.00     -0.00
                               -0.00  73693.52      0.00
                               -0.00      0.00 -69855.73

     exc-cor stress (kbar)   2326.46     -0.00     -0.00
                               -0.00   2326.46      0.00
                               -0.00      0.00   2333.84

     corecor stress (kbar)  -3957.70      0.00     -0.00
                                0.00  -3957.70     -0.00
                               -0.00     -0.00  -3960.43

     ewald   stress (kbar)  65924.91     -0.00     -0.00
                               -0.00  65924.90      0.00
                               -0.00      0.00 -82489.78

     hubbard stress (kbar)      0.00      0.00      0.00
                                0.00      0.00      0.00
                                0.00      0.00      0.00

     DFT-D   stress (kbar)      0.00      0.00      0.00
                                0.00      0.00      0.00
                                0.00      0.00      0.00

     XDM     stress (kbar)      0.00      0.00      0.00
                                0.00      0.00      0.00
                                0.00      0.00      0.00

     dft-nl  stress (kbar)      0.00      0.00      0.00
                                0.00      0.00      0.00
                                0.00      0.00      0.00

     TS-vdW  stress (kbar)      0.00      0.00      0.00
                                0.00      0.00      0.00
                                0.00      0.00      0.00

[...]

                                0.00      0.00      0.00

     Writing all to output data dir new_calculations/myprefix.save/

     General routines

     Parallel routines

   This run was terminated on:   8:33:14  20May2023

   JOB DONE.