     Program PWSCF v.7.0 starts on 20May2023 at 15:16:27

     Reading input from espresso_10478.pwi
Warning: card &CELL ignored
Warning: card / ignored

     Current dimensions of program PWSCF are:
     Max number of different atomic species (ntypx) = 10
     Max number of k-points (npk) =  40000
     Max angular momentum in pseudopotentials (lmaxx) =  4
     file Fe.pbe-spn-kjpaw_psl.0.2.1.UPF: wavefunction(s)  3D renormalized

     gamma-point specific algorithms are used
     Message from routine setup:
     using ibrav=0 with symmetry is DISCOURAGED, use correct ibrav instead

     Subspace diagonalization in iterative solution of the eigenvalue problem:
     a serial algorithm will be used

     Using Slab Decomposition

     bravais-lattice index     =            0
     lattice parameter (alat)  =       8.9405  a.u.
     unit-cell volume          =     466.4504 (a.u.)^3
     number of atoms/cell      =            6
     number of atomic types    =            3
     number of electrons       =        47.00
     number of Kohn-Sham states=           29
     kinetic-energy cutoff     =      30.0000  Ry
     charge density cutoff     =     240.0000  Ry
     scf convergence threshold =      1.0E-06
     mixing beta               =       0.7000
     number of iterations used =            8  plain     mixing
     Exchange-correlation=  SLA  PW   PBX  PBC
                           (   1   4   3   4   0   0   0)

     celldm(1)=   8.940544  celldm(2)=   0.000000  celldm(3)=   0.000000
     celldm(4)=   0.000000  celldm(5)=   0.000000  celldm(6)=   0.000000

     crystal axes: (cart. coord. in units of alat)
               a(1) = (   1.000000   0.000000   0.000000 )
               a(2) = (  -0.056877   0.998381   0.000000 )
               a(3) = (   0.000000   0.000000   0.653758 )

     reciprocal axes: (cart. coord. in units 2 pi/alat)
               b(1) = (  1.000000  0.056969  0.000000 )
               b(2) = (  0.000000  1.001621  0.000000 )
               b(3) = (  0.000000  0.000000  1.529617 )

     PseudoPot. # 1 for Li read from file:
     /home/pragov/projects/rrg-bengioy-ad/pragov/crystal_structure_design/SSSP/li_pbe_v1.4.uspp.F.UPF
     MD5 check sum: e912e257baa3777c20ea3d68f190483c
     Pseudo is Ultrasoft, Zval =  3.0
     Generated by new atomic code, or converted to UPF format
     Using radial grid of  751 points,  5 beta functions with:
                l(1) =   0
                l(2) =   0
                l(3) =   0
                l(4) =   1
                l(5) =   1
     Q(r) pseudized with 10 coefficients,  rinner =    1.150   1.150   1.150

     PseudoPot. # 2 for Fe read from file:
     /home/pragov/projects/rrg-bengioy-ad/pragov/crystal_structure_design/SSSP/Fe.pbe-spn-kjpaw_psl.0.2.1.UPF
     MD5 check sum: e86618425769142926afa95317d90200
     Pseudo is Projector augmented-wave + core cor, Zval = 16.0
     Generated using "atomic" code by A. Dal Corso  v.5.0.99 svn rev. 10869
     Shape of augmentation charge: PSQ
     Using radial grid of 1191 points,  6 beta functions with:
                l(1) =   0
                l(2) =   0
                l(3) =   1
                l(4) =   1
                l(5) =   2
                l(6) =   2
     Q(r) pseudized with 0 coefficients

     PseudoPot. # 3 for F  read from file:
     /home/pragov/projects/rrg-bengioy-ad/pragov/crystal_structure_design/SSSP/f_pbe_v1.4.uspp.F.UPF
     MD5 check sum: 4c38b6a325caf53ec0e86aed9459de46
     Pseudo is Ultrasoft, Zval =  7.0
     Generated by new atomic code, or converted to UPF format
     Using radial grid of  799 points,  4 beta functions with:
                l(1) =   0
                l(2) =   0
                l(3) =   1
                l(4) =   1
     Q(r) pseudized with  8 coefficients,  rinner =    0.950   0.950   0.950

     atomic species   valence    mass     pseudopotential
        Li             3.00     6.94000     Li( 1.00)
        Fe            16.00    55.84500     Fe( 1.00)
        F              7.00    18.99840     F ( 1.00)

      4 Sym. Ops., with inversion, found

                                    s                        frac. trans.

      isym =  1     identity

 cryst.   s( 1) = (     1          0          0      )
                  (     0          1          0      )
                  (     0          0          1      )

 cart.    s( 1) = (  1.0000000  0.0000000  0.0000000 )
                  (  0.0000000  1.0000000  0.0000000 )
                  (  0.0000000  0.0000000  1.0000000 )

      isym =  2     180 deg rotation - cart. axis [0,0,1]

[...]

      isym =  3     inversion

[...]

      isym =  4     inv. 180 deg rotation - cart. axis [0,0,1]

 cryst.   s( 4) = (     1          0          0      )
                  (     0          1          0      )
                  (     0          0         -1      )

 cart.    s( 4) = (  1.0000000  0.0000000  0.0000000 )
                  (  0.0000000  1.0000000  0.0000000 )
                  (  0.0000000  0.0000000 -1.0000000 )

   Cartesian axes

     site n.     atom                  positions (alat units)
         1           Li  tau(   1) = (   0.0000000   0.0000000   0.3268792  )
         2           Fe  tau(   2) = (   0.4715617   0.4991906   0.0000000  )
         3           F   tau(   3) = (   0.7473809   0.7911702   0.0000000  )
         4           F   tau(   4) = (   0.6714371   0.3103778   0.3268792  )
         5           F   tau(   5) = (   0.1957424   0.2072110   0.0000000  )
         6           F   tau(   6) = (   0.2716862   0.6880035   0.3268792  )

   Crystallographic axes

     site n.     atom                  positions (cryst. coord.)
         1           Li  tau(   1) = (  0.0000000  0.0000000  0.5000000  )
         2           Fe  tau(   2) = (  0.5000000  0.5000000  0.0000000  )
         3           F   tau(   3) = (  0.7924530  0.7924530  0.0000000  )
         4           F   tau(   4) = (  0.6891190  0.3108810  0.5000000  )
         5           F   tau(   5) = (  0.2075470  0.2075470  0.0000000  )
         6           F   tau(   6) = (  0.3108810  0.6891190  0.5000000  )

     number of k points=     1  Methfessel-Paxton smearing, width (Ry)=  0.0010
                       cart. coord. in units 2pi/alat
        k(    1) = (   0.0000000   0.0000000   0.0000000), wk =   2.0000000

                       cryst. coord.
        k(    1) = (   0.0000000   0.0000000   0.0000000), wk =   2.0000000

     Check: negative core charge=   -0.000103

     Initial potential from superposition of free atoms

     starting charge      46.5488, renormalised to      47.0000
     Starting wfcs are   34 randomized atomic wfcs
     Checking if some PAW data can be deallocated...

     Self-consistent Calculation

     iteration #  1     ecut=    30.00 Ry     beta= 0.70
     Davidson diagonalization with overlap

     ethr =  1.00E-02,  avg # of iterations =  2.0

     total energy              =    -537.00162401 Ry
     estimated scf accuracy    <       1.70681069 Ry

[...]

     negative rho (up, down):  2.839E-04 0.000E+00

[...]

     total energy              =    -538.01113498 Ry
     estimated scf accuracy    <       0.00000706 Ry

     iteration # 12     ecut=    30.00 Ry     beta= 0.70
     Davidson diagonalization with overlap

     ethr =  8.10E-09,  avg # of iterations =  2.0

[...]

     End of self-consistent calculation

          k = 0.0000 0.0000 0.0000 (   650 PWs)   bands (ev):

   -84.3224 -49.8696 -49.8624 -49.8214 -39.9658 -19.5219 -19.0325 -18.0500
   -17.8469  -2.5089  -1.6493  -1.3618  -1.3253  -0.5769  -0.5758  -0.4428
     0.7191   1.1254   1.2855   1.3123   1.4201   2.3020   2.9458   3.2182
     4.6279   4.9314   8.9178  13.7139  13.7268

     occupation numbers
     1.0000   1.0000   1.0000   1.0000   1.0000   1.0000   1.0000   1.0000
     1.0000   1.0000   1.0000   1.0000   1.0000   1.0000   1.0000   1.0000
     1.0000   1.0000   1.0000   1.0000   1.0000   1.0000   1.0000   0.5000
    -0.0000  -0.0000  -0.0000  -0.0000  -0.0000

     the Fermi energy is     3.2182 ev

!    total energy              =    -538.01113605 Ry
     estimated scf accuracy    <       0.00000018 Ry
     smearing contrib. (-TS)   =      -0.00028209 Ry
     internal energy E=F+TS    =    -538.01085396 Ry

     The total energy is F=E-TS. E is the sum of the following terms:
     one-electron contribution =    -318.39735643 Ry
     hartree contribution      =     178.80384079 Ry
     xc contribution           =     -75.48496887 Ry
     ewald contribution        =    -246.85846694 Ry
     one-center paw contrib.   =     -76.07390251 Ry
      -> PAW hartree energy AE =     204.65385976 Ry
      -> PAW hartree energy PS =    -203.86573878 Ry
      -> PAW xc energy AE      =    -110.84124187 Ry
      -> PAW xc energy PS      =      33.97921839 Ry
      -> total E_H with PAW    =     179.59196177 Ry
      -> total E_XC with PAW   =    -152.34699236 Ry

     convergence has been achieved in  12 iterations

     negative rho (up, down):  3.718E-04 0.000E+00

     Forces acting on atoms (cartesian axes, Ry/au):

     atom    1 type  1   force =     0.00000000    0.00000000    0.00000000
     atom    2 type  2   force =     0.00000000    0.00000000    0.00000000
     atom    3 type  3   force =    -0.00420039   -0.00445184    0.00000000
     atom    4 type  3   force =    -0.04897484    0.04626605    0.00000000
     atom    5 type  3   force =     0.00420039    0.00445184    0.00000000
     atom    6 type  3   force =     0.04897484   -0.04626605    0.00000000
     The non-local contrib.  to forces
     atom    1 type  1   force =     0.00000000    0.00000000    0.00000000
     atom    2 type  2   force =     0.00000000    0.00000000    0.00000000
     atom    3 type  3   force =    -0.42731479   -0.45234854   -0.00000000
     atom    4 type  3   force =    -0.50446039    0.47653582    0.00000000
     atom    5 type  3   force =     0.42731479    0.45234854   -0.00000000
     atom    6 type  3   force =     0.50446039   -0.47653582    0.00000000
     The ionic contribution  to forces
     atom    1 type  1   force =     0.00000000   -0.00000000   -0.00000000
     atom    2 type  2   force =     0.00000000   -0.00000000    0.00000000
     atom    3 type  3   force =     8.76436702    9.27787352    0.00000000
     atom    4 type  3   force =    10.55455315   -9.97038571   -0.00000000
     atom    5 type  3   force =    -8.76436702   -9.27787352    0.00000000
     atom    6 type  3   force =   -10.55455315    9.97038571   -0.00000000
     The local contribution  to forces
     atom    1 type  1   force =     0.00001085    0.00002712    0.00000001
     atom    2 type  2   force =    -0.00006971   -0.00017049   -0.00000353
     atom    3 type  3   force =    -8.34152480   -8.83022993    0.00001549
     atom    4 type  3   force =   -10.09923940    9.54023835   -0.00005736
     atom    5 type  3   force =     8.34154745    8.83026997   -0.00000108
     atom    6 type  3   force =    10.09922597   -9.54027415    0.00006206
     The core correction contribution to forces
     atom    1 type  1   force =     0.00000000    0.00000000    0.00000000
     atom    2 type  2   force =     0.00000043    0.00000007    0.00000095
     atom    3 type  3   force =     0.00000000    0.00000000    0.00000000
     atom    4 type  3   force =     0.00000000    0.00000000    0.00000000
     atom    5 type  3   force =     0.00000000    0.00000000    0.00000000
     atom    6 type  3   force =     0.00000000    0.00000000    0.00000000
     The Hubbard contrib.    to forces
     atom    1 type  1   force =     0.00000000    0.00000000    0.00000000
     atom    2 type  2   force =     0.00000000    0.00000000    0.00000000
     atom    3 type  3   force =     0.00000000    0.00000000    0.00000000
     atom    4 type  3   force =     0.00000000    0.00000000    0.00000000
     atom    5 type  3   force =     0.00000000    0.00000000    0.00000000
     atom    6 type  3   force =     0.00000000    0.00000000    0.00000000
     The SCF correction term to forces
     atom    1 type  1   force =    -0.00001398   -0.00001826   -0.00000223
     atom    2 type  2   force =     0.00014014    0.00021859   -0.00000731
     atom    3 type  3   force =     0.00026659    0.00025080   -0.00002253
     atom    4 type  3   force =     0.00017470   -0.00011020    0.00006304
     atom    5 type  3   force =    -0.00030043   -0.00029547   -0.00000173
     atom    6 type  3   force =    -0.00015547    0.00017041   -0.00007484

     Total force =     0.095672     Total SCF correction =     0.000697

     Computing stress (Cartesian axis) and pressure

     negative rho (up, down):  3.718E-04 0.000E+00
          total   stress  (Ry/bohr**3)                   (kbar)     P=     -309.85
  -0.00231090   0.00014951   0.00000000         -339.95       21.99        0.00
   0.00014951  -0.00229440   0.00000000           21.99     -337.52        0.00
   0.00000000   0.00000000  -0.00171368            0.00        0.00     -252.09

     kinetic stress (kbar)  25900.56     -5.92      0.00
                               -5.92  25899.93      0.00
                                0.00      0.00  25906.13

     local   stress (kbar)   4905.12  -6376.26     -0.41
                            -6376.26   4178.46      0.38
                               -0.41      0.38 -25743.76

     nonloc. stress (kbar)  -6300.13      7.82      0.00
                                7.82  -6299.28      0.00
                                0.00      0.00  -6164.23

     hartree stress (kbar)  14261.09   2535.18      0.19
                             2535.18  14550.02     -0.18
                                0.19     -0.18  27578.49

     exc-cor stress (kbar)  -4511.16      3.69      0.00
                                3.69  -4510.74     -0.00
                                0.00     -0.00  -4511.95

     corecor stress (kbar)  -2740.13      0.76     -0.01
                                0.76  -2740.05      0.01
                               -0.01      0.01  -2735.84

     ewald   stress (kbar) -31855.29   3856.73     -0.00
                             3856.73 -31415.87      0.00
                               -0.00      0.00 -14580.92

     hubbard stress (kbar)      0.00      0.00      0.00
                                0.00      0.00      0.00
                                0.00      0.00      0.00

     DFT-D   stress (kbar)      0.00      0.00      0.00
                                0.00      0.00      0.00
                                0.00      0.00      0.00

     XDM     stress (kbar)      0.00      0.00      0.00
                                0.00      0.00      0.00
                                0.00      0.00      0.00

     dft-nl  stress (kbar)      0.00      0.00      0.00
                                0.00      0.00      0.00
                                0.00      0.00      0.00

     TS-vdW  stress (kbar)      0.00      0.00      0.00
                                0.00      0.00      0.00
                                0.00      0.00      0.00

[...]

                                0.00      0.00      0.00

     Writing all to output data dir new_calculations/myprefix.save/

     General routines

     Parallel routines

     PAW routines

   This run was terminated on:  15:16:35  20May2023

   JOB DONE.