     Program PWSCF v.7.0 starts on 21May2023 at 13:59:56

     Reading input from espresso_26769.pwi
Warning: card &CELL ignored
Warning: card / ignored

     Current dimensions of program PWSCF are:
     Max number of different atomic species (ntypx) = 10
     Max number of k-points (npk) =  40000
     Max angular momentum in pseudopotentials (lmaxx) =  4

     gamma-point specific algorithms are used
     Message from routine setup:
     using ibrav=0 with symmetry is DISCOURAGED, use correct ibrav instead

     Subspace diagonalization in iterative solution of the eigenvalue problem:
     a serial algorithm will be used

     Using Slab Decomposition

     bravais-lattice index     =            0
     lattice parameter (alat)  =       6.7253  a.u.
     unit-cell volume          =    2969.2067 (a.u.)^3
     number of atoms/cell      =           12
     number of atomic types    =            3
     number of electrons       =       104.00
     number of Kohn-Sham states=           62
     kinetic-energy cutoff     =      30.0000  Ry
     charge density cutoff     =     240.0000  Ry
     scf convergence threshold =      1.0E-06
     mixing beta               =       0.7000
     number of iterations used =            8  plain     mixing
     Exchange-correlation= SLA  PW   PBE  PBE
                           (   1   4   3   4   0   0   0)

     celldm(1)=   6.725349  celldm(2)=   0.000000  celldm(3)=   0.000000
     celldm(4)=   0.000000  celldm(5)=   0.000000  celldm(6)=   0.000000

     crystal axes: (cart. coord. in units of alat)
               a(1) = (   1.000000   0.000000   0.000000 )
               a(2) = (  -0.500000   0.866025   0.000000 )
               a(3) = (   0.000000   0.000000  11.271073 )

     reciprocal axes: (cart. coord. in units 2 pi/alat)
               b(1) = (  1.000000  0.577350  0.000000 )
               b(2) = (  0.000000  1.154700  0.000000 )
               b(3) = (  0.000000  0.000000  0.088723 )

     PseudoPot. # 1 for Te read from file:
     /home/pragov/projects/rrg-bengioy-ad/pragov/crystal_structure_design/SSSP/Te_pbe_v1.uspp.F.UPF
     MD5 check sum: c319670d6894cc26e93307826a071b75
     Pseudo is Ultrasoft + core correction, Zval =  6.0
     Generated by new atomic code, or converted to UPF format
     Using radial grid of  891 points,  5 beta functions with:
                l(1) =   0
                l(2) =   0
                l(3) =   1
                l(4) =   1
                l(5) =   2
     Q(r) pseudized with  6 coefficients,  rinner =    1.800   1.800   1.800
                                                       1.800   1.800

     PseudoPot. # 2 for Mo read from file:
     /home/pragov/projects/rrg-bengioy-ad/pragov/crystal_structure_design/SSSP/Mo_ONCV_PBE-1.0.oncvpsp.upf
     MD5 check sum: 1b5d28e075c9ccadda658a603575cd1f
     Pseudo is Norm-conserving, Zval = 14.0
     Generated using ONCVPSP code by D. R. Hamann
     Using radial grid of 1526 points,  6 beta functions with:
                l(1) =   0
                l(2) =   0
                l(3) =   1
                l(4) =   1
                l(5) =   2
                l(6) =   2

     PseudoPot. # 3 for W  read from file:
     /home/pragov/projects/rrg-bengioy-ad/pragov/crystal_structure_design/SSSP/W_pbe_v1.2.uspp.F.UPF
     MD5 check sum: 9c083fa34c2a2ea0f02f1f893e16e1c8
     Pseudo is Ultrasoft + core correction, Zval = 14.0
     Generated by new atomic code, or converted to UPF format
     Using radial grid of  923 points,  8 beta functions with:
                l(1) =   0
                l(2) =   0
                l(3) =   0
                l(4) =   1
                l(5) =   1
                l(6) =   2
                l(7) =   2
                l(8) =   3
     Q(r) pseudized with  6 coefficients,  rinner =    1.350   1.350   1.350
                                                       1.350   1.350   1.350
                                                       1.350

     atomic species   valence    mass     pseudopotential
        Te             6.00   127.60000     Te( 1.00)
        Mo            14.00    95.95000     Mo( 1.00)
        W             14.00   183.84000     W ( 1.00)

      6 Sym. Ops. (no inversion) found

                                    s                        frac. trans.

      isym =  1     identity

 cryst.   s( 1) = (     1          0          0      )
                  (     0          1          0      )
                  (     0          0          1      )

 cart.    s( 1) = (  1.0000000 -0.0000000  0.0000000 )
                  (  0.0000000  1.0000000  0.0000000 )
                  (  0.0000000  0.0000000  1.0000000 )

      isym =  2     120 deg rotation - cryst. axis [0,0,1]

[...]

      isym =  3     120 deg rotation - cryst. axis [0,0,-1]

[...]

      isym =  4     inv. 180 deg rotation - cart. axis [1,0,0]

[...]

      isym =  5     inv. 180 deg rotation - cryst. axis [0,1,0]

[...]

      isym =  6     inv. 180 deg rotation - cryst. axis [1,1,0]

 cryst.   s( 6) = (     0         -1          0      )
                  (    -1          0          0      )
                  (     0          0          1      )

 cart.    s( 6) = (  0.4999999 -0.8660255  0.0000000 )
                  ( -0.8660255 -0.4999999  0.0000000 )
                  (  0.0000000  0.0000000  1.0000000 )

   Cartesian axes

     site n.     atom                  positions (alat units)
         1           Te  tau(   1) = (   0.0000000   0.0000000   3.6853815  )
         2           Te  tau(   2) = (   0.0000000   0.0000000   7.9214564  )
         3           Te  tau(   3) = (  -0.0000004   0.5773506   0.5495775  )
         4           Te  tau(   4) = (  -0.0000004   0.5773506   4.7829023  )
         5           Te  tau(   5) = (  -0.0000004   0.5773506   1.5679415  )
         6           Te  tau(   6) = (  -0.0000004   0.5773506   5.8042080  )
         7           Te  tau(   7) = (   0.0000000   0.0000000   2.6668823  )
         8           Te  tau(   8) = (   0.0000000   0.0000000   6.9004212  )
         9           Mo  tau(   9) = (   0.0000000   0.0000000   1.0585341  )
        10           Mo  tau(  10) = (  -0.0000004   0.5773506   3.1762108  )
        11           W   tau(  11) = (   0.0000000   0.0000000   5.2936396  )
        12           W   tau(  12) = (  -0.0000004   0.5773506   7.4112601  )

   Crystallographic axes

     site n.     atom                  positions (cryst. coord.)
         1           Te  tau(   1) = (  0.0000000  0.0000000  0.3269770  )
         2           Te  tau(   2) = (  0.0000000  0.0000000  0.7028130  )
         3           Te  tau(   3) = (  0.3333330  0.6666670  0.0487600  )
         4           Te  tau(   4) = (  0.3333330  0.6666670  0.4243520  )
         5           Te  tau(   5) = (  0.3333330  0.6666670  0.1391120  )
         6           Te  tau(   6) = (  0.3333330  0.6666670  0.5149650  )
         7           Te  tau(   7) = (  0.0000000  0.0000000  0.2366130  )
         8           Te  tau(   8) = (  0.0000000  0.0000000  0.6122240  )
         9           Mo  tau(   9) = (  0.0000000  0.0000000  0.0939160  )
        10           Mo  tau(  10) = (  0.3333330  0.6666670  0.2818020  )
        11           W   tau(  11) = (  0.0000000  0.0000000  0.4696660  )
        12           W   tau(  12) = (  0.3333330  0.6666670  0.6575470  )

     number of k points=     1  Methfessel-Paxton smearing, width (Ry)=  0.0010
                       cart. coord. in units 2pi/alat
        k(    1) = (   0.0000000   0.0000000   0.0000000), wk =   2.0000000

                       cryst. coord.
        k(    1) = (   0.0000000   0.0000000   0.0000000), wk =   2.0000000

     Initial potential from superposition of free atoms

     starting charge     103.7956, renormalised to     104.0000

     negative rho (up, down):  1.245E-01 0.000E+00
     Starting wfcs are   78 randomized atomic wfcs

     Self-consistent Calculation

     iteration #  1     ecut=    30.00 Ry     beta= 0.70
     Davidson diagonalization with overlap

     ethr =  1.00E-02,  avg # of iterations =  3.0

     negative rho (up, down):  1.336E-01 0.000E+00

     total energy              =     210.40155535 Ry
     estimated scf accuracy    <    1121.31796565 Ry

[...]

     c_bands:  2 eigenvalues not converged
     ethr =  1.00E-02,  avg # of iterations = 40.0

[...]

     total energy              =    -802.00668793 Ry
     estimated scf accuracy    <       0.00001061 Ry

     iteration # 60     ecut=    30.00 Ry     beta= 0.70
     Davidson diagonalization with overlap

     ethr =  9.75E-10,  avg # of iterations =  2.0

[...]

     End of self-consistent calculation

          k = 0.0000 0.0000 0.0000 (  4096 PWs)   bands (ev):

   -66.3502 -66.3447 -53.4379 -53.4293 -30.6968 -30.6968 -30.6885 -30.6885
   -30.5783 -30.5768 -27.6191 -27.6191 -27.6079 -27.6079 -27.4733 -27.4702
    -8.0114  -7.9403  -7.8299  -7.7506  -7.1687  -7.1004  -7.0347  -6.9962
    -0.3175   0.0463   0.2523   0.6482   2.5109   2.9608   3.4842   3.9338
     4.2433   4.2433   4.2529   4.2529   4.2764   4.2765   4.2883   4.2883
     4.9427   4.9427   4.9634   4.9634   4.9818   4.9818   5.0000   5.0000
     5.4190   5.6660   5.8914   6.0406   8.1330   8.1330   8.1528   8.1528
     8.3274   8.3274   8.3771   8.3771   8.3885   8.3886

     occupation numbers
     1.0000   1.0000   1.0000   1.0000   1.0000   1.0000   1.0000   1.0000
     1.0000   1.0000   1.0000   1.0000   1.0000   1.0000   1.0000   1.0000
     1.0000   1.0000   1.0000   1.0000   1.0000   1.0000   1.0000   1.0000
     1.0000   1.0000   1.0000   1.0000   1.0000   1.0000   1.0000   1.0000
     1.0000   1.0000   1.0000   1.0000   1.0000   1.0000   1.0000   1.0000
     1.0000   1.0000   1.0000   1.0000   1.0000   1.0000   1.0000   1.0000
     1.0000   1.0000   1.0000   1.0000  -0.0000  -0.0000  -0.0000  -0.0000
    -0.0000  -0.0000  -0.0000  -0.0000  -0.0000  -0.0000

     the Fermi energy is     6.1805 ev

!    total energy              =    -802.00668766 Ry
     estimated scf accuracy    <       0.00000091 Ry
     smearing contrib. (-TS)   =       0.00000000 Ry
     internal energy E=F+TS    =    -802.00668766 Ry

     The total energy is F=E-TS. E is the sum of the following terms:
     one-electron contribution =   -3487.47112782 Ry
     hartree contribution      =    1769.62944705 Ry
     xc contribution           =    -230.21355391 Ry
     ewald contribution        =    1146.04854702 Ry

     convergence has been achieved in  60 iterations

     negative rho (up, down):  1.210E-01 0.000E+00

     Forces acting on atoms (cartesian axes, Ry/au):

     atom    1 type  1   force =     0.00000000    0.00000000   -0.11823106
     atom    2 type  1   force =     0.00000000    0.00000000   -0.07595171
     atom    3 type  1   force =     0.00000000   -0.00000000    0.09040397
     atom    4 type  1   force =     0.00000000   -0.00000000    0.10407361
     atom    5 type  1   force =     0.00000000    0.00000000   -0.11891428
     atom    6 type  1   force =     0.00000000    0.00000000   -0.10358011
     atom    7 type  1   force =     0.00000000    0.00000000    0.11851272
     atom    8 type  1   force =     0.00000000    0.00000000    0.10401019
     atom    9 type  2   force =     0.00000000    0.00000000   -0.00500135
     atom   10 type  2   force =     0.00000000    0.00000000    0.00007246
     atom   11 type  3   force =     0.00000000    0.00000000    0.00051989
     atom   12 type  3   force =     0.00000000    0.00000000    0.00408568
     The non-local contrib.  to forces
     atom    1 type  1   force =     0.00000000    0.00000000   -0.19878012
     atom    2 type  1   force =     0.00000000   -0.00000000   -0.20787586
     atom    3 type  1   force =     0.00000000    0.00000000    0.24601233
     atom    4 type  1   force =     0.00000000    0.00000000    0.15845044
     atom    5 type  1   force =     0.00000000    0.00000000   -0.19532003
     atom    6 type  1   force =     0.00000000   -0.00000000   -0.15904280
     atom    7 type  1   force =     0.00000000   -0.00000000    0.19805139
     atom    8 type  1   force =     0.00000000    0.00000000    0.15496811
     atom    9 type  2   force =     0.00000000    0.00000000   -0.00274645
     atom   10 type  2   force =     0.00000000    0.00000000    0.00012368
     atom   11 type  3   force =     0.00000000    0.00000000    0.00059438
     atom   12 type  3   force =     0.00000000    0.00000000    0.00667504
     The ionic contribution  to forces
     atom    1 type  1   force =    -0.00000364    0.00000210    6.22582076
     atom    2 type  1   force =    -0.00000359    0.00000207   55.93856776
     atom    3 type  1   force =     0.00000361   -0.00000209  -55.96966090
     atom    4 type  1   force =     0.00000360   -0.00000208   -6.19119439
     atom    5 type  1   force =     0.00000363   -0.00000210  -18.64853995
     atom    6 type  1   force =     0.00000361   -0.00000208   31.06971101
     atom    7 type  1   force =    -0.00000364    0.00000210  -31.10265820
     atom    8 type  1   force =    -0.00000360    0.00000208   18.68172605
     atom    9 type  2   force =    -0.00000722    0.00000417  -87.06125342
     atom   10 type  2   force =     0.00000722   -0.00000417  -29.02555639
     atom   11 type  3   force =    -0.00000715    0.00000413   29.02215039
     atom   12 type  3   force =     0.00000716   -0.00000413   87.06088728
     The local contribution  to forces
     atom    1 type  1   force =     0.00000157   -0.00000007   -6.13407201
     atom    2 type  1   force =     0.00000029    0.00000113  -55.79592822
     atom    3 type  1   force =    -0.00000022    0.00000157   55.79744563
     atom    4 type  1   force =    -0.00000433   -0.00000201    6.13178415
     atom    5 type  1   force =    -0.00000137    0.00000083   18.73580155
     atom    6 type  1   force =    -0.00000059    0.00000167  -31.00744534
     atom    7 type  1   force =     0.00000191   -0.00000057   31.01185346
     atom    8 type  1   force =     0.00000337    0.00000023  -18.73924614
     atom    9 type  2   force =     0.00000335   -0.00000046   87.05844817
     atom   10 type  2   force =    -0.00000800    0.00000071   29.02524887
     atom   11 type  3   force =     0.00001059   -0.00001743  -29.01871877
     atom   12 type  3   force =    -0.00000539    0.00000144  -87.06764262
     The core correction contribution to forces
     atom    1 type  1   force =     0.00000014   -0.00000018   -0.01127276
     atom    2 type  1   force =     0.00000020   -0.00000031   -0.01107352
     atom    3 type  1   force =    -0.00000028   -0.00000001    0.01652977
     atom    4 type  1   force =     0.00000003    0.00000064    0.00562548
     atom    5 type  1   force =    -0.00000008    0.00000004   -0.01091166
     atom    6 type  1   force =    -0.00000030   -0.00000000   -0.00568760
     atom    7 type  1   force =     0.00000014   -0.00000010    0.01121282
     atom    8 type  1   force =    -0.00000012   -0.00000018    0.00523014
     atom    9 type  2   force =     0.00000000    0.00000000    0.00000000
     atom   10 type  2   force =     0.00000000    0.00000000    0.00000000
     atom   11 type  3   force =     0.00000010   -0.00000048   -0.00000074
     atom   12 type  3   force =    -0.00000006   -0.00000029    0.00012040
     The Hubbard contrib.    to forces
     atom    1 type  1   force =     0.00000000    0.00000000    0.00000000
     atom    2 type  1   force =     0.00000000    0.00000000    0.00000000
     atom    3 type  1   force =     0.00000000    0.00000000    0.00000000
     atom    4 type  1   force =     0.00000000    0.00000000    0.00000000
     atom    5 type  1   force =     0.00000000    0.00000000    0.00000000
     atom    6 type  1   force =     0.00000000    0.00000000    0.00000000
     atom    7 type  1   force =     0.00000000    0.00000000    0.00000000
     atom    8 type  1   force =     0.00000000    0.00000000    0.00000000
     atom    9 type  2   force =     0.00000000    0.00000000    0.00000000
     atom   10 type  2   force =     0.00000000    0.00000000    0.00000000
     atom   11 type  3   force =     0.00000000    0.00000000    0.00000000
     atom   12 type  3   force =     0.00000000    0.00000000    0.00000000
     The SCF correction term to forces
     atom    1 type  1   force =    -0.00000010    0.00000022    0.00006459
     atom    2 type  1   force =     0.00000013    0.00000082    0.00034966
     atom    3 type  1   force =    -0.00000002    0.00000018    0.00006868
     atom    4 type  1   force =     0.00000047   -0.00000215   -0.00060054
     atom    5 type  1   force =    -0.00000037    0.00000027    0.00004734
     atom    6 type  1   force =     0.00000062   -0.00000022   -0.00112385
     atom    7 type  1   force =    -0.00000034    0.00000003    0.00004478
     atom    8 type  1   force =     0.00000034    0.00000069    0.00132357
     atom    9 type  2   force =     0.00000105   -0.00000166    0.00054189
     atom   10 type  2   force =     0.00000282    0.00000173    0.00024782
     atom   11 type  3   force =    -0.00000657    0.00001794   -0.00351383
     atom   12 type  3   force =    -0.00000039    0.00000168    0.00403710

     Total force =     0.297534     Total SCF correction =     0.005702

     Computing stress (Cartesian axis) and pressure

     negative rho (up, down):  1.210E-01 0.000E+00
          total   stress  (Ry/bohr**3)                   (kbar)     P=       83.81
   0.00110814  -0.00000000   0.00000000          163.01       -0.00        0.00
  -0.00000000   0.00110814   0.00000000           -0.00      163.01        0.00
   0.00000000   0.00000000  -0.00050716            0.00        0.00      -74.61

     kinetic stress (kbar)   7269.54     -0.00      0.00
                               -0.00   7269.54      0.00
                                0.00      0.00   7421.43

     local   stress (kbar)-160112.64      0.01      0.00
                                0.01-160112.63     -0.00
                                0.00     -0.00 170978.31

     nonloc. stress (kbar)  -3513.62      0.00      0.00
                                0.00  -3513.62      0.00
                                0.00      0.00  -3529.56

     hartree stress (kbar)  83691.18     -0.00     -0.00
                               -0.00  83691.18      0.00
                               -0.00      0.00 -79708.61

     exc-cor stress (kbar)   4815.01     -0.00     -0.00
                               -0.00   4815.01      0.00
                               -0.00      0.00   4823.98

     corecor stress (kbar)  -6934.93      0.00     -0.00
                                0.00  -6934.93     -0.00
                               -0.00     -0.00  -6942.54

     ewald   stress (kbar)  74948.47     -0.01     -0.00
                               -0.01  74948.46      0.00
                               -0.00      0.00 -93117.61

     hubbard stress (kbar)      0.00      0.00      0.00
                                0.00      0.00      0.00
                                0.00      0.00      0.00

     DFT-D   stress (kbar)      0.00      0.00      0.00
                                0.00      0.00      0.00
                                0.00      0.00      0.00

     XDM     stress (kbar)      0.00      0.00      0.00
                                0.00      0.00      0.00
                                0.00      0.00      0.00

     dft-nl  stress (kbar)      0.00      0.00      0.00
                                0.00      0.00      0.00
                                0.00      0.00      0.00

     TS-vdW  stress (kbar)      0.00      0.00      0.00
                                0.00      0.00      0.00
                                0.00      0.00      0.00

[...]

                                0.00      0.00      0.00

     Writing all to output data dir new_calculations/myprefix.save/

     General routines

     Parallel routines

   This run was terminated on:  14: 1:45  21May2023

   JOB DONE.