     Program PWSCF v.7.0 starts on 21May2023 at  3:27:54

     Reading input from espresso_21507.pwi
Warning: card &CELL ignored
Warning: card / ignored

     Current dimensions of program PWSCF are:
     Max number of different atomic species (ntypx) = 10
     Max number of k-points (npk) =  40000
     Max angular momentum in pseudopotentials (lmaxx) =  4

     gamma-point specific algorithms are used
     Message from routine setup:
     using ibrav=0 with symmetry is DISCOURAGED, use correct ibrav instead

     Subspace diagonalization in iterative solution of the eigenvalue problem:
     a serial algorithm will be used

     Using Slab Decomposition

     bravais-lattice index     =            0
     lattice parameter (alat)  =      13.0409  a.u.
     unit-cell volume          =    1568.2279 (a.u.)^3
     number of atoms/cell      =           10
     number of atomic types    =            3
     number of electrons       =        86.00
     number of Kohn-Sham states=           52
     kinetic-energy cutoff     =      30.0000  Ry
     charge density cutoff     =     240.0000  Ry
     scf convergence threshold =      1.0E-06
     mixing beta               =       0.7000
     number of iterations used =            8  plain     mixing
     Exchange-correlation=  SLA  PW   PBX  PBC
                           (   1   4   3   4   0   0   0)

     celldm(1)=  13.040915  celldm(2)=   0.000000  celldm(3)=   0.000000
     celldm(4)=   0.000000  celldm(5)=   0.000000  celldm(6)=   0.000000

     crystal axes: (cart. coord. in units of alat)
               a(1) = (   1.000000   0.000000   0.000000 )
               a(2) = (   0.500000   0.866025   0.000000 )
               a(3) = (   0.500000   0.288675   0.816497 )

     reciprocal axes: (cart. coord. in units 2 pi/alat)
               b(1) = (  1.000000 -0.577350 -0.408248 )
               b(2) = (  0.000000  1.154701 -0.408248 )
               b(3) = (  0.000000  0.000000  1.224745 )

     PseudoPot. # 1 for Cs read from file:
     /home/pragov/projects/rrg-bengioy-ad/pragov/crystal_structure_design/SSSP/Cs_pbe_v1.uspp.F.UPF
     MD5 check sum: 3476d69cb178dfad3ffaa59df4e07ca4
     Pseudo is Ultrasoft + core correction, Zval =  9.0
     Generated by new atomic code, or converted to UPF format
     Using radial grid of  905 points,  6 beta functions with:
                l(1) =   0
                l(2) =   0
                l(3) =   1
                l(4) =   1
                l(5) =   2
                l(6) =   2
     Q(r) pseudized with  6 coefficients,  rinner =    1.500   1.500   1.500
                                                       1.500   1.500

     PseudoPot. # 2 for Tl read from file:
     /home/pragov/projects/rrg-bengioy-ad/pragov/crystal_structure_design/SSSP/Tl_pbe_v1.2.uspp.F.UPF
     MD5 check sum: b76cf1f7e72655a2b2c53cf6385d7059
     Pseudo is Ultrasoft + core correction, Zval = 13.0
     Generated by new atomic code, or converted to UPF format
     Using radial grid of  899 points,  6 beta functions with:
                l(1) =   0
                l(2) =   0
                l(3) =   1
                l(4) =   1
                l(5) =   2
                l(6) =   2
     Q(r) pseudized with  6 coefficients,  rinner =    1.100   1.100   1.100
                                                       1.100   1.100

     PseudoPot. # 3 for F  read from file:
     /home/pragov/projects/rrg-bengioy-ad/pragov/crystal_structure_design/SSSP/f_pbe_v1.4.uspp.F.UPF
     MD5 check sum: 4c38b6a325caf53ec0e86aed9459de46
     Pseudo is Ultrasoft, Zval =  7.0
     Generated by new atomic code, or converted to UPF format
     Using radial grid of  799 points,  4 beta functions with:
                l(1) =   0
                l(2) =   0
                l(3) =   1
                l(4) =   1
     Q(r) pseudized with  8 coefficients,  rinner =    0.950   0.950   0.950

     atomic species   valence    mass     pseudopotential
        Cs             9.00   132.90545     Cs( 1.00)
        Tl            13.00   204.38000     Tl( 1.00)
        F              7.00    18.99840     F ( 1.00)

     12 Sym. Ops., with inversion, found

                                    s                        frac. trans.

      isym =  1     identity

 cryst.   s( 1) = (     1          0          0      )
                  (     0          1          0      )
                  (     0          0          1      )

 cart.    s( 1) = (  1.0000000  0.0000000  0.0000000 )
                  (  0.0000000  1.0000000 -0.0000000 )
                  (  0.0000000  0.0000000  1.0000000 )

      isym =  2     180 deg rotation - cart. axis [1,0,0]

[...]

      isym =  3     120 deg rotation - cryst. axis [0,0,1]

[...]

      isym =  6     180 deg rotation - cryst. axis [1,1,0]

[...]

      isym =  7     inversion

[...]

      isym =  8     inv. 180 deg rotation - cart. axis [1,0,0]

[...]

      isym =  9     inv. 120 deg rotation - cryst. axis [0,0,1]

 cryst.   s( 9) = (     1         -1          0      )
                  (     1          0          0      )
                  (     1          0         -1      )

 cart.    s( 9) = (  0.5000000  0.8660254  0.0000000 )
                  ( -0.8660254  0.5000000  0.0000000 )
                  (  0.0000000  0.0000000 -1.0000000 )

[...]

 cryst.   s(10) = (     0          1          0      )
                  (    -1          1          0      )
                  (     0          1         -1      )

 cart.    s(10) = (  0.5000000 -0.8660254 -0.0000000 )
                  (  0.8660254  0.5000000  0.0000000 )
                  (  0.0000000  0.0000000 -1.0000000 )

[...]

      isym = 12     inv. 180 deg rotation - cryst. axis [1,1,0]

 cryst.   s(12) = (     1         -1          0      )
                  (     0         -1          0      )
                  (     0         -1          1      )

 cart.    s(12) = (  0.5000000 -0.8660254 -0.0000000 )
                  ( -0.8660254 -0.5000000 -0.0000000 )
                  (  0.0000000  0.0000000  1.0000000 )

   Cartesian axes

     site n.     atom                  positions (alat units)
         1           Cs  tau(   1) = (   1.5000000   0.8660254   0.6123724  )
         2           Cs  tau(   2) = (   0.5000000   0.2886751   0.2041241  )
         3           Tl  tau(   3) = (   1.0000000   0.5773503   0.4082483  )
         4           Tl  tau(   4) = (   0.0000000   0.0000000   0.0000000  )
         5           F   tau(   5) = (   1.0000000   0.2617244   0.1850671  )
         6           F   tau(   6) = (   0.7266600   0.4195373   0.6314295  )
         7           F   tau(   7) = (   1.0000000   0.8929761   0.6314295  )
         8           F   tau(   8) = (   0.7266600   0.7351632   0.1850671  )
         9           F   tau(   9) = (   1.2733400   0.4195373   0.6314295  )
        10           F   tau(  10) = (   1.2733400   0.7351632   0.1850671  )

   Crystallographic axes

     site n.     atom                  positions (cryst. coord.)
         1           Cs  tau(   1) = (  0.7500000  0.7500000  0.7500000  )
         2           Cs  tau(   2) = (  0.2500000  0.2500000  0.2500000  )
         3           Tl  tau(   3) = (  0.5000000  0.5000000  0.5000000  )
         4           Tl  tau(   4) = (  0.0000000  0.0000000  0.0000000  )
         5           F   tau(   5) = (  0.7733400  0.2266600  0.2266600  )
         6           F   tau(   6) = (  0.2266600  0.2266600  0.7733400  )
         7           F   tau(   7) = (  0.2266600  0.7733400  0.7733400  )
         8           F   tau(   8) = (  0.2266600  0.7733400  0.2266600  )
         9           F   tau(   9) = (  0.7733400  0.2266600  0.7733400  )
        10           F   tau(  10) = (  0.7733400  0.7733400  0.2266600  )

     number of k points=     1  Methfessel-Paxton smearing, width (Ry)=  0.0010
                       cart. coord. in units 2pi/alat
        k(    1) = (   0.0000000   0.0000000   0.0000000), wk =   2.0000000

                       cryst. coord.
        k(    1) = (   0.0000000   0.0000000   0.0000000), wk =   2.0000000

     Check: negative core charge=   -0.000004

     Initial potential from superposition of free atoms

     starting charge      85.9115, renormalised to      86.0000

     negative rho (up, down):  1.017E-01 0.000E+00
     Starting wfcs are   68 randomized atomic wfcs

     Self-consistent Calculation

     iteration #  1     ecut=    30.00 Ry     beta= 0.70
     Davidson diagonalization with overlap

     ethr =  1.00E-02,  avg # of iterations =  2.0

     negative rho (up, down):  1.112E-01 0.000E+00

     total energy              =    -707.59164342 Ry
     estimated scf accuracy    <       1.42508319 Ry

[...]

     total energy              =    -708.29546810 Ry
     estimated scf accuracy    <       0.00000123 Ry

     iteration #  9     ecut=    30.00 Ry     beta= 0.70
     Davidson diagonalization with overlap

     ethr =  1.43E-09,  avg # of iterations =  3.0

[...]

     End of self-consistent calculation

          k = 0.0000 0.0000 0.0000 (  2143 PWs)   bands (ev):

   -17.5329 -17.3063 -17.3054 -17.2864 -17.2863 -17.2850 -16.1454 -16.1362
    -5.9231  -5.9230  -5.7744  -5.7743  -5.7743  -5.4876  -5.4875  -5.4875
    -5.3689  -5.3689  -3.1123  -3.1123  -3.1123  -2.9813  -2.9813  -2.9813
    -2.5561   0.0837   0.0838   0.0847   1.1527   1.4498   1.4504   1.4504
     1.5087   1.5093   1.5093   1.5729   1.5732   1.5732   1.8177   1.8184
     1.8184   2.1153   2.1161   6.9635   8.3976   8.3976   8.3977   9.7899
     9.7899   9.9541  12.1926  12.1927

     occupation numbers
     1.0000   1.0000   1.0000   1.0000   1.0000   1.0000   1.0000   1.0000
     1.0000   1.0000   1.0000   1.0000   1.0000   1.0000   1.0000   1.0000
     1.0000   1.0000   1.0000   1.0000   1.0000   1.0000   1.0000   1.0000
     1.0000   1.0000   1.0000   1.0000   1.0000   1.0000   1.0000   1.0000
     1.0000   1.0000   1.0000   1.0000   1.0000   1.0000   1.0000   1.0000
     1.0000   1.0000   1.0000  -0.0000  -0.0000  -0.0000  -0.0000  -0.0000
    -0.0000  -0.0000  -0.0000  -0.0000

     the Fermi energy is     4.8293 ev

!    total energy              =    -708.29546827 Ry
     estimated scf accuracy    <       0.00000023 Ry
     smearing contrib. (-TS)   =       0.00000000 Ry
     internal energy E=F+TS    =    -708.29546827 Ry

     The total energy is F=E-TS. E is the sum of the following terms:
     one-electron contribution =    -294.67316182 Ry
     hartree contribution      =     201.18954419 Ry
     xc contribution           =    -241.12640420 Ry
     ewald contribution        =    -373.68544644 Ry

     convergence has been achieved in   9 iterations

     negative rho (up, down):  1.134E-01 0.000E+00

     Forces acting on atoms (cartesian axes, Ry/au):

     atom    1 type  1   force =     0.00000000    0.00000000    0.00000018
     atom    2 type  1   force =     0.00000000   -0.00000000   -0.00000018
     atom    3 type  2   force =     0.00000000    0.00000000   -0.00000000
     atom    4 type  2   force =     0.00000000    0.00000000   -0.00000000
     atom    5 type  3   force =     0.00000000    0.01798843    0.01272030
     atom    6 type  3   force =     0.01557843    0.00899421   -0.01272030
     atom    7 type  3   force =     0.00000000   -0.01798843   -0.01272030
     atom    8 type  3   force =     0.01557843   -0.00899421    0.01272030
     atom    9 type  3   force =    -0.01557843    0.00899421   -0.01272030
     atom   10 type  3   force =    -0.01557843   -0.00899421    0.01272030
     The non-local contrib.  to forces
     atom    1 type  1   force =     0.00000000   -0.00000000    0.00000158
     atom    2 type  1   force =     0.00000000    0.00000000   -0.00000158
     atom    3 type  2   force =     0.00000000    0.00000000    0.00000000
     atom    4 type  2   force =     0.00000000    0.00000000    0.00000000
     atom    5 type  3   force =     0.00000000   -0.29125905   -0.20596173
     atom    6 type  3   force =    -0.25223774   -0.14562953    0.20596173
     atom    7 type  3   force =     0.00000000    0.29125905    0.20596173
     atom    8 type  3   force =    -0.25223774    0.14562953   -0.20596173
     atom    9 type  3   force =     0.25223774   -0.14562953    0.20596173
     atom   10 type  3   force =     0.25223774    0.14562953   -0.20596173
     The ionic contribution  to forces
     atom    1 type  1   force =     0.00000000   -0.00000000    0.00000000
     atom    2 type  1   force =    -0.00000000    0.00000000    0.00000000
     atom    3 type  2   force =    -0.00000000    0.00000000    0.00000000
     atom    4 type  2   force =    -0.00000000   -0.00000000    0.00000000
     atom    5 type  3   force =     0.00000000    4.84211614    3.42389315
     atom    6 type  3   force =     4.19339558    2.42105807   -3.42389315
     atom    7 type  3   force =    -0.00000000   -4.84211614   -3.42389315
     atom    8 type  3   force =     4.19339558   -2.42105807    3.42389315
     atom    9 type  3   force =    -4.19339558    2.42105807   -3.42389315
     atom   10 type  3   force =    -4.19339558   -2.42105807    3.42389315
     The local contribution  to forces
     atom    1 type  1   force =     0.00001382   -0.00001332    0.00000706
     atom    2 type  1   force =    -0.00002135    0.00002088   -0.00001510
     atom    3 type  2   force =    -0.00007149   -0.00019077    0.00000531
     atom    4 type  2   force =     0.00017247    0.00007918    0.00001284
     atom    5 type  3   force =     0.00000832   -4.53281828   -3.20520761
     atom    6 type  3   force =    -3.92551794   -2.26639799    3.20518089
     atom    7 type  3   force =    -0.00001306    4.53284763    3.20521691
     atom    8 type  3   force =    -3.92557660    2.26642930   -3.20521394
     atom    9 type  3   force =     3.92557341   -2.26643336    3.20520852
     atom   10 type  3   force =     3.92553402    2.26639232   -3.20518889
     The core correction contribution to forces
     atom    1 type  1   force =     0.00000073   -0.00000173    0.00000070
     atom    2 type  1   force =    -0.00000418   -0.00000006    0.00000084
     atom    3 type  2   force =     0.00000221   -0.00000097   -0.00000028
     atom    4 type  2   force =     0.00000425   -0.00000710    0.00000082
     atom    5 type  3   force =     0.00000000    0.00000000    0.00000000
     atom    6 type  3   force =     0.00000000    0.00000000    0.00000000
     atom    7 type  3   force =     0.00000000    0.00000000    0.00000000
     atom    8 type  3   force =     0.00000000    0.00000000    0.00000000
     atom    9 type  3   force =     0.00000000    0.00000000    0.00000000
     atom   10 type  3   force =     0.00000000    0.00000000    0.00000000
     The Hubbard contrib.    to forces
     atom    1 type  1   force =     0.00000000    0.00000000    0.00000000
     atom    2 type  1   force =     0.00000000    0.00000000    0.00000000
     atom    3 type  2   force =     0.00000000    0.00000000    0.00000000
     atom    4 type  2   force =     0.00000000    0.00000000    0.00000000
     atom    5 type  3   force =     0.00000000    0.00000000    0.00000000
     atom    6 type  3   force =     0.00000000    0.00000000    0.00000000
     atom    7 type  3   force =     0.00000000    0.00000000    0.00000000
     atom    8 type  3   force =     0.00000000    0.00000000    0.00000000
     atom    9 type  3   force =     0.00000000    0.00000000    0.00000000
     atom   10 type  3   force =     0.00000000    0.00000000    0.00000000
     The SCF correction term to forces
     atom    1 type  1   force =    -0.00000973    0.00000538   -0.00000939
     atom    2 type  1   force =     0.00000821   -0.00001546    0.00001541
     atom    3 type  2   force =     0.00008075    0.00022408    0.00000321
     atom    4 type  2   force =    -0.00018256   -0.00016046   -0.00000534
     atom    5 type  3   force =    -0.00001411   -0.00008315   -0.00002154
     atom    6 type  3   force =    -0.00004425   -0.00003577    0.00002027
     atom    7 type  3   force =     0.00001323    0.00002785    0.00000257
     atom    8 type  3   force =    -0.00000888    0.00000652   -0.00000313
     atom    9 type  3   force =     0.00000778    0.00000138    0.00001062
     atom   10 type  3   force =     0.00002168    0.00002152    0.00000819

     Total force =     0.053966     Total SCF correction =     0.000361

     Computing stress (Cartesian axis) and pressure

     negative rho (up, down):  1.134E-01 0.000E+00
          total   stress  (Ry/bohr**3)                   (kbar)     P=      -51.05
  -0.00034704   0.00000000   0.00000000          -51.05        0.00        0.00
   0.00000000  -0.00034704  -0.00000000            0.00      -51.05       -0.00
   0.00000000  -0.00000000  -0.00034709            0.00       -0.00      -51.06

     kinetic stress (kbar)   9783.23      0.00      0.00
                                0.00   9783.23      0.00
                                0.00      0.00   9783.23

     local   stress (kbar)  -6383.30      0.08     -0.11
                                0.08  -6383.41     -0.07
                               -0.11     -0.07  -6383.34

     nonloc. stress (kbar)   5871.28      0.00     -0.00
                                0.00   5871.28      0.00
                                0.00      0.00   5871.27

     hartree stress (kbar)   6290.72     -0.06      0.08
                               -0.06   6290.79      0.05
                                0.08      0.05   6290.75

     exc-cor stress (kbar)   9648.84      0.00     -0.00
                                0.00   9648.84     -0.00
                               -0.00     -0.00   9648.84

     corecor stress (kbar) -13577.48     -0.00      0.00
                               -0.00 -13577.48      0.00
                                0.00      0.00 -13577.48

     ewald   stress (kbar) -11684.32     -0.00     -0.00
                               -0.00 -11684.32      0.00
                               -0.00      0.00 -11684.32

     hubbard stress (kbar)      0.00      0.00      0.00
                                0.00      0.00      0.00
                                0.00      0.00      0.00

     DFT-D   stress (kbar)      0.00      0.00      0.00
                                0.00      0.00      0.00
                                0.00      0.00      0.00

     XDM     stress (kbar)      0.00      0.00      0.00
                                0.00      0.00      0.00
                                0.00      0.00      0.00

     dft-nl  stress (kbar)      0.00      0.00      0.00
                                0.00      0.00      0.00
                                0.00      0.00      0.00

     TS-vdW  stress (kbar)      0.00      0.00      0.00
                                0.00      0.00      0.00
                                0.00      0.00      0.00

[...]

                                0.00      0.00      0.00

     Writing all to output data dir new_calculations/myprefix.save/

     General routines

     Parallel routines

   This run was terminated on:   3:28: 7  21May2023

   JOB DONE.