     Program PWSCF v.7.0 starts on 21May2023 at  1:22:41

     Reading input from espresso_20344.pwi
Warning: card &CELL ignored
Warning: card / ignored

     Current dimensions of program PWSCF are:
     Max number of different atomic species (ntypx) = 10
     Max number of k-points (npk) =  40000
     Max angular momentum in pseudopotentials (lmaxx) =  4
     file K.pbe-spn-kjpaw_psl.1.0.0.UPF: wavefunction(s)  3S renormalized
     file O.pbe-n-kjpaw_psl.0.1.UPF: wavefunction(s)  2P renormalized

     gamma-point specific algorithms are used
     Message from routine setup:
     using ibrav=0 with symmetry is DISCOURAGED, use correct ibrav instead

     Subspace diagonalization in iterative solution of the eigenvalue problem:
     a serial algorithm will be used

     Using Slab Decomposition

     bravais-lattice index     =            0
     lattice parameter (alat)  =      11.6109  a.u.
     unit-cell volume          =    2167.6736 (a.u.)^3
     number of atoms/cell      =           16
     number of atomic types    =            3
     number of electrons       =       130.00
     number of Kohn-Sham states=           78
     kinetic-energy cutoff     =      30.0000  Ry
     charge density cutoff     =     240.0000  Ry
     scf convergence threshold =      1.0E-06
     mixing beta               =       0.7000
     number of iterations used =            8  plain     mixing
     Exchange-correlation= SLA  PW   PBX  PBC
                           (   1   4   3   4   0   0   0)

     celldm(1)=  11.610931  celldm(2)=   0.000000  celldm(3)=   0.000000
     celldm(4)=   0.000000  celldm(5)=   0.000000  celldm(6)=   0.000000

     crystal axes: (cart. coord. in units of alat)
               a(1) = (   1.000000   0.000000   0.000000 )
               a(2) = (   0.000000   1.384818   0.000000 )
               a(3) = (   0.000000   0.000000   1.000000 )

     reciprocal axes: (cart. coord. in units 2 pi/alat)
               b(1) = (  1.000000 -0.000000 -0.000000 )
               b(2) = (  0.000000  0.722116 -0.000000 )
               b(3) = (  0.000000  0.000000  1.000000 )

     PseudoPot. # 1 for K  read from file:
     /home/pragov/projects/rrg-bengioy-ad/pragov/crystal_structure_design/SSSP/K.pbe-spn-kjpaw_psl.1.0.0.UPF
     MD5 check sum: 7d58810084cac21f60fbe77ea2b688fd
     Pseudo is Projector augmented-wave + core cor, Zval =  9.0
     Generated using "atomic" code by A. Dal Corso  v.5.1
     Shape of augmentation charge: PSQ
     Using radial grid of 1165 points,  6 beta functions with:
                l(1) =   0
                l(2) =   0
                l(3) =   1
                l(4) =   1
                l(5) =   2
                l(6) =   2
     Q(r) pseudized with 0 coefficients

     PseudoPot. # 2 for Cr read from file:
     /home/pragov/projects/rrg-bengioy-ad/pragov/crystal_structure_design/SSSP/cr_pbe_v1.5.uspp.F.UPF
     MD5 check sum: 0d52af634a40206e4dee301ad30da4bf
     Pseudo is Ultrasoft + core correction, Zval = 14.0
     Generated by new atomic code, or converted to UPF format
     Using radial grid of  857 points,  6 beta functions with:
                l(1) =   0
                l(2) =   0
                l(3) =   1
                l(4) =   1
                l(5) =   2
                l(6) =   2
     Q(r) pseudized with  8 coefficients,  rinner =    0.950   0.950   0.950
                                                       0.950   0.950

     PseudoPot. # 3 for O  read from file:
     /home/pragov/projects/rrg-bengioy-ad/pragov/crystal_structure_design/SSSP/O.pbe-n-kjpaw_psl.0.1.UPF
     MD5 check sum: 0234752ac141de4415c5fc33072bef88
     Pseudo is Projector augmented-wave + core cor, Zval =  6.0
     Generated using "atomic" code by A. Dal Corso  v.5.0.99 svn rev. 10869
     Shape of augmentation charge: BESSEL
     Using radial grid of 1095 points,  4 beta functions with:
                l(1) =   0
                l(2) =   0
                l(3) =   1
                l(4) =   1
     Q(r) pseudized with 0 coefficients

     atomic species   valence    mass     pseudopotential
        K              9.00    39.09830     K ( 1.00)
        Cr            14.00    51.99610     Cr( 1.00)
        O              6.00    15.99900     O ( 1.00)

      8 Sym. Ops. (no inversion) found

                                    s                        frac. trans.

      isym =  1     identity

 cryst.   s( 1) = (     1          0          0      )
                  (     0          1          0      )
                  (     0          0          1      )

 cart.    s( 1) = (  1.0000000  0.0000000 -0.0000000 )
                  (  0.0000000  1.0000000 -0.0000000 )
                  (  0.0000000  0.0000000  1.0000000 )

      isym =  2     180 deg rotation - cart. axis [0,0,1]

[...]

      isym =  4     180 deg rotation - cart. axis [1,0,0]

[...]

      isym =  5     inv. 180 deg rotation - cart. axis [1,0,1]

[...]

      isym =  8     inv.  90 deg rotation - cart. axis [0,-1,0]

 cryst.   s( 8) = (     0          0         -1      )
                  (     0         -1          0      )
                  (     1          0          0      )

 cart.    s( 8) = ( -0.0000001 -0.0000002  1.0000000 )
                  ( -0.0000001 -1.0000000  0.0000001 )
                  ( -1.0000000  0.0000002  0.0000001 )

   Cartesian axes

     site n.     atom                  positions (alat units)
         1           K   tau(   1) = (   1.0000001   0.3462406   0.5000000  )
         2           K   tau(   2) = (   0.5000002   1.0385777   0.0000000  )
         3           K   tau(   3) = (   0.5000001   0.3462406   0.0000000  )
         4           K   tau(   4) = (   1.0000002   1.0385778   0.5000000  )
         5           K   tau(   5) = (   0.0000001   0.6924091   0.0000000  )
         6           K   tau(   6) = (   0.5000000   0.0000001   0.5000000  )
         7           Cr  tau(   7) = (   0.0000000   0.0000000   0.0000000  )
         8           Cr  tau(   8) = (   0.5000002   0.6924092   0.5000000  )
         9           O   tau(   9) = (   0.3311142   0.8425872   0.6688860  )
        10           O   tau(  10) = (   0.8311270   0.1501836   0.1688730  )
        11           O   tau(  11) = (   0.8311273   1.2346348   0.8311270  )
        12           O   tau(  12) = (   0.3311141   0.5422312   0.3311140  )
        13           O   tau(  13) = (   0.6688862   0.5422312   0.6688860  )
        14           O   tau(  14) = (   0.1688732   1.2346348   0.1688730  )
        15           O   tau(  15) = (   0.1688731   0.1501837   0.8311270  )
        16           O   tau(  16) = (   0.6688862   0.8425872   0.3311140  )

   Crystallographic axes

     site n.     atom                  positions (cryst. coord.)
         1           K   tau(   1) = (  1.0000000  0.2500260  0.5000000  )
         2           K   tau(   2) = (  0.5000000  0.7499740  0.0000000  )
         3           K   tau(   3) = (  0.5000000  0.2500260  0.0000000  )
         4           K   tau(   4) = (  1.0000000  0.7499740  0.5000000  )
         5           K   tau(   5) = (  0.0000000  0.5000000  0.0000000  )
         6           K   tau(   6) = (  0.5000000 -0.0000000  0.5000000  )
         7           Cr  tau(   7) = (  0.0000000  0.0000000  0.0000000  )
         8           Cr  tau(   8) = (  0.5000000  0.5000000  0.5000000  )
         9           O   tau(   9) = (  0.3311140  0.6084460  0.6688860  )
        10           O   tau(  10) = (  0.8311270  0.1084500  0.1688730  )
        11           O   tau(  11) = (  0.8311270  0.8915500  0.8311270  )
        12           O   tau(  12) = (  0.3311140  0.3915540  0.3311140  )
        13           O   tau(  13) = (  0.6688860  0.3915540  0.6688860  )
        14           O   tau(  14) = (  0.1688730  0.8915500  0.1688730  )
        15           O   tau(  15) = (  0.1688730  0.1084500  0.8311270  )
        16           O   tau(  16) = (  0.6688860  0.6084460  0.3311140  )

     number of k points=     1  Methfessel-Paxton smearing, width (Ry)=  0.0010
                       cart. coord. in units 2pi/alat
        k(    1) = (   0.0000000   0.0000000   0.0000000), wk =   2.0000000

                       cryst. coord.
        k(    1) = (   0.0000000   0.0000000   0.0000000), wk =   2.0000000

     Check: negative core charge=   -0.000012

     Initial potential from superposition of free atoms

     starting charge     127.8870, renormalised to     130.0000

     negative rho (up, down):  4.857E-03 0.000E+00
     Starting wfcs are  100 randomized atomic wfcs
     Checking if some PAW data can be deallocated...

     Self-consistent Calculation

     iteration #  1     ecut=    30.00 Ry     beta= 0.70
     Davidson diagonalization with overlap

     ethr =  1.00E-02,  avg # of iterations =  4.0

     negative rho (up, down):  6.945E-03 0.000E+00

     total energy              =   -1360.65983225 Ry
     estimated scf accuracy    <       3.96852863 Ry

[...]

     total energy              =   -1362.77829617 Ry
     estimated scf accuracy    <       0.00000112 Ry

     iteration # 27     ecut=    30.00 Ry     beta= 0.70
     Davidson diagonalization with overlap

     ethr =  8.58E-10,  avg # of iterations =  1.0

[...]

     End of self-consistent calculation

          k = 0.0000 0.0000 0.0000 (  3009 PWs)   bands (ev):

   -67.7164 -67.7157 -39.2465 -39.2465 -39.2424 -39.2424 -38.7467 -38.7452
   -25.9533 -25.9523 -24.5140 -24.5086 -24.4997 -24.4944 -12.9122 -12.8587
   -12.5337 -12.5337 -12.5152 -12.5152 -12.4767 -12.4303  -9.4728  -9.4571
    -9.4229  -9.4229  -9.4088  -9.4088  -8.1840  -8.0693  -8.0529  -8.0529
    -8.0487  -8.0433  -8.0433  -7.9778  -7.9124  -7.9124  -7.8973  -7.8973
     0.3138   0.5183   0.5288   0.7208   0.7587   0.7587   0.7715   0.7715
     0.8493   0.8537   1.0350   1.2330   1.7702   1.9670   1.9670   1.9855
     2.0290   2.0290   2.9736   3.0631   3.0631   3.0660   3.0660   3.1411
     6.1190   6.1324   6.2877   6.3150   7.0958   7.4966   7.4966   7.6194
     7.6382   7.6382   7.7941   9.5820   9.7889   9.8611

     occupation numbers
     1.0000   1.0000   1.0000   1.0000   1.0000   1.0000   1.0000   1.0000
     1.0000   1.0000   1.0000   1.0000   1.0000   1.0000   1.0000   1.0000
     1.0000   1.0000   1.0000   1.0000   1.0000   1.0000   1.0000   1.0000
     1.0000   1.0000   1.0000   1.0000   1.0000   1.0000   1.0000   1.0000
     1.0000   1.0000   1.0000   1.0000   1.0000   1.0000   1.0000   1.0000
     1.0000   1.0000   1.0000   1.0000   1.0000   1.0000   1.0000   1.0000
     1.0000   1.0000   1.0000   1.0000   1.0000   1.0000   1.0000   1.0000
     1.0000   1.0000   1.0000   1.0000   1.0000   1.0000   1.0000   1.0000
     0.8656   0.1344  -0.0000  -0.0000  -0.0000  -0.0000  -0.0000  -0.0000
    -0.0000  -0.0000  -0.0000  -0.0000  -0.0000  -0.0000

     the Fermi energy is     6.1257 ev

!    total energy              =   -1362.77829616 Ry
     estimated scf accuracy    <       0.00000020 Ry
     smearing contrib. (-TS)   =      -0.00022855 Ry
     internal energy E=F+TS    =   -1362.77806762 Ry

     The total energy is F=E-TS. E is the sum of the following terms:
     one-electron contribution =    -600.09905231 Ry
     hartree contribution      =     349.25810011 Ry
     xc contribution           =    -171.64495490 Ry
     ewald contribution        =    -531.55825053 Ry
     one-center paw contrib.   =    -408.73390999 Ry
      -> PAW hartree energy AE =     458.66221078 Ry
      -> PAW hartree energy PS =    -456.60826345 Ry
      -> PAW xc energy AE      =    -533.94536761 Ry
      -> PAW xc energy PS      =     123.15751028 Ry
      -> total E_H with PAW    =     351.31204744 Ry
      -> total E_XC with PAW   =    -582.43281223 Ry

     convergence has been achieved in  27 iterations

     negative rho (up, down):  5.963E-03 0.000E+00

     Forces acting on atoms (cartesian axes, Ry/au):

     atom    1 type  1   force =     0.00000000   -0.00002477    0.00000000
     atom    2 type  1   force =     0.00000000    0.00002477   -0.00000000
     atom    3 type  1   force =     0.00000000   -0.00002477    0.00000000
     atom    4 type  1   force =     0.00000000    0.00002477   -0.00000000
     atom    5 type  1   force =     0.00000000    0.00000000    0.00000000
     atom    6 type  1   force =     0.00000000    0.00000000    0.00000000
     atom    7 type  2   force =     0.00000000    0.00000000    0.00000000
     atom    8 type  2   force =     0.00000000    0.00000000    0.00000000
     atom    9 type  3   force =     0.01657492   -0.01802013   -0.01657492
     atom   10 type  3   force =     0.01654552   -0.01799226   -0.01654552
     atom   11 type  3   force =     0.01654552    0.01799226    0.01654552
     atom   12 type  3   force =     0.01657492    0.01802012    0.01657491
     atom   13 type  3   force =    -0.01657492    0.01802013   -0.01657492
     atom   14 type  3   force =    -0.01654552    0.01799226   -0.01654552
     atom   15 type  3   force =    -0.01654552   -0.01799226    0.01654552
     atom   16 type  3   force =    -0.01657492   -0.01802012    0.01657492
     The non-local contrib.  to forces
     atom    1 type  1   force =     0.00000000   -0.00000739    0.00000000
     atom    2 type  1   force =     0.00000000    0.00000739   -0.00000000
     atom    3 type  1   force =     0.00000000   -0.00000739    0.00000000
     atom    4 type  1   force =     0.00000000    0.00000739   -0.00000000
     atom    5 type  1   force =     0.00000000    0.00000000    0.00000000
     atom    6 type  1   force =     0.00000000    0.00000000    0.00000000
     atom    7 type  2   force =     0.00000000    0.00000000    0.00000000
     atom    8 type  2   force =     0.00000000    0.00000000    0.00000000
     atom    9 type  3   force =     0.48175842   -0.46193661   -0.48175838
     atom   10 type  3   force =     0.48179665   -0.46190947   -0.48179661
     atom   11 type  3   force =     0.48179665    0.46190929    0.48179653
     atom   12 type  3   force =     0.48175842    0.46193643    0.48175830
     atom   13 type  3   force =    -0.48175842    0.46193661   -0.48175843
     atom   14 type  3   force =    -0.48179665    0.46190947   -0.48179665
     atom   15 type  3   force =    -0.48179665   -0.46190929    0.48179674
     atom   16 type  3   force =    -0.48175842   -0.46193643    0.48175851
     The ionic contribution  to forces
     atom    1 type  1   force =     0.00000159   -0.00301671   -0.00000266
     atom    2 type  1   force =     0.00000159    0.00301481   -0.00000266
     atom    3 type  1   force =    -0.00000301   -0.00301569    0.00000072
     atom    4 type  1   force =    -0.00000301    0.00301583    0.00000072
     atom    5 type  1   force =    -0.00000034   -0.00000021   -0.00000047
     atom    6 type  1   force =    -0.00000034   -0.00000021   -0.00000047
     atom    7 type  2   force =    -0.00000455   -0.00000282   -0.00000620
     atom    8 type  2   force =    -0.00000455   -0.00000282   -0.00000620
     atom    9 type  3   force =    -7.90972840    6.59224489    7.90973238
     atom   10 type  3   force =    -7.91131024    6.59225909    7.91131423
     atom   11 type  3   force =    -7.91130968   -6.59225453   -7.91130809
     atom   12 type  3   force =    -7.90972783   -6.59224033   -7.90972625
     atom   13 type  3   force =     7.90973104   -6.59224269    7.90973237
     atom   14 type  3   force =     7.91131289   -6.59225690    7.91131422
     atom   15 type  3   force =     7.91131335    6.59225626   -7.91131176
     atom   16 type  3   force =     7.90973150    6.59224206   -7.90972991
     The local contribution  to forces
     atom    1 type  1   force =    -0.00001673    0.00296137    0.00003499
     atom    2 type  1   force =    -0.00000918   -0.00310343   -0.00000799
     atom    3 type  1   force =     0.00000427    0.00311629   -0.00003610
     atom    4 type  1   force =     0.00000666   -0.00294393    0.00000565
     atom    5 type  1   force =    -0.00001924   -0.00000827   -0.00002132
     atom    6 type  1   force =    -0.00000436    0.00000979    0.00000899
     atom    7 type  2   force =     0.00006206   -0.00001309    0.00000403
     atom    8 type  2   force =     0.00004528   -0.00004710    0.00003893
     atom    9 type  3   force =     7.44866190   -6.15254858   -7.44861612
     atom   10 type  3   force =     7.45019743   -6.15255772   -7.45016129
     atom   11 type  3   force =     7.45019023    6.15255167    7.45015379
     atom   12 type  3   force =     7.44865669    6.15253394    7.44860996
     atom   13 type  3   force =    -7.44865401    6.15253502   -7.44861362
     atom   14 type  3   force =    -7.45018815    6.15255143   -7.45015741
     atom   15 type  3   force =    -7.45019037   -6.15255341    7.45015655
     atom   16 type  3   force =    -7.44865804   -6.15254913    7.44861686
     The core correction contribution to forces
     atom    1 type  1   force =    -0.00000025   -0.00000096    0.00000025
     atom    2 type  1   force =     0.00000006   -0.00000041   -0.00000012
     atom    3 type  1   force =     0.00000014    0.00000039   -0.00000028
     atom    4 type  1   force =    -0.00000002    0.00000100    0.00000017
     atom    5 type  1   force =    -0.00000024   -0.00000009   -0.00000038
     atom    6 type  1   force =     0.00000002    0.00000014    0.00000015
     atom    7 type  2   force =     0.00000043   -0.00000010    0.00000018
     atom    8 type  2   force =     0.00000038   -0.00000026    0.00000012
     atom    9 type  3   force =    -0.00411447    0.00415181    0.00411370
     atom   10 type  3   force =    -0.00411404    0.00415057    0.00411373
     atom   11 type  3   force =    -0.00411411   -0.00415068   -0.00411373
     atom   12 type  3   force =    -0.00411450   -0.00415178   -0.00411377
     atom   13 type  3   force =     0.00411445   -0.00415181    0.00411372
     atom   14 type  3   force =     0.00411413   -0.00415072    0.00411372
     atom   15 type  3   force =     0.00411412    0.00415062   -0.00411373
     atom   16 type  3   force =     0.00411446    0.00415176   -0.00411372
     The Hubbard contrib.    to forces
     atom    1 type  1   force =     0.00000000    0.00000000    0.00000000
     atom    2 type  1   force =     0.00000000    0.00000000    0.00000000
     atom    3 type  1   force =     0.00000000    0.00000000    0.00000000
     atom    4 type  1   force =     0.00000000    0.00000000    0.00000000
     atom    5 type  1   force =     0.00000000    0.00000000    0.00000000
     atom    6 type  1   force =     0.00000000    0.00000000    0.00000000
     atom    7 type  2   force =     0.00000000    0.00000000    0.00000000
     atom    8 type  2   force =     0.00000000    0.00000000    0.00000000
     atom    9 type  3   force =     0.00000000    0.00000000    0.00000000
     atom   10 type  3   force =     0.00000000    0.00000000    0.00000000
     atom   11 type  3   force =     0.00000000    0.00000000    0.00000000
     atom   12 type  3   force =     0.00000000    0.00000000    0.00000000
     atom   13 type  3   force =     0.00000000    0.00000000    0.00000000
     atom   14 type  3   force =     0.00000000    0.00000000    0.00000000
     atom   15 type  3   force =     0.00000000    0.00000000    0.00000000
     atom   16 type  3   force =     0.00000000    0.00000000    0.00000000
     The SCF correction term to forces
     atom    1 type  1   force =     0.00001067    0.00001784   -0.00002627
     atom    2 type  1   force =     0.00000692    0.00008467    0.00000742
     atom    3 type  1   force =     0.00000028   -0.00009595    0.00002804
     atom    4 type  1   force =    -0.00000332   -0.00003244   -0.00000378
     atom    5 type  1   force =     0.00001376    0.00000606    0.00001704
     atom    6 type  1   force =     0.00000603   -0.00000732   -0.00000789
     atom    7 type  2   force =    -0.00005696    0.00001504    0.00000324
     atom    8 type  2   force =    -0.00004403    0.00004849   -0.00003048
     atom    9 type  3   force =    -0.00002447    0.00006729   -0.00007016
     atom   10 type  3   force =    -0.00002911    0.00006133   -0.00002882
     atom   11 type  3   force =    -0.00002919   -0.00006371    0.00002734
     atom   12 type  3   force =    -0.00002131   -0.00005814    0.00006741
     atom   13 type  3   force =     0.00001489   -0.00005864   -0.00006943
     atom   14 type  3   force =     0.00002365   -0.00006436   -0.00002707
     atom   15 type  3   force =     0.00002591    0.00006394    0.00002619
     atom   16 type  3   force =     0.00001578    0.00007106    0.00006674

     Total force =     0.083556     Total SCF correction =     0.000296

     Computing stress (Cartesian axis) and pressure

     negative rho (up, down):  5.963E-03 0.000E+00
          total   stress  (Ry/bohr**3)                   (kbar)     P=     -218.69
  -0.00146709   0.00000000   0.00000000         -215.82        0.00        0.00
   0.00000000  -0.00152563   0.00000000            0.00     -224.43        0.00
   0.00000000   0.00000000  -0.00146709            0.00        0.00     -215.82

     kinetic stress (kbar)  15814.45     -0.00     -0.00
                               -0.00  15930.20     -0.00
                               -0.00     -0.00  15814.45

     local   stress (kbar) -14119.79      0.01     -0.00
                                0.01  -9122.50      0.01
                               -0.00      0.01 -14120.45

     nonloc. stress (kbar)   4029.25     -0.00     -0.00
                               -0.00   4087.70     -0.00
                               -0.00     -0.00   4029.25

     hartree stress (kbar)   8560.76     -0.00      0.00
                               -0.00   6580.03     -0.01
                                0.00     -0.01   8560.96

     exc-cor stress (kbar)  -1865.10     -0.00     -0.00
                               -0.00  -1870.14      0.00
                               -0.00      0.00  -1865.10

     corecor stress (kbar)  -1674.97     -0.00      0.00
                               -0.00  -1676.87     -0.00
                                0.00     -0.00  -1674.98

     ewald   stress (kbar) -10960.18     -0.00     -0.00
                               -0.00 -14152.84     -0.00
                               -0.00     -0.00 -10960.18

     hubbard stress (kbar)      0.00      0.00      0.00
                                0.00      0.00      0.00
                                0.00      0.00      0.00

     DFT-D   stress (kbar)      0.00      0.00      0.00
                                0.00      0.00      0.00
                                0.00      0.00      0.00

     XDM     stress (kbar)      0.00      0.00      0.00
                                0.00      0.00      0.00
                                0.00      0.00      0.00

     dft-nl  stress (kbar)      0.00      0.00      0.00
                                0.00      0.00      0.00
                                0.00      0.00      0.00

     TS-vdW  stress (kbar)      0.00      0.00      0.00
                                0.00      0.00      0.00
                                0.00      0.00      0.00

[...]

                                0.00      0.00      0.00

     Writing all to output data dir new_calculations/myprefix.save/

     General routines

     Parallel routines

     PAW routines

   This run was terminated on:   1:25:14  21May2023

   JOB DONE.