     Program PWSCF v.7.0 starts on 20May2023 at 12:27:33

     Reading input from espresso_487.pwi
Warning: card &CELL ignored
Warning: card / ignored

     Current dimensions of program PWSCF are:
     Max number of different atomic species (ntypx) = 10
     Max number of k-points (npk) =  40000
     Max angular momentum in pseudopotentials (lmaxx) =  4

     gamma-point specific algorithms are used
     Message from routine setup:
     using ibrav=0 with symmetry is DISCOURAGED, use correct ibrav instead

     Subspace diagonalization in iterative solution of the eigenvalue problem:
     a serial algorithm will be used

     Using Slab Decomposition

     bravais-lattice index     =            0
     lattice parameter (alat)  =       9.6655  a.u.
     unit-cell volume          =     638.5052 (a.u.)^3
     number of atoms/cell      =            4
     number of atomic types    =            3
     number of electrons       =        67.00
     number of Kohn-Sham states=           41
     kinetic-energy cutoff     =      30.0000  Ry
     charge density cutoff     =     240.0000  Ry
     scf convergence threshold =      1.0E-06
     mixing beta               =       0.7000
     number of iterations used =            8  plain     mixing
     Exchange-correlation= SLA  PW   PBE  PBE
                           (   1   4   3   4   0   0   0)

     celldm(1)=   9.665548  celldm(2)=   0.000000  celldm(3)=   0.000000
     celldm(4)=   0.000000  celldm(5)=   0.000000  celldm(6)=   0.000000

     crystal axes: (cart. coord. in units of alat)
               a(1) = (   1.000000   0.000000   0.000000 )
               a(2) = (   0.500000   0.866025   0.000000 )
               a(3) = (   0.500000   0.288675   0.816497 )

     reciprocal axes: (cart. coord. in units 2 pi/alat)
               b(1) = (  1.000000 -0.577350 -0.408248 )
               b(2) = (  0.000000  1.154701 -0.408248 )
               b(3) = (  0.000000  0.000000  1.224745 )

     PseudoPot. # 1 for Sm read from file:
     /home/pragov/projects/rrg-bengioy-ad/pragov/crystal_structure_design/SSSP/Sm.GGA-PBE-paw-v1.0.UPF
     MD5 check sum: 886f70968969f895acf876f5617e0641
     Pseudo is Projector augmented-wave + core cor, Zval = 16.0
     Generated using ATOMPAW code
     Shape of augmentation charge: BESSEL
     Using radial grid of 1107 points,  8 beta functions with:
                l(1) =   0
                l(2) =   0
                l(3) =   1
                l(4) =   1
                l(5) =   2
                l(6) =   2
                l(7) =   3
                l(8) =   3
     Q(r) pseudized with 0 coefficients

     PseudoPot. # 2 for Y  read from file:
     /home/pragov/projects/rrg-bengioy-ad/pragov/crystal_structure_design/SSSP/Y_pbe_v1.uspp.F.UPF
     MD5 check sum: 2cf71db95cafeb975fc457bd7f14888e
     Pseudo is Ultrasoft + core correction, Zval = 11.0
     Generated by new atomic code, or converted to UPF format
     Using radial grid of  885 points,  6 beta functions with:
                l(1) =   0
                l(2) =   0
                l(3) =   1
                l(4) =   1
                l(5) =   2
                l(6) =   2
     Q(r) pseudized with  6 coefficients,  rinner =    1.200   1.200   1.200
                                                       1.200   1.200

     PseudoPot. # 3 for Zn read from file:
     /home/pragov/projects/rrg-bengioy-ad/pragov/crystal_structure_design/SSSP/Zn_pbe_v1.uspp.F.UPF
     MD5 check sum: df62231357ef9e81f77b2b3087fa5675
     Pseudo is Ultrasoft, Zval = 20.0
     Generated by new atomic code, or converted to UPF format
     Using radial grid of  943 points,  6 beta functions with:
                l(1) =   0
                l(2) =   0
                l(3) =   1
                l(4) =   1
                l(5) =   2
                l(6) =   2
     Q(r) pseudized with  8 coefficients,  rinner =    1.100   1.100   1.100
                                                       1.100   1.100

     atomic species   valence    mass     pseudopotential
        Sm            16.00   150.36000     Sm( 1.00)
        Y             11.00    88.90584     Y ( 1.00)
        Zn            20.00    65.38000     Zn( 1.00)

     12 Sym. Ops., with inversion, found

                                    s                        frac. trans.

      isym =  1     identity

 cryst.   s( 1) = (     1          0          0      )
                  (     0          1          0      )
                  (     0          0          1      )

 cart.    s( 1) = (  1.0000000  0.0000000  0.0000000 )
                  (  0.0000000  1.0000000  0.0000000 )
                  (  0.0000000  0.0000000  1.0000000 )

      isym =  2     180 deg rotation - cart. axis [1,0,0]

[...]

      isym =  3     120 deg rotation - cryst. axis [0,0,1]

[...]

      isym =  6     180 deg rotation - cryst. axis [1,1,0]

[...]

      isym =  7     inversion

[...]

      isym =  8     inv. 180 deg rotation - cart. axis [1,0,0]

[...]

      isym =  9     inv. 120 deg rotation - cryst. axis [0,0,1]

 cryst.   s( 9) = (     1         -1          0      )
                  (     1          0          0      )
                  (     1          0         -1      )

 cart.    s( 9) = (  0.5000000  0.8660254  0.0000000 )
                  ( -0.8660254  0.5000000  0.0000000 )
                  (  0.0000000  0.0000000 -1.0000000 )

[...]

 cryst.   s(10) = (     0          1          0      )
                  (    -1          1          0      )
                  (     0          1         -1      )

 cart.    s(10) = (  0.5000000 -0.8660254 -0.0000000 )
                  (  0.8660254  0.5000000  0.0000000 )
                  (  0.0000000  0.0000000 -1.0000000 )

[...]

      isym = 12     inv. 180 deg rotation - cryst. axis [1,1,0]

 cryst.   s(12) = (     1         -1          0      )
                  (     0         -1          0      )
                  (     0         -1          1      )

 cart.    s(12) = (  0.5000000 -0.8660254  0.0000000 )
                  ( -0.8660254 -0.5000000 -0.0000000 )
                  (  0.0000000  0.0000000  1.0000000 )

   Cartesian axes

     site n.     atom                  positions (alat units)
         1           Sm  tau(   1) = (   0.0000000   0.0000000   0.0000000  )
         2           Y   tau(   2) = (   1.0000000   0.5773503   0.4082483  )
         3           Zn  tau(   3) = (   1.5000000   0.8660254   0.6123724  )
         4           Zn  tau(   4) = (   0.5000000   0.2886751   0.2041241  )

   Crystallographic axes

     site n.     atom                  positions (cryst. coord.)
         1           Sm  tau(   1) = (  0.0000000  0.0000000  0.0000000  )
         2           Y   tau(   2) = (  0.5000000  0.5000000  0.5000000  )
         3           Zn  tau(   3) = (  0.7500000  0.7500000  0.7500000  )
         4           Zn  tau(   4) = (  0.2500000  0.2500000  0.2500000  )

     number of k points=     1  Methfessel-Paxton smearing, width (Ry)=  0.0010
                       cart. coord. in units 2pi/alat
        k(    1) = (   0.0000000   0.0000000   0.0000000), wk =   2.0000000

                       cryst. coord.
        k(    1) = (   0.0000000   0.0000000   0.0000000), wk =   2.0000000

     Check: negative core charge=   -0.000004

     Initial potential from superposition of free atoms

     starting charge      66.9897, renormalised to      67.0000

     negative rho (up, down):  4.370E-02 0.000E+00
     Starting wfcs are   71 randomized atomic wfcs
     Checking if some PAW data can be deallocated...

     Self-consistent Calculation

     iteration #  1     ecut=    30.00 Ry     beta= 0.70
     Davidson diagonalization with overlap

     ethr =  1.00E-02,  avg # of iterations =  2.0
     Minimization algorithm failed to find Fermi energy: reverting to bisection
     Possible cause: smearing is larger than the electronic band-gap.

     negative rho (up, down):  4.484E-02 0.000E+00

     total energy              =   -1579.64253454 Ry
     estimated scf accuracy    <      30.87321115 Ry

[...]

     ethr =  1.00E-02,  avg # of iterations =  6.0

[...]

     c_bands:  1 eigenvalues not converged
     ethr =  1.34E-06,  avg # of iterations = 20.0

[...]

     ethr =  3.40E-07,  avg # of iterations =  1.0
     Minimization algorithm failed to find Fermi energy: reverting to bisection
     Possible cause: smearing is larger than the electronic band-gap.

[...]

     total energy              =   -1614.77845435 Ry
     estimated scf accuracy    <       0.00001213 Ry

     iteration # 51     ecut=    30.00 Ry     beta= 0.70
     Davidson diagonalization with overlap

     ethr =  9.44E-09,  avg # of iterations =  1.0

[...]

     End of self-consistent calculation

          k = 0.0000 0.0000 0.0000 (   904 PWs)   bands (ev):

  -114.3758-114.3737 -68.4598 -68.4560 -68.4559 -68.4520 -68.4481 -68.4481
   -31.2491 -27.6353 -11.2528 -11.2413 -11.2412  -7.3866  -7.3865  -7.3568
     4.7344   4.7344   4.8345   4.8381   4.8381   4.8991   4.9028   4.9028
     5.0187   5.0187   5.0924   9.9632   9.9653   9.9653  10.7607  11.9030
    11.9030  11.9101  11.9488  11.9489  12.2138  12.2139  12.2631  12.4787
    16.2538

     occupation numbers
     1.0000   1.0000   1.0000   1.0000   1.0000   1.0000   1.0000   1.0000
     1.0000   1.0000   1.0000   1.0000   1.0000   1.0000   1.0000   1.0000
     1.0000   1.0000   1.0000   1.0000   1.0000   1.0000   1.0000   1.0000
     1.0000   1.0000   1.0000   1.0000   1.0000   1.0000   1.0000   0.9445
     0.9432   0.6131  -0.0004  -0.0004  -0.0000  -0.0000  -0.0000  -0.0000
    -0.0000

     the Fermi energy is    11.9119 ev

!    total energy              =   -1614.77845395 Ry
     estimated scf accuracy    <       0.00000047 Ry
     smearing contrib. (-TS)   =      -0.00031238 Ry
     internal energy E=F+TS    =   -1614.77814157 Ry

     The total energy is F=E-TS. E is the sum of the following terms:
     one-electron contribution =    -914.55670850 Ry
     hartree contribution      =     486.93143783 Ry
     xc contribution           =    -124.20997414 Ry
     ewald contribution        =    -613.34738530 Ry
     one-center paw contrib.   =    -449.59551147 Ry
      -> PAW hartree energy AE =     130.17575778 Ry
      -> PAW hartree energy PS =    -127.05601531 Ry
      -> PAW xc energy AE      =    -469.73813416 Ry
      -> PAW xc energy PS      =      17.02288022 Ry
      -> total E_H with PAW    =     490.05118031 Ry
      -> total E_XC with PAW   =    -576.92522808 Ry

     convergence has been achieved in  51 iterations

     negative rho (up, down):  4.148E-02 0.000E+00

     Forces acting on atoms (cartesian axes, Ry/au):

     atom    1 type  1   force =     0.00000000    0.00000000    0.00000000
     atom    2 type  2   force =     0.00000000    0.00000000    0.00000000
     atom    3 type  3   force =     0.00000000    0.00000000   -0.00088543
     atom    4 type  3   force =     0.00000000    0.00000000    0.00088543
     The non-local contrib.  to forces
     atom    1 type  1   force =    -0.00000000   -0.00000000    0.00000000
     atom    2 type  2   force =    -0.00000000   -0.00000000    0.00000000
     atom    3 type  3   force =     0.00000000    0.00000000    0.00086665
     atom    4 type  3   force =     0.00000000    0.00000000   -0.00086665
     The ionic contribution  to forces
     atom    1 type  1   force =    -0.00000000   -0.00000000   -0.00000000
     atom    2 type  2   force =     0.00000000   -0.00000000   -0.00000000
     atom    3 type  3   force =     0.00000000    0.00000000   -0.00000000
     atom    4 type  3   force =     0.00000000    0.00000000    0.00000000
     The local contribution  to forces
     atom    1 type  1   force =     0.00065880    0.00074553   -0.00290050
     atom    2 type  2   force =    -0.00002643   -0.00003879    0.00007214
     atom    3 type  3   force =    -0.00006119   -0.00007355   -0.00180882
     atom    4 type  3   force =    -0.00008318   -0.00003792    0.00230878
     The core correction contribution to forces
     atom    1 type  1   force =     0.00000003    0.00000003   -0.00000012
     atom    2 type  2   force =     0.00000101    0.00000133   -0.00000738
     atom    3 type  3   force =     0.00000000    0.00000000    0.00000000
     atom    4 type  3   force =     0.00000000    0.00000000    0.00000000
     The Hubbard contrib.    to forces
     atom    1 type  1   force =     0.00000000    0.00000000    0.00000000
     atom    2 type  2   force =     0.00000000    0.00000000    0.00000000
     atom    3 type  3   force =     0.00000000    0.00000000    0.00000000
     atom    4 type  3   force =     0.00000000    0.00000000    0.00000000
     The SCF correction term to forces
     atom    1 type  1   force =    -0.00047692   -0.00050228    0.00188661
     atom    2 type  2   force =     0.00004205    0.00006203   -0.00013920
     atom    3 type  3   force =     0.00007829    0.00008435    0.00006098
     atom    4 type  3   force =     0.00010105    0.00006208   -0.00055244

     Total force =     0.001252     Total SCF correction =     0.002098
     SCF correction compared to forces is large: reduce conv_thr to get better values

     Computing stress (Cartesian axis) and pressure

     negative rho (up, down):  4.148E-02 0.000E+00
          total   stress  (Ry/bohr**3)                   (kbar)     P=     -370.89
  -0.00249046   0.00000000   0.00000000         -366.36        0.00        0.00
   0.00000000  -0.00249046  -0.00000000            0.00     -366.36       -0.00
  -0.00000000  -0.00000000  -0.00258293           -0.00       -0.00     -379.96

     kinetic stress (kbar)  18765.06     -0.00     -0.00
                               -0.00  18765.06      0.00
                               -0.00      0.00  18750.26

     local   stress (kbar)  -5797.10      0.19     -0.44
                                0.19  -5796.20      0.47
                               -0.44      0.47  -5785.20

     nonloc. stress (kbar)   4974.80      0.00      0.00
                                0.00   4974.80      0.00
                                0.00      0.00   4977.64

     hartree stress (kbar)  37399.23     -0.02      0.09
                               -0.02  37399.02     -0.08
                                0.09     -0.08  37385.78

     exc-cor stress (kbar)  -5777.93      0.00     -0.00
                                0.00  -5777.93     -0.00
                               -0.00     -0.00  -5777.84

     corecor stress (kbar)  -2827.77     -0.00      0.00
                               -0.00  -2827.77      0.00
                                0.00      0.00  -2827.61

     ewald   stress (kbar) -47102.99      0.00      0.00
                                0.00 -47102.99      0.00
                                0.00      0.00 -47102.99

     hubbard stress (kbar)      0.00      0.00      0.00
                                0.00      0.00      0.00
                                0.00      0.00      0.00

     DFT-D   stress (kbar)      0.00      0.00      0.00
                                0.00      0.00      0.00
                                0.00      0.00      0.00

     XDM     stress (kbar)      0.00      0.00      0.00
                                0.00      0.00      0.00
                                0.00      0.00      0.00

     dft-nl  stress (kbar)      0.00      0.00      0.00
                                0.00      0.00      0.00
                                0.00      0.00      0.00

     TS-vdW  stress (kbar)      0.00      0.00      0.00
                                0.00      0.00      0.00
                                0.00      0.00      0.00

[...]

                                0.00      0.00      0.00

     Writing all to output data dir new_calculations/myprefix.save/

     General routines

     Parallel routines

     PAW routines

   This run was terminated on:  12:28:25  20May2023

   JOB DONE.