     Program PWSCF v.7.0 starts on 21May2023 at  0: 8:37

     Reading input from espresso_3864.pwi
Warning: card &CELL ignored
Warning: card / ignored

     Current dimensions of program PWSCF are:
     Max number of different atomic species (ntypx) = 10
     Max number of k-points (npk) =  40000
     Max angular momentum in pseudopotentials (lmaxx) =  4
     file O.pbe-n-kjpaw_psl.0.1.UPF: wavefunction(s)  2P renormalized

     gamma-point specific algorithms are used

     Subspace diagonalization in iterative solution of the eigenvalue problem:
     a serial algorithm will be used

     Using Slab Decomposition

     bravais-lattice index     =            0
     lattice parameter (alat)  =      11.1504  a.u.
     unit-cell volume          =    1002.3559 (a.u.)^3
     number of atoms/cell      =           14
     number of atomic types    =            4
     number of electrons       =       111.00
     number of Kohn-Sham states=           67
     kinetic-energy cutoff     =      30.0000  Ry
     charge density cutoff     =     240.0000  Ry
     scf convergence threshold =      1.0E-06
     mixing beta               =       0.7000
     number of iterations used =            8  plain     mixing
     Exchange-correlation= SLA  PW   PBX  PBC
                           (   1   4   3   4   0   0   0)

     celldm(1)=  11.150375  celldm(2)=   0.000000  celldm(3)=   0.000000
     celldm(4)=   0.000000  celldm(5)=   0.000000  celldm(6)=   0.000000

     crystal axes: (cart. coord. in units of alat)
               a(1) = (   1.000000   0.000000   0.000000 )
               a(2) = (  -0.499130   0.883951   0.000000 )
               a(3) = (  -0.498996   0.282738   0.817948 )

     reciprocal axes: (cart. coord. in units 2 pi/alat)
               b(1) = (  1.000000  0.564659  0.414875 )
               b(2) = (  0.000000  1.131285 -0.391049 )
               b(3) = (  0.000000  0.000000  1.222572 )

     PseudoPot. # 1 for Li read from file:
     /home/pragov/projects/rrg-bengioy-ad/pragov/crystal_structure_design/SSSP/li_pbe_v1.4.uspp.F.UPF
     MD5 check sum: e912e257baa3777c20ea3d68f190483c
     Pseudo is Ultrasoft, Zval =  3.0
     Generated by new atomic code, or converted to UPF format
     Using radial grid of  751 points,  5 beta functions with:
                l(1) =   0
                l(2) =   0
                l(3) =   0
                l(4) =   1
                l(5) =   1
     Q(r) pseudized with 10 coefficients,  rinner =    1.150   1.150   1.150

     PseudoPot. # 2 for Mn read from file:
     /home/pragov/projects/rrg-bengioy-ad/pragov/crystal_structure_design/SSSP/mn_pbe_v1.5.uspp.F.UPF
     MD5 check sum: 82ef2b46521d7a7d9e736dc3972e4928
     Pseudo is Ultrasoft + core correction, Zval = 15.0
     Generated by new atomic code, or converted to UPF format
     Using radial grid of  859 points,  6 beta functions with:
                l(1) =   0
                l(2) =   0
                l(3) =   1
                l(4) =   1
                l(5) =   2
                l(6) =   2
     Q(r) pseudized with  8 coefficients,  rinner =    0.950   0.950   0.950
                                                       0.950   0.950

     PseudoPot. # 3 for Cr read from file:
     /home/pragov/projects/rrg-bengioy-ad/pragov/crystal_structure_design/SSSP/cr_pbe_v1.5.uspp.F.UPF
     MD5 check sum: 0d52af634a40206e4dee301ad30da4bf
     Pseudo is Ultrasoft + core correction, Zval = 14.0
     Generated by new atomic code, or converted to UPF format
     Using radial grid of  857 points,  6 beta functions with:
                l(1) =   0
                l(2) =   0
                l(3) =   1
                l(4) =   1
                l(5) =   2
                l(6) =   2
     Q(r) pseudized with  8 coefficients,  rinner =    0.950   0.950   0.950
                                                       0.950   0.950

     PseudoPot. # 4 for O  read from file:
     /home/pragov/projects/rrg-bengioy-ad/pragov/crystal_structure_design/SSSP/O.pbe-n-kjpaw_psl.0.1.UPF
     MD5 check sum: 0234752ac141de4415c5fc33072bef88
     Pseudo is Projector augmented-wave + core cor, Zval =  6.0
     Generated using "atomic" code by A. Dal Corso  v.5.0.99 svn rev. 10869
     Shape of augmentation charge: BESSEL
     Using radial grid of 1095 points,  4 beta functions with:
                l(1) =   0
                l(2) =   0
                l(3) =   1
                l(4) =   1
     Q(r) pseudized with 0 coefficients

     atomic species   valence    mass     pseudopotential
        Li             3.00     6.94000     Li( 1.00)
        Mn            15.00    54.93804     Mn( 1.00)
        Cr            14.00    51.99610     Cr( 1.00)
        O              6.00    15.99900     O ( 1.00)

     No symmetry found

                                    s                        frac. trans.

      isym =  1     identity

 cryst.   s( 1) = (     1          0          0      )
                  (     0          1          0      )
                  (     0          0          1      )

 cart.    s( 1) = (  1.0000000  0.0000000  0.0000000 )
                  (  0.0000000  1.0000000 -0.0000000 )
                  (  0.0000000  0.0000000  1.0000000 )

   Cartesian axes

     site n.     atom                  positions (alat units)
         1           Li  tau(   1) = (   0.5009152   0.5833524   0.4089738  )
         2           Li  tau(   2) = (   0.2514300   0.7247160   0.8179289  )
         3           Mn  tau(   3) = (   0.0018693   1.1666711   0.8179166  )
         4           Cr  tau(   4) = (   0.2505749   0.1414448   0.4089575  )
         5           Cr  tau(   5) = (  -0.7485441   1.0252032   0.4089894  )
         6           Cr  tau(   6) = (   0.4999041   0.0000348   0.0000417  )
         7           O   tau(   7) = (   0.0105189   0.9134816   0.6067421  )
         8           O   tau(   8) = (  -0.5095902   0.9041895   0.5966667  )
         9           O   tau(   9) = (   0.2608429   0.7716381   0.1964040  )
        10           O   tau(  10) = (  -0.2605768   0.7627171   0.1874376  )
        11           O   tau(  11) = (   0.2624367   0.4039461   0.6305223  )
        12           O   tau(  12) = (  -0.2589835   0.3950729   0.6215617  )
        13           O   tau(  13) = (   0.5114465   0.2625002   0.2212728  )
        14           O   tau(  14) = (  -0.0086280   0.2532255   0.2111941  )

   Crystallographic axes

     site n.     atom                  positions (cryst. coord.)
         1           Li  tau(   1) = (  0.9999830  0.5000090  0.5000000  )
         2           Li  tau(   2) = (  0.9999850  0.5000100  0.9999770  )
         3           Mn  tau(   3) = (  0.9999730  0.9999920  0.9999620  )
         4           Cr  tau(   4) = (  0.5001090  0.0000920  0.4999800  )
         5           Cr  tau(   5) = (  0.0000250  0.9998620  0.5000190  )
         6           Cr  tau(   6) = (  0.4999410  0.0000230  0.0000510  )
         7           O   tau(   7) = (  0.7780460  0.7961420  0.7417860  )
         8           O   tau(   8) = (  0.2485100  0.7895700  0.7294680  )
         9           O   tau(   9) = (  0.7780380  0.7961390  0.2401180  )
        10           O   tau(  10) = (  0.2478610  0.7895530  0.2291560  )
        11           O   tau(  11) = (  0.7521160  0.2104130  0.7708590  )
        12           O   tau(  12) = (  0.2219680  0.2038790  0.7599040  )
        13           O   tau(  13) = (  0.7514700  0.2104340  0.2705220  )
        14           O   tau(  14) = (  0.2219770  0.2038830  0.2582000  )

     number of k points=     1  Methfessel-Paxton smearing, width (Ry)=  0.0010
                       cart. coord. in units 2pi/alat
        k(    1) = (   0.0000000   0.0000000   0.0000000), wk =   2.0000000

                       cryst. coord.
        k(    1) = (   0.0000000   0.0000000   0.0000000), wk =   2.0000000

     Check: negative core charge=   -0.000022

     Initial potential from superposition of free atoms

     starting charge     106.5984, renormalised to     111.0000

     negative rho (up, down):  4.637E-03 0.000E+00
     Starting wfcs are   85 randomized atomic wfcs
     Checking if some PAW data can be deallocated...

     Self-consistent Calculation

     iteration #  1     ecut=    30.00 Ry     beta= 0.70
     Davidson diagonalization with overlap

     ethr =  1.00E-02,  avg # of iterations =  2.0

     negative rho (up, down):  5.163E-03 0.000E+00

     total energy              =   -1088.05640335 Ry
     estimated scf accuracy    <      17.04005879 Ry

[...]

     total energy              =   -1099.90246697 Ry
     estimated scf accuracy    <       0.00000224 Ry

     iteration # 31     ecut=    30.00 Ry     beta= 0.70
     Davidson diagonalization with overlap

     ethr =  2.02E-09,  avg # of iterations =  2.0

[...]

     End of self-consistent calculation

          k = 0.0000 0.0000 0.0000 (  1380 PWs)   bands (ev):

   -71.6252 -64.4405 -64.3397 -64.3295 -40.4555 -40.4330 -40.1496 -36.5868
   -36.5768 -35.9669 -35.9037 -35.8879 -35.8130 -35.7975 -35.7487 -35.5226
   -35.2071 -35.1903 -11.3278 -10.2460 -10.0464 -10.0323  -9.9977  -9.8873
    -9.8269  -9.5752   1.3703   1.5929   1.9156   2.1875   2.9404   3.0089
     3.0447   3.0916   3.1116   3.4969   3.7333   3.9413   4.1311   4.4809
     4.8620   4.9709   5.0853   5.0928   5.2301   5.3966   5.4789   6.2621
     6.3361   6.4838   7.6664   7.7219   7.7342   7.8581   8.0124   8.2653
     8.2682   8.4159   8.5320   8.7508   8.9411   9.1158  10.7703  10.8558
    10.8855  10.9483  11.1652

     occupation numbers
     1.0000   1.0000   1.0000   1.0000   1.0000   1.0000   1.0000   1.0000
     1.0000   1.0000   1.0000   1.0000   1.0000   1.0000   1.0000   1.0000
     1.0000   1.0000   1.0000   1.0000   1.0000   1.0000   1.0000   1.0000
     1.0000   1.0000   1.0000   1.0000   1.0000   1.0000   1.0000   1.0000
     1.0000   1.0000   1.0000   1.0000   1.0000   1.0000   1.0000   1.0000
     1.0000   1.0000   1.0000   1.0000   1.0000   1.0000   1.0000   1.0000
     1.0000   1.0000   1.0000   1.0000   1.0000   1.0000   1.0000   0.3257
     0.1743  -0.0000  -0.0000  -0.0000  -0.0000  -0.0000  -0.0000  -0.0000
    -0.0000  -0.0000  -0.0000

     the Fermi energy is     8.2624 ev

!    total energy              =   -1099.90246692 Ry
     estimated scf accuracy    <       0.00000018 Ry
     smearing contrib. (-TS)   =      -0.00039658 Ry
     internal energy E=F+TS    =   -1099.90207034 Ry

     The total energy is F=E-TS. E is the sum of the following terms:
     one-electron contribution =    -665.98715435 Ry
     hartree contribution      =     376.97816932 Ry
     xc contribution           =    -159.34038201 Ry
     ewald contribution        =    -575.36615360 Ry
     one-center paw contrib.   =     -76.18654969 Ry
      -> PAW hartree energy AE =     234.23985267 Ry
      -> PAW hartree energy PS =    -233.42149211 Ry
      -> PAW xc energy AE      =    -136.91016421 Ry
      -> PAW xc energy PS      =      59.90525395 Ry
      -> total E_H with PAW    =     377.79652988 Ry
      -> total E_XC with PAW   =    -236.34529226 Ry

     convergence has been achieved in  31 iterations

     negative rho (up, down):  4.763E-03 0.000E+00

     Forces acting on atoms (cartesian axes, Ry/au):

     atom    1 type  1   force =     0.00002916   -0.00001426    0.00000271
     atom    2 type  1   force =     0.00001192   -0.00002404    0.00003381
     atom    3 type  2   force =     0.00016143    0.00021751    0.00011064
     atom    4 type  3   force =    -0.00023755   -0.00006685   -0.00017923
     atom    5 type  3   force =    -0.00007962    0.00009416   -0.00004382
     atom    6 type  3   force =    -0.00042189    0.00007097   -0.00002341
     atom    7 type  4   force =    -0.01298618   -0.01821993   -0.00611766
     atom    8 type  4   force =     0.02074574   -0.00426871    0.01411411
     atom    9 type  4   force =    -0.01667049   -0.01619365   -0.00020527
     atom   10 type  4   force =     0.01963939   -0.00454784    0.01355807
     atom   11 type  4   force =    -0.01961356    0.00478025   -0.01361382
     atom   12 type  4   force =     0.01670304    0.01595178    0.00025457
     atom   13 type  4   force =    -0.02047647    0.00424087   -0.01398734
     atom   14 type  4   force =     0.01319507    0.01797974    0.00609663
     The non-local contrib.  to forces
     atom    1 type  1   force =    -0.00003958    0.00000347    0.00000084
     atom    2 type  1   force =    -0.00000820    0.00002834   -0.00002371
     atom    3 type  2   force =     0.00001080   -0.00013351   -0.00006987
     atom    4 type  3   force =     0.00004107   -0.00013200    0.00004671
     atom    5 type  3   force =    -0.00008180    0.00028876   -0.00014169
     atom    6 type  3   force =     0.00010860   -0.00003712    0.00003107
     atom    7 type  4   force =     0.09979413    0.94765023   -0.29587493
     atom    8 type  4   force =    -0.09078747    0.79210788   -0.32894147
     atom    9 type  4   force =     0.07600451    0.96108413   -0.25600737
     atom   10 type  4   force =    -0.06738874    0.81684425   -0.32420209
     atom   11 type  4   force =     0.06824441   -0.81624065    0.32299739
     atom   12 type  4   force =    -0.07549923   -0.96148140    0.25767680
     atom   13 type  4   force =     0.08883655   -0.79265634    0.32844878
     atom   14 type  4   force =    -0.09949161   -0.94789202    0.29617967
     The ionic contribution  to forces
     atom    1 type  1   force =     0.00201904   -0.00098610    0.00007902
     atom    2 type  1   force =     0.00021126   -0.00183872    0.00177624
     atom    3 type  2   force =    -0.00681992    0.00102890    0.00609928
     atom    4 type  3   force =    -0.01557900    0.00509704   -0.00006409
     atom    5 type  3   force =    -0.00776569   -0.00173634    0.00220826
     atom    6 type  3   force =     0.01872424   -0.00052102   -0.00917201
     atom    7 type  4   force =    -2.14580673  -17.51701549    3.96829365
     atom    8 type  4   force =     2.26750414  -14.54423867    6.40731642
     atom    9 type  4   force =    -2.78162726  -17.15666107    5.00194027
     atom   10 type  4   force =     2.85303492  -14.83069246    6.87651169
     atom   11 type  4   force =    -2.86379613   14.82826173   -6.86325688
     atom   12 type  4   force =     2.77776896   17.15399385   -5.02370271
     atom   13 type  4   force =    -2.23780828   14.55005486   -6.39830074
     atom   14 type  4   force =     2.13994046   17.51525348   -3.96972840
     The local contribution  to forces
     atom    1 type  1   force =    -0.00195642    0.00096525   -0.00007684
     atom    2 type  1   force =    -0.00019846    0.00178567   -0.00172493
     atom    3 type  2   force =     0.00689929   -0.00074085   -0.00600177
     atom    4 type  3   force =     0.01538024   -0.00499632   -0.00008578
     atom    5 type  3   force =     0.00771434    0.00152895   -0.00211669
     atom    6 type  3   force =    -0.01919206    0.00065584    0.00911793
     atom    7 type  4   force =     2.03364544   16.56073331   -3.68136197
     atom    8 type  4   force =    -2.15632760   13.75592534   -6.06711970
     atom    9 type  4   force =     2.68951771   16.18900369   -4.74925207
     atom   10 type  4   force =    -2.76635818   14.01777643   -6.54208444
     atom   11 type  4   force =     2.77630078  -14.01572419    6.52996940
     atom   12 type  4   force =    -2.68613394  -16.18618945    4.76938882
     atom   13 type  4   force =     2.12884846  -13.76122767    6.05873668
     atom   14 type  4   force =    -2.02787508  -16.55894974    3.68247044
     The core correction contribution to forces
     atom    1 type  1   force =     0.00000000    0.00000000    0.00000000
     atom    2 type  1   force =     0.00000000    0.00000000    0.00000000
     atom    3 type  2   force =     0.00000111    0.00000558    0.00001071
     atom    4 type  3   force =    -0.00001703   -0.00000868   -0.00000260
     atom    5 type  3   force =    -0.00001388    0.00000240    0.00000823
     atom    6 type  3   force =     0.00000381   -0.00000546   -0.00000623
     atom    7 type  4   force =    -0.00069495   -0.00959461    0.00304811
     atom    8 type  4   force =     0.00048245   -0.00807938    0.00308484
     atom    9 type  4   force =    -0.00056863   -0.00966437    0.00283407
     atom   10 type  4   force =     0.00038522   -0.00848062    0.00317274
     atom   11 type  4   force =    -0.00039253    0.00847227   -0.00316139
     atom   12 type  4   force =     0.00056391    0.00967264   -0.00284729
     atom   13 type  4   force =    -0.00046898    0.00808541   -0.00308311
     atom   14 type  4   force =     0.00069252    0.00959875   -0.00305117
     The Hubbard contrib.    to forces
     atom    1 type  1   force =     0.00000000    0.00000000    0.00000000
     atom    2 type  1   force =     0.00000000    0.00000000    0.00000000
     atom    3 type  2   force =     0.00000000    0.00000000    0.00000000
     atom    4 type  3   force =     0.00000000    0.00000000    0.00000000
     atom    5 type  3   force =     0.00000000    0.00000000    0.00000000
     atom    6 type  3   force =     0.00000000    0.00000000    0.00000000
     atom    7 type  4   force =     0.00000000    0.00000000    0.00000000
     atom    8 type  4   force =     0.00000000    0.00000000    0.00000000
     atom    9 type  4   force =     0.00000000    0.00000000    0.00000000
     atom   10 type  4   force =     0.00000000    0.00000000    0.00000000
     atom   11 type  4   force =     0.00000000    0.00000000    0.00000000
     atom   12 type  4   force =     0.00000000    0.00000000    0.00000000
     atom   13 type  4   force =     0.00000000    0.00000000    0.00000000
     atom   14 type  4   force =     0.00000000    0.00000000    0.00000000
     The SCF correction term to forces
     atom    1 type  1   force =     0.00000635    0.00000526    0.00000005
     atom    2 type  1   force =     0.00000754    0.00000282    0.00000656
     atom    3 type  2   force =     0.00007038    0.00005955    0.00007265
     atom    4 type  3   force =    -0.00006260   -0.00002474   -0.00007312
     atom    5 type  3   force =     0.00006764    0.00001254   -0.00000158
     atom    6 type  3   force =    -0.00006624   -0.00001911    0.00000620
     atom    7 type  4   force =     0.00007616    0.00000878   -0.00022218
     atom    8 type  4   force =    -0.00012554    0.00001827   -0.00022563
     atom    9 type  4   force =     0.00000340    0.00004612    0.00028017
     atom   10 type  4   force =    -0.00003360    0.00000672    0.00016053
     atom   11 type  4   force =     0.00003013    0.00001325   -0.00016197
     atom   12 type  4   force =     0.00000357   -0.00004170   -0.00026068
     atom   13 type  4   force =     0.00011602   -0.00001323    0.00021140
     atom   14 type  4   force =    -0.00007098   -0.00002858    0.00022644

     Total force =     0.067901     Total SCF correction =     0.000690

     Computing stress (Cartesian axis) and pressure

     negative rho (up, down):  4.763E-03 0.000E+00
          total   stress  (Ry/bohr**3)                   (kbar)     P=     -624.17
  -0.00484409  -0.00004414  -0.00003642         -712.59       -6.49       -5.36
  -0.00004414  -0.00328840  -0.00053492           -6.49     -483.74      -78.69
  -0.00003642  -0.00053492  -0.00459650           -5.36      -78.69     -676.17

     kinetic stress (kbar)  29057.45      9.34    -19.85
                                9.34  30105.63   -347.35
                              -19.85   -347.35  29192.70

     local   stress (kbar) -53003.62   1231.24    737.83
                             1231.24  34412.87 -30124.33
                              737.83 -30124.33 -44046.64

     nonloc. stress (kbar)   7798.93      8.96    -11.21
                                8.96   7885.65    -20.02
                              -11.21    -20.02   7812.38

     hartree stress (kbar)  32580.67   -523.06   -324.38
                             -523.06  -5881.81  13262.12
                             -324.38  13262.12  28626.21

     exc-cor stress (kbar)  -5167.01     -0.34     -0.15
                               -0.34  -5178.48      3.90
                               -0.15      3.90  -5168.01

     corecor stress (kbar)  -2151.04     -0.25      0.42
                               -0.25  -2156.19      1.44
                                0.42      1.44  -2151.84

     ewald   stress (kbar)  -9827.96   -732.38   -388.03
                             -732.38 -59671.42  17145.56
                             -388.03  17145.56 -14940.97

     hubbard stress (kbar)      0.00      0.00      0.00
                                0.00      0.00      0.00
                                0.00      0.00      0.00

     DFT-D   stress (kbar)      0.00      0.00      0.00
                                0.00      0.00      0.00
                                0.00      0.00      0.00

     XDM     stress (kbar)      0.00      0.00      0.00
                                0.00      0.00      0.00
                                0.00      0.00      0.00

     dft-nl  stress (kbar)      0.00      0.00      0.00
                                0.00      0.00      0.00
                                0.00      0.00      0.00

     TS-vdW  stress (kbar)      0.00      0.00      0.00
                                0.00      0.00      0.00
                                0.00      0.00      0.00

[...]

                                0.00      0.00      0.00

     Writing all to output data dir new_calculations/myprefix.save/

     General routines

     Parallel routines

     PAW routines

   This run was terminated on:   0: 9:29  21May2023

   JOB DONE.