     Program PWSCF v.7.0 starts on 20May2023 at  7:41:49

     Reading input from espresso_4232.pwi
Warning: card &CELL ignored
Warning: card / ignored

     Current dimensions of program PWSCF are:
     Max number of different atomic species (ntypx) = 10
     Max number of k-points (npk) =  40000
     Max angular momentum in pseudopotentials (lmaxx) =  4
     file C.pbe-n-kjpaw_psl.1.0.0.UPF: wavefunction(s)  2S 2P renormalized

     gamma-point specific algorithms are used
     Message from routine setup:
     using ibrav=0 with symmetry is DISCOURAGED, use correct ibrav instead

     Subspace diagonalization in iterative solution of the eigenvalue problem:
     a serial algorithm will be used

     Using Slab Decomposition

     bravais-lattice index     =            0
     lattice parameter (alat)  =       5.8477  a.u.
     unit-cell volume          =     708.5989 (a.u.)^3
     number of atoms/cell      =           10
     number of atomic types    =            2
     number of electrons       =        40.00
     number of Kohn-Sham states=           24
     kinetic-energy cutoff     =      30.0000  Ry
     charge density cutoff     =     240.0000  Ry
     scf convergence threshold =      1.0E-06
     mixing beta               =       0.7000
     number of iterations used =            8  plain     mixing
     Exchange-correlation= SLA  PW   PBX  PBC
                           (   1   4   3   4   0   0   0)

     celldm(1)=   5.847682  celldm(2)=   0.000000  celldm(3)=   0.000000
     celldm(4)=   0.000000  celldm(5)=   0.000000  celldm(6)=   0.000000

     crystal axes: (cart. coord. in units of alat)
               a(1) = (   1.000000   0.000000   0.000000 )
               a(2) = (  -0.500000   0.866025   0.000000 )
               a(3) = (   0.000000   0.000000   4.091840 )

     reciprocal axes: (cart. coord. in units 2 pi/alat)
               b(1) = (  1.000000  0.577350  0.000000 )
               b(2) = (  0.000000  1.154701  0.000000 )
               b(3) = (  0.000000  0.000000  0.244389 )

     PseudoPot. # 1 for Si read from file:
     /home/pragov/projects/rrg-bengioy-ad/pragov/crystal_structure_design/SSSP/Si.pbe-n-rrkjus_psl.1.0.0.UPF
     MD5 check sum: 0b0bb1205258b0d07b9f9672cf965d36
     Pseudo is Ultrasoft + core correction, Zval =  4.0
     Generated using "atomic" code by A. Dal Corso  v.5.1
     Using radial grid of 1141 points,  6 beta functions with:
                l(1) =   0
                l(2) =   0
                l(3) =   1
                l(4) =   1
                l(5) =   2
                l(6) =   2
     Q(r) pseudized with 0 coefficients

     PseudoPot. # 2 for C  read from file:
     /home/pragov/projects/rrg-bengioy-ad/pragov/crystal_structure_design/SSSP/C.pbe-n-kjpaw_psl.1.0.0.UPF
     MD5 check sum: 5d2aebdfa2cae82b50a7e79e9516da0f
     Pseudo is Projector augmented-wave + core cor, Zval =  4.0
     Generated using "atomic" code by A. Dal Corso  v.5.1
     Shape of augmentation charge: PSQ
     Using radial grid of 1073 points,  4 beta functions with:
                l(1) =   0
                l(2) =   0
                l(3) =   1
                l(4) =   1
     Q(r) pseudized with 0 coefficients

     atomic species   valence    mass     pseudopotential
        Si             4.00    28.08500     Si( 1.00)
        C              4.00    12.01100     C ( 1.00)

      6 Sym. Ops. (no inversion) found

                                    s                        frac. trans.

      isym =  1     identity

 cryst.   s( 1) = (     1          0          0      )
                  (     0          1          0      )
                  (     0          0          1      )

 cart.    s( 1) = (  1.0000000  0.0000000  0.0000000 )
                  (  0.0000000  1.0000000  0.0000000 )
                  (  0.0000000  0.0000000  1.0000000 )

      isym =  2     120 deg rotation - cryst. axis [0,0,1]

[...]

      isym =  3     120 deg rotation - cryst. axis [0,0,-1]

[...]

      isym =  4     inv. 180 deg rotation - cart. axis [1,0,0]

[...]

      isym =  5     inv. 180 deg rotation - cryst. axis [0,1,0]

[...]

      isym =  6     inv. 180 deg rotation - cryst. axis [1,1,0]

 cryst.   s( 6) = (     0         -1          0      )
                  (    -1          0          0      )
                  (     0          0          1      )

 cart.    s( 6) = (  0.5000000 -0.8660254  0.0000000 )
                  ( -0.8660254 -0.5000000  0.0000000 )
                  (  0.0000000  0.0000000  1.0000000 )

   Cartesian axes

     site n.     atom                  positions (alat units)
         1           Si  tau(   1) = (   0.0000000   0.0000000   1.6357498  )
         2           Si  tau(   2) = (   0.0000000   0.0000000   3.2736069  )
         3           Si  tau(   3) = (  -0.0000005   0.5773506   0.0002087  )
         4           Si  tau(   4) = (   0.5000005   0.2886748   0.8179956  )
         5           Si  tau(   5) = (  -0.0000005   0.5773506   2.4543592  )
         6           C   tau(   6) = (   0.0000000   0.0000000   3.8888028  )
         7           C   tau(   7) = (   0.5000005   0.2886748   1.4321358  )
         8           C   tau(   8) = (  -0.0000005   0.5773506   0.6142834  )
         9           C   tau(   9) = (   0.0000000   0.0000000   2.2497140  )
        10           C   tau(  10) = (  -0.0000005   0.5773506   3.0693832  )

   Crystallographic axes

     site n.     atom                  positions (cryst. coord.)
         1           Si  tau(   1) = (  0.0000000  0.0000000  0.3997590  )
         2           Si  tau(   2) = (  0.0000000  0.0000000  0.8000330  )
         3           Si  tau(   3) = (  0.3333330  0.6666670  0.0000510  )
         4           Si  tau(   4) = (  0.6666670  0.3333330  0.1999090  )
         5           Si  tau(   5) = (  0.3333330  0.6666670  0.5998180  )
         6           C   tau(   6) = (  0.0000000  0.0000000  0.9503800  )
         7           C   tau(   7) = (  0.6666670  0.3333330  0.3499980  )
         8           C   tau(   8) = (  0.3333330  0.6666670  0.1501240  )
         9           C   tau(   9) = (  0.0000000  0.0000000  0.5498050  )
        10           C   tau(  10) = (  0.3333330  0.6666670  0.7501230  )

     number of k points=     1  Methfessel-Paxton smearing, width (Ry)=  0.0010
                       cart. coord. in units 2pi/alat
        k(    1) = (   0.0000000   0.0000000   0.0000000), wk =   2.0000000

                       cryst. coord.
        k(    1) = (   0.0000000   0.0000000   0.0000000), wk =   2.0000000

     Check: negative core charge=   -0.000014

     Initial potential from superposition of free atoms

     starting charge      39.9970, renormalised to      40.0000
     Starting wfcs are   40 randomized atomic wfcs
     Checking if some PAW data can be deallocated...

     Self-consistent Calculation

     iteration #  1     ecut=    30.00 Ry     beta= 0.70
     Davidson diagonalization with overlap

     ethr =  1.00E-02,  avg # of iterations =  3.0

     total energy              =    -144.43922477 Ry
     estimated scf accuracy    <       4.73468602 Ry

[...]

     total energy              =    -146.11830499 Ry
     estimated scf accuracy    <       0.00000244 Ry

     iteration # 11     ecut=    30.00 Ry     beta= 0.70
     Davidson diagonalization with overlap

     ethr =  6.09E-09,  avg # of iterations =  2.0

     End of self-consistent calculation

          k = 0.0000 0.0000 0.0000 (   981 PWs)   bands (ev):

    -5.3961  -4.6124  -4.6007  -2.4550  -2.4212   2.3362   2.3692   6.9551
     6.9663   9.2725   9.2725   9.3817   9.3817   9.9894   9.9894  10.0265
    10.0266  10.3846  10.5799  10.5799  14.8730  15.2653  15.9060  16.0243

     occupation numbers
     1.0000   1.0000   1.0000   1.0000   1.0000   1.0000   1.0000   1.0000
     1.0000   1.0000   1.0000   1.0000   1.0000   1.0000   1.0000   1.0000
     1.0000   1.0000   1.0000   1.0000  -0.0000  -0.0000  -0.0000  -0.0000

     the Fermi energy is    10.7372 ev

!    total energy              =    -146.11830499 Ry
     estimated scf accuracy    <       0.00000039 Ry
     smearing contrib. (-TS)   =       0.00000000 Ry
     internal energy E=F+TS    =    -146.11830499 Ry

     The total energy is F=E-TS. E is the sum of the following terms:
     one-electron contribution =      29.82089740 Ry
     hartree contribution      =      14.47163296 Ry
     xc contribution           =     -55.65129928 Ry
     ewald contribution        =    -104.08000204 Ry
     one-center paw contrib.   =     -30.67953404 Ry
      -> PAW hartree energy AE =      48.12287845 Ry
      -> PAW hartree energy PS =     -48.08838685 Ry
      -> PAW xc energy AE      =     -53.40870609 Ry
      -> PAW xc energy PS      =      22.69468045 Ry
      -> total E_H with PAW    =      14.50612456 Ry
      -> total E_XC with PAW   =     -86.36532491 Ry

     convergence has been achieved in  11 iterations

     Forces acting on atoms (cartesian axes, Ry/au):

     atom    1 type  1   force =     0.00000000   -0.00000000   -0.07547882
     atom    2 type  1   force =    -0.00000000   -0.00000000   -0.07312356
     atom    3 type  1   force =     0.00000000    0.00000000   -0.07207498
     atom    4 type  1   force =     0.00000000    0.00000000   -0.07620627
     atom    5 type  1   force =     0.00000000    0.00000000   -0.07720589
     atom    6 type  2   force =     0.00000000    0.00000000    0.07818049
     atom    7 type  2   force =     0.00000000    0.00000000    0.07565782
     atom    8 type  2   force =     0.00000000    0.00000000    0.07613079
     atom    9 type  2   force =     0.00000000    0.00000000    0.07109070
     atom   10 type  2   force =     0.00000000    0.00000000    0.07302972
     The non-local contrib.  to forces
     atom    1 type  1   force =     0.00000000    0.00000000   -0.19983698
     atom    2 type  1   force =     0.00000000    0.00000000   -0.20408954
     atom    3 type  1   force =     0.00000000    0.00000000   -0.20498444
     atom    4 type  1   force =     0.00000000   -0.00000000   -0.19996910
     atom    5 type  1   force =     0.00000000    0.00000000   -0.19960090
     atom    6 type  2   force =     0.00000000    0.00000000    0.19883479
     atom    7 type  2   force =     0.00000000    0.00000000    0.17415800
     atom    8 type  2   force =     0.00000000    0.00000000    0.17295960
     atom    9 type  2   force =     0.00000000    0.00000000    0.17773219
     atom   10 type  2   force =     0.00000000    0.00000000    0.20403337
     The ionic contribution  to forces
     atom    1 type  1   force =     0.00000365   -0.00000211    0.03049163
     atom    2 type  1   force =    -0.00000385    0.00000222    0.04483513
     atom    3 type  1   force =     0.00000396   -0.00000229    0.02387307
     atom    4 type  1   force =    -0.00000775    0.00000448    0.01287369
     atom    5 type  1   force =     0.00000389   -0.00000224    0.04185213
     atom    6 type  2   force =    -0.00000384    0.00000222   -0.04800405
     atom    7 type  2   force =    -0.00000400    0.00000231    0.00121949
     atom    8 type  2   force =     0.00000775   -0.00000448   -0.01699836
     atom    9 type  2   force =    -0.00000365    0.00000211   -0.02494417
     atom   10 type  2   force =     0.00000385   -0.00000222   -0.06519856
     The local contribution  to forces
     atom    1 type  1   force =    -0.00000544    0.00000652    0.07529511
     atom    2 type  1   force =    -0.00000233   -0.00001436    0.06610110
     atom    3 type  1   force =    -0.00000578   -0.00000033    0.08897991
     atom    4 type  1   force =     0.00000831    0.00000516    0.09210903
     atom    5 type  1   force =     0.00000113    0.00000957    0.06159446
     atom    6 type  2   force =    -0.00001737   -0.00003312   -0.07074793
     atom    7 type  2   force =    -0.00003450   -0.00001748   -0.09722922
     atom    8 type  2   force =    -0.00003163   -0.00001982   -0.07763170
     atom    9 type  2   force =     0.00001807    0.00001904   -0.07935573
     atom   10 type  2   force =     0.00006244    0.00002771   -0.06375395
     The core correction contribution to forces
     atom    1 type  1   force =    -0.00000085    0.00000041    0.01892933
     atom    2 type  1   force =     0.00000076   -0.00000125    0.01952110
     atom    3 type  1   force =    -0.00000063   -0.00000051    0.01960152
     atom    4 type  1   force =     0.00000035    0.00000050    0.01889680
     atom    5 type  1   force =     0.00000046    0.00000097    0.01892472
     atom    6 type  2   force =    -0.00000026   -0.00000038   -0.00247860
     atom    7 type  2   force =    -0.00000040   -0.00000017   -0.00215151
     atom    8 type  2   force =    -0.00000011   -0.00000025   -0.00210027
     atom    9 type  2   force =     0.00000006    0.00000012   -0.00221725
     atom   10 type  2   force =     0.00000098    0.00000009   -0.00258754
     The Hubbard contrib.    to forces
     atom    1 type  1   force =     0.00000000    0.00000000    0.00000000
     atom    2 type  1   force =     0.00000000    0.00000000    0.00000000
     atom    3 type  1   force =     0.00000000    0.00000000    0.00000000
     atom    4 type  1   force =     0.00000000    0.00000000    0.00000000
     atom    5 type  1   force =     0.00000000    0.00000000    0.00000000
     atom    6 type  2   force =     0.00000000    0.00000000    0.00000000
     atom    7 type  2   force =     0.00000000    0.00000000    0.00000000
     atom    8 type  2   force =     0.00000000    0.00000000    0.00000000
     atom    9 type  2   force =     0.00000000    0.00000000    0.00000000
     atom   10 type  2   force =     0.00000000    0.00000000    0.00000000
     The SCF correction term to forces
     atom    1 type  1   force =    -0.00000158   -0.00000284   -0.00044527
     atom    2 type  1   force =     0.00000295    0.00000072    0.00042129
     atom    3 type  1   force =    -0.00000147    0.00000357    0.00036761
     atom    4 type  1   force =     0.00000165   -0.00000482   -0.00020404
     atom    5 type  1   force =    -0.00000122   -0.00000084   -0.00006366
     atom    6 type  2   force =     0.00001357    0.00000599    0.00048893
     atom    7 type  2   force =     0.00001903    0.00000730   -0.00042629
     atom    8 type  2   force =     0.00001229    0.00001625   -0.00018582
     atom    9 type  2   force =    -0.00000455   -0.00001390   -0.00021169
     atom   10 type  2   force =    -0.00003687   -0.00000520    0.00044906

     Total force =     0.236699     Total SCF correction =     0.001123

     Computing stress (Cartesian axis) and pressure

          total   stress  (Ry/bohr**3)                   (kbar)     P=      195.10
   0.00139008   0.00000000   0.00000000          204.49        0.00        0.00
   0.00000000   0.00139008   0.00000000            0.00      204.49        0.00
   0.00000000   0.00000000   0.00119867            0.00        0.00      176.33

     kinetic stress (kbar)   8815.32      0.00      0.00
                                0.00   8815.32      0.00
                                0.00      0.00   7674.66

     local   stress (kbar)  -1930.21      0.00      0.01
                                0.00  -1930.20      0.00
                                0.01      0.00   -841.57

     nonloc. stress (kbar)   1935.63      0.00     -0.00
                                0.00   1935.63     -0.00
                                0.00      0.00   1730.08

     hartree stress (kbar)    966.98     -0.00     -0.00
                               -0.00    966.98     -0.00
                               -0.00     -0.00   1070.34

     exc-cor stress (kbar)   2592.68     -0.00     -0.00
                               -0.00   2592.68     -0.00
                               -0.00     -0.00   2584.12

     corecor stress (kbar)  -4953.01      0.00      0.00
                                0.00  -4953.01      0.00
                                0.00      0.00  -4880.14

     ewald   stress (kbar)  -7222.92     -0.01     -0.00
                               -0.01  -7222.92      0.00
                               -0.00      0.00  -7161.16

     hubbard stress (kbar)      0.00      0.00      0.00
                                0.00      0.00      0.00
                                0.00      0.00      0.00

     DFT-D   stress (kbar)      0.00      0.00      0.00
                                0.00      0.00      0.00
                                0.00      0.00      0.00

     XDM     stress (kbar)      0.00      0.00      0.00
                                0.00      0.00      0.00
                                0.00      0.00      0.00

     dft-nl  stress (kbar)      0.00      0.00      0.00
                                0.00      0.00      0.00
                                0.00      0.00      0.00

     TS-vdW  stress (kbar)      0.00      0.00      0.00
                                0.00      0.00      0.00
                                0.00      0.00      0.00

[...]

                                0.00      0.00      0.00

     Writing all to output data dir new_calculations/myprefix.save/

     General routines

     Parallel routines

     PAW routines

   This run was terminated on:   7:41:57  20May2023

   JOB DONE.