     Program PWSCF v.7.0 starts on 21May2023 at  2:11:27

     Reading input from espresso_24302.pwi
Warning: card &CELL ignored
Warning: card / ignored

     Current dimensions of program PWSCF are:
     Max number of different atomic species (ntypx) = 10
     Max number of k-points (npk) =  40000
     Max angular momentum in pseudopotentials (lmaxx) =  4
     file Mg.pbe-n-kjpaw_psl.0.3.0.UPF: wavefunction(s)  3S renormalized

     gamma-point specific algorithms are used
     Message from routine setup:
     using ibrav=0 with symmetry is DISCOURAGED, use correct ibrav instead

     Subspace diagonalization in iterative solution of the eigenvalue problem:
     a serial algorithm will be used

     Using Slab Decomposition

     bravais-lattice index     =            0
     lattice parameter (alat)  =      13.3976  a.u.
     unit-cell volume          =    1710.4083 (a.u.)^3
     number of atoms/cell      =           14
     number of atomic types    =            3
     number of electrons       =       100.00
     number of Kohn-Sham states=           60
     kinetic-energy cutoff     =      30.0000  Ry
     charge density cutoff     =     240.0000  Ry
     scf convergence threshold =      1.0E-06
     mixing beta               =       0.7000
     number of iterations used =            8  plain     mixing
     Exchange-correlation=  SLA  PW   PBX  PBC
                           (   1   4   3   4   0   0   0)

     celldm(1)=  13.397592  celldm(2)=   0.000000  celldm(3)=   0.000000
     celldm(4)=   0.000000  celldm(5)=   0.000000  celldm(6)=   0.000000

     crystal axes: (cart. coord. in units of alat)
               a(1) = (   1.000000   0.000000   0.000000 )
               a(2) = (  -0.011884   0.999929   0.000000 )
               a(3) = (  -0.493771  -0.500248   0.711296 )

     reciprocal axes: (cart. coord. in units 2 pi/alat)
               b(1) = (  1.000000  0.011885  0.702543 )
               b(2) = (  0.000000  1.000071  0.703341 )
               b(3) = (  0.000000  0.000000  1.405885 )

     PseudoPot. # 1 for Mg read from file:
     /home/pragov/projects/rrg-bengioy-ad/pragov/crystal_structure_design/SSSP/Mg.pbe-n-kjpaw_psl.0.3.0.UPF
     MD5 check sum: 24ecedc7f3e3cbe212e682f4413594e4
     Pseudo is Projector augmented-wave + core cor, Zval =  2.0
     Generated using "atomic" code by A. Dal Corso  v.5.0.99 svn rev. 10869
     Shape of augmentation charge: PSQ
     Using radial grid of 1129 points,  4 beta functions with:
                l(1) =   0
                l(2) =   0
                l(3) =   1
                l(4) =   1
     Q(r) pseudized with 0 coefficients

     PseudoPot. # 2 for Ti read from file:
     /home/pragov/projects/rrg-bengioy-ad/pragov/crystal_structure_design/SSSP/ti_pbe_v1.4.uspp.F.UPF
     MD5 check sum: 88a00a6731bd790ddea75d31a80cb452
     Pseudo is Ultrasoft + core correction, Zval = 12.0
     Generated by new atomic code, or converted to UPF format
     Using radial grid of  851 points,  6 beta functions with:
                l(1) =   0
                l(2) =   0
                l(3) =   1
                l(4) =   1
                l(5) =   2
                l(6) =   2
     Q(r) pseudized with  6 coefficients,  rinner =    1.000   1.000   1.000
                                                       1.000   1.000

     PseudoPot. # 3 for S  read from file:
     /home/pragov/projects/rrg-bengioy-ad/pragov/crystal_structure_design/SSSP/s_pbe_v1.4.uspp.F.UPF
     MD5 check sum: 88d86576ff6df21479756cfb9bdac1df
     Pseudo is Ultrasoft + core correction, Zval =  6.0
     Generated by new atomic code, or converted to UPF format
     Using radial grid of  907 points,  6 beta functions with:
                l(1) =   0
                l(2) =   0
                l(3) =   1
                l(4) =   1
                l(5) =   2
                l(6) =   2
     Q(r) pseudized with  8 coefficients,  rinner =    1.300   1.300   1.300
                                                       1.300   1.300

     atomic species   valence    mass     pseudopotential
        Mg             2.00    24.30500     Mg( 1.00)
        Ti            12.00    47.86700     Ti( 1.00)
        S              6.00    32.06000     S ( 1.00)

      2 Sym. Ops., with inversion, found

                                    s                        frac. trans.

      isym =  1     identity

 cryst.   s( 1) = (     1          0          0      )
                  (     0          1          0      )
                  (     0          0          1      )

 cart.    s( 1) = (  1.0000000  0.0000000  0.0000000 )
                  (  0.0000000  1.0000000  0.0000000 )
                  (  0.0000000  0.0000000  1.0000000 )

      isym =  2     inversion

 cryst.   s( 2) = (    -1          0          0      )
                  (     0         -1          0      )
                  (     0          0         -1      )

 cart.    s( 2) = ( -1.0000000 -0.0000000 -0.0000000 )
                  (  0.0000000 -1.0000000 -0.0000000 )
                  (  0.0000000  0.0000000 -1.0000000 )

   Cartesian axes

     site n.     atom                  positions (alat units)
         1           Mg  tau(   1) = (   0.4940581   0.4999647   0.0000000  )
         2           Mg  tau(   2) = (   0.7471726   0.2498405   0.3556479  )
         3           Ti  tau(   3) = (  -0.0059419   0.4999647   0.0000000  )
         4           Ti  tau(   4) = (   0.2412307   0.7498051   0.3556479  )
         5           Ti  tau(   5) = (   0.7412307   0.7498051   0.3556479  )
         6           Ti  tau(   6) = (   0.0000000   0.0000000   0.0000000  )
         7           S   tau(   7) = (   0.7481478   0.7491499   0.0055794  )
         8           S   tau(   8) = (   0.2387127   0.7533102   0.0040544  )
         9           S   tau(   9) = (  -0.0066804   0.5068735   0.3500685  )
        10           S   tau(  10) = (   0.4908115   0.5021570   0.3597023  )
        11           S   tau(  11) = (   0.5010256  -0.0071926   0.3612273  )
        12           S   tau(  12) = (   0.2556325  -0.2536293   0.7072415  )
        13           S   tau(  13) = (   0.0035337  -0.0024761   0.3515935  )
        14           S   tau(  14) = (  -0.2538026  -0.2494690   0.7057164  )

   Crystallographic axes

     site n.     atom                  positions (cryst. coord.)
         1           Mg  tau(   1) = (  0.5000000  0.5000000  0.0000000  )
         2           Mg  tau(   2) = (  1.0000000  0.5000000  0.5000000  )
         3           Ti  tau(   3) = ( -0.0000000  0.5000000  0.0000000  )
         4           Ti  tau(   4) = (  0.5000000  1.0000000  0.5000000  )
         5           Ti  tau(   5) = (  1.0000000  1.0000000  0.5000000  )
         6           Ti  tau(   6) = (  0.0000000  0.0000000  0.0000000  )
         7           S   tau(   7) = (  0.7609710  0.7531270  0.0078440  )
         8           S   tau(   8) = (  0.2505140  0.7562150  0.0057000  )
         9           S   tau(   9) = (  0.2452820  0.7531270  0.4921560  )
        10           S   tau(  10) = (  0.7494860  0.7551860  0.5057000  )
        11           S   tau(  11) = (  0.7547180  0.2468730  0.5078440  )
        12           S   tau(  12) = (  0.7494860  0.2437850  0.9943000  )
        13           S   tau(  13) = (  0.2505140  0.2448140  0.4943000  )
        14           S   tau(  14) = (  0.2390290  0.2468730  0.9921560  )

     number of k points=     1  Methfessel-Paxton smearing, width (Ry)=  0.0010
                       cart. coord. in units 2pi/alat
        k(    1) = (   0.0000000   0.0000000   0.0000000), wk =   2.0000000

                       cryst. coord.
        k(    1) = (   0.0000000   0.0000000   0.0000000), wk =   2.0000000

     Check: negative core charge=   -0.000003

     Initial potential from superposition of free atoms

     starting charge      95.9977, renormalised to     100.0000

     negative rho (up, down):  4.305E-03 0.000E+00
     Starting wfcs are   80 randomized atomic wfcs
     Checking if some PAW data can be deallocated...

     Self-consistent Calculation

     iteration #  1     ecut=    30.00 Ry     beta= 0.70
     Davidson diagonalization with overlap

     ethr =  1.00E-02,  avg # of iterations =  3.0

     Threshold (ethr) on eigenvalues was too large:
     Diagonalizing with lowered threshold

     Davidson diagonalization with overlap

[...]

     negative rho (up, down):  3.821E-03 0.000E+00

     total energy              =    -737.62516363 Ry
     estimated scf accuracy    <       1.01553704 Ry

[...]

     total energy              =    -738.01805889 Ry
     estimated scf accuracy    <       0.00000448 Ry

     iteration # 16     ecut=    30.00 Ry     beta= 0.70
     Davidson diagonalization with overlap

     ethr =  4.48E-09,  avg # of iterations =  2.0

[...]

     End of self-consistent calculation

          k = 0.0000 0.0000 0.0000 (  2371 PWs)   bands (ev):

   -49.2030 -49.1993 -49.1276 -49.1256 -25.7984 -25.7517 -25.5966 -25.5682
   -25.3640 -25.3436 -25.3031 -25.2861 -25.2453 -25.2389 -25.2325 -25.2129
    -5.6100  -4.2651  -4.2437  -4.1479  -3.8452  -3.7131  -3.7010  -3.6692
     1.8632   2.0167   3.0102   3.0441   3.2423   3.3396   3.4496   5.1071
     5.1724   5.2717   5.3695   5.6710   5.8106   5.8124   5.8157   5.8422
     5.9129   6.0905   6.1983   6.2421   6.2900   7.6704   7.8031   7.8648
     7.9869   7.9935   8.0515   8.9507   8.9873   9.1043   9.7019   9.7970
     9.8092   9.8943   9.9561  10.0112

     occupation numbers
     1.0000   1.0000   1.0000   1.0000   1.0000   1.0000   1.0000   1.0000
     1.0000   1.0000   1.0000   1.0000   1.0000   1.0000   1.0000   1.0000
     1.0000   1.0000   1.0000   1.0000   1.0000   1.0000   1.0000   1.0000
     1.0000   1.0000   1.0000   1.0000   1.0000   1.0000   1.0000   1.0000
     1.0000   1.0000   1.0000   1.0000   1.0000   1.0000   1.0000   1.0000
     1.0000   1.0000   1.0000   1.0000   1.0000   1.0000   1.0000   1.0000
     1.0006   1.0048  -0.0054  -0.0000  -0.0000  -0.0000  -0.0000  -0.0000
    -0.0000  -0.0000  -0.0000  -0.0000

     the Fermi energy is     8.0228 ev

!    total energy              =    -738.01805888 Ry
     estimated scf accuracy    <       0.00000035 Ry
     smearing contrib. (-TS)   =       0.00005205 Ry
     internal energy E=F+TS    =    -738.01811093 Ry

     The total energy is F=E-TS. E is the sum of the following terms:
     one-electron contribution =    -309.08790662 Ry
     hartree contribution      =     191.15338425 Ry
     xc contribution           =    -143.82474623 Ry
     ewald contribution        =    -413.71064484 Ry
     one-center paw contrib.   =     -62.54819751 Ry
      -> PAW hartree energy AE =       1.32161534 Ry
      -> PAW hartree energy PS =      -1.31908402 Ry
      -> PAW xc energy AE      =     -65.03506023 Ry
      -> PAW xc energy PS      =       2.48433140 Ry
      -> total E_H with PAW    =     191.15591558 Ry
      -> total E_XC with PAW   =    -206.37547506 Ry

     convergence has been achieved in  16 iterations

     negative rho (up, down):  3.306E-03 0.000E+00

     Forces acting on atoms (cartesian axes, Ry/au):

     atom    1 type  1   force =     0.00000000    0.00000000    0.00000000
     atom    2 type  1   force =     0.00000000    0.00000000    0.00000000
     atom    3 type  2   force =     0.00000000    0.00000000    0.00000000
     atom    4 type  2   force =     0.00000000    0.00000000    0.00000000
     atom    5 type  2   force =     0.00000000    0.00000000    0.00000000
     atom    6 type  2   force =     0.00000000    0.00000000    0.00000000
     atom    7 type  3   force =     0.02885602   -0.00561700    0.02428935
     atom    8 type  3   force =    -0.02572445   -0.00252801    0.01631673
     atom    9 type  3   force =    -0.00610570    0.02835850   -0.02429497
     atom   10 type  3   force =     0.00224217    0.02537839    0.01652609
     atom   11 type  3   force =     0.00610570   -0.02835850    0.02429497
     atom   12 type  3   force =     0.02572445    0.00252801   -0.01631673
     atom   13 type  3   force =    -0.00224217   -0.02537839   -0.01652609
     atom   14 type  3   force =    -0.02885602    0.00561700   -0.02428935
     The non-local contrib.  to forces
     atom    1 type  1   force =     0.00000000    0.00000000    0.00000000
     atom    2 type  1   force =     0.00000000    0.00000000    0.00000000
     atom    3 type  2   force =     0.00000000    0.00000000    0.00000000
     atom    4 type  2   force =     0.00000000    0.00000000    0.00000000
     atom    5 type  2   force =     0.00000000    0.00000000    0.00000000
     atom    6 type  2   force =     0.00000000    0.00000000    0.00000000
     atom    7 type  3   force =     0.02170344   -0.05188031    0.05180313
     atom    8 type  3   force =    -0.03376899   -0.05100008   -0.01206208
     atom    9 type  3   force =    -0.05215535    0.02109248   -0.05185968
     atom   10 type  3   force =     0.05058553    0.03421044   -0.01197319
     atom   11 type  3   force =     0.05215535   -0.02109248    0.05185968
     atom   12 type  3   force =     0.03376899    0.05100008    0.01206208
     atom   13 type  3   force =    -0.05058553   -0.03421044    0.01197319
     atom   14 type  3   force =    -0.02170344    0.05188031   -0.05180313
     The ionic contribution  to forces
     atom    1 type  1   force =     0.00000000    0.00000000   -0.00000000
     atom    2 type  1   force =     0.00000000   -0.00000000   -0.00000000
     atom    3 type  2   force =     0.00000000   -0.00000000   -0.00000000
     atom    4 type  2   force =     0.00000000    0.00000000   -0.00000000
     atom    5 type  2   force =     0.00000000    0.00000000   -0.00000000
     atom    6 type  2   force =     0.00000000    0.00000000    0.00000000
     atom    7 type  3   force =    -6.87803689    0.39831140   -5.16937798
     atom    8 type  3   force =     6.79135845    0.63756600   -4.38497127
     atom    9 type  3   force =     0.48007974   -6.87281249    5.16935477
     atom   10 type  3   force =    -0.55686805   -6.79845175   -4.38499492
     atom   11 type  3   force =    -0.48007974    6.87281249   -5.16935477
     atom   12 type  3   force =    -6.79135845   -0.63756600    4.38497127
     atom   13 type  3   force =     0.55686804    6.79845175    4.38499492
     atom   14 type  3   force =     6.87803689   -0.39831140    5.16937798
     The local contribution  to forces
     atom    1 type  1   force =    -0.00000053    0.00000003   -0.00000051
     atom    2 type  1   force =    -0.00000073   -0.00000142    0.00000005
     atom    3 type  2   force =     0.00000414   -0.00001131   -0.00002738
     atom    4 type  2   force =     0.00001011    0.00002026   -0.00000299
     atom    5 type  2   force =    -0.00000854    0.00001778    0.00002054
     atom    6 type  2   force =     0.00001398    0.00002452   -0.00000192
     atom    7 type  3   force =     6.88615964   -0.35485202    5.14415258
     atom    8 type  3   force =    -6.78499163   -0.59179322    4.41237956
     atom    9 type  3   force =    -0.43672921    6.88064587   -5.14444558
     atom   10 type  3   force =     0.51111567    6.79093119    4.41276525
     atom   11 type  3   force =     0.43673182   -6.88063743    5.14444597
     atom   12 type  3   force =     6.78500082    0.59179091   -4.41237946
     atom   13 type  3   force =    -0.51111280   -6.79092060   -4.41275966
     atom   14 type  3   force =    -6.88616727    0.35485096   -5.14415239
     The core correction contribution to forces
     atom    1 type  1   force =     0.00000003    0.00000001    0.00000001
     atom    2 type  1   force =     0.00000002    0.00000005   -0.00000001
     atom    3 type  2   force =    -0.00000013    0.00000013   -0.00000042
     atom    4 type  2   force =    -0.00000008    0.00000068   -0.00000014
     atom    5 type  2   force =     0.00000017    0.00000045    0.00000005
     atom    6 type  2   force =    -0.00000047   -0.00000004    0.00000033
     atom    7 type  3   force =    -0.00074756    0.00279033   -0.00249121
     atom    8 type  3   force =     0.00146833    0.00267988    0.00085739
     atom    9 type  3   force =     0.00275325   -0.00078636    0.00250429
     atom   10 type  3   force =    -0.00262858   -0.00151465    0.00088002
     atom   11 type  3   force =    -0.00275358    0.00078630   -0.00250453
     atom   12 type  3   force =    -0.00146839   -0.00268046   -0.00085747
     atom   13 type  3   force =     0.00262869    0.00151508   -0.00088009
     atom   14 type  3   force =     0.00074748   -0.00279023    0.00249130
     The Hubbard contrib.    to forces
     atom    1 type  1   force =     0.00000000    0.00000000    0.00000000
     atom    2 type  1   force =     0.00000000    0.00000000    0.00000000
     atom    3 type  2   force =     0.00000000    0.00000000    0.00000000
     atom    4 type  2   force =     0.00000000    0.00000000    0.00000000
     atom    5 type  2   force =     0.00000000    0.00000000    0.00000000
     atom    6 type  2   force =     0.00000000    0.00000000    0.00000000
     atom    7 type  3   force =     0.00000000    0.00000000    0.00000000
     atom    8 type  3   force =     0.00000000    0.00000000    0.00000000
     atom    9 type  3   force =     0.00000000    0.00000000    0.00000000
     atom   10 type  3   force =     0.00000000    0.00000000    0.00000000
     atom   11 type  3   force =     0.00000000    0.00000000    0.00000000
     atom   12 type  3   force =     0.00000000    0.00000000    0.00000000
     atom   13 type  3   force =     0.00000000    0.00000000    0.00000000
     atom   14 type  3   force =     0.00000000    0.00000000    0.00000000
     The SCF correction term to forces
     atom    1 type  1   force =     0.00000084    0.00000037    0.00000056
     atom    2 type  1   force =     0.00000091    0.00000186   -0.00000006
     atom    3 type  2   force =    -0.00000525    0.00001545    0.00002724
     atom    4 type  2   force =    -0.00001140   -0.00002037    0.00000504
     atom    5 type  2   force =     0.00001072   -0.00001761   -0.00001821
     atom    6 type  2   force =    -0.00001399   -0.00002557    0.00000087
     atom    7 type  3   force =    -0.00022251    0.00001424    0.00020373
     atom    8 type  3   force =     0.00021019    0.00001824    0.00011293
     atom    9 type  3   force =    -0.00005345    0.00022238    0.00015084
     atom   10 type  3   force =     0.00003879    0.00020595   -0.00014999
     atom   11 type  3   force =     0.00005255   -0.00022400   -0.00015178
     atom   12 type  3   force =    -0.00021772   -0.00001769   -0.00011334
     atom   13 type  3   force =    -0.00003937   -0.00021140    0.00014662
     atom   14 type  3   force =     0.00023040   -0.00001199   -0.00020219

     Total force =     0.097391     Total SCF correction =     0.000769

     Computing stress (Cartesian axis) and pressure

     negative rho (up, down):  3.306E-03 0.000E+00
          total   stress  (Ry/bohr**3)                   (kbar)     P=       34.14
   0.00022744   0.00000149   0.00002979           33.46        0.22        4.38
   0.00000149   0.00023684  -0.00003450            0.22       34.84       -5.07
   0.00002979  -0.00003450   0.00023191            4.38       -5.07       34.11

     kinetic stress (kbar)   9489.97    -18.95     -5.82
                              -18.95   9490.45      5.26
                               -5.82      5.26   9511.05

     local   stress (kbar)  -5106.96     52.54    828.73
                               52.54  -5105.13   -819.31
                              828.73   -819.31  -5162.73

     nonloc. stress (kbar)   5177.13      1.69     -5.61
                                1.69   5176.74      5.66
                               -5.61      5.66   5175.47

     hartree stress (kbar)   5469.01    -32.55   -295.05
                              -32.55   5468.53    291.60
                             -295.05    291.60   5502.76

     exc-cor stress (kbar)    934.83     -0.15     -0.64
                               -0.15    934.81      0.64
                               -0.64      0.64    935.00

     corecor stress (kbar)  -4069.01     -0.09      0.54
                               -0.09  -4069.01     -0.53
                                0.54     -0.53  -4068.99

     ewald   stress (kbar) -11861.51     -2.29   -517.77
                               -2.29 -11861.56    511.61
                             -517.77    511.61 -11858.45

     hubbard stress (kbar)      0.00      0.00      0.00
                                0.00      0.00      0.00
                                0.00      0.00      0.00

     DFT-D   stress (kbar)      0.00      0.00      0.00
                                0.00      0.00      0.00
                                0.00      0.00      0.00

     XDM     stress (kbar)      0.00      0.00      0.00
                                0.00      0.00      0.00
                                0.00      0.00      0.00

     dft-nl  stress (kbar)      0.00      0.00      0.00
                                0.00      0.00      0.00
                                0.00      0.00      0.00

     TS-vdW  stress (kbar)      0.00      0.00      0.00
                                0.00      0.00      0.00
                                0.00      0.00      0.00

[...]

                                0.00      0.00      0.00

     Writing all to output data dir new_calculations/myprefix.save/

     General routines

     Parallel routines

     PAW routines

   This run was terminated on:   2:11:55  21May2023

   JOB DONE.