     Program PWSCF v.7.0 starts on 21May2023 at  1:29:52

     Reading input from espresso_19635.pwi
Warning: card &CELL ignored
Warning: card / ignored

     Current dimensions of program PWSCF are:
     Max number of different atomic species (ntypx) = 10
     Max number of k-points (npk) =  40000
     Max angular momentum in pseudopotentials (lmaxx) =  4

     gamma-point specific algorithms are used
     Message from routine setup:
     using ibrav=0 with symmetry is DISCOURAGED, use correct ibrav instead

     Subspace diagonalization in iterative solution of the eigenvalue problem:
     a serial algorithm will be used

     Using Slab Decomposition

     bravais-lattice index     =            0
     lattice parameter (alat)  =      16.2016  a.u.
     unit-cell volume          =     974.7064 (a.u.)^3
     number of atoms/cell      =            8
     number of atomic types    =            3
     number of electrons       =        74.00
     number of Kohn-Sham states=           44
     kinetic-energy cutoff     =      30.0000  Ry
     charge density cutoff     =     240.0000  Ry
     scf convergence threshold =      1.0E-06
     mixing beta               =       0.7000
     number of iterations used =            8  plain     mixing
     Exchange-correlation=  SLA  PW   PBX  PBC
                           (   1   4   3   4   0   0   0)

     celldm(1)=  16.201586  celldm(2)=   0.000000  celldm(3)=   0.000000
     celldm(4)=   0.000000  celldm(5)=   0.000000  celldm(6)=   0.000000

     crystal axes: (cart. coord. in units of alat)
               a(1) = (   1.000000   0.000000   0.000000 )
               a(2) = (  -0.877767   0.479087   0.000000 )
               a(3) = (   0.000000   0.000000   0.478395 )

     reciprocal axes: (cart. coord. in units 2 pi/alat)
               b(1) = (  1.000000  1.832166  0.000000 )
               b(2) = (  0.000000  2.087303  0.000000 )
               b(3) = (  0.000000  0.000000  2.090322 )

     PseudoPot. # 1 for La read from file:
     /home/pragov/projects/rrg-bengioy-ad/pragov/crystal_structure_design/SSSP/La.GGA-PBE-paw-v1.0.UPF
     MD5 check sum: 436541e95c1ad8901025bd0b0ed42ae2
     Pseudo is Projector augmented-wave + core cor, Zval = 11.0
     Generated using ATOMPAW code
     Shape of augmentation charge: BESSEL
     Using radial grid of 1101 points,  8 beta functions with:
                l(1) =   0
                l(2) =   0
                l(3) =   1
                l(4) =   1
                l(5) =   2
                l(6) =   2
                l(7) =   3
                l(8) =   3
     Q(r) pseudized with 0 coefficients

     PseudoPot. # 2 for Si read from file:
     /home/pragov/projects/rrg-bengioy-ad/pragov/crystal_structure_design/SSSP/Si.pbe-n-rrkjus_psl.1.0.0.UPF
     MD5 check sum: 0b0bb1205258b0d07b9f9672cf965d36
     Pseudo is Ultrasoft + core correction, Zval =  4.0
     Generated using "atomic" code by A. Dal Corso  v.5.1
     Using radial grid of 1141 points,  6 beta functions with:
                l(1) =   0
                l(2) =   0
                l(3) =   1
                l(4) =   1
                l(5) =   2
                l(6) =   2
     Q(r) pseudized with 0 coefficients

     PseudoPot. # 3 for Ni read from file:
     /home/pragov/projects/rrg-bengioy-ad/pragov/crystal_structure_design/SSSP/ni_pbe_v1.4.uspp.F.UPF
     MD5 check sum: 1ee80287db30b12d2bc1f57a5b5d6409
     Pseudo is Ultrasoft + core correction, Zval = 18.0
     Generated by new atomic code, or converted to UPF format
     Using radial grid of  865 points,  6 beta functions with:
                l(1) =   0
                l(2) =   0
                l(3) =   1
                l(4) =   1
                l(5) =   2
                l(6) =   2
     Q(r) pseudized with 10 coefficients,  rinner =    0.980   0.980   0.980
                                                       0.980   0.980

     atomic species   valence    mass     pseudopotential
        La            11.00   138.90547     La( 1.00)
        Si             4.00    28.08500     Si( 1.00)
        Ni            18.00    58.69340     Ni( 1.00)

      4 Sym. Ops., with inversion, found ( 2 have fractional translation)

                                    s                        frac. trans.

      isym =  1     identity

 cryst.   s( 1) = (     1          0          0      )
                  (     0          1          0      )
                  (     0          0          1      )

 cart.    s( 1) = (  1.0000000  0.0000000  0.0000000 )
                  (  0.0000000  1.0000000  0.0000000 )
                  (  0.0000000  0.0000000  1.0000000 )

      isym =  2     180 deg rotation - cart. axis [0,0,1]

 cryst.   s( 2) = (    -1          0          0      )    f =( -0.0000000 )
                  (     0         -1          0      )       ( -0.0000000 )
                  (     0          0          1      )       (  0.5000000 )

 cart.    s( 2) = ( -1.0000000 -0.0000000  0.0000000 )    f =( -0.0000000 )
                  (  0.0000000 -1.0000000  0.0000000 )       ( -0.0000000 )
                  (  0.0000000  0.0000000  1.0000000 )       (  0.2391975 )

      isym =  3     inversion

 cryst.   s( 3) = (    -1          0          0      )
                  (     0         -1          0      )
                  (     0          0         -1      )

 cart.    s( 3) = ( -1.0000000 -0.0000000  0.0000000 )
                  (  0.0000000 -1.0000000  0.0000000 )
                  (  0.0000000  0.0000000 -1.0000000 )

      isym =  4     inv. 180 deg rotation - cart. axis [0,0,1]

 cryst.   s( 4) = (     1          0          0      )    f =(  0.0000000 )
                  (     0          1          0      )       (  0.0000000 )
                  (     0          0         -1      )       (  0.5000000 )

 cart.    s( 4) = (  1.0000000  0.0000000  0.0000000 )    f =(  0.0000000 )
                  (  0.0000000  1.0000000  0.0000000 )       (  0.0000000 )
                  (  0.0000000  0.0000000 -1.0000000 )       (  0.2391975 )

   Cartesian axes

     site n.     atom                  positions (alat units)
         1           La  tau(   1) = (   0.7978602   0.0515733   0.3587963  )
         2           La  tau(   2) = (  -0.6756276   0.4275139   0.1195988  )
         3           Si  tau(   3) = (   0.1382100   0.2198742   0.3587963  )
         4           Si  tau(   4) = (  -0.0159773   0.2592130   0.1195988  )
         5           Si  tau(   5) = (  -0.4085865   0.3593820   0.3587963  )
         6           Si  tau(   6) = (   0.5308192   0.1197052   0.1195988  )
         7           Ni  tau(   7) = (   0.4030146   0.1523128   0.3587963  )
         8           Ni  tau(   8) = (  -0.2807819   0.3267743   0.1195988  )

   Crystallographic axes

     site n.     atom                  positions (cryst. coord.)
         1           La  tau(   1) = (  0.8923510  0.1076490  0.7500000  )
         2           La  tau(   2) = (  0.1076490  0.8923510  0.2500000  )
         3           Si  tau(   3) = (  0.5410560  0.4589440  0.7500000  )
         4           Si  tau(   4) = (  0.4589440  0.5410560  0.2500000  )
         5           Si  tau(   5) = (  0.2498610  0.7501390  0.7500000  )
         6           Si  tau(   6) = (  0.7501390  0.2498610  0.2500000  )
         7           Ni  tau(   7) = (  0.6820770  0.3179230  0.7500000  )
         8           Ni  tau(   8) = (  0.3179230  0.6820770  0.2500000  )

     number of k points=     1  Methfessel-Paxton smearing, width (Ry)=  0.0010
                       cart. coord. in units 2pi/alat
        k(    1) = (   0.0000000   0.0000000   0.0000000), wk =   2.0000000

                       cryst. coord.
        k(    1) = (   0.0000000   0.0000000   0.0000000), wk =   2.0000000

     Check: negative core charge=   -0.000002

     Initial potential from superposition of free atoms

     starting charge      69.9807, renormalised to      74.0000
     Starting wfcs are  106 randomized atomic wfcs
     Checking if some PAW data can be deallocated...

     Self-consistent Calculation

     iteration #  1     ecut=    30.00 Ry     beta= 0.70
     Davidson diagonalization with overlap

     ethr =  1.00E-02,  avg # of iterations =  6.0

     total energy              =   -1585.89948540 Ry
     estimated scf accuracy    <      83.14876103 Ry

[...]

     total energy              =   -1648.31641648 Ry
     estimated scf accuracy    <       0.00000238 Ry

     iteration # 39     ecut=    30.00 Ry     beta= 0.70
     Davidson diagonalization with overlap

     ethr =  3.21E-09,  avg # of iterations =  5.0

     End of self-consistent calculation

          k = 0.0000 0.0000 0.0000 (  1349 PWs)   bands (ev):

   -91.4294 -91.4278 -51.8639 -51.8587 -51.7903 -51.7879 -51.6552 -51.6473
   -19.5462 -19.5194  -3.8698  -3.3974  -3.2918  -3.2762  -3.2420  -3.1996
     1.6311   3.5707   5.6809   6.4566   7.9896   8.1329   8.3646   8.7262
     9.6564   9.7272  10.0254  10.0709  10.1072  10.3844  10.5007  10.8604
    11.1628  11.3648  11.4270  12.1274  12.3251  12.3359  13.9355  14.0939
    14.1794  14.2333  14.2814  14.5030

     occupation numbers
     1.0000   1.0000   1.0000   1.0000   1.0000   1.0000   1.0000   1.0000
     1.0000   1.0000   1.0000   1.0000   1.0000   1.0000   1.0000   1.0000
     1.0000   1.0000   1.0000   1.0000   1.0000   1.0000   1.0000   1.0000
     1.0000   1.0000   1.0000   1.0000   1.0000   1.0000   1.0000   1.0000
     1.0000   1.0000   1.0000   1.0000   0.8082   0.1918  -0.0000  -0.0000
    -0.0000  -0.0000  -0.0000  -0.0000

     the Fermi energy is    12.3305 ev

!    total energy              =   -1648.31641636 Ry
     estimated scf accuracy    <       0.00000047 Ry
     smearing contrib. (-TS)   =      -0.00033039 Ry
     internal energy E=F+TS    =   -1648.31608597 Ry

     The total energy is F=E-TS. E is the sum of the following terms:
     one-electron contribution =    -681.93398107 Ry
     hartree contribution      =     380.63858440 Ry
     xc contribution           =    -113.60713983 Ry
     ewald contribution        =    -437.22357505 Ry
     one-center paw contrib.   =    -796.18997442 Ry
      -> PAW hartree energy AE =      71.50834666 Ry
      -> PAW hartree energy PS =     -71.57796325 Ry
      -> PAW xc energy AE      =    -810.91816708 Ry
      -> PAW xc energy PS      =      14.79780925 Ry
      -> total E_H with PAW    =     380.56896781 Ry
      -> total E_XC with PAW   =    -909.72749766 Ry

     convergence has been achieved in  39 iterations

     Forces acting on atoms (cartesian axes, Ry/au):

     atom    1 type  1   force =    -0.01178418    0.00299817    0.00000000
     atom    2 type  1   force =     0.01178418   -0.00299817   -0.00000000
     atom    3 type  2   force =    -0.13430176    0.03426660    0.00000000
     atom    4 type  2   force =     0.13430176   -0.03426660    0.00000000
     atom    5 type  2   force =    -0.00492136    0.00125566    0.00000000
     atom    6 type  2   force =     0.00492136   -0.00125566    0.00000000
     atom    7 type  3   force =    -0.06230090    0.01585767    0.00000000
     atom    8 type  3   force =     0.06230090   -0.01585767    0.00000000
     The non-local contrib.  to forces
     atom    1 type  1   force =     0.08390133   -0.02141397    0.00000000
     atom    2 type  1   force =    -0.08390133    0.02141397    0.00000000
     atom    3 type  2   force =     0.00135695   -0.00035382    0.00000000
     atom    4 type  2   force =    -0.00135695    0.00035382   -0.00000000
     atom    5 type  2   force =     0.00983695   -0.00250986    0.00000000
     atom    6 type  2   force =    -0.00983695    0.00250986    0.00000000
     atom    7 type  3   force =    -0.05172428    0.01318775    0.00000000
     atom    8 type  3   force =     0.05172428   -0.01318775    0.00000000
     The ionic contribution  to forces
     atom    1 type  1   force =    18.52848007   -4.72729344   -0.00000000
     atom    2 type  1   force =   -18.52848007    4.72729344    0.00000000
     atom    3 type  2   force =    -5.71665959    1.45852910   -0.00000000
     atom    4 type  2   force =     5.71665959   -1.45852910    0.00000000
     atom    5 type  2   force =    -0.36193657    0.09234327   -0.00000000
     atom    6 type  2   force =     0.36193657   -0.09234327    0.00000000
     atom    7 type  3   force =   -20.03724274    5.11223402   -0.00000000
     atom    8 type  3   force =    20.03724274   -5.11223402   -0.00000000
     The local contribution  to forces
     atom    1 type  1   force =   -18.62340188    4.75148478   -0.00001346
     atom    2 type  1   force =    18.62301920   -4.75145243    0.00000922
     atom    3 type  2   force =     5.58097544   -1.42390523   -0.00001244
     atom    4 type  2   force =    -5.58123901    1.42396592    0.00000578
     atom    5 type  2   force =     0.34826336   -0.08886112   -0.00000737
     atom    6 type  2   force =    -0.34767112    0.08870883    0.00000728
     atom    7 type  3   force =    20.02543853   -5.10916362   -0.00005986
     atom    8 type  3   force =   -20.02465686    5.10902326    0.00004438
     The core correction contribution to forces
     atom    1 type  1   force =    -0.00010596    0.00002701   -0.00000001
     atom    2 type  1   force =     0.00010591   -0.00002706   -0.00000000
     atom    3 type  2   force =    -0.00027300    0.00007045   -0.00000071
     atom    4 type  2   force =     0.00027553   -0.00007128   -0.00000001
     atom    5 type  2   force =    -0.00078907    0.00020104   -0.00000050
     atom    6 type  2   force =     0.00079946   -0.00020398    0.00000029
     atom    7 type  3   force =     0.00045537   -0.00011554    0.00000010
     atom    8 type  3   force =    -0.00045587    0.00011660   -0.00000085
     The Hubbard contrib.    to forces
     atom    1 type  1   force =     0.00000000    0.00000000    0.00000000
     atom    2 type  1   force =     0.00000000    0.00000000    0.00000000
     atom    3 type  2   force =     0.00000000    0.00000000    0.00000000
     atom    4 type  2   force =     0.00000000    0.00000000    0.00000000
     atom    5 type  2   force =     0.00000000    0.00000000    0.00000000
     atom    6 type  2   force =     0.00000000    0.00000000    0.00000000
     atom    7 type  3   force =     0.00000000    0.00000000    0.00000000
     atom    8 type  3   force =     0.00000000    0.00000000    0.00000000
     The SCF correction term to forces
     atom    1 type  1   force =    -0.00070475    0.00017369    0.00000649
     atom    2 type  1   force =     0.00099346   -0.00024621   -0.00000764
     atom    3 type  2   force =     0.00031092   -0.00007622    0.00000892
     atom    4 type  2   force =    -0.00002491    0.00001172   -0.00000754
     atom    5 type  2   force =    -0.00022078    0.00006242   -0.00000021
     atom    6 type  2   force =    -0.00023136    0.00005298   -0.00000082
     atom    7 type  3   force =     0.00083219   -0.00031869    0.00011357
     atom    8 type  3   force =    -0.00149341    0.00039048   -0.00007507

     Total force =     0.216876     Total SCF correction =     0.002232

     Computing stress (Cartesian axis) and pressure

          total   stress  (Ry/bohr**3)                   (kbar)     P=     -256.86
  -0.00228054   0.00016168   0.00000000         -335.48       23.78        0.00
   0.00016168  -0.00168787   0.00000000           23.78     -248.29        0.00
   0.00000000   0.00000000  -0.00126997            0.00        0.00     -186.82

     kinetic stress (kbar)  14507.58      8.16      0.00
                                8.16  14537.46      0.00
                                0.00      0.00  14551.26

     local   stress (kbar)   5439.59  -8158.49     -0.00
                            -8158.49 -24455.73     -0.01
                               -0.00     -0.01 -27224.65

     nonloc. stress (kbar)   8301.11    -25.01      0.00
                              -25.01   8209.43      0.00
                                0.00      0.00   8259.01

     hartree stress (kbar)   8905.66   4027.38      0.00
                             4027.38  23663.30      0.00
                                0.00      0.00  24877.94

     exc-cor stress (kbar)  -2032.03     -1.26      0.00
                               -1.26  -2036.65     -0.00
                                0.00     -0.00  -2034.57

     corecor stress (kbar)  -2750.21      0.42     -0.00
                                0.42  -2748.69      0.00
                               -0.00      0.00  -2753.56

     ewald   stress (kbar) -32707.18   4172.59     -0.00
                             4172.59 -17417.42      0.00
                               -0.00      0.00 -15862.25

     hubbard stress (kbar)      0.00      0.00      0.00
                                0.00      0.00      0.00
                                0.00      0.00      0.00

     DFT-D   stress (kbar)      0.00      0.00      0.00
                                0.00      0.00      0.00
                                0.00      0.00      0.00

     XDM     stress (kbar)      0.00      0.00      0.00
                                0.00      0.00      0.00
                                0.00      0.00      0.00

     dft-nl  stress (kbar)      0.00      0.00      0.00
                                0.00      0.00      0.00
                                0.00      0.00      0.00

     TS-vdW  stress (kbar)      0.00      0.00      0.00
                                0.00      0.00      0.00
                                0.00      0.00      0.00

[...]

                                0.00      0.00      0.00

     Writing all to output data dir new_calculations/myprefix.save/

     General routines

     Parallel routines

     PAW routines

   This run was terminated on:   1:31:18  21May2023

   JOB DONE.