     Program PWSCF v.7.0 starts on 21May2023 at  1:27: 0

     Reading input from espresso_18737.pwi
Warning: card &CELL ignored
Warning: card / ignored

     Current dimensions of program PWSCF are:
     Max number of different atomic species (ntypx) = 10
     Max number of k-points (npk) =  40000
     Max angular momentum in pseudopotentials (lmaxx) =  4

     gamma-point specific algorithms are used
     Message from routine setup:
     using ibrav=0 with symmetry is DISCOURAGED, use correct ibrav instead

     Subspace diagonalization in iterative solution of the eigenvalue problem:
     a serial algorithm will be used

     Using Slab Decomposition

     bravais-lattice index     =            0
     lattice parameter (alat)  =      14.2289  a.u.
     unit-cell volume          =    2217.6620 (a.u.)^3
     number of atoms/cell      =            8
     number of atomic types    =            3
     number of electrons       =        64.00
     number of Kohn-Sham states=           38
     kinetic-energy cutoff     =      30.0000  Ry
     charge density cutoff     =     240.0000  Ry
     scf convergence threshold =      1.0E-06
     mixing beta               =       0.7000
     number of iterations used =            8  plain     mixing
     Exchange-correlation= SLA  PW   PBE  PBE
                           (   1   4   3   4   0   0   0)

     celldm(1)=  14.228936  celldm(2)=   0.000000  celldm(3)=   0.000000
     celldm(4)=   0.000000  celldm(5)=   0.000000  celldm(6)=   0.000000

     crystal axes: (cart. coord. in units of alat)
               a(1) = (   1.000000   0.000000   0.000000 )
               a(2) = (  -0.333333   0.942809   0.000000 )
               a(3) = (  -0.333333  -0.471405   0.816497 )

     reciprocal axes: (cart. coord. in units 2 pi/alat)
               b(1) = (  1.000000  0.353553  0.612372 )
               b(2) = (  0.000000  1.060660  0.612372 )
               b(3) = (  0.000000  0.000000  1.224745 )

     PseudoPot. # 1 for Cs read from file:
     /home/pragov/projects/rrg-bengioy-ad/pragov/crystal_structure_design/SSSP/Cs_pbe_v1.uspp.F.UPF
     MD5 check sum: 3476d69cb178dfad3ffaa59df4e07ca4
     Pseudo is Ultrasoft + core correction, Zval =  9.0
     Generated by new atomic code, or converted to UPF format
     Using radial grid of  905 points,  6 beta functions with:
                l(1) =   0
                l(2) =   0
                l(3) =   1
                l(4) =   1
                l(5) =   2
                l(6) =   2
     Q(r) pseudized with  6 coefficients,  rinner =    1.500   1.500   1.500
                                                       1.500   1.500

     PseudoPot. # 2 for V  read from file:
     /home/pragov/projects/rrg-bengioy-ad/pragov/crystal_structure_design/SSSP/v_pbe_v1.4.uspp.F.UPF
     MD5 check sum: 22b79981416ebb76fdaf5b1b8640f6fb
     Pseudo is Ultrasoft + core correction, Zval = 13.0
     Generated by new atomic code, or converted to UPF format
     Using radial grid of  853 points,  6 beta functions with:
                l(1) =   0
                l(2) =   0
                l(3) =   1
                l(4) =   1
                l(5) =   2
                l(6) =   2
     Q(r) pseudized with  8 coefficients,  rinner =    1.100   1.100   1.100
                                                       1.100   1.100

     PseudoPot. # 3 for Se read from file:
     /home/pragov/projects/rrg-bengioy-ad/pragov/crystal_structure_design/SSSP/Se_pbe_v1.uspp.F.UPF
     MD5 check sum: 1b3568f3a8ae88f9a2a0ad0698632c85
     Pseudo is Ultrasoft + core correction, Zval =  6.0
     Generated by new atomic code, or converted to UPF format
     Using radial grid of  877 points,  6 beta functions with:
                l(1) =   0
                l(2) =   0
                l(3) =   1
                l(4) =   1
                l(5) =   2
                l(6) =   2
     Q(r) pseudized with  8 coefficients,  rinner =    1.300   1.300   1.300
                                                       1.300   1.300

     atomic species   valence    mass     pseudopotential
        Cs             9.00   132.90545     Cs( 1.00)
        V             13.00    50.94150     V ( 1.00)
        Se             6.00    78.97100     Se( 1.00)

      2 Sym. Ops. (no inversion) found

                                    s                        frac. trans.

      isym =  1     identity

 cryst.   s( 1) = (     1          0          0      )
                  (     0          1          0      )
                  (     0          0          1      )

 cart.    s( 1) = (  1.0000000  0.0000000 -0.0000000 )
                  (  0.0000000  1.0000000  0.0000000 )
                  (  0.0000000  0.0000000  1.0000000 )

      isym =  2     inv. 180 deg rotation - cart. axis [0,0,1]

 cryst.   s( 2) = (     1          0          0      )
                  (     0          1          0      )
                  (    -1         -1         -1      )

 cart.    s( 2) = (  1.0000000  0.0000000 -0.0000000 )
                  (  0.0000000  1.0000000 -0.0000000 )
                  (  0.0000000  0.0000000 -1.0000000 )

   Cartesian axes

     site n.     atom                  positions (alat units)
         1           Cs  tau(   1) = (   0.3333333   0.4714045   0.0000000  )
         2           Cs  tau(   2) = (  -0.3333333   0.2357023   0.4082483  )
         3           Cs  tau(   3) = (   0.3333333  -0.2357023   0.4082483  )
         4           V   tau(   4) = (   0.0000000   0.0000000   0.0000000  )
         5           Se  tau(   5) = (   0.3072040   0.0000000   0.0000000  )
         6           Se  tau(   6) = (  -0.1024013  -0.1448174   0.2508310  )
         7           Se  tau(   7) = (   0.2309320   0.3265872   0.5656656  )
         8           Se  tau(   8) = (  -0.1024013   0.2896347   0.0000000  )

   Crystallographic axes

     site n.     atom                  positions (cryst. coord.)
         1           Cs  tau(   1) = (  0.5000000  0.5000000  0.0000000  )
         2           Cs  tau(   2) = ( -0.0000000  0.5000000  0.5000000  )
         3           Cs  tau(   3) = (  0.5000000  0.0000000  0.5000000  )
         4           V   tau(   4) = (  0.0000000  0.0000000  0.0000000  )
         5           Se  tau(   5) = (  0.3072040  0.0000000  0.0000000  )
         6           Se  tau(   6) = ( -0.0000000 -0.0000000  0.3072040  )
         7           Se  tau(   7) = (  0.6927960  0.6927960  0.6927960  )
         8           Se  tau(   8) = ( -0.0000000  0.3072040  0.0000000  )

     number of k points=     1  Methfessel-Paxton smearing, width (Ry)=  0.0010
                       cart. coord. in units 2pi/alat
        k(    1) = (   0.0000000   0.0000000   0.0000000), wk =   2.0000000

                       cryst. coord.
        k(    1) = (   0.0000000   0.0000000   0.0000000), wk =   2.0000000

     Initial potential from superposition of free atoms

     starting charge      63.8803, renormalised to      64.0000

     negative rho (up, down):  1.326E-03 0.000E+00
     Starting wfcs are   65 randomized atomic wfcs

     Self-consistent Calculation

     iteration #  1     ecut=    30.00 Ry     beta= 0.70
     Davidson diagonalization with overlap

     ethr =  1.00E-02,  avg # of iterations =  6.0

     negative rho (up, down):  2.229E-03 0.000E+00

     total energy              =    -507.09109878 Ry
     estimated scf accuracy    <      16.04067825 Ry

[...]

     total energy              =    -514.97523731 Ry
     estimated scf accuracy    <       0.00000677 Ry

     iteration # 27     ecut=    30.00 Ry     beta= 0.70
     Davidson diagonalization with overlap

     ethr =  1.06E-08,  avg # of iterations =  1.0

[...]

     End of self-consistent calculation

          k = 0.0000 0.0000 0.0000 (  3050 PWs)   bands (ev):

   -62.6902 -36.2679 -35.4360 -34.6150 -15.3484 -14.4970 -12.9552  -9.4727
    -8.9511  -8.7820  -8.5611  -5.8968  -3.7829  -3.5128  -3.2570  -2.5428
    -2.2382  -1.7283  -1.2690  -0.8579  -0.6416   0.1415   0.3180   0.5581
     0.6286   0.8152   1.3376   1.3820   1.4628   1.5744   1.8648   2.0182
     2.0301   3.4362   4.5071   4.7234   4.8206   5.2007

     occupation numbers
     1.0000   1.0000   1.0000   1.0000   1.0000   1.0000   1.0000   1.0000
     1.0000   1.0000   1.0000   1.0000   1.0000   1.0000   1.0000   1.0000
     1.0000   1.0000   1.0000   1.0000   1.0000   1.0000   1.0000   1.0000
     1.0000   1.0000   1.0000   1.0000   1.0000   1.0000   1.0000   0.8351
     0.1649  -0.0000  -0.0000  -0.0000  -0.0000  -0.0000

     the Fermi energy is     2.0242 ev

!    total energy              =    -514.97523699 Ry
     estimated scf accuracy    <       0.00000055 Ry
     smearing contrib. (-TS)   =      -0.00028542 Ry
     internal energy E=F+TS    =    -514.97495157 Ry

     The total energy is F=E-TS. E is the sum of the following terms:
     one-electron contribution =    -184.69573398 Ry
     hartree contribution      =     114.22246008 Ry
     xc contribution           =    -235.73549963 Ry
     ewald contribution        =    -208.76617805 Ry

     convergence has been achieved in  27 iterations

     negative rho (up, down):  1.666E-03 0.000E+00

     Forces acting on atoms (cartesian axes, Ry/au):

     atom    1 type  1   force =    -0.00979692   -0.09947159    0.00000000
     atom    2 type  1   force =    -0.07291614   -0.15907510   -0.00868309
     atom    3 type  1   force =    -0.07291614   -0.15907510    0.00868309
     atom    4 type  2   force =     0.02569795   -0.00236003   -0.00000000
     atom    5 type  3   force =     0.00427225    0.05359991   -0.00000000
     atom    6 type  3   force =     0.03294887    0.14915214   -0.02592818
     atom    7 type  3   force =     0.03294887    0.14915214    0.02592818
     atom    8 type  3   force =     0.05976125    0.06807762   -0.00000000
     The non-local contrib.  to forces
     atom    1 type  1   force =     0.02234704   -0.05505787    0.00000000
     atom    2 type  1   force =    -0.03978116   -0.06662917   -0.00061665
     atom    3 type  1   force =    -0.03978116   -0.06662917    0.00061665
     atom    4 type  2   force =    -0.01727996   -0.02423907    0.00000000
     atom    5 type  3   force =    -0.01157534   -0.00152894    0.00000000
     atom    6 type  3   force =     0.04990359    0.02619944    0.01102636
     atom    7 type  3   force =     0.04990359    0.02619944   -0.01102636
     atom    8 type  3   force =     0.05574141   -0.04072932    0.00000000
     The ionic contribution  to forces
     atom    1 type  1   force =     0.00000000    0.00000000    0.00000000
     atom    2 type  1   force =     0.00000000    0.00000000    0.00000000
     atom    3 type  1   force =     0.00000000    0.00000000    0.00000000
     atom    4 type  2   force =    -0.00000000   -0.00000000   -0.00000000
     atom    5 type  3   force =     7.04762147   -0.00000000   -0.00000000
     atom    6 type  3   force =    -2.34920716   -3.32228062    5.75435883
     atom    7 type  3   force =    -2.34920716   -3.32228062   -5.75435883
     atom    8 type  3   force =    -2.34920716    6.64456124   -0.00000000
     The local contribution  to forces
     atom    1 type  1   force =    -0.03049932   -0.01752917    0.03278250
     atom    2 type  1   force =    -0.05151022   -0.09028509   -0.01367160
     atom    3 type  1   force =     0.00027872   -0.02339414   -0.00419102
     atom    4 type  2   force =     0.03997978    0.04004172    0.02049258
     atom    5 type  3   force =    -7.03895014    0.05748302    0.01645117
     atom    6 type  3   force =     2.33384862    3.44084400   -5.71233329
     atom    7 type  3   force =     2.34465536    3.43658322    5.84879829
     atom    8 type  3   force =     2.34797201   -6.56529712   -0.01521513
     The core correction contribution to forces
     atom    1 type  1   force =    -0.00307095   -0.00854265    0.00358553
     atom    2 type  1   force =    -0.01617605   -0.02165271   -0.00544664
     atom    3 type  1   force =    -0.00152071   -0.01302417    0.00132364
     atom    4 type  2   force =     0.00141501    0.00029559    0.00044380
     atom    5 type  3   force =     0.00559985    0.01603595    0.01118362
     atom    6 type  3   force =    -0.02166726    0.01203397    0.02780866
     atom    7 type  3   force =     0.00490230    0.03791810    0.04958281
     atom    8 type  3   force =     0.00391653    0.04774683   -0.04382691
     The Hubbard contrib.    to forces
     atom    1 type  1   force =     0.00000000    0.00000000    0.00000000
     atom    2 type  1   force =     0.00000000    0.00000000    0.00000000
     atom    3 type  1   force =     0.00000000    0.00000000    0.00000000
     atom    4 type  2   force =     0.00000000    0.00000000    0.00000000
     atom    5 type  3   force =     0.00000000    0.00000000    0.00000000
     atom    6 type  3   force =     0.00000000    0.00000000    0.00000000
     atom    7 type  3   force =     0.00000000    0.00000000    0.00000000
     atom    8 type  3   force =     0.00000000    0.00000000    0.00000000
     The SCF correction term to forces
     atom    1 type  1   force =     0.00003617    0.00000461   -0.00005005
     atom    2 type  1   force =    -0.00016182    0.00018184    0.00019638
     atom    3 type  1   force =     0.00003985   -0.00002456    0.00007839
     atom    4 type  2   force =     0.00019298   -0.00011176   -0.00057868
     atom    5 type  3   force =     0.00018628   -0.00004360   -0.00005497
     atom    6 type  3   force =     0.00001828   -0.00002833    0.00006382
     atom    7 type  3   force =    -0.00003270   -0.00019131   -0.00021517
     atom    8 type  3   force =    -0.00005168    0.00014250    0.00006911

     Total force =     0.362155     Total SCF correction =     0.000807

     Computing stress (Cartesian axis) and pressure

     negative rho (up, down):  1.666E-03 0.000E+00
          total   stress  (Ry/bohr**3)                   (kbar)     P=     1010.62
   0.00337224   0.00057271  -0.00000000          496.07       84.25       -0.00
   0.00057271   0.00833227  -0.00000000           84.25     1225.72       -0.00
  -0.00000000  -0.00000000   0.00890567           -0.00       -0.00     1310.07

     kinetic stress (kbar)   5461.88     42.42     -0.00
                               42.42   6034.57     -0.00
                               -0.00     -0.00   6182.27

     local   stress (kbar)  -4307.97     43.60     33.75
                               43.60  -4294.50    -33.58
                               33.75    -33.58  -4279.54

     nonloc. stress (kbar)   3134.49      0.20     -0.00
                                0.20   3246.74     -0.00
                               -0.00     -0.00   3200.64

     hartree stress (kbar)   2522.14     -7.95      6.16
                               -7.95   2542.21     -8.97
                                6.16     -8.97   2512.41

     exc-cor stress (kbar)   9986.02     -0.63     -0.59
                               -0.63   9986.61      0.39
                               -0.59      0.39   9986.58

     corecor stress (kbar) -11684.44      6.62      4.85
                                6.62 -11673.86     -6.32
                                4.85     -6.32 -11676.23

     ewald   stress (kbar)  -4616.06     -0.00     -0.00
                               -0.00  -4616.06     -0.00
                               -0.00     -0.00  -4616.06

     hubbard stress (kbar)      0.00      0.00      0.00
                                0.00      0.00      0.00
                                0.00      0.00      0.00

     DFT-D   stress (kbar)      0.00      0.00      0.00
                                0.00      0.00      0.00
                                0.00      0.00      0.00

     XDM     stress (kbar)      0.00      0.00      0.00
                                0.00      0.00      0.00
                                0.00      0.00      0.00

     dft-nl  stress (kbar)      0.00      0.00      0.00
                                0.00      0.00      0.00
                                0.00      0.00      0.00

     TS-vdW  stress (kbar)      0.00      0.00      0.00
                                0.00      0.00      0.00
                                0.00      0.00      0.00

[...]

                                0.00      0.00      0.00

     Writing all to output data dir new_calculations/myprefix.save/

     General routines

     Parallel routines

   This run was terminated on:   1:27:51  21May2023

   JOB DONE.