     Program PWSCF v.7.0 starts on 21May2023 at 20:24:10

     Reading input from espresso_15655.pwi
Warning: card &CELL ignored
Warning: card / ignored

     Current dimensions of program PWSCF are:
     Max number of different atomic species (ntypx) = 10
     Max number of k-points (npk) =  40000
     Max angular momentum in pseudopotentials (lmaxx) =  4
     file O.pbe-n-kjpaw_psl.0.1.UPF: wavefunction(s)  2P renormalized

     gamma-point specific algorithms are used
     Message from routine setup:
     using ibrav=0 with symmetry is DISCOURAGED, use correct ibrav instead

     Subspace diagonalization in iterative solution of the eigenvalue problem:
     a serial algorithm will be used

     Using Slab Decomposition

     bravais-lattice index     =            0
     lattice parameter (alat)  =       9.8603  a.u.
     unit-cell volume          =    1386.1059 (a.u.)^3
     number of atoms/cell      =           17
     number of atomic types    =            3
     number of electrons       =       165.00
     number of Kohn-Sham states=          100
     kinetic-energy cutoff     =      30.0000  Ry
     charge density cutoff     =     240.0000  Ry
     scf convergence threshold =      1.0E-06
     mixing beta               =       0.7000
     number of iterations used =            8  plain     mixing
     Exchange-correlation= SLA  PW   PBX  PBC
                           (   1   4   3   4   0   0   0)

     celldm(1)=   9.860323  celldm(2)=   0.000000  celldm(3)=   0.000000
     celldm(4)=   0.000000  celldm(5)=   0.000000  celldm(6)=   0.000000

     crystal axes: (cart. coord. in units of alat)
               a(1) = (   1.000000   0.000000   0.000000 )
               a(2) = (  -0.098382   1.209276   0.000000 )
               a(3) = (  -0.116262  -0.230969   1.195633 )

     reciprocal axes: (cart. coord. in units 2 pi/alat)
               b(1) = (  1.000000  0.081356  0.112955 )
               b(2) = (  0.000000  0.826941  0.159746 )
               b(3) = (  0.000000  0.000000  0.836377 )

     PseudoPot. # 1 for Cu read from file:
     /home/pragov/projects/rrg-bengioy-ad/pragov/crystal_structure_design/SSSP/Cu_pbe_v1.2.uspp.F.UPF
     MD5 check sum: 6e991ff952a84172a2a52a1c1e996048
     Pseudo is Ultrasoft + core correction, Zval = 19.0
     Generated by new atomic code, or converted to UPF format
     Using radial grid of  867 points,  6 beta functions with:
                l(1) =   0
                l(2) =   0
                l(3) =   1
                l(4) =   1
                l(5) =   2
                l(6) =   2
     Q(r) pseudized with  8 coefficients,  rinner =    1.150   1.150   1.150
                                                       1.150   1.150

     PseudoPot. # 2 for As read from file:
     /home/pragov/projects/rrg-bengioy-ad/pragov/crystal_structure_design/SSSP/As.pbe-n-rrkjus_psl.0.2.UPF
     MD5 check sum: 767315de957beeeb34f87d97bf945c8f
     Pseudo is Ultrasoft + core correction, Zval =  5.0
     Generated using "atomic" code by A. Dal Corso  v.5.0.99 svn rev. 10869
     Using radial grid of 1209 points,  4 beta functions with:
                l(1) =   0
                l(2) =   0
                l(3) =   1
                l(4) =   1
     Q(r) pseudized with 0 coefficients

     PseudoPot. # 3 for O  read from file:
     /home/pragov/projects/rrg-bengioy-ad/pragov/crystal_structure_design/SSSP/O.pbe-n-kjpaw_psl.0.1.UPF
     MD5 check sum: 0234752ac141de4415c5fc33072bef88
     Pseudo is Projector augmented-wave + core cor, Zval =  6.0
     Generated using "atomic" code by A. Dal Corso  v.5.0.99 svn rev. 10869
     Shape of augmentation charge: BESSEL
     Using radial grid of 1095 points,  4 beta functions with:
                l(1) =   0
                l(2) =   0
                l(3) =   1
                l(4) =   1
     Q(r) pseudized with 0 coefficients

     atomic species   valence    mass     pseudopotential
        Cu            19.00    63.54600     Cu( 1.00)
        As             5.00    74.92159     As( 1.00)
        O              6.00    15.99900     O ( 1.00)

      2 Sym. Ops., with inversion, found

                                    s                        frac. trans.

      isym =  1     identity

 cryst.   s( 1) = (     1          0          0      )
                  (     0          1          0      )
                  (     0          0          1      )

 cart.    s( 1) = (  1.0000000 -0.0000000  0.0000000 )
                  (  0.0000000  1.0000000 -0.0000000 )
                  (  0.0000000  0.0000000  1.0000000 )

      isym =  2     inversion

 cryst.   s( 2) = (    -1          0          0      )
                  (     0         -1          0      )
                  (     0          0         -1      )

 cart.    s( 2) = ( -1.0000000  0.0000000 -0.0000000 )
                  (  0.0000000 -1.0000000  0.0000000 )
                  (  0.0000000  0.0000000 -1.0000000 )

   Cartesian axes

     site n.     atom                  positions (alat units)
         1           Cu  tau(   1) = (  -0.0581311  -0.1154846   0.5978163  )
         2           Cu  tau(   2) = (   0.7926691   0.3455208   0.3334571  )
         3           Cu  tau(   3) = (  -0.0073132   0.6327855   0.8621754  )
         4           Cu  tau(   4) = (   0.2349047   0.1376946   0.0585716  )
         5           Cu  tau(   5) = (   0.5504512   0.8406116   1.1370609  )
         6           As  tau(   6) = (   0.4745125   0.2409632   0.8727675  )
         7           As  tau(   7) = (   0.3108434   0.7373430   0.3228650  )
         8           O   tau(   8) = (  -0.1628159   0.9586679   0.9381985  )
         9           O   tau(   9) = (   0.9481718   0.0196384   0.2574340  )
        10           O   tau(  10) = (   0.4523500   0.0089381   1.1130682  )
        11           O   tau(  11) = (   0.3330059   0.9693682   0.0825644  )
        12           O   tau(  12) = (   0.6517124   0.4930609   0.9934655  )
        13           O   tau(  13) = (   0.1336435   0.4852454   0.2021671  )
        14           O   tau(  14) = (   0.6346346   0.1102667   0.6082195  )
        15           O   tau(  15) = (   0.1507213   0.8680396   0.5874131  )
        16           O   tau(  16) = (   0.1699448   0.3211214   0.7786366  )
        17           O   tau(  17) = (   0.6154111   0.6571849   0.4169960  )

   Crystallographic axes

     site n.     atom                  positions (cryst. coord.)
         1           Cu  tau(   1) = (  0.0000000  0.0000000  0.5000000  )
         2           Cu  tau(   2) = (  0.8584450  0.3389940  0.2788960  )
         3           Cu  tau(   3) = (  0.1415550  0.6610060  0.7211040  )
         4           Cu  tau(   4) = (  0.2527230  0.1232220  0.0489880  )
         5           Cu  tau(   5) = (  0.7472770  0.8767780  0.9510120  )
         6           As  tau(   6) = (  0.5927000  0.3386840  0.7299630  )
         7           As  tau(   7) = (  0.4073000  0.6613160  0.2700370  )
         8           O   tau(   8) = (  0.0211520  0.9426360  0.7846880  )
         9           O   tau(   9) = (  0.9788480  0.0573640  0.2153120  )
        10           O   tau(  10) = (  0.5788040  0.1852000  0.9309450  )
        11           O   tau(  11) = (  0.4211960  0.8148000  0.0690550  )
        12           O   tau(  12) = (  0.8040430  0.5664350  0.8309120  )
        13           O   tau(  13) = (  0.1959570  0.4335650  0.1690880  )
        14           O   tau(  14) = (  0.7123070  0.1883450  0.5087010  )
        15           O   tau(  15) = (  0.2876930  0.8116550  0.4912990  )
        16           O   tau(  16) = (  0.2840210  0.3899330  0.6512340  )
        17           O   tau(  17) = (  0.7159790  0.6100670  0.3487660  )

     number of k points=     1  Methfessel-Paxton smearing, width (Ry)=  0.0010
                       cart. coord. in units 2pi/alat
        k(    1) = (   0.0000000   0.0000000   0.0000000), wk =   2.0000000

                       cryst. coord.
        k(    1) = (   0.0000000   0.0000000   0.0000000), wk =   2.0000000

     Check: negative core charge=   -0.000011

     Initial potential from superposition of free atoms

     starting charge     159.9995, renormalised to     165.0000
     Starting wfcs are  113 randomized atomic wfcs
     Checking if some PAW data can be deallocated...

     Self-consistent Calculation

     iteration #  1     ecut=    30.00 Ry     beta= 0.70
     Davidson diagonalization with overlap

     ethr =  1.00E-02,  avg # of iterations =  3.0

     total energy              =   -2467.80771013 Ry
     estimated scf accuracy    <       4.43821918 Ry

[...]

     total energy              =   -2470.37452087 Ry
     estimated scf accuracy    <       0.00000552 Ry

     iteration # 26     ecut=    30.00 Ry     beta= 0.70
     Davidson diagonalization with overlap

     ethr =  6.77E-10,  avg # of iterations =  1.0

     End of self-consistent calculation

          k = 0.0000 0.0000 0.0000 (  1927 PWs)   bands (ev):

  -105.0240-104.6717-104.6711-104.5476-104.5473 -62.7141 -62.4929 -62.3694
   -62.3657 -62.2320 -62.2316 -61.9887 -61.9878 -61.9765 -61.9762 -61.9530
   -61.7835 -61.7823 -61.5614 -61.5612 -13.3981 -13.0205 -11.5463 -11.4115
   -11.3801 -11.3733 -11.1794 -11.1604 -10.9404 -10.6110  -2.8359  -2.5070
     0.1282   0.7585   0.8404   0.8963   1.2088   1.4212   1.5783   2.0415
     2.1664   2.3904   2.6611   2.8697   2.8742   2.9863   3.1045   3.2589
     3.5956   3.6864   3.8292   3.8524   4.0751   4.2480   4.4614   4.5069
     4.6422   4.8587   4.8940   5.1834   5.2415   5.3467   5.5433   5.5902
     5.6549   5.6571   5.8102   5.8254   5.9195   6.0658   6.0929   6.1403
     6.2667   6.3099   6.3883   6.4474   6.4826   6.5241   6.7724   6.8095
     7.0931   7.4237   7.4258   7.7020   7.8878   9.0270  11.3636  13.0975
    13.2370  13.3632  13.7462  13.7826  14.0004  14.3889  15.2346  15.2464
    15.3697  15.4794  15.8655  16.3033

     occupation numbers
     1.0000   1.0000   1.0000   1.0000   1.0000   1.0000   1.0000   1.0000
     1.0000   1.0000   1.0000   1.0000   1.0000   1.0000   1.0000   1.0000
     1.0000   1.0000   1.0000   1.0000   1.0000   1.0000   1.0000   1.0000
     1.0000   1.0000   1.0000   1.0000   1.0000   1.0000   1.0000   1.0000
     1.0000   1.0000   1.0000   1.0000   1.0000   1.0000   1.0000   1.0000
     1.0000   1.0000   1.0000   1.0000   1.0000   1.0000   1.0000   1.0000
     1.0000   1.0000   1.0000   1.0000   1.0000   1.0000   1.0000   1.0000
     1.0000   1.0000   1.0000   1.0000   1.0000   1.0000   1.0000   1.0000
     1.0000   1.0000   1.0000   1.0000   1.0000   1.0000   1.0000   1.0000
     1.0000   1.0000   1.0000   1.0000   1.0000   1.0000   1.0000   1.0000
     1.0000   0.8061   0.6939  -0.0000  -0.0000  -0.0000  -0.0000  -0.0000
    -0.0000  -0.0000  -0.0000  -0.0000  -0.0000  -0.0000  -0.0000  -0.0000
    -0.0000  -0.0000  -0.0000  -0.0000

     the Fermi energy is     7.4290 ev

!    total energy              =   -2470.37452083 Ry
     estimated scf accuracy    <       0.00000012 Ry
     smearing contrib. (-TS)   =      -0.00040382 Ry
     internal energy E=F+TS    =   -2470.37411701 Ry

     The total energy is F=E-TS. E is the sum of the following terms:
     one-electron contribution =   -2049.37406040 Ry
     hartree contribution      =    1102.39733522 Ry
     xc contribution           =    -286.20713565 Ry
     ewald contribution        =   -1141.90971474 Ry
     one-center paw contrib.   =     -95.28054143 Ry
      -> PAW hartree energy AE =     293.15374864 Ry
      -> PAW hartree energy PS =    -292.15054494 Ry
      -> PAW xc energy AE      =    -171.24608039 Ry
      -> PAW xc energy PS      =      74.96233526 Ry
      -> total E_H with PAW    =    1103.40053892 Ry
      -> total E_XC with PAW   =    -382.49088078 Ry

     convergence has been achieved in  26 iterations

     Forces acting on atoms (cartesian axes, Ry/au):

     atom    1 type  1   force =     0.00000000    0.00000000    0.00000000
     atom    2 type  1   force =    -0.01460025   -0.00485350    0.00893801
     atom    3 type  1   force =     0.01460025    0.00485350   -0.00893801
     atom    4 type  1   force =     0.02704478    0.00602444    0.00035588
     atom    5 type  1   force =    -0.02704478   -0.00602444   -0.00035588
     atom    6 type  2   force =    -0.01348571    0.00086085   -0.00709347
     atom    7 type  2   force =     0.01348571   -0.00086085    0.00709347
     atom    8 type  3   force =    -0.00809088   -0.01560218   -0.00080207
     atom    9 type  3   force =     0.00809088    0.01560218    0.00080207
     atom   10 type  3   force =    -0.00275659   -0.02985363    0.02241373
     atom   11 type  3   force =     0.00275659    0.02985363   -0.02241373
     atom   12 type  3   force =     0.01766037    0.03431807    0.02507247
     atom   13 type  3   force =    -0.01766037   -0.03431807   -0.02507247
     atom   14 type  3   force =     0.01492889   -0.00667372   -0.01931641
     atom   15 type  3   force =    -0.01492889    0.00667372    0.01931641
     atom   16 type  3   force =    -0.00382163   -0.00246886   -0.00355144
     atom   17 type  3   force =     0.00382163    0.00246886    0.00355144
     The non-local contrib.  to forces
     atom    1 type  1   force =     0.00000000    0.00000000    0.00000000
     atom    2 type  1   force =    -0.11146639   -0.01890355   -0.16177708
     atom    3 type  1   force =     0.11146639    0.01890355    0.16177708
     atom    4 type  1   force =     0.14597157   -0.00182983    0.07696542
     atom    5 type  1   force =    -0.14597157    0.00182983   -0.07696542
     atom    6 type  2   force =    -0.00348428   -0.01898123   -0.00586371
     atom    7 type  2   force =     0.00348428    0.01898123    0.00586371
     atom    8 type  3   force =    -0.06060157   -0.17795156   -0.21421057
     atom    9 type  3   force =     0.06060157    0.17795156    0.21421057
     atom   10 type  3   force =    -0.32455880    0.74046489   -0.89365221
     atom   11 type  3   force =     0.32455880   -0.74046489    0.89365221
     atom   12 type  3   force =    -0.67860049   -0.67844696   -0.62335931
     atom   13 type  3   force =     0.67860049    0.67844696    0.62335931
     atom   14 type  3   force =    -0.18662868    0.59617383    1.09686706
     atom   15 type  3   force =     0.18662868   -0.59617383   -1.09686706
     atom   16 type  3   force =     1.30498804    0.29863983    0.75562358
     atom   17 type  3   force =    -1.30498804   -0.29863983   -0.75562358
     The ionic contribution  to forces
     atom    1 type  1   force =    -0.00000000    0.00000000    0.00000000
     atom    2 type  1   force =   -11.93818457   20.69474896    2.04292390
     atom    3 type  1   force =    11.93818458  -20.69474897   -2.04292390
     atom    4 type  1   force =    14.30413781   13.85734007    3.47094656
     atom    5 type  1   force =   -14.30413781  -13.85734006   -3.47094656
     atom    6 type  2   force =    -0.77101824    0.84000247   -0.66422003
     atom    7 type  2   force =     0.77101824   -0.84000247    0.66422003
     atom    8 type  3   force =    -0.78321854    6.61039758   -2.23560631
     atom    9 type  3   force =     0.78321854   -6.61039758    2.23560631
     atom   10 type  3   force =     3.09138611    9.04218590   -6.09015791
     atom   11 type  3   force =    -3.09138611   -9.04218590    6.09015791
     atom   12 type  3   force =    -4.74032096  -10.97563716    1.08591756
     atom   13 type  3   force =     4.74032096   10.97563716   -1.08591756
     atom   14 type  3   force =   -12.64190029   -0.09224847    5.16801826
     atom   15 type  3   force =    12.64190030    0.09224847   -5.16801827
     atom   16 type  3   force =     5.26880978   -5.55749700   -1.70570262
     atom   17 type  3   force =    -5.26880978    5.55749700    1.70570262
     The local contribution  to forces
     atom    1 type  1   force =    -0.00009331    0.00022956   -0.00037618
     atom    2 type  1   force =    12.03493927  -20.68090348   -1.87267683
     atom    3 type  1   force =   -12.03508923   20.68078941    1.87263289
     atom    4 type  1   force =   -14.42308555  -13.84946208   -3.54710898
     atom    5 type  1   force =    14.42300867   13.84950231    3.54763028
     atom    6 type  2   force =     0.76589041   -0.82590494    0.66058881
     atom    7 type  2   force =    -0.76579915    0.82586958   -0.66064422
     atom    8 type  3   force =     0.83479205   -6.44941062    2.44658342
     atom    9 type  3   force =    -0.83529694    6.44949413   -2.44647015
     atom   10 type  3   force =    -2.77310679   -9.80514022    6.99711240
     atom   11 type  3   force =     2.77346588    9.80515369   -6.99708499
     atom   12 type  3   force =     5.42956874   11.68186041   -0.44365423
     atom   13 type  3   force =    -5.42991615  -11.68183078    0.44392073
     atom   14 type  3   force =    12.84161022   -0.50431489   -6.27286313
     atom   15 type  3   force =   -12.84136629    0.50457544    6.27264858
     atom   16 type  3   force =    -6.56444519    5.26016518    0.95462013
     atom   17 type  3   force =     6.56454879   -5.26034008   -0.95477450
     The core correction contribution to forces
     atom    1 type  1   force =     0.00000024    0.00000006   -0.00000018
     atom    2 type  1   force =     0.00008118    0.00009804    0.00027706
     atom    3 type  1   force =    -0.00008119   -0.00009796   -0.00027707
     atom    4 type  1   force =    -0.00006518   -0.00000152   -0.00021798
     atom    5 type  1   force =     0.00006564    0.00000173    0.00021836
     atom    6 type  2   force =    -0.00482253    0.00573737    0.00240561
     atom    7 type  2   force =     0.00482295   -0.00574212   -0.00240881
     atom    8 type  3   force =     0.00068105    0.00135583    0.00264518
     atom    9 type  3   force =    -0.00068290   -0.00135538   -0.00264437
     atom   10 type  3   force =     0.00368866   -0.00738022    0.00916027
     atom   11 type  3   force =    -0.00368803    0.00738086   -0.00916056
     atom   12 type  3   force =     0.00684574    0.00659097    0.00633490
     atom   13 type  3   force =    -0.00684763   -0.00659148   -0.00633346
     atom   14 type  3   force =     0.00190334   -0.00607751   -0.01146766
     atom   15 type  3   force =    -0.00190150    0.00607966    0.01146688
     atom   16 type  3   force =    -0.01312183   -0.00381784   -0.00813121
     atom   17 type  3   force =     0.01312203    0.00381737    0.00813086
     The Hubbard contrib.    to forces
     atom    1 type  1   force =     0.00000000    0.00000000    0.00000000
     atom    2 type  1   force =     0.00000000    0.00000000    0.00000000
     atom    3 type  1   force =     0.00000000    0.00000000    0.00000000
     atom    4 type  1   force =     0.00000000    0.00000000    0.00000000
     atom    5 type  1   force =     0.00000000    0.00000000    0.00000000
     atom    6 type  2   force =     0.00000000    0.00000000    0.00000000
     atom    7 type  2   force =     0.00000000    0.00000000    0.00000000
     atom    8 type  3   force =     0.00000000    0.00000000    0.00000000
     atom    9 type  3   force =     0.00000000    0.00000000    0.00000000
     atom   10 type  3   force =     0.00000000    0.00000000    0.00000000
     atom   11 type  3   force =     0.00000000    0.00000000    0.00000000
     atom   12 type  3   force =     0.00000000    0.00000000    0.00000000
     atom   13 type  3   force =     0.00000000    0.00000000    0.00000000
     atom   14 type  3   force =     0.00000000    0.00000000    0.00000000
     atom   15 type  3   force =     0.00000000    0.00000000    0.00000000
     atom   16 type  3   force =     0.00000000    0.00000000    0.00000000
     atom   17 type  3   force =     0.00000000    0.00000000    0.00000000
     The SCF correction term to forces
     atom    1 type  1   force =     0.00011186   -0.00019482    0.00030675
     atom    2 type  1   force =     0.00002341    0.00009631    0.00018467
     atom    3 type  1   force =     0.00011286   -0.00000276   -0.00015330
     atom    4 type  1   force =     0.00009670   -0.00002489   -0.00018564
     atom    5 type  1   force =     0.00000085   -0.00002094   -0.00024903
     atom    6 type  2   force =    -0.00004586   -0.00001133   -0.00001818
     atom    7 type  2   force =    -0.00003539    0.00001442    0.00004872
     atom    8 type  3   force =     0.00020608    0.00002380   -0.00018644
     atom    9 type  3   force =     0.00020054   -0.00007336    0.00012705
     atom   10 type  3   force =    -0.00015085    0.00003847   -0.00005344
     atom   11 type  3   force =    -0.00017903   -0.00000767    0.00001709
     atom   12 type  3   force =     0.00011185   -0.00006884   -0.00011978
     atom   13 type  3   force =     0.00012647    0.00000043   -0.00005483
     atom   14 type  3   force =     0.00000425   -0.00013775    0.00010574
     atom   15 type  3   force =    -0.00013011    0.00001291    0.00006296
     atom   16 type  3   force =    -0.00004698    0.00002939    0.00002731
     atom   17 type  3   force =    -0.00004591    0.00012282    0.00010468

     Total force =     0.107891     Total SCF correction =     0.000819

     Computing stress (Cartesian axis) and pressure

          total   stress  (Ry/bohr**3)                   (kbar)     P=     -626.66
  -0.00421655  -0.00000852  -0.00013507         -620.28       -1.25      -19.87
  -0.00000852  -0.00440805   0.00011740           -1.25     -648.45       17.27
  -0.00013507   0.00011740  -0.00415530          -19.87       17.27     -611.27

     kinetic stress (kbar)  27315.71    170.10    303.54
                              170.10  27292.17     33.69
                              303.54     33.69  27615.90

     local   stress (kbar) -32420.09   9504.00  13620.34
                             9504.00 -33639.51  -5802.25
                            13620.34  -5802.25 -25311.64

     nonloc. stress (kbar)  13144.41      3.29     93.87
                                3.29  13155.00     11.02
                               93.87     11.02  13185.45

     hartree stress (kbar)  39649.77  -4070.36  -5433.61
                            -4070.36  40073.21   2880.40
                            -5433.61   2880.40  37272.59

     exc-cor stress (kbar)  -7415.73     -2.70     -6.13
                               -2.70  -7415.14     -0.26
                               -6.13     -0.26  -7421.95

     corecor stress (kbar)  -1925.62     -0.94     -1.23
                               -0.94  -1922.35     -0.10
                               -1.23     -0.10  -1923.22

     ewald   stress (kbar) -38968.72  -5604.65  -8596.64
                            -5604.65 -38191.82   2894.78
                            -8596.64   2894.78 -44028.41

     hubbard stress (kbar)      0.00      0.00      0.00
                                0.00      0.00      0.00
                                0.00      0.00      0.00

     DFT-D   stress (kbar)      0.00      0.00      0.00
                                0.00      0.00      0.00
                                0.00      0.00      0.00

     XDM     stress (kbar)      0.00      0.00      0.00
                                0.00      0.00      0.00
                                0.00      0.00      0.00

     dft-nl  stress (kbar)      0.00      0.00      0.00
                                0.00      0.00      0.00
                                0.00      0.00      0.00

     TS-vdW  stress (kbar)      0.00      0.00      0.00
                                0.00      0.00      0.00
                                0.00      0.00      0.00

[...]

                                0.00      0.00      0.00

     Writing all to output data dir new_calculations/myprefix.save/

     General routines

     Parallel routines

     PAW routines

   This run was terminated on:  20:24:59  21May2023

   JOB DONE.