     Program PWSCF v.7.0 starts on 20May2023 at  5:44:42

     Reading input from espresso_1172.pwi
Warning: card &CELL ignored
Warning: card / ignored

     Current dimensions of program PWSCF are:
     Max number of different atomic species (ntypx) = 10
     Max number of k-points (npk) =  40000
     Max angular momentum in pseudopotentials (lmaxx) =  4

     gamma-point specific algorithms are used
     Message from routine setup:
     using ibrav=0 with symmetry is DISCOURAGED, use correct ibrav instead

     Subspace diagonalization in iterative solution of the eigenvalue problem:
     a serial algorithm will be used

     Using Slab Decomposition

     bravais-lattice index     =            0
     lattice parameter (alat)  =       7.5821  a.u.
     unit-cell volume          =    1384.8291 (a.u.)^3
     number of atoms/cell      =           12
     number of atomic types    =            3
     number of electrons       =       176.00
     number of Kohn-Sham states=          106
     kinetic-energy cutoff     =      30.0000  Ry
     charge density cutoff     =     240.0000  Ry
     scf convergence threshold =      1.0E-06
     mixing beta               =       0.7000
     number of iterations used =            8  plain     mixing
     Exchange-correlation= PBE
                           (   1   4   3   4   0   0   0)

     celldm(1)=   7.582076  celldm(2)=   0.000000  celldm(3)=   0.000000
     celldm(4)=   0.000000  celldm(5)=   0.000000  celldm(6)=   0.000000

     crystal axes: (cart. coord. in units of alat)
               a(1) = (   1.000000   0.000000   0.000000 )
               a(2) = (   0.000000   1.692870   0.000000 )
               a(3) = (   0.000000   0.000000   1.876758 )

     reciprocal axes: (cart. coord. in units 2 pi/alat)
               b(1) = (  1.000000  0.000000  0.000000 )
               b(2) = (  0.000000  0.590713  0.000000 )
               b(3) = (  0.000000  0.000000  0.532834 )

     PseudoPot. # 1 for Lu read from file:
     /home/pragov/projects/rrg-bengioy-ad/pragov/crystal_structure_design/SSSP/Lu.GGA-PBE-paw-v1.0.UPF
     MD5 check sum: 9ceca61ee0c17e9380a83635bfffa61d
     Pseudo is Projector augmented-wave + core cor, Zval = 25.0
     Generated using ATOMPAW code
     Shape of augmentation charge: BESSEL
     Using radial grid of 1118 points,  8 beta functions with:
                l(1) =   0
                l(2) =   0
                l(3) =   1
                l(4) =   1
                l(5) =   2
                l(6) =   2
                l(7) =   3
                l(8) =   3
     Q(r) pseudized with 0 coefficients

     PseudoPot. # 2 for Mn read from file:
     /home/pragov/projects/rrg-bengioy-ad/pragov/crystal_structure_design/SSSP/mn_pbe_v1.5.uspp.F.UPF
     MD5 check sum: 82ef2b46521d7a7d9e736dc3972e4928
     Pseudo is Ultrasoft + core correction, Zval = 15.0
     Generated by new atomic code, or converted to UPF format
     Using radial grid of  859 points,  6 beta functions with:
                l(1) =   0
                l(2) =   0
                l(3) =   1
                l(4) =   1
                l(5) =   2
                l(6) =   2
     Q(r) pseudized with  8 coefficients,  rinner =    0.950   0.950   0.950
                                                       0.950   0.950

     PseudoPot. # 3 for Si read from file:
     /home/pragov/projects/rrg-bengioy-ad/pragov/crystal_structure_design/SSSP/Si.pbe-n-rrkjus_psl.1.0.0.UPF
     MD5 check sum: 0b0bb1205258b0d07b9f9672cf965d36
     Pseudo is Ultrasoft + core correction, Zval =  4.0
     Generated using "atomic" code by A. Dal Corso  v.5.1
     Using radial grid of 1141 points,  6 beta functions with:
                l(1) =   0
                l(2) =   0
                l(3) =   1
                l(4) =   1
                l(5) =   2
                l(6) =   2
     Q(r) pseudized with 0 coefficients

     atomic species   valence    mass     pseudopotential
        Lu            25.00   174.96680     Lu( 1.00)
        Mn            15.00    54.93804     Mn( 1.00)
        Si             4.00    28.08500     Si( 1.00)

      8 Sym. Ops., with inversion, found ( 6 have fractional translation)

                                    s                        frac. trans.

      isym =  1     identity

 cryst.   s( 1) = (     1          0          0      )
                  (     0          1          0      )
                  (     0          0          1      )

 cart.    s( 1) = (  1.0000000  0.0000000  0.0000000 )
                  (  0.0000000  1.0000000  0.0000000 )
                  (  0.0000000  0.0000000  1.0000000 )

      isym =  2     180 deg rotation - cart. axis [0,0,1]

 cryst.   s( 2) = (    -1          0          0      )    f =(  0.0000000 )
                  (     0         -1          0      )       (  0.5000000 )
                  (     0          0          1      )       ( -0.5000000 )

 cart.    s( 2) = ( -1.0000000  0.0000000  0.0000000 )    f =(  0.0000000 )
                  (  0.0000000 -1.0000000  0.0000000 )       (  0.8464349 )
                  (  0.0000000  0.0000000  1.0000000 )       ( -0.9383788 )

[...]

      isym =  4     180 deg rotation - cart. axis [1,0,0]

[...]

      isym =  5     inversion

 cryst.   s( 5) = (    -1          0          0      )
                  (     0         -1          0      )
                  (     0          0         -1      )

 cart.    s( 5) = ( -1.0000000  0.0000000  0.0000000 )
                  (  0.0000000 -1.0000000  0.0000000 )
                  (  0.0000000  0.0000000 -1.0000000 )

      isym =  6     inv. 180 deg rotation - cart. axis [0,0,1]

[...]

      isym =  8     inv. 180 deg rotation - cart. axis [1,0,0]

 cryst.   s( 8) = (    -1          0          0      )    f =(  0.5000000 )
                  (     0          1          0      )       (  0.0000000 )
                  (     0          0          1      )       (  0.0000000 )

 cart.    s( 8) = ( -1.0000000  0.0000000  0.0000000 )    f =(  0.5000000 )
                  (  0.0000000  1.0000000  0.0000000 )       (  0.0000000 )
                  (  0.0000000  0.0000000  1.0000000 )       (  0.0000000 )

   Cartesian axes

     site n.     atom                  positions (alat units)
         1           Lu  tau(   1) = (   0.2500000   0.8706175   0.3479039  )
         2           Lu  tau(   2) = (   0.7500000   0.8222522   1.5288536  )
         3           Lu  tau(   3) = (   0.2500000   0.0241826   0.5904748  )
         4           Lu  tau(   4) = (   0.7500000   1.6686871   1.2862827  )
         5           Mn  tau(   5) = (   0.7500000   1.4547151   0.1095520  )
         6           Mn  tau(   6) = (   0.2500000   0.2381546   1.7672056  )
         7           Mn  tau(   7) = (   0.7500000   0.6082803   0.8288268  )
         8           Mn  tau(   8) = (   0.2500000   1.0845895   1.0479307  )
         9           Si  tau(   9) = (   0.2500000   1.3276873   1.6618895  )
        10           Si  tau(  10) = (   0.7500000   0.3651825   0.2148681  )
        11           Si  tau(  11) = (   0.2500000   0.4812524   1.1532469  )
        12           Si  tau(  12) = (   0.7500000   1.2116174   0.7235107  )

   Crystallographic axes

     site n.     atom                  positions (cryst. coord.)
         1           Lu  tau(   1) = (  0.2500000  0.5142850  0.1853750  )
         2           Lu  tau(   2) = (  0.7500000  0.4857150  0.8146250  )
         3           Lu  tau(   3) = (  0.2500000  0.0142850  0.3146250  )
         4           Lu  tau(   4) = (  0.7500000  0.9857150  0.6853750  )
         5           Mn  tau(   5) = (  0.7500000  0.8593190  0.0583730  )
         6           Mn  tau(   6) = (  0.2500000  0.1406810  0.9416270  )
         7           Mn  tau(   7) = (  0.7500000  0.3593190  0.4416270  )
         8           Mn  tau(   8) = (  0.2500000  0.6406810  0.5583730  )
         9           Si  tau(   9) = (  0.2500000  0.7842820  0.8855110  )
        10           Si  tau(  10) = (  0.7500000  0.2157180  0.1144890  )
        11           Si  tau(  11) = (  0.2500000  0.2842820  0.6144890  )
        12           Si  tau(  12) = (  0.7500000  0.7157180  0.3855110  )

     number of k points=     1  Methfessel-Paxton smearing, width (Ry)=  0.0010
                       cart. coord. in units 2pi/alat
        k(    1) = (   0.0000000   0.0000000   0.0000000), wk =   2.0000000

                       cryst. coord.
        k(    1) = (   0.0000000   0.0000000   0.0000000), wk =   2.0000000

     Check: negative core charge=   -0.000016

     Initial potential from superposition of free atoms

     starting charge     173.9823, renormalised to     176.0000
     Starting wfcs are  196 randomized atomic wfcs
     Checking if some PAW data can be deallocated...

     Self-consistent Calculation

     iteration #  1     ecut=    30.00 Ry     beta= 0.70
     Davidson diagonalization with overlap

     ethr =  1.00E-02,  avg # of iterations =  2.0

     total energy              =   -5180.55308552 Ry
     estimated scf accuracy    <      27.47130145 Ry

[...]

     total energy              =   -5211.26524830 Ry
     estimated scf accuracy    <       0.00002310 Ry

     iteration # 41     ecut=    30.00 Ry     beta= 0.70
     Davidson diagonalization with overlap

     ethr =  4.52E-09,  avg # of iterations =  1.0

     End of self-consistent calculation

          k = 0.0000 0.0000 0.0000 (  1920 PWs)   bands (ev):

   -63.4769 -63.4769 -63.4697 -63.4696 -40.6777 -40.6701 -40.6674 -40.6597
   -32.4103 -32.4088 -32.3783 -32.3750 -32.3173 -32.3166 -32.3134 -32.3128
   -31.9976 -31.9932 -31.9623 -31.9622 -11.5400 -11.5157 -11.4923 -11.4838
   -11.3518 -11.3378 -11.3144 -11.3115 -11.2785 -11.2779 -11.2626 -11.2360
     5.1067   6.9439   7.0727   7.3640   9.9932  10.1924  10.5743  10.5805
    10.5842  10.5859  10.5985  10.5995  10.6050  10.6053  10.6122  10.6145
    10.6160  10.6194  10.6194  10.6236  10.6262  10.6298  10.6324  10.6368
    10.6374  10.6448  10.6513  10.6522  10.6552  10.6566  10.6647  10.6686
    10.6693  10.6726  11.2835  11.5830  11.8073  12.4557  12.5698  12.6311
    12.6691  12.7790  13.2777  13.4985  13.5245  13.8809  13.9335  14.2444
    14.2789  14.3762  14.4406  14.7092  14.7220  15.1696  15.2262  15.2654
    15.2666  15.2682  15.3709  15.5760  15.8467  16.1014  16.4277  16.4849
    17.0651  17.6809  17.7148  17.7726  17.9340  17.9455  18.2685  18.6643
    18.7227  19.0889

     occupation numbers
     1.0000   1.0000   1.0000   1.0000   1.0000   1.0000   1.0000   1.0000
     1.0000   1.0000   1.0000   1.0000   1.0000   1.0000   1.0000   1.0000
     1.0000   1.0000   1.0000   1.0000   1.0000   1.0000   1.0000   1.0000
     1.0000   1.0000   1.0000   1.0000   1.0000   1.0000   1.0000   1.0000
     1.0000   1.0000   1.0000   1.0000   1.0000   1.0000   1.0000   1.0000
     1.0000   1.0000   1.0000   1.0000   1.0000   1.0000   1.0000   1.0000
     1.0000   1.0000   1.0000   1.0000   1.0000   1.0000   1.0000   1.0000
     1.0000   1.0000   1.0000   1.0000   1.0000   1.0000   1.0000   1.0000
     1.0000   1.0000   1.0000   1.0000   1.0000   1.0000   1.0000   1.0000
     1.0000   1.0000   1.0000   1.0000   1.0000   1.0000   1.0000   1.0000
     1.0000   1.0000   1.0000   1.0000   1.0000   1.0000   1.0003   0.4094
     0.3390   0.2513  -0.0000  -0.0000  -0.0000  -0.0000  -0.0000  -0.0000
    -0.0000  -0.0000  -0.0000  -0.0000  -0.0000  -0.0000  -0.0000  -0.0000
    -0.0000  -0.0000

     the Fermi energy is    15.2640 ev

!    total energy              =   -5211.26524808 Ry
     estimated scf accuracy    <       0.00000086 Ry
     smearing contrib. (-TS)   =      -0.00072882 Ry
     internal energy E=F+TS    =   -5211.26451925 Ry

     The total energy is F=E-TS. E is the sum of the following terms:
     one-electron contribution =   -2133.55321712 Ry
     hartree contribution      =    1007.99646014 Ry
     xc contribution           =    -296.59350846 Ry
     ewald contribution        =   -1824.93883828 Ry
     one-center paw contrib.   =   -1964.17541553 Ry
      -> PAW hartree energy AE =    1968.87996385 Ry
      -> PAW hartree energy PS =   -1695.89689364 Ry
      -> PAW xc energy AE      =   -2397.40063922 Ry
      -> PAW xc energy PS      =     160.24215349 Ry
      -> total E_H with PAW    =    1280.97953034 Ry
      -> total E_XC with PAW   =   -2533.75199420 Ry

     convergence has been achieved in  41 iterations

     Forces acting on atoms (cartesian axes, Ry/au):

     atom    1 type  1   force =     0.00000000   -0.02053209    0.03520962
     atom    2 type  1   force =    -0.00000000    0.02053209   -0.03520962
     atom    3 type  1   force =     0.00000000   -0.02053209   -0.03520962
     atom    4 type  1   force =    -0.00000000    0.02053209    0.03520962
     atom    5 type  2   force =    -0.00000000   -0.05279815   -0.01089397
     atom    6 type  2   force =    -0.00000000    0.05279815    0.01089397
     atom    7 type  2   force =     0.00000000   -0.05279815    0.01089397
     atom    8 type  2   force =    -0.00000000    0.05279815   -0.01089397
     atom    9 type  3   force =     0.00000000    0.04054027    0.00994194
     atom   10 type  3   force =     0.00000000   -0.04054027   -0.00994194
     atom   11 type  3   force =     0.00000000    0.04054027   -0.00994194
     atom   12 type  3   force =     0.00000000   -0.04054027    0.00994194
     The non-local contrib.  to forces
     atom    1 type  1   force =     0.00000000   -0.00338298    0.11571825
     atom    2 type  1   force =    -0.00000000    0.00338298   -0.11571825
     atom    3 type  1   force =     0.00000000   -0.00338298   -0.11571825
     atom    4 type  1   force =    -0.00000000    0.00338298    0.11571825
     atom    5 type  2   force =     0.00000000    0.02541648   -0.29361039
     atom    6 type  2   force =    -0.00000000   -0.02541648    0.29361039
     atom    7 type  2   force =     0.00000000    0.02541648    0.29361039
     atom    8 type  2   force =     0.00000000   -0.02541648   -0.29361039
     atom    9 type  3   force =     0.00000000   -0.02836727   -0.01682793
     atom   10 type  3   force =     0.00000000    0.02836727    0.01682793
     atom   11 type  3   force =    -0.00000000   -0.02836727    0.01682793
     atom   12 type  3   force =    -0.00000000    0.02836727   -0.01682793
     The ionic contribution  to forces
     atom    1 type  1   force =    -0.00000000    0.88900384   -5.65678783
     atom    2 type  1   force =     0.00000000   -0.88900384    5.65678783
     atom    3 type  1   force =    -0.00000000    0.88900384    5.65678783
     atom    4 type  1   force =     0.00000000   -0.88900384   -5.65678783
     atom    5 type  2   force =    -0.00000000   -3.58352390    1.98265179
     atom    6 type  2   force =     0.00000000    3.58352390   -1.98265179
     atom    7 type  2   force =    -0.00000000   -3.58352390   -1.98265179
     atom    8 type  2   force =     0.00000000    3.58352390    1.98265179
     atom    9 type  3   force =     0.00000000   -1.22276899   -0.43249971
     atom   10 type  3   force =     0.00000000    1.22276899    0.43249971
     atom   11 type  3   force =    -0.00000000   -1.22276899    0.43249971
     atom   12 type  3   force =    -0.00000000    1.22276899   -0.43249971
     The local contribution  to forces
     atom    1 type  1   force =     0.00026071   -0.90589094    5.57580351
     atom    2 type  1   force =     0.00008450    0.90589953   -5.57637121
     atom    3 type  1   force =    -0.00033863   -0.90619056   -5.57576801
     atom    4 type  1   force =    -0.00003987    0.90705839    5.57604063
     atom    5 type  2   force =     0.00012903    3.50979481   -1.71518643
     atom    6 type  2   force =     0.00007917   -3.50990472    1.71482791
     atom    7 type  2   force =    -0.00010033    3.50937579    1.71552283
     atom    8 type  2   force =    -0.00009322   -3.50974234   -1.71500819
     atom    9 type  3   force =     0.00008703    1.28760233    0.45733768
     atom   10 type  3   force =    -0.00008560   -1.28762368   -0.45719319
     atom   11 type  3   force =    -0.00008686    1.28746163   -0.45726384
     atom   12 type  3   force =     0.00009162   -1.28750348    0.45718774
     The core correction contribution to forces
     atom    1 type  1   force =     0.00000000   -0.00000096    0.00000171
     atom    2 type  1   force =     0.00000000    0.00000096   -0.00000171
     atom    3 type  1   force =    -0.00000000   -0.00000096   -0.00000171
     atom    4 type  1   force =     0.00000000    0.00000097    0.00000171
     atom    5 type  2   force =    -0.00001687   -0.00450778    0.01579991
     atom    6 type  2   force =     0.00000191    0.00451277   -0.01580347
     atom    7 type  2   force =     0.00001675   -0.00450481   -0.01579962
     atom    8 type  2   force =    -0.00000297    0.00451504    0.01580791
     atom    9 type  3   force =     0.00000603    0.00400770    0.00194488
     atom   10 type  3   force =    -0.00000167   -0.00400849   -0.00194369
     atom   11 type  3   force =    -0.00000606    0.00400609   -0.00194372
     atom   12 type  3   force =     0.00000182   -0.00400783    0.00194319
     The Hubbard contrib.    to forces
     atom    1 type  1   force =     0.00000000    0.00000000    0.00000000
     atom    2 type  1   force =     0.00000000    0.00000000    0.00000000
     atom    3 type  1   force =     0.00000000    0.00000000    0.00000000
     atom    4 type  1   force =     0.00000000    0.00000000    0.00000000
     atom    5 type  2   force =     0.00000000    0.00000000    0.00000000
     atom    6 type  2   force =     0.00000000    0.00000000    0.00000000
     atom    7 type  2   force =     0.00000000    0.00000000    0.00000000
     atom    8 type  2   force =     0.00000000    0.00000000    0.00000000
     atom    9 type  3   force =     0.00000000    0.00000000    0.00000000
     atom   10 type  3   force =     0.00000000    0.00000000    0.00000000
     atom   11 type  3   force =     0.00000000    0.00000000    0.00000000
     atom   12 type  3   force =     0.00000000    0.00000000    0.00000000
     The SCF correction term to forces
     atom    1 type  1   force =    -0.00022602   -0.00010468    0.00043612
     atom    2 type  1   force =    -0.00009015    0.00042421    0.00006271
     atom    3 type  1   force =     0.00031219   -0.00009700   -0.00049798
     atom    4 type  1   force =     0.00003675   -0.00105736    0.00025524
     atom    5 type  2   force =    -0.00030123   -0.00001925   -0.00059634
     atom    6 type  2   force =    -0.00002370    0.00005169    0.00087507
     atom    7 type  2   force =     0.00026981    0.00054975    0.00026937
     atom    8 type  2   force =     0.00003513    0.00001897   -0.00066624
     atom    9 type  3   force =    -0.00001596    0.00007713    0.00001678
     atom   10 type  3   force =     0.00003079   -0.00005517   -0.00011320
     atom   11 type  3   force =     0.00001642    0.00018280   -0.00006525
     atom   12 type  3   force =    -0.00003500   -0.00016978    0.00012516

     Total force =     0.158871     Total SCF correction =     0.002049

     Computing stress (Cartesian axis) and pressure

          total   stress  (Ry/bohr**3)                   (kbar)     P=     -191.54
  -0.00142423   0.00000000   0.00000000         -209.51        0.00        0.00
   0.00000000  -0.00119750   0.00000000            0.00     -176.16        0.00
   0.00000000   0.00000000  -0.00128445            0.00        0.00     -188.95

     kinetic stress (kbar)  20241.42      0.00      0.00
                                0.00  20584.91      0.00
                                0.00      0.00  20320.15

     local   stress (kbar)   3148.70     -0.00     -0.02
                               -0.00  -1269.10      0.01
                               -0.02      0.01  -9085.47

     nonloc. stress (kbar)  20240.99      0.00      0.00
                                0.00  20314.90      0.00
                                0.00      0.00  20157.14

     hartree stress (kbar)  33181.30      0.00      0.09
                                0.00  35201.68     -0.01
                                0.09     -0.01  38692.61

     exc-cor stress (kbar)  -6415.88      0.00      0.00
                                0.00  -6414.71     -0.00
                                0.00     -0.00  -6418.11

     corecor stress (kbar)  -3068.87     -0.00      0.00
                               -0.00  -3068.26      0.00
                                0.00      0.00  -3061.80

     ewald   stress (kbar) -67537.19     -0.00     -0.00
                               -0.00 -65525.59      0.00
                               -0.00      0.00 -60793.48

     hubbard stress (kbar)      0.00      0.00      0.00
                                0.00      0.00      0.00
                                0.00      0.00      0.00

     DFT-D   stress (kbar)      0.00      0.00      0.00
                                0.00      0.00      0.00
                                0.00      0.00      0.00

     XDM     stress (kbar)      0.00      0.00      0.00
                                0.00      0.00      0.00
                                0.00      0.00      0.00

     dft-nl  stress (kbar)      0.00      0.00      0.00
                                0.00      0.00      0.00
                                0.00      0.00      0.00

     TS-vdW  stress (kbar)      0.00      0.00      0.00
                                0.00      0.00      0.00
                                0.00      0.00      0.00

[...]

                                0.00      0.00      0.00

     Writing all to output data dir new_calculations/myprefix.save/

     General routines

     Parallel routines

     PAW routines

   This run was terminated on:   5:46:46  20May2023

   JOB DONE.