     Program PWSCF v.7.0 starts on 20May2023 at 19:17:48

     Reading input from espresso_13619.pwi
Warning: card &CELL ignored
Warning: card / ignored

     Current dimensions of program PWSCF are:
     Max number of different atomic species (ntypx) = 10
     Max number of k-points (npk) =  40000
     Max angular momentum in pseudopotentials (lmaxx) =  4
     file Cd.pbe-dn-rrkjus_psl.0.3.1.UPF: wavefunction(s)  4D renormalized

     gamma-point specific algorithms are used
     Message from routine setup:
     using ibrav=0 with symmetry is DISCOURAGED, use correct ibrav instead

     Subspace diagonalization in iterative solution of the eigenvalue problem:
     a serial algorithm will be used

     Using Slab Decomposition

     bravais-lattice index     =            0
     lattice parameter (alat)  =       7.6984  a.u.
     unit-cell volume          =    1382.6207 (a.u.)^3
     number of atoms/cell      =            6
     number of atomic types    =            2
     number of electrons       =        52.00
     number of Kohn-Sham states=           31
     kinetic-energy cutoff     =      30.0000  Ry
     charge density cutoff     =     240.0000  Ry
     scf convergence threshold =      1.0E-06
     mixing beta               =       0.7000
     number of iterations used =            8  plain     mixing
     Exchange-correlation=  SLA  PW   PBX  PBC
                           (   1   4   3   4   0   0   0)

     celldm(1)=   7.698438  celldm(2)=   0.000000  celldm(3)=   0.000000
     celldm(4)=   0.000000  celldm(5)=   0.000000  celldm(6)=   0.000000

     crystal axes: (cart. coord. in units of alat)
               a(1) = (   1.000000   0.000000   0.000000 )
               a(2) = (  -0.500000   0.866025   0.000000 )
               a(3) = (   0.000000   0.000000   3.499167 )

     reciprocal axes: (cart. coord. in units 2 pi/alat)
               b(1) = (  1.000000  0.577350  0.000000 )
               b(2) = (  0.000000  1.154701  0.000000 )
               b(3) = (  0.000000  0.000000  0.285782 )

     PseudoPot. # 1 for Cd read from file:
     /home/pragov/projects/rrg-bengioy-ad/pragov/crystal_structure_design/SSSP/Cd.pbe-dn-rrkjus_psl.0.3.1.UPF
     MD5 check sum: 558e9f355611b531a870a69ef6ace9e2
     Pseudo is Ultrasoft + core correction, Zval = 12.0
     Generated using "atomic" code by A. Dal Corso  v.5.0.99 svn rev. 10869
     Using radial grid of 1239 points,  6 beta functions with:
                l(1) =   0
                l(2) =   0
                l(3) =   1
                l(4) =   1
                l(5) =   2
                l(6) =   2
     Q(r) pseudized with 0 coefficients

     PseudoPot. # 2 for Br read from file:
     /home/pragov/projects/rrg-bengioy-ad/pragov/crystal_structure_design/SSSP/br_pbe_v1.4.uspp.F.UPF
     MD5 check sum: d3ffb7b29f6225aa16fe06858fb2a80b
     Pseudo is Ultrasoft + core correction, Zval =  7.0
     Generated by new atomic code, or converted to UPF format
     Using radial grid of  879 points,  6 beta functions with:
                l(1) =   0
                l(2) =   0
                l(3) =   1
                l(4) =   1
                l(5) =   2
                l(6) =   2
     Q(r) pseudized with  8 coefficients,  rinner =    1.100   1.100   1.100
                                                       1.100   1.100

     atomic species   valence    mass     pseudopotential
        Cd            12.00   112.41400     Cd( 1.00)
        Br             7.00    79.90400     Br( 1.00)

     12 Sym. Ops. (no inversion) found ( 6 have fractional translation)

                                    s                        frac. trans.

      isym =  1     identity

 cryst.   s( 1) = (     1          0          0      )
                  (     0          1          0      )
                  (     0          0          1      )

 cart.    s( 1) = (  1.0000000 -0.0000000  0.0000000 )
                  (  0.0000000  1.0000000  0.0000000 )
                  (  0.0000000  0.0000000  1.0000000 )

      isym =  2     180 deg rotation - cart. axis [0,0,1]

 cryst.   s( 2) = (    -1          0          0      )    f =( -0.0000000 )
                  (     0         -1          0      )       ( -0.0000000 )
                  (     0          0          1      )       (  0.5000000 )

 cart.    s( 2) = ( -1.0000000  0.0000000  0.0000000 )    f =(  0.0000000 )
                  (  0.0000000 -1.0000000  0.0000000 )       ( -0.0000000 )
                  (  0.0000000  0.0000000  1.0000000 )       (  1.7495833 )

      isym =  3      60 deg rotation - cryst. axis [0,0,1]

[...]

      isym =  6     120 deg rotation - cryst. axis [0,0,-1]

[...]

      isym =  7     inv. 180 deg rotation - cart. axis [0,1,0]

[...]

      isym =  8     inv. 180 deg rotation - cart. axis [1,0,0]

 cryst.   s( 8) = (    -1          0          0      )
                  (     1          1          0      )
                  (     0          0          1      )

 cart.    s( 8) = ( -1.0000000  0.0000001  0.0000000 )
                  (  0.0000000  1.0000000  0.0000000 )
                  (  0.0000000  0.0000000  1.0000000 )

      isym =  9     inv. 180 deg rotation - cryst. axis [1,-1,0]

 cryst.   s( 9) = (     0          1          0      )    f =(  0.0000000 )
                  (     1          0          0      )       ( -0.0000000 )
                  (     0          0          1      )       (  0.5000000 )

 cart.    s( 9) = ( -0.5000000  0.8660254  0.0000000 )    f =(  0.0000000 )
                  (  0.8660254  0.5000000  0.0000000 )       ( -0.0000000 )
                  (  0.0000000  0.0000000  1.0000000 )       (  1.7495833 )

[...]

 cryst.   s(10) = (    -1         -1          0      )    f =( -0.0000000 )
                  (     0          1          0      )       (  0.0000010 )
                  (     0          0          1      )       (  0.5000000 )

 cart.    s(10) = ( -0.5000000 -0.8660253  0.0000000 )    f =( -0.0000005 )
                  ( -0.8660254  0.5000000  0.0000000 )       (  0.0000009 )
                  (  0.0000000  0.0000000  1.0000000 )       (  1.7495833 )

[...]

 cryst.   s(11) = (     1          1          0      )
                  (     0         -1          0      )
                  (     0          0          1      )

 cart.    s(11) = (  0.5000000  0.8660253  0.0000000 )
                  (  0.8660254 -0.5000000  0.0000000 )
                  (  0.0000000  0.0000000  1.0000000 )

      isym = 12     inv. 180 deg rotation - cryst. axis [1,1,0]

 cryst.   s(12) = (     0         -1          0      )
                  (    -1          0          0      )
                  (     0          0          1      )

 cart.    s(12) = (  0.5000000 -0.8660254  0.0000000 )
                  ( -0.8660254 -0.5000000  0.0000000 )
                  (  0.0000000  0.0000000  1.0000000 )

   Cartesian axes

     site n.     atom                  positions (alat units)
         1           Cd  tau(   1) = (   0.5000005   0.2886749   3.0616587  )
         2           Cd  tau(   2) = (  -0.0000005   0.5773506   1.3120755  )
         3           Br  tau(   3) = (   0.0000000   0.0000000   2.6768764  )
         4           Br  tau(   4) = (   0.0000000   0.0000000   0.9272931  )
         5           Br  tau(   5) = (  -0.0000005   0.5773506   3.4467770  )
         6           Br  tau(   6) = (   0.5000005   0.2886749   1.6971937  )

   Crystallographic axes

     site n.     atom                  positions (cryst. coord.)
         1           Cd  tau(   1) = (  0.6666670  0.3333330  0.8749680  )
         2           Cd  tau(   2) = (  0.3333330  0.6666670  0.3749680  )
         3           Br  tau(   3) = (  0.0000000  0.0000000  0.7650040  )
         4           Br  tau(   4) = (  0.0000000  0.0000000  0.2650040  )
         5           Br  tau(   5) = (  0.3333330  0.6666670  0.9850280  )
         6           Br  tau(   6) = (  0.6666670  0.3333330  0.4850280  )

     number of k points=     1  Methfessel-Paxton smearing, width (Ry)=  0.0010
                       cart. coord. in units 2pi/alat
        k(    1) = (   0.0000000   0.0000000   0.0000000), wk =   2.0000000

                       cryst. coord.
        k(    1) = (   0.0000000   0.0000000   0.0000000), wk =   2.0000000

     Check: negative core charge=   -0.000001

     Initial potential from superposition of free atoms

     starting charge      51.9902, renormalised to      52.0000
     Starting wfcs are   34 randomized atomic wfcs

     Self-consistent Calculation

     iteration #  1     ecut=    30.00 Ry     beta= 0.70
     Davidson diagonalization with overlap

     ethr =  1.00E-02,  avg # of iterations =  3.0

     Threshold (ethr) on eigenvalues was too large:
     Diagonalizing with lowered threshold

     Davidson diagonalization with overlap

[...]

     total energy              =    -431.20366340 Ry
     estimated scf accuracy    <       0.39577024 Ry

[...]

     total energy              =    -431.31633902 Ry
     estimated scf accuracy    <       0.00000101 Ry

     iteration #  9     ecut=    30.00 Ry     beta= 0.70
     Davidson diagonalization with overlap

     ethr =  1.94E-09,  avg # of iterations =  2.0

     End of self-consistent calculation

          k = 0.0000 0.0000 0.0000 (  1926 PWs)   bands (ev):

   -11.1262 -11.0976 -10.6452 -10.6092  -5.6494  -5.6494  -5.6468  -5.6468
    -5.6077  -5.6018  -5.4608  -5.4608  -5.4556  -5.4556  -1.1354  -0.9160
     1.1780   1.7528   1.9036   1.9036   1.9277   1.9277   2.2460   2.2460
     2.2722   2.2722   4.6365   5.3375   7.1520   7.2555   9.7029

     occupation numbers
     1.0000   1.0000   1.0000   1.0000   1.0000   1.0000   1.0000   1.0000
     1.0000   1.0000   1.0000   1.0000   1.0000   1.0000   1.0000   1.0000
     1.0000   1.0000   1.0000   1.0000   1.0000   1.0000   1.0000   1.0000
     1.0000   1.0000  -0.0000  -0.0000  -0.0000  -0.0000  -0.0000

     the Fermi energy is     4.5636 ev

!    total energy              =    -431.31633915 Ry
     estimated scf accuracy    <       0.00000016 Ry
     smearing contrib. (-TS)   =       0.00000000 Ry
     internal energy E=F+TS    =    -431.31633915 Ry

     The total energy is F=E-TS. E is the sum of the following terms:
     one-electron contribution =    -191.76868733 Ry
     hartree contribution      =     129.06899934 Ry
     xc contribution           =    -190.92632829 Ry
     ewald contribution        =    -177.69032287 Ry

     convergence has been achieved in   9 iterations

     Forces acting on atoms (cartesian axes, Ry/au):

     atom    1 type  1   force =    -0.00000000    0.00000000    0.00025436
     atom    2 type  1   force =     0.00000000    0.00000000    0.00025436
     atom    3 type  2   force =     0.00000000    0.00000000   -0.05244078
     atom    4 type  2   force =     0.00000000   -0.00000000   -0.05244078
     atom    5 type  2   force =    -0.00000000   -0.00000000    0.05218642
     atom    6 type  2   force =     0.00000000    0.00000000    0.05218642
     The non-local contrib.  to forces
     atom    1 type  1   force =    -0.00000000    0.00000000   -0.00009564
     atom    2 type  1   force =    -0.00000000   -0.00000000   -0.00009564
     atom    3 type  2   force =     0.00000000   -0.00000000   -0.05673711
     atom    4 type  2   force =     0.00000000    0.00000000   -0.05673711
     atom    5 type  2   force =     0.00000000   -0.00000000    0.05667142
     atom    6 type  2   force =     0.00000000    0.00000000    0.05667142
     The ionic contribution  to forces
     atom    1 type  1   force =    -0.00001447    0.00000836    0.01066670
     atom    2 type  1   force =     0.00001447   -0.00000836    0.01066670
     atom    3 type  2   force =     0.00000491   -0.00000283   -9.77839204
     atom    4 type  2   force =    -0.00000491    0.00000283   -9.77839204
     atom    5 type  2   force =     0.00000967   -0.00000558    9.76772533
     atom    6 type  2   force =    -0.00000967    0.00000558    9.76772533
     The local contribution  to forces
     atom    1 type  1   force =     0.00000839    0.00000634   -0.01028051
     atom    2 type  1   force =    -0.00001853   -0.00003566   -0.01024647
     atom    3 type  2   force =    -0.00001172   -0.00002915    9.81550899
     atom    4 type  2   force =    -0.00000963   -0.00001004    9.81514117
     atom    5 type  2   force =     0.00000182    0.00003544   -9.80486611
     atom    6 type  2   force =    -0.00000442   -0.00000080   -9.80447998
     The core correction contribution to forces
     atom    1 type  1   force =    -0.00000059    0.00000030    0.00000351
     atom    2 type  1   force =    -0.00000019   -0.00000192   -0.00000122
     atom    3 type  2   force =    -0.00000073   -0.00000324   -0.03298808
     atom    4 type  2   force =    -0.00000127   -0.00000231   -0.03300661
     atom    5 type  2   force =     0.00000077    0.00000072    0.03292178
     atom    6 type  2   force =     0.00000051    0.00000348    0.03293340
     The Hubbard contrib.    to forces
     atom    1 type  1   force =     0.00000000    0.00000000    0.00000000
     atom    2 type  1   force =     0.00000000    0.00000000    0.00000000
     atom    3 type  2   force =     0.00000000    0.00000000    0.00000000
     atom    4 type  2   force =     0.00000000    0.00000000    0.00000000
     atom    5 type  2   force =     0.00000000    0.00000000    0.00000000
     atom    6 type  2   force =     0.00000000    0.00000000    0.00000000
     The SCF correction term to forces
     atom    1 type  1   force =     0.00001316   -0.00000148   -0.00001679
     atom    2 type  1   force =    -0.00000525    0.00008354   -0.00013980
     atom    3 type  2   force =     0.00000835    0.00002557    0.00013309
     atom    4 type  2   force =     0.00000996    0.00000982    0.00054028
     atom    5 type  2   force =    -0.00001596   -0.00003724   -0.00021797
     atom    6 type  2   force =    -0.00001893   -0.00003763   -0.00075969

     Total force =     0.104628     Total SCF correction =     0.000983

     Computing stress (Cartesian axis) and pressure

          total   stress  (Ry/bohr**3)                   (kbar)     P=       81.99
   0.00080574  -0.00000000   0.00000000          118.53       -0.00        0.00
  -0.00000000   0.00080574   0.00000000           -0.00      118.53        0.00
   0.00000000   0.00000000   0.00006063            0.00        0.00        8.92

     kinetic stress (kbar)   8432.19     -0.00     -0.00
                               -0.00   8432.19     -0.00
                               -0.00     -0.00   8116.03

     local   stress (kbar)  -8750.53     -0.00      0.00
                               -0.00  -8750.54      0.01
                                0.00      0.01  14800.47

     nonloc. stress (kbar)  -3157.91      0.00      0.00
                                0.00  -3157.91     -0.00
                                0.00     -0.00  -3025.86

     hartree stress (kbar)   8105.40      0.00     -0.00
                                0.00   8105.40     -0.00
                               -0.00     -0.00  -2478.40

     exc-cor stress (kbar)  11726.28      0.00      0.00
                                0.00  11726.28     -0.00
                                0.00     -0.00  11719.35

     corecor stress (kbar) -14241.29     -0.00      0.00
                               -0.00 -14241.29     -0.00
                                0.00     -0.00 -14208.39

     ewald   stress (kbar)  -1995.62      0.00      0.00
                                0.00  -1995.61     -0.00
                                0.00     -0.00 -14914.28

     hubbard stress (kbar)      0.00      0.00      0.00
                                0.00      0.00      0.00
                                0.00      0.00      0.00

     DFT-D   stress (kbar)      0.00      0.00      0.00
                                0.00      0.00      0.00
                                0.00      0.00      0.00

     XDM     stress (kbar)      0.00      0.00      0.00
                                0.00      0.00      0.00
                                0.00      0.00      0.00

     dft-nl  stress (kbar)      0.00      0.00      0.00
                                0.00      0.00      0.00
                                0.00      0.00      0.00

     TS-vdW  stress (kbar)      0.00      0.00      0.00
                                0.00      0.00      0.00
                                0.00      0.00      0.00

[...]

                                0.00      0.00      0.00

     Writing all to output data dir new_calculations/myprefix.save/

     General routines

     Parallel routines

   This run was terminated on:  19:18: 3  20May2023

   JOB DONE.