     Program PWSCF v.7.0 starts on 21May2023 at  2:29:16

     Reading input from espresso_13834.pwi
Warning: card &CELL ignored
Warning: card / ignored

     Current dimensions of program PWSCF are:
     Max number of different atomic species (ntypx) = 10
     Max number of k-points (npk) =  40000
     Max angular momentum in pseudopotentials (lmaxx) =  4
     file Al.pbe-n-kjpaw_psl.1.0.0.UPF: wavefunction(s)  3S 3P renormalized

     gamma-point specific algorithms are used

     Subspace diagonalization in iterative solution of the eigenvalue problem:
     a serial algorithm will be used

     Using Slab Decomposition

     bravais-lattice index     =            0
     lattice parameter (alat)  =      12.4911  a.u.
     unit-cell volume          =    1220.4040 (a.u.)^3
     number of atoms/cell      =            6
     number of atomic types    =            3
     number of electrons       =        32.00
     number of Kohn-Sham states=           20
     kinetic-energy cutoff     =      30.0000  Ry
     charge density cutoff     =     240.0000  Ry
     scf convergence threshold =      1.0E-06
     mixing beta               =       0.7000
     number of iterations used =            8  plain     mixing
     Exchange-correlation=  SLA  PW   PBX  PBC
                           (   1   4   3   4   0   0   0)

     celldm(1)=  12.491063  celldm(2)=   0.000000  celldm(3)=   0.000000
     celldm(4)=   0.000000  celldm(5)=   0.000000  celldm(6)=   0.000000

     crystal axes: (cart. coord. in units of alat)
               a(1) = (   1.000000   0.000000   0.000000 )
               a(2) = (   0.182270   0.983249   0.000000 )
               a(3) = (  -0.554525  -0.535644   0.636857 )

     reciprocal axes: (cart. coord. in units 2 pi/alat)
               b(1) = (  1.000000 -0.185375  0.714807 )
               b(2) = (  0.000000  1.017037  0.855403 )
               b(3) = (  0.000000  0.000000  1.570211 )

     PseudoPot. # 1 for Al read from file:
     /home/pragov/projects/rrg-bengioy-ad/pragov/crystal_structure_design/SSSP/Al.pbe-n-kjpaw_psl.1.0.0.UPF
     MD5 check sum: cfc449ca30b5f3223ec38ddd88ac046d
     Pseudo is Projector augmented-wave + core cor, Zval =  3.0
     Generated using "atomic" code by A. Dal Corso  v.5.1
     Shape of augmentation charge: PSQ
     Using radial grid of 1135 points,  6 beta functions with:
                l(1) =   0
                l(2) =   0
                l(3) =   1
                l(4) =   1
                l(5) =   2
                l(6) =   2
     Q(r) pseudized with 0 coefficients

     PseudoPot. # 2 for P  read from file:
     /home/pragov/projects/rrg-bengioy-ad/pragov/crystal_structure_design/SSSP/P.pbe-n-rrkjus_psl.1.0.0.UPF
     MD5 check sum: 8b930f418f0a4573dca56cd030ffe088
     Pseudo is Ultrasoft + core correction, Zval =  5.0
     Generated using "atomic" code by A. Dal Corso  v.5.1
     Using radial grid of 1147 points,  6 beta functions with:
                l(1) =   0
                l(2) =   0
                l(3) =   1
                l(4) =   1
                l(5) =   2
                l(6) =   2
     Q(r) pseudized with 0 coefficients

     PseudoPot. # 3 for S  read from file:
     /home/pragov/projects/rrg-bengioy-ad/pragov/crystal_structure_design/SSSP/s_pbe_v1.4.uspp.F.UPF
     MD5 check sum: 88d86576ff6df21479756cfb9bdac1df
     Pseudo is Ultrasoft + core correction, Zval =  6.0
     Generated by new atomic code, or converted to UPF format
     Using radial grid of  907 points,  6 beta functions with:
                l(1) =   0
                l(2) =   0
                l(3) =   1
                l(4) =   1
                l(5) =   2
                l(6) =   2
     Q(r) pseudized with  8 coefficients,  rinner =    1.300   1.300   1.300
                                                       1.300   1.300

     atomic species   valence    mass     pseudopotential
        Al             3.00    26.98154     Al( 1.00)
        P              5.00    30.97376     P ( 1.00)
        S              6.00    32.06000     S ( 1.00)

     No symmetry found

                                    s                        frac. trans.

      isym =  1     identity

 cryst.   s( 1) = (     1          0          0      )
                  (     0          1          0      )
                  (     0          0          1      )

 cart.    s( 1) = (  1.0000000  0.0000000 -0.0000000 )
                  (  0.0000000  1.0000000 -0.0000000 )
                  (  0.0000000  0.0000000  1.0000000 )

   Cartesian axes

     site n.     atom                  positions (alat units)
         1           Al  tau(   1) = (  -0.1861278   0.2238022   0.3184286  )
         2           P   tau(   2) = (   0.0000000   0.0000000   0.0000000  )
         3           S   tau(   3) = (  -0.3400119   0.1373177   0.6129528  )
         4           S   tau(   4) = (   0.7007880   0.0882594   0.0239044  )
         5           S   tau(   5) = (   0.7616131   0.5581558   0.3765756  )
         6           S   tau(   6) = (   0.1330996   0.1114760   0.2602816  )

   Crystallographic axes

     site n.     atom                  positions (cryst. coord.)
         1           Al  tau(   1) = ( -0.0000000  0.5000000  0.5000000  )
         2           P   tau(   2) = (  0.0000000  0.0000000  0.0000000  )
         3           S   tau(   3) = (  0.0726760  0.6639790  0.9624650  )
         4           S   tau(   4) = (  0.7015140  0.1102110  0.0375350  )
         5           S   tau(   5) = (  0.9273240  0.8897890  0.5913030  )
         6           S   tau(   6) = (  0.2984860  0.3360210  0.4086970  )

     number of k points=     1  Methfessel-Paxton smearing, width (Ry)=  0.0010
                       cart. coord. in units 2pi/alat
        k(    1) = (   0.0000000   0.0000000   0.0000000), wk =   2.0000000

                       cryst. coord.
        k(    1) = (   0.0000000   0.0000000   0.0000000), wk =   2.0000000

     Initial potential from superposition of free atoms

     starting charge      31.9974, renormalised to      32.0000
     Starting wfcs are   24 randomized atomic wfcs
     Checking if some PAW data can be deallocated...

     Self-consistent Calculation

     iteration #  1     ecut=    30.00 Ry     beta= 0.70
     Davidson diagonalization with overlap

     ethr =  1.00E-02,  avg # of iterations =  3.0

     Threshold (ethr) on eigenvalues was too large:
     Diagonalizing with lowered threshold

     Davidson diagonalization with overlap

[...]

     total energy              =    -150.15369860 Ry
     estimated scf accuracy    <       0.23496160 Ry

[...]

     total energy              =    -150.21316657 Ry
     estimated scf accuracy    <       0.00000131 Ry

     iteration #  7     ecut=    30.00 Ry     beta= 0.70
     Davidson diagonalization with overlap

     ethr =  4.10E-09,  avg # of iterations =  5.0

     End of self-consistent calculation

          k = 0.0000 0.0000 0.0000 (  1698 PWs)   bands (ev):

   -14.0568 -11.2592 -10.7760 -10.7301  -7.0008  -3.6971  -3.4529  -3.2287
    -3.2101  -0.7888  -0.7001  -0.4533  -0.4467   0.2053   0.2785   0.9696
     4.5290   4.9675   5.4748   6.0977

     occupation numbers
     1.0000   1.0000   1.0000   1.0000   1.0000   1.0000   1.0000   1.0000
     1.0000   1.0000   1.0000   1.0000   1.0000   1.0000   1.0000   1.0000
    -0.0000  -0.0000  -0.0000  -0.0000

     the Fermi energy is     1.1271 ev

!    total energy              =    -150.21316709 Ry
     estimated scf accuracy    <       0.00000090 Ry
     smearing contrib. (-TS)   =       0.00000000 Ry
     internal energy E=F+TS    =    -150.21316709 Ry

     The total energy is F=E-TS. E is the sum of the following terms:
     one-electron contribution =     -36.84456865 Ry
     hartree contribution      =      29.20160683 Ry
     xc contribution           =     -40.79051024 Ry
     ewald contribution        =     -67.10740104 Ry
     one-center paw contrib.   =     -34.67229399 Ry
      -> PAW hartree energy AE =       1.59473768 Ry
      -> PAW hartree energy PS =      -1.59045782 Ry
      -> PAW xc energy AE      =     -36.67489327 Ry
      -> PAW xc energy PS      =       1.99831942 Ry
      -> total E_H with PAW    =      29.20588669 Ry
      -> total E_XC with PAW   =     -75.46708410 Ry

     convergence has been achieved in   7 iterations

     Forces acting on atoms (cartesian axes, Ry/au):

     atom    1 type  1   force =     0.00002933    0.00017070   -0.00000893
     atom    2 type  2   force =     0.00001225   -0.00037030   -0.00019153
     atom    3 type  3   force =     0.01389884   -0.00144700    0.01067517
     atom    4 type  3   force =     0.00139040    0.01437512   -0.01079774
     atom    5 type  3   force =    -0.01357814    0.00031204   -0.00784915
     atom    6 type  3   force =    -0.00175268   -0.01304056    0.00817219
     The non-local contrib.  to forces
     atom    1 type  1   force =    -0.00012360    0.00007714    0.00017417
     atom    2 type  2   force =     0.00013252    0.00004074   -0.00017370
     atom    3 type  3   force =     0.02322255    0.24150865   -0.10482957
     atom    4 type  3   force =     0.24158651   -0.02108353    0.10476528
     atom    5 type  3   force =    -0.05615499   -0.20269768    0.16150139
     atom    6 type  3   force =    -0.20868955   -0.01750499   -0.16130242
     The ionic contribution  to forces
     atom    1 type  1   force =     0.00000000    0.00000000    0.00000000
     atom    2 type  2   force =    -0.00000000   -0.00000000   -0.00000000
     atom    3 type  3   force =    -0.16508463   -4.86604620    1.44726066
     atom    4 type  3   force =    -4.81462294    0.72461335   -1.44726066
     atom    5 type  3   force =     1.35999643    3.42927021   -3.49152367
     atom    6 type  3   force =     3.61971115    0.71216265    3.49152368
     The local contribution  to forces
     atom    1 type  1   force =     0.00013805    0.00019258   -0.00012608
     atom    2 type  2   force =    -0.00011873   -0.00031339    0.00007287
     atom    3 type  3   force =     0.15714068    4.63370504   -1.33743588
     atom    4 type  3   force =     4.58485073   -0.68976351    1.33747847
     atom    5 type  3   force =    -1.31941981   -3.23588176    3.32898889
     atom    6 type  3   force =    -3.42267590   -0.70775992   -3.32875144
     The core correction contribution to forces
     atom    1 type  1   force =    -0.00001528   -0.00002308   -0.00000650
     atom    2 type  2   force =    -0.00002244   -0.00000033   -0.00001392
     atom    3 type  3   force =    -0.00139868   -0.01171104    0.00572298
     atom    4 type  3   force =    -0.01158951    0.00094107   -0.00571463
     atom    5 type  3   force =     0.00249746    0.01023127   -0.00768583
     atom    6 type  3   force =     0.01047924    0.00053629    0.00769071
     The Hubbard contrib.    to forces
     atom    1 type  1   force =     0.00000000    0.00000000    0.00000000
     atom    2 type  2   force =     0.00000000    0.00000000    0.00000000
     atom    3 type  3   force =     0.00000000    0.00000000    0.00000000
     atom    4 type  3   force =     0.00000000    0.00000000    0.00000000
     atom    5 type  3   force =     0.00000000    0.00000000    0.00000000
     atom    6 type  3   force =     0.00000000    0.00000000    0.00000000
     The SCF correction term to forces
     atom    1 type  1   force =    -0.00001691   -0.00000631    0.00000417
     atom    2 type  2   force =    -0.00002617   -0.00002769   -0.00002209
     atom    3 type  3   force =    -0.00002814    0.00116619    0.00001165
     atom    4 type  3   force =     0.00111855   -0.00026263   -0.00001153
     atom    5 type  3   force =    -0.00054431   -0.00054037    0.00092475
     atom    6 type  3   force =    -0.00062469   -0.00040494   -0.00093366

     Total force =     0.033475     Total SCF correction =     0.002356

     Computing stress (Cartesian axis) and pressure

          total   stress  (Ry/bohr**3)                   (kbar)     P=       -0.07
  -0.00002458  -0.00004630   0.00002497           -3.62       -6.81        3.67
  -0.00004630  -0.00001314  -0.00003398           -6.81       -1.93       -5.00
   0.00002497  -0.00003398   0.00003637            3.67       -5.00        5.35

     kinetic stress (kbar)   3088.10     47.37     86.56
                               47.37   3070.11   -104.34
                               86.56   -104.34   3007.21

     local   stress (kbar)  -2401.72    576.29   1535.99
                              576.29  -2615.64  -1847.07
                             1535.99  -1847.07  -3524.91

     nonloc. stress (kbar)   2372.59      0.06     -2.40
                                0.06   2372.34      2.72
                               -2.40      2.72   2372.92

     hartree stress (kbar)   1034.39   -169.77   -532.28
                             -169.77   1097.39    640.05
                             -532.28    640.05   1388.13

     exc-cor stress (kbar)   1061.34     -1.22     -1.79
                               -1.22   1061.80      2.16
                               -1.79      2.16   1063.29

     corecor stress (kbar)  -2119.68     -0.17     -0.29
                               -0.17  -2119.59      0.33
                               -0.29      0.33  -2119.28

     ewald   stress (kbar)  -3038.65   -459.37  -1082.11
                             -459.37  -2868.33   1301.15
                            -1082.11   1301.15  -2182.01

     hubbard stress (kbar)      0.00      0.00      0.00
                                0.00      0.00      0.00
                                0.00      0.00      0.00

     DFT-D   stress (kbar)      0.00      0.00      0.00
                                0.00      0.00      0.00
                                0.00      0.00      0.00

     XDM     stress (kbar)      0.00      0.00      0.00
                                0.00      0.00      0.00
                                0.00      0.00      0.00

     dft-nl  stress (kbar)      0.00      0.00      0.00
                                0.00      0.00      0.00
                                0.00      0.00      0.00

     TS-vdW  stress (kbar)      0.00      0.00      0.00
                                0.00      0.00      0.00
                                0.00      0.00      0.00

[...]

                                0.00      0.00      0.00

     Writing all to output data dir new_calculations/myprefix.save/

     General routines

     Parallel routines

     PAW routines

   This run was terminated on:   2:29:31  21May2023

   JOB DONE.