     Program PWSCF v.7.0 starts on 20May2023 at 13:34:38

     Reading input from espresso_18349.pwi
Warning: card &CELL ignored
Warning: card / ignored

     Current dimensions of program PWSCF are:
     Max number of different atomic species (ntypx) = 10
     Max number of k-points (npk) =  40000
     Max angular momentum in pseudopotentials (lmaxx) =  4
     file O.pbe-n-kjpaw_psl.0.1.UPF: wavefunction(s)  2P renormalized

     gamma-point specific algorithms are used

     Subspace diagonalization in iterative solution of the eigenvalue problem:
     a serial algorithm will be used

     Using Slab Decomposition

     bravais-lattice index     =            0
     lattice parameter (alat)  =      11.5818  a.u.
     unit-cell volume          =    1064.2291 (a.u.)^3
     number of atoms/cell      =           14
     number of atomic types    =            4
     number of electrons       =       110.00
     number of Kohn-Sham states=           66
     kinetic-energy cutoff     =      30.0000  Ry
     charge density cutoff     =     240.0000  Ry
     scf convergence threshold =      1.0E-06
     mixing beta               =       0.7000
     number of iterations used =            8  plain     mixing
     Exchange-correlation= SLA  PW   PBX  PBC
                           (   1   4   3   4   0   0   0)

     celldm(1)=  11.581793  celldm(2)=   0.000000  celldm(3)=   0.000000
     celldm(4)=   0.000000  celldm(5)=   0.000000  celldm(6)=   0.000000

     crystal axes: (cart. coord. in units of alat)
               a(1) = (   1.000000   0.000000   0.000000 )
               a(2) = (   0.520446   0.853853   0.000000 )
               a(3) = (   0.520437   0.292235   0.802278 )

     reciprocal axes: (cart. coord. in units 2 pi/alat)
               b(1) = (  1.000000 -0.609526 -0.426675 )
               b(2) = (  0.000000  1.171162 -0.426604 )
               b(3) = (  0.000000  0.000000  1.246451 )

     PseudoPot. # 1 for Li read from file:
     /home/pragov/projects/rrg-bengioy-ad/pragov/crystal_structure_design/SSSP/li_pbe_v1.4.uspp.F.UPF
     MD5 check sum: e912e257baa3777c20ea3d68f190483c
     Pseudo is Ultrasoft, Zval =  3.0
     Generated by new atomic code, or converted to UPF format
     Using radial grid of  751 points,  5 beta functions with:
                l(1) =   0
                l(2) =   0
                l(3) =   0
                l(4) =   1
                l(5) =   1
     Q(r) pseudized with 10 coefficients,  rinner =    1.150   1.150   1.150

     PseudoPot. # 2 for Cr read from file:
     /home/pragov/projects/rrg-bengioy-ad/pragov/crystal_structure_design/SSSP/cr_pbe_v1.5.uspp.F.UPF
     MD5 check sum: 0d52af634a40206e4dee301ad30da4bf
     Pseudo is Ultrasoft + core correction, Zval = 14.0
     Generated by new atomic code, or converted to UPF format
     Using radial grid of  857 points,  6 beta functions with:
                l(1) =   0
                l(2) =   0
                l(3) =   1
                l(4) =   1
                l(5) =   2
                l(6) =   2
     Q(r) pseudized with  8 coefficients,  rinner =    0.950   0.950   0.950
                                                       0.950   0.950

     PseudoPot. # 3 for Sn read from file:
     /home/pragov/projects/rrg-bengioy-ad/pragov/crystal_structure_design/SSSP/Sn_pbe_v1.uspp.F.UPF
     MD5 check sum: 4cf58ce39ec5d5d420df3dd08604eb00
     Pseudo is Ultrasoft + core correction, Zval = 14.0
     Generated by new atomic code, or converted to UPF format
     Using radial grid of  891 points,  6 beta functions with:
                l(1) =   0
                l(2) =   0
                l(3) =   1
                l(4) =   1
                l(5) =   2
                l(6) =   2
     Q(r) pseudized with  6 coefficients,  rinner =    1.200   1.200   1.200
                                                       1.200   1.200

     PseudoPot. # 4 for O  read from file:
     /home/pragov/projects/rrg-bengioy-ad/pragov/crystal_structure_design/SSSP/O.pbe-n-kjpaw_psl.0.1.UPF
     MD5 check sum: 0234752ac141de4415c5fc33072bef88
     Pseudo is Projector augmented-wave + core cor, Zval =  6.0
     Generated using "atomic" code by A. Dal Corso  v.5.0.99 svn rev. 10869
     Shape of augmentation charge: BESSEL
     Using radial grid of 1095 points,  4 beta functions with:
                l(1) =   0
                l(2) =   0
                l(3) =   1
                l(4) =   1
     Q(r) pseudized with 0 coefficients

     atomic species   valence    mass     pseudopotential
        Li             3.00     6.94000     Li( 1.00)
        Cr            14.00    51.99610     Cr( 1.00)
        Sn            14.00   118.71000     Sn( 1.00)
        O              6.00    15.99900     O ( 1.00)

     No symmetry found

                                    s                        frac. trans.

      isym =  1     identity

 cryst.   s( 1) = (     1          0          0      )
                  (     0          1          0      )
                  (     0          0          1      )

 cart.    s( 1) = (  1.0000000  0.0000000  0.0000000 )
                  (  0.0000000  1.0000000  0.0000000 )
                  (  0.0000000  0.0000000  1.0000000 )

   Cartesian axes

     site n.     atom                  positions (alat units)
         1           Li  tau(   1) = (   0.2426569   0.1362794   0.0954005  )
         2           Li  tau(   2) = (   1.7982277   1.0098249   0.7068933  )
         3           Cr  tau(   3) = (   0.5204503   0.5730361   0.4011405  )
         4           Cr  tau(   4) = (   0.7602187   0.1461480   0.4011260  )
         5           Cr  tau(   5) = (   1.2806741   0.7191635   0.8022753  )
         6           Sn  tau(   6) = (   1.0204547   0.5730324   0.4011373  )
         7           O   tau(   7) = (   0.5504039   0.3091605   0.2163952  )
         8           O   tau(   8) = (   0.7627066   0.4283269   0.5737128  )
         9           O   tau(   9) = (   0.7627095   0.6856650   0.2061019  )
        10           O   tau(  10) = (   0.9824634   0.2944034   0.2060907  )
        11           O   tau(  11) = (   1.0584082   0.8516969   0.5962135  )
        12           O   tau(  12) = (   1.2781846   0.4604220   0.5961846  )
        13           O   tau(  13) = (   1.2781903   0.7177578   0.2285673  )
        14           O   tau(  14) = (   1.4904264   0.8368903   0.5858433  )

   Crystallographic axes

     site n.     atom                  positions (cryst. coord.)
         1           Li  tau(   1) = (  0.1188860  0.1189070  0.1189120  )
         2           Li  tau(   2) = (  0.8810990  0.8811050  0.8811080  )
         3           Cr  tau(   3) = (  0.0000130  0.4999900  0.5000020  )
         4           Cr  tau(   4) = (  0.4999870  0.0000410  0.4999840  )
         5           Cr  tau(   5) = (  0.5000140  0.5000030  0.9999970  )
         6           Sn  tau(   6) = (  0.5000210  0.4999870  0.4999980  )
         7           O   tau(   7) = (  0.2696320  0.2697620  0.2697260  )
         8           O   tau(   8) = (  0.2568410  0.2568920  0.7151050  )
         9           O   tau(   9) = (  0.2568400  0.7151010  0.2568960  )
        10           O   tau(  10) = (  0.7150830  0.2568750  0.2568820  )
        11           O   tau(  11) = (  0.2848870  0.7431280  0.7431510  )
        12           O   tau(  12) = (  0.7431680  0.2848940  0.7431150  )
        13           O   tau(  13) = (  0.7431740  0.7431030  0.2848980  )
        14           O   tau(  14) = (  0.7303550  0.7302110  0.7302250  )

     number of k points=     1  Methfessel-Paxton smearing, width (Ry)=  0.0010
                       cart. coord. in units 2pi/alat
        k(    1) = (   0.0000000   0.0000000   0.0000000), wk =   2.0000000

                       cryst. coord.
        k(    1) = (   0.0000000   0.0000000   0.0000000), wk =   2.0000000

     Check: negative core charge=   -0.000017

     Initial potential from superposition of free atoms

     starting charge     105.0984, renormalised to     110.0000

     negative rho (up, down):  4.956E-03 0.000E+00
     Starting wfcs are   81 randomized atomic wfcs
     Checking if some PAW data can be deallocated...

     Self-consistent Calculation

     iteration #  1     ecut=    30.00 Ry     beta= 0.70
     Davidson diagonalization with overlap

     ethr =  1.00E-02,  avg # of iterations =  3.0

     negative rho (up, down):  7.696E-03 0.000E+00

     total energy              =   -1045.60715360 Ry
     estimated scf accuracy    <       9.58747998 Ry

[...]

     total energy              =   -1051.91323923 Ry
     estimated scf accuracy    <       0.00000497 Ry

     iteration # 32     ecut=    30.00 Ry     beta= 0.70
     Davidson diagonalization with overlap

     ethr =  4.52E-09,  avg # of iterations =  1.0

[...]

     End of self-consistent calculation

          k = 0.0000 0.0000 0.0000 (  1470 PWs)   bands (ev):

   -63.8267 -63.8137 -63.8133 -36.2082 -36.2067 -35.4378 -35.3132 -35.3125
   -35.0662 -35.0380 -35.0372 -34.9843 -34.9841 -34.9408 -12.8354 -12.8350
   -12.3187 -12.2448 -12.2448 -11.0222  -9.9395  -9.9330  -9.6231  -9.6200
    -9.6197  -8.9499  -8.9497   0.3365   2.2033   2.4078   2.4081   2.9953
     2.9956   3.0958   3.7783   3.7792   4.3136   4.5251   4.5263   4.7665
     5.0070   5.1069   5.1070   5.3159   5.3166   5.6815   5.9649   5.9652
     6.2714   6.3593   6.3593   8.0880   8.0886   8.4457   8.8890   8.8891
     8.9473   9.0024   9.1179   9.1184  10.8593  11.3632  11.3632  11.4055
    11.5846  11.6300

     occupation numbers
     1.0000   1.0000   1.0000   1.0000   1.0000   1.0000   1.0000   1.0000
     1.0000   1.0000   1.0000   1.0000   1.0000   1.0000   1.0000   1.0000
     1.0000   1.0000   1.0000   1.0000   1.0000   1.0000   1.0000   1.0000
     1.0000   1.0000   1.0000   1.0000   1.0000   1.0000   1.0000   1.0000
     1.0000   1.0000   1.0000   1.0000   1.0000   1.0000   1.0000   1.0000
     1.0000   1.0000   1.0000   1.0000   1.0000   1.0000   1.0000   1.0000
     1.0000   1.0000   1.0000   1.0000   1.0000   1.0000   0.5017   0.4983
    -0.0000  -0.0000  -0.0000  -0.0000  -0.0000  -0.0000  -0.0000  -0.0000
    -0.0000  -0.0000

     the Fermi energy is     8.8890 ev

!    total energy              =   -1051.91323906 Ry
     estimated scf accuracy    <       0.00000023 Ry
     smearing contrib. (-TS)   =      -0.00056418 Ry
     internal energy E=F+TS    =   -1051.91267488 Ry

     The total energy is F=E-TS. E is the sum of the following terms:
     one-electron contribution =    -562.83849382 Ry
     hartree contribution      =     333.93862863 Ry
     xc contribution           =    -181.03858367 Ry
     ewald contribution        =    -565.79922955 Ry
     one-center paw contrib.   =     -76.17499647 Ry
      -> PAW hartree energy AE =     235.91133579 Ry
      -> PAW hartree energy PS =    -235.08090811 Ry
      -> PAW xc energy AE      =    -137.16712188 Ry
      -> PAW xc energy PS      =      60.16169773 Ry
      -> total E_H with PAW    =     334.76905631 Ry
      -> total E_XC with PAW   =    -258.04400782 Ry

     convergence has been achieved in  32 iterations

     negative rho (up, down):  4.979E-03 0.000E+00

     Forces acting on atoms (cartesian axes, Ry/au):

     atom    1 type  1   force =    -0.00127157   -0.00072292   -0.00049513
     atom    2 type  1   force =     0.00130019    0.00071075    0.00050101
     atom    3 type  2   force =    -0.00005491   -0.00003572   -0.00004366
     atom    4 type  2   force =    -0.00014872   -0.00014887    0.00001312
     atom    5 type  2   force =    -0.00012398   -0.00000884   -0.00002940
     atom    6 type  3   force =     0.00002058    0.00015772    0.00005723
     atom    7 type  4   force =     0.01699781    0.00944741    0.00662578
     atom    8 type  4   force =    -0.00622576   -0.00357277   -0.04316156
     atom    9 type  4   force =    -0.00619852   -0.04178793    0.01139445
     atom   10 type  4   force =    -0.03886052    0.01628237    0.01135348
     atom   11 type  4   force =     0.03894783   -0.01634721   -0.01144396
     atom   12 type  4   force =     0.00620933    0.04174374   -0.01138700
     atom   13 type  4   force =     0.00621842    0.00359063    0.04314311
     atom   14 type  4   force =    -0.01681019   -0.00930835   -0.00652746
     The non-local contrib.  to forces
     atom    1 type  1   force =     0.04455439    0.02501303    0.01750484
     atom    2 type  1   force =    -0.04467280   -0.02502438   -0.01754297
     atom    3 type  2   force =     0.00005033   -0.00006532   -0.00000222
     atom    4 type  2   force =    -0.00001832    0.00007254   -0.00004034
     atom    5 type  2   force =     0.00005687   -0.00001885    0.00006888
     atom    6 type  3   force =    -0.00002234    0.00001097    0.00001573
     atom    7 type  4   force =     0.55187985    0.30968397    0.21705784
     atom    8 type  4   force =     0.17567058    0.09833021   -0.82604519
     atom    9 type  4   force =     0.17579840   -0.74242079    0.37511860
     atom   10 type  4   force =    -0.54259849    0.53655137    0.37556374
     atom   11 type  4   force =     0.54256060   -0.53641422   -0.37552694
     atom   12 type  4   force =    -0.17587208    0.74227456   -0.37523575
     atom   13 type  4   force =    -0.17590781   -0.09850357    0.82575204
     atom   14 type  4   force =    -0.55127450   -0.30956297   -0.21647667
     The ionic contribution  to forces
     atom    1 type  1   force =     1.01723630    0.57011947    0.39946200
     atom    2 type  1   force =    -1.01800200   -0.57115703   -0.39996379
     atom    3 type  2   force =    -0.00009634    0.00046818   -0.00094347
     atom    4 type  2   force =    -0.00217272   -0.00790553    0.00262649
     atom    5 type  2   force =    -0.00009553    0.00193954    0.00026354
     atom    6 type  3   force =     0.00146489    0.00313738    0.00078434
     atom    7 type  4   force =   -13.32671233   -7.49082163   -5.24454476
     atom    8 type  4   force =     1.56119416    0.87439745   14.37729809
     atom    9 type  4   force =     1.56077236   13.80754287   -4.09885533
     atom   10 type  4   force =    12.59966895   -5.85650413   -4.09955003
     atom   11 type  4   force =   -12.59735793    5.85533227    4.09665579
     atom   12 type  4   force =    -1.56073765  -13.80709224    4.09925273
     atom   13 type  4   force =    -1.56082346   -0.87223483  -14.37455972
     atom   14 type  4   force =    13.32566130    7.49277824    5.24207410
     The local contribution  to forces
     atom    1 type  1   force =    -1.06306947   -0.59585621   -0.41744947
     atom    2 type  1   force =     1.06398282    0.59689475    0.41799635
     atom    3 type  2   force =    -0.00001368   -0.00044403    0.00089483
     atom    4 type  2   force =     0.00203482    0.00769114   -0.00258353
     atom    5 type  2   force =    -0.00008909   -0.00193281   -0.00035927
     atom    6 type  3   force =    -0.00141765   -0.00297919   -0.00073738
     atom    7 type  4   force =    12.79681228    7.19335520    5.03651307
     atom    8 type  4   force =    -1.74133525   -0.97531511  -13.60319034
     atom    9 type  4   force =    -1.74100182  -13.11443613    3.73933131
     atom   10 type  4   force =   -12.10145692    5.34165994    3.73955442
     atom   11 type  4   force =    12.09927008   -5.34068843   -3.73678856
     atom   12 type  4   force =     1.74104958   13.11408465   -3.73960616
     atom   13 type  4   force =     1.74119081    0.97334193   13.60072286
     atom   14 type  4   force =   -12.79617300   -7.19529021   -5.03452069
     The core correction contribution to forces
     atom    1 type  1   force =     0.00000000    0.00000000    0.00000000
     atom    2 type  1   force =     0.00000000    0.00000000    0.00000000
     atom    3 type  2   force =    -0.00000058   -0.00000202   -0.00000014
     atom    4 type  2   force =     0.00000113   -0.00000462    0.00000296
     atom    5 type  2   force =    -0.00000194   -0.00000233    0.00000254
     atom    6 type  3   force =     0.00000059   -0.00001245   -0.00000599
     atom    7 type  4   force =    -0.00508089   -0.00284758   -0.00199668
     atom    8 type  4   force =    -0.00187745   -0.00105035    0.00859404
     atom    9 type  4   force =    -0.00187881    0.00771460   -0.00392852
     atom   10 type  4   force =     0.00561151   -0.00561887   -0.00393306
     atom   11 type  4   force =    -0.00561186    0.00561781    0.00393388
     atom   12 type  4   force =     0.00187959   -0.00771294    0.00392989
     atom   13 type  4   force =     0.00188025    0.00105176   -0.00859141
     atom   14 type  4   force =     0.00507290    0.00284477    0.00199008
     The Hubbard contrib.    to forces
     atom    1 type  1   force =     0.00000000    0.00000000    0.00000000
     atom    2 type  1   force =     0.00000000    0.00000000    0.00000000
     atom    3 type  2   force =     0.00000000    0.00000000    0.00000000
     atom    4 type  2   force =     0.00000000    0.00000000    0.00000000
     atom    5 type  2   force =     0.00000000    0.00000000    0.00000000
     atom    6 type  3   force =     0.00000000    0.00000000    0.00000000
     atom    7 type  4   force =     0.00000000    0.00000000    0.00000000
     atom    8 type  4   force =     0.00000000    0.00000000    0.00000000
     atom    9 type  4   force =     0.00000000    0.00000000    0.00000000
     atom   10 type  4   force =     0.00000000    0.00000000    0.00000000
     atom   11 type  4   force =     0.00000000    0.00000000    0.00000000
     atom   12 type  4   force =     0.00000000    0.00000000    0.00000000
     atom   13 type  4   force =     0.00000000    0.00000000    0.00000000
     atom   14 type  4   force =     0.00000000    0.00000000    0.00000000
     The SCF correction term to forces
     atom    1 type  1   force =     0.00000701    0.00000106   -0.00001257
     atom    2 type  1   force =    -0.00000804   -0.00000233    0.00001135
     atom    3 type  2   force =     0.00000516    0.00000774    0.00000726
     atom    4 type  2   force =     0.00000617   -0.00000214    0.00000747
     atom    5 type  2   force =     0.00000551    0.00000588   -0.00000517
     atom    6 type  3   force =    -0.00000511    0.00000127    0.00000045
     atom    7 type  4   force =     0.00009870    0.00007771   -0.00040377
     atom    8 type  4   force =     0.00012200    0.00006529    0.00018177
     atom    9 type  4   force =     0.00011115   -0.00018822   -0.00027168
     atom   10 type  4   force =    -0.00008577    0.00019432   -0.00028166
     atom   11 type  4   force =     0.00008674   -0.00019437    0.00028180
     atom   12 type  4   force =    -0.00011030    0.00018999    0.00027221
     atom   13 type  4   force =    -0.00012156   -0.00006439   -0.00018074
     atom   14 type  4   force =    -0.00009708   -0.00007791    0.00040565

     Total force =     0.110954     Total SCF correction =     0.000978

     Computing stress (Cartesian axis) and pressure

     negative rho (up, down):  4.979E-03 0.000E+00
          total   stress  (Ry/bohr**3)                   (kbar)     P=     -476.30
  -0.00276983   0.00051572   0.00036081         -407.46       75.87       53.08
   0.00051572  -0.00339828   0.00020371           75.87     -499.90       29.97
   0.00036081   0.00020371  -0.00354538           53.08       29.97     -521.54

     kinetic stress (kbar)  25910.72     70.48     49.35
                               70.48  25824.89     27.83
                               49.35     27.83  25804.40

     local   stress (kbar) -11289.58   4161.09   2913.23
                             4161.09 -16345.07   1624.62
                             2913.23   1624.62 -17531.12

     nonloc. stress (kbar)   6380.86     10.29      7.19
                               10.29   6368.57      3.96
                                7.19      3.96   6365.58

     hartree stress (kbar)  13569.58  -2007.45  -1405.41
                            -2007.45  16008.60   -784.79
                            -1405.41   -784.79  16581.12

     exc-cor stress (kbar)  -1443.74     -0.37     -0.26
                               -0.37  -1443.28     -0.14
                               -0.26     -0.14  -1443.19

     corecor stress (kbar)  -5513.42     -0.63     -0.44
                               -0.63  -5512.66     -0.25
                               -0.44     -0.25  -5512.48

     ewald   stress (kbar) -28021.87  -2157.54  -1510.58
                            -2157.54 -25400.95   -841.27
                            -1510.58   -841.27 -24785.85

     hubbard stress (kbar)      0.00      0.00      0.00
                                0.00      0.00      0.00
                                0.00      0.00      0.00

     DFT-D   stress (kbar)      0.00      0.00      0.00
                                0.00      0.00      0.00
                                0.00      0.00      0.00

     XDM     stress (kbar)      0.00      0.00      0.00
                                0.00      0.00      0.00
                                0.00      0.00      0.00

     dft-nl  stress (kbar)      0.00      0.00      0.00
                                0.00      0.00      0.00
                                0.00      0.00      0.00

     TS-vdW  stress (kbar)      0.00      0.00      0.00
                                0.00      0.00      0.00
                                0.00      0.00      0.00

[...]

                                0.00      0.00      0.00

     Writing all to output data dir new_calculations/myprefix.save/

     General routines

     Parallel routines

     PAW routines

   This run was terminated on:  13:35:26  20May2023

   JOB DONE.