     Program PWSCF v.7.0 starts on 21May2023 at  4: 5:48

     Reading input from espresso_21542.pwi
Warning: card &CELL ignored
Warning: card / ignored

     Current dimensions of program PWSCF are:
     Max number of different atomic species (ntypx) = 10
     Max number of k-points (npk) =  40000
     Max angular momentum in pseudopotentials (lmaxx) =  4
     file Al.pbe-n-kjpaw_psl.1.0.0.UPF: wavefunction(s)  3S 3P renormalized

     gamma-point specific algorithms are used
     Message from routine setup:
     using ibrav=0 with symmetry is DISCOURAGED, use correct ibrav instead

     Subspace diagonalization in iterative solution of the eigenvalue problem:
     a serial algorithm will be used

     Using Slab Decomposition

     bravais-lattice index     =            0
     lattice parameter (alat)  =      10.2548  a.u.
     unit-cell volume          =     880.3237 (a.u.)^3
     number of atoms/cell      =            7
     number of atomic types    =            3
     number of electrons       =        63.00
     number of Kohn-Sham states=           38
     kinetic-energy cutoff     =      30.0000  Ry
     charge density cutoff     =     240.0000  Ry
     scf convergence threshold =      1.0E-06
     mixing beta               =       0.7000
     number of iterations used =            8  plain     mixing
     Exchange-correlation= PBE
                           (   1   4   3   4   0   0   0)

     celldm(1)=  10.254775  celldm(2)=   0.000000  celldm(3)=   0.000000
     celldm(4)=   0.000000  celldm(5)=   0.000000  celldm(6)=   0.000000

     crystal axes: (cart. coord. in units of alat)
               a(1) = (   1.000000   0.000000   0.000000 )
               a(2) = (   0.728202   0.685362   0.000000 )
               a(3) = (   0.210127   0.083331   1.191088 )

     reciprocal axes: (cart. coord. in units 2 pi/alat)
               b(1) = (  1.000000 -1.062507 -0.102081 )
               b(2) = (  0.000000  1.459082 -0.102081 )
               b(3) = (  0.000000  0.000000  0.839569 )

     PseudoPot. # 1 for Tm read from file:
     /home/pragov/projects/rrg-bengioy-ad/pragov/crystal_structure_design/SSSP/Tm.GGA-PBE-paw-v1.0.UPF
     MD5 check sum: e502ddec747d736c64e0ed72ddfd7d4c
     Pseudo is Projector augmented-wave + core cor, Zval = 23.0
     Generated using ATOMPAW code
     Shape of augmentation charge: BESSEL
     Using radial grid of 1116 points,  8 beta functions with:
                l(1) =   0
                l(2) =   0
                l(3) =   1
                l(4) =   1
                l(5) =   2
                l(6) =   2
                l(7) =   3
                l(8) =   3
     Q(r) pseudized with 0 coefficients

     PseudoPot. # 2 for Al read from file:
     /home/pragov/projects/rrg-bengioy-ad/pragov/crystal_structure_design/SSSP/Al.pbe-n-kjpaw_psl.1.0.0.UPF
     MD5 check sum: cfc449ca30b5f3223ec38ddd88ac046d
     Pseudo is Projector augmented-wave + core cor, Zval =  3.0
     Generated using "atomic" code by A. Dal Corso  v.5.1
     Shape of augmentation charge: PSQ
     Using radial grid of 1135 points,  6 beta functions with:
                l(1) =   0
                l(2) =   0
                l(3) =   1
                l(4) =   1
                l(5) =   2
                l(6) =   2
     Q(r) pseudized with 0 coefficients

     PseudoPot. # 3 for Si read from file:
     /home/pragov/projects/rrg-bengioy-ad/pragov/crystal_structure_design/SSSP/Si.pbe-n-rrkjus_psl.1.0.0.UPF
     MD5 check sum: 0b0bb1205258b0d07b9f9672cf965d36
     Pseudo is Ultrasoft + core correction, Zval =  4.0
     Generated using "atomic" code by A. Dal Corso  v.5.1
     Using radial grid of 1141 points,  6 beta functions with:
                l(1) =   0
                l(2) =   0
                l(3) =   1
                l(4) =   1
                l(5) =   2
                l(6) =   2
     Q(r) pseudized with 0 coefficients

     atomic species   valence    mass     pseudopotential
        Tm            23.00   168.93422     Tm( 1.00)
        Al             3.00    26.98154     Al( 1.00)
        Si             4.00    28.08500     Si( 1.00)

      2 Sym. Ops., with inversion, found

                                    s                        frac. trans.

      isym =  1     identity

 cryst.   s( 1) = (     1          0          0      )
                  (     0          1          0      )
                  (     0          0          1      )

 cart.    s( 1) = (  1.0000000 -0.0000000 -0.0000000 )
                  (  0.0000000  1.0000000 -0.0000000 )
                  (  0.0000000  0.0000000  1.0000000 )

      isym =  2     inversion

 cryst.   s( 2) = (    -1          0          0      )
                  (     0         -1          0      )
                  (     0          0         -1      )

 cart.    s( 2) = ( -1.0000000  0.0000000  0.0000000 )
                  (  0.0000000 -1.0000000  0.0000000 )
                  (  0.0000000  0.0000000 -1.0000000 )

   Cartesian axes

     site n.     atom                  positions (alat units)
         1           Tm  tau(   1) = (   1.2126061   0.4808898   0.8064569  )
         2           Tm  tau(   2) = (   0.7257228   0.2878038   0.3846308  )
         3           Al  tau(   3) = (   0.7094435   0.2813478   1.0325134  )
         4           Al  tau(   4) = (   0.0000000   0.0000000   0.0000000  )
         5           Al  tau(   5) = (   1.2288854   0.4873457   0.1585743  )
         6           Si  tau(   6) = (   0.2380754   0.0944149   0.4297099  )
         7           Si  tau(   7) = (   1.7002534   0.6742787   0.7613778  )

   Crystallographic axes

     site n.     atom                  positions (cryst. coord.)
         1           Tm  tau(   1) = (  0.6193340  0.6193340  0.6770760  )
         2           Tm  tau(   2) = (  0.3806660  0.3806660  0.3229240  )
         3           Al  tau(   3) = (  0.3051100  0.3051100  0.8668660  )
         4           Al  tau(   4) = (  0.0000000  0.0000000  0.0000000  )
         5           Al  tau(   5) = (  0.6948900  0.6948900  0.1331340  )
         6           Si  tau(   6) = (  0.0938940  0.0938940  0.3607710  )
         7           Si  tau(   7) = (  0.9061060  0.9061060  0.6392290  )

     number of k points=     1  Methfessel-Paxton smearing, width (Ry)=  0.0010
                       cart. coord. in units 2pi/alat
        k(    1) = (   0.0000000   0.0000000   0.0000000), wk =   2.0000000

                       cryst. coord.
        k(    1) = (   0.0000000   0.0000000   0.0000000), wk =   2.0000000

     Initial potential from superposition of free atoms

     starting charge      62.9833, renormalised to      63.0000
     Starting wfcs are   84 randomized atomic wfcs
     Checking if some PAW data can be deallocated...

     Self-consistent Calculation

     iteration #  1     ecut=    30.00 Ry     beta= 0.70
     Davidson diagonalization with overlap

     ethr =  1.00E-02,  avg # of iterations =  3.0

     total energy              =   -2029.09076015 Ry
     estimated scf accuracy    <       3.86957588 Ry

[...]

     ethr =  2.70E-08,  avg # of iterations =  1.0
     Minimization algorithm failed to find Fermi energy: reverting to bisection
     Possible cause: smearing is larger than the electronic band-gap.

[...]

     ethr =  2.70E-08,  avg # of iterations =  1.0

[...]

     total energy              =   -2033.83118319 Ry
     estimated scf accuracy    <       0.00000221 Ry

     iteration # 48     ecut=    30.00 Ry     beta= 0.70
     Davidson diagonalization with overlap

     ethr =  3.50E-09,  avg # of iterations =  1.0
     Minimization algorithm failed to find Fermi energy: reverting to bisection
     Possible cause: smearing is larger than the electronic band-gap.

     End of self-consistent calculation

          k = 0.0000 0.0000 0.0000 (  1220 PWs)   bands (ev):

   -38.2192 -38.2086 -11.7646 -11.6455 -11.6132 -11.4793 -11.3520 -11.3323
     0.6119   3.2217   4.2830   7.5526   8.1017   8.6301   9.2708   9.5692
     9.7791  10.2093  10.8119  10.9727  11.0184  11.0844  11.0907  11.1665
    11.2147  11.2246  11.2385  11.2691  11.2772  11.2915  11.2982  11.3001
    11.9761  12.0850  12.1175  12.2285  12.8434  13.9056

     occupation numbers
     1.0000   1.0000   1.0000   1.0000   1.0000   1.0000   1.0000   1.0000
     1.0000   1.0000   1.0000   1.0000   1.0000   1.0000   1.0000   1.0000
     1.0000   1.0000   1.0000   1.0000   1.0000   1.0000   1.0000   1.0000
     1.0000   1.0000   1.0000   1.0011   1.0103   1.0054   0.7903   0.6929
    -0.0000  -0.0000  -0.0000  -0.0000  -0.0000  -0.0000

     the Fermi energy is    11.3033 ev

!    total energy              =   -2033.83118166 Ry
     estimated scf accuracy    <       0.00000065 Ry
     smearing contrib. (-TS)   =      -0.00029796 Ry
     internal energy E=F+TS    =   -2033.83088370 Ry

     The total energy is F=E-TS. E is the sum of the following terms:
     one-electron contribution =    -749.57654311 Ry
     hartree contribution      =     364.47097914 Ry
     xc contribution           =     -91.52430136 Ry
     ewald contribution        =    -477.84674669 Ry
     one-center paw contrib.   =   -1079.35427169 Ry
      -> PAW hartree energy AE =     793.89142933 Ry
      -> PAW hartree energy PS =    -699.54881889 Ry
      -> PAW xc energy AE      =   -1248.48499427 Ry
      -> PAW xc energy PS      =      74.78811214 Ry
      -> total E_H with PAW    =     458.81358958 Ry
      -> total E_XC with PAW   =   -1265.22118348 Ry

     convergence has been achieved in  48 iterations

     Forces acting on atoms (cartesian axes, Ry/au):

     atom    1 type  1   force =    -0.02838908   -0.01080120    0.01545870
     atom    2 type  1   force =     0.02838908    0.01080120   -0.01545870
     atom    3 type  2   force =    -0.01970713   -0.00782114   -0.04474070
     atom    4 type  2   force =     0.00000000    0.00000000    0.00000000
     atom    5 type  2   force =     0.01970713    0.00782114    0.04474070
     atom    6 type  3   force =    -0.01025735   -0.00408719    0.01894374
     atom    7 type  3   force =     0.01025735    0.00408719   -0.01894374
     The non-local contrib.  to forces
     atom    1 type  1   force =     0.00580139    0.00291231   -0.22401019
     atom    2 type  1   force =    -0.00580139   -0.00291231    0.22401019
     atom    3 type  2   force =     0.04156245    0.01648404   -0.02341534
     atom    4 type  2   force =     0.00000000    0.00000000    0.00000000
     atom    5 type  2   force =    -0.04156245   -0.01648404    0.02341534
     atom    6 type  3   force =    -0.00009770   -0.00002492   -0.00785652
     atom    7 type  3   force =     0.00009770    0.00002492    0.00785652
     The ionic contribution  to forces
     atom    1 type  1   force =     0.96004959    0.38073206   15.82282459
     atom    2 type  1   force =    -0.96004959   -0.38073206  -15.82282459
     atom    3 type  2   force =    -0.08585000   -0.03404600    2.22434990
     atom    4 type  2   force =     0.00000000    0.00000000   -0.00000000
     atom    5 type  2   force =     0.08585000    0.03404600   -2.22434990
     atom    6 type  3   force =     0.06650012    0.02637231   -4.06030836
     atom    7 type  3   force =    -0.06650012   -0.02637231    4.06030836
     The local contribution  to forces
     atom    1 type  1   force =    -0.99432426   -0.39485023  -15.58336944
     atom    2 type  1   force =     0.99414455    0.39504248   15.58278561
     atom    3 type  2   force =     0.02833412    0.01122679   -2.24702763
     atom    4 type  2   force =    -0.00004949   -0.00002029    0.00015609
     atom    5 type  2   force =    -0.02826388   -0.01119762    2.24718605
     atom    6 type  3   force =    -0.07636042   -0.03033667    4.08620825
     atom    7 type  3   force =     0.07629383    0.03030109   -4.08646278
     The core correction contribution to forces
     atom    1 type  1   force =    -0.00000606   -0.00000241    0.00000553
     atom    2 type  1   force =     0.00000606    0.00000241   -0.00000553
     atom    3 type  2   force =    -0.00372104   -0.00147593    0.00144044
     atom    4 type  2   force =     0.00000013    0.00000002   -0.00000000
     atom    5 type  2   force =     0.00372116    0.00147603   -0.00144005
     atom    6 type  3   force =    -0.00035273   -0.00014191    0.00074695
     atom    7 type  3   force =     0.00035346    0.00014192   -0.00074589
     The Hubbard contrib.    to forces
     atom    1 type  1   force =     0.00000000    0.00000000    0.00000000
     atom    2 type  1   force =     0.00000000    0.00000000    0.00000000
     atom    3 type  2   force =     0.00000000    0.00000000    0.00000000
     atom    4 type  2   force =     0.00000000    0.00000000    0.00000000
     atom    5 type  2   force =     0.00000000    0.00000000    0.00000000
     atom    6 type  3   force =     0.00000000    0.00000000    0.00000000
     atom    7 type  3   force =     0.00000000    0.00000000    0.00000000
     The SCF correction term to forces
     atom    1 type  1   force =     0.00008268    0.00040914   -0.00001249
     atom    2 type  1   force =     0.00008186   -0.00059724    0.00055492
     atom    3 type  2   force =    -0.00002882   -0.00000806   -0.00008079
     atom    4 type  2   force =     0.00004495    0.00001833   -0.00014765
     atom    5 type  2   force =    -0.00003386   -0.00001725   -0.00006348
     atom    6 type  3   force =     0.00005701    0.00004341    0.00015333
     atom    7 type  3   force =     0.00001613   -0.00000903    0.00009996

     Total force =     0.090484     Total SCF correction =     0.000960

     Computing stress (Cartesian axis) and pressure

          total   stress  (Ry/bohr**3)                   (kbar)     P=       11.96
   0.00076660   0.00032515  -0.00000589          112.77       47.83       -0.87
   0.00032515   0.00008045  -0.00000505           47.83       11.83       -0.74
  -0.00000589  -0.00000505  -0.00060313           -0.87       -0.74      -88.72

     kinetic stress (kbar)   6351.29     48.26     27.10
                               48.26   6248.82     10.71
                               27.10     10.71   5993.92

     local   stress (kbar)  -9105.24   1211.10   1129.42
                             1211.10 -11680.13    448.59
                             1129.42    448.59   8347.70

     nonloc. stress (kbar)   8634.39    -55.45    -45.09
                              -55.45   8753.59    -18.65
                              -45.09    -18.65   8589.98

     hartree stress (kbar)  22526.48   -715.61   -678.75
                             -715.61  24047.70   -269.46
                             -678.75   -269.46  14330.15

     exc-cor stress (kbar)  -2685.17     -1.00     -0.62
                               -1.00  -2683.05     -0.25
                               -0.62     -0.25  -2688.18

     corecor stress (kbar)  -1696.54      3.15      2.17
                                3.15  -1703.24      0.86
                                2.17      0.86  -1696.78

     ewald   stress (kbar) -23912.44   -442.62   -435.09
                             -442.62 -22971.87   -172.54
                             -435.09   -172.54 -32965.51

     hubbard stress (kbar)      0.00      0.00      0.00
                                0.00      0.00      0.00
                                0.00      0.00      0.00

     DFT-D   stress (kbar)      0.00      0.00      0.00
                                0.00      0.00      0.00
                                0.00      0.00      0.00

     XDM     stress (kbar)      0.00      0.00      0.00
                                0.00      0.00      0.00
                                0.00      0.00      0.00

     dft-nl  stress (kbar)      0.00      0.00      0.00
                                0.00      0.00      0.00
                                0.00      0.00      0.00

     TS-vdW  stress (kbar)      0.00      0.00      0.00
                                0.00      0.00      0.00
                                0.00      0.00      0.00

[...]

                                0.00      0.00      0.00

     Writing all to output data dir new_calculations/myprefix.save/

     General routines

     Parallel routines

     PAW routines

   This run was terminated on:   4: 6:57  21May2023

   JOB DONE.