     Program PWSCF v.7.0 starts on 21May2023 at  4:25:17

     Reading input from espresso_22473.pwi
Warning: card &CELL ignored
Warning: card / ignored

     Current dimensions of program PWSCF are:
     Max number of different atomic species (ntypx) = 10
     Max number of k-points (npk) =  40000
     Max angular momentum in pseudopotentials (lmaxx) =  4

     gamma-point specific algorithms are used
     Message from routine setup:
     using ibrav=0 with symmetry is DISCOURAGED, use correct ibrav instead

     Subspace diagonalization in iterative solution of the eigenvalue problem:
     a serial algorithm will be used

     Using Slab Decomposition

     bravais-lattice index     =            0
     lattice parameter (alat)  =      17.4741  a.u.
     unit-cell volume          =    1808.3226 (a.u.)^3
     number of atoms/cell      =           20
     number of atomic types    =            4
     number of electrons       =       214.00
     number of Kohn-Sham states=          128
     kinetic-energy cutoff     =      30.0000  Ry
     charge density cutoff     =     240.0000  Ry
     scf convergence threshold =      1.0E-06
     mixing beta               =       0.7000
     number of iterations used =            8  plain     mixing
     Exchange-correlation= SLA  PW   PBE  PBE
                           (   1   4   3   4   0   0   0)

     celldm(1)=  17.474065  celldm(2)=   0.000000  celldm(3)=   0.000000
     celldm(4)=   0.000000  celldm(5)=   0.000000  celldm(6)=   0.000000

     crystal axes: (cart. coord. in units of alat)
               a(1) = (   1.000000   0.000000   0.000000 )
               a(2) = (   0.000000   1.000000   0.000000 )
               a(3) = (   0.000000   0.000000   0.338918 )

     reciprocal axes: (cart. coord. in units 2 pi/alat)
               b(1) = (  1.000000  0.000000  0.000000 )
               b(2) = (  0.000000  1.000000  0.000000 )
               b(3) = (  0.000000  0.000000  2.950570 )

     PseudoPot. # 1 for Sc read from file:
     /home/pragov/projects/rrg-bengioy-ad/pragov/crystal_structure_design/SSSP/Sc_ONCV_PBE-1.0.oncvpsp.upf
     MD5 check sum: e21af8023abb52e52cb7cd3133e4a229
     Pseudo is Norm-conserving, Zval = 11.0
     Generated using ONCVPSP code by D. R. Hamann
     Using radial grid of 1662 points,  6 beta functions with:
                l(1) =   0
                l(2) =   0
                l(3) =   1
                l(4) =   1
                l(5) =   2
                l(6) =   2

     PseudoPot. # 2 for Si read from file:
     /home/pragov/projects/rrg-bengioy-ad/pragov/crystal_structure_design/SSSP/Si.pbe-n-rrkjus_psl.1.0.0.UPF
     MD5 check sum: 0b0bb1205258b0d07b9f9672cf965d36
     Pseudo is Ultrasoft + core correction, Zval =  4.0
     Generated using "atomic" code by A. Dal Corso  v.5.1
     Using radial grid of 1141 points,  6 beta functions with:
                l(1) =   0
                l(2) =   0
                l(3) =   1
                l(4) =   1
                l(5) =   2
                l(6) =   2
     Q(r) pseudized with 0 coefficients

     PseudoPot. # 3 for B  read from file:
     /home/pragov/projects/rrg-bengioy-ad/pragov/crystal_structure_design/SSSP/b_pbe_v1.4.uspp.F.UPF
     MD5 check sum: cc6de2960df11db49a60e589f9ebb39b
     Pseudo is Ultrasoft + core correction, Zval =  3.0
     Generated by new atomic code, or converted to UPF format
     Using radial grid of  781 points,  4 beta functions with:
                l(1) =   0
                l(2) =   0
                l(3) =   1
                l(4) =   1
     Q(r) pseudized with  8 coefficients,  rinner =    1.100   1.100   1.100

     PseudoPot. # 4 for Ir read from file:
     /home/pragov/projects/rrg-bengioy-ad/pragov/crystal_structure_design/SSSP/Ir_pbe_v1.2.uspp.F.UPF
     MD5 check sum: 8836f839c3459d2b385c504ce6d91f2c
     Pseudo is Ultrasoft + core correction, Zval = 15.0
     Generated by new atomic code, or converted to UPF format
     Using radial grid of  983 points,  7 beta functions with:
                l(1) =   0
                l(2) =   0
                l(3) =   1
                l(4) =   1
                l(5) =   1
                l(6) =   2
                l(7) =   2
     Q(r) pseudized with  8 coefficients,  rinner =    1.400   1.400   1.400
                                                       1.400   1.400

     atomic species   valence    mass     pseudopotential
        Sc            11.00    44.95591     Sc( 1.00)
        Si             4.00    28.08500     Si( 1.00)
        B              3.00    10.81000     B ( 1.00)
        Ir            15.00   192.21700     Ir( 1.00)

     16 Sym. Ops., with inversion, found ( 8 have fractional translation)

                                    s                        frac. trans.

      isym =  1     identity

 cryst.   s( 1) = (     1          0          0      )
                  (     0          1          0      )
                  (     0          0          1      )

 cart.    s( 1) = (  1.0000000  0.0000000  0.0000000 )
                  (  0.0000000  1.0000000  0.0000000 )
                  (  0.0000000  0.0000000  1.0000000 )

      isym =  2     180 deg rotation - cart. axis [0,0,1]

[...]

 cryst.   s( 3) = (    -1          0          0      )    f =(  0.5000000 )
                  (     0          1          0      )       (  0.5000000 )
                  (     0          0         -1      )       (  0.0000000 )

 cart.    s( 3) = ( -1.0000000  0.0000000  0.0000000 )    f =(  0.5000000 )
                  (  0.0000000  1.0000000  0.0000000 )       (  0.5000000 )
                  (  0.0000000  0.0000000 -1.0000000 )       (  0.0000000 )

[...]

 cryst.   s( 6) = (     0         -1          0      )    f =(  0.5000000 )
                  (    -1          0          0      )       (  0.5000000 )
                  (     0          0         -1      )       (  0.0000000 )

 cart.    s( 6) = (  0.0000000 -1.0000000  0.0000000 )    f =(  0.5000000 )
                  ( -1.0000000  0.0000000  0.0000000 )       (  0.5000000 )
                  (  0.0000000  0.0000000 -1.0000000 )       (  0.0000000 )

[...]

      isym =  8      90 deg rotation - cart. axis [0,0,1]

[...]

      isym =  9     inversion

 cryst.   s( 9) = (    -1          0          0      )
                  (     0         -1          0      )
                  (     0          0         -1      )

 cart.    s( 9) = ( -1.0000000  0.0000000  0.0000000 )
                  (  0.0000000 -1.0000000  0.0000000 )
                  (  0.0000000  0.0000000 -1.0000000 )

      isym = 10     inv. 180 deg rotation - cart. axis [0,0,1]

 cryst.   s(10) = (     1          0          0      )
                  (     0          1          0      )
                  (     0          0         -1      )

 cart.    s(10) = (  1.0000000  0.0000000  0.0000000 )
                  (  0.0000000  1.0000000  0.0000000 )
                  (  0.0000000  0.0000000 -1.0000000 )

[...]

 cryst.   s(11) = (     1          0          0      )    f =( -0.5000000 )
                  (     0         -1          0      )       (  0.5000000 )
                  (     0          0          1      )       (  0.0000000 )

 cart.    s(11) = (  1.0000000  0.0000000  0.0000000 )    f =( -0.5000000 )
                  (  0.0000000 -1.0000000  0.0000000 )       (  0.5000000 )
                  (  0.0000000  0.0000000  1.0000000 )       (  0.0000000 )

[...]

 cryst.   s(14) = (     0          1          0      )    f =( -0.5000000 )
                  (     1          0          0      )       (  0.5000000 )
                  (     0          0          1      )       (  0.0000000 )

 cart.    s(14) = (  0.0000000  1.0000000  0.0000000 )    f =( -0.5000000 )
                  (  1.0000000  0.0000000  0.0000000 )       (  0.5000000 )
                  (  0.0000000  0.0000000  1.0000000 )       (  0.0000000 )

[...]

      isym = 16     inv.  90 deg rotation - cart. axis [0,0,1]

 cryst.   s(16) = (     0         -1          0      )
                  (     1          0          0      )
                  (     0          0         -1      )

 cart.    s(16) = (  0.0000000  1.0000000  0.0000000 )
                  ( -1.0000000  0.0000000  0.0000000 )
                  (  0.0000000  0.0000000 -1.0000000 )

   Cartesian axes

     site n.     atom                  positions (alat units)
         1           Sc  tau(   1) = (   0.1753600   0.6753600   0.0000000  )
         2           Sc  tau(   2) = (   0.6753600   0.8246400   0.0000000  )
         3           Sc  tau(   3) = (   0.3246400   0.1753600   0.0000000  )
         4           Sc  tau(   4) = (   0.8246400   0.3246400   0.0000000  )
         5           Si  tau(   5) = (   0.0000000   0.0000000   0.0000000  )
         6           Si  tau(   6) = (   0.5000000   0.5000000   0.0000000  )
         7           B   tau(   7) = (   0.3764870   0.8764870   0.0000000  )
         8           B   tau(   8) = (   0.8764870   0.6235130   0.0000000  )
         9           B   tau(   9) = (   0.1235130   0.3764870   0.0000000  )
        10           B   tau(  10) = (   0.6235130   0.1235130   0.0000000  )
        11           Ir  tau(  11) = (   0.0000000   0.5000000   0.1694588  )
        12           Ir  tau(  12) = (   0.5000000   0.0000000   0.1694588  )
        13           Ir  tau(  13) = (   0.2877220   0.4298460   0.1694588  )
        14           Ir  tau(  14) = (   0.7122790   0.5701540   0.1694588  )
        15           Ir  tau(  15) = (   0.5701540   0.2877220   0.1694588  )
        16           Ir  tau(  16) = (   0.4298460   0.7122790   0.1694588  )
        17           Ir  tau(  17) = (   0.9298460   0.7877210   0.1694588  )
        18           Ir  tau(  18) = (   0.7877210   0.0701540   0.1694588  )
        19           Ir  tau(  19) = (   0.2122780   0.9298460   0.1694588  )
        20           Ir  tau(  20) = (   0.0701540   0.2122780   0.1694588  )

   Crystallographic axes

     site n.     atom                  positions (cryst. coord.)
         1           Sc  tau(   1) = (  0.1753600  0.6753600  0.0000000  )
         2           Sc  tau(   2) = (  0.6753600  0.8246400  0.0000000  )
         3           Sc  tau(   3) = (  0.3246400  0.1753600  0.0000000  )
         4           Sc  tau(   4) = (  0.8246400  0.3246400  0.0000000  )
         5           Si  tau(   5) = (  0.0000000  0.0000000  0.0000000  )
         6           Si  tau(   6) = (  0.5000000  0.5000000  0.0000000  )
         7           B   tau(   7) = (  0.3764870  0.8764870  0.0000000  )
         8           B   tau(   8) = (  0.8764870  0.6235130  0.0000000  )
         9           B   tau(   9) = (  0.1235130  0.3764870  0.0000000  )
        10           B   tau(  10) = (  0.6235130  0.1235130  0.0000000  )
        11           Ir  tau(  11) = (  0.0000000  0.5000000  0.5000000  )
        12           Ir  tau(  12) = (  0.5000000  0.0000000  0.5000000  )
        13           Ir  tau(  13) = (  0.2877220  0.4298460  0.5000000  )
        14           Ir  tau(  14) = (  0.7122790  0.5701540  0.5000000  )
        15           Ir  tau(  15) = (  0.5701540  0.2877220  0.5000000  )
[...]
   -30.0991 -29.9892 -29.9845 -29.9789 -29.9788 -29.8977 -29.8975 -29.8723
   -29.8612 -29.8607 -29.7334 -29.7331 -29.6792 -29.6790 -29.6621 -29.6604
   -29.6603 -29.6256 -29.3828 -29.3747 -29.3745 -29.3693 -29.3646 -29.3599
   -29.3598 -29.3508  -9.1689  -9.1594  -9.1594  -9.1493  -9.0854  -9.0755
    -9.0620  -9.0620  -8.8226  -8.8225  -8.8218  -8.8176   6.8097   7.9362
     8.2133   9.1744   9.1746   9.3356  11.7686  11.7687  11.9379  12.4610
    12.8031  13.1423  13.1692  13.5947  13.5950  13.6249  13.7293  13.7294
    13.8628  14.2718  14.3181  14.3182  14.3854  14.4510  14.5595  14.7693
    14.7695  14.9104  14.9400  14.9400  15.0521  15.1631  15.7055  15.8397
    15.9563  15.9564  16.0657  16.0658  16.1183  16.4180  16.4181  16.5896
    16.7340  16.8459  16.8459  16.8989  16.9064  17.1568  17.1569  17.3906
    17.3907  17.4793  17.7565  17.7695  17.8941  17.8943  18.0348  18.2048
    18.2049  18.3417  19.8785  19.8785  19.9092  20.0379  20.1528  20.2659
    20.2660  20.4582  20.5558  20.5558  20.6512  21.0949  21.1963  21.1999
    21.2079  21.2199  21.2199  21.6226  21.6275  21.8390  21.8734  22.2100

     occupation numbers
     1.0000   1.0000   1.0000   1.0000   1.0000   1.0000   1.0000   1.0000
     1.0000   1.0000   1.0000   1.0000   1.0000   1.0000   1.0000   1.0000
     1.0000   1.0000   1.0000   1.0000   1.0000   1.0000   1.0000   1.0000
     1.0000   1.0000   1.0000   1.0000   1.0000   1.0000   1.0000   1.0000
     1.0000   1.0000   1.0000   1.0000   1.0000   1.0000   1.0000   1.0000
     1.0000   1.0000   1.0000   1.0000   1.0000   1.0000   1.0000   1.0000
     1.0000   1.0000   1.0000   1.0000   1.0000   1.0000   1.0000   1.0000
     1.0000   1.0000   1.0000   1.0000   1.0000   1.0000   1.0000   1.0000
     1.0000   1.0000   1.0000   1.0000   1.0000   1.0000   1.0000   1.0000
     1.0000   1.0000   1.0000   1.0000   1.0000   1.0000   1.0000   1.0000
     1.0000   1.0000   1.0000   1.0000   1.0000   1.0000   1.0000   1.0000
     1.0000   1.0000   1.0000   1.0000   1.0000   1.0000   1.0000   1.0000
     1.0000   1.0000   1.0000   1.0000   1.0000   1.0000   1.0000   1.0000
     1.0000   1.0000   0.5024   0.5009  -0.0032  -0.0000  -0.0000  -0.0000
    -0.0000  -0.0000  -0.0000  -0.0000  -0.0000  -0.0000  -0.0000  -0.0000
    -0.0000  -0.0000  -0.0000  -0.0000  -0.0000  -0.0000  -0.0000  -0.0000

     the Fermi energy is    19.8786 ev

!    total energy              =   -2235.31287573 Ry
     estimated scf accuracy    <       0.00000021 Ry
     smearing contrib. (-TS)   =      -0.00054809 Ry
     internal energy E=F+TS    =   -2235.31232764 Ry

     The total energy is F=E-TS. E is the sum of the following terms:
     one-electron contribution =    -319.06167889 Ry
     hartree contribution      =     312.70842982 Ry
     xc contribution           =    -577.48823670 Ry
     ewald contribution        =   -1651.47084188 Ry

     convergence has been achieved in  47 iterations

     negative rho (up, down):  3.180E+00 0.000E+00

     Forces acting on atoms (cartesian axes, Ry/au):

     atom    1 type  1   force =     0.00081894    0.00081894    0.00000000
     atom    2 type  1   force =     0.00081894   -0.00081894   -0.00000000
     atom    3 type  1   force =    -0.00081894    0.00081894   -0.00000000
     atom    4 type  1   force =    -0.00081894   -0.00081894   -0.00000000
     atom    5 type  2   force =     0.00000000    0.00000000    0.00000000
     atom    6 type  2   force =     0.00000000    0.00000000   -0.00000000
     atom    7 type  3   force =    -0.00687929   -0.00687929   -0.00000000
     atom    8 type  3   force =    -0.00687929    0.00687929   -0.00000000
     atom    9 type  3   force =     0.00687929   -0.00687929   -0.00000000
     atom   10 type  3   force =     0.00687929    0.00687929    0.00000000
     atom   11 type  4   force =     0.00000000    0.00000000   -0.00000000
     atom   12 type  4   force =     0.00000000    0.00000000   -0.00000000
     atom   13 type  4   force =    -0.02874913   -0.02052705    0.00000000
     atom   14 type  4   force =     0.02874913    0.02052705   -0.00000000
     atom   15 type  4   force =     0.02052705   -0.02874913    0.00000000
     atom   16 type  4   force =    -0.02052705    0.02874913    0.00000000
     atom   17 type  4   force =    -0.02052705   -0.02874913    0.00000000
     atom   18 type  4   force =    -0.02874913    0.02052705    0.00000000
     atom   19 type  4   force =     0.02874913   -0.02052705    0.00000000
     atom   20 type  4   force =     0.02052705    0.02874913    0.00000000
     The non-local contrib.  to forces
     atom    1 type  1   force =    -0.02037867   -0.02037867    0.00000000
     atom    2 type  1   force =    -0.02037867    0.02037867    0.00000000
     atom    3 type  1   force =     0.02037867   -0.02037867   -0.00000000
     atom    4 type  1   force =     0.02037867    0.02037867   -0.00000000
     atom    5 type  2   force =     0.00000000    0.00000000   -0.00000000
     atom    6 type  2   force =     0.00000000    0.00000000    0.00000000
     atom    7 type  3   force =     0.01585390    0.01585390   -0.00000000
     atom    8 type  3   force =     0.01585390   -0.01585390    0.00000000
     atom    9 type  3   force =    -0.01585390    0.01585390   -0.00000000
     atom   10 type  3   force =    -0.01585390   -0.01585390    0.00000000
     atom   11 type  4   force =     0.00000000    0.00000000   -0.00000000
     atom   12 type  4   force =     0.00000000    0.00000000    0.00000000
     atom   13 type  4   force =     0.01549636   -0.00168515   -0.00000000
     atom   14 type  4   force =    -0.01549636    0.00168515   -0.00000000
     atom   15 type  4   force =     0.00168515    0.01549636   -0.00000000
     atom   16 type  4   force =    -0.00168515   -0.01549636    0.00000000
     atom   17 type  4   force =    -0.00168515    0.01549636   -0.00000000
     atom   18 type  4   force =     0.01549636    0.00168515   -0.00000000
     atom   19 type  4   force =    -0.01549636   -0.00168515   -0.00000000
     atom   20 type  4   force =     0.00168515   -0.01549636   -0.00000000
     The ionic contribution  to forces
     atom    1 type  1   force =     1.64397606    1.64384099   -0.00000000
     atom    2 type  1   force =     1.64390603   -1.64390603    0.00000000
     atom    3 type  1   force =    -1.64391102    1.64391102   -0.00000000
     atom    4 type  1   force =    -1.64384099   -1.64397606    0.00000000
     atom    5 type  2   force =    -0.00004977   -0.00000293   -0.00000000
     atom    6 type  2   force =     0.00000293    0.00004977   -0.00000000
     atom    7 type  3   force =    -0.52785751   -0.52781712   -0.00000000
     atom    8 type  3   force =    -0.52782837    0.52782837   -0.00000000
     atom    9 type  3   force =     0.52784626   -0.52784626    0.00000000
     atom   10 type  3   force =     0.52781712    0.52785751   -0.00000000
     atom   11 type  4   force =     0.00020119   -0.00020119   -0.00000000
     atom   12 type  4   force =    -0.00008002    0.00008002   -0.00000000
     atom   13 type  4   force =     9.83077227    2.46904690   -0.00000000
     atom   14 type  4   force =    -9.83114453   -2.46902694   -0.00000000
     atom   15 type  4   force =    -2.46904346    9.83084670    0.00000000
     atom   16 type  4   force =     2.46903038   -9.83107009   -0.00000000
     atom   17 type  4   force =     2.46902694    9.83114453   -0.00000000
     atom   18 type  4   force =     9.83107009   -2.46903038   -0.00000000
     atom   19 type  4   force =    -9.83084670    2.46904346   -0.00000000
     atom   20 type  4   force =    -2.46904690   -9.83077227   -0.00000000
     The local contribution  to forces
     atom    1 type  1   force =    -1.62355696   -1.62273751    0.00000029
     atom    2 type  1   force =    -1.62215139    1.62248773   -0.00000120
     atom    3 type  1   force =     1.62241672   -1.62257984    0.00000007
     atom    4 type  1   force =     1.62320183    1.62302914    0.00000030
     atom    5 type  2   force =     0.00002416   -0.00013174    0.00000010
     atom    6 type  2   force =     0.00002177   -0.00001061   -0.00000037
     atom    7 type  3   force =     0.50563694    0.50557107    0.00000058
     atom    8 type  3   force =     0.50595531   -0.50572070    0.00000004
     atom    9 type  3   force =    -0.50592945    0.50584742   -0.00000014
     atom   10 type  3   force =    -0.50561403   -0.50566088    0.00000011
     atom   11 type  4   force =    -0.00026573    0.00067616    0.00000011
     atom   12 type  4   force =     0.00012126   -0.00002069   -0.00000193
     atom   13 type  4   force =    -9.87454018   -2.48819385   -0.00000036
     atom   14 type  4   force =     9.87509132    2.48850294    0.00000178
     atom   15 type  4   force =     2.48912728   -9.87374002   -0.00000105
     atom   16 type  4   force =    -2.48919751    9.87380328   -0.00000030
     atom   17 type  4   force =    -2.48792684   -9.87464985   -0.00000069
     atom   18 type  4   force =    -9.87316848    2.48874100    0.00000114
     atom   19 type  4   force =     9.87278980   -2.48921514    0.00000040
     atom   20 type  4   force =     2.48807168    9.87410546    0.00000003
     The core correction contribution to forces
     atom    1 type  1   force =     0.00000000    0.00000000    0.00000000
     atom    2 type  1   force =     0.00000000    0.00000000    0.00000000
     atom    3 type  1   force =     0.00000000    0.00000000    0.00000000
     atom    4 type  1   force =     0.00000000    0.00000000    0.00000000
     atom    5 type  2   force =     0.00000167   -0.00000136    0.00000001
     atom    6 type  2   force =     0.00000194   -0.00000084   -0.00000004
     atom    7 type  3   force =    -0.00061396   -0.00061402   -0.00000000
     atom    8 type  3   force =    -0.00061333    0.00061302    0.00000001
     atom    9 type  3   force =     0.00061342   -0.00061330   -0.00000000
     atom   10 type  3   force =     0.00061391    0.00061384   -0.00000000
     atom   11 type  4   force =     0.00000041   -0.00000182   -0.00000004
     atom   12 type  4   force =     0.00000032    0.00000224    0.00000004
     atom   13 type  4   force =    -0.00129585    0.00077014    0.00000005
     atom   14 type  4   force =     0.00129711   -0.00077849    0.00000004
     atom   15 type  4   force =    -0.00076793   -0.00129781   -0.00000003
     atom   16 type  4   force =     0.00076593    0.00129674    0.00000003
     atom   17 type  4   force =     0.00077491   -0.00129981   -0.00000002
     atom   18 type  4   force =    -0.00129076   -0.00076703   -0.00000002
     atom   19 type  4   force =     0.00129110    0.00077300    0.00000004
     atom   20 type  4   force =    -0.00076898    0.00129809   -0.00000012
     The Hubbard contrib.    to forces
     atom    1 type  1   force =     0.00000000    0.00000000    0.00000000
     atom    2 type  1   force =     0.00000000    0.00000000    0.00000000
     atom    3 type  1   force =     0.00000000    0.00000000    0.00000000
     atom    4 type  1   force =     0.00000000    0.00000000    0.00000000
     atom    5 type  2   force =     0.00000000    0.00000000    0.00000000
     atom    6 type  2   force =     0.00000000    0.00000000    0.00000000
     atom    7 type  3   force =     0.00000000    0.00000000    0.00000000
     atom    8 type  3   force =     0.00000000    0.00000000    0.00000000
     atom    9 type  3   force =     0.00000000    0.00000000    0.00000000
     atom   10 type  3   force =     0.00000000    0.00000000    0.00000000
     atom   11 type  4   force =     0.00000000    0.00000000    0.00000000
     atom   12 type  4   force =     0.00000000    0.00000000    0.00000000
     atom   13 type  4   force =     0.00000000    0.00000000    0.00000000
     atom   14 type  4   force =     0.00000000    0.00000000    0.00000000
     atom   15 type  4   force =     0.00000000    0.00000000    0.00000000
     atom   16 type  4   force =     0.00000000    0.00000000    0.00000000
     atom   17 type  4   force =     0.00000000    0.00000000    0.00000000
     atom   18 type  4   force =     0.00000000    0.00000000    0.00000000
     atom   19 type  4   force =     0.00000000    0.00000000    0.00000000
     atom   20 type  4   force =     0.00000000    0.00000000    0.00000000
     The SCF correction term to forces
     atom    1 type  1   force =     0.00078561    0.00010862   -0.00000028
     atom    2 type  1   force =    -0.00057216    0.00022893    0.00000073
     atom    3 type  1   force =     0.00029606   -0.00013967    0.00000007
     atom    4 type  1   force =    -0.00055466   -0.00026174    0.00000002
     atom    5 type  2   force =     0.00003841    0.00012251    0.00000001
     atom    6 type  2   force =    -0.00000880   -0.00003985   -0.00000004
     atom    7 type  3   force =     0.00009328    0.00009328   -0.00000006
     atom    8 type  3   force =    -0.00022326   -0.00000980    0.00000001
     atom    9 type  3   force =     0.00018491   -0.00011253    0.00000001
     atom   10 type  3   force =    -0.00008112   -0.00004924   -0.00000009
     atom   11 type  4   force =     0.00006449   -0.00047542   -0.00000038
     atom   12 type  4   force =    -0.00004936   -0.00006535    0.00000058
     atom   13 type  4   force =     0.00079942   -0.00044436    0.00000045
     atom   14 type  4   force =    -0.00097587    0.00009999   -0.00000092
     atom   15 type  4   force =    -0.00043587   -0.00006184    0.00000081
     atom   16 type  4   force =     0.00051741    0.00022204   -0.00000012
     atom   17 type  4   force =    -0.00067823    0.00054525    0.00000048
     atom   18 type  4   force =    -0.00081454   -0.00007862   -0.00000053
     atom   19 type  4   force =     0.00097384    0.00055069   -0.00000045
     atom   20 type  4   force =     0.00058072   -0.00037636    0.00000032

     Total force =     0.101818     Total SCF correction =     0.002709

     Computing stress (Cartesian axis) and pressure

     negative rho (up, down):  3.180E+00 0.000E+00
          total   stress  (Ry/bohr**3)                   (kbar)     P=      -49.10
  -0.00071338   0.00000000   0.00000000         -104.94        0.00        0.00
   0.00000000  -0.00071338   0.00000000            0.00     -104.94        0.00
   0.00000000   0.00000000   0.00042540            0.00        0.00       62.58

     kinetic stress (kbar)  33128.46      0.00      0.00
                                0.00  33128.46      0.00
                                0.00      0.00  34150.86

     local   stress (kbar)   9988.27     -0.17      0.00
                               -0.17   9988.35      0.00
                                0.00      0.00  13945.40

     nonloc. stress (kbar)    954.10      0.00      0.00
                                0.00    954.10      0.00
                                0.00      0.00   1171.52

     hartree stress (kbar)   8980.48      0.09      0.00
                                0.09   8980.47     -0.00
                                0.00     -0.00   7477.54

     exc-cor stress (kbar)  19064.14      0.00      0.00
                                0.00  19064.14     -0.00
                                0.00     -0.00  19081.28

     corecor stress (kbar) -28612.28     -0.00      0.00
                               -0.00 -28612.28      0.00
                                0.00      0.00 -28634.93

     ewald   stress (kbar) -43608.14      0.00      0.00
                                0.00 -43608.14      0.00
                                0.00      0.00 -47129.08

     hubbard stress (kbar)      0.00      0.00      0.00
                                0.00      0.00      0.00
                                0.00      0.00      0.00

     DFT-D   stress (kbar)      0.00      0.00      0.00
                                0.00      0.00      0.00
                                0.00      0.00      0.00

     XDM     stress (kbar)      0.00      0.00      0.00
                                0.00      0.00      0.00
                                0.00      0.00      0.00

     dft-nl  stress (kbar)      0.00      0.00      0.00
                                0.00      0.00      0.00
                                0.00      0.00      0.00

     TS-vdW  stress (kbar)      0.00      0.00      0.00
                                0.00      0.00      0.00
                                0.00      0.00      0.00

[...]

                                0.00      0.00      0.00

     Writing all to output data dir new_calculations/myprefix.save/

     General routines

     Parallel routines

   This run was terminated on:   4:27:38  21May2023

   JOB DONE.