     Program PWSCF v.7.0 starts on 21May2023 at  5:54:20

     Reading input from espresso_15528.pwi
Warning: card &CELL ignored
Warning: card / ignored

     Current dimensions of program PWSCF are:
     Max number of different atomic species (ntypx) = 10
     Max number of k-points (npk) =  40000
     Max angular momentum in pseudopotentials (lmaxx) =  4

     gamma-point specific algorithms are used
     Message from routine setup:
     using ibrav=0 with symmetry is DISCOURAGED, use correct ibrav instead

     Subspace diagonalization in iterative solution of the eigenvalue problem:
     a serial algorithm will be used

     Using Slab Decomposition

     bravais-lattice index     =            0
     lattice parameter (alat)  =      11.1913  a.u.
     unit-cell volume          =    1124.1122 (a.u.)^3
     number of atoms/cell      =           12
     number of atomic types    =            3
     number of electrons       =       104.00
     number of Kohn-Sham states=           62
     kinetic-energy cutoff     =      30.0000  Ry
     charge density cutoff     =     240.0000  Ry
     scf convergence threshold =      1.0E-06
     mixing beta               =       0.7000
     number of iterations used =            8  plain     mixing
     Exchange-correlation= PBE
                           (   1   4   3   4   0   0   0)

     celldm(1)=  11.191343  celldm(2)=   0.000000  celldm(3)=   0.000000
     celldm(4)=   0.000000  celldm(5)=   0.000000  celldm(6)=   0.000000

     crystal axes: (cart. coord. in units of alat)
               a(1) = (   1.000000   0.000000   0.000000 )
               a(2) = (  -0.471747   0.881734   0.000000 )
               a(3) = (   0.000000   0.000000   0.909548 )

     reciprocal axes: (cart. coord. in units 2 pi/alat)
               b(1) = (  1.000000  0.535023  0.000000 )
               b(2) = (  0.000000  1.134129  0.000000 )
               b(3) = (  0.000000  0.000000  1.099447 )

     PseudoPot. # 1 for Rb read from file:
     /home/pragov/projects/rrg-bengioy-ad/pragov/crystal_structure_design/SSSP/Rb_ONCV_PBE-1.0.oncvpsp.upf
     MD5 check sum: 55a5172d6bfbce6759a58e35d43f6aa9
     Pseudo is Norm-conserving, Zval =  9.0
     Generated using ONCVPSP code by D. R. Hamann
     Using radial grid of 2308 points,  6 beta functions with:
                l(1) =   0
                l(2) =   0
                l(3) =   1
                l(4) =   1
                l(5) =   2
                l(6) =   2

     PseudoPot. # 2 for Ge read from file:
     /home/pragov/projects/rrg-bengioy-ad/pragov/crystal_structure_design/SSSP/ge_pbe_v1.4.uspp.F.UPF
     MD5 check sum: 9c9eaa91e581c3f09632fb3098b2c6b2
     Pseudo is Ultrasoft + core correction, Zval = 14.0
     Generated by new atomic code, or converted to UPF format
     Using radial grid of  873 points,  6 beta functions with:
                l(1) =   0
                l(2) =   0
                l(3) =   1
                l(4) =   1
                l(5) =   2
                l(6) =   2
     Q(r) pseudized with  8 coefficients,  rinner =    1.400   1.400   1.400
                                                       1.400   1.400

     PseudoPot. # 3 for N  read from file:
     /home/pragov/projects/rrg-bengioy-ad/pragov/crystal_structure_design/SSSP/N.pbe-n-radius_5.UPF
     MD5 check sum: 16739722b17309cd8fe442a2ace49922
     Pseudo is Ultrasoft + core correction, Zval =  5.0
     Generated using "atomic" code by A. Dal Corso  v.5.1
     Using radial grid of 1085 points,  4 beta functions with:
                l(1) =   0
                l(2) =   0
                l(3) =   1
                l(4) =   1
     Q(r) pseudized with 0 coefficients

     atomic species   valence    mass     pseudopotential
        Rb             9.00    85.46780     Rb( 1.00)
        Ge            14.00    72.63000     Ge( 1.00)
        N              5.00    14.00700     N ( 1.00)

      2 Sym. Ops. (no inversion) found ( 1 have fractional translation)

                                    s                        frac. trans.

      isym =  1     identity

 cryst.   s( 1) = (     1          0          0      )
                  (     0          1          0      )
                  (     0          0          1      )

 cart.    s( 1) = (  1.0000000  0.0000000  0.0000000 )
                  (  0.0000000  1.0000000  0.0000000 )
                  (  0.0000000  0.0000000  1.0000000 )

      isym =  2     180 deg rotation - cart. axis [0,0,1]

 cryst.   s( 2) = (    -1          0          0      )    f =( -0.0000000 )
                  (     0         -1          0      )       ( -0.0000000 )
                  (     0          0          1      )       (  0.5000000 )

 cart.    s( 2) = ( -1.0000000 -0.0000000  0.0000000 )    f =( -0.0000000 )
                  (  0.0000000 -1.0000000  0.0000000 )       ( -0.0000000 )
                  (  0.0000000  0.0000000  1.0000000 )       (  0.4547739 )

   Cartesian axes

     site n.     atom                  positions (alat units)
         1           Rb  tau(   1) = (   0.1838879   0.3069368   0.4723919  )
         2           Rb  tau(   2) = (   0.3443647   0.5747969   0.0176179  )
         3           Ge  tau(   3) = (   0.6702075   0.0302576   0.4611180  )
         4           Ge  tau(   4) = (  -0.2894896   0.6052185   0.4611180  )
         5           Ge  tau(   5) = (  -0.1419550   0.8514761   0.0063441  )
         6           Ge  tau(   6) = (   0.8177421   0.2765152   0.0063441  )
         7           N   tau(   7) = (   0.5837372   0.1095201   0.1586379  )
         8           N   tau(   8) = (  -0.1788090   0.5663667   0.1586379  )
         9           N   tau(   9) = (  -0.0554847   0.7722136   0.6134118  )
        10           N   tau(  10) = (   0.7070615   0.3153670   0.6134118  )
        11           N   tau(  11) = (   0.0970627   0.1620124   0.0271509  )
        12           N   tau(  12) = (   0.4311898   0.7197213   0.4819249  )

   Crystallographic axes

     site n.     atom                  positions (cryst. coord.)
         1           Rb  tau(   1) = (  0.3481060  0.3481060  0.5193700  )
         2           Rb  tau(   2) = (  0.6518940  0.6518940  0.0193700  )
         3           Ge  tau(   3) = (  0.6863960  0.0343160  0.5069750  )
         4           Ge  tau(   4) = (  0.0343160  0.6863960  0.5069750  )
         5           Ge  tau(   5) = (  0.3136040  0.9656840  0.0069750  )
         6           Ge  tau(   6) = (  0.9656840  0.3136040  0.0069750  )
         7           N   tau(   7) = (  0.6423330  0.1242100  0.1744140  )
         8           N   tau(   8) = (  0.1242100  0.6423330  0.1744140  )
         9           N   tau(   9) = (  0.3576670  0.8757900  0.6744140  )
        10           N   tau(  10) = (  0.8757900  0.3576670  0.6744140  )
        11           N   tau(  11) = (  0.1837430  0.1837430  0.0298510  )
        12           N   tau(  12) = (  0.8162570  0.8162570  0.5298510  )

     number of k points=     1  Methfessel-Paxton smearing, width (Ry)=  0.0010
                       cart. coord. in units 2pi/alat
        k(    1) = (   0.0000000   0.0000000   0.0000000), wk =   2.0000000

                       cryst. coord.
        k(    1) = (   0.0000000   0.0000000   0.0000000), wk =   2.0000000

     Check: negative core charge=   -0.000002

     Initial potential from superposition of free atoms

     starting charge     103.9469, renormalised to     104.0000
     Starting wfcs are   70 randomized atomic wfcs

     Self-consistent Calculation

     iteration #  1     ecut=    30.00 Ry     beta= 0.70
     Davidson diagonalization with overlap

     ethr =  1.00E-02,  avg # of iterations =  5.0

     total energy              =   -1071.49093173 Ry
     estimated scf accuracy    <       3.57891693 Ry

[...]

     total energy              =   -1073.16519095 Ry
     estimated scf accuracy    <       0.00000111 Ry

     iteration # 10     ecut=    30.00 Ry     beta= 0.70
     Davidson diagonalization with overlap

     ethr =  1.07E-09,  avg # of iterations =  2.0

     End of self-consistent calculation

          k = 0.0000 0.0000 0.0000 (  1560 PWs)   bands (ev):

   -16.4447 -16.2021 -15.4920 -15.4863 -15.4794 -15.4688 -15.4538 -15.4375
   -15.4334 -15.4300 -15.4188 -15.3952 -15.3932 -15.3909 -15.3575 -15.3574
   -15.3509 -15.3459 -15.3455 -15.3293 -15.3273 -15.3225  -7.4192  -5.2380
    -4.9476  -4.7934  -4.2101  -3.9840  -1.2218  -1.1732  -0.9035  -0.6094
    -0.3757  -0.1470  -0.0897   0.3416   1.1228   3.9896   4.0198   4.6705
     4.9191   5.3329   5.9952   6.7493   7.3822   7.7135   8.1854   8.2149
     8.4947   8.6609   8.7616   9.2152  10.2839  12.2946  13.9450  14.1301
    14.6965  14.8500  15.1177  15.3209  15.3299  15.4704

     occupation numbers
     1.0000   1.0000   1.0000   1.0000   1.0000   1.0000   1.0000   1.0000
     1.0000   1.0000   1.0000   1.0000   1.0000   1.0000   1.0000   1.0000
     1.0000   1.0000   1.0000   1.0000   1.0000   1.0000   1.0000   1.0000
     1.0000   1.0000   1.0000   1.0000   1.0000   1.0000   1.0000   1.0000
     1.0000   1.0000   1.0000   1.0000   1.0000   1.0000   1.0000   1.0000
     1.0000   1.0000   1.0000   1.0000   1.0000   1.0000   1.0000   1.0000
     1.0000   1.0000   1.0000   1.0000  -0.0000  -0.0000  -0.0000  -0.0000
    -0.0000  -0.0000  -0.0000  -0.0000  -0.0000  -0.0000

     the Fermi energy is     9.5714 ev

!    total energy              =   -1073.16519101 Ry
     estimated scf accuracy    <       0.00000038 Ry
     smearing contrib. (-TS)   =       0.00000000 Ry
     internal energy E=F+TS    =   -1073.16519101 Ry

     The total energy is F=E-TS. E is the sum of the following terms:
     one-electron contribution =    -587.81203164 Ry
     hartree contribution      =     378.37751789 Ry
     xc contribution           =    -281.66848720 Ry
     ewald contribution        =    -582.06219006 Ry

     convergence has been achieved in  10 iterations

     Forces acting on atoms (cartesian axes, Ry/au):

     atom    1 type  1   force =     0.01060822    0.01770829   -0.02784988
     atom    2 type  1   force =    -0.01060822   -0.01770829   -0.02784988
     atom    3 type  2   force =    -0.00301288   -0.00273375   -0.01415623
     atom    4 type  2   force =    -0.00118802   -0.00448572   -0.01425714
     atom    5 type  2   force =     0.00301288    0.00273375   -0.01415623
     atom    6 type  2   force =     0.00118802    0.00448572   -0.01425714
     atom    7 type  3   force =     0.00286460   -0.03323941    0.05082397
     atom    8 type  3   force =    -0.03067087   -0.01313329    0.05083096
     atom    9 type  3   force =    -0.00286460    0.03323941    0.05082397
     atom   10 type  3   force =     0.03067087    0.01313329    0.05083096
     atom   11 type  3   force =     0.00631011    0.01049923   -0.04539168
     atom   12 type  3   force =    -0.00631011   -0.01049923   -0.04539168
     The non-local contrib.  to forces
     atom    1 type  1   force =     0.00657846    0.01095757    0.01029323
     atom    2 type  1   force =    -0.00657846   -0.01095757    0.01029323
     atom    3 type  2   force =    -0.24372121    0.13488477    0.13532524
     atom    4 type  2   force =     0.23375898   -0.15155993    0.13532940
     atom    5 type  2   force =     0.24372121   -0.13488477    0.13532524
     atom    6 type  2   force =    -0.23375898    0.15155993    0.13532940
     atom    7 type  3   force =     0.11069531   -0.18546288   -0.15886599
     atom    8 type  3   force =    -0.21567083    0.01020662   -0.15891517
     atom    9 type  3   force =    -0.11069531    0.18546288   -0.15886599
     atom   10 type  3   force =     0.21567083   -0.01020662   -0.15891517
     atom   11 type  3   force =    -0.41308356   -0.68970698    0.00013968
     atom   12 type  3   force =     0.41308356    0.68970698    0.00013968
     The ionic contribution  to forces
     atom    1 type  1   force =     1.26523211    2.11186455   -0.22943720
     atom    2 type  1   force =    -1.26523211   -2.11186455   -0.22943720
     atom    3 type  2   force =     1.18135530   -2.46997317   -0.29651976
     atom    4 type  2   force =    -2.73515997   -0.12356280   -0.29651976
     atom    5 type  2   force =    -1.18135530    2.46997317   -0.29651976
     atom    6 type  2   force =     2.73515997    0.12356280   -0.29651976
     atom    7 type  3   force =    -1.81597995    1.15822524   -0.08412837
     atom    8 type  3   force =     1.87793017   -1.05482091   -0.08412837
     atom    9 type  3   force =     1.81597995   -1.15822524   -0.08412837
     atom   10 type  3   force =    -1.87793017    1.05482091   -0.08412837
     atom   11 type  3   force =     1.59499210    2.66228405    0.99073346
     atom   12 type  3   force =    -1.59499210   -2.66228406    0.99073346
     The local contribution  to forces
     atom    1 type  1   force =    -1.26110139   -2.10509325    0.19116960
     atom    2 type  1   force =     1.26111531    2.10527014    0.19133301
     atom    3 type  2   force =    -0.95071856    2.33792584    0.14919676
     atom    4 type  2   force =     2.51063379    0.26581678    0.14929876
     atom    5 type  2   force =     0.95079436   -2.33897240    0.14984285
     atom    6 type  2   force =    -2.51071995   -0.26527798    0.15004698
     atom    7 type  3   force =     1.70890228   -1.00765013    0.29223329
     atom    8 type  3   force =    -1.69462183    1.03166411    0.29226316
     atom    9 type  3   force =    -1.70880838    1.00750595    0.29233124
     atom   10 type  3   force =     1.69454338   -1.03146137    0.29246359
     atom   11 type  3   force =    -1.17905678   -1.96803558   -1.03625648
     atom   12 type  3   force =     1.17926035    1.96836364   -1.03589705
     The core correction contribution to forces
     atom    1 type  1   force =     0.00000000    0.00000000    0.00000000
     atom    2 type  1   force =     0.00000000    0.00000000    0.00000000
     atom    3 type  2   force =     0.01018250   -0.00670645   -0.00256716
     atom    4 type  2   force =    -0.01071901    0.00580363   -0.00256774
     atom    5 type  2   force =    -0.01018625    0.00671085   -0.00256331
     atom    6 type  2   force =     0.01072026   -0.00581108   -0.00257573
     atom    7 type  3   force =    -0.00075666    0.00152127    0.00152065
     atom    8 type  3   force =     0.00169723    0.00004942    0.00152096
     atom    9 type  3   force =     0.00075790   -0.00152110    0.00152205
     atom   10 type  3   force =    -0.00169829   -0.00004885    0.00152279
     atom   11 type  3   force =     0.00365796    0.00610818   -0.00021410
     atom   12 type  3   force =    -0.00365629   -0.00610452   -0.00021022
     The Hubbard contrib.    to forces
     atom    1 type  1   force =     0.00000000    0.00000000    0.00000000
     atom    2 type  1   force =     0.00000000    0.00000000    0.00000000
     atom    3 type  2   force =     0.00000000    0.00000000    0.00000000
     atom    4 type  2   force =     0.00000000    0.00000000    0.00000000
     atom    5 type  2   force =     0.00000000    0.00000000    0.00000000
     atom    6 type  2   force =     0.00000000    0.00000000    0.00000000
     atom    7 type  3   force =     0.00000000    0.00000000    0.00000000
     atom    8 type  3   force =     0.00000000    0.00000000    0.00000000
     atom    9 type  3   force =     0.00000000    0.00000000    0.00000000
     atom   10 type  3   force =     0.00000000    0.00000000    0.00000000
     atom   11 type  3   force =     0.00000000    0.00000000    0.00000000
     atom   12 type  3   force =     0.00000000    0.00000000    0.00000000
     The SCF correction term to forces
     atom    1 type  1   force =    -0.00010101   -0.00002677    0.00011805
     atom    2 type  1   force =     0.00008700   -0.00016250   -0.00004689
     atom    3 type  2   force =    -0.00014841    0.00127794    0.00044378
     atom    4 type  2   force =     0.00032555   -0.00107879    0.00032380
     atom    5 type  2   force =     0.00000137    0.00004957   -0.00029073
     atom    6 type  2   force =    -0.00018592    0.00035668   -0.00067403
     atom    7 type  3   force =     0.00005060    0.00013302   -0.00000080
     atom    8 type  3   force =    -0.00004788   -0.00021476   -0.00000144
     atom    9 type  3   force =    -0.00005178    0.00002283    0.00001583
     atom   10 type  3   force =     0.00004287    0.00004700   -0.00003444
     atom   11 type  3   force =    -0.00012503    0.00000545    0.00002343
     atom   12 type  3   force =     0.00006897   -0.00002536    0.00001038

     Total force =     0.149980     Total SCF correction =     0.002022

     Computing stress (Cartesian axis) and pressure

          total   stress  (Ry/bohr**3)                   (kbar)     P=     -136.22
  -0.00080508   0.00038580   0.00000000         -118.43       56.75        0.00
   0.00038580  -0.00039160   0.00000000           56.75      -57.61        0.00
   0.00000000   0.00000000  -0.00158132            0.00        0.00     -232.62

     kinetic stress (kbar)  13997.31    121.81      0.00
                              121.81  14127.66      0.00
                                0.00      0.00  13838.43

     local   stress (kbar)   1631.97  -1246.19      0.08
                            -1246.19    299.12     -0.02
                                0.08     -0.02  -5932.85

     nonloc. stress (kbar)   3471.15    -53.13      0.00
                              -53.13   3414.30      0.00
                                0.00      0.00   3376.73

     hartree stress (kbar)  14873.35    850.09     -0.07
                              850.09  15782.44      0.02
                               -0.07      0.02  18859.96

     exc-cor stress (kbar)   9055.38     -4.77     -0.00
                               -4.77   9050.27      0.00
                               -0.00      0.00   9051.36

     corecor stress (kbar) -16380.61      2.02     -0.00
                                2.02 -16378.45      0.00
                               -0.00      0.00 -16375.60

     ewald   stress (kbar) -26766.99    386.93     -0.00
                              386.93 -26352.96     -0.00
                               -0.00     -0.00 -23050.65

     hubbard stress (kbar)      0.00      0.00      0.00
                                0.00      0.00      0.00
                                0.00      0.00      0.00

     DFT-D   stress (kbar)      0.00      0.00      0.00
                                0.00      0.00      0.00
                                0.00      0.00      0.00

     XDM     stress (kbar)      0.00      0.00      0.00
                                0.00      0.00      0.00
                                0.00      0.00      0.00

     dft-nl  stress (kbar)      0.00      0.00      0.00
                                0.00      0.00      0.00
                                0.00      0.00      0.00

     TS-vdW  stress (kbar)      0.00      0.00      0.00
                                0.00      0.00      0.00
                                0.00      0.00      0.00

[...]

                                0.00      0.00      0.00

     Writing all to output data dir new_calculations/myprefix.save/

     General routines

     Parallel routines

   This run was terminated on:   5:55:21  21May2023

   JOB DONE.