     Program PWSCF v.7.0 starts on 21May2023 at  3: 8:31

     Reading input from espresso_21494.pwi
Warning: card &CELL ignored
Warning: card / ignored

     Current dimensions of program PWSCF are:
     Max number of different atomic species (ntypx) = 10
     Max number of k-points (npk) =  40000
     Max angular momentum in pseudopotentials (lmaxx) =  4

     gamma-point specific algorithms are used
     Message from routine setup:
     using ibrav=0 with symmetry is DISCOURAGED, use correct ibrav instead

     Subspace diagonalization in iterative solution of the eigenvalue problem:
     a serial algorithm will be used

     Using Slab Decomposition

     bravais-lattice index     =            0
     lattice parameter (alat)  =      11.3102  a.u.
     unit-cell volume          =    1364.2243 (a.u.)^3
     number of atoms/cell      =           12
     number of atomic types    =            3
     number of electrons       =       108.00
     number of Kohn-Sham states=           65
     kinetic-energy cutoff     =      30.0000  Ry
     charge density cutoff     =     240.0000  Ry
     scf convergence threshold =      1.0E-06
     mixing beta               =       0.7000
     number of iterations used =            8  plain     mixing
     Exchange-correlation= SLA  PW   PBE  PBE
                           (   1   4   3   4   0   0   0)

     celldm(1)=  11.310158  celldm(2)=   0.000000  celldm(3)=   0.000000
     celldm(4)=   0.000000  celldm(5)=   0.000000  celldm(6)=   0.000000

     crystal axes: (cart. coord. in units of alat)
               a(1) = (   1.000000   0.000000   0.000000 )
               a(2) = (   0.000000   1.001126   0.000000 )
               a(3) = (   0.000000   0.383084   0.941870 )

     reciprocal axes: (cart. coord. in units 2 pi/alat)
               b(1) = (  1.000000  0.000000  0.000000 )
               b(2) = (  0.000000  0.998875 -0.406270 )
               b(3) = (  0.000000  0.000000  1.061718 )

     PseudoPot. # 1 for P  read from file:
     /home/pragov/projects/rrg-bengioy-ad/pragov/crystal_structure_design/SSSP/P.pbe-n-rrkjus_psl.1.0.0.UPF
     MD5 check sum: 8b930f418f0a4573dca56cd030ffe088
     Pseudo is Ultrasoft + core correction, Zval =  5.0
     Generated using "atomic" code by A. Dal Corso  v.5.1
     Using radial grid of 1147 points,  6 beta functions with:
                l(1) =   0
                l(2) =   0
                l(3) =   1
                l(4) =   1
                l(5) =   2
                l(6) =   2
     Q(r) pseudized with 0 coefficients

     PseudoPot. # 2 for Os read from file:
     /home/pragov/projects/rrg-bengioy-ad/pragov/crystal_structure_design/SSSP/Os_pbe_v1.2.uspp.F.UPF
     MD5 check sum: a3fb40a04f0c37c25c34bbc47164c9a8
     Pseudo is Ultrasoft + core correction, Zval = 16.0
     Generated by new atomic code, or converted to UPF format
     Using radial grid of  983 points,  8 beta functions with:
                l(1) =   0
                l(2) =   0
                l(3) =   1
                l(4) =   1
                l(5) =   2
                l(6) =   2
                l(7) =   3
                l(8) =   3
     Q(r) pseudized with  8 coefficients,  rinner =    1.150   1.150   1.150
                                                       1.150   1.150   1.150
                                                       1.150

     PseudoPot. # 3 for Se read from file:
     /home/pragov/projects/rrg-bengioy-ad/pragov/crystal_structure_design/SSSP/Se_pbe_v1.uspp.F.UPF
     MD5 check sum: 1b3568f3a8ae88f9a2a0ad0698632c85
     Pseudo is Ultrasoft + core correction, Zval =  6.0
     Generated by new atomic code, or converted to UPF format
     Using radial grid of  877 points,  6 beta functions with:
                l(1) =   0
                l(2) =   0
                l(3) =   1
                l(4) =   1
                l(5) =   2
                l(6) =   2
     Q(r) pseudized with  8 coefficients,  rinner =    1.300   1.300   1.300
                                                       1.300   1.300

     atomic species   valence    mass     pseudopotential
        P              5.00    30.97376     P ( 1.00)
        Os            16.00   190.23000     Os( 1.00)
        Se             6.00    78.97100     Se( 1.00)

      4 Sym. Ops., with inversion, found ( 2 have fractional translation)

                                    s                        frac. trans.

      isym =  1     identity

 cryst.   s( 1) = (     1          0          0      )
                  (     0          1          0      )
                  (     0          0          1      )

 cart.    s( 1) = (  1.0000000  0.0000000  0.0000000 )
                  (  0.0000000  1.0000000 -0.0000000 )
                  (  0.0000000  0.0000000  1.0000000 )

      isym =  2     180 deg rotation - cart. axis [1,0,0]

 cryst.   s( 2) = (     1          0          0      )    f =(  0.5000000 )
                  (     0         -1          0      )       (  0.0000000 )
                  (     0          0         -1      )       (  0.5000000 )

 cart.    s( 2) = (  1.0000000  0.0000000  0.0000000 )    f =(  0.5000000 )
                  (  0.0000000 -1.0000000  0.0000000 )       (  0.1915421 )
                  (  0.0000000  0.0000000 -1.0000000 )       (  0.4709348 )

      isym =  3     inversion

 cryst.   s( 3) = (    -1          0          0      )
                  (     0         -1          0      )
                  (     0          0         -1      )

 cart.    s( 3) = ( -1.0000000  0.0000000  0.0000000 )
                  (  0.0000000 -1.0000000  0.0000000 )
                  (  0.0000000  0.0000000 -1.0000000 )

      isym =  4     inv. 180 deg rotation - cart. axis [1,0,0]

 cryst.   s( 4) = (    -1          0          0      )    f =(  0.5000000 )
                  (     0          1          0      )       ( -0.0000000 )
                  (     0          0          1      )       ( -0.5000000 )

 cart.    s( 4) = ( -1.0000000  0.0000000  0.0000000 )    f =(  0.5000000 )
                  (  0.0000000  1.0000000 -0.0000000 )       ( -0.1915421 )
                  (  0.0000000  0.0000000  1.0000000 )       ( -0.4709348 )

   Cartesian axes

     site n.     atom                  positions (alat units)
         1           P   tau(   1) = (   0.6297460   1.0053344   0.3618437  )
         2           P   tau(   2) = (   0.1297460   0.1873342   0.1090911  )
         3           P   tau(   3) = (   0.3702540   0.3788763   0.5800259  )
         4           P   tau(   4) = (   0.8702540   1.1968765   0.8327785  )
         5           Os  tau(   5) = (   0.9877640   0.8491100   0.2737309  )
         6           Os  tau(   6) = (   0.4877640   0.3435586   0.1972039  )
         7           Os  tau(   7) = (   0.0122360   0.5351007   0.6681387  )
         8           Os  tau(   8) = (   0.5122360   1.0406521   0.7446656  )
         9           Se  tau(   9) = (   0.3745020   0.7396807   0.1825569  )
        10           Se  tau(  10) = (   0.8745020   0.4529879   0.2883779  )
        11           Se  tau(  11) = (   0.6254980   0.6445300   0.7593127  )
        12           Se  tau(  12) = (   0.1254980   0.9312228   0.6534917  )

   Crystallographic axes

     site n.     atom                  positions (cryst. coord.)
         1           P   tau(   1) = (  0.6297460  0.8571970  0.3841760  )
         2           P   tau(   2) = (  0.1297460  0.1428030  0.1158240  )
         3           P   tau(   3) = (  0.3702540  0.1428030  0.6158240  )
         4           P   tau(   4) = (  0.8702540  0.8571970  0.8841760  )
         5           Os  tau(   5) = (  0.9877640  0.7369460  0.2906250  )
         6           Os  tau(   6) = (  0.4877640  0.2630540  0.2093750  )
         7           Os  tau(   7) = (  0.0122360  0.2630540  0.7093750  )
         8           Os  tau(   8) = (  0.5122360  0.7369460  0.7906250  )
         9           Se  tau(   9) = (  0.3745020  0.6646810  0.1938240  )
        10           Se  tau(  10) = (  0.8745020  0.3353190  0.3061760  )
        11           Se  tau(  11) = (  0.6254980  0.3353190  0.8061760  )
        12           Se  tau(  12) = (  0.1254980  0.6646810  0.6938240  )

     number of k points=     1  Methfessel-Paxton smearing, width (Ry)=  0.0010
                       cart. coord. in units 2pi/alat
        k(    1) = (   0.0000000   0.0000000   0.0000000), wk =   2.0000000

                       cryst. coord.
        k(    1) = (   0.0000000   0.0000000   0.0000000), wk =   2.0000000

     Initial potential from superposition of free atoms

     starting charge     105.9989, renormalised to     108.0000

     negative rho (up, down):  5.106E-01 0.000E+00
     Starting wfcs are   84 randomized atomic wfcs

     Self-consistent Calculation

     iteration #  1     ecut=    30.00 Ry     beta= 0.70
     Davidson diagonalization with overlap

     ethr =  1.00E-02,  avg # of iterations =  2.0

     Threshold (ethr) on eigenvalues was too large:
     Diagonalizing with lowered threshold

     Davidson diagonalization with overlap

[...]

     negative rho (up, down):  4.777E-01 0.000E+00

     total energy              =   -1025.26764505 Ry
     estimated scf accuracy    <       0.49020723 Ry

[...]

     total energy              =   -1025.38762336 Ry
     estimated scf accuracy    <       0.00000221 Ry

     iteration # 10     ecut=    30.00 Ry     beta= 0.70
     Davidson diagonalization with overlap

     ethr =  2.05E-09,  avg # of iterations =  4.0

[...]

     End of self-consistent calculation

          k = 0.0000 0.0000 0.0000 (  1880 PWs)   bands (ev):

   -71.9884 -71.9881 -71.9843 -71.9834 -31.6977 -31.6958 -31.5862 -31.5844
   -31.4590 -31.4581 -31.4446 -31.4427 -31.2126 -31.2088 -31.2013 -31.2006
    -2.3038  -0.8820  -0.8083  -0.6730   2.8494   2.9461   3.0030   3.4736
     5.9913   6.9591   7.0313   7.0866   7.6414   7.9478   7.9993   8.1682
     8.4455   8.8694   8.8802   9.0466   9.3816   9.8061   9.8316   9.8559
     9.9068  10.6375  10.8806  11.2045  11.7763  11.8477  11.9218  12.2983
    12.3711  12.3906  12.4004  12.6081  12.8477  13.0462  14.0969  14.3497
    15.4028  15.6722  15.6960  15.9171  16.4330  16.6353  17.0808  17.9043
    18.1374

     occupation numbers
     1.0000   1.0000   1.0000   1.0000   1.0000   1.0000   1.0000   1.0000
     1.0000   1.0000   1.0000   1.0000   1.0000   1.0000   1.0000   1.0000
     1.0000   1.0000   1.0000   1.0000   1.0000   1.0000   1.0000   1.0000
     1.0000   1.0000   1.0000   1.0000   1.0000   1.0000   1.0000   1.0000
     1.0000   1.0000   1.0000   1.0000   1.0000   1.0000   1.0000   1.0000
     1.0000   1.0000   1.0000   1.0000   1.0000   1.0000   1.0000   1.0000
     1.0000   1.0000   1.0000   1.0000   1.0000   1.0000  -0.0000  -0.0000
    -0.0000  -0.0000  -0.0000  -0.0000  -0.0000  -0.0000  -0.0000  -0.0000
    -0.0000

     the Fermi energy is    13.3298 ev

!    total energy              =   -1025.38762375 Ry
     estimated scf accuracy    <       0.00000053 Ry
     smearing contrib. (-TS)   =       0.00000000 Ry
     internal energy E=F+TS    =   -1025.38762375 Ry

     The total energy is F=E-TS. E is the sum of the following terms:
     one-electron contribution =    -288.10907800 Ry
     hartree contribution      =     195.17565120 Ry
     xc contribution           =    -286.72968793 Ry
     ewald contribution        =    -645.72450901 Ry

     convergence has been achieved in  10 iterations

     negative rho (up, down):  4.783E-01 0.000E+00

     Forces acting on atoms (cartesian axes, Ry/au):

     atom    1 type  1   force =    -0.01487656   -0.06948163   -0.04077622
     atom    2 type  1   force =    -0.01487656    0.06948163    0.04077622
     atom    3 type  1   force =     0.01487656    0.06948163    0.04077622
     atom    4 type  1   force =     0.01487656   -0.06948163   -0.04077622
     atom    5 type  2   force =    -0.06617255    0.01985894   -0.01055560
     atom    6 type  2   force =    -0.06617255   -0.01985894    0.01055560
     atom    7 type  2   force =     0.06617255   -0.01985894    0.01055560
     atom    8 type  2   force =     0.06617255    0.01985894   -0.01055560
     atom    9 type  3   force =     0.10705055    0.06726945    0.06922231
     atom   10 type  3   force =     0.10705055   -0.06726945   -0.06922231
     atom   11 type  3   force =    -0.10705055   -0.06726945   -0.06922231
     atom   12 type  3   force =    -0.10705055    0.06726945    0.06922231
     The non-local contrib.  to forces
     atom    1 type  1   force =    -0.00839957   -0.00195839   -0.03050527
     atom    2 type  1   force =    -0.00839957    0.00195839    0.03050527
     atom    3 type  1   force =     0.00839957    0.00195839    0.03050527
     atom    4 type  1   force =     0.00839957   -0.00195839   -0.03050527
     atom    5 type  2   force =     0.10662550   -0.14871891    0.12253610
     atom    6 type  2   force =     0.10662550    0.14871891   -0.12253610
     atom    7 type  2   force =    -0.10662550    0.14871891   -0.12253610
     atom    8 type  2   force =    -0.10662550   -0.14871891    0.12253610
     atom    9 type  3   force =    -0.10325254   -0.15559768   -0.09193135
     atom   10 type  3   force =    -0.10325254    0.15559768    0.09193135
     atom   11 type  3   force =     0.10325254    0.15559768    0.09193135
     atom   12 type  3   force =     0.10325254   -0.15559768   -0.09193135
     The ionic contribution  to forces
     atom    1 type  1   force =    -0.45467297   -1.33056446   -1.02242432
     atom    2 type  1   force =    -0.45467297    1.33056446    1.02242432
     atom    3 type  1   force =     0.45467297    1.33056446    1.02242432
     atom    4 type  1   force =     0.45467297   -1.33056446   -1.02242432
     atom    5 type  2   force =    -0.68972758    3.00256158   -2.05323253
     atom    6 type  2   force =    -0.68972758   -3.00256158    2.05323253
     atom    7 type  2   force =     0.68972758   -3.00256158    2.05323253
     atom    8 type  2   force =     0.68972758    3.00256159   -2.05323253
     atom    9 type  3   force =     0.83821525    3.01452784    1.95931623
     atom   10 type  3   force =     0.83821525   -3.01452784   -1.95931623
     atom   11 type  3   force =    -0.83821525   -3.01452784   -1.95931623
     atom   12 type  3   force =    -0.83821525    3.01452784    1.95931623
     The local contribution  to forces
     atom    1 type  1   force =     0.44809251    1.26266916    1.01017532
     atom    2 type  1   force =     0.44842301   -1.26240036   -1.01030348
     atom    3 type  1   force =    -0.44850400   -1.26239048   -1.01055386
     atom    4 type  1   force =    -0.44789188    1.26259203    1.01032819
     atom    5 type  2   force =     0.51565676   -2.83026187    1.92064968
     atom    6 type  2   force =     0.51337704    2.82995574   -1.91975493
     atom    7 type  2   force =    -0.51327804    2.83035356   -1.92056578
     atom    8 type  2   force =    -0.51570625   -2.82996493    1.92012358
     atom    9 type  3   force =    -0.64275564   -2.81167698   -1.80966355
     atom   10 type  3   force =    -0.64214678    2.81148198    1.80997463
     atom   11 type  3   force =     0.64229958    2.81136508    1.80995784
     atom   12 type  3   force =     0.64240878   -2.81172892   -1.80997037
     The core correction contribution to forces
     atom    1 type  1   force =     0.00002726    0.00036814    0.00187320
     atom    2 type  1   force =     0.00002735   -0.00036510   -0.00187058
     atom    3 type  1   force =    -0.00002759   -0.00036844   -0.00186850
     atom    4 type  1   force =    -0.00002911    0.00036584    0.00187011
     atom    5 type  2   force =     0.00215320   -0.00447257    0.00032340
     atom    6 type  2   force =     0.00213854    0.00446500   -0.00031237
     atom    7 type  2   force =    -0.00213666    0.00447446   -0.00031974
     atom    8 type  2   force =    -0.00215317   -0.00446872    0.00032175
     atom    9 type  3   force =     0.01453632    0.01971249    0.01176978
     atom   10 type  3   force =     0.01454462   -0.01971562   -0.01176996
     atom   11 type  3   force =    -0.01453817   -0.01971189   -0.01176862
     atom   12 type  3   force =    -0.01453882    0.01971291    0.01177638
     The Hubbard contrib.    to forces
     atom    1 type  1   force =     0.00000000    0.00000000    0.00000000
     atom    2 type  1   force =     0.00000000    0.00000000    0.00000000
     atom    3 type  1   force =     0.00000000    0.00000000    0.00000000
     atom    4 type  1   force =     0.00000000    0.00000000    0.00000000
     atom    5 type  2   force =     0.00000000    0.00000000    0.00000000
     atom    6 type  2   force =     0.00000000    0.00000000    0.00000000
     atom    7 type  2   force =     0.00000000    0.00000000    0.00000000
     atom    8 type  2   force =     0.00000000    0.00000000    0.00000000
     atom    9 type  3   force =     0.00000000    0.00000000    0.00000000
     atom   10 type  3   force =     0.00000000    0.00000000    0.00000000
     atom   11 type  3   force =     0.00000000    0.00000000    0.00000000
     atom   12 type  3   force =     0.00000000    0.00000000    0.00000000
     The SCF correction term to forces
     atom    1 type  1   force =     0.00006794    0.00002191    0.00014016
     atom    2 type  1   force =    -0.00026764   -0.00025505    0.00002262
     atom    3 type  1   force =     0.00036217   -0.00030201    0.00030148
     atom    4 type  1   force =    -0.00032304    0.00006636   -0.00004586
     atom    5 type  2   force =    -0.00097598    0.00077385   -0.00090272
     atom    6 type  2   force =     0.00149885   -0.00039578   -0.00014122
     atom    7 type  2   force =    -0.00164875   -0.00091890    0.00074685
     atom    8 type  2   force =     0.00105318    0.00039337   -0.00029954
     atom    9 type  3   force =     0.00030550    0.00030732   -0.00028867
     atom   10 type  3   force =    -0.00028848   -0.00011528   -0.00003526
     atom   11 type  3   force =     0.00016136    0.00002654   -0.00002016
     atom   12 type  3   force =     0.00005148    0.00036116    0.00006460

     Total force =     0.359850     Total SCF correction =     0.003374

     Computing stress (Cartesian axis) and pressure

     negative rho (up, down):  4.783E-01 0.000E+00
          total   stress  (Ry/bohr**3)                   (kbar)     P=      -89.49
  -0.00088364   0.00000000   0.00000000         -129.99        0.00        0.00
   0.00000000  -0.00068416  -0.00053318            0.00     -100.64      -78.43
   0.00000000  -0.00053318  -0.00025732            0.00      -78.43      -37.85

     kinetic stress (kbar)  21699.33      0.00      0.00
                                0.00  21455.16     39.40
                                0.00     39.40  21423.42

     local   stress (kbar)  15320.36      0.03      0.01
                                0.03  14009.56   4746.56
                                0.01   4746.56  10194.18

     nonloc. stress (kbar) -13236.74      0.00      0.00
                                0.00 -13143.20    -51.98
                                0.00    -51.98 -13078.77

     hartree stress (kbar)   6054.54     -0.02     -0.00
                               -0.02   6701.27  -2079.16
                               -0.00  -2079.16   8290.09

     exc-cor stress (kbar)  13900.70     -0.00     -0.00
                               -0.00  13896.67      4.08
                               -0.00      4.08  13894.06

     corecor stress (kbar) -19346.46      0.00      0.00
                                0.00 -19334.66     -0.82
                                0.00     -0.82 -19339.16

     ewald   stress (kbar) -24521.72     -0.00     -0.00
                               -0.00 -23685.45  -2736.50
                               -0.00  -2736.50 -21421.67

     hubbard stress (kbar)      0.00      0.00      0.00
                                0.00      0.00      0.00
                                0.00      0.00      0.00

     DFT-D   stress (kbar)      0.00      0.00      0.00
                                0.00      0.00      0.00
                                0.00      0.00      0.00

     XDM     stress (kbar)      0.00      0.00      0.00
                                0.00      0.00      0.00
                                0.00      0.00      0.00

     dft-nl  stress (kbar)      0.00      0.00      0.00
                                0.00      0.00      0.00
                                0.00      0.00      0.00

     TS-vdW  stress (kbar)      0.00      0.00      0.00
                                0.00      0.00      0.00
                                0.00      0.00      0.00

[...]

                                0.00      0.00      0.00

     Writing all to output data dir new_calculations/myprefix.save/

     General routines

     Parallel routines

   This run was terminated on:   3: 8:53  21May2023

   JOB DONE.