     Program PWSCF v.7.0 starts on 20May2023 at  9:25: 2

     Reading input from espresso_3345.pwi
Warning: card &CELL ignored
Warning: card / ignored

     Current dimensions of program PWSCF are:
     Max number of different atomic species (ntypx) = 10
     Max number of k-points (npk) =  40000
     Max angular momentum in pseudopotentials (lmaxx) =  4

     gamma-point specific algorithms are used
     Message from routine setup:
     using ibrav=0 with symmetry is DISCOURAGED, use correct ibrav instead

     Subspace diagonalization in iterative solution of the eigenvalue problem:
     a serial algorithm will be used

     Using Slab Decomposition

     bravais-lattice index     =            0
     lattice parameter (alat)  =      11.0917  a.u.
     unit-cell volume          =    1364.5801 (a.u.)^3
     number of atoms/cell      =            9
     number of atomic types    =            4
     number of electrons       =       105.00
     number of Kohn-Sham states=           64
     kinetic-energy cutoff     =      30.0000  Ry
     charge density cutoff     =     240.0000  Ry
     scf convergence threshold =      1.0E-06
     mixing beta               =       0.7000
     number of iterations used =            8  plain     mixing
     Exchange-correlation= SLA  PW   PBE  PBE
                           (   1   4   3   4   0   0   0)

     celldm(1)=  11.091740  celldm(2)=   0.000000  celldm(3)=   0.000000
     celldm(4)=   0.000000  celldm(5)=   0.000000  celldm(6)=   0.000000

     crystal axes: (cart. coord. in units of alat)
               a(1) = (   1.000000   0.000000   0.000000 )
               a(2) = (   0.000000   1.000000   0.000000 )
               a(3) = (   0.000000   0.000000   1.000000 )

     reciprocal axes: (cart. coord. in units 2 pi/alat)
               b(1) = (  1.000000  0.000000  0.000000 )
               b(2) = (  0.000000  1.000000  0.000000 )
               b(3) = (  0.000000  0.000000  1.000000 )

     PseudoPot. # 1 for Na read from file:
     /home/pragov/projects/rrg-bengioy-ad/pragov/crystal_structure_design/SSSP/na_pbe_v1.5.uspp.F.UPF
     MD5 check sum: 44600605ef58000f06b90626533354dc
     Pseudo is Ultrasoft, Zval =  9.0
     Generated by new atomic code, or converted to UPF format
     Using radial grid of  819 points,  5 beta functions with:
                l(1) =   0
                l(2) =   0
                l(3) =   1
                l(4) =   1
                l(5) =   2
     Q(r) pseudized with  8 coefficients,  rinner =    1.250   1.250   1.250
                                                       1.250   1.250

     PseudoPot. # 2 for Mn read from file:
     /home/pragov/projects/rrg-bengioy-ad/pragov/crystal_structure_design/SSSP/mn_pbe_v1.5.uspp.F.UPF
     MD5 check sum: 82ef2b46521d7a7d9e736dc3972e4928
     Pseudo is Ultrasoft + core correction, Zval = 15.0
     Generated by new atomic code, or converted to UPF format
     Using radial grid of  859 points,  6 beta functions with:
                l(1) =   0
                l(2) =   0
                l(3) =   1
                l(4) =   1
                l(5) =   2
                l(6) =   2
     Q(r) pseudized with  8 coefficients,  rinner =    0.950   0.950   0.950
                                                       0.950   0.950

     PseudoPot. # 3 for Cu read from file:
     /home/pragov/projects/rrg-bengioy-ad/pragov/crystal_structure_design/SSSP/Cu_pbe_v1.2.uspp.F.UPF
     MD5 check sum: 6e991ff952a84172a2a52a1c1e996048
     Pseudo is Ultrasoft + core correction, Zval = 19.0
     Generated by new atomic code, or converted to UPF format
     Using radial grid of  867 points,  6 beta functions with:
                l(1) =   0
                l(2) =   0
                l(3) =   1
                l(4) =   1
                l(5) =   2
                l(6) =   2
     Q(r) pseudized with  8 coefficients,  rinner =    1.150   1.150   1.150
                                                       1.150   1.150

     PseudoPot. # 4 for Se read from file:
     /home/pragov/projects/rrg-bengioy-ad/pragov/crystal_structure_design/SSSP/Se_pbe_v1.uspp.F.UPF
     MD5 check sum: 1b3568f3a8ae88f9a2a0ad0698632c85
     Pseudo is Ultrasoft + core correction, Zval =  6.0
     Generated by new atomic code, or converted to UPF format
     Using radial grid of  877 points,  6 beta functions with:
                l(1) =   0
                l(2) =   0
                l(3) =   1
                l(4) =   1
                l(5) =   2
                l(6) =   2
     Q(r) pseudized with  8 coefficients,  rinner =    1.300   1.300   1.300
                                                       1.300   1.300

     atomic species   valence    mass     pseudopotential
        Na             9.00    22.98977     Na( 1.00)
        Mn            15.00    54.93804     Mn( 1.00)
        Cu            19.00    63.54600     Cu( 1.00)
        Se             6.00    78.97100     Se( 1.00)

     24 Sym. Ops. (no inversion) found

                                    s                        frac. trans.

      isym =  1     identity

 cryst.   s( 1) = (     1          0          0      )
                  (     0          1          0      )
                  (     0          0          1      )

 cart.    s( 1) = (  1.0000000  0.0000000  0.0000000 )
                  (  0.0000000  1.0000000  0.0000000 )
                  (  0.0000000  0.0000000  1.0000000 )

      isym =  2     180 deg rotation - cart. axis [0,0,1]

[...]

 cryst.   s( 9) = (     0          1          0      )
                  (     0          0          1      )
                  (     1          0          0      )

 cart.    s( 9) = (  0.0000000  0.0000000  1.0000000 )
                  (  1.0000000  0.0000000  0.0000000 )
                  (  0.0000000  1.0000000  0.0000000 )

[...]

 cryst.   s(10) = (     0         -1          0      )
                  (     0          0         -1      )
                  (     1          0          0      )

 cart.    s(10) = (  0.0000000  0.0000000  1.0000000 )
                  ( -1.0000000  0.0000000  0.0000000 )
                  (  0.0000000 -1.0000000  0.0000000 )

[...]

      isym = 12     120 deg rotation - cart. axis [-1,-1,1]

[...]

      isym = 13     inv. 180 deg rotation - cart. axis [1,1,0]

[...]

      isym = 24     inv.  90 deg rotation - cart. axis [1,0,0]

 cryst.   s(24) = (    -1          0          0      )
                  (     0          0         -1      )
                  (     0          1          0      )

 cart.    s(24) = ( -1.0000000  0.0000000  0.0000000 )
                  (  0.0000000  0.0000000  1.0000000 )
                  (  0.0000000 -1.0000000  0.0000000 )

   Cartesian axes

     site n.     atom                  positions (alat units)
         1           Na  tau(   1) = (   0.5000000   0.5000000   0.5000000  )
         2           Mn  tau(   2) = (   0.0000000   0.0000000   0.0000000  )
         3           Cu  tau(   3) = (   0.0000000   0.5000000   0.0000000  )
         4           Cu  tau(   4) = (   0.0000000   0.0000000   0.5000000  )
         5           Cu  tau(   5) = (   0.5000000   0.0000000   0.0000000  )
         6           Se  tau(   6) = (   0.2310280   0.2310280   0.2310280  )
         7           Se  tau(   7) = (   0.7689720   0.7689720   0.2310280  )
         8           Se  tau(   8) = (   0.2310280   0.7689720   0.7689720  )
         9           Se  tau(   9) = (   0.7689720   0.2310280   0.7689720  )

   Crystallographic axes

     site n.     atom                  positions (cryst. coord.)
         1           Na  tau(   1) = (  0.5000000  0.5000000  0.5000000  )
         2           Mn  tau(   2) = (  0.0000000  0.0000000  0.0000000  )
         3           Cu  tau(   3) = (  0.0000000  0.5000000  0.0000000  )
         4           Cu  tau(   4) = (  0.0000000  0.0000000  0.5000000  )
         5           Cu  tau(   5) = (  0.5000000  0.0000000  0.0000000  )
         6           Se  tau(   6) = (  0.2310280  0.2310280  0.2310280  )
         7           Se  tau(   7) = (  0.7689720  0.7689720  0.2310280  )
         8           Se  tau(   8) = (  0.2310280  0.7689720  0.7689720  )
         9           Se  tau(   9) = (  0.7689720  0.2310280  0.7689720  )

     number of k points=     1  Methfessel-Paxton smearing, width (Ry)=  0.0010
                       cart. coord. in units 2pi/alat
        k(    1) = (   0.0000000   0.0000000   0.0000000), wk =   2.0000000

                       cryst. coord.
        k(    1) = (   0.0000000   0.0000000   0.0000000), wk =   2.0000000

     Check: negative core charge=   -0.000005

     Initial potential from superposition of free atoms

     starting charge     101.4933, renormalised to     105.0000
     Starting wfcs are   73 randomized atomic wfcs

     Self-consistent Calculation

     iteration #  1     ecut=    30.00 Ry     beta= 0.70
     Davidson diagonalization with overlap

     ethr =  1.00E-02,  avg # of iterations =  3.0
     Minimization algorithm failed to find Fermi energy: reverting to bisection
     Possible cause: smearing is larger than the electronic band-gap.

     total energy              =   -1683.50143555 Ry
     estimated scf accuracy    <      11.60441343 Ry

[...]

     ethr =  1.00E-02,  avg # of iterations =  3.0

[...]

     total energy              =   -1692.14702876 Ry
     estimated scf accuracy    <       0.00000347 Ry

     iteration # 22     ecut=    30.00 Ry     beta= 0.70
     Davidson diagonalization with overlap

     ethr =  2.20E-09,  avg # of iterations =  1.0

     End of self-consistent calculation

          k = 0.0000 0.0000 0.0000 (  1896 PWs)   bands (ev):

  -105.6557-105.6550-105.6549 -71.9589 -63.1008 -63.1007 -63.1007 -63.0993
   -63.0992 -63.0992 -62.9317 -62.9317 -62.9316 -46.0270 -40.7377 -40.7376
   -40.7376 -17.9481 -17.9481 -17.9481  -7.2256  -6.3502  -6.3502  -6.3502
     1.1984   1.1984   1.3854   2.7752   2.7752   2.7752   3.1903   3.1903
     3.1903   3.3483   3.3483   3.3483   4.0405   4.0405   4.2168   4.2168
     4.2169   4.2948   4.2948   4.2957   4.9045   4.9936   4.9937   4.9937
     5.7202   5.7202   5.7202   7.0402   7.0402   7.7288   7.7288   7.7288
     7.8645  10.1194  10.1194  10.1194  10.6561  10.6561  10.7299  12.7091

     occupation numbers
     1.0000   1.0000   1.0000   1.0000   1.0000   1.0000   1.0000   1.0000
     1.0000   1.0000   1.0000   1.0000   1.0000   1.0000   1.0000   1.0000
     1.0000   1.0000   1.0000   1.0000   1.0000   1.0000   1.0000   1.0000
     1.0000   1.0000   1.0000   1.0000   1.0000   1.0000   1.0000   1.0000
     1.0000   1.0000   1.0000   1.0000   1.0000   1.0000   1.0000   1.0000
     1.0000   1.0000   1.0000   1.0000   1.0000   1.0000   1.0000   1.0000
     1.0000   1.0000   1.0000   0.7504   0.7496  -0.0000  -0.0000  -0.0000
    -0.0000  -0.0000  -0.0000  -0.0000  -0.0000  -0.0000  -0.0000  -0.0000

     the Fermi energy is     7.0444 ev

!    total energy              =   -1692.14702881 Ry
     estimated scf accuracy    <       0.00000007 Ry
     smearing contrib. (-TS)   =      -0.00041261 Ry
     internal energy E=F+TS    =   -1692.14661619 Ry

     The total energy is F=E-TS. E is the sum of the following terms:
     one-electron contribution =   -1554.89902583 Ry
     hartree contribution      =     810.02561931 Ry
     xc contribution           =    -276.21292723 Ry
     ewald contribution        =    -671.06028244 Ry

     convergence has been achieved in  22 iterations

     Forces acting on atoms (cartesian axes, Ry/au):

     atom    1 type  1   force =     0.00000000    0.00000000    0.00000000
     atom    2 type  2   force =     0.00000000    0.00000000    0.00000000
     atom    3 type  3   force =     0.00000000    0.00000000    0.00000000
     atom    4 type  3   force =     0.00000000    0.00000000    0.00000000
     atom    5 type  3   force =     0.00000000    0.00000000    0.00000000
     atom    6 type  4   force =    -0.04691237   -0.04691237   -0.04691237
     atom    7 type  4   force =     0.04691237    0.04691237   -0.04691237
     atom    8 type  4   force =    -0.04691237    0.04691237    0.04691237
     atom    9 type  4   force =     0.04691237   -0.04691237    0.04691237
     The non-local contrib.  to forces
     atom    1 type  1   force =     0.00000000    0.00000000    0.00000000
     atom    2 type  2   force =     0.00000000    0.00000000    0.00000000
     atom    3 type  3   force =     0.00000000    0.00000000    0.00000000
     atom    4 type  3   force =     0.00000000    0.00000000    0.00000000
     atom    5 type  3   force =     0.00000000    0.00000000    0.00000000
     atom    6 type  4   force =    -0.11138362   -0.11138362   -0.11138362
     atom    7 type  4   force =     0.11138362    0.11138362   -0.11138362
     atom    8 type  4   force =    -0.11138362    0.11138362    0.11138362
     atom    9 type  4   force =     0.11138362   -0.11138362    0.11138362
     The ionic contribution  to forces
     atom    1 type  1   force =     0.00000000   -0.00000000    0.00000000
     atom    2 type  2   force =    -0.00000000   -0.00000000   -0.00000000
     atom    3 type  3   force =    -0.00000000   -0.00000000   -0.00000000
     atom    4 type  3   force =    -0.00000000   -0.00000000    0.00000000
     atom    5 type  3   force =     0.00000000   -0.00000000   -0.00000000
     atom    6 type  4   force =     6.90858157    6.90858157    6.90858157
     atom    7 type  4   force =    -6.90858157   -6.90858157    6.90858157
     atom    8 type  4   force =     6.90858157   -6.90858157   -6.90858157
     atom    9 type  4   force =    -6.90858157    6.90858157   -6.90858157
     The local contribution  to forces
     atom    1 type  1   force =    -0.00000383    0.00000320   -0.00000112
     atom    2 type  2   force =     0.00001523    0.00000505    0.00001009
     atom    3 type  3   force =     0.00001630   -0.00000380    0.00000496
     atom    4 type  3   force =     0.00002057   -0.00005026   -0.00001560
     atom    5 type  3   force =    -0.00000750   -0.00000347    0.00000132
     atom    6 type  4   force =    -6.85679289   -6.85672436   -6.85679693
     atom    7 type  4   force =     6.85678774    6.85671844   -6.85678634
     atom    8 type  4   force =    -6.85679815    6.85672589    6.85678828
     atom    9 type  4   force =     6.85679467   -6.85672539    6.85678228
     The core correction contribution to forces
     atom    1 type  1   force =     0.00000000    0.00000000    0.00000000
     atom    2 type  2   force =     0.00000031   -0.00000012    0.00000008
     atom    3 type  3   force =    -0.00000002   -0.00000004    0.00000004
     atom    4 type  3   force =     0.00000001    0.00000001   -0.00000001
     atom    5 type  3   force =    -0.00000001   -0.00000002    0.00000002
     atom    6 type  4   force =     0.01267040    0.01266858    0.01266744
     atom    7 type  4   force =    -0.01267092   -0.01267079    0.01266958
     atom    8 type  4   force =     0.01266958   -0.01267104   -0.01266851
     atom    9 type  4   force =    -0.01266860    0.01266975   -0.01267090
     The Hubbard contrib.    to forces
     atom    1 type  1   force =     0.00000000    0.00000000    0.00000000
     atom    2 type  2   force =     0.00000000    0.00000000    0.00000000
     atom    3 type  3   force =     0.00000000    0.00000000    0.00000000
     atom    4 type  3   force =     0.00000000    0.00000000    0.00000000
     atom    5 type  3   force =     0.00000000    0.00000000    0.00000000
     atom    6 type  4   force =     0.00000000    0.00000000    0.00000000
     atom    7 type  4   force =     0.00000000    0.00000000    0.00000000
     atom    8 type  4   force =     0.00000000    0.00000000    0.00000000
     atom    9 type  4   force =     0.00000000    0.00000000    0.00000000
     The SCF correction term to forces
     atom    1 type  1   force =     0.00000438    0.00000379    0.00002185
     atom    2 type  2   force =    -0.00000886   -0.00001502   -0.00001417
     atom    3 type  3   force =     0.00000210    0.00002878   -0.00000376
     atom    4 type  3   force =    -0.00002593    0.00006474    0.00001211
     atom    5 type  3   force =     0.00000510    0.00000799   -0.00000677
     atom    6 type  4   force =     0.00001729   -0.00005826    0.00000723
     atom    7 type  4   force =    -0.00001624    0.00005647    0.00000278
     atom    8 type  4   force =     0.00002135    0.00005463   -0.00000243
     atom    9 type  4   force =    -0.00001417   -0.00005535   -0.00000469

     Total force =     0.162509     Total SCF correction =     0.000145

     Computing stress (Cartesian axis) and pressure

          total   stress  (Ry/bohr**3)                   (kbar)     P=     -236.76
  -0.00160946   0.00000000   0.00000000         -236.76        0.00        0.00
   0.00000000  -0.00160946   0.00000000            0.00     -236.76        0.00
   0.00000000   0.00000000  -0.00160946            0.00        0.00     -236.76

     kinetic stress (kbar)  15140.29      0.00      0.00
                                0.00  15140.29      0.00
                                0.00      0.00  15140.29

     local   stress (kbar) -20430.31     -0.00      0.00
                               -0.00 -20431.36     -0.00
                                0.00     -0.00 -20430.52

     nonloc. stress (kbar)   6345.67      0.00      0.00
                                0.00   6345.67      0.00
                                0.00      0.00   6345.67

     hartree stress (kbar)  29107.39     -0.00      0.00
                               -0.00  29107.86      0.00
                                0.00      0.00  29107.49

     exc-cor stress (kbar)   5043.75      0.00      0.00
                                0.00   5043.76     -0.00
                                0.00     -0.00   5043.75

     corecor stress (kbar) -11329.34     -0.00     -0.00
                               -0.00 -11329.35      0.00
                               -0.00      0.00 -11329.35

     ewald   stress (kbar) -24113.98     -0.00      0.00
                               -0.00 -24113.98      0.00
                                0.00      0.00 -24113.98

     hubbard stress (kbar)      0.00      0.00      0.00
                                0.00      0.00      0.00
                                0.00      0.00      0.00

     DFT-D   stress (kbar)      0.00      0.00      0.00
                                0.00      0.00      0.00
                                0.00      0.00      0.00

     XDM     stress (kbar)      0.00      0.00      0.00
                                0.00      0.00      0.00
                                0.00      0.00      0.00

     dft-nl  stress (kbar)      0.00      0.00      0.00
                                0.00      0.00      0.00
                                0.00      0.00      0.00

     TS-vdW  stress (kbar)      0.00      0.00      0.00
                                0.00      0.00      0.00
                                0.00      0.00      0.00

[...]

                                0.00      0.00      0.00

     Writing all to output data dir new_calculations/myprefix.save/

     General routines

     Parallel routines

   This run was terminated on:   9:25:28  20May2023

   JOB DONE.