     Program PWSCF v.7.0 starts on 21May2023 at  9:30: 7

     Reading input from espresso_21791.pwi
Warning: card &CELL ignored
Warning: card / ignored

     Current dimensions of program PWSCF are:
     Max number of different atomic species (ntypx) = 10
     Max number of k-points (npk) =  40000
     Max angular momentum in pseudopotentials (lmaxx) =  4

     gamma-point specific algorithms are used
     Message from routine setup:
     using ibrav=0 with symmetry is DISCOURAGED, use correct ibrav instead

     Subspace diagonalization in iterative solution of the eigenvalue problem:
     a serial algorithm will be used

     Using Slab Decomposition

     bravais-lattice index     =            0
     lattice parameter (alat)  =      21.5978  a.u.
     unit-cell volume          =     984.2708 (a.u.)^3
     number of atoms/cell      =            8
     number of atomic types    =            2
     number of electrons       =        26.00
     number of Kohn-Sham states=           17
     kinetic-energy cutoff     =      30.0000  Ry
     charge density cutoff     =     240.0000  Ry
     scf convergence threshold =      1.0E-06
     mixing beta               =       0.7000
     number of iterations used =            8  plain     mixing
     Exchange-correlation= PBE
                           (   1   4   3   4   0   0   0)

     celldm(1)=  21.597817  celldm(2)=   0.000000  celldm(3)=   0.000000
     celldm(4)=   0.000000  celldm(5)=   0.000000  celldm(6)=   0.000000

     crystal axes: (cart. coord. in units of alat)
               a(1) = (   1.000000   0.000000   0.000000 )
               a(2) = (   0.942481   0.334261   0.000000 )
               a(3) = (   0.942481   0.162182   0.292280 )

     reciprocal axes: (cart. coord. in units 2 pi/alat)
               b(1) = (  1.000000 -2.819594 -1.660032 )
               b(2) = (  0.000000  2.991673 -1.660032 )
               b(3) = (  0.000000  0.000000  3.421376 )

     PseudoPot. # 1 for Si read from file:
     /home/pragov/projects/rrg-bengioy-ad/pragov/crystal_structure_design/SSSP/Si.pbe-n-rrkjus_psl.1.0.0.UPF
     MD5 check sum: 0b0bb1205258b0d07b9f9672cf965d36
     Pseudo is Ultrasoft + core correction, Zval =  4.0
     Generated using "atomic" code by A. Dal Corso  v.5.1
     Using radial grid of 1141 points,  6 beta functions with:
                l(1) =   0
                l(2) =   0
                l(3) =   1
                l(4) =   1
                l(5) =   2
                l(6) =   2
     Q(r) pseudized with 0 coefficients

     PseudoPot. # 2 for H  read from file:
     /home/pragov/projects/rrg-bengioy-ad/pragov/crystal_structure_design/SSSP/H.pbe-rrkjus_psl.1.0.0.UPF
     MD5 check sum: f52b6d4d1c606e5624b1dc7b2218f220
     Pseudo is Ultrasoft, Zval =  1.0
     Generated using "atomic" code by A. Dal Corso  v.5.1
     Using radial grid of  929 points,  2 beta functions with:
                l(1) =   0
                l(2) =   0
     Q(r) pseudized with 0 coefficients

     atomic species   valence    mass     pseudopotential
        Si             4.00    28.08500     Si( 1.00)
        H              1.00     1.00800     H ( 1.00)

      2 Sym. Ops., with inversion, found

                                    s                        frac. trans.

      isym =  1     identity

 cryst.   s( 1) = (     1          0          0      )
                  (     0          1          0      )
                  (     0          0          1      )

 cart.    s( 1) = (  1.0000000  0.0000000 -0.0000000 )
                  (  0.0000000  1.0000000 -0.0000000 )
                  (  0.0000000  0.0000000  1.0000000 )

      isym =  2     inversion

 cryst.   s( 2) = (    -1          0          0      )
                  (     0         -1          0      )
                  (     0          0         -1      )

 cart.    s( 2) = ( -1.0000000 -0.0000000  0.0000000 )
                  (  0.0000000 -1.0000000  0.0000000 )
                  (  0.0000000  0.0000000 -1.0000000 )

   Cartesian axes

     site n.     atom                  positions (alat units)
         1           Si  tau(   1) = (   1.6842316   0.2898218   0.1706322  )
         2           Si  tau(   2) = (   1.2007294   0.2066209   0.1216478  )
         3           Si  tau(   3) = (   1.8894533   0.3251362   0.1914236  )
         4           Si  tau(   4) = (   0.9955077   0.1713065   0.1008565  )
         5           Si  tau(   5) = (   0.6574711   0.1131373   0.0666095  )
         6           Si  tau(   6) = (   2.2274900   0.3833054   0.2256706  )
         7           H   tau(   7) = (   0.5284614   0.0909374   0.0535393  )
         8           H   tau(   8) = (   2.3564996   0.4055053   0.2387408  )

   Crystallographic axes

     site n.     atom                  positions (cryst. coord.)
         1           Si  tau(   1) = (  0.5837970  0.5837970  0.5837970  )
         2           Si  tau(   2) = (  0.4162030  0.4162030  0.4162030  )
         3           Si  tau(   3) = (  0.6549320  0.6549320  0.6549320  )
         4           Si  tau(   4) = (  0.3450680  0.3450680  0.3450680  )
         5           Si  tau(   5) = (  0.2278960  0.2278960  0.2278960  )
         6           Si  tau(   6) = (  0.7721040  0.7721040  0.7721040  )
         7           H   tau(   7) = (  0.1831780  0.1831780  0.1831780  )
         8           H   tau(   8) = (  0.8168220  0.8168220  0.8168220  )

     number of k points=     1  Methfessel-Paxton smearing, width (Ry)=  0.0010
                       cart. coord. in units 2pi/alat
        k(    1) = (   0.0000000   0.0000000   0.0000000), wk =   2.0000000

                       cryst. coord.
        k(    1) = (   0.0000000   0.0000000   0.0000000), wk =   2.0000000

     Initial potential from superposition of free atoms

     starting charge      25.9966, renormalised to      26.0000
     Starting wfcs are   26 randomized atomic wfcs

     Self-consistent Calculation

     iteration #  1     ecut=    30.00 Ry     beta= 0.70
     Davidson diagonalization with overlap

     ethr =  1.00E-02,  avg # of iterations =  2.0

     total energy              =     -68.97179519 Ry
     estimated scf accuracy    <       0.59883394 Ry

[...]

     total energy              =     -68.99976564 Ry
     estimated scf accuracy    <       0.00000228 Ry

     iteration #  9     ecut=    30.00 Ry     beta= 0.70
     Davidson diagonalization with overlap

     ethr =  8.78E-09,  avg # of iterations =  4.0

     End of self-consistent calculation

          k = 0.0000 0.0000 0.0000 (  1369 PWs)   bands (ev):

    -6.6280  -5.8752  -5.1837  -1.3397  -1.2083   2.0855   3.5299   3.8902
     3.8903   4.4475   4.4477   5.0216   5.0217   6.2158   6.8573   7.4213
     7.4681

     occupation numbers
     1.0000   1.0000   1.0000   1.0000   1.0000   1.0000   1.0000   1.0000
     1.0000   1.0000   1.0000   1.0000   1.0000  -0.0000  -0.0000  -0.0000
    -0.0000

     the Fermi energy is     5.8081 ev

!    total energy              =     -68.99976589 Ry
     estimated scf accuracy    <       0.00000040 Ry
     smearing contrib. (-TS)   =       0.00000000 Ry
     internal energy E=F+TS    =     -68.99976589 Ry

     The total energy is F=E-TS. E is the sum of the following terms:
     one-electron contribution =       8.95084045 Ry
     hartree contribution      =       7.57796426 Ry
     xc contribution           =     -38.69041553 Ry
     ewald contribution        =     -46.83815507 Ry

     convergence has been achieved in   9 iterations

     Forces acting on atoms (cartesian axes, Ry/au):

     atom    1 type  1   force =    -0.01951805   -0.00334519   -0.00197374
     atom    2 type  1   force =     0.01951805    0.00334519    0.00197374
     atom    3 type  1   force =     0.00959715    0.00164130    0.00096750
     atom    4 type  1   force =    -0.00959715   -0.00164130   -0.00096750
     atom    5 type  1   force =     0.03170343    0.00546878    0.00322097
     atom    6 type  1   force =    -0.03170343   -0.00546878   -0.00322097
     atom    7 type  2   force =    -0.01121789   -0.00192663   -0.00113475
     atom    8 type  2   force =     0.01121789    0.00192663    0.00113475
     The non-local contrib.  to forces
     atom    1 type  1   force =    -0.12147749   -0.02087569   -0.01235287
     atom    2 type  1   force =     0.12147749    0.02087569    0.01235287
     atom    3 type  1   force =     0.12357376    0.02127012    0.01251506
     atom    4 type  1   force =    -0.12357376   -0.02127012   -0.01251506
     atom    5 type  1   force =     0.18687466    0.03215791    0.01889107
     atom    6 type  1   force =    -0.18687466   -0.03215791   -0.01889107
     atom    7 type  2   force =     0.03722372    0.00640548    0.00377123
     atom    8 type  2   force =    -0.03722372   -0.00640548   -0.00377123
     The ionic contribution  to forces
     atom    1 type  1   force =    -1.21453804   -0.20899713   -0.12304676
     atom    2 type  1   force =     1.21453804    0.20899713    0.12304676
     atom    3 type  1   force =    -0.21131225   -0.03636251   -0.02140811
     atom    4 type  1   force =     0.21131225    0.03636251    0.02140811
     atom    5 type  1   force =    -1.43845727   -0.24752904   -0.14573220
     atom    6 type  1   force =     1.43845727    0.24752904    0.14573220
     atom    7 type  2   force =    -0.93812842   -0.16143269   -0.09504329
     atom    8 type  2   force =     0.93812842    0.16143269    0.09504329
     The local contribution  to forces
     atom    1 type  1   force =     1.30503287    0.22458345    0.13236523
     atom    2 type  1   force =    -1.30480385   -0.22449056   -0.13216137
     atom    3 type  1   force =     0.10832172    0.01861888    0.01082484
     atom    4 type  1   force =    -0.10965573   -0.01885314   -0.01129240
     atom    5 type  1   force =     1.30388006    0.22441699    0.13223118
     atom    6 type  1   force =    -1.30367088   -0.22430715   -0.13202022
     atom    7 type  2   force =     0.88982765    0.15312916    0.09016137
     atom    8 type  2   force =    -0.88955338   -0.15306738   -0.09011412
     The core correction contribution to forces
     atom    1 type  1   force =     0.01149265    0.00197727    0.00118170
     atom    2 type  1   force =    -0.01149075   -0.00197263   -0.00115872
     atom    3 type  1   force =    -0.01167551   -0.00201060   -0.00119917
     atom    4 type  1   force =     0.01167007    0.00200880    0.00116534
     atom    5 type  1   force =    -0.02052253   -0.00352798   -0.00206284
     atom    6 type  1   force =     0.02050218    0.00353095    0.00208356
     atom    7 type  2   force =     0.00000000    0.00000000    0.00000000
     atom    8 type  2   force =     0.00000000    0.00000000    0.00000000
     The Hubbard contrib.    to forces
     atom    1 type  1   force =     0.00000000    0.00000000    0.00000000
     atom    2 type  1   force =     0.00000000    0.00000000    0.00000000
     atom    3 type  1   force =     0.00000000    0.00000000    0.00000000
     atom    4 type  1   force =     0.00000000    0.00000000    0.00000000
     atom    5 type  1   force =     0.00000000    0.00000000    0.00000000
     atom    6 type  1   force =     0.00000000    0.00000000    0.00000000
     atom    7 type  2   force =     0.00000000    0.00000000    0.00000000
     atom    8 type  2   force =     0.00000000    0.00000000    0.00000000
     The SCF correction term to forces
     atom    1 type  1   force =     0.00004201    0.00000422   -0.00003452
     atom    2 type  1   force =    -0.00013282   -0.00002712   -0.00001926
     atom    3 type  1   force =     0.00060900    0.00010713    0.00007724
     atom    4 type  1   force =     0.00056960    0.00009237    0.00010888
     atom    5 type  1   force =    -0.00017891   -0.00003475   -0.00002772
     atom    6 type  1   force =    -0.00022475   -0.00004937   -0.00004691
     atom    7 type  2   force =    -0.00013840   -0.00002369   -0.00001971
     atom    8 type  2   force =    -0.00013100   -0.00002830   -0.00001885

     Total force =     0.057758     Total SCF correction =     0.000939

     Computing stress (Cartesian axis) and pressure

          total   stress  (Ry/bohr**3)                   (kbar)     P=      174.54
   0.00084598  -0.00008968  -0.00005282          124.45      -13.19       -7.77
  -0.00008968   0.00135178  -0.00000914          -13.19      198.85       -1.34
  -0.00005282  -0.00000914   0.00136175           -7.77       -1.34      200.32

     kinetic stress (kbar)   2098.55    -60.56    -35.65
                              -60.56   2440.05     -6.14
                              -35.65     -6.14   2446.85

     local   stress (kbar)    714.21    315.33    185.64
                              315.33  -1063.97     31.94
                              185.64     31.94  -1099.44

     nonloc. stress (kbar)   1098.55    -24.86    -14.63
                              -24.86   1238.72     -2.52
                              -14.63     -2.52   1241.52

     hartree stress (kbar)     -3.78   -100.42    -59.13
                             -100.42    562.53    -10.17
                              -59.13    -10.17    573.82

     exc-cor stress (kbar)   2341.31     -0.24     -0.14
                               -0.24   2342.68     -0.02
                               -0.14     -0.02   2342.70

     corecor stress (kbar)  -3231.69      4.86      2.86
                                4.86  -3259.11      0.49
                                2.86      0.49  -3259.66

     ewald   stress (kbar)  -2892.70   -147.30    -86.72
                             -147.30  -2062.05    -14.92
                              -86.72    -14.92  -2045.49

     hubbard stress (kbar)      0.00      0.00      0.00
                                0.00      0.00      0.00
                                0.00      0.00      0.00

     DFT-D   stress (kbar)      0.00      0.00      0.00
                                0.00      0.00      0.00
                                0.00      0.00      0.00

     XDM     stress (kbar)      0.00      0.00      0.00
                                0.00      0.00      0.00
                                0.00      0.00      0.00

     dft-nl  stress (kbar)      0.00      0.00      0.00
                                0.00      0.00      0.00
                                0.00      0.00      0.00

     TS-vdW  stress (kbar)      0.00      0.00      0.00
                                0.00      0.00      0.00
                                0.00      0.00      0.00

[...]

                                0.00      0.00      0.00

     Writing all to output data dir new_calculations/myprefix.save/

     General routines

     Parallel routines

   This run was terminated on:   9:30:24  21May2023

   JOB DONE.