     Program PWSCF v.7.0 starts on 20May2023 at 15:35:54

     Reading input from espresso_22029.pwi
Warning: card &CELL ignored
Warning: card / ignored

     Current dimensions of program PWSCF are:
     Max number of different atomic species (ntypx) = 10
     Max number of k-points (npk) =  40000
     Max angular momentum in pseudopotentials (lmaxx) =  4
     file K.pbe-spn-kjpaw_psl.1.0.0.UPF: wavefunction(s)  3S renormalized

     gamma-point specific algorithms are used
     Message from routine setup:
     using ibrav=0 with symmetry is DISCOURAGED, use correct ibrav instead

     Subspace diagonalization in iterative solution of the eigenvalue problem:
     a serial algorithm will be used

     Using Slab Decomposition

     bravais-lattice index     =            0
     lattice parameter (alat)  =      15.1624  a.u.
     unit-cell volume          =    2464.8230 (a.u.)^3
     number of atoms/cell      =           10
     number of atomic types    =            4
     number of electrons       =        94.00
     number of Kohn-Sham states=           56
     kinetic-energy cutoff     =      30.0000  Ry
     charge density cutoff     =     240.0000  Ry
     scf convergence threshold =      1.0E-06
     mixing beta               =       0.7000
     number of iterations used =            8  plain     mixing
     Exchange-correlation=  SLA  PW   PBX  PBC
                           (   1   4   3   4   0   0   0)

     celldm(1)=  15.162364  celldm(2)=   0.000000  celldm(3)=   0.000000
     celldm(4)=   0.000000  celldm(5)=   0.000000  celldm(6)=   0.000000

     crystal axes: (cart. coord. in units of alat)
               a(1) = (   1.000000   0.000000   0.000000 )
               a(2) = (   0.500000   0.866025   0.000000 )
               a(3) = (   0.500000   0.288675   0.816497 )

     reciprocal axes: (cart. coord. in units 2 pi/alat)
               b(1) = (  1.000000 -0.577350 -0.408248 )
               b(2) = (  0.000000  1.154701 -0.408248 )
               b(3) = (  0.000000  0.000000  1.224745 )

     PseudoPot. # 1 for K  read from file:
     /home/pragov/projects/rrg-bengioy-ad/pragov/crystal_structure_design/SSSP/K.pbe-spn-kjpaw_psl.1.0.0.UPF
     MD5 check sum: 7d58810084cac21f60fbe77ea2b688fd
     Pseudo is Projector augmented-wave + core cor, Zval =  9.0
     Generated using "atomic" code by A. Dal Corso  v.5.1
     Shape of augmentation charge: PSQ
     Using radial grid of 1165 points,  6 beta functions with:
                l(1) =   0
                l(2) =   0
                l(3) =   1
                l(4) =   1
                l(5) =   2
                l(6) =   2
     Q(r) pseudized with 0 coefficients

     PseudoPot. # 2 for Rb read from file:
     /home/pragov/projects/rrg-bengioy-ad/pragov/crystal_structure_design/SSSP/Rb_ONCV_PBE-1.0.oncvpsp.upf
     MD5 check sum: 55a5172d6bfbce6759a58e35d43f6aa9
     Pseudo is Norm-conserving, Zval =  9.0
     Generated using ONCVPSP code by D. R. Hamann
     Using radial grid of 2308 points,  6 beta functions with:
                l(1) =   0
                l(2) =   0
                l(3) =   1
                l(4) =   1
                l(5) =   2
                l(6) =   2

     PseudoPot. # 3 for Lu read from file:
     /home/pragov/projects/rrg-bengioy-ad/pragov/crystal_structure_design/SSSP/Lu.GGA-PBE-paw-v1.0.UPF
     MD5 check sum: 9ceca61ee0c17e9380a83635bfffa61d
     Pseudo is Projector augmented-wave + core cor, Zval = 25.0
     Generated using ATOMPAW code
     Shape of augmentation charge: BESSEL
     Using radial grid of 1118 points,  8 beta functions with:
                l(1) =   0
                l(2) =   0
                l(3) =   1
                l(4) =   1
                l(5) =   2
                l(6) =   2
                l(7) =   3
                l(8) =   3
     Q(r) pseudized with 0 coefficients

     PseudoPot. # 4 for Cl read from file:
     /home/pragov/projects/rrg-bengioy-ad/pragov/crystal_structure_design/SSSP/cl_pbe_v1.4.uspp.F.UPF
     MD5 check sum: fc6f6913ecf08c9257cb748ef0700058
     Pseudo is Ultrasoft + core correction, Zval =  7.0
     Generated by new atomic code, or converted to UPF format
     Using radial grid of  909 points,  6 beta functions with:
                l(1) =   0
                l(2) =   0
                l(3) =   1
                l(4) =   1
                l(5) =   2
                l(6) =   2
     Q(r) pseudized with  8 coefficients,  rinner =    1.300   1.300   1.300
                                                       1.300   1.300

     atomic species   valence    mass     pseudopotential
        K              9.00    39.09830     K ( 1.00)
        Rb             9.00    85.46780     Rb( 1.00)
        Lu            25.00   174.96680     Lu( 1.00)
        Cl             7.00    35.45000     Cl( 1.00)

     12 Sym. Ops., with inversion, found

                                    s                        frac. trans.

      isym =  1     identity

 cryst.   s( 1) = (     1          0          0      )
                  (     0          1          0      )
                  (     0          0          1      )

 cart.    s( 1) = (  1.0000000  0.0000000  0.0000000 )
                  (  0.0000000  1.0000000 -0.0000000 )
                  (  0.0000000  0.0000000  1.0000000 )

      isym =  2     180 deg rotation - cart. axis [1,0,0]

[...]

      isym =  3     120 deg rotation - cryst. axis [0,0,1]

[...]

      isym =  6     180 deg rotation - cryst. axis [1,1,0]

[...]

      isym =  7     inversion

[...]

      isym =  8     inv. 180 deg rotation - cart. axis [1,0,0]

[...]

      isym =  9     inv. 120 deg rotation - cryst. axis [0,0,1]

 cryst.   s( 9) = (     1         -1          0      )
                  (     1          0          0      )
                  (     1          0         -1      )

 cart.    s( 9) = (  0.5000000  0.8660254  0.0000000 )
                  ( -0.8660254  0.5000000 -0.0000000 )
                  (  0.0000000  0.0000000 -1.0000000 )

[...]

 cryst.   s(10) = (     0          1          0      )
                  (    -1          1          0      )
                  (     0          1         -1      )

 cart.    s(10) = (  0.5000000 -0.8660254  0.0000000 )
                  (  0.8660254  0.5000000 -0.0000000 )
                  (  0.0000000  0.0000000 -1.0000000 )

[...]

      isym = 12     inv. 180 deg rotation - cryst. axis [1,1,0]

 cryst.   s(12) = (     1         -1          0      )
                  (     0         -1          0      )
                  (     0         -1          1      )

 cart.    s(12) = (  0.5000000 -0.8660254  0.0000000 )
                  ( -0.8660254 -0.5000000  0.0000000 )
                  (  0.0000000  0.0000000  1.0000000 )

   Cartesian axes

     site n.     atom                  positions (alat units)
         1           K   tau(   1) = (   1.5000000   0.8660254   0.6123724  )
         2           K   tau(   2) = (   0.5000000   0.2886751   0.2041241  )
         3           Rb  tau(   3) = (   1.0000000   0.5773503   0.4082483  )
         4           Lu  tau(   4) = (   0.0000000   0.0000000   0.0000000  )
         5           Cl  tau(   5) = (   1.0000000   0.2621378   0.1853594  )
         6           Cl  tau(   6) = (   0.7270180   0.4197440   0.6311372  )
         7           Cl  tau(   7) = (   1.0000000   0.8925627   0.6311372  )
         8           Cl  tau(   8) = (   0.7270180   0.7349565   0.1853594  )
         9           Cl  tau(   9) = (   1.2729820   0.4197440   0.6311372  )
        10           Cl  tau(  10) = (   1.2729820   0.7349565   0.1853594  )

   Crystallographic axes

     site n.     atom                  positions (cryst. coord.)
         1           K   tau(   1) = (  0.7500000  0.7500000  0.7500000  )
         2           K   tau(   2) = (  0.2500000  0.2500000  0.2500000  )
         3           Rb  tau(   3) = (  0.5000000  0.5000000  0.5000000  )
         4           Lu  tau(   4) = (  0.0000000  0.0000000  0.0000000  )
         5           Cl  tau(   5) = (  0.7729820  0.2270180  0.2270180  )
         6           Cl  tau(   6) = (  0.2270180  0.2270180  0.7729820  )
         7           Cl  tau(   7) = (  0.2270180  0.7729820  0.7729820  )
         8           Cl  tau(   8) = (  0.2270180  0.7729820  0.2270180  )
         9           Cl  tau(   9) = (  0.7729820  0.2270180  0.7729820  )
        10           Cl  tau(  10) = (  0.7729820  0.7729820  0.2270180  )

     number of k points=     1  Methfessel-Paxton smearing, width (Ry)=  0.0010
                       cart. coord. in units 2pi/alat
        k(    1) = (   0.0000000   0.0000000   0.0000000), wk =   2.0000000

                       cryst. coord.
        k(    1) = (   0.0000000   0.0000000   0.0000000), wk =   2.0000000

     Check: negative core charge=   -0.000002

     Initial potential from superposition of free atoms

     starting charge      93.9338, renormalised to      94.0000

     negative rho (up, down):  8.971E-02 0.000E+00
     Starting wfcs are   77 randomized atomic wfcs
     Checking if some PAW data can be deallocated...

     Self-consistent Calculation

     iteration #  1     ecut=    30.00 Ry     beta= 0.70
     Davidson diagonalization with overlap

     ethr =  1.00E-02,  avg # of iterations =  4.0

     Threshold (ethr) on eigenvalues was too large:
     Diagonalizing with lowered threshold

     Davidson diagonalization with overlap

[...]

     negative rho (up, down):  9.318E-02 0.000E+00

     total energy              =   -1556.08118868 Ry
     estimated scf accuracy    <       0.49350908 Ry

[...]

     c_bands:  1 eigenvalues not converged
     ethr =  2.12E-06,  avg # of iterations = 20.0

[...]

     total energy              =   -1556.24188952 Ry
     estimated scf accuracy    <       0.00000531 Ry

     iteration #  7     ecut=    30.00 Ry     beta= 0.70
     Davidson diagonalization with overlap

     ethr =  5.65E-09,  avg # of iterations =  3.0

[...]

     End of self-consistent calculation

          k = 0.0000 0.0000 0.0000 (  3428 PWs)   bands (ev):

   -52.9107 -28.1470 -28.1468 -23.6208 -23.6207 -23.6206 -23.0792 -11.8311
   -11.5952 -11.5952 -11.5952 -11.5920 -11.5920 -11.5920 -11.4991 -11.4990
   -11.4803 -11.4801 -11.4801  -7.2343  -7.2342  -7.2342  -1.6202  -1.4320
    -1.4320  -1.4319  -1.3834  -1.3834  -1.3834  -1.3616  -0.6140  -0.6138
    -0.5918  -0.5918  -0.5917  -0.3192  -0.3191  -0.3191   0.5165   0.5166
     0.5167   0.7720   0.7721   0.7721   0.9543   0.9543   0.9544   5.2420
     6.4753   6.4754   6.4754   6.7846   7.7616   7.7617   8.1537   8.1538

     occupation numbers
     1.0000   1.0000   1.0000   1.0000   1.0000   1.0000   1.0000   1.0000
     1.0000   1.0000   1.0000   1.0000   1.0000   1.0000   1.0000   1.0000
     1.0000   1.0000   1.0000   1.0000   1.0000   1.0000   1.0000   1.0000
     1.0000   1.0000   1.0000   1.0000   1.0000   1.0000   1.0000   1.0000
     1.0000   1.0000   1.0000   1.0000   1.0000   1.0000   1.0000   1.0000
     1.0000   1.0000   1.0000   1.0000   1.0000   1.0000   1.0000  -0.0000
    -0.0000  -0.0000  -0.0000  -0.0000  -0.0000  -0.0000  -0.0000  -0.0000

     the Fermi energy is     4.4563 ev

!    total energy              =   -1556.24189055 Ry
     estimated scf accuracy    <       0.00000061 Ry
     smearing contrib. (-TS)   =       0.00000000 Ry
     internal energy E=F+TS    =   -1556.24189055 Ry

     The total energy is F=E-TS. E is the sum of the following terms:
     one-electron contribution =    -826.07043225 Ry
     hartree contribution      =     400.47703024 Ry
     xc contribution           =    -128.47686372 Ry
     ewald contribution        =    -400.54759283 Ry
     one-center paw contrib.   =    -601.62403199 Ry
      -> PAW hartree energy AE =     564.84156895 Ry
      -> PAW hartree energy PS =    -495.86546683 Ry
      -> PAW xc energy AE      =    -731.70080234 Ry
      -> PAW xc energy PS      =      61.10066823 Ry
      -> total E_H with PAW    =     469.45313235 Ry
      -> total E_XC with PAW   =    -799.07699783 Ry

     convergence has been achieved in   7 iterations

     negative rho (up, down):  8.848E-02 0.000E+00

     Forces acting on atoms (cartesian axes, Ry/au):

     atom    1 type  1   force =     0.00000000    0.00000000    0.00000556
     atom    2 type  1   force =     0.00000000   -0.00000000   -0.00000556
     atom    3 type  2   force =     0.00000000    0.00000000    0.00000000
     atom    4 type  3   force =     0.00000000    0.00000000    0.00000000
     atom    5 type  4   force =     0.00000000    0.00154828    0.00110004
     atom    6 type  4   force =     0.00134085    0.00077414   -0.00110004
     atom    7 type  4   force =     0.00000000   -0.00154828   -0.00110004
     atom    8 type  4   force =     0.00134085   -0.00077414    0.00110004
     atom    9 type  4   force =    -0.00134085    0.00077414   -0.00110004
     atom   10 type  4   force =    -0.00134085   -0.00077414    0.00110004
     The non-local contrib.  to forces
     atom    1 type  1   force =     0.00000000   -0.00000000   -0.00000269
     atom    2 type  1   force =     0.00000000    0.00000000    0.00000269
     atom    3 type  2   force =     0.00000000    0.00000000   -0.00000000
     atom    4 type  3   force =     0.00000000    0.00000000    0.00000000
     atom    5 type  4   force =     0.00000000   -0.05059399   -0.03577990
     atom    6 type  4   force =    -0.04381568   -0.02529699    0.03577990
     atom    7 type  4   force =     0.00000000    0.05059399    0.03577990
     atom    8 type  4   force =    -0.04381568    0.02529699   -0.03577990
     atom    9 type  4   force =     0.04381568   -0.02529699    0.03577990
     atom   10 type  4   force =     0.04381568    0.02529699   -0.03577990
     The ionic contribution  to forces
     atom    1 type  1   force =     0.00000000   -0.00000000    0.00000000
     atom    2 type  1   force =     0.00000000   -0.00000000   -0.00000000
     atom    3 type  2   force =    -0.00000000    0.00000000    0.00000000
     atom    4 type  3   force =    -0.00000000    0.00000000    0.00000000
     atom    5 type  4   force =     0.00000000    9.26399681    6.55063497
     atom    6 type  4   force =     8.02285658    4.63199841   -6.55063497
     atom    7 type  4   force =    -0.00000000   -9.26399682   -6.55063497
     atom    8 type  4   force =     8.02285658   -4.63199841    6.55063497
     atom    9 type  4   force =    -8.02285658    4.63199841   -6.55063497
     atom   10 type  4   force =    -8.02285658   -4.63199841    6.55063497
     The local contribution  to forces
     atom    1 type  1   force =     0.00000708    0.00000380   -0.00000485
     atom    2 type  1   force =     0.00000043   -0.00002440   -0.00002944
     atom    3 type  2   force =    -0.00000395    0.00000314    0.00000971
     atom    4 type  3   force =    -0.00002587   -0.00015520    0.00032293
     atom    5 type  4   force =    -0.00001390   -9.21195276   -6.51377685
     atom    6 type  4   force =    -7.97774915   -4.60595601    6.51383517
     atom    7 type  4   force =     0.00002098    9.21189093    6.51379015
     atom    8 type  4   force =    -7.97786000    4.60602990   -6.51385759
     atom    9 type  4   force =     7.97779191   -4.60596919    6.51390721
     atom   10 type  4   force =     7.97776581    4.60595933   -6.51379485
     The core correction contribution to forces
     atom    1 type  1   force =     0.00000021   -0.00000004    0.00000012
     atom    2 type  1   force =    -0.00000018   -0.00000021   -0.00000039
     atom    3 type  2   force =     0.00000000    0.00000000    0.00000000
     atom    4 type  3   force =    -0.00000000   -0.00000000    0.00000000
     atom    5 type  4   force =    -0.00000004    0.00059934    0.00042387
     atom    6 type  4   force =     0.00051864    0.00030018   -0.00042324
     atom    7 type  4   force =     0.00000021   -0.00059921   -0.00042456
     atom    8 type  4   force =     0.00051820   -0.00029862    0.00042381
     atom    9 type  4   force =    -0.00051873    0.00030013   -0.00042305
     atom   10 type  4   force =    -0.00051950   -0.00030017    0.00042460
     The Hubbard contrib.    to forces
     atom    1 type  1   force =     0.00000000    0.00000000    0.00000000
     atom    2 type  1   force =     0.00000000    0.00000000    0.00000000
     atom    3 type  2   force =     0.00000000    0.00000000    0.00000000
     atom    4 type  3   force =     0.00000000    0.00000000    0.00000000
     atom    5 type  4   force =     0.00000000    0.00000000    0.00000000
     atom    6 type  4   force =     0.00000000    0.00000000    0.00000000
     atom    7 type  4   force =     0.00000000    0.00000000    0.00000000
     atom    8 type  4   force =     0.00000000    0.00000000    0.00000000
     atom    9 type  4   force =     0.00000000    0.00000000    0.00000000
     atom   10 type  4   force =     0.00000000    0.00000000    0.00000000
     The SCF correction term to forces
     atom    1 type  1   force =    -0.00000563   -0.00001211    0.00001347
     atom    2 type  1   force =    -0.00000370    0.00002773    0.00002207
     atom    3 type  2   force =     0.00000813   -0.00000346   -0.00002327
     atom    4 type  3   force =    -0.00001592    0.00014598   -0.00048350
     atom    5 type  4   force =     0.00000976   -0.00047779   -0.00038348
     atom    6 type  4   force =    -0.00047226   -0.00026074    0.00034373
     atom    7 type  4   force =    -0.00001258    0.00055283    0.00036994
     atom    8 type  4   force =    -0.00040102    0.00021311   -0.00033832
     atom    9 type  4   force =     0.00046070   -0.00026788    0.00031570
     atom   10 type  4   force =     0.00042313    0.00023432   -0.00036027

     Total force =     0.004652     Total SCF correction =     0.001598
     SCF correction compared to forces is large: reduce conv_thr to get better values

     Computing stress (Cartesian axis) and pressure

     negative rho (up, down):  8.848E-02 0.000E+00
          total   stress  (Ry/bohr**3)                   (kbar)     P=        5.85
   0.00003981   0.00000000   0.00000000            5.86        0.00        0.00
   0.00000000   0.00003981  -0.00000000            0.00        5.86       -0.00
   0.00000000  -0.00000000   0.00003978            0.00       -0.00        5.85

     kinetic stress (kbar)   6096.42     -0.00      0.00
                               -0.00   6096.42      0.00
                                0.00     -0.00   6096.42

     local   stress (kbar)  -8803.92      0.01     -0.01
                                0.01  -8803.90      0.01
                               -0.01      0.01  -8803.91

     nonloc. stress (kbar)   4856.23     -0.00      0.00
                                0.00   4856.23     -0.00
                                0.00     -0.00   4856.23

     hartree stress (kbar)   7967.07     -0.01      0.01
                               -0.01   7967.06     -0.01
                                0.01     -0.01   7967.06

     exc-cor stress (kbar)   -473.68     -0.00      0.00
                               -0.00   -473.68     -0.00
                                0.00     -0.00   -473.68

     corecor stress (kbar)  -1667.81     -0.00      0.00
                               -0.00  -1667.81     -0.00
                                0.00     -0.00  -1667.81

     ewald   stress (kbar)  -7968.47      0.00      0.00
                                0.00  -7968.47      0.00
                                0.00      0.00  -7968.47

     hubbard stress (kbar)      0.00      0.00      0.00
                                0.00      0.00      0.00
                                0.00      0.00      0.00

     DFT-D   stress (kbar)      0.00      0.00      0.00
                                0.00      0.00      0.00
                                0.00      0.00      0.00

     XDM     stress (kbar)      0.00      0.00      0.00
                                0.00      0.00      0.00
                                0.00      0.00      0.00

     dft-nl  stress (kbar)      0.00      0.00      0.00
                                0.00      0.00      0.00
                                0.00      0.00      0.00

     TS-vdW  stress (kbar)      0.00      0.00      0.00
                                0.00      0.00      0.00
                                0.00      0.00      0.00

[...]

                                0.00      0.00      0.00

     Writing all to output data dir new_calculations/myprefix.save/

     General routines

     Parallel routines

     PAW routines

   This run was terminated on:  15:36:22  20May2023

   JOB DONE.