     Program PWSCF v.7.0 starts on 20May2023 at 21:37:22

     Reading input from espresso_1742.pwi
Warning: card &CELL ignored
Warning: card / ignored

     Current dimensions of program PWSCF are:
     Max number of different atomic species (ntypx) = 10
     Max number of k-points (npk) =  40000
     Max angular momentum in pseudopotentials (lmaxx) =  4
     file Pb.pbe-dn-kjpaw_psl.0.2.2.UPF: wavefunction(s)  6S renormalized
     file O.pbe-n-kjpaw_psl.0.1.UPF: wavefunction(s)  2P renormalized

     gamma-point specific algorithms are used
     Message from routine setup:
     using ibrav=0 with symmetry is DISCOURAGED, use correct ibrav instead

     Subspace diagonalization in iterative solution of the eigenvalue problem:
     a serial algorithm will be used

     Using Slab Decomposition

     bravais-lattice index     =            0
     lattice parameter (alat)  =      12.4603  a.u.
     unit-cell volume          =    2448.4728 (a.u.)^3
     number of atoms/cell      =           20
     number of atomic types    =            4
     number of electrons       =       196.00
     number of Kohn-Sham states=          118
     kinetic-energy cutoff     =      30.0000  Ry
     charge density cutoff     =     240.0000  Ry
     scf convergence threshold =      1.0E-06
     mixing beta               =       0.7000
     number of iterations used =            8  plain     mixing
     Exchange-correlation= SLA  PW   PBX  PBC
                           (   1   4   3   4   0   0   0)

     celldm(1)=  12.460315  celldm(2)=   0.000000  celldm(3)=   0.000000
     celldm(4)=   0.000000  celldm(5)=   0.000000  celldm(6)=   0.000000

     crystal axes: (cart. coord. in units of alat)
               a(1) = (   1.000000   0.000000   0.000000 )
               a(2) = (  -0.381079   1.046836   0.000000 )
               a(3) = (  -0.074608  -0.045383   1.209009 )

     reciprocal axes: (cart. coord. in units 2 pi/alat)
               b(1) = (  1.000000  0.364030  0.075375 )
               b(2) = (  0.000000  0.955260  0.035858 )
               b(3) = (  0.000000  0.000000  0.827124 )

     PseudoPot. # 1 for Cr read from file:
     /home/pragov/projects/rrg-bengioy-ad/pragov/crystal_structure_design/SSSP/cr_pbe_v1.5.uspp.F.UPF
     MD5 check sum: 0d52af634a40206e4dee301ad30da4bf
     Pseudo is Ultrasoft + core correction, Zval = 14.0
     Generated by new atomic code, or converted to UPF format
     Using radial grid of  857 points,  6 beta functions with:
                l(1) =   0
                l(2) =   0
                l(3) =   1
                l(4) =   1
                l(5) =   2
                l(6) =   2
     Q(r) pseudized with  8 coefficients,  rinner =    0.950   0.950   0.950
                                                       0.950   0.950

     PseudoPot. # 2 for Hg read from file:
     /home/pragov/projects/rrg-bengioy-ad/pragov/crystal_structure_design/SSSP/Hg_ONCV_PBE-1.0.oncvpsp.upf
     MD5 check sum: dd5a8773074bfcf4280086d4d95875c4
     Pseudo is Norm-conserving, Zval = 20.0
     Generated using ONCVPSP code by D. R. Hamann
     Using radial grid of 1262 points,  8 beta functions with:
                l(1) =   0
                l(2) =   0
                l(3) =   1
                l(4) =   1
                l(5) =   2
                l(6) =   2
                l(7) =   3
                l(8) =   3

     PseudoPot. # 3 for Pb read from file:
     /home/pragov/projects/rrg-bengioy-ad/pragov/crystal_structure_design/SSSP/Pb.pbe-dn-kjpaw_psl.0.2.2.UPF
     MD5 check sum: 9d431e6316058b74ade52399a6cf67da
     Pseudo is Projector augmented-wave + core cor, Zval = 14.0
     Generated using "atomic" code by A. Dal Corso  v.5.0.99 svn rev. 10869
     Shape of augmentation charge: PSQ
     Using radial grid of 1281 points,  6 beta functions with:
                l(1) =   0
                l(2) =   0
                l(3) =   1
                l(4) =   1
                l(5) =   2
                l(6) =   2
     Q(r) pseudized with 0 coefficients

     PseudoPot. # 4 for O  read from file:
     /home/pragov/projects/rrg-bengioy-ad/pragov/crystal_structure_design/SSSP/O.pbe-n-kjpaw_psl.0.1.UPF
     MD5 check sum: 0234752ac141de4415c5fc33072bef88
     Pseudo is Projector augmented-wave + core cor, Zval =  6.0
     Generated using "atomic" code by A. Dal Corso  v.5.0.99 svn rev. 10869
     Shape of augmentation charge: BESSEL
     Using radial grid of 1095 points,  4 beta functions with:
                l(1) =   0
                l(2) =   0
                l(3) =   1
                l(4) =   1
     Q(r) pseudized with 0 coefficients

     atomic species   valence    mass     pseudopotential
        Cr            14.00    51.99610     Cr( 1.00)
        Hg            20.00   200.59200     Hg( 1.00)
        Pb            14.00   207.20000     Pb( 1.00)
        O              6.00    15.99900     O ( 1.00)

      2 Sym. Ops., with inversion, found

                                    s                        frac. trans.

      isym =  1     identity

 cryst.   s( 1) = (     1          0          0      )
                  (     0          1          0      )
                  (     0          0          1      )

 cart.    s( 1) = (  1.0000000  0.0000000 -0.0000000 )
                  (  0.0000000  1.0000000  0.0000000 )
                  (  0.0000000  0.0000000  1.0000000 )

      isym =  2     inversion

 cryst.   s( 2) = (    -1          0          0      )
                  (     0         -1          0      )
                  (     0          0         -1      )

 cart.    s( 2) = ( -1.0000000 -0.0000000  0.0000000 )
                  (  0.0000000 -1.0000000 -0.0000000 )
                  (  0.0000000  0.0000000 -1.0000000 )

   Cartesian axes

     site n.     atom                  positions (alat units)
         1           Cr  tau(   1) = (   0.1482991   0.2065819   1.0284957  )
         2           Cr  tau(   2) = (   0.3960132   0.7948710   0.1805135  )
         3           Hg  tau(   3) = (   0.1743673   0.2987448   0.4403272  )
         4           Hg  tau(   4) = (   0.3699449   0.7027081   0.7686820  )
         5           Pb  tau(   5) = (   0.6805020   0.2497198   0.7337513  )
         6           Pb  tau(   6) = (  -0.1223177   0.7400610   1.0363578  )
         7           Pb  tau(   7) = (   0.6666300   0.2613919   0.1726513  )
         8           Pb  tau(   8) = (  -0.1361897   0.7517331   0.4752579  )
         9           O   tau(   9) = (  -0.1223914   0.3897264   0.4474350  )
        10           O   tau(  10) = (   0.6667037   0.6117265   0.7615742  )
        11           O   tau(  11) = (   0.0721300   0.7749544   0.7555497  )
        12           O   tau(  12) = (   0.2614485   0.8541306   1.1678485  )
        13           O   tau(  13) = (   0.1904387   0.6758634   0.2692004  )
        14           O   tau(  14) = (   0.0832291   0.0216373   0.8689246  )
        15           O   tau(  15) = (  -0.0496533   0.3676119   1.0494272  )
        16           O   tau(  16) = (   0.2828638   0.1473223   0.0411607  )
        17           O   tau(  17) = (   0.4721823   0.2264985   0.4534594  )
        18           O   tau(  18) = (   0.4610832   0.9798156   0.3400846  )
        19           O   tau(  19) = (   0.5939656   0.6338410   0.1595820  )
        20           O   tau(  20) = (   0.3538736   0.3255895   0.9398088  )

   Crystallographic axes

     site n.     atom                  positions (cryst. coord.)
         1           Cr  tau(   1) = (  0.3010240  0.2342190  0.8506930  )
         2           Cr  tau(   2) = (  0.6989760  0.7657810  0.1493070  )
         3           Hg  tau(   3) = (  0.3163090  0.3011680  0.3642050  )
         4           Hg  tau(   4) = (  0.6836910  0.6988320  0.6357950  )
         5           Pb  tau(   5) = (  0.8267140  0.2648580  0.6069030  )
         6           Pb  tau(   6) = (  0.2252020  0.7441120  0.8571960  )
         7           Pb  tau(   7) = (  0.7747980  0.2558880  0.1428040  )
         8           Pb  tau(   8) = (  0.1732860  0.7351420  0.3930970  )
         9           O   tau(   9) = (  0.0532060  0.3883340  0.3700840  )
        10           O   tau(  10) = (  0.9467940  0.6116660  0.6299160  )
        11           O   tau(  11) = (  0.4111860  0.7673750  0.6249330  )
        12           O   tau(  12) = (  0.6604040  0.8577930  0.9659550  )
        13           O   tau(  13) = (  0.4567640  0.6552780  0.2226620  )
        14           O   tau(  14) = (  0.1566010  0.0518270  0.7187080  )
        15           O   tau(  15) = (  0.1632690  0.3887950  0.8680060  )
        16           O   tau(  16) = (  0.3395960  0.1422070  0.0340450  )
        17           O   tau(  17) = (  0.5888140  0.2326250  0.3750670  )
        18           O   tau(  18) = (  0.8433990  0.9481730  0.2812920  )
        19           O   tau(  19) = (  0.8367310  0.6112050  0.1319940  )
        20           O   tau(  20) = (  0.5432360  0.3447220  0.7773380  )

     number of k points=     1  Methfessel-Paxton smearing, width (Ry)=  0.0010
                       cart. coord. in units 2pi/alat
        k(    1) = (   0.0000000   0.0000000   0.0000000), wk =   2.0000000

                       cryst. coord.
        k(    1) = (   0.0000000   0.0000000   0.0000000), wk =   2.0000000

     Check: negative core charge=   -0.000011

     Initial potential from superposition of free atoms

     starting charge     193.9904, renormalised to     196.0000

     negative rho (up, down):  2.464E-03 0.000E+00
     Starting wfcs are  124 randomized atomic wfcs
     Checking if some PAW data can be deallocated...

     Self-consistent Calculation

     iteration #  1     ecut=    30.00 Ry     beta= 0.70
     Davidson diagonalization with overlap

     ethr =  1.00E-02,  avg # of iterations =  3.0

     total energy              =   -4917.51941469 Ry
     estimated scf accuracy    <      42.89266938 Ry

[...]

     negative rho (up, down):  1.283E-03 0.000E+00

[...]

     total energy              =   -4952.46133966 Ry
     estimated scf accuracy    <       0.00000291 Ry

     iteration # 19     ecut=    30.00 Ry     beta= 0.70
     Davidson diagonalization with overlap

     ethr =  1.49E-09,  avg # of iterations =  3.0

[...]

     End of self-consistent calculation

          k = 0.0000 0.0000 0.0000 (  3387 PWs)   bands (ev):

  -108.6695-108.6694 -66.5553 -66.5548 -56.7098 -56.7083 -56.4411 -56.4358
   -56.4070 -56.4039 -37.9825 -37.9812 -37.9505 -37.9499 -37.8946 -37.8941
   -11.6007 -11.4149 -11.3862 -11.3326 -11.0739 -11.0045 -10.9375 -10.9236
   -10.8571 -10.8529 -10.8459 -10.8285  -9.2642  -9.2562  -9.2276  -9.2239
    -9.2106  -9.1961  -9.1927  -9.1848  -9.1586  -9.1473  -9.1272  -9.0987
    -9.0959  -9.0949  -9.0657  -9.0650  -9.0510  -8.7957  -8.6037  -8.5361
    -1.3931  -1.3731  -0.9435  -0.8401   0.0733   0.3086   0.3098   0.4125
     0.6606   0.8581   0.8656   0.8822   1.0118   1.0212   1.4305   1.6990
     1.8042   1.9661   1.9776   2.0506   2.2022   2.2240   2.2756   2.4232
     2.4541   2.9613   3.2072   3.2558   3.2773   3.6361   3.7595   3.7908
     3.8345   3.8670   4.1332   4.1839   4.3277   4.4930   4.5367   4.6206
     4.6287   4.7556   4.8667   4.9217   4.9271   5.0770   5.1264   5.3185
     5.7343   5.8117   8.0360   8.0481   8.2165   8.4522   9.0614   9.1570
     9.3741   9.3782   9.4821   9.6950   9.8693  10.1528  10.5936  10.8068
    11.2016  11.3685  11.6155  11.6681  11.8293  11.9605

     occupation numbers
     1.0000   1.0000   1.0000   1.0000   1.0000   1.0000   1.0000   1.0000
     1.0000   1.0000   1.0000   1.0000   1.0000   1.0000   1.0000   1.0000
     1.0000   1.0000   1.0000   1.0000   1.0000   1.0000   1.0000   1.0000
     1.0000   1.0000   1.0000   1.0000   1.0000   1.0000   1.0000   1.0000
     1.0000   1.0000   1.0000   1.0000   1.0000   1.0000   1.0000   1.0000
     1.0000   1.0000   1.0000   1.0000   1.0000   1.0000   1.0000   1.0000
     1.0000   1.0000   1.0000   1.0000   1.0000   1.0000   1.0000   1.0000
     1.0000   1.0000   1.0000   1.0000   1.0000   1.0000   1.0000   1.0000
     1.0000   1.0000   1.0000   1.0000   1.0000   1.0000   1.0000   1.0000
     1.0000   1.0000   1.0000   1.0000   1.0000   1.0000   1.0000   1.0000
     1.0000   1.0000   1.0000   1.0000   1.0000   1.0000   1.0000   1.0000
     1.0000   1.0000   1.0000   1.0000   1.0000   1.0000   1.0000   1.0000
     1.0000   1.0000  -0.0000  -0.0000  -0.0000  -0.0000  -0.0000  -0.0000
    -0.0000  -0.0000  -0.0000  -0.0000  -0.0000  -0.0000  -0.0000  -0.0000
    -0.0000  -0.0000  -0.0000  -0.0000  -0.0000  -0.0000

     the Fermi energy is     6.4292 ev

!    total energy              =   -4952.46133988 Ry
     estimated scf accuracy    <       0.00000065 Ry
     smearing contrib. (-TS)   =       0.00000000 Ry
     internal energy E=F+TS    =   -4952.46133988 Ry

     The total energy is F=E-TS. E is the sum of the following terms:
     one-electron contribution =   -1042.76052639 Ry
     hartree contribution      =     613.20514573 Ry
     xc contribution           =    -365.13165475 Ry
     ewald contribution        =   -1129.43230576 Ry
     one-center paw contrib.   =   -3028.34199871 Ry
      -> PAW hartree energy AE =     729.81374755 Ry
      -> PAW hartree energy PS =    -727.84565392 Ry
      -> PAW xc energy AE      =   -3293.69738207 Ry
      -> PAW xc energy PS      =     263.38728973 Ry
      -> total E_H with PAW    =     615.17323936 Ry
      -> total E_XC with PAW   =   -3395.44174709 Ry

     convergence has been achieved in  19 iterations

     negative rho (up, down):  3.963E-03 0.000E+00

     Forces acting on atoms (cartesian axes, Ry/au):

     atom    1 type  1   force =     0.01492430   -0.00684084   -0.00027669
     atom    2 type  1   force =    -0.01492430    0.00684084    0.00027669
     atom    3 type  2   force =    -0.00091215   -0.00327573    0.00485681
     atom    4 type  2   force =     0.00091215    0.00327573   -0.00485681
     atom    5 type  3   force =     0.00252892   -0.00001631   -0.00325528
     atom    6 type  3   force =     0.00138691   -0.00171717   -0.00193753
     atom    7 type  3   force =    -0.00138691    0.00171717    0.00193753
     atom    8 type  3   force =    -0.00252892    0.00001631    0.00325528
     atom    9 type  4   force =     0.02765748    0.02346136   -0.00140170
     atom   10 type  4   force =    -0.02765748   -0.02346136    0.00140170
     atom   11 type  4   force =     0.02624098    0.02051275   -0.00451727
     atom   12 type  4   force =     0.00772215   -0.01146066    0.01263261
     atom   13 type  4   force =     0.01517856    0.01253892   -0.00406824
     atom   14 type  4   force =     0.00069765    0.02479778    0.01424322
     atom   15 type  4   force =     0.00575738   -0.01210287   -0.00154749
     atom   16 type  4   force =    -0.00772215    0.01146066   -0.01263261
     atom   17 type  4   force =    -0.02624098   -0.02051275    0.00451727
     atom   18 type  4   force =    -0.00069765   -0.02479778   -0.01424322
     atom   19 type  4   force =    -0.00575738    0.01210287    0.00154749
     atom   20 type  4   force =    -0.01517856   -0.01253892    0.00406824
     The non-local contrib.  to forces
     atom    1 type  1   force =    -0.00253684   -0.04183015   -0.00976471
     atom    2 type  1   force =     0.00253684    0.04183015    0.00976471
     atom    3 type  2   force =    -0.04139327   -0.03719051   -0.02752568
     atom    4 type  2   force =     0.04139327    0.03719051    0.02752568
     atom    5 type  3   force =    -0.12896713    0.28121953   -0.19881784
     atom    6 type  3   force =     0.09236441   -0.08959867   -0.30682886
     atom    7 type  3   force =    -0.09236441    0.08959867    0.30682886
     atom    8 type  3   force =     0.12896713   -0.28121953    0.19881784
     atom    9 type  4   force =     0.72620687   -0.30615591   -0.04264949
     atom   10 type  4   force =    -0.72620687    0.30615591    0.04264949
     atom   11 type  4   force =     0.56833060   -0.57812196    0.07626544
     atom   12 type  4   force =     0.16125615   -0.50824545    0.93722439
     atom   13 type  4   force =     0.72635945    0.53089809   -0.25989515
     atom   14 type  4   force =     0.39709423    0.73726182    0.75978738
     atom   15 type  4   force =     0.78149978   -0.43012617   -0.14327716
     atom   16 type  4   force =    -0.16125615    0.50824545   -0.93722439
     atom   17 type  4   force =    -0.56833060    0.57812196   -0.07626544
     atom   18 type  4   force =    -0.39709423   -0.73726182   -0.75978738
     atom   19 type  4   force =    -0.78149978    0.43012617    0.14327716
     atom   20 type  4   force =    -0.72635945   -0.53089809    0.25989515
     The ionic contribution  to forces
     atom    1 type  1   force =    -2.24915936   -2.53954358    3.42029155
     atom    2 type  1   force =     2.24915936    2.53954358   -3.42029155
     atom    3 type  2   force =    -2.09719083  -11.28762667   -3.55153357
     atom    4 type  2   force =     2.09719083   11.28762667    3.55153357
     atom    5 type  3   force =     1.59121163  -11.55235322    7.77122258
     atom    6 type  3   force =    -4.05028654    2.03771861   11.58297484
     atom    7 type  3   force =     4.05028654   -2.03771861  -11.58297484
     atom    8 type  3   force =    -1.59121163   11.55235322   -7.77122258
     atom    9 type  4   force =    -5.20910585    0.47880469   -1.64698107
     atom   10 type  4   force =     5.20910585   -0.47880469    1.64698107
     atom   11 type  4   force =    -4.48519117    6.25563688   -0.42651481
     atom   12 type  4   force =    -1.60435721    8.44392911  -10.76986541
     atom   13 type  4   force =   -10.74985456   -2.84433154    0.55027356
     atom   14 type  4   force =    -4.69939049   -9.32405298   -8.15263200
     atom   15 type  4   force =   -11.00623432    5.22121143    4.19958385
     atom   16 type  4   force =     1.60435721   -8.44392911   10.76986542
     atom   17 type  4   force =     4.48519117   -6.25563688    0.42651480
     atom   18 type  4   force =     4.69939049    9.32405298    8.15263200
     atom   19 type  4   force =    11.00623432   -5.22121143   -4.19958385
     atom   20 type  4   force =    10.74985456    2.84433154   -0.55027356
     The local contribution  to forces
     atom    1 type  1   force =     2.26655251    2.57321828   -3.41111646
     atom    2 type  1   force =    -2.26485406   -2.57336168    3.41132608
     atom    3 type  2   force =     2.13770684   11.32281301    3.58406973
     atom    4 type  2   force =    -2.13687797  -11.32346017   -3.58393833
     atom    5 type  3   force =    -1.46455987   11.28331762   -7.58176648
     atom    6 type  3   force =     3.96205046   -1.95370420  -11.28777941
     atom    7 type  3   force =    -3.96261828    1.95394299   11.28785863
     atom    8 type  3   force =     1.46381199  -11.28316853    7.58171024
     atom    9 type  4   force =     4.51922743   -0.15286939    1.68775033
     atom   10 type  4   force =    -4.51942911    0.15286579   -1.68775359
     atom   11 type  4   force =     3.95044061   -5.66415279    0.34650261
     atom   12 type  4   force =     1.45222008   -7.95178793    9.85319812
     atom   13 type  4   force =    10.04488312    2.33037443   -0.29659614
     atom   14 type  4   force =     4.30666163    8.61775401    7.41357520
     atom   15 type  4   force =    10.23723207   -4.80619429   -4.05908703
     atom   16 type  4   force =    -1.45195489    7.95163441   -9.85282118
     atom   17 type  4   force =    -3.95045362    5.66426044   -0.34650773
     atom   18 type  4   force =    -4.30662200   -8.61801092   -7.41378518
     atom   19 type  4   force =   -10.23734087    4.80631492    4.05908862
     atom   20 type  4   force =   -10.04433455   -2.33016340    0.29644344
     The core correction contribution to forces
     atom    1 type  1   force =     0.00024108    0.00195671    0.00088408
     atom    2 type  1   force =    -0.00022679   -0.00195704   -0.00088212
     atom    3 type  2   force =     0.00000000    0.00000000    0.00000000
     atom    4 type  2   force =     0.00000000    0.00000000    0.00000000
     atom    5 type  3   force =     0.00491801   -0.01097608    0.00632421
     atom    6 type  3   force =    -0.00309308    0.00306478    0.00996692
     atom    7 type  3   force =     0.00309012   -0.00306261   -0.00997061
     atom    8 type  3   force =    -0.00492143    0.01097471   -0.00632128
     atom    9 type  4   force =    -0.00882670    0.00400146    0.00053505
     atom   10 type  4   force =     0.00882661   -0.00400102   -0.00053503
     atom   11 type  4   force =    -0.00735893    0.00683568   -0.00072348
     atom   12 type  4   force =    -0.00118355    0.00435921   -0.00764806
     atom   13 type  4   force =    -0.00579780   -0.00450918    0.00196552
     atom   14 type  4   force =    -0.00371730   -0.00607297   -0.00643117
     atom   15 type  4   force =    -0.00681159    0.00318969    0.00122927
     atom   16 type  4   force =     0.00118369   -0.00435896    0.00764750
     atom   17 type  4   force =     0.00735843   -0.00683485    0.00072374
     atom   18 type  4   force =     0.00371734    0.00607343    0.00643105
     atom   19 type  4   force =     0.00681211   -0.00318990   -0.00122936
     atom   20 type  4   force =     0.00579731    0.00450874   -0.00196557
     The Hubbard contrib.    to forces
     atom    1 type  1   force =     0.00000000    0.00000000    0.00000000
     atom    2 type  1   force =     0.00000000    0.00000000    0.00000000
     atom    3 type  2   force =     0.00000000    0.00000000    0.00000000
     atom    4 type  2   force =     0.00000000    0.00000000    0.00000000
     atom    5 type  3   force =     0.00000000    0.00000000    0.00000000
     atom    6 type  3   force =     0.00000000    0.00000000    0.00000000
     atom    7 type  3   force =     0.00000000    0.00000000    0.00000000
     atom    8 type  3   force =     0.00000000    0.00000000    0.00000000
     atom    9 type  4   force =     0.00000000    0.00000000    0.00000000
     atom   10 type  4   force =     0.00000000    0.00000000    0.00000000
     atom   11 type  4   force =     0.00000000    0.00000000    0.00000000
     atom   12 type  4   force =     0.00000000    0.00000000    0.00000000
     atom   13 type  4   force =     0.00000000    0.00000000    0.00000000
     atom   14 type  4   force =     0.00000000    0.00000000    0.00000000
     atom   15 type  4   force =     0.00000000    0.00000000    0.00000000
     atom   16 type  4   force =     0.00000000    0.00000000    0.00000000
     atom   17 type  4   force =     0.00000000    0.00000000    0.00000000
     atom   18 type  4   force =     0.00000000    0.00000000    0.00000000
     atom   19 type  4   force =     0.00000000    0.00000000    0.00000000
     atom   20 type  4   force =     0.00000000    0.00000000    0.00000000
     The SCF correction term to forces
     atom    1 type  1   force =    -0.00010552   -0.00064652   -0.00055534
     atom    2 type  1   force =    -0.00147207    0.00078141    0.00037537
     atom    3 type  2   force =    -0.00009244   -0.00124901   -0.00015044
     atom    4 type  2   force =    -0.00085155    0.00194127    0.00002551
     atom    5 type  3   force =    -0.00005427   -0.00123334   -0.00020901
     atom    6 type  3   force =     0.00037412    0.00079384   -0.00026725
     atom    7 type  3   force =     0.00024159   -0.00105176    0.00019925
     atom    8 type  3   force =     0.00084447    0.00106725    0.00027979
     atom    9 type  4   force =     0.00016420   -0.00030450   -0.00005717
     atom   10 type  4   force =     0.00005451    0.00033762    0.00005911
     atom   11 type  4   force =     0.00001264    0.00032895   -0.00004677
     atom   12 type  4   force =    -0.00021164    0.00028225   -0.00028112
     atom   13 type  4   force =    -0.00040506    0.00010946    0.00017524
     atom   14 type  4   force =     0.00004679   -0.00007462   -0.00005543
     atom   15 type  4   force =     0.00010619   -0.00019613   -0.00000084
     atom   16 type  4   force =    -0.00005032   -0.00013326   -0.00010465
     atom   17 type  4   force =    -0.00001359   -0.00040944    0.00005217
     atom   18 type  4   force =    -0.00009204    0.00036604    0.00026704
     atom   19 type  4   force =     0.00007160    0.00005050   -0.00000951
     atom   20 type  4   force =    -0.00012984   -0.00031536   -0.00003994

     Total force =     0.095210     Total SCF correction =     0.004081

     Computing stress (Cartesian axis) and pressure

     negative rho (up, down):  3.963E-03 0.000E+00
          total   stress  (Ry/bohr**3)                   (kbar)     P=     -422.70
  -0.00281762   0.00005931  -0.00000666         -414.49        8.73       -0.98
   0.00005931  -0.00295592   0.00000249            8.73     -434.83        0.37
  -0.00000666   0.00000249  -0.00284691           -0.98        0.37     -418.79

     kinetic stress (kbar)  23667.26    135.64    -14.94
                              135.64  24012.51    -15.79
                              -14.94    -15.79  24075.55

     local   stress (kbar) -20416.80   3889.89  -1998.96
                             3889.89  -7189.52   -991.36
                            -1998.96   -991.36  -8908.21

     nonloc. stress (kbar)   3674.39    -11.11     -3.32
                              -11.11   3629.18     -5.10
                               -3.32     -5.10   3633.60

     hartree stress (kbar)  15485.23  -1489.80    809.98
                            -1489.80  10292.90    462.60
                              809.98    462.60  11063.44

     exc-cor stress (kbar)   2028.07     -2.73      1.13
                               -2.73   2019.86     -0.30
                                1.13     -0.30   2021.16

     corecor stress (kbar)  -7499.50     -0.65      0.02
                               -0.65  -7499.78      0.15
                                0.02      0.15  -7500.76

     ewald   stress (kbar) -17353.14  -2512.51   1205.10
                            -2512.51 -25699.98    550.17
                             1205.10    550.17 -24803.56

     hubbard stress (kbar)      0.00      0.00      0.00
                                0.00      0.00      0.00
                                0.00      0.00      0.00

     DFT-D   stress (kbar)      0.00      0.00      0.00
                                0.00      0.00      0.00
                                0.00      0.00      0.00

     XDM     stress (kbar)      0.00      0.00      0.00
                                0.00      0.00      0.00
                                0.00      0.00      0.00

     dft-nl  stress (kbar)      0.00      0.00      0.00
                                0.00      0.00      0.00
                                0.00      0.00      0.00

     TS-vdW  stress (kbar)      0.00      0.00      0.00
                                0.00      0.00      0.00
                                0.00      0.00      0.00

[...]

                                0.00      0.00      0.00

     Writing all to output data dir new_calculations/myprefix.save/

     General routines

     Parallel routines

     PAW routines

   This run was terminated on:  21:38:24  20May2023

   JOB DONE.