     Program PWSCF v.7.0 starts on 20May2023 at 13:46:59

     Reading input from espresso_2475.pwi
Warning: card &CELL ignored
Warning: card / ignored

     Current dimensions of program PWSCF are:
     Max number of different atomic species (ntypx) = 10
     Max number of k-points (npk) =  40000
     Max angular momentum in pseudopotentials (lmaxx) =  4

     gamma-point specific algorithms are used
     Message from routine setup:
     using ibrav=0 with symmetry is DISCOURAGED, use correct ibrav instead

     Subspace diagonalization in iterative solution of the eigenvalue problem:
     a serial algorithm will be used

     Using Slab Decomposition

     bravais-lattice index     =            0
     lattice parameter (alat)  =      18.7826  a.u.
     unit-cell volume          =    4413.7876 (a.u.)^3
     number of atoms/cell      =           18
     number of atomic types    =            3
     number of electrons       =       164.00
     number of Kohn-Sham states=           98
     kinetic-energy cutoff     =      30.0000  Ry
     charge density cutoff     =     240.0000  Ry
     scf convergence threshold =      1.0E-06
     mixing beta               =       0.7000
     number of iterations used =            8  plain     mixing
     Exchange-correlation=  SLA  PW   PBX  PBC
                           (   1   4   3   4   0   0   0)

     celldm(1)=  18.782572  celldm(2)=   0.000000  celldm(3)=   0.000000
     celldm(4)=   0.000000  celldm(5)=   0.000000  celldm(6)=   0.000000

     crystal axes: (cart. coord. in units of alat)
               a(1) = (   1.000000   0.000000   0.000000 )
               a(2) = (   0.103066   0.994675   0.000000 )
               a(3) = (  -0.551533  -0.497337   0.669677 )

     reciprocal axes: (cart. coord. in units 2 pi/alat)
               b(1) = (  1.000000 -0.103618  0.746629 )
               b(2) = (  0.000000  1.005354  0.746629 )
               b(3) = (  0.000000  0.000000  1.493258 )

     PseudoPot. # 1 for Cs read from file:
     /home/pragov/projects/rrg-bengioy-ad/pragov/crystal_structure_design/SSSP/Cs_pbe_v1.uspp.F.UPF
     MD5 check sum: 3476d69cb178dfad3ffaa59df4e07ca4
     Pseudo is Ultrasoft + core correction, Zval =  9.0
     Generated by new atomic code, or converted to UPF format
     Using radial grid of  905 points,  6 beta functions with:
                l(1) =   0
                l(2) =   0
                l(3) =   1
                l(4) =   1
                l(5) =   2
                l(6) =   2
     Q(r) pseudized with  6 coefficients,  rinner =    1.500   1.500   1.500
                                                       1.500   1.500

     PseudoPot. # 2 for Zn read from file:
     /home/pragov/projects/rrg-bengioy-ad/pragov/crystal_structure_design/SSSP/Zn_pbe_v1.uspp.F.UPF
     MD5 check sum: df62231357ef9e81f77b2b3087fa5675
     Pseudo is Ultrasoft, Zval = 20.0
     Generated by new atomic code, or converted to UPF format
     Using radial grid of  943 points,  6 beta functions with:
                l(1) =   0
                l(2) =   0
                l(3) =   1
                l(4) =   1
                l(5) =   2
                l(6) =   2
     Q(r) pseudized with  8 coefficients,  rinner =    1.100   1.100   1.100
                                                       1.100   1.100

     PseudoPot. # 3 for Cl read from file:
     /home/pragov/projects/rrg-bengioy-ad/pragov/crystal_structure_design/SSSP/cl_pbe_v1.4.uspp.F.UPF
     MD5 check sum: fc6f6913ecf08c9257cb748ef0700058
     Pseudo is Ultrasoft + core correction, Zval =  7.0
     Generated by new atomic code, or converted to UPF format
     Using radial grid of  909 points,  6 beta functions with:
                l(1) =   0
                l(2) =   0
                l(3) =   1
                l(4) =   1
                l(5) =   2
                l(6) =   2
     Q(r) pseudized with  8 coefficients,  rinner =    1.300   1.300   1.300
                                                       1.300   1.300

     atomic species   valence    mass     pseudopotential
        Cs             9.00   132.90545     Cs( 1.00)
        Zn            20.00    65.38000     Zn( 1.00)
        Cl             7.00    35.45000     Cl( 1.00)

      4 Sym. Ops., with inversion, found ( 2 have fractional translation)

                                    s                        frac. trans.

      isym =  1     identity

 cryst.   s( 1) = (     1          0          0      )
                  (     0          1          0      )
                  (     0          0          1      )

 cart.    s( 1) = (  1.0000000  0.0000000 -0.0000000 )
                  (  0.0000000  1.0000000 -0.0000000 )
                  (  0.0000000  0.0000000  1.0000000 )

      isym =  2     180 deg rotation - cart. axis [0,0,1]

 cryst.   s( 2) = (    -1          0          0      )    f =( -0.5000000 )
                  (     0         -1          0      )       ( -0.5000000 )
                  (     1          1          1      )       (  0.0000000 )

 cart.    s( 2) = ( -1.0000000 -0.0000000 -0.0000000 )    f =( -0.5515329 )
                  (  0.0000000 -1.0000000 -0.0000000 )       ( -0.4973373 )
                  (  0.0000000  0.0000000  1.0000000 )       (  0.0000000 )

      isym =  3     inversion

 cryst.   s( 3) = (    -1          0          0      )
                  (     0         -1          0      )
                  (     0          0         -1      )

 cart.    s( 3) = ( -1.0000000 -0.0000000  0.0000000 )
                  (  0.0000000 -1.0000000  0.0000000 )
                  (  0.0000000  0.0000000 -1.0000000 )

      isym =  4     inv. 180 deg rotation - cart. axis [0,0,1]

 cryst.   s( 4) = (     1          0          0      )    f =( -0.5000000 )
                  (     0          1          0      )       (  0.5000000 )
                  (    -1         -1         -1      )       ( -0.0000000 )

 cart.    s( 4) = (  1.0000000  0.0000000  0.0000000 )    f =( -0.4484671 )
                  (  0.0000000  1.0000000  0.0000000 )       (  0.4973373 )
                  (  0.0000000  0.0000000 -1.0000000 )       ( -0.0000000 )

   Cartesian axes

     site n.     atom                  positions (alat units)
         1           Cs  tau(   1) = (  -0.2242335   0.2486686   0.5569916  )
         2           Cs  tau(   2) = (   0.0754627  -0.0836859   0.3348384  )
         3           Cs  tau(   3) = (   0.2757665   0.2486686   0.0000000  )
         4           Cs  tau(   4) = (   0.7757665   0.2486686   0.1126852  )
         5           Cs  tau(   5) = (   0.8272994   0.7460059   0.0000000  )
         6           Cs  tau(   6) = (   0.4760703   0.5810232   0.3348384  )
         7           Zn  tau(   7) = (   0.5000000  -0.0000000   0.3348384  )
         8           Zn  tau(   8) = (   0.0515329   0.4973373   0.3348384  )
         9           Cl  tau(   9) = (   0.7257930  -0.0460057   0.3348384  )
        10           Cl  tau(  10) = (   0.4775109   0.2293322   0.3348384  )
        11           Cl  tau(  11) = (  -0.1742600   0.5433430   0.3348384  )
        12           Cl  tau(  12) = (   0.0000000   0.0000000   0.0000000  )
        13           Cl  tau(  13) = (   0.1531849   0.5890005   0.1494638  )
        14           Cl  tau(  14) = (   0.3983481  -0.0916632   0.5202130  )
        15           Cl  tau(  15) = (   0.1531849   0.5890005   0.5202130  )
        16           Cl  tau(  16) = (   0.0740221   0.2680051   0.3348384  )
        17           Cl  tau(  17) = (   0.3983481  -0.0916632   0.1494638  )
        18           Cl  tau(  18) = (   0.5515329   0.4973373   0.0000000  )

   Crystallographic axes

     site n.     atom                  positions (cryst. coord.)
         1           Cs  tau(   1) = (  0.1658660  0.6658660  0.8317320  )
         2           Cs  tau(   2) = (  0.3341340  0.1658660  0.5000000  )
         3           Cs  tau(   3) = (  0.2500000  0.2500000  0.0000000  )
         4           Cs  tau(   4) = (  0.8341340  0.3341340  0.1682680  )
         5           Cs  tau(   5) = (  0.7500000  0.7500000  0.0000000  )
         6           Cs  tau(   6) = (  0.6658660  0.8341340  0.5000000  )
         7           Zn  tau(   7) = (  0.7500000  0.2500000  0.5000000  )
         8           Zn  tau(   8) = (  0.2500000  0.7500000  0.5000000  )
         9           Cl  tau(   9) = (  0.9805600  0.2037480  0.5000000  )
        10           Cl  tau(  10) = (  0.7037480  0.4805600  0.5000000  )
        11           Cl  tau(  11) = (  0.0194400  0.7962520  0.5000000  )
        12           Cl  tau(  12) = (  0.0000000  0.0000000  0.0000000  )
        13           Cl  tau(  13) = (  0.2037480  0.7037480  0.2231880  )
        14           Cl  tau(  14) = (  0.7962520  0.2962520  0.7768120  )
        15           Cl  tau(  15) = (  0.4805600  0.9805600  0.7768120  )
        16           Cl  tau(  16) = (  0.2962520  0.5194400  0.5000000  )
        17           Cl  tau(  17) = (  0.5194400  0.0194400  0.2231880  )
        18           Cl  tau(  18) = (  0.5000000  0.5000000  0.0000000  )

     number of k points=     1  Methfessel-Paxton smearing, width (Ry)=  0.0010
                       cart. coord. in units 2pi/alat
        k(    1) = (   0.0000000   0.0000000   0.0000000), wk =   2.0000000

                       cryst. coord.
        k(    1) = (   0.0000000   0.0000000   0.0000000), wk =   2.0000000

     Initial potential from superposition of free atoms

     starting charge     163.7633, renormalised to     164.0000

     negative rho (up, down):  1.508E-01 0.000E+00
     Starting wfcs are  144 randomized atomic wfcs

     Self-consistent Calculation

     iteration #  1     ecut=    30.00 Ry     beta= 0.70
     Davidson diagonalization with overlap

     ethr =  1.00E-02,  avg # of iterations = 10.0

     negative rho (up, down):  9.930E-02 0.000E+00

     total energy              =   -1621.12521774 Ry
     estimated scf accuracy    <      33.68577539 Ry

[...]

     total energy              =   -1645.92711374 Ry
     estimated scf accuracy    <       0.00000116 Ry

     iteration # 54     ecut=    30.00 Ry     beta= 0.70
     Davidson diagonalization with overlap

     ethr =  7.06E-10,  avg # of iterations =  1.0

[...]

     End of self-consistent calculation

          k = 0.0000 0.0000 0.0000 (  6123 PWs)   bands (ev):

  -124.0571-122.3262 -78.0953 -77.8745 -77.8644 -77.2266 -76.8482 -76.4349
   -22.8528 -17.1944 -15.5751 -15.1929 -14.8851 -14.8559 -13.9492 -13.4083
   -12.6431 -12.6374 -12.2977 -11.9141 -11.8857 -11.5765 -10.8464 -10.8042
    -7.8953  -7.5538  -6.7816  -5.3599  -4.9084  -4.8489  -4.8281  -4.6857
    -4.5589  -4.4847  -4.3340  -4.3213  -4.2055  -4.1254  -4.0207  -3.8016
    -3.7064  -3.3296  -3.0508  -2.9784  -2.8329  -2.8037  -2.6907  -2.6186
    -2.4940  -2.3933  -2.1730  -2.0899  -2.0183  -1.9603  -1.9071  -1.1399
    -0.8303  -0.7317  -0.6866  -0.6352  -0.6298  -0.2895  -0.1127   0.0115
     0.0850   0.1782   0.1799   0.3195   0.3929   0.4563   0.4587   0.4715
     0.5278   0.5709   0.6217   0.6806   0.6919   0.7271   0.8292   1.0252
     1.0768   1.0826   1.0929   5.2418   5.6793   6.2456   7.6382   7.8086
     8.0521   8.1309   8.3157   8.3330   8.4448   8.4474   8.5978   8.6739
     8.7167   8.8896

     occupation numbers
     1.0000   1.0000   1.0000   1.0000   1.0000   1.0000   1.0000   1.0000
     1.0000   1.0000   1.0000   1.0000   1.0000   1.0000   1.0000   1.0000
     1.0000   1.0000   1.0000   1.0000   1.0000   1.0000   1.0000   1.0000
     1.0000   1.0000   1.0000   1.0000   1.0000   1.0000   1.0000   1.0000
     1.0000   1.0000   1.0000   1.0000   1.0000   1.0000   1.0000   1.0000
     1.0000   1.0000   1.0000   1.0000   1.0000   1.0000   1.0000   1.0000
     1.0000   1.0000   1.0000   1.0000   1.0000   1.0000   1.0000   1.0000
     1.0000   1.0000   1.0000   1.0000   1.0000   1.0000   1.0000   1.0000
     1.0000   1.0000   1.0000   1.0000   1.0000   1.0000   1.0000   1.0000
     1.0000   1.0000   1.0000   1.0000   1.0000   1.0000   1.0000   1.0000
     0.9936   0.7998   0.2066  -0.0000  -0.0000  -0.0000  -0.0000  -0.0000
    -0.0000  -0.0000  -0.0000  -0.0000  -0.0000  -0.0000  -0.0000  -0.0000
    -0.0000  -0.0000

     the Fermi energy is     1.0878 ev

!    total energy              =   -1645.92711308 Ry
     estimated scf accuracy    <       0.00000082 Ry
     smearing contrib. (-TS)   =      -0.00030087 Ry
     internal energy E=F+TS    =   -1645.92681221 Ry

     The total energy is F=E-TS. E is the sum of the following terms:
     one-electron contribution =   -1348.16682193 Ry
     hartree contribution      =     722.91908497 Ry
     xc contribution           =    -367.18191003 Ry
     ewald contribution        =    -653.49716521 Ry

     convergence has been achieved in  54 iterations

     negative rho (up, down):  8.189E-02 0.000E+00

     Forces acting on atoms (cartesian axes, Ry/au):

     atom    1 type  1   force =     0.00000000    0.00000000    0.06975469
     atom    2 type  1   force =    -0.27189682    0.26587173   -0.00000000
     atom    3 type  1   force =     0.00000000    0.00000000   -0.13933853
     atom    4 type  1   force =     0.00000000    0.00000000   -0.06975469
     atom    5 type  1   force =     0.00000000    0.00000000    0.13933853
     atom    6 type  1   force =     0.27189682   -0.26587173    0.00000000
     atom    7 type  2   force =     0.01033121   -0.01472769   -0.00000000
     atom    8 type  2   force =    -0.01033121    0.01472769    0.00000000
     atom    9 type  3   force =     0.13134128   -0.12734185    0.00000000
     atom   10 type  3   force =    -0.07528412    0.11003683    0.00000000
     atom   11 type  3   force =    -0.13134128    0.12734185   -0.00000000
     atom   12 type  3   force =     0.00000000   -0.00000000    0.00000000
     atom   13 type  3   force =     0.01023446   -0.02945335   -0.10306074
     atom   14 type  3   force =    -0.01023446    0.02945335    0.10306074
     atom   15 type  3   force =     0.01023446   -0.02945335    0.10306074
     atom   16 type  3   force =     0.07528412   -0.11003683   -0.00000000
     atom   17 type  3   force =    -0.01023446    0.02945335   -0.10306074
     atom   18 type  3   force =     0.00000000    0.00000000    0.00000000
     The non-local contrib.  to forces
     atom    1 type  1   force =     0.00000000    0.00000000   -0.07695914
     atom    2 type  1   force =    -0.19881761    0.18214443   -0.00000000
     atom    3 type  1   force =     0.00000000    0.00000000   -0.03977481
     atom    4 type  1   force =     0.00000000    0.00000000    0.07695914
     atom    5 type  1   force =     0.00000000    0.00000000    0.03977481
     atom    6 type  1   force =     0.19881761   -0.18214443    0.00000000
     atom    7 type  2   force =    -0.04883897    0.02182088   -0.00000000
     atom    8 type  2   force =     0.04883897   -0.02182088    0.00000000
     atom    9 type  3   force =    -0.11031227   -0.06902553   -0.00000000
     atom   10 type  3   force =    -0.10693938   -0.11275813   -0.00000000
     atom   11 type  3   force =     0.11031227    0.06902553    0.00000000
     atom   12 type  3   force =    -0.00000000    0.00000000   -0.00000000
     atom   13 type  3   force =    -0.08136065   -0.12498647    0.16272119
     atom   14 type  3   force =     0.08136065    0.12498647   -0.16272119
     atom   15 type  3   force =    -0.08136065   -0.12498647   -0.16272119
     atom   16 type  3   force =     0.10693938    0.11275813    0.00000000
     atom   17 type  3   force =     0.08136065    0.12498647    0.16272119
     atom   18 type  3   force =     0.00000000   -0.00000000   -0.00000000
     The ionic contribution  to forces
     atom    1 type  1   force =     0.00000000    0.00000000    1.84180979
     atom    2 type  1   force =    -1.23341733    1.36782491    0.00000000
     atom    3 type  1   force =     0.00000000   -0.00000000   -0.00000000
     atom    4 type  1   force =    -0.00000000   -0.00000000   -1.84180979
     atom    5 type  1   force =    -0.00000000    0.00000000   -0.00000000
     atom    6 type  1   force =     1.23341733   -1.36782491    0.00000000
     atom    7 type  2   force =     0.00000000    0.00000000    0.00000000
     atom    8 type  2   force =    -0.00000000   -0.00000000   -0.00000000
     atom    9 type  3   force =    12.16159272   -2.57480351    0.00000000
     atom   10 type  3   force =    -1.30764603   12.36220096    0.00000000
     atom   11 type  3   force =   -12.16159272    2.57480351    0.00000000
     atom   12 type  3   force =     0.00000000   -0.00000000   -0.00000000
     atom   13 type  3   force =     5.42697335    4.89369873  -10.05652145
     atom   14 type  3   force =    -5.42697335   -4.89369872   10.05652145
     atom   15 type  3   force =     5.42697335    4.89369872   10.05652145
     atom   16 type  3   force =     1.30764603  -12.36220096    0.00000000
     atom   17 type  3   force =    -5.42697335   -4.89369873  -10.05652146
     atom   18 type  3   force =    -0.00000000   -0.00000000   -0.00000000
     The local contribution  to forces
     atom    1 type  1   force =     0.05697147   -0.04168704   -1.70325253
     atom    2 type  1   force =     1.17408759   -1.29970583   -0.01568282
     atom    3 type  1   force =    -0.03217144    0.05107669   -0.09312097
     atom    4 type  1   force =    -0.05690434    0.04182449    1.70324306
     atom    5 type  1   force =     0.03219410   -0.05108729    0.09310258
     atom    6 type  1   force =    -1.17416555    1.29955384    0.01570696
     atom    7 type  2   force =     0.05902281   -0.03651976    0.01142265
     atom    8 type  2   force =    -0.05905007    0.03661784   -0.01128219
     atom    9 type  3   force =   -11.93497001    2.52355201    0.07070516
     atom   10 type  3   force =     1.34958232  -12.16020795   -0.07441271
     atom   11 type  3   force =    11.93519117   -2.52365399   -0.07068872
     atom   12 type  3   force =     0.00000781   -0.00001028   -0.00001987
     atom   13 type  3   force =    -5.27268118   -4.86835337    9.81320164
     atom   14 type  3   force =     5.27260114    4.86830120   -9.81296280
     atom   15 type  3   force =    -5.40304016   -4.73416430   -9.80642683
     atom   16 type  3   force =    -1.34963328   12.16049591    0.07441790
     atom   17 type  3   force =     5.40292778    4.73408553    9.80620233
     atom   18 type  3   force =     0.00000560   -0.00002057    0.00001767
     The core correction contribution to forces
     atom    1 type  1   force =     0.01577904   -0.01399198    0.00835176
     atom    2 type  1   force =    -0.01387841    0.01560876   -0.01299944
     atom    3 type  1   force =    -0.00510898    0.01155147   -0.00645388
     atom    4 type  1   force =    -0.01577873    0.01399465   -0.00835065
     atom    5 type  1   force =     0.00510931   -0.01155171    0.00645430
     atom    6 type  1   force =     0.01387887   -0.01561212    0.01299846
     atom    7 type  2   force =     0.00000000    0.00000000    0.00000000
     atom    8 type  2   force =     0.00000000    0.00000000    0.00000000
     atom    9 type  3   force =     0.01534244   -0.00716382    0.00529014
     atom   10 type  3   force =    -0.01031307    0.02114473   -0.02055478
     atom   11 type  3   force =    -0.01534122    0.00716273   -0.00529018
     atom   12 type  3   force =     0.00000029   -0.00000034   -0.00000012
     atom   13 type  3   force =     0.00960767   -0.00327965   -0.01073452
     atom   14 type  3   force =    -0.00960793    0.00328006    0.01073577
     atom   15 type  3   force =    -0.00450835    0.00964745    0.02745038
     atom   16 type  3   force =     0.01031262   -0.02114247    0.02055418
     atom   17 type  3   force =     0.00450730   -0.00964811   -0.02745225
     atom   18 type  3   force =    -0.00000012   -0.00000015    0.00000040
     The Hubbard contrib.    to forces
     atom    1 type  1   force =     0.00000000    0.00000000    0.00000000
     atom    2 type  1   force =     0.00000000    0.00000000    0.00000000
     atom    3 type  1   force =     0.00000000    0.00000000    0.00000000
     atom    4 type  1   force =     0.00000000    0.00000000    0.00000000
     atom    5 type  1   force =     0.00000000    0.00000000    0.00000000
     atom    6 type  1   force =     0.00000000    0.00000000    0.00000000
     atom    7 type  2   force =     0.00000000    0.00000000    0.00000000
     atom    8 type  2   force =     0.00000000    0.00000000    0.00000000
     atom    9 type  3   force =     0.00000000    0.00000000    0.00000000
     atom   10 type  3   force =     0.00000000    0.00000000    0.00000000
     atom   11 type  3   force =     0.00000000    0.00000000    0.00000000
     atom   12 type  3   force =     0.00000000    0.00000000    0.00000000
     atom   13 type  3   force =     0.00000000    0.00000000    0.00000000
     atom   14 type  3   force =     0.00000000    0.00000000    0.00000000
     atom   15 type  3   force =     0.00000000    0.00000000    0.00000000
     atom   16 type  3   force =     0.00000000    0.00000000    0.00000000
     atom   17 type  3   force =     0.00000000    0.00000000    0.00000000
     atom   18 type  3   force =     0.00000000    0.00000000    0.00000000
     The SCF correction term to forces
     atom    1 type  1   force =    -0.00008295    0.00000283   -0.00018801
     atom    2 type  1   force =     0.00013057   -0.00001658   -0.00009928
     atom    3 type  1   force =    -0.00008819   -0.00006659    0.00001292
     atom    4 type  1   force =     0.00001715   -0.00011534    0.00021072
     atom    5 type  1   force =     0.00007148    0.00007442    0.00000863
     atom    6 type  1   force =    -0.00004979    0.00013986    0.00006547
     atom    7 type  2   force =     0.00014669   -0.00002999   -0.00001474
     atom    8 type  2   force =    -0.00012077   -0.00007044   -0.00015348
     atom    9 type  3   force =    -0.00030185    0.00009009   -0.00003915
     atom   10 type  3   force =     0.00003149   -0.00032235    0.00003764
     atom   11 type  3   force =     0.00009898   -0.00000484    0.00002310
     atom   12 type  3   force =     0.00000010    0.00000129    0.00001832
     atom   13 type  3   force =    -0.00009888   -0.00007527    0.00003592
     atom   14 type  3   force =     0.00018091    0.00013821   -0.00024910
     atom   15 type  3   force =    -0.00004917   -0.00011298   -0.00002609
     atom   16 type  3   force =     0.00001882    0.00007299   -0.00004568
     atom   17 type  3   force =     0.00013367    0.00016740    0.00022631
     atom   18 type  3   force =    -0.00000870    0.00001761   -0.00000889

     Total force =     0.698069     Total SCF correction =     0.000844

     Computing stress (Cartesian axis) and pressure

     negative rho (up, down):  8.189E-02 0.000E+00
          total   stress  (Ry/bohr**3)                   (kbar)     P=      358.69
   0.00047829  -0.00290585  -0.00000000           70.36     -427.47       -0.00
  -0.00290585   0.00123978  -0.00000000         -427.47      182.38       -0.00
  -0.00000000  -0.00000000   0.00559682           -0.00       -0.00      823.32

     kinetic stress (kbar)   6504.81   -352.44      0.00
                             -352.44   6627.61      0.00
                                0.00      0.00   7171.95

     local   stress (kbar)  -9287.46   -834.50      6.39
                             -834.50  -9149.00      0.15
                                6.39      0.15  -8325.83

     nonloc. stress (kbar)   4119.74    -22.32      0.00
                              -22.32   4135.01      0.00
                                0.00      0.00   4124.10

     hartree stress (kbar)   8182.30    334.29     -7.94
                              334.29   8111.75      4.29
                               -7.94      4.29   7799.79

     exc-cor stress (kbar)   3698.86      0.66     -0.12
                                0.66   3699.16      0.08
                               -0.12      0.08   3697.55

     corecor stress (kbar)  -6086.04     -4.86     -1.36
                               -4.86  -6086.69      1.02
                               -1.36      1.02  -6081.45

     ewald   stress (kbar)  -7061.86    451.70      0.00
                              451.70  -7155.47      0.00
                                0.00      0.00  -7562.78

     hubbard stress (kbar)      0.00      0.00      0.00
                                0.00      0.00      0.00
                                0.00      0.00      0.00

     DFT-D   stress (kbar)      0.00      0.00      0.00
                                0.00      0.00      0.00
                                0.00      0.00      0.00

     XDM     stress (kbar)      0.00      0.00      0.00
                                0.00      0.00      0.00
                                0.00      0.00      0.00

     dft-nl  stress (kbar)      0.00      0.00      0.00
                                0.00      0.00      0.00
                                0.00      0.00      0.00

     TS-vdW  stress (kbar)      0.00      0.00      0.00
                                0.00      0.00      0.00
                                0.00      0.00      0.00

[...]

                                0.00      0.00      0.00

     Writing all to output data dir new_calculations/myprefix.save/

     General routines

     Parallel routines

   This run was terminated on:  13:51: 8  20May2023

   JOB DONE.