     Program PWSCF v.7.0 starts on 20May2023 at 22:40: 1

     Reading input from espresso_18629.pwi
Warning: card &CELL ignored
Warning: card / ignored

     Current dimensions of program PWSCF are:
     Max number of different atomic species (ntypx) = 10
     Max number of k-points (npk) =  40000
     Max angular momentum in pseudopotentials (lmaxx) =  4
     file K.pbe-spn-kjpaw_psl.1.0.0.UPF: wavefunction(s)  3S renormalized

     gamma-point specific algorithms are used
     Message from routine setup:
     using ibrav=0 with symmetry is DISCOURAGED, use correct ibrav instead

     Subspace diagonalization in iterative solution of the eigenvalue problem:
     a serial algorithm will be used

     Using Slab Decomposition

     bravais-lattice index     =            0
     lattice parameter (alat)  =      12.5614  a.u.
     unit-cell volume          =    1401.5312 (a.u.)^3
     number of atoms/cell      =           10
     number of atomic types    =            3
     number of electrons       =        91.00
     number of Kohn-Sham states=           55
     kinetic-energy cutoff     =      30.0000  Ry
     charge density cutoff     =     240.0000  Ry
     scf convergence threshold =      1.0E-06
     mixing beta               =       0.7000
     number of iterations used =            8  plain     mixing
     Exchange-correlation=  SLA  PW   PBX  PBC
                           (   1   4   3   4   0   0   0)

     celldm(1)=  12.561435  celldm(2)=   0.000000  celldm(3)=   0.000000
     celldm(4)=   0.000000  celldm(5)=   0.000000  celldm(6)=   0.000000

     crystal axes: (cart. coord. in units of alat)
               a(1) = (   1.000000   0.000000   0.000000 )
               a(2) = (   0.500000   0.866025   0.000000 )
               a(3) = (   0.500000   0.288675   0.816497 )

     reciprocal axes: (cart. coord. in units 2 pi/alat)
               b(1) = (  1.000000 -0.577350 -0.408248 )
               b(2) = (  0.000000  1.154701 -0.408248 )
               b(3) = (  0.000000  0.000000  1.224745 )

     PseudoPot. # 1 for K  read from file:
     /home/pragov/projects/rrg-bengioy-ad/pragov/crystal_structure_design/SSSP/K.pbe-spn-kjpaw_psl.1.0.0.UPF
     MD5 check sum: 7d58810084cac21f60fbe77ea2b688fd
     Pseudo is Projector augmented-wave + core cor, Zval =  9.0
     Generated using "atomic" code by A. Dal Corso  v.5.1
     Shape of augmentation charge: PSQ
     Using radial grid of 1165 points,  6 beta functions with:
                l(1) =   0
                l(2) =   0
                l(3) =   1
                l(4) =   1
                l(5) =   2
                l(6) =   2
     Q(r) pseudized with 0 coefficients

     PseudoPot. # 2 for Er read from file:
     /home/pragov/projects/rrg-bengioy-ad/pragov/crystal_structure_design/SSSP/Er.GGA-PBE-paw-v1.0.UPF
     MD5 check sum: 5952a841f12bc97f67d25f9d1b2e7e35
     Pseudo is Projector augmented-wave + core cor, Zval = 22.0
     Generated using ATOMPAW code
     Shape of augmentation charge: BESSEL
     Using radial grid of 1114 points,  8 beta functions with:
                l(1) =   0
                l(2) =   0
                l(3) =   1
                l(4) =   1
                l(5) =   2
                l(6) =   2
                l(7) =   3
                l(8) =   3
     Q(r) pseudized with 0 coefficients

     PseudoPot. # 3 for F  read from file:
     /home/pragov/projects/rrg-bengioy-ad/pragov/crystal_structure_design/SSSP/f_pbe_v1.4.uspp.F.UPF
     MD5 check sum: 4c38b6a325caf53ec0e86aed9459de46
     Pseudo is Ultrasoft, Zval =  7.0
     Generated by new atomic code, or converted to UPF format
     Using radial grid of  799 points,  4 beta functions with:
                l(1) =   0
                l(2) =   0
                l(3) =   1
                l(4) =   1
     Q(r) pseudized with  8 coefficients,  rinner =    0.950   0.950   0.950

     atomic species   valence    mass     pseudopotential
        K              9.00    39.09830     K ( 1.00)
        Er            22.00   167.25900     Er( 1.00)
        F              7.00    18.99840     F ( 1.00)

     12 Sym. Ops., with inversion, found

                                    s                        frac. trans.

      isym =  1     identity

 cryst.   s( 1) = (     1          0          0      )
                  (     0          1          0      )
                  (     0          0          1      )

 cart.    s( 1) = (  1.0000000  0.0000000  0.0000000 )
                  (  0.0000000  1.0000000  0.0000000 )
                  (  0.0000000  0.0000000  1.0000000 )

      isym =  2     180 deg rotation - cart. axis [1,0,0]

[...]

      isym =  3     120 deg rotation - cryst. axis [0,0,1]

[...]

      isym =  6     180 deg rotation - cryst. axis [1,1,0]

[...]

      isym =  7     inversion

[...]

      isym =  8     inv. 180 deg rotation - cart. axis [1,0,0]

[...]

      isym =  9     inv. 120 deg rotation - cryst. axis [0,0,1]

 cryst.   s( 9) = (     1         -1          0      )
                  (     1          0          0      )
                  (     1          0         -1      )

 cart.    s( 9) = (  0.5000000  0.8660254  0.0000000 )
                  ( -0.8660254  0.5000000  0.0000000 )
                  (  0.0000000  0.0000000 -1.0000000 )

[...]

 cryst.   s(10) = (     0          1          0      )
                  (    -1          1          0      )
                  (     0          1         -1      )

 cart.    s(10) = (  0.5000000 -0.8660254  0.0000000 )
                  (  0.8660254  0.5000000  0.0000000 )
                  (  0.0000000  0.0000000 -1.0000000 )

[...]

      isym = 12     inv. 180 deg rotation - cryst. axis [1,1,0]

 cryst.   s(12) = (     1         -1          0      )
                  (     0         -1          0      )
                  (     0         -1          1      )

 cart.    s(12) = (  0.5000000 -0.8660254  0.0000000 )
                  ( -0.8660254 -0.5000000 -0.0000000 )
                  (  0.0000000  0.0000000  1.0000000 )

   Cartesian axes

     site n.     atom                  positions (alat units)
         1           K   tau(   1) = (   1.5000000   0.8660254   0.6123724  )
         2           K   tau(   2) = (   0.5000000   0.2886751   0.2041241  )
         3           K   tau(   3) = (   1.0000000   0.5773503   0.4082483  )
         4           Er  tau(   4) = (   0.0000000   0.0000000   0.0000000  )
         5           F   tau(   5) = (   1.2705100   0.7335293   0.1873778  )
         6           F   tau(   6) = (   0.7294900   0.4211712   0.6291188  )
         7           F   tau(   7) = (   1.2705100   0.4211712   0.6291188  )
         8           F   tau(   8) = (   0.7294900   0.7335293   0.1873778  )
         9           F   tau(   9) = (   1.0000000   0.8897083   0.6291188  )
        10           F   tau(  10) = (   1.0000000   0.2649922   0.1873778  )

   Crystallographic axes

     site n.     atom                  positions (cryst. coord.)
         1           K   tau(   1) = (  0.7500000  0.7500000  0.7500000  )
         2           K   tau(   2) = (  0.2500000  0.2500000  0.2500000  )
         3           K   tau(   3) = (  0.5000000  0.5000000  0.5000000  )
         4           Er  tau(   4) = (  0.0000000  0.0000000  0.0000000  )
         5           F   tau(   5) = (  0.7705100  0.7705100  0.2294900  )
         6           F   tau(   6) = (  0.2294900  0.2294900  0.7705100  )
         7           F   tau(   7) = (  0.7705100  0.2294900  0.7705100  )
         8           F   tau(   8) = (  0.2294900  0.7705100  0.2294900  )
         9           F   tau(   9) = (  0.2294900  0.7705100  0.7705100  )
        10           F   tau(  10) = (  0.7705100  0.2294900  0.2294900  )

     number of k points=     1  Methfessel-Paxton smearing, width (Ry)=  0.0010
                       cart. coord. in units 2pi/alat
        k(    1) = (   0.0000000   0.0000000   0.0000000), wk =   2.0000000

                       cryst. coord.
        k(    1) = (   0.0000000   0.0000000   0.0000000), wk =   2.0000000

     Check: negative core charge=   -0.000003

     Initial potential from superposition of free atoms

     starting charge      90.9393, renormalised to      91.0000
     Starting wfcs are   80 randomized atomic wfcs
     Checking if some PAW data can be deallocated...

     Self-consistent Calculation

     iteration #  1     ecut=    30.00 Ry     beta= 0.70
     Davidson diagonalization with overlap

     ethr =  1.00E-02,  avg # of iterations =  5.0

     total energy              =   -1516.95343310 Ry
     estimated scf accuracy    <       1.45178284 Ry

[...]

     total energy              =   -1517.65235425 Ry
     estimated scf accuracy    <       0.00001571 Ry

     iteration # 46     ecut=    30.00 Ry     beta= 0.70
     Davidson diagonalization with overlap

     ethr =  1.73E-08,  avg # of iterations =  1.0

     End of self-consistent calculation

          k = 0.0000 0.0000 0.0000 (  1920 PWs)   bands (ev):

   -43.8928 -26.2791 -26.2750 -24.1497 -19.4277 -19.4276 -19.4267 -18.1427
   -18.0842 -18.0840 -16.5033 -16.5032 -16.5021  -9.7551  -9.7551  -9.7551
    -9.7286  -9.7286  -9.7286  -7.6919  -7.6919  -7.6918  -0.5328  -0.3731
    -0.3730  -0.2319  -0.2319  -0.2318   0.4146   0.4146   0.4151   0.6216
     0.6217   0.6218   0.7422   0.7424   0.7425   1.0324   1.0325   1.0326
     3.4193   3.4194   3.4197   3.5423   3.5435   3.5435   3.5438   6.6668
     9.8060   9.8060  10.1529  10.1530  10.1534  10.3772  10.3773

     occupation numbers
     1.0000   1.0000   1.0000   1.0000   1.0000   1.0000   1.0000   1.0000
     1.0000   1.0000   1.0000   1.0000   1.0000   1.0000   1.0000   1.0000
     1.0000   1.0000   1.0000   1.0000   1.0000   1.0000   1.0000   1.0000
     1.0000   1.0000   1.0000   1.0000   1.0000   1.0000   1.0000   1.0000
     1.0000   1.0000   1.0000   1.0000   1.0000   1.0000   1.0000   1.0000
     1.0000   1.0000   1.0000   0.6850   0.6124   0.6114   0.5912  -0.0000
    -0.0000  -0.0000  -0.0000  -0.0000  -0.0000  -0.0000  -0.0000

     the Fermi energy is     3.5453 ev

!    total energy              =   -1517.65235414 Ry
     estimated scf accuracy    <       0.00000044 Ry
     smearing contrib. (-TS)   =      -0.00104778 Ry
     internal energy E=F+TS    =   -1517.65130635 Ry

     The total energy is F=E-TS. E is the sum of the following terms:
     one-electron contribution =    -647.08520710 Ry
     hartree contribution      =     351.10655757 Ry
     xc contribution           =    -123.17835532 Ry
     ewald contribution        =    -445.83432097 Ry
     one-center paw contrib.   =    -652.65998052 Ry
      -> PAW hartree energy AE =     452.83123445 Ry
      -> PAW hartree energy PS =    -416.10740309 Ry
      -> PAW xc energy AE      =    -752.68601653 Ry
      -> PAW xc energy PS      =      63.30220464 Ry
      -> total E_H with PAW    =     387.83038893 Ry
      -> total E_XC with PAW   =    -812.56216721 Ry

     convergence has been achieved in  46 iterations

     Forces acting on atoms (cartesian axes, Ry/au):

     atom    1 type  1   force =    -0.00000000    0.00000000    0.00001065
     atom    2 type  1   force =     0.00000000   -0.00000000   -0.00001065
     atom    3 type  1   force =     0.00000000   -0.00000000   -0.00000000
     atom    4 type  2   force =     0.00000000    0.00000000    0.00000000
     atom    5 type  3   force =    -0.00614905   -0.00355016    0.00485677
     atom    6 type  3   force =     0.00614905    0.00355016   -0.00485677
     atom    7 type  3   force =    -0.00614905    0.00355016   -0.00485677
     atom    8 type  3   force =     0.00614905   -0.00355016    0.00485677
     atom    9 type  3   force =     0.00000000   -0.00710032   -0.00485677
     atom   10 type  3   force =     0.00000000    0.00710032    0.00485677
     The non-local contrib.  to forces
     atom    1 type  1   force =     0.00000000   -0.00000000   -0.00000450
     atom    2 type  1   force =    -0.00000000   -0.00000000    0.00000450
     atom    3 type  1   force =     0.00000000    0.00000000   -0.00000000
     atom    4 type  2   force =     0.00000000    0.00000000   -0.00000000
     atom    5 type  3   force =     0.32869683    0.18977320   -0.26883961
     atom    6 type  3   force =    -0.32869683   -0.18977320    0.26883961
     atom    7 type  3   force =     0.32869683   -0.18977320    0.26883961
     atom    8 type  3   force =    -0.32869683    0.18977320   -0.26883961
     atom    9 type  3   force =     0.00000000    0.37954640    0.26883961
     atom   10 type  3   force =     0.00000000   -0.37954640   -0.26883961
     The ionic contribution  to forces
     atom    1 type  1   force =    -0.00000000   -0.00000000   -0.00000000
     atom    2 type  1   force =     0.00000000    0.00000000    0.00000000
     atom    3 type  1   force =     0.00000000    0.00000000   -0.00000000
     atom    4 type  2   force =    -0.00000000   -0.00000000   -0.00000000
     atom    5 type  3   force =    -9.59523499   -5.53981150    7.83447656
     atom    6 type  3   force =     9.59523499    5.53981150   -7.83447656
     atom    7 type  3   force =    -9.59523499    5.53981150   -7.83447656
     atom    8 type  3   force =     9.59523499   -5.53981150    7.83447656
     atom    9 type  3   force =    -0.00000000  -11.07962300   -7.83447656
     atom   10 type  3   force =    -0.00000000   11.07962301    7.83447656
     The local contribution  to forces
     atom    1 type  1   force =     0.00003128   -0.00001471    0.00001802
     atom    2 type  1   force =    -0.00003136    0.00001475   -0.00001721
     atom    3 type  1   force =    -0.00000115    0.00000022    0.00000110
     atom    4 type  2   force =     0.00000669    0.00000467   -0.00004314
     atom    5 type  3   force =     9.26044981    5.34643408   -7.56083027
     atom    6 type  3   force =    -9.26045051   -5.34643489    7.56083009
     atom    7 type  3   force =     9.26030398   -5.34645069    7.56063463
     atom    8 type  3   force =    -9.26030110    5.34644990   -7.56063470
     atom    9 type  3   force =    -0.00008711   10.69278165    7.56065870
     atom   10 type  3   force =     0.00008765  -10.69278019   -7.56065932
     The core correction contribution to forces
     atom    1 type  1   force =     0.00000001   -0.00000000    0.00000048
     atom    2 type  1   force =    -0.00000001   -0.00000000   -0.00000047
     atom    3 type  1   force =     0.00000003    0.00000001   -0.00000002
     atom    4 type  2   force =     0.00000000    0.00000000   -0.00000000
     atom    5 type  3   force =     0.00000000    0.00000000    0.00000000
     atom    6 type  3   force =     0.00000000    0.00000000    0.00000000
     atom    7 type  3   force =     0.00000000    0.00000000    0.00000000
     atom    8 type  3   force =     0.00000000    0.00000000    0.00000000
     atom    9 type  3   force =     0.00000000    0.00000000    0.00000000
     atom   10 type  3   force =     0.00000000    0.00000000    0.00000000
     The Hubbard contrib.    to forces
     atom    1 type  1   force =     0.00000000    0.00000000    0.00000000
     atom    2 type  1   force =     0.00000000    0.00000000    0.00000000
     atom    3 type  1   force =     0.00000000    0.00000000    0.00000000
     atom    4 type  2   force =     0.00000000    0.00000000    0.00000000
     atom    5 type  3   force =     0.00000000    0.00000000    0.00000000
     atom    6 type  3   force =     0.00000000    0.00000000    0.00000000
     atom    7 type  3   force =     0.00000000    0.00000000    0.00000000
     atom    8 type  3   force =     0.00000000    0.00000000    0.00000000
     atom    9 type  3   force =     0.00000000    0.00000000    0.00000000
     atom   10 type  3   force =     0.00000000    0.00000000    0.00000000
     The SCF correction term to forces
     atom    1 type  1   force =    -0.00002909    0.00001387   -0.00000327
     atom    2 type  1   force =     0.00002909   -0.00001392    0.00000262
     atom    3 type  1   force =     0.00000209    0.00000047   -0.00000174
     atom    4 type  2   force =    -0.00000780   -0.00000504    0.00003803
     atom    5 type  3   force =    -0.00003686    0.00006686    0.00002915
     atom    6 type  3   force =     0.00003733   -0.00006621   -0.00002928
     atom    7 type  3   force =     0.00007708   -0.00003520    0.00013804
     atom    8 type  3   force =    -0.00007986    0.00003590   -0.00013803
     atom    9 type  3   force =     0.00008463    0.00017576    0.00010828
     atom   10 type  3   force =    -0.00008505   -0.00017690   -0.00010745

     Total force =     0.021072     Total SCF correction =     0.000412

     Computing stress (Cartesian axis) and pressure

          total   stress  (Ry/bohr**3)                   (kbar)     P=      -60.94
  -0.00041378  -0.00000000  -0.00000000          -60.87       -0.00       -0.00
  -0.00000000  -0.00041378  -0.00000000           -0.00      -60.87       -0.00
  -0.00000000  -0.00000000  -0.00041516           -0.00       -0.00      -61.07

     kinetic stress (kbar)  13842.39      0.00      0.00
                                0.00  13842.39     -0.00
                                0.00     -0.00  13840.91

     local   stress (kbar) -11055.39     -0.99      0.19
                               -0.99 -11055.15      0.71
                                0.19      0.71 -11055.23

     nonloc. stress (kbar)   4470.26      0.00      0.00
                                0.00   4470.26      0.00
                                0.00      0.00   4471.53

     hartree stress (kbar)  12284.17      0.41     -0.14
                                0.41  12284.01     -0.31
                               -0.14     -0.31  12284.06

     exc-cor stress (kbar)  -3154.23      0.00     -0.00
                                0.00  -3154.23     -0.00
                               -0.00     -0.00  -3154.24

     corecor stress (kbar)   -849.81     -0.00      0.00
                               -0.00   -849.81      0.00
                                0.00      0.00   -849.81

     ewald   stress (kbar) -15598.30      0.00      0.00
                                0.00 -15598.30      0.00
                                0.00      0.00 -15598.30

     hubbard stress (kbar)      0.00      0.00      0.00
                                0.00      0.00      0.00
                                0.00      0.00      0.00

     DFT-D   stress (kbar)      0.00      0.00      0.00
                                0.00      0.00      0.00
                                0.00      0.00      0.00

     XDM     stress (kbar)      0.00      0.00      0.00
                                0.00      0.00      0.00
                                0.00      0.00      0.00

     dft-nl  stress (kbar)      0.00      0.00      0.00
                                0.00      0.00      0.00
                                0.00      0.00      0.00

     TS-vdW  stress (kbar)      0.00      0.00      0.00
                                0.00      0.00      0.00
                                0.00      0.00      0.00

[...]

                                0.00      0.00      0.00

     Writing all to output data dir new_calculations/myprefix.save/

     General routines

     Parallel routines

     PAW routines

   This run was terminated on:  22:41:32  20May2023

   JOB DONE.