     Program PWSCF v.7.0 starts on 21May2023 at 18:53:43

     Reading input from espresso_6953.pwi
Warning: card &CELL ignored
Warning: card / ignored

     Current dimensions of program PWSCF are:
     Max number of different atomic species (ntypx) = 10
     Max number of k-points (npk) =  40000
     Max angular momentum in pseudopotentials (lmaxx) =  4
     file Ba.pbe-spn-kjpaw_psl.1.0.0.UPF: wavefunction(s)  5S 6S renormalized

     gamma-point specific algorithms are used

     Subspace diagonalization in iterative solution of the eigenvalue problem:
     a serial algorithm will be used

     Using Slab Decomposition

     bravais-lattice index     =            0
     lattice parameter (alat)  =      10.3533  a.u.
     unit-cell volume          =    1649.4456 (a.u.)^3
     number of atoms/cell      =           17
     number of atomic types    =            4
     number of electrons       =       149.00
     number of Kohn-Sham states=           90
     kinetic-energy cutoff     =      30.0000  Ry
     charge density cutoff     =     240.0000  Ry
     scf convergence threshold =      1.0E-06
     mixing beta               =       0.7000
     number of iterations used =            8  plain     mixing
     Exchange-correlation=  SLA  PW   PBX  PBC
                           (   1   4   3   4   0   0   0)

     celldm(1)=  10.353335  celldm(2)=   0.000000  celldm(3)=   0.000000
     celldm(4)=   0.000000  celldm(5)=   0.000000  celldm(6)=   0.000000

     crystal axes: (cart. coord. in units of alat)
               a(1) = (   1.000000   0.000000   0.000000 )
               a(2) = (   0.371203   1.227383   0.000000 )
               a(3) = (   0.462571   0.455404   1.210925 )

     reciprocal axes: (cart. coord. in units 2 pi/alat)
               b(1) = (  1.000000 -0.302435 -0.268259 )
               b(2) = (  0.000000  0.814742 -0.306408 )
               b(3) = (  0.000000  0.000000  0.825815 )

     PseudoPot. # 1 for Ba read from file:
     /home/pragov/projects/rrg-bengioy-ad/pragov/crystal_structure_design/SSSP/Ba.pbe-spn-kjpaw_psl.1.0.0.UPF
     MD5 check sum: c432291d3e53af55f19d5e8866385beb
     Pseudo is Projector augmented-wave + core cor, Zval = 10.0
     Generated using "atomic" code by A. Dal Corso  v.5.1
     Shape of augmentation charge: PSQ
     Using radial grid of 1251 points,  7 beta functions with:
                l(1) =   0
                l(2) =   0
                l(3) =   0
                l(4) =   1
                l(5) =   1
                l(6) =   2
                l(7) =   2
     Q(r) pseudized with 0 coefficients

     PseudoPot. # 2 for V  read from file:
     /home/pragov/projects/rrg-bengioy-ad/pragov/crystal_structure_design/SSSP/v_pbe_v1.4.uspp.F.UPF
     MD5 check sum: 22b79981416ebb76fdaf5b1b8640f6fb
     Pseudo is Ultrasoft + core correction, Zval = 13.0
     Generated by new atomic code, or converted to UPF format
     Using radial grid of  853 points,  6 beta functions with:
                l(1) =   0
                l(2) =   0
                l(3) =   1
                l(4) =   1
                l(5) =   2
                l(6) =   2
     Q(r) pseudized with  8 coefficients,  rinner =    1.100   1.100   1.100
                                                       1.100   1.100

     PseudoPot. # 3 for Cu read from file:
     /home/pragov/projects/rrg-bengioy-ad/pragov/crystal_structure_design/SSSP/Cu_pbe_v1.2.uspp.F.UPF
     MD5 check sum: 6e991ff952a84172a2a52a1c1e996048
     Pseudo is Ultrasoft + core correction, Zval = 19.0
     Generated by new atomic code, or converted to UPF format
     Using radial grid of  867 points,  6 beta functions with:
                l(1) =   0
                l(2) =   0
                l(3) =   1
                l(4) =   1
                l(5) =   2
                l(6) =   2
     Q(r) pseudized with  8 coefficients,  rinner =    1.150   1.150   1.150
                                                       1.150   1.150

     PseudoPot. # 4 for F  read from file:
     /home/pragov/projects/rrg-bengioy-ad/pragov/crystal_structure_design/SSSP/f_pbe_v1.4.uspp.F.UPF
     MD5 check sum: 4c38b6a325caf53ec0e86aed9459de46
     Pseudo is Ultrasoft, Zval =  7.0
     Generated by new atomic code, or converted to UPF format
     Using radial grid of  799 points,  4 beta functions with:
                l(1) =   0
                l(2) =   0
                l(3) =   1
                l(4) =   1
     Q(r) pseudized with  8 coefficients,  rinner =    0.950   0.950   0.950

     atomic species   valence    mass     pseudopotential
        Ba            10.00   137.32700     Ba( 1.00)
        V             13.00    50.94150     V ( 1.00)
        Cu            19.00    63.54600     Cu( 1.00)
        F              7.00    18.99840     F ( 1.00)

     No symmetry found

                                    s                        frac. trans.

      isym =  1     identity

 cryst.   s( 1) = (     1          0          0      )
                  (     0          1          0      )
                  (     0          0          1      )

 cart.    s( 1) = (  1.0000000  0.0000000  0.0000000 )
                  (  0.0000000  1.0000000  0.0000000 )
                  (  0.0000000  0.0000000  1.0000000 )

   Cartesian axes

     site n.     atom                  positions (alat units)
         1           Ba  tau(   1) = (   0.4824689   0.3561960   0.2851716  )
         2           Ba  tau(   2) = (   1.3633088   1.3236845   0.9199311  )
         3           V   tau(   3) = (   0.9130116   0.8441979   0.6116139  )
         4           V   tau(   4) = (   0.4192076   1.0314995   0.1980455  )
         5           Cu  tau(   5) = (   1.4159038   0.6576505   1.0030175  )
         6           F   tau(   6) = (   0.8479609   0.4976531   0.6091254  )
         7           F   tau(   7) = (   0.9877896   1.1907910   0.5909483  )
         8           F   tau(   8) = (   0.7269351   0.8578339   0.2906946  )
         9           F   tau(   9) = (   1.0845335   0.8324076   0.9251308  )
        10           F   tau(  10) = (   1.2298006   0.7931932   0.4164504  )
        11           F   tau(  11) = (   0.6012839   0.9058839   0.7814994  )
        12           F   tau(  12) = (   0.9706092   0.4371830   0.0422092  )
        13           F   tau(  13) = (   0.8649205   1.2379402   1.1635788  )
        14           F   tau(  14) = (   1.1270924   1.1859735   0.0683930  )
        15           F   tau(  15) = (   0.7141849   0.4638854   1.1737458  )
        16           F   tau(  16) = (   1.4832394   1.2785156   0.4378123  )
        17           F   tau(  17) = (   0.3548320   0.4092015   0.7754944  )

   Crystallographic axes

     site n.     atom                  positions (cryst. coord.)
         1           Ba  tau(   1) = (  0.2982430  0.2028290  0.2354990  )
         2           Ba  tau(   2) = (  0.7162010  0.7965870  0.7596930  )
         3           V   tau(   3) = (  0.4936260  0.5004000  0.5050800  )
         4           V   tau(   4) = (  0.0541190  0.7797230  0.1635490  )
         5           Cu  tau(   5) = (  0.9479390  0.2284830  0.8283070  )
         6           F   tau(   6) = (  0.5340500  0.2188180  0.5030250  )
         7           F   tau(   7) = (  0.4691260  0.7891160  0.4880140  )
         8           F   tau(   8) = (  0.3895150  0.6098420  0.2400600  )
         9           F   tau(   9) = (  0.5846100  0.3947300  0.7639870  )
        10           F   tau(  10) = (  0.8781950  0.5186440  0.3439110  )
        11           F   tau(  11) = (  0.1176690  0.4986040  0.6453740  )
        12           F   tau(  12) = (  0.8270670  0.3432580  0.0348570  )
        13           F   tau(  13) = (  0.1783840  0.6520720  0.9609010  )
        14           F   tau(  14) = (  0.7500660  0.9453060  0.0564800  )
        15           F   tau(  15) = (  0.2590220  0.0183020  0.9692970  )
        16           F   tau(  16) = (  0.9791250  0.9075110  0.3615520  )
        17           F   tau(  17) = (  0.0230420  0.0957760  0.6404150  )

     number of k points=     1  Methfessel-Paxton smearing, width (Ry)=  0.0010
                       cart. coord. in units 2pi/alat
        k(    1) = (   0.0000000   0.0000000   0.0000000), wk =   2.0000000

                       cryst. coord.
        k(    1) = (   0.0000000   0.0000000   0.0000000), wk =   2.0000000

     Check: negative core charge=   -0.000003

     Initial potential from superposition of free atoms

     starting charge     147.9635, renormalised to     149.0000

     negative rho (up, down):  1.838E-03 0.000E+00
     Starting wfcs are   91 randomized atomic wfcs
     Checking if some PAW data can be deallocated...

     Self-consistent Calculation

     iteration #  1     ecut=    30.00 Ry     beta= 0.70
     Davidson diagonalization with overlap

     ethr =  1.00E-02,  avg # of iterations =  7.0

     negative rho (up, down):  7.047E-02 0.000E+00

     total energy              =   -2144.66891270 Ry
     estimated scf accuracy    <       9.44484350 Ry

[...]

     total energy              =   -2151.12804792 Ry
     estimated scf accuracy    <       0.00000509 Ry

     iteration # 80     ecut=    30.00 Ry     beta= 0.70
     Davidson diagonalization with overlap

     ethr =  2.73E-09,  avg # of iterations =  1.0

[...]

     End of self-consistent calculation

          k = 0.0000 0.0000 0.0000 (  2295 PWs)   bands (ev):

  -104.0629 -61.6444 -61.4231 -61.3506 -58.5574 -58.5215 -32.7297 -32.6699
   -32.2900 -32.2585 -32.2313 -32.0931 -20.0664 -20.0007 -17.5847 -17.2517
   -16.9271 -16.7756 -16.7275 -16.6069 -16.5752 -16.5292 -16.5075 -16.3879
   -15.4904 -15.2235  -5.2838  -5.2158  -5.1954  -5.1453  -5.1240  -5.1083
    -0.3746   0.0540   0.3196   0.3811   0.4765   0.5989   0.6447   0.6964
     0.8701   0.9491   1.0149   1.1526   1.2715   1.3275   1.4773   1.6562
     1.7936   1.8411   1.9195   1.9340   2.0801   2.2034   2.2556   2.2927
     2.3681   2.3905   2.5002   2.5681   2.6243   2.6908   2.7401   3.0659
     3.2061   3.4307   3.5841   3.5999   6.1369   6.3203   6.3378   6.6799
     7.1846   7.4120   7.4214   7.4236   7.4548   7.5918   7.7497   8.9810
     9.1620   9.4735   9.7003  10.6764  12.0888  12.2519  12.4016  12.6710
    12.9031  13.1057

     occupation numbers
     1.0000   1.0000   1.0000   1.0000   1.0000   1.0000   1.0000   1.0000
     1.0000   1.0000   1.0000   1.0000   1.0000   1.0000   1.0000   1.0000
     1.0000   1.0000   1.0000   1.0000   1.0000   1.0000   1.0000   1.0000
     1.0000   1.0000   1.0000   1.0000   1.0000   1.0000   1.0000   1.0000
     1.0000   1.0000   1.0000   1.0000   1.0000   1.0000   1.0000   1.0000
     1.0000   1.0000   1.0000   1.0000   1.0000   1.0000   1.0000   1.0000
     1.0000   1.0000   1.0000   1.0000   1.0000   1.0000   1.0000   1.0000
     1.0000   1.0000   1.0000   1.0000   1.0000   1.0000   1.0000   1.0000
     1.0000   1.0000   1.0000   1.0000   1.0000   1.0000   1.0000   1.0000
     1.0000   0.8869   0.3710   0.2428  -0.0007  -0.0000  -0.0000  -0.0000
    -0.0000  -0.0000  -0.0000  -0.0000  -0.0000  -0.0000  -0.0000  -0.0000
    -0.0000  -0.0000

     the Fermi energy is     7.4193 ev

!    total energy              =   -2151.12804783 Ry
     estimated scf accuracy    <       0.00000025 Ry
     smearing contrib. (-TS)   =      -0.00055273 Ry
     internal energy E=F+TS    =   -2151.12749511 Ry

     The total energy is F=E-TS. E is the sum of the following terms:
     one-electron contribution =    -957.53197618 Ry
     hartree contribution      =     556.05944484 Ry
     xc contribution           =    -230.78574906 Ry
     ewald contribution        =    -768.96553678 Ry
     one-center paw contrib.   =    -749.90367793 Ry
      -> PAW hartree energy AE =      56.82367916 Ry
      -> PAW hartree energy PS =     -56.59508630 Ry
      -> PAW xc energy AE      =    -788.36419998 Ry
      -> PAW xc energy PS      =      38.23192919 Ry
      -> total E_H with PAW    =     556.28803770 Ry
      -> total E_XC with PAW   =    -980.91801984 Ry

     convergence has been achieved in  80 iterations

     negative rho (up, down):  2.304E-03 0.000E+00

     Forces acting on atoms (cartesian axes, Ry/au):

     atom    1 type  1   force =     0.00031167   -0.00154822    0.00054104
     atom    2 type  1   force =     0.00615728    0.00464930    0.00363692
     atom    3 type  2   force =    -0.00219349   -0.01979541    0.03330705
     atom    4 type  2   force =     0.01502628    0.00279763   -0.02475278
     atom    5 type  3   force =     0.00532907   -0.00252814   -0.01094969
     atom    6 type  4   force =     0.01257593    0.03837963   -0.00419836
     atom    7 type  4   force =    -0.00801949   -0.03405084    0.00065352
     atom    8 type  4   force =    -0.00663266    0.01207785    0.03026311
     atom    9 type  4   force =    -0.03501620    0.00957867   -0.04415822
     atom   10 type  4   force =    -0.01902625    0.03850329   -0.00623500
     atom   11 type  4   force =     0.04745083    0.00968954   -0.03794774
     atom   12 type  4   force =    -0.00009008    0.02640412    0.02314666
     atom   13 type  4   force =     0.00229747    0.01992522    0.02238641
     atom   14 type  4   force =     0.00981778   -0.02498368    0.02847123
     atom   15 type  4   force =    -0.01280338   -0.02894946    0.02704337
     atom   16 type  4   force =    -0.00671365   -0.02062046   -0.02227335
     atom   17 type  4   force =    -0.00847112   -0.02952904   -0.01893417
     The non-local contrib.  to forces
     atom    1 type  1   force =    -0.00065376    0.00889225   -0.02923086
     atom    2 type  1   force =    -0.00954331   -0.00164388    0.02712231
     atom    3 type  2   force =     0.00984102    0.01235124   -0.04500419
     atom    4 type  2   force =    -0.00063703   -0.02625070    0.05074746
     atom    5 type  3   force =     0.08686787   -0.07667047   -0.00919884
     atom    6 type  4   force =     0.07834926    0.75397556   -0.02144432
     atom    7 type  4   force =    -0.07371695   -0.72400115    0.02044601
     atom    8 type  4   force =    -0.35519482    0.27947177    0.43696342
     atom    9 type  4   force =    -0.09150566   -0.06787465   -0.69145958
     atom   10 type  4   force =    -0.16293225    0.48868885   -0.09803923
     atom   11 type  4   force =     0.48109477   -0.22916862   -0.20943780
     atom   12 type  4   force =    -0.08876872   -0.43469672   -0.47548169
     atom   13 type  4   force =     0.08969981    0.64808776    0.68116535
     atom   14 type  4   force =     0.67273936   -0.29331190    0.18742894
     atom   15 type  4   force =    -0.48672485   -0.30064605    0.40925371
     atom   16 type  4   force =    -0.07762928   -0.56994829   -0.50134354
     atom   17 type  4   force =     0.01388139    0.39333495    0.37093037
     The ionic contribution  to forces
     atom    1 type  1   force =     0.07030198    0.03517878    0.60352252
     atom    2 type  1   force =    -0.99745778    1.03913573    0.06222357
     atom    3 type  2   force =     0.87967264    0.40379740   -2.45172326
     atom    4 type  2   force =    -0.17013880   -2.90701191    2.32188771
     atom    5 type  3   force =     0.97986394    0.32824040    0.23905653
     atom    6 type  4   force =    -0.46712361  -13.27122075   -2.42945791
     atom    7 type  4   force =     1.17992297   12.76170180    1.03750345
     atom    8 type  4   force =     4.53581612   -5.14077773   -6.89967762
     atom    9 type  4   force =    -5.88164081    5.89845686    7.56324621
     atom   10 type  4   force =     1.14583769   -7.73850304   -2.10706559
     atom   11 type  4   force =    -1.09703980   10.23915289   -0.48522253
     atom   12 type  4   force =     1.15935478   12.98590019   13.64561676
     atom   13 type  4   force =    -0.64599694   -9.07323914   -8.28842924
     atom   14 type  4   force =   -13.07521653   -0.69993235    2.38835675
     atom   15 type  4   force =    13.43642467   -0.64229966   -1.43622930
     atom   16 type  4   force =     1.25784536   10.29290226    8.29078870
     atom   17 type  4   force =    -2.31042589  -14.51148174  -12.05439675
     The local contribution  to forces
     atom    1 type  1   force =    -0.06964937   -0.04505528   -0.57563834
     atom    2 type  1   force =     1.01314299   -1.03294577   -0.08420709
     atom    3 type  2   force =    -0.89312975   -0.43328883    2.53254956
     atom    4 type  2   force =     0.18492673    2.93567921   -2.39726390
     atom    5 type  3   force =    -1.06119400   -0.25403645   -0.24113481
     atom    6 type  4   force =     0.40140250   12.55585645    2.44669744
     atom    7 type  4   force =    -1.11426737  -12.07197404   -1.05718280
     atom    8 type  4   force =    -4.18703779    4.87316688    6.49320714
     atom    9 type  4   force =     5.93806567   -5.82095702   -6.91614955
     atom   10 type  4   force =    -1.00204795    7.28825861    2.19907759
     atom   11 type  4   force =     0.66353579  -10.00031515    0.65656897
     atom   12 type  4   force =    -1.07065956  -12.52474600  -13.14694132
     atom   13 type  4   force =     0.55861780    8.44490821    7.62952250
     atom   14 type  4   force =    12.41207726    0.96838083   -2.54735156
     atom   15 type  4   force =   -12.96246512    0.91402950    1.05396317
     atom   16 type  4   force =    -1.18692751   -9.74344620   -7.81154184
     atom   17 type  4   force =     2.28806542   14.08862574   11.66442027
     The core correction contribution to forces
     atom    1 type  1   force =     0.00030327   -0.00050590    0.00198268
     atom    2 type  1   force =    -0.00003057    0.00006496   -0.00160583
     atom    3 type  2   force =     0.00147797   -0.00270628   -0.00244953
     atom    4 type  2   force =     0.00089837    0.00030771    0.00001087
     atom    5 type  3   force =    -0.00012727    0.00008455    0.00005594
     atom    6 type  4   force =     0.00000000    0.00000000    0.00000000
     atom    7 type  4   force =     0.00000000    0.00000000    0.00000000
     atom    8 type  4   force =     0.00000000    0.00000000    0.00000000
     atom    9 type  4   force =     0.00000000    0.00000000    0.00000000
     atom   10 type  4   force =     0.00000000    0.00000000    0.00000000
     atom   11 type  4   force =     0.00000000    0.00000000    0.00000000
     atom   12 type  4   force =     0.00000000    0.00000000    0.00000000
     atom   13 type  4   force =     0.00000000    0.00000000    0.00000000
     atom   14 type  4   force =     0.00000000    0.00000000    0.00000000
     atom   15 type  4   force =     0.00000000    0.00000000    0.00000000
     atom   16 type  4   force =     0.00000000    0.00000000    0.00000000
     atom   17 type  4   force =     0.00000000    0.00000000    0.00000000
     The Hubbard contrib.    to forces
     atom    1 type  1   force =     0.00000000    0.00000000    0.00000000
     atom    2 type  1   force =     0.00000000    0.00000000    0.00000000
     atom    3 type  2   force =     0.00000000    0.00000000    0.00000000
     atom    4 type  2   force =     0.00000000    0.00000000    0.00000000
     atom    5 type  3   force =     0.00000000    0.00000000    0.00000000
     atom    6 type  4   force =     0.00000000    0.00000000    0.00000000
     atom    7 type  4   force =     0.00000000    0.00000000    0.00000000
     atom    8 type  4   force =     0.00000000    0.00000000    0.00000000
     atom    9 type  4   force =     0.00000000    0.00000000    0.00000000
     atom   10 type  4   force =     0.00000000    0.00000000    0.00000000
     atom   11 type  4   force =     0.00000000    0.00000000    0.00000000
     atom   12 type  4   force =     0.00000000    0.00000000    0.00000000
     atom   13 type  4   force =     0.00000000    0.00000000    0.00000000
     atom   14 type  4   force =     0.00000000    0.00000000    0.00000000
     atom   15 type  4   force =     0.00000000    0.00000000    0.00000000
     atom   16 type  4   force =     0.00000000    0.00000000    0.00000000
     atom   17 type  4   force =     0.00000000    0.00000000    0.00000000
     The SCF correction term to forces
     atom    1 type  1   force =     0.00000670   -0.00006209   -0.00008718
     atom    2 type  1   force =     0.00004310    0.00003426    0.00011174
     atom    3 type  2   force =    -0.00005823    0.00004704   -0.00005776
     atom    4 type  2   force =    -0.00002585    0.00006930   -0.00012714
     atom    5 type  3   force =    -0.00008433   -0.00015019    0.00027928
     atom    6 type  4   force =    -0.00005508   -0.00023565    0.00001421
     atom    7 type  4   force =     0.00003901    0.00021854   -0.00010537
     atom    8 type  4   force =    -0.00021902    0.00021293   -0.00022206
     atom    9 type  4   force =     0.00006175   -0.00005053    0.00021247
     atom   10 type  4   force =     0.00011341    0.00005486   -0.00019999
     atom   11 type  4   force =    -0.00014277    0.00001640    0.00015140
     atom   12 type  4   force =    -0.00001943   -0.00005736   -0.00003931
     atom   13 type  4   force =    -0.00002605    0.00016437    0.00013557
     atom   14 type  4   force =     0.00021484   -0.00012426    0.00004487
     atom   15 type  4   force =    -0.00004093   -0.00003726    0.00006356
     atom   16 type  4   force =    -0.00000507   -0.00013224   -0.00016889
     atom   17 type  4   force =     0.00000511   -0.00001200    0.00011972

     Total force =     0.152209     Total SCF correction =     0.000872

     Computing stress (Cartesian axis) and pressure

     negative rho (up, down):  2.304E-03 0.000E+00
          total   stress  (Ry/bohr**3)                   (kbar)     P=     -208.76
  -0.00149857  -0.00000452   0.00003553         -220.45       -0.66        5.23
  -0.00000452  -0.00132958   0.00005349           -0.66     -195.59        7.87
   0.00003553   0.00005349  -0.00142930            5.23        7.87     -210.26

     kinetic stress (kbar)  21755.25     -3.94    -24.44
                               -3.94  21564.44    -94.61
                              -24.44    -94.61  21678.45

     local   stress (kbar) -14311.25    541.00  -2378.62
                              541.00 -10465.27   7158.46
                            -2378.62   7158.46 -15856.91

     nonloc. stress (kbar)   4044.62      2.21     -4.76
                                2.21   4021.28    -20.99
                               -4.76    -20.99   4036.14

     hartree stress (kbar)  17203.42   -351.51   1021.20
                             -351.51  14687.35  -3662.59
                             1021.20  -3662.59  17701.15

     exc-cor stress (kbar)  -3239.47      0.70      0.86
                                0.70  -3236.02      1.44
                                0.86      1.44  -3237.65

     corecor stress (kbar)  -2798.17     -0.13      0.16
                               -0.13  -2796.35      0.79
                                0.16      0.79  -2797.45

     ewald   stress (kbar) -22874.84   -189.00   1390.83
                             -189.00 -23971.02  -3374.64
                             1390.83  -3374.64 -21733.99

     hubbard stress (kbar)      0.00      0.00      0.00
                                0.00      0.00      0.00
                                0.00      0.00      0.00

     DFT-D   stress (kbar)      0.00      0.00      0.00
                                0.00      0.00      0.00
                                0.00      0.00      0.00

     XDM     stress (kbar)      0.00      0.00      0.00
                                0.00      0.00      0.00
                                0.00      0.00      0.00

     dft-nl  stress (kbar)      0.00      0.00      0.00
                                0.00      0.00      0.00
                                0.00      0.00      0.00

     TS-vdW  stress (kbar)      0.00      0.00      0.00
                                0.00      0.00      0.00
                                0.00      0.00      0.00

[...]

                                0.00      0.00      0.00

     Writing all to output data dir new_calculations/myprefix.save/

     General routines

     Parallel routines

     PAW routines

   This run was terminated on:  18:55:47  21May2023

   JOB DONE.