     Program PWSCF v.7.0 starts on 21May2023 at 12:28:51

     Reading input from espresso_24725.pwi
Warning: card &CELL ignored
Warning: card / ignored

     Current dimensions of program PWSCF are:
     Max number of different atomic species (ntypx) = 10
     Max number of k-points (npk) =  40000
     Max angular momentum in pseudopotentials (lmaxx) =  4

     gamma-point specific algorithms are used
     Message from routine setup:
     using ibrav=0 with symmetry is DISCOURAGED, use correct ibrav instead

     Subspace diagonalization in iterative solution of the eigenvalue problem:
     a serial algorithm will be used

     Using Slab Decomposition

     bravais-lattice index     =            0
     lattice parameter (alat)  =       5.6793  a.u.
     unit-cell volume          =     249.2679 (a.u.)^3
     number of atoms/cell      =            4
     number of atomic types    =            3
     number of electrons       =        36.00
     number of Kohn-Sham states=           22
     kinetic-energy cutoff     =      30.0000  Ry
     charge density cutoff     =     240.0000  Ry
     scf convergence threshold =      1.0E-06
     mixing beta               =       0.7000
     number of iterations used =            8  plain     mixing
     Exchange-correlation= PBE
                           (   1   4   3   4   0   0   0)

     celldm(1)=   5.679328  celldm(2)=   0.000000  celldm(3)=   0.000000
     celldm(4)=   0.000000  celldm(5)=   0.000000  celldm(6)=   0.000000

     crystal axes: (cart. coord. in units of alat)
               a(1) = (   1.000000   0.000000   0.000000 )
               a(2) = (  -0.500000   0.866025   0.000000 )
               a(3) = (   0.000000   0.577351   1.571249 )

     reciprocal axes: (cart. coord. in units 2 pi/alat)
               b(1) = (  1.000000  0.577350 -0.212146 )
               b(2) = (  0.000000  1.154701 -0.424291 )
               b(3) = (  0.000000  0.000000  0.636436 )

     PseudoPot. # 1 for Ti read from file:
     /home/pragov/projects/rrg-bengioy-ad/pragov/crystal_structure_design/SSSP/ti_pbe_v1.4.uspp.F.UPF
     MD5 check sum: 88a00a6731bd790ddea75d31a80cb452
     Pseudo is Ultrasoft + core correction, Zval = 12.0
     Generated by new atomic code, or converted to UPF format
     Using radial grid of  851 points,  6 beta functions with:
                l(1) =   0
                l(2) =   0
                l(3) =   1
                l(4) =   1
                l(5) =   2
                l(6) =   2
     Q(r) pseudized with  6 coefficients,  rinner =    1.000   1.000   1.000
                                                       1.000   1.000

     PseudoPot. # 2 for Cr read from file:
     /home/pragov/projects/rrg-bengioy-ad/pragov/crystal_structure_design/SSSP/cr_pbe_v1.5.uspp.F.UPF
     MD5 check sum: 0d52af634a40206e4dee301ad30da4bf
     Pseudo is Ultrasoft + core correction, Zval = 14.0
     Generated by new atomic code, or converted to UPF format
     Using radial grid of  857 points,  6 beta functions with:
                l(1) =   0
                l(2) =   0
                l(3) =   1
                l(4) =   1
                l(5) =   2
                l(6) =   2
     Q(r) pseudized with  8 coefficients,  rinner =    0.950   0.950   0.950
                                                       0.950   0.950

     PseudoPot. # 3 for N  read from file:
     /home/pragov/projects/rrg-bengioy-ad/pragov/crystal_structure_design/SSSP/N.pbe-n-radius_5.UPF
     MD5 check sum: 16739722b17309cd8fe442a2ace49922
     Pseudo is Ultrasoft + core correction, Zval =  5.0
     Generated using "atomic" code by A. Dal Corso  v.5.1
     Using radial grid of 1085 points,  4 beta functions with:
                l(1) =   0
                l(2) =   0
                l(3) =   1
                l(4) =   1
     Q(r) pseudized with 0 coefficients

     atomic species   valence    mass     pseudopotential
        Ti            12.00    47.86700     Ti( 1.00)
        Cr            14.00    51.99610     Cr( 1.00)
        N              5.00    14.00700     N ( 1.00)

     12 Sym. Ops., with inversion, found

                                    s                        frac. trans.

      isym =  1     identity

 cryst.   s( 1) = (     1          0          0      )
                  (     0          1          0      )
                  (     0          0          1      )

 cart.    s( 1) = (  1.0000000  0.0000000  0.0000000 )
                  (  0.0000000  1.0000000  0.0000000 )
                  (  0.0000000  0.0000000  1.0000000 )

      isym =  2     180 deg rotation - cart. axis [1,0,0]

[...]

      isym =  3     120 deg rotation - cryst. axis [0,0,1]

[...]

      isym =  6     180 deg rotation - cryst. axis [1,1,0]

[...]

      isym =  7     inversion

[...]

      isym =  8     inv. 180 deg rotation - cart. axis [1,0,0]

[...]

      isym =  9     inv. 120 deg rotation - cryst. axis [0,0,1]

 cryst.   s( 9) = (     0         -1          0      )
                  (     1          1          0      )
                  (     1          1         -1      )

 cart.    s( 9) = (  0.5000000  0.8660254 -0.0000001 )
                  ( -0.8660254  0.5000000 -0.0000003 )
                  (  0.0000000  0.0000000 -1.0000000 )

[...]

 cryst.   s(10) = (     1          1          0      )
                  (    -1          0          0      )
                  (     0          1         -1      )

 cart.    s(10) = (  0.5000000 -0.8660254  0.0000001 )
                  (  0.8660254  0.5000000 -0.0000003 )
                  (  0.0000000  0.0000000 -1.0000000 )

[...]

      isym = 12     inv. 180 deg rotation - cryst. axis [1,1,0]

 cryst.   s(12) = (     0         -1          0      )
                  (    -1          0          0      )
                  (    -1         -1          1      )

 cart.    s(12) = (  0.5000000 -0.8660254  0.0000001 )
                  ( -0.8660254 -0.5000000  0.0000003 )
                  (  0.0000000  0.0000000  1.0000000 )

   Cartesian axes

     site n.     atom                  positions (alat units)
         1           Ti  tau(   1) = (   0.5000000   0.2886753   0.7856244  )
         2           Cr  tau(   2) = (   0.0000000   0.0000000   0.0000000  )
         3           N   tau(   3) = (  -0.0000005   0.5773506   0.3838121  )
         4           N   tau(   4) = (   0.5000005   0.8660253   1.1874368  )

   Crystallographic axes

     site n.     atom                  positions (cryst. coord.)
         1           Ti  tau(   1) = (  0.5000000  0.0000000  0.5000000  )
         2           Cr  tau(   2) = (  0.0000000  0.0000000  0.0000000  )
         3           N   tau(   3) = (  0.2519090  0.5038190  0.2442720  )
         4           N   tau(   4) = (  0.7480910  0.4961810  0.7557280  )

     number of k points=     1  Methfessel-Paxton smearing, width (Ry)=  0.0010
                       cart. coord. in units 2pi/alat
        k(    1) = (   0.0000000   0.0000000   0.0000000), wk =   2.0000000

                       cryst. coord.
        k(    1) = (   0.0000000   0.0000000   0.0000000), wk =   2.0000000

     Check: negative core charge=   -0.000013

     Initial potential from superposition of free atoms

     starting charge      33.9999, renormalised to      36.0000

     negative rho (up, down):  3.319E-03 0.000E+00
     Starting wfcs are   28 randomized atomic wfcs

     Self-consistent Calculation

     iteration #  1     ecut=    30.00 Ry     beta= 0.70
     Davidson diagonalization with overlap

     ethr =  1.00E-02,  avg # of iterations =  2.0

     negative rho (up, down):  4.290E-03 0.000E+00

     total energy              =    -326.76804664 Ry
     estimated scf accuracy    <      10.60067540 Ry

[...]

     total energy              =    -334.53535292 Ry
     estimated scf accuracy    <       0.00000131 Ry

     iteration # 40     ecut=    30.00 Ry     beta= 0.70
     Davidson diagonalization with overlap

     ethr =  3.63E-09,  avg # of iterations =  5.0

[...]

     End of self-consistent calculation

          k = 0.0000 0.0000 0.0000 (   338 PWs)   bands (ev):

   -54.9268 -40.4296 -26.5446 -26.0936 -26.0935 -16.9372 -16.4490 -16.4489
     0.4935   3.3117   9.3532  12.0561  12.0561  16.0416  16.0416  16.1419
    16.1419  16.2638  16.2670  17.2785  17.2785  18.5694

     occupation numbers
     1.0000   1.0000   1.0000   1.0000   1.0000   1.0000   1.0000   1.0000
     1.0000   1.0000   1.0000   1.0000   1.0000   1.0000   1.0000   1.0000
     1.0000   0.5989   0.4011  -0.0000  -0.0000  -0.0000

     the Fermi energy is    16.2654 ev

!    total energy              =    -334.53535253 Ry
     estimated scf accuracy    <       0.00000049 Ry
     smearing contrib. (-TS)   =      -0.00054100 Ry
     internal energy E=F+TS    =    -334.53481153 Ry

     The total energy is F=E-TS. E is the sum of the following terms:
     one-electron contribution =     -89.29318910 Ry
     hartree contribution      =      66.95435225 Ry
     xc contribution           =     -51.81947304 Ry
     ewald contribution        =    -260.37650164 Ry

     convergence has been achieved in  40 iterations

     negative rho (up, down):  2.889E-03 0.000E+00

     Forces acting on atoms (cartesian axes, Ry/au):

     atom    1 type  1   force =     0.00000000    0.00000000    0.00000000
     atom    2 type  2   force =     0.00000000    0.00000000   -0.00000000
     atom    3 type  3   force =     0.00000000    0.00000000   -0.00868511
     atom    4 type  3   force =     0.00000000    0.00000000    0.00868511
     The non-local contrib.  to forces
     atom    1 type  1   force =     0.00000000    0.00000000    0.00000000
     atom    2 type  2   force =     0.00000000    0.00000000    0.00000000
     atom    3 type  3   force =     0.00000000   -0.00000000   -0.03357486
     atom    4 type  3   force =    -0.00000000    0.00000000    0.03357486
     The ionic contribution  to forces
     atom    1 type  1   force =     0.00000000    0.00000000    0.00000000
     atom    2 type  2   force =    -0.00000000    0.00000000   -0.00000000
     atom    3 type  3   force =     0.00001385   -0.00000820    2.03352434
     atom    4 type  3   force =    -0.00001385    0.00000820   -2.03352434
     The local contribution  to forces
     atom    1 type  1   force =    -0.00003905   -0.00000721   -0.00012879
     atom    2 type  2   force =     0.00001800    0.00002536    0.00000959
     atom    3 type  3   force =     0.00000690    0.00001261   -2.00992548
     atom    4 type  3   force =     0.00001159   -0.00002189    2.01004355
     The core correction contribution to forces
     atom    1 type  1   force =     0.00000041    0.00000014   -0.00000158
     atom    2 type  2   force =     0.00000042   -0.00000027   -0.00000228
     atom    3 type  3   force =     0.00000009    0.00000013    0.00051302
     atom    4 type  3   force =    -0.00000001   -0.00000015   -0.00051270
     The Hubbard contrib.    to forces
     atom    1 type  1   force =     0.00000000    0.00000000    0.00000000
     atom    2 type  2   force =     0.00000000    0.00000000    0.00000000
     atom    3 type  3   force =     0.00000000    0.00000000    0.00000000
     atom    4 type  3   force =     0.00000000    0.00000000    0.00000000
     The SCF correction term to forces
     atom    1 type  1   force =     0.00003477    0.00000316    0.00009604
     atom    2 type  2   force =    -0.00001436   -0.00001486   -0.00005697
     atom    3 type  3   force =    -0.00001230   -0.00000005    0.00082217
     atom    4 type  3   force =     0.00000358    0.00000483   -0.00085195

     Total force =     0.012283     Total SCF correction =     0.001190

     Computing stress (Cartesian axis) and pressure

     negative rho (up, down):  2.889E-03 0.000E+00
          total   stress  (Ry/bohr**3)                   (kbar)     P=       79.80
   0.00442517   0.00000000  -0.00000000          650.97        0.00       -0.00
   0.00000000   0.00442517  -0.00000000            0.00      650.97       -0.00
  -0.00000000  -0.00000000  -0.00722296           -0.00       -0.00    -1062.53

     kinetic stress (kbar)  36263.39     -0.00      0.00
                               -0.00  36263.39     -0.01
                                0.00     -0.01  32530.78

     local   stress (kbar)   -725.31     -0.06     -0.19
                               -0.06   -725.36     -0.03
                               -0.19     -0.03   4970.57

     nonloc. stress (kbar)  11428.10     -0.00     -0.00
                                0.00  11428.10     -0.00
                                0.00     -0.00  11251.32

     hartree stress (kbar)  13851.46      0.01      0.04
                                0.01  13851.47      0.01
                                0.04      0.01  11810.08

     exc-cor stress (kbar)  -5300.45     -0.00     -0.00
                               -0.00  -5300.45     -0.00
                               -0.00     -0.00  -5324.50

     corecor stress (kbar)  -4128.12      0.00      0.00
                                0.00  -4128.12      0.00
                                0.00      0.00  -4116.14

     ewald   stress (kbar) -50738.07     -0.01      0.00
                               -0.01 -50738.09     -0.01
                                0.00     -0.01 -52184.64

     hubbard stress (kbar)      0.00      0.00      0.00
                                0.00      0.00      0.00
                                0.00      0.00      0.00

     DFT-D   stress (kbar)      0.00      0.00      0.00
                                0.00      0.00      0.00
                                0.00      0.00      0.00

     XDM     stress (kbar)      0.00      0.00      0.00
                                0.00      0.00      0.00
                                0.00      0.00      0.00

     dft-nl  stress (kbar)      0.00      0.00      0.00
                                0.00      0.00      0.00
                                0.00      0.00      0.00

     TS-vdW  stress (kbar)      0.00      0.00      0.00
                                0.00      0.00      0.00
                                0.00      0.00      0.00

[...]

                                0.00      0.00      0.00

     Writing all to output data dir new_calculations/myprefix.save/

     General routines

     Parallel routines

   This run was terminated on:  12:29: 7  21May2023

   JOB DONE.