     Program PWSCF v.7.0 starts on 20May2023 at 22:32:30

     Reading input from espresso_894.pwi
Warning: card &CELL ignored
Warning: card / ignored

     Current dimensions of program PWSCF are:
     Max number of different atomic species (ntypx) = 10
     Max number of k-points (npk) =  40000
     Max angular momentum in pseudopotentials (lmaxx) =  4

     gamma-point specific algorithms are used
     Message from routine setup:
     using ibrav=0 with symmetry is DISCOURAGED, use correct ibrav instead

     Subspace diagonalization in iterative solution of the eigenvalue problem:
     a serial algorithm will be used

     Using Slab Decomposition

     bravais-lattice index     =            0
     lattice parameter (alat)  =      26.9765  a.u.
     unit-cell volume          =    1879.1200 (a.u.)^3
     number of atoms/cell      =           12
     number of atomic types    =            3
     number of electrons       =       198.00
     number of Kohn-Sham states=          119
     kinetic-energy cutoff     =      30.0000  Ry
     charge density cutoff     =     240.0000  Ry
     scf convergence threshold =      1.0E-06
     mixing beta               =       0.7000
     number of iterations used =            8  plain     mixing
     Exchange-correlation= SLA  PW   PBE  PBE
                           (   1   4   3   4   0   0   0)

     celldm(1)=  26.976476  celldm(2)=   0.000000  celldm(3)=   0.000000
     celldm(4)=   0.000000  celldm(5)=   0.000000  celldm(6)=   0.000000

     crystal axes: (cart. coord. in units of alat)
               a(1) = (   1.000000   0.000000   0.000000 )
               a(2) = (  -0.951704   0.307018   0.000000 )
               a(3) = (   0.000000   0.000000   0.311771 )

     reciprocal axes: (cart. coord. in units 2 pi/alat)
               b(1) = (  1.000000  3.099836  0.000000 )
               b(2) = (  0.000000  3.257143  0.000000 )
               b(3) = (  0.000000  0.000000  3.207482 )

     PseudoPot. # 1 for Lu read from file:
     /home/pragov/projects/rrg-bengioy-ad/pragov/crystal_structure_design/SSSP/Lu.GGA-PBE-paw-v1.0.UPF
     MD5 check sum: 9ceca61ee0c17e9380a83635bfffa61d
     Pseudo is Projector augmented-wave + core cor, Zval = 25.0
     Generated using ATOMPAW code
     Shape of augmentation charge: BESSEL
     Using radial grid of 1118 points,  8 beta functions with:
                l(1) =   0
                l(2) =   0
                l(3) =   1
                l(4) =   1
                l(5) =   2
                l(6) =   2
                l(7) =   3
                l(8) =   3
     Q(r) pseudized with 0 coefficients

     PseudoPot. # 2 for Ni read from file:
     /home/pragov/projects/rrg-bengioy-ad/pragov/crystal_structure_design/SSSP/ni_pbe_v1.4.uspp.F.UPF
     MD5 check sum: 1ee80287db30b12d2bc1f57a5b5d6409
     Pseudo is Ultrasoft + core correction, Zval = 18.0
     Generated by new atomic code, or converted to UPF format
     Using radial grid of  865 points,  6 beta functions with:
                l(1) =   0
                l(2) =   0
                l(3) =   1
                l(4) =   1
                l(5) =   2
                l(6) =   2
     Q(r) pseudized with 10 coefficients,  rinner =    0.980   0.980   0.980
                                                       0.980   0.980

     PseudoPot. # 3 for Sn read from file:
     /home/pragov/projects/rrg-bengioy-ad/pragov/crystal_structure_design/SSSP/Sn_pbe_v1.uspp.F.UPF
     MD5 check sum: 4cf58ce39ec5d5d420df3dd08604eb00
     Pseudo is Ultrasoft + core correction, Zval = 14.0
     Generated by new atomic code, or converted to UPF format
     Using radial grid of  891 points,  6 beta functions with:
                l(1) =   0
                l(2) =   0
                l(3) =   1
                l(4) =   1
                l(5) =   2
                l(6) =   2
     Q(r) pseudized with  6 coefficients,  rinner =    1.200   1.200   1.200
                                                       1.200   1.200

     atomic species   valence    mass     pseudopotential
        Lu            25.00   174.96680     Lu( 1.00)
        Ni            18.00    58.69340     Ni( 1.00)
        Sn            14.00   118.71000     Sn( 1.00)

      4 Sym. Ops., with inversion, found

                                    s                        frac. trans.

      isym =  1     identity

 cryst.   s( 1) = (     1          0          0      )
                  (     0          1          0      )
                  (     0          0          1      )

 cart.    s( 1) = (  1.0000000  0.0000000  0.0000000 )
                  (  0.0000000  1.0000000  0.0000000 )
                  (  0.0000000  0.0000000  1.0000000 )

      isym =  2     180 deg rotation - cart. axis [0,0,1]

[...]

      isym =  3     inversion

[...]

      isym =  4     inv. 180 deg rotation - cart. axis [0,0,1]

 cryst.   s( 4) = (     1          0          0      )
                  (     0          1          0      )
                  (     0          0         -1      )

 cart.    s( 4) = (  1.0000000  0.0000000  0.0000000 )
                  (  0.0000000  1.0000000  0.0000000 )
                  (  0.0000000  0.0000000 -1.0000000 )

   Cartesian axes

     site n.     atom                  positions (alat units)
         1           Lu  tau(   1) = (   0.4034305   0.0938448   0.0000000  )
         2           Lu  tau(   2) = (  -0.3551344   0.2131727   0.0000000  )
         3           Ni  tau(   3) = (   0.8970671   0.0161921   0.1558855  )
         4           Ni  tau(   4) = (  -0.8487710   0.2908254   0.1558855  )
         5           Sn  tau(   5) = (   0.0241481   0.1535088   0.1558855  )
         6           Sn  tau(   6) = (   0.0000000   0.0000000   0.0000000  )
         7           Sn  tau(   7) = (   0.5836001   0.0655028   0.1558855  )
         8           Sn  tau(   8) = (  -0.5353039   0.2415147   0.1558855  )
         9           Sn  tau(   9) = (  -0.1923076   0.1875588   0.1558855  )
        10           Sn  tau(  10) = (   0.2406037   0.1194587   0.1558855  )
        11           Sn  tau(  11) = (   0.7840010   0.0339782   0.0000000  )
        12           Sn  tau(  12) = (  -0.7357049   0.2730393   0.0000000  )

   Crystallographic axes

     site n.     atom                  positions (cryst. coord.)
         1           Lu  tau(   1) = (  0.6943340  0.3056660  0.0000000  )
         2           Lu  tau(   2) = (  0.3056660  0.6943340  0.0000000  )
         3           Ni  tau(   3) = (  0.9472600  0.0527400  0.5000000  )
         4           Ni  tau(   4) = (  0.0527400  0.9472600  0.5000000  )
         5           Sn  tau(   5) = (  0.5000000  0.5000000  0.5000000  )
         6           Sn  tau(   6) = (  0.0000000  0.0000000  0.0000000  )
         7           Sn  tau(   7) = (  0.7866480  0.2133520  0.5000000  )
         8           Sn  tau(   8) = (  0.2133520  0.7866480  0.5000000  )
         9           Sn  tau(   9) = (  0.3890940  0.6109060  0.5000000  )
        10           Sn  tau(  10) = (  0.6109060  0.3890940  0.5000000  )
        11           Sn  tau(  11) = (  0.8893280  0.1106720  0.0000000  )
        12           Sn  tau(  12) = (  0.1106720  0.8893280  0.0000000  )

     number of k points=     1  Methfessel-Paxton smearing, width (Ry)=  0.0010
                       cart. coord. in units 2pi/alat
        k(    1) = (   0.0000000   0.0000000   0.0000000), wk =   2.0000000

                       cryst. coord.
        k(    1) = (   0.0000000   0.0000000   0.0000000), wk =   2.0000000

     Check: negative core charge=   -0.000002

     Initial potential from superposition of free atoms

     starting charge     185.9921, renormalised to     198.0000
     Starting wfcs are  162 randomized atomic wfcs
     Checking if some PAW data can be deallocated...

     Self-consistent Calculation

     iteration #  1     ecut=    30.00 Ry     beta= 0.70
     Davidson diagonalization with overlap

     ethr =  1.00E-02,  avg # of iterations =  8.0

     total energy              =   -1346.16977417 Ry
     estimated scf accuracy    <    3135.20166310 Ry

[...]

     negative rho (up, down):  7.634E-03 0.000E+00

[...]

     total energy              =   -4151.66262706 Ry
     estimated scf accuracy    <       0.00000106 Ry

     iteration # 46     ecut=    30.00 Ry     beta= 0.70
     Davidson diagonalization with overlap

     ethr =  5.34E-10,  avg # of iterations =  2.0

     End of self-consistent calculation

          k = 0.0000 0.0000 0.0000 (  2628 PWs)   bands (ev):

   -90.2556 -90.2539 -50.8126 -50.8044 -50.5540 -50.5475 -50.5225 -50.5179
   -43.3415 -43.3395 -14.1351 -14.1124 -13.9905 -13.9822 -13.9029 -13.8477
    -8.4611  -8.4170  -8.3987  -8.3329  -8.3230  -8.2735  -8.2261  -8.2184
    -8.2001  -8.1946  -8.1392  -8.1348  -8.1314  -8.1149  -8.0767  -8.0659
    -8.0600  -8.0533  -8.0528  -8.0243  -8.0059  -7.9948  -7.9732  -7.9720
    -7.9508  -7.9422  -7.9397  -7.9379  -7.9346  -7.9069  -7.8189  -7.8162
    -7.8121  -7.8090  -7.8076  -7.7771  -7.7459  -7.7455  -7.6159  -7.6155
     1.8575   2.9767   3.2946   4.7796   6.1696   7.3934   7.9959   8.0021
     8.0049   8.0091   8.0146   8.0313   8.0392   8.0409   8.0415   8.0543
     8.0772   8.0794   8.0865   8.0957   8.5494   8.8912   9.5240   9.5320
     9.9798  10.2641  10.3674  10.3738  10.3898  10.4149  10.9515  11.0237
    11.3203  11.3899  11.6678  11.8367  12.0163  12.0433  12.1284  12.5649
    12.8353  13.0290  13.1932  13.1997  13.4012  14.1944  14.8541  15.0899
    15.2888  15.3809  15.4425  15.6282  15.7535  15.9031  16.1327  16.3182
    16.3203  16.5586  16.6266  16.9783  17.4771  17.5397  17.7936

     occupation numbers
     1.0000   1.0000   1.0000   1.0000   1.0000   1.0000   1.0000   1.0000
     1.0000   1.0000   1.0000   1.0000   1.0000   1.0000   1.0000   1.0000
     1.0000   1.0000   1.0000   1.0000   1.0000   1.0000   1.0000   1.0000
     1.0000   1.0000   1.0000   1.0000   1.0000   1.0000   1.0000   1.0000
     1.0000   1.0000   1.0000   1.0000   1.0000   1.0000   1.0000   1.0000
     1.0000   1.0000   1.0000   1.0000   1.0000   1.0000   1.0000   1.0000
     1.0000   1.0000   1.0000   1.0000   1.0000   1.0000   1.0000   1.0000
     1.0000   1.0000   1.0000   1.0000   1.0000   1.0000   1.0000   1.0000
     1.0000   1.0000   1.0000   1.0000   1.0000   1.0000   1.0000   1.0000
     1.0000   1.0000   1.0000   1.0000   1.0000   1.0000   1.0000   1.0000
     1.0000   1.0000   1.0000   1.0000   1.0000   1.0000   1.0000   1.0000
     1.0000   1.0000   1.0000   1.0000   1.0000   1.0000   1.0000   1.0000
     1.0000   1.0000   0.6984   0.3016  -0.0000  -0.0000  -0.0000  -0.0000
    -0.0000  -0.0000  -0.0000  -0.0000  -0.0000  -0.0000  -0.0000  -0.0000
    -0.0000  -0.0000  -0.0000  -0.0000  -0.0000  -0.0000  -0.0000

     the Fermi energy is    13.1964 ev

!    total energy              =   -4151.66262708 Ry
     estimated scf accuracy    <       0.00000019 Ry
     smearing contrib. (-TS)   =      -0.00046972 Ry
     internal energy E=F+TS    =   -4151.66215736 Ry

     The total energy is F=E-TS. E is the sum of the following terms:
     one-electron contribution =   -1870.02089683 Ry
     hartree contribution      =     991.21436826 Ry
     xc contribution           =    -535.31734020 Ry
     ewald contribution        =   -1755.77062384 Ry
     one-center paw contrib.   =    -981.76766476 Ry
      -> PAW hartree energy AE =     982.65559376 Ry
      -> PAW hartree energy PS =    -845.78644030 Ry
      -> PAW xc energy AE      =   -1198.67201300 Ry
      -> PAW xc energy PS      =      80.03519477 Ry
      -> total E_H with PAW    =    1128.08352173 Ry
      -> total E_XC with PAW   =   -1653.95415843 Ry

     convergence has been achieved in  46 iterations

     Forces acting on atoms (cartesian axes, Ry/au):

     atom    1 type  1   force =    -0.02483677    0.00390653    0.00000000
     atom    2 type  1   force =     0.02483677   -0.00390653    0.00000000
     atom    3 type  2   force =    -0.02049351    0.00322352    0.00000000
     atom    4 type  2   force =     0.02049351   -0.00322352    0.00000000
     atom    5 type  3   force =     0.00000000    0.00000000    0.00000000
     atom    6 type  3   force =     0.00000000    0.00000000    0.00000000
     atom    7 type  3   force =    -0.10629189    0.01672039    0.00000000
     atom    8 type  3   force =     0.10629189   -0.01672039    0.00000000
     atom    9 type  3   force =    -0.04949932    0.00778705    0.00000000
     atom   10 type  3   force =     0.04949932   -0.00778705    0.00000000
     atom   11 type  3   force =    -0.02646269    0.00416266    0.00000000
     atom   12 type  3   force =     0.02646269   -0.00416266    0.00000000
     The non-local contrib.  to forces
     atom    1 type  1   force =     0.11579038   -0.01821689    0.00000000
     atom    2 type  1   force =    -0.11579038    0.01821689    0.00000000
     atom    3 type  2   force =     0.18346973   -0.02886096    0.00000000
     atom    4 type  2   force =    -0.18346973    0.02886096    0.00000000
     atom    5 type  3   force =     0.00000000    0.00000000    0.00000000
     atom    6 type  3   force =     0.00000000    0.00000000    0.00000000
     atom    7 type  3   force =     0.02067867   -0.00325318    0.00000000
     atom    8 type  3   force =    -0.02067867    0.00325318    0.00000000
     atom    9 type  3   force =     0.18021386   -0.02834861    0.00000000
     atom   10 type  3   force =    -0.18021386    0.02834861    0.00000000
     atom   11 type  3   force =     0.16952583   -0.02666776    0.00000000
     atom   12 type  3   force =    -0.16952583    0.02666776    0.00000000
     The ionic contribution  to forces
     atom    1 type  1   force =     0.55748301   -0.08769621   -0.00000000
     atom    2 type  1   force =    -0.55748301    0.08769622   -0.00000000
     atom    3 type  2   force =   -15.28572878    2.40455859   -0.00000000
     atom    4 type  2   force =    15.28572878   -2.40455859   -0.00000000
     atom    5 type  3   force =    -0.00000000   -0.00000000   -0.00000000
     atom    6 type  3   force =    -0.00000000    0.00000000   -0.00000000
     atom    7 type  3   force =     3.09549994   -0.48694512   -0.00000000
     atom    8 type  3   force =    -3.09549994    0.48694512   -0.00000000
     atom    9 type  3   force =    -8.37433473    1.31734501   -0.00000000
     atom   10 type  3   force =     8.37433473   -1.31734501   -0.00000000
     atom   11 type  3   force =    -8.35045936    1.31358924   -0.00000000
     atom   12 type  3   force =     8.35045936   -1.31358924   -0.00000000
     The local contribution  to forces
     atom    1 type  1   force =    -0.69798739    0.10979774   -0.00000518
     atom    2 type  1   force =     0.69783065   -0.10978029   -0.00000172
     atom    3 type  2   force =    15.08258518   -2.37260464    0.00000085
     atom    4 type  2   force =   -15.08228331    2.37255331    0.00000097
     atom    5 type  3   force =     0.00000394    0.00000120    0.00000042
     atom    6 type  3   force =     0.00004736   -0.00000880    0.00000017
     atom    7 type  3   force =    -3.21668855    0.50600925    0.00000061
     atom    8 type  3   force =     3.21643319   -0.50596890   -0.00000136
     atom    9 type  3   force =     8.14739709   -1.28164649    0.00000058
     atom   10 type  3   force =    -8.14734541    1.28163798   -0.00000011
     atom   11 type  3   force =     8.15781691   -1.28328379   -0.00000040
     atom   12 type  3   force =    -8.15775009    1.28327566   -0.00000063
     The core correction contribution to forces
     atom    1 type  1   force =    -0.00000504    0.00000079   -0.00000000
     atom    2 type  1   force =     0.00000504   -0.00000079    0.00000000
     atom    3 type  2   force =    -0.00075371    0.00011858    0.00000001
     atom    4 type  2   force =     0.00075390   -0.00011860   -0.00000000
     atom    5 type  3   force =    -0.00000124    0.00000025    0.00000005
     atom    6 type  3   force =     0.00000050   -0.00000013   -0.00000001
     atom    7 type  3   force =    -0.00589360    0.00092711    0.00000005
     atom    8 type  3   force =     0.00589018   -0.00092656   -0.00000001
     atom    9 type  3   force =    -0.00298447    0.00046945    0.00000002
     atom   10 type  3   force =     0.00298229   -0.00046912    0.00000004
     atom   11 type  3   force =    -0.00368603    0.00057990   -0.00000002
     atom   12 type  3   force =     0.00368531   -0.00057967   -0.00000004
     The Hubbard contrib.    to forces
     atom    1 type  1   force =     0.00000000    0.00000000    0.00000000
     atom    2 type  1   force =     0.00000000    0.00000000    0.00000000
     atom    3 type  2   force =     0.00000000    0.00000000    0.00000000
     atom    4 type  2   force =     0.00000000    0.00000000    0.00000000
     atom    5 type  3   force =     0.00000000    0.00000000    0.00000000
     atom    6 type  3   force =     0.00000000    0.00000000    0.00000000
     atom    7 type  3   force =     0.00000000    0.00000000    0.00000000
     atom    8 type  3   force =     0.00000000    0.00000000    0.00000000
     atom    9 type  3   force =     0.00000000    0.00000000    0.00000000
     atom   10 type  3   force =     0.00000000    0.00000000    0.00000000
     atom   11 type  3   force =     0.00000000    0.00000000    0.00000000
     atom   12 type  3   force =     0.00000000    0.00000000    0.00000000
     The SCF correction term to forces
     atom    1 type  1   force =    -0.00012887    0.00002230    0.00000192
     atom    2 type  1   force =     0.00026332   -0.00003735    0.00000021
     atom    3 type  2   force =    -0.00008295    0.00001530    0.00000048
     atom    4 type  2   force =    -0.00025314    0.00004274   -0.00000101
     atom    5 type  3   force =    -0.00005855    0.00000725    0.00000023
     atom    6 type  3   force =    -0.00008014    0.00001383    0.00000031
     atom    7 type  3   force =     0.00010771   -0.00001701   -0.00000034
     atom    8 type  3   force =     0.00014319   -0.00002257    0.00000143
     atom    9 type  3   force =     0.00023477   -0.00003634   -0.00000054
     atom   10 type  3   force =    -0.00023257    0.00003646    0.00000052
     atom   11 type  3   force =     0.00036672   -0.00005916   -0.00000003
     atom   12 type  3   force =    -0.00037931    0.00005859   -0.00000023

     Total force =     0.178149     Total SCF correction =     0.000775

     Computing stress (Cartesian axis) and pressure

          total   stress  (Ry/bohr**3)                   (kbar)     P=      -41.26
  -0.00110022   0.00024081   0.00000000         -161.85       35.42        0.00
   0.00024081   0.00039271   0.00000000           35.42       57.77        0.00
   0.00000000   0.00000000  -0.00013396            0.00        0.00      -19.71

     kinetic stress (kbar)  16537.60     21.21      0.00
                               21.21  16669.11      0.00
                                0.00      0.00  16597.53

     local   stress (kbar)  -3271.23    842.39     -0.01
                              842.39   1951.31     -0.08
                               -0.01     -0.08   1775.82

     nonloc. stress (kbar)  12214.84     18.08      0.00
                               18.08  12326.96      0.00
                                0.00      0.00  12337.03

     hartree stress (kbar)  27559.32   -421.66      0.01
                             -421.66  24945.14      0.03
                                0.01      0.03  25091.79

     exc-cor stress (kbar)   9175.20     -0.10     -0.00
                               -0.10   9174.56     -0.00
                               -0.00     -0.00   9173.59

     corecor stress (kbar) -18309.07     -0.62      0.00
                               -0.62 -18312.92      0.00
                                0.00      0.00 -18311.56

     ewald   stress (kbar) -44068.51   -423.87     -0.00
                             -423.87 -46696.38     -0.00
                               -0.00     -0.00 -46683.90

     hubbard stress (kbar)      0.00      0.00      0.00
                                0.00      0.00      0.00
                                0.00      0.00      0.00

     DFT-D   stress (kbar)      0.00      0.00      0.00
                                0.00      0.00      0.00
                                0.00      0.00      0.00

     XDM     stress (kbar)      0.00      0.00      0.00
                                0.00      0.00      0.00
                                0.00      0.00      0.00

     dft-nl  stress (kbar)      0.00      0.00      0.00
                                0.00      0.00      0.00
                                0.00      0.00      0.00

     TS-vdW  stress (kbar)      0.00      0.00      0.00
                                0.00      0.00      0.00
                                0.00      0.00      0.00

[...]

                                0.00      0.00      0.00

     Writing all to output data dir new_calculations/myprefix.save/

     General routines

     Parallel routines

     PAW routines

   This run was terminated on:  22:36: 1  20May2023

   JOB DONE.