     Program PWSCF v.7.0 starts on 21May2023 at  7:20:26

     Reading input from espresso_11940.pwi
Warning: card &CELL ignored
Warning: card / ignored

     Current dimensions of program PWSCF are:
     Max number of different atomic species (ntypx) = 10
     Max number of k-points (npk) =  40000
     Max angular momentum in pseudopotentials (lmaxx) =  4
     file Ga.pbe-dn-kjpaw_psl.1.0.0.UPF: wavefunction(s)  4S renormalized

     gamma-point specific algorithms are used
     Message from routine setup:
     using ibrav=0 with symmetry is DISCOURAGED, use correct ibrav instead

     Subspace diagonalization in iterative solution of the eigenvalue problem:
     a serial algorithm will be used

     Using Slab Decomposition

     bravais-lattice index     =            0
     lattice parameter (alat)  =       7.5539  a.u.
     unit-cell volume          =     599.0812 (a.u.)^3
     number of atoms/cell      =            5
     number of atomic types    =            3
     number of electrons       =        93.00
     number of Kohn-Sham states=           56
     kinetic-energy cutoff     =      30.0000  Ry
     charge density cutoff     =     240.0000  Ry
     scf convergence threshold =      1.0E-06
     mixing beta               =       0.7000
     number of iterations used =            8  plain     mixing
     Exchange-correlation= SLA  PW   PBE  PBE
                           (   1   4   3   4   0   0   0)

     celldm(1)=   7.553893  celldm(2)=   0.000000  celldm(3)=   0.000000
     celldm(4)=   0.000000  celldm(5)=   0.000000  celldm(6)=   0.000000

     crystal axes: (cart. coord. in units of alat)
               a(1) = (   1.000000   0.000000   0.000000 )
               a(2) = (   0.000000   1.352936   0.000000 )
               a(3) = (  -0.500000  -0.676468   1.027297 )

     reciprocal axes: (cart. coord. in units 2 pi/alat)
               b(1) = (  1.000000  0.000000  0.486714 )
               b(2) = (  0.000000  0.739133  0.486714 )
               b(3) = (  0.000000  0.000000  0.973428 )

     PseudoPot. # 1 for Tm read from file:
     /home/pragov/projects/rrg-bengioy-ad/pragov/crystal_structure_design/SSSP/Tm.GGA-PBE-paw-v1.0.UPF
     MD5 check sum: e502ddec747d736c64e0ed72ddfd7d4c
     Pseudo is Projector augmented-wave + core cor, Zval = 23.0
     Generated using ATOMPAW code
     Shape of augmentation charge: BESSEL
     Using radial grid of 1116 points,  8 beta functions with:
                l(1) =   0
                l(2) =   0
                l(3) =   1
                l(4) =   1
                l(5) =   2
                l(6) =   2
                l(7) =   3
                l(8) =   3
     Q(r) pseudized with 0 coefficients

     PseudoPot. # 2 for Ga read from file:
     /home/pragov/projects/rrg-bengioy-ad/pragov/crystal_structure_design/SSSP/Ga.pbe-dn-kjpaw_psl.1.0.0.UPF
     MD5 check sum: a27b4342b1af7e5f338de752e9ed7044
     Pseudo is Projector augmented-wave + core cor, Zval = 13.0
     Generated using "atomic" code by A. Dal Corso  v.5.1
     Shape of augmentation charge: PSQ
     Using radial grid of 1205 points,  6 beta functions with:
                l(1) =   0
                l(2) =   0
                l(3) =   1
                l(4) =   1
                l(5) =   2
                l(6) =   2
     Q(r) pseudized with 0 coefficients

     PseudoPot. # 3 for Co read from file:
     /home/pragov/projects/rrg-bengioy-ad/pragov/crystal_structure_design/SSSP/Co_pbe_v1.2.uspp.F.UPF
     MD5 check sum: 5f91765df6ddd3222702df6e7b74a16d
     Pseudo is Ultrasoft + core correction, Zval = 17.0
     Generated by new atomic code, or converted to UPF format
     Using radial grid of  863 points,  6 beta functions with:
                l(1) =   0
                l(2) =   0
                l(3) =   1
                l(4) =   1
                l(5) =   2
                l(6) =   2
     Q(r) pseudized with  8 coefficients,  rinner =    1.200   1.200   1.200
                                                       1.200   1.200

     atomic species   valence    mass     pseudopotential
        Tm            23.00   168.93422     Tm( 1.00)
        Ga            13.00    69.72300     Ga( 1.00)
        Co            17.00    58.93319     Co( 1.00)

      8 Sym. Ops., with inversion, found

                                    s                        frac. trans.

      isym =  1     identity

 cryst.   s( 1) = (     1          0          0      )
                  (     0          1          0      )
                  (     0          0          1      )

 cart.    s( 1) = (  1.0000000  0.0000000 -0.0000000 )
                  (  0.0000000  1.0000000 -0.0000000 )
                  (  0.0000000  0.0000000  1.0000000 )

      isym =  2     180 deg rotation - cart. axis [0,0,1]

[...]

      isym =  4     180 deg rotation - cart. axis [1,0,0]

[...]

      isym =  5     inversion

[...]

      isym =  6     inv. 180 deg rotation - cart. axis [0,0,1]

[...]

      isym =  8     inv. 180 deg rotation - cart. axis [1,0,0]

 cryst.   s( 8) = (    -1          0          0      )
                  (     0          1          0      )
                  (     1          0          1      )

 cart.    s( 8) = ( -1.0000000  0.0000000 -0.0000000 )
                  (  0.0000000  1.0000000 -0.0000000 )
                  (  0.0000000  0.0000000  1.0000000 )

   Cartesian axes

     site n.     atom                  positions (alat units)
         1           Tm  tau(   1) = (   0.5000000  -0.0000000   0.6044964  )
         2           Tm  tau(   2) = (   0.0000000   0.6764680   0.4228005  )
         3           Ga  tau(   3) = (   0.0000000   0.0000000   0.0000000  )
         4           Co  tau(   4) = (   0.5000000   0.3826590   0.0000000  )
         5           Co  tau(   5) = (   0.5000000   0.9702770   0.0000000  )

   Crystallographic axes

     site n.     atom                  positions (cryst. coord.)
         1           Tm  tau(   1) = (  0.7942170  0.2942170  0.5884340  )
         2           Tm  tau(   2) = (  0.2057830  0.7057830  0.4115660  )
         3           Ga  tau(   3) = (  0.0000000  0.0000000  0.0000000  )
         4           Co  tau(   4) = (  0.5000000  0.2828360  0.0000000  )
         5           Co  tau(   5) = (  0.5000000  0.7171640  0.0000000  )

     number of k points=     1  Methfessel-Paxton smearing, width (Ry)=  0.0010
                       cart. coord. in units 2pi/alat
        k(    1) = (   0.0000000   0.0000000   0.0000000), wk =   2.0000000

                       cryst. coord.
        k(    1) = (   0.0000000   0.0000000   0.0000000), wk =   2.0000000

     Check: negative core charge=   -0.000012

     Initial potential from superposition of free atoms

     starting charge      90.9883, renormalised to      93.0000
     Starting wfcs are   99 randomized atomic wfcs
     Checking if some PAW data can be deallocated...

     Self-consistent Calculation

     iteration #  1     ecut=    30.00 Ry     beta= 0.70
     Davidson diagonalization with overlap

     ethr =  1.00E-02,  avg # of iterations =  2.0

     total energy              =   -2743.00813060 Ry
     estimated scf accuracy    <      20.01952915 Ry

[...]

     ethr =  3.30E-06,  avg # of iterations =  1.0
     Minimization algorithm failed to find Fermi energy: reverting to bisection
     Possible cause: smearing is larger than the electronic band-gap.

[...]

     total energy              =   -2767.27443871 Ry
     estimated scf accuracy    <       0.00000383 Ry

     iteration # 65     ecut=    30.00 Ry     beta= 0.70
     Davidson diagonalization with overlap

     ethr =  4.12E-09,  avg # of iterations =  1.0

     End of self-consistent calculation

          k = 0.0000 0.0000 0.0000 (   836 PWs)   bands (ev):

   -78.4569 -78.4364 -42.1865 -42.0242 -41.6270 -41.6003 -41.5115 -41.4918
   -33.9481 -33.8997  -7.5734  -7.3249  -7.2272  -7.1367  -7.1303  -7.0323
     1.4939   1.5040   1.5627   1.5644   1.5803   7.3625  12.4476  12.8837
    13.3065  13.4857  13.6324  14.7707  14.8724  14.8909  15.1863  15.1928
    15.2860  15.4015  15.4137  15.4155  15.5081  15.5544  15.5920  15.6265
    15.6722  15.7029  15.7178  15.7548  15.8531  15.8535  15.8561  15.8664
    16.1647  16.7109  16.7296  17.3397  17.6254  18.5094  20.8598  20.9246

     occupation numbers
     1.0000   1.0000   1.0000   1.0000   1.0000   1.0000   1.0000   1.0000
     1.0000   1.0000   1.0000   1.0000   1.0000   1.0000   1.0000   1.0000
     1.0000   1.0000   1.0000   1.0000   1.0000   1.0000   1.0000   1.0000
     1.0000   1.0000   1.0000   1.0000   1.0000   1.0000   1.0000   1.0000
     1.0000   1.0000   1.0000   1.0000   1.0000   1.0000   1.0000   1.0000
     1.0000   1.0000   1.0000   1.0000   0.8496   0.8320   0.6978   0.1206
    -0.0000  -0.0000  -0.0000  -0.0000  -0.0000  -0.0000  -0.0000  -0.0000

     the Fermi energy is    15.8594 ev

!    total energy              =   -2767.27443845 Ry
     estimated scf accuracy    <       0.00000026 Ry
     smearing contrib. (-TS)   =      -0.00061051 Ry
     internal energy E=F+TS    =   -2767.27382794 Ry

     The total energy is F=E-TS. E is the sum of the following terms:
     one-electron contribution =   -1003.30116963 Ry
     hartree contribution      =     523.74691140 Ry
     xc contribution           =    -174.86517332 Ry
     ewald contribution        =   -1026.93915143 Ry
     one-center paw contrib.   =   -1085.91524497 Ry
      -> PAW hartree energy AE =     934.46996755 Ry
      -> PAW hartree energy PS =    -837.52039640 Ry
      -> PAW xc energy AE      =   -1289.83859870 Ry
      -> PAW xc energy PS      =     106.97378258 Ry
      -> total E_H with PAW    =     620.69648255 Ry
      -> total E_XC with PAW   =   -1357.72998943 Ry

     convergence has been achieved in  65 iterations

     Forces acting on atoms (cartesian axes, Ry/au):

     atom    1 type  1   force =     0.00000000    0.00000000   -0.03717641
     atom    2 type  1   force =     0.00000000    0.00000000    0.03717641
     atom    3 type  2   force =     0.00000000    0.00000000    0.00000000
     atom    4 type  3   force =     0.00000000    0.00781952    0.00000000
     atom    5 type  3   force =     0.00000000   -0.00781952   -0.00000000
     The non-local contrib.  to forces
     atom    1 type  1   force =     0.00000000    0.00000000    0.31025800
     atom    2 type  1   force =     0.00000000    0.00000000   -0.31025800
     atom    3 type  2   force =     0.00000000    0.00000000    0.00000000
     atom    4 type  3   force =     0.00000000   -0.41528902   -0.00000000
     atom    5 type  3   force =     0.00000000    0.41528902    0.00000000
     The ionic contribution  to forces
     atom    1 type  1   force =    -0.00000000    0.00000000   -5.81870903
     atom    2 type  1   force =     0.00000000   -0.00000000    5.81870903
     atom    3 type  2   force =     0.00000000    0.00000000    0.00000000
     atom    4 type  3   force =     0.00000000   -6.88205956    0.00000000
     atom    5 type  3   force =     0.00000000    6.88205956   -0.00000000
     The local contribution  to forces
     atom    1 type  1   force =    -0.00016316   -0.00029359    5.47115408
     atom    2 type  1   force =    -0.00012279    0.00020011   -5.47124621
     atom    3 type  2   force =     0.00062889   -0.00000856    0.00003463
     atom    4 type  3   force =     0.00020655    7.30321222   -0.00005116
     atom    5 type  3   force =     0.00019859   -7.30315022    0.00002370
     The core correction contribution to forces
     atom    1 type  1   force =    -0.00000000   -0.00000000   -0.00000516
     atom    2 type  1   force =    -0.00000000    0.00000000    0.00000516
     atom    3 type  2   force =     0.00001100   -0.00000019    0.00000019
     atom    4 type  3   force =    -0.00000269    0.00213297    0.00000010
     atom    5 type  3   force =    -0.00000275   -0.00213175   -0.00000032
     The Hubbard contrib.    to forces
     atom    1 type  1   force =     0.00000000    0.00000000    0.00000000
     atom    2 type  1   force =     0.00000000    0.00000000    0.00000000
     atom    3 type  2   force =     0.00000000    0.00000000    0.00000000
     atom    4 type  3   force =     0.00000000    0.00000000    0.00000000
     atom    5 type  3   force =     0.00000000    0.00000000    0.00000000
     The SCF correction term to forces
     atom    1 type  1   force =     0.00018251    0.00028568    0.00011449
     atom    2 type  1   force =     0.00014094   -0.00019530   -0.00004480
     atom    3 type  2   force =    -0.00051533    0.00001639   -0.00003356
     atom    4 type  3   force =    -0.00021013   -0.00016902    0.00005132
     atom    5 type  3   force =    -0.00020417    0.00012193   -0.00002559

     Total force =     0.053726     Total SCF correction =     0.000767

     Computing stress (Cartesian axis) and pressure

          total   stress  (Ry/bohr**3)                   (kbar)     P=     -203.65
  -0.00087629   0.00000000  -0.00000000         -128.91        0.00       -0.00
   0.00000000  -0.00164671  -0.00000000            0.00     -242.24       -0.00
  -0.00000000  -0.00000000  -0.00163008           -0.00       -0.00     -239.79

     kinetic stress (kbar)  24097.69      0.00      0.00
                                0.00  23330.43      0.00
                                0.00      0.00  23872.13

     local   stress (kbar)  10622.59      0.00     -0.01
                                0.00   6501.26     -0.02
                               -0.01     -0.02  13002.97

     nonloc. stress (kbar)  19804.81      0.00      0.00
                                0.00  19427.63      0.00
                                0.00      0.00  19755.80

     hartree stress (kbar)  42749.07     -0.00      0.00
                               -0.00  44495.57      0.01
                                0.00      0.01  41362.01

     exc-cor stress (kbar)  -7811.07     -0.00      0.00
                               -0.00  -7826.04      0.00
                                0.00      0.00  -7818.41

     corecor stress (kbar)  -4672.87      0.00     -0.00
                                0.00  -4667.44      0.00
                               -0.00      0.00  -4670.98

     ewald   stress (kbar) -84919.12     -0.00      0.00
                               -0.00 -81503.65      0.00
                                0.00      0.00 -85743.32

     hubbard stress (kbar)      0.00      0.00      0.00
                                0.00      0.00      0.00
                                0.00      0.00      0.00

     DFT-D   stress (kbar)      0.00      0.00      0.00
                                0.00      0.00      0.00
                                0.00      0.00      0.00

     XDM     stress (kbar)      0.00      0.00      0.00
                                0.00      0.00      0.00
                                0.00      0.00      0.00

     dft-nl  stress (kbar)      0.00      0.00      0.00
                                0.00      0.00      0.00
                                0.00      0.00      0.00

     TS-vdW  stress (kbar)      0.00      0.00      0.00
                                0.00      0.00      0.00
                                0.00      0.00      0.00

[...]

                                0.00      0.00      0.00

     Writing all to output data dir new_calculations/myprefix.save/

     General routines

     Parallel routines

     PAW routines

   This run was terminated on:   7:21:45  21May2023

   JOB DONE.