     Program PWSCF v.7.0 starts on 20May2023 at  7:50: 9

     Reading input from espresso_10231.pwi
Warning: card &CELL ignored
Warning: card / ignored

     Current dimensions of program PWSCF are:
     Max number of different atomic species (ntypx) = 10
     Max number of k-points (npk) =  40000
     Max angular momentum in pseudopotentials (lmaxx) =  4

     gamma-point specific algorithms are used
     Message from routine setup:
     using ibrav=0 with symmetry is DISCOURAGED, use correct ibrav instead

     Subspace diagonalization in iterative solution of the eigenvalue problem:
     a serial algorithm will be used

     Using Slab Decomposition

     bravais-lattice index     =            0
     lattice parameter (alat)  =      14.1090  a.u.
     unit-cell volume          =    2269.8529 (a.u.)^3
     number of atoms/cell      =           16
     number of atomic types    =            2
     number of electrons       =       156.00
     number of Kohn-Sham states=           94
     kinetic-energy cutoff     =      30.0000  Ry
     charge density cutoff     =     240.0000  Ry
     scf convergence threshold =      1.0E-06
     mixing beta               =       0.7000
     number of iterations used =            8  plain     mixing
     Exchange-correlation=  SLA  PW   PBX  PBC
                           (   1   4   3   4   0   0   0)

     celldm(1)=  14.108950  celldm(2)=   0.000000  celldm(3)=   0.000000
     celldm(4)=   0.000000  celldm(5)=   0.000000  celldm(6)=   0.000000

     crystal axes: (cart. coord. in units of alat)
               a(1) = (   1.000000   0.000000   0.000000 )
               a(2) = (   0.000000   0.881092   0.000000 )
               a(3) = (   0.000000   0.043004   0.917259 )

     reciprocal axes: (cart. coord. in units 2 pi/alat)
               b(1) = (  1.000000  0.000000  0.000000 )
               b(2) = (  0.000000  1.134955 -0.053210 )
               b(3) = (  0.000000  0.000000  1.090204 )

     PseudoPot. # 1 for Xe read from file:
     /home/pragov/projects/rrg-bengioy-ad/pragov/crystal_structure_design/SSSP/Xe_ONCV_PBE-1.1.oncvpsp.upf
     MD5 check sum: f6ea899d5a535d3f5731d9e48edfe3e3
     Pseudo is Norm-conserving, Zval = 18.0
     Generated using ONCVPSP code by D. R. Hamann
     Using radial grid of 1106 points,  6 beta functions with:
                l(1) =   0
                l(2) =   0
                l(3) =   1
                l(4) =   1
                l(5) =   2
                l(6) =   2

     PseudoPot. # 2 for F  read from file:
     /home/pragov/projects/rrg-bengioy-ad/pragov/crystal_structure_design/SSSP/f_pbe_v1.4.uspp.F.UPF
     MD5 check sum: 4c38b6a325caf53ec0e86aed9459de46
     Pseudo is Ultrasoft, Zval =  7.0
     Generated by new atomic code, or converted to UPF format
     Using radial grid of  799 points,  4 beta functions with:
                l(1) =   0
                l(2) =   0
                l(3) =   1
                l(4) =   1
     Q(r) pseudized with  8 coefficients,  rinner =    0.950   0.950   0.950

     atomic species   valence    mass     pseudopotential
        Xe            18.00   131.29300     Xe( 1.00)
        F              7.00    18.99840     F ( 1.00)

      4 Sym. Ops., with inversion, found ( 2 have fractional translation)

                                    s                        frac. trans.

      isym =  1     identity

 cryst.   s( 1) = (     1          0          0      )
                  (     0          1          0      )
                  (     0          0          1      )

 cart.    s( 1) = (  1.0000000  0.0000000  0.0000000 )
                  (  0.0000000  1.0000000  0.0000000 )
                  (  0.0000000  0.0000000  1.0000000 )

      isym =  2     180 deg rotation - cart. axis [1,0,0]

 cryst.   s( 2) = (     1          0          0      )    f =(  0.5000000 )
                  (     0         -1          0      )       ( -0.5000000 )
                  (     0          0         -1      )       (  0.0000000 )

 cart.    s( 2) = (  1.0000000  0.0000000  0.0000000 )    f =(  0.5000000 )
                  (  0.0000000 -1.0000000 -0.0000000 )       ( -0.4405462 )
                  (  0.0000000  0.0000000 -1.0000000 )       (  0.0000000 )

      isym =  3     inversion

 cryst.   s( 3) = (    -1          0          0      )
                  (     0         -1          0      )
                  (     0          0         -1      )

 cart.    s( 3) = ( -1.0000000  0.0000000  0.0000000 )
                  (  0.0000000 -1.0000000 -0.0000000 )
                  (  0.0000000  0.0000000 -1.0000000 )

      isym =  4     inv. 180 deg rotation - cart. axis [1,0,0]

 cryst.   s( 4) = (    -1          0          0      )    f =(  0.5000000 )
                  (     0          1          0      )       ( -0.5000000 )
                  (     0          0          1      )       (  0.0000000 )

 cart.    s( 4) = ( -1.0000000  0.0000000  0.0000000 )    f =(  0.5000000 )
                  (  0.0000000  1.0000000  0.0000000 )       ( -0.4405462 )
                  (  0.0000000  0.0000000  1.0000000 )       (  0.0000000 )

   Cartesian axes

     site n.     atom                  positions (alat units)
         1           Xe  tau(   1) = (   0.5000000   0.4405462   0.0000000  )
         2           Xe  tau(   2) = (   0.0000000   0.0000000   0.0000000  )
         3           Xe  tau(   3) = (   0.5000000   0.0215018   0.4586297  )
         4           Xe  tau(   4) = (   0.0000000   0.4620480   0.4586297  )
         5           F   tau(   5) = (   0.8095610   0.1725872   0.7603603  )
         6           F   tau(   6) = (   0.1904390   0.7515089   0.1568990  )
         7           F   tau(   7) = (   0.8875760   0.4350092   0.2106330  )
         8           F   tau(   8) = (   0.5803110   0.2832545   0.4639195  )
         9           F   tau(   9) = (   0.0803110   0.2002953   0.4533398  )
        10           F   tau(  10) = (   0.9196890   0.7238007   0.4639195  )
        11           F   tau(  11) = (   0.4196890   0.6408415   0.4533398  )
        12           F   tau(  12) = (   0.6124240   0.8755554   0.2106330  )
        13           F   tau(  13) = (   0.3095610   0.3109627   0.1568990  )
        14           F   tau(  14) = (   0.1124240   0.4890869   0.7066263  )
        15           F   tau(  15) = (   0.6904390   0.6131334   0.7603603  )
        16           F   tau(  16) = (   0.3875760   0.0485407   0.7066263  )

   Crystallographic axes

     site n.     atom                  positions (cryst. coord.)
         1           Xe  tau(   1) = (  0.5000000  0.5000000  0.0000000  )
         2           Xe  tau(   2) = (  0.0000000  0.0000000  0.0000000  )
         3           Xe  tau(   3) = (  0.5000000  0.0000000  0.5000000  )
         4           Xe  tau(   4) = (  0.0000000  0.5000000  0.5000000  )
         5           F   tau(   5) = (  0.8095610  0.1554200  0.8289480  )
         6           F   tau(   6) = (  0.1904390  0.8445800  0.1710520  )
         7           F   tau(   7) = (  0.8875760  0.4825080  0.2296330  )
         8           F   tau(   8) = (  0.5803110  0.2967960  0.5057670  )
         9           F   tau(   9) = (  0.0803110  0.2032040  0.4942330  )
        10           F   tau(  10) = (  0.9196890  0.7967960  0.5057670  )
        11           F   tau(  11) = (  0.4196890  0.7032040  0.4942330  )
        12           F   tau(  12) = (  0.6124240  0.9825080  0.2296330  )
        13           F   tau(  13) = (  0.3095610  0.3445800  0.1710520  )
        14           F   tau(  14) = (  0.1124240  0.5174920  0.7703670  )
        15           F   tau(  15) = (  0.6904390  0.6554200  0.8289480  )
        16           F   tau(  16) = (  0.3875760  0.0174920  0.7703670  )

     number of k points=     1  Methfessel-Paxton smearing, width (Ry)=  0.0010
                       cart. coord. in units 2pi/alat
        k(    1) = (   0.0000000   0.0000000   0.0000000), wk =   2.0000000

                       cryst. coord.
        k(    1) = (   0.0000000   0.0000000   0.0000000), wk =   2.0000000

     Initial potential from superposition of free atoms

     starting charge     155.9999, renormalised to     156.0000
     Starting wfcs are   84 randomized atomic wfcs +   10 random wfcs

     Self-consistent Calculation

     iteration #  1     ecut=    30.00 Ry     beta= 0.70
     Davidson diagonalization with overlap

     ethr =  1.00E-02,  avg # of iterations =  7.0

     total energy              =   -1505.59363286 Ry
     estimated scf accuracy    <       4.07102681 Ry

[...]

     total energy              =   -1507.57336738 Ry
     estimated scf accuracy    <       0.00000350 Ry

     iteration # 10     ecut=    30.00 Ry     beta= 0.70
     Davidson diagonalization with overlap

     ethr =  2.02E-09,  avg # of iterations =  2.0

     End of self-consistent calculation

          k = 0.0000 0.0000 0.0000 (  3145 PWs)   bands (ev):

   -55.9152 -55.9071 -55.8869 -55.8789 -55.4142 -55.4046 -55.3886 -55.3679
   -55.2041 -55.1867 -53.2267 -53.1934 -53.0909 -53.0585 -53.0400 -53.0296
   -52.4972 -52.4853 -52.4794 -52.4730 -21.0526 -20.9853 -20.2504 -20.2465
   -20.2135 -20.2052 -19.9318 -19.9080 -19.3924 -19.3437 -19.2380 -19.1970
   -13.8833 -13.8127 -12.3009 -12.2304  -5.1205  -5.0973  -5.0186  -5.0134
    -3.7328  -3.6885  -3.2074  -3.0637  -2.0770  -2.0393  -1.7296  -1.6823
    -1.6184  -1.4804  -1.2768  -1.2638  -1.1915  -1.0336  -1.0261  -0.9092
    -0.8876  -0.6986  -0.6931  -0.6649  -0.6383  -0.6181  -0.5117  -0.4973
    -0.4185  -0.3859  -0.2451  -0.2095  -0.1155  -0.0576   0.0800   0.1408
     0.4186   0.8042   1.0351   1.1051   1.2806   1.3056   3.9008   3.9707
     4.0771   4.1046   4.5621   4.8301   8.9861  10.8166  11.0617  11.2832
    11.6919  11.7476  12.3391  12.5601  12.7646  12.8079

     occupation numbers
     1.0000   1.0000   1.0000   1.0000   1.0000   1.0000   1.0000   1.0000
     1.0000   1.0000   1.0000   1.0000   1.0000   1.0000   1.0000   1.0000
     1.0000   1.0000   1.0000   1.0000   1.0000   1.0000   1.0000   1.0000
     1.0000   1.0000   1.0000   1.0000   1.0000   1.0000   1.0000   1.0000
     1.0000   1.0000   1.0000   1.0000   1.0000   1.0000   1.0000   1.0000
     1.0000   1.0000   1.0000   1.0000   1.0000   1.0000   1.0000   1.0000
     1.0000   1.0000   1.0000   1.0000   1.0000   1.0000   1.0000   1.0000
     1.0000   1.0000   1.0000   1.0000   1.0000   1.0000   1.0000   1.0000
     1.0000   1.0000   1.0000   1.0000   1.0000   1.0000   1.0000   1.0000
     1.0000   1.0000   1.0000   1.0000   1.0000   1.0000  -0.0000  -0.0000
    -0.0000  -0.0000  -0.0000  -0.0000  -0.0000  -0.0000  -0.0000  -0.0000
    -0.0000  -0.0000  -0.0000  -0.0000  -0.0000  -0.0000

     the Fermi energy is     2.1634 ev

!    total energy              =   -1507.57336783 Ry
     estimated scf accuracy    <       0.00000011 Ry
     smearing contrib. (-TS)   =       0.00000000 Ry
     internal energy E=F+TS    =   -1507.57336783 Ry

     The total energy is F=E-TS. E is the sum of the following terms:
     one-electron contribution =    -961.56974193 Ry
     hartree contribution      =     504.21720445 Ry
     xc contribution           =    -197.58900753 Ry
     ewald contribution        =    -852.63182283 Ry

     convergence has been achieved in  10 iterations

     Forces acting on atoms (cartesian axes, Ry/au):

     atom    1 type  1   force =     0.00000000    0.00000000   -0.00000000
     atom    2 type  1   force =     0.00000000    0.00000000    0.00000000
     atom    3 type  1   force =     0.00000000    0.00000000    0.00000000
     atom    4 type  1   force =     0.00000000    0.00000000    0.00000000
     atom    5 type  2   force =     0.00469577   -0.00134631    0.00215679
     atom    6 type  2   force =    -0.00469577    0.00134631   -0.00215679
     atom    7 type  2   force =     0.00366542   -0.00001470    0.00780074
     atom    8 type  2   force =    -0.00971144   -0.00390006    0.00003939
     atom    9 type  2   force =    -0.00971144    0.00390006   -0.00003939
     atom   10 type  2   force =     0.00971144   -0.00390006    0.00003939
     atom   11 type  2   force =     0.00971144    0.00390006   -0.00003939
     atom   12 type  2   force =    -0.00366542   -0.00001470    0.00780074
     atom   13 type  2   force =     0.00469577    0.00134631   -0.00215679
     atom   14 type  2   force =    -0.00366542    0.00001470   -0.00780074
     atom   15 type  2   force =    -0.00469577   -0.00134631    0.00215679
     atom   16 type  2   force =     0.00366542    0.00001470   -0.00780074
     The non-local contrib.  to forces
     atom    1 type  1   force =     0.00000000    0.00000000    0.00000000
     atom    2 type  1   force =     0.00000000    0.00000000    0.00000000
     atom    3 type  1   force =     0.00000000    0.00000000   -0.00000000
     atom    4 type  1   force =     0.00000000    0.00000000    0.00000000
     atom    5 type  2   force =     0.78525442   -0.51858237    0.60720407
     atom    6 type  2   force =    -0.78525442    0.51858237   -0.60720407
     atom    7 type  2   force =     0.46832007    0.11849950    1.12912090
     atom    8 type  2   force =    -0.28004311   -1.16657447   -0.02432401
     atom    9 type  2   force =    -0.28004311    1.16657447    0.02432401
     atom   10 type  2   force =     0.28004311   -1.16657447   -0.02432401
     atom   11 type  2   force =     0.28004311    1.16657447    0.02432401
     atom   12 type  2   force =    -0.46832007    0.11849950    1.12912090
     atom   13 type  2   force =     0.78525442    0.51858237   -0.60720407
     atom   14 type  2   force =    -0.46832007   -0.11849950   -1.12912090
     atom   15 type  2   force =    -0.78525442   -0.51858237    0.60720407
     atom   16 type  2   force =     0.46832007   -0.11849950   -1.12912090
     The ionic contribution  to forces
     atom    1 type  1   force =     0.00000000    0.00000000   -0.00000000
     atom    2 type  1   force =    -0.00000000    0.00000000   -0.00000000
     atom    3 type  1   force =    -0.00000000    0.00000000    0.00000000
     atom    4 type  1   force =     0.00000000    0.00000000    0.00000000
     atom    5 type  2   force =    -5.98732440    3.68534369   -2.66106139
     atom    6 type  2   force =     5.98732440   -3.68534369    2.66106139
     atom    7 type  2   force =    -4.70665850   -1.41675017  -11.68522635
     atom    8 type  2   force =     2.65567070   11.11012304    0.33998054
     atom    9 type  2   force =     2.65567070  -11.11012304   -0.33998054
     atom   10 type  2   force =    -2.65567070   11.11012304    0.33998054
     atom   11 type  2   force =    -2.65567070  -11.11012304   -0.33998054
     atom   12 type  2   force =     4.70665850   -1.41675017  -11.68522635
     atom   13 type  2   force =    -5.98732440   -3.68534369    2.66106139
     atom   14 type  2   force =     4.70665850    1.41675017   11.68522635
     atom   15 type  2   force =     5.98732440    3.68534369   -2.66106139
     atom   16 type  2   force =    -4.70665850    1.41675017   11.68522635
     The local contribution  to forces
     atom    1 type  1   force =    -0.00039520   -0.00025126    0.00029356
     atom    2 type  1   force =     0.00024859    0.00002285    0.00011897
     atom    3 type  1   force =    -0.00016174    0.00031391    0.00010526
     atom    4 type  1   force =     0.00013639   -0.00032329   -0.00021276
     atom    5 type  2   force =     5.20677459   -3.16806880    2.05601966
     atom    6 type  2   force =    -5.20679179    3.16813561   -2.05604895
     atom    7 type  2   force =     4.24203891    1.29818853   10.56392223
     atom    8 type  2   force =    -2.38533565   -9.94723993   -0.31563894
     atom    9 type  2   force =    -2.38531481    9.94747035    0.31558888
     atom   10 type  2   force =     2.38539117   -9.94738995   -0.31564809
     atom   11 type  2   force =     2.38524008    9.94715486    0.31559868
     atom   12 type  2   force =    -4.24192688    1.29823827   10.56366909
     atom   13 type  2   force =     5.20675992    3.16811628   -2.05600708
     atom   14 type  2   force =    -4.24193679   -1.29826780  -10.56385398
     atom   15 type  2   force =    -5.20671012   -3.16808085    2.05597841
     atom   16 type  2   force =     4.24187158   -1.29818464  -10.56372585
     The core correction contribution to forces
     atom    1 type  1   force =     0.00000000    0.00000000    0.00000000
     atom    2 type  1   force =     0.00000000    0.00000000    0.00000000
     atom    3 type  1   force =     0.00000000    0.00000000    0.00000000
     atom    4 type  1   force =     0.00000000    0.00000000    0.00000000
     atom    5 type  2   force =     0.00000000    0.00000000    0.00000000
     atom    6 type  2   force =     0.00000000    0.00000000    0.00000000
     atom    7 type  2   force =     0.00000000    0.00000000    0.00000000
     atom    8 type  2   force =     0.00000000    0.00000000    0.00000000
     atom    9 type  2   force =     0.00000000    0.00000000    0.00000000
     atom   10 type  2   force =     0.00000000    0.00000000    0.00000000
     atom   11 type  2   force =     0.00000000    0.00000000    0.00000000
     atom   12 type  2   force =     0.00000000    0.00000000    0.00000000
     atom   13 type  2   force =     0.00000000    0.00000000    0.00000000
     atom   14 type  2   force =     0.00000000    0.00000000    0.00000000
     atom   15 type  2   force =     0.00000000    0.00000000    0.00000000
     atom   16 type  2   force =     0.00000000    0.00000000    0.00000000
     The Hubbard contrib.    to forces
     atom    1 type  1   force =     0.00000000    0.00000000    0.00000000
     atom    2 type  1   force =     0.00000000    0.00000000    0.00000000
     atom    3 type  1   force =     0.00000000    0.00000000    0.00000000
     atom    4 type  1   force =     0.00000000    0.00000000    0.00000000
     atom    5 type  2   force =     0.00000000    0.00000000    0.00000000
     atom    6 type  2   force =     0.00000000    0.00000000    0.00000000
     atom    7 type  2   force =     0.00000000    0.00000000    0.00000000
     atom    8 type  2   force =     0.00000000    0.00000000    0.00000000
     atom    9 type  2   force =     0.00000000    0.00000000    0.00000000
     atom   10 type  2   force =     0.00000000    0.00000000    0.00000000
     atom   11 type  2   force =     0.00000000    0.00000000    0.00000000
     atom   12 type  2   force =     0.00000000    0.00000000    0.00000000
     atom   13 type  2   force =     0.00000000    0.00000000    0.00000000
     atom   14 type  2   force =     0.00000000    0.00000000    0.00000000
     atom   15 type  2   force =     0.00000000    0.00000000    0.00000000
     atom   16 type  2   force =     0.00000000    0.00000000    0.00000000
     The SCF correction term to forces
     atom    1 type  1   force =     0.00046502    0.00027494   -0.00032692
     atom    2 type  1   force =    -0.00031997   -0.00002081   -0.00014209
     atom    3 type  1   force =     0.00020564   -0.00034998   -0.00009354
     atom    4 type  1   force =    -0.00016852    0.00032935    0.00023604
     atom    5 type  2   force =    -0.00001768   -0.00004396   -0.00000944
     atom    6 type  2   force =     0.00002364   -0.00002799    0.00003668
     atom    7 type  2   force =    -0.00004988    0.00005560   -0.00002454
     atom    8 type  2   force =     0.00001100   -0.00023469    0.00002652
     atom    9 type  2   force =    -0.00004607   -0.00001875    0.00003929
     atom   10 type  2   force =    -0.00007672   -0.00002741    0.00004096
     atom   11 type  2   force =     0.00011604    0.00029607    0.00002216
     atom   12 type  2   force =    -0.00005535   -0.00001756    0.00023039
     atom   13 type  2   force =     0.00003272    0.00000575   -0.00003094
     atom   14 type  2   force =    -0.00007631    0.00004140   -0.00004012
     atom   15 type  2   force =    -0.00003517   -0.00000725    0.00001755
     atom   16 type  2   force =     0.00015949   -0.00006800   -0.00020761

     Total force =     0.029143     Total SCF correction =     0.001101

     Computing stress (Cartesian axis) and pressure

          total   stress  (Ry/bohr**3)                   (kbar)     P=     -813.03
  -0.00539017   0.00000000   0.00000000         -792.92        0.00        0.00
   0.00000000  -0.00567834  -0.00001691            0.00     -835.31       -2.49
   0.00000000  -0.00001691  -0.00551214            0.00       -2.49     -810.86

     kinetic stress (kbar)  26292.21      0.00      0.00
                                0.00  26060.34     62.31
                                0.00     62.31  26082.38

     local   stress (kbar)   -835.11     -0.01      0.02
                               -0.01  -6418.56   3567.50
                                0.02   3567.50  -6933.92

     nonloc. stress (kbar) -10571.30      0.00      0.00
                                0.00 -10692.47     27.16
                                0.00     27.16 -10675.15

     hartree stress (kbar)   9465.78      0.01     -0.01
                                0.01  11508.96  -1438.10
                               -0.01  -1438.10  11702.67

     exc-cor stress (kbar)  -4057.78     -0.00      0.00
                               -0.00  -4054.99     -1.21
                                0.00     -1.21  -4054.63

     corecor stress (kbar)      0.00      0.00      0.00
                                0.00      0.00      0.00
                                0.00      0.00      0.00

     ewald   stress (kbar) -21086.72      0.00     -0.00
                                0.00 -17238.60  -2220.15
                               -0.00  -2220.15 -16932.22

     hubbard stress (kbar)      0.00      0.00      0.00
                                0.00      0.00      0.00
                                0.00      0.00      0.00

     DFT-D   stress (kbar)      0.00      0.00      0.00
                                0.00      0.00      0.00
                                0.00      0.00      0.00

     XDM     stress (kbar)      0.00      0.00      0.00
                                0.00      0.00      0.00
                                0.00      0.00      0.00

     dft-nl  stress (kbar)      0.00      0.00      0.00
                                0.00      0.00      0.00
                                0.00      0.00      0.00

     TS-vdW  stress (kbar)      0.00      0.00      0.00
                                0.00      0.00      0.00
                                0.00      0.00      0.00

[...]

                                0.00      0.00      0.00

     Writing all to output data dir new_calculations/myprefix.save/

     General routines

     Parallel routines

   This run was terminated on:   7:50:31  20May2023

   JOB DONE.