     Program PWSCF v.7.0 starts on 20May2023 at 21:57:34

     Reading input from espresso_859.pwi
Warning: card &CELL ignored
Warning: card / ignored

     Current dimensions of program PWSCF are:
     Max number of different atomic species (ntypx) = 10
     Max number of k-points (npk) =  40000
     Max angular momentum in pseudopotentials (lmaxx) =  4
     file In.pbe-dn-rrkjus_psl.0.2.2.UPF: wavefunction(s)  5S renormalized

     gamma-point specific algorithms are used
     Message from routine setup:
     using ibrav=0 with symmetry is DISCOURAGED, use correct ibrav instead

     Subspace diagonalization in iterative solution of the eigenvalue problem:
     a serial algorithm will be used

     Using Slab Decomposition

     bravais-lattice index     =            0
     lattice parameter (alat)  =      10.7843  a.u.
     unit-cell volume          =    1264.5962 (a.u.)^3
     number of atoms/cell      =            8
     number of atomic types    =            3
     number of electrons       =       108.00
     number of Kohn-Sham states=           65
     kinetic-energy cutoff     =      30.0000  Ry
     charge density cutoff     =     240.0000  Ry
     scf convergence threshold =      1.0E-06
     mixing beta               =       0.7000
     number of iterations used =            8  plain     mixing
     Exchange-correlation= PBE
                           (   1   4   3   4   0   0   0)

     celldm(1)=  10.784332  celldm(2)=   0.000000  celldm(3)=   0.000000
     celldm(4)=   0.000000  celldm(5)=   0.000000  celldm(6)=   0.000000

     crystal axes: (cart. coord. in units of alat)
               a(1) = (   1.000000   0.000000   0.000000 )
               a(2) = (  -0.687558   0.726129   0.000000 )
               a(3) = (   0.000000   0.000000   1.388540 )

     reciprocal axes: (cart. coord. in units 2 pi/alat)
               b(1) = (  1.000000  0.946882  0.000000 )
               b(2) = (  0.000000  1.377166  0.000000 )
               b(3) = (  0.000000  0.000000  0.720181 )

     PseudoPot. # 1 for Ca read from file:
     /home/pragov/projects/rrg-bengioy-ad/pragov/crystal_structure_design/SSSP/Ca_pbe_v1.uspp.F.UPF
     MD5 check sum: 403a4c14b9e4d4dfdc3024c9a3812218
     Pseudo is Ultrasoft + core correction, Zval = 10.0
     Generated by new atomic code, or converted to UPF format
     Using radial grid of  845 points,  6 beta functions with:
                l(1) =   0
                l(2) =   0
                l(3) =   1
                l(4) =   1
                l(5) =   2
                l(6) =   2
     Q(r) pseudized with  8 coefficients,  rinner =    1.500   1.500   1.500
                                                       1.500   1.500

     PseudoPot. # 2 for In read from file:
     /home/pragov/projects/rrg-bengioy-ad/pragov/crystal_structure_design/SSSP/In.pbe-dn-rrkjus_psl.0.2.2.UPF
     MD5 check sum: 25e7c42c3b55b68f4bf926be2e7201a4
     Pseudo is Ultrasoft + core correction, Zval = 13.0
     Generated using "atomic" code by A. Dal Corso  v.5.0.99 svn rev. 10869
     Using radial grid of 1241 points,  6 beta functions with:
                l(1) =   0
                l(2) =   0
                l(3) =   1
                l(4) =   1
                l(5) =   2
                l(6) =   2
     Q(r) pseudized with 0 coefficients

     PseudoPot. # 3 for Pd read from file:
     /home/pragov/projects/rrg-bengioy-ad/pragov/crystal_structure_design/SSSP/Pd_ONCV_PBE-1.0.oncvpsp.upf
     MD5 check sum: eb77f42b51d86fb18e25f68156a31cf1
     Pseudo is Norm-conserving, Zval = 18.0
     Generated using ONCVPSP code by D. R. Hamann
     Using radial grid of 1410 points,  6 beta functions with:
                l(1) =   0
                l(2) =   0
                l(3) =   1
                l(4) =   1
                l(5) =   2
                l(6) =   2

     atomic species   valence    mass     pseudopotential
        Ca            10.00    40.07800     Ca( 1.00)
        In            13.00   114.81800     In( 1.00)
        Pd            18.00   106.42000     Pd( 1.00)

      4 Sym. Ops., with inversion, found ( 2 have fractional translation)

                                    s                        frac. trans.

      isym =  1     identity

 cryst.   s( 1) = (     1          0          0      )
                  (     0          1          0      )
                  (     0          0          1      )

 cart.    s( 1) = (  1.0000000  0.0000000  0.0000000 )
                  (  0.0000000  1.0000000  0.0000000 )
                  (  0.0000000  0.0000000  1.0000000 )

      isym =  2     180 deg rotation - cart. axis [0,0,1]

 cryst.   s( 2) = (    -1          0          0      )    f =( -0.0000000 )
                  (     0         -1          0      )       ( -0.0000000 )
                  (     0          0          1      )       (  0.5000000 )

 cart.    s( 2) = ( -1.0000000 -0.0000000  0.0000000 )    f =( -0.0000000 )
                  (  0.0000000 -1.0000000  0.0000000 )       ( -0.0000000 )
                  (  0.0000000  0.0000000  1.0000000 )       (  0.6942699 )

      isym =  3     inversion

 cryst.   s( 3) = (    -1          0          0      )
                  (     0         -1          0      )
                  (     0          0         -1      )

 cart.    s( 3) = ( -1.0000000 -0.0000000  0.0000000 )
                  (  0.0000000 -1.0000000  0.0000000 )
                  (  0.0000000  0.0000000 -1.0000000 )

      isym =  4     inv. 180 deg rotation - cart. axis [0,0,1]

 cryst.   s( 4) = (     1          0          0      )    f =(  0.0000000 )
                  (     0          1          0      )       (  0.0000000 )
                  (     0          0         -1      )       (  0.5000000 )

 cart.    s( 4) = (  1.0000000  0.0000000  0.0000000 )    f =(  0.0000000 )
                  (  0.0000000  1.0000000  0.0000000 )       (  0.0000000 )
                  (  0.0000000  0.0000000 -1.0000000 )       (  0.6942699 )

   Cartesian axes

     site n.     atom                  positions (alat units)
         1           Ca  tau(   1) = (   0.8895189   0.0475382   1.0414048  )
         2           Ca  tau(   2) = (  -0.5770773   0.6785909   0.3471349  )
         3           In  tau(   3) = (   0.4002924   0.2580445   1.3146902  )
         4           In  tau(   4) = (  -0.0878508   0.4680846   0.0738495  )
         5           In  tau(   5) = (  -0.0878508   0.4680846   0.6204204  )
         6           In  tau(   6) = (   0.4002924   0.2580445   0.7681194  )
         7           Pd  tau(   7) = (  -0.3197432   0.5678642   1.0414048  )
         8           Pd  tau(   8) = (   0.6321848   0.1582649   0.3471349  )

   Crystallographic axes

     site n.     atom                  positions (cryst. coord.)
         1           Ca  tau(   1) = (  0.9345320  0.0654680  0.7500000  )
         2           Ca  tau(   2) = (  0.0654680  0.9345320  0.2500000  )
         3           In  tau(   3) = (  0.6446300  0.3553700  0.9468150  )
         4           In  tau(   4) = (  0.3553700  0.6446300  0.0531850  )
         5           In  tau(   5) = (  0.3553700  0.6446300  0.4468150  )
         6           In  tau(   6) = (  0.6446300  0.3553700  0.5531850  )
         7           Pd  tau(   7) = (  0.2179570  0.7820430  0.7500000  )
         8           Pd  tau(   8) = (  0.7820430  0.2179570  0.2500000  )

     number of k points=     1  Methfessel-Paxton smearing, width (Ry)=  0.0010
                       cart. coord. in units 2pi/alat
        k(    1) = (   0.0000000   0.0000000   0.0000000), wk =   2.0000000

                       cryst. coord.
        k(    1) = (   0.0000000   0.0000000   0.0000000), wk =   2.0000000

     Initial potential from superposition of free atoms

     starting charge     107.9735, renormalised to     108.0000
     Starting wfcs are   76 randomized atomic wfcs

     Self-consistent Calculation

     iteration #  1     ecut=    30.00 Ry     beta= 0.70
     Davidson diagonalization with overlap

     ethr =  1.00E-02,  avg # of iterations =  2.0

     Threshold (ethr) on eigenvalues was too large:
     Diagonalizing with lowered threshold

     Davidson diagonalization with overlap

[...]

     total energy              =   -1234.62567702 Ry
     estimated scf accuracy    <       0.85747835 Ry

[...]

     total energy              =   -1235.11632949 Ry
     estimated scf accuracy    <       0.00000117 Ry

     iteration # 15     ecut=    30.00 Ry     beta= 0.70
     Davidson diagonalization with overlap

     ethr =  1.08E-09,  avg # of iterations =  4.0

     End of self-consistent calculation

          k = 0.0000 0.0000 0.0000 (  1759 PWs)   bands (ev):

   -74.3117 -74.3109 -39.9275 -39.9263 -39.6947 -39.6934 -39.5368 -39.5357
   -30.1067 -30.1047 -11.2271 -11.1909 -11.1450 -11.1413 -11.0541 -11.0535
    -2.8187  -2.8015  -2.7435  -2.7397  -2.6964  -2.6557  -2.6539  -2.6467
    -2.6310  -2.5854  -2.5713  -2.5436  -2.5328  -2.5104  -2.5015  -2.4858
    -2.4456  -2.4275  -2.4170  -2.4014   2.8384   5.0252   5.4635   7.5789
     7.6392   7.7397   7.8105   8.0022   8.1579   8.3142   8.3155   8.3594
     8.6271   9.6600  10.0800  10.9745  10.9987  11.7059  11.7292  12.6504
    12.9025  12.9139  13.1613  13.5205  13.9244  14.2721  14.4568  15.3107
    15.4265

     occupation numbers
     1.0000   1.0000   1.0000   1.0000   1.0000   1.0000   1.0000   1.0000
     1.0000   1.0000   1.0000   1.0000   1.0000   1.0000   1.0000   1.0000
     1.0000   1.0000   1.0000   1.0000   1.0000   1.0000   1.0000   1.0000
     1.0000   1.0000   1.0000   1.0000   1.0000   1.0000   1.0000   1.0000
     1.0000   1.0000   1.0000   1.0000   1.0000   1.0000   1.0000   1.0000
     1.0000   1.0000   1.0000   1.0000   1.0000   1.0000   1.0000   1.0000
     1.0000   1.0000   1.0000   1.0000   1.0000   1.0025  -0.0025  -0.0000
    -0.0000  -0.0000  -0.0000  -0.0000  -0.0000  -0.0000  -0.0000  -0.0000
    -0.0000

     the Fermi energy is    11.7175 ev

!    total energy              =   -1235.11632967 Ry
     estimated scf accuracy    <       0.00000009 Ry
     smearing contrib. (-TS)   =       0.00012428 Ry
     internal energy E=F+TS    =   -1235.11645395 Ry

     The total energy is F=E-TS. E is the sum of the following terms:
     one-electron contribution =    -538.37481534 Ry
     hartree contribution      =     335.76916669 Ry
     xc contribution           =    -264.38001478 Ry
     ewald contribution        =    -768.13079053 Ry

     convergence has been achieved in  15 iterations

     Forces acting on atoms (cartesian axes, Ry/au):

     atom    1 type  1   force =     0.00313716   -0.00135031    0.00000000
     atom    2 type  1   force =    -0.00313716    0.00135031    0.00000000
     atom    3 type  2   force =    -0.00927069    0.00398125    0.03320058
     atom    4 type  2   force =     0.00927069   -0.00398125   -0.03320058
     atom    5 type  2   force =     0.00927069   -0.00398125    0.03320058
     atom    6 type  2   force =    -0.00927069    0.00398125   -0.03320058
     atom    7 type  3   force =     0.00086505   -0.00036871    0.00000000
     atom    8 type  3   force =    -0.00086505    0.00036871    0.00000000
     The non-local contrib.  to forces
     atom    1 type  1   force =     0.00706489   -0.00303979    0.00000000
     atom    2 type  1   force =    -0.00706489    0.00303979    0.00000000
     atom    3 type  2   force =     0.10784796   -0.04640914   -0.07051131
     atom    4 type  2   force =    -0.10784796    0.04640914    0.07051131
     atom    5 type  2   force =    -0.10784796    0.04640914   -0.07051131
     atom    6 type  2   force =     0.10784796   -0.04640914    0.07051131
     atom    7 type  3   force =    -0.20194917    0.08688883    0.00000000
     atom    8 type  3   force =     0.20194917   -0.08688883   -0.00000000
     The ionic contribution  to forces
     atom    1 type  1   force =     2.14776846   -0.92415007    0.00000000
     atom    2 type  1   force =    -2.14776846    0.92415007   -0.00000000
     atom    3 type  2   force =    -8.67811477    3.73405257    2.18050596
     atom    4 type  2   force =     8.67811477   -3.73405257   -2.18050596
     atom    5 type  2   force =     8.67811477   -3.73405257    2.18050595
     atom    6 type  2   force =    -8.67811477    3.73405257   -2.18050596
     atom    7 type  3   force =    -0.92730602    0.39900479    0.00000000
     atom    8 type  3   force =     0.92730602   -0.39900480    0.00000000
     The local contribution  to forces
     atom    1 type  1   force =    -2.15188972    0.92593750   -0.00020556
     atom    2 type  1   force =     2.15200529   -0.92596389    0.00023629
     atom    3 type  2   force =     8.55380509   -3.68055767   -2.07798384
     atom    4 type  2   force =    -8.55385110    3.68057418    2.07756367
     atom    5 type  2   force =    -8.55389851    3.68060756   -2.07738807
     atom    6 type  2   force =     8.55387732   -3.68060608    2.07764598
     atom    7 type  3   force =     1.12993175   -0.48614728   -0.00055070
     atom    8 type  3   force =    -1.13005744    0.48624312    0.00059586
     The core correction contribution to forces
     atom    1 type  1   force =     0.00034901   -0.00014980   -0.00000115
     atom    2 type  1   force =    -0.00034700    0.00014950    0.00000138
     atom    3 type  2   force =     0.00707304   -0.00304291    0.00069672
     atom    4 type  2   force =    -0.00707396    0.00304407   -0.00070148
     atom    5 type  2   force =    -0.00707524    0.00304523    0.00070581
     atom    6 type  2   force =     0.00707429   -0.00304417   -0.00070031
     atom    7 type  3   force =     0.00000000    0.00000000    0.00000000
     atom    8 type  3   force =     0.00000000    0.00000000    0.00000000
     The Hubbard contrib.    to forces
     atom    1 type  1   force =     0.00000000    0.00000000    0.00000000
     atom    2 type  1   force =     0.00000000    0.00000000    0.00000000
     atom    3 type  2   force =     0.00000000    0.00000000    0.00000000
     atom    4 type  2   force =     0.00000000    0.00000000    0.00000000
     atom    5 type  2   force =     0.00000000    0.00000000    0.00000000
     atom    6 type  2   force =     0.00000000    0.00000000    0.00000000
     atom    7 type  3   force =     0.00000000    0.00000000    0.00000000
     atom    8 type  3   force =     0.00000000    0.00000000    0.00000000
     The SCF correction term to forces
     atom    1 type  1   force =    -0.00014967    0.00005081    0.00020730
     atom    2 type  1   force =     0.00004374   -0.00002618   -0.00023276
     atom    3 type  2   force =     0.00007870   -0.00003339    0.00045176
     atom    4 type  2   force =    -0.00009751    0.00005814   -0.00013999
     atom    5 type  2   force =    -0.00004993    0.00003082   -0.00007492
     atom    6 type  2   force =     0.00002979   -0.00000448   -0.00008415
     atom    7 type  3   force =     0.00020310   -0.00011904    0.00062094
     atom    8 type  3   force =    -0.00004818    0.00001521   -0.00062942

     Total force =     0.069580     Total SCF correction =     0.001107

     Computing stress (Cartesian axis) and pressure

          total   stress  (Ry/bohr**3)                   (kbar)     P=     -206.08
  -0.00042614  -0.00080776   0.00000000          -62.69     -118.83        0.00
  -0.00080776  -0.00195580   0.00000000         -118.83     -287.71        0.00
   0.00000000   0.00000000  -0.00182086            0.00        0.00     -267.86

     kinetic stress (kbar)  25558.99   -295.67      0.00
                             -295.67  24999.07      0.00
                                0.00      0.00  25079.57

     local   stress (kbar)   1969.09  -6861.95      0.02
                            -6861.95 -11025.83     -0.01
                                0.02     -0.01 -14165.09

     nonloc. stress (kbar)   5341.45     -7.93      0.00
                               -7.93   5326.44      0.00
                                0.00      0.00   5281.69

     hartree stress (kbar)   8640.67   3119.63     -0.02
                             3119.63  14548.52      0.01
                               -0.02      0.01  15869.39

     exc-cor stress (kbar)   7780.95     -0.78     -0.00
                               -0.78   7779.48      0.00
                               -0.00      0.00   7778.14

     corecor stress (kbar) -14012.58      3.14      0.00
                                3.14 -14006.63      0.00
                                0.00      0.00 -14008.21

     ewald   stress (kbar) -35341.25   3924.72     -0.00
                             3924.72 -27908.76      0.00
                               -0.00      0.00 -26103.36

     hubbard stress (kbar)      0.00      0.00      0.00
                                0.00      0.00      0.00
                                0.00      0.00      0.00

     DFT-D   stress (kbar)      0.00      0.00      0.00
                                0.00      0.00      0.00
                                0.00      0.00      0.00

     XDM     stress (kbar)      0.00      0.00      0.00
                                0.00      0.00      0.00
                                0.00      0.00      0.00

     dft-nl  stress (kbar)      0.00      0.00      0.00
                                0.00      0.00      0.00
                                0.00      0.00      0.00

     TS-vdW  stress (kbar)      0.00      0.00      0.00
                                0.00      0.00      0.00
                                0.00      0.00      0.00

[...]

                                0.00      0.00      0.00

     Writing all to output data dir new_calculations/myprefix.save/

     General routines

     Parallel routines

   This run was terminated on:  21:57:50  20May2023

   JOB DONE.