     Program PWSCF v.7.0 starts on 20May2023 at 18:13: 8

     Reading input from espresso_16536.pwi
Warning: card &CELL ignored
Warning: card / ignored

     Current dimensions of program PWSCF are:
     Max number of different atomic species (ntypx) = 10
     Max number of k-points (npk) =  40000
     Max angular momentum in pseudopotentials (lmaxx) =  4
     file O.pbe-n-kjpaw_psl.0.1.UPF: wavefunction(s)  2P renormalized

     gamma-point specific algorithms are used
     Message from routine setup:
     using ibrav=0 with symmetry is DISCOURAGED, use correct ibrav instead

     Subspace diagonalization in iterative solution of the eigenvalue problem:
     a serial algorithm will be used

     Using Slab Decomposition

     bravais-lattice index     =            0
     lattice parameter (alat)  =      12.4824  a.u.
     unit-cell volume          =     742.9114 (a.u.)^3
     number of atoms/cell      =           12
     number of atomic types    =            4
     number of electrons       =        90.00
     number of Kohn-Sham states=           54
     kinetic-energy cutoff     =      30.0000  Ry
     charge density cutoff     =     240.0000  Ry
     scf convergence threshold =      1.0E-06
     mixing beta               =       0.7000
     number of iterations used =            8  plain     mixing
     Exchange-correlation= SLA  PW   PBX  PBC
                           (   1   4   3   4   0   0   0)

     celldm(1)=  12.482449  celldm(2)=   0.000000  celldm(3)=   0.000000
     celldm(4)=   0.000000  celldm(5)=   0.000000  celldm(6)=   0.000000

     crystal axes: (cart. coord. in units of alat)
               a(1) = (   1.000000   0.000000   0.000000 )
               a(2) = (   0.899373   0.437182   0.000000 )
               a(3) = (   0.200909   0.046244   0.873726 )

     reciprocal axes: (cart. coord. in units 2 pi/alat)
               b(1) = (  1.000000 -2.057204 -0.121064 )
               b(2) = (  0.000000  2.287376 -0.121064 )
               b(3) = (  0.000000  0.000000  1.144524 )

     PseudoPot. # 1 for Li read from file:
     /home/pragov/projects/rrg-bengioy-ad/pragov/crystal_structure_design/SSSP/li_pbe_v1.4.uspp.F.UPF
     MD5 check sum: e912e257baa3777c20ea3d68f190483c
     Pseudo is Ultrasoft, Zval =  3.0
     Generated by new atomic code, or converted to UPF format
     Using radial grid of  751 points,  5 beta functions with:
                l(1) =   0
                l(2) =   0
                l(3) =   0
                l(4) =   1
                l(5) =   1
     Q(r) pseudized with 10 coefficients,  rinner =    1.150   1.150   1.150

     PseudoPot. # 2 for Cr read from file:
     /home/pragov/projects/rrg-bengioy-ad/pragov/crystal_structure_design/SSSP/cr_pbe_v1.5.uspp.F.UPF
     MD5 check sum: 0d52af634a40206e4dee301ad30da4bf
     Pseudo is Ultrasoft + core correction, Zval = 14.0
     Generated by new atomic code, or converted to UPF format
     Using radial grid of  857 points,  6 beta functions with:
                l(1) =   0
                l(2) =   0
                l(3) =   1
                l(4) =   1
                l(5) =   2
                l(6) =   2
     Q(r) pseudized with  8 coefficients,  rinner =    0.950   0.950   0.950
                                                       0.950   0.950

     PseudoPot. # 3 for Co read from file:
     /home/pragov/projects/rrg-bengioy-ad/pragov/crystal_structure_design/SSSP/Co_pbe_v1.2.uspp.F.UPF
     MD5 check sum: 5f91765df6ddd3222702df6e7b74a16d
     Pseudo is Ultrasoft + core correction, Zval = 17.0
     Generated by new atomic code, or converted to UPF format
     Using radial grid of  863 points,  6 beta functions with:
                l(1) =   0
                l(2) =   0
                l(3) =   1
                l(4) =   1
                l(5) =   2
                l(6) =   2
     Q(r) pseudized with  8 coefficients,  rinner =    1.200   1.200   1.200
                                                       1.200   1.200

     PseudoPot. # 4 for O  read from file:
     /home/pragov/projects/rrg-bengioy-ad/pragov/crystal_structure_design/SSSP/O.pbe-n-kjpaw_psl.0.1.UPF
     MD5 check sum: 0234752ac141de4415c5fc33072bef88
     Pseudo is Projector augmented-wave + core cor, Zval =  6.0
     Generated using "atomic" code by A. Dal Corso  v.5.0.99 svn rev. 10869
     Shape of augmentation charge: BESSEL
     Using radial grid of 1095 points,  4 beta functions with:
                l(1) =   0
                l(2) =   0
                l(3) =   1
                l(4) =   1
     Q(r) pseudized with 0 coefficients

     atomic species   valence    mass     pseudopotential
        Li             3.00     6.94000     Li( 1.00)
        Cr            14.00    51.99610     Cr( 1.00)
        Co            17.00    58.93319     Co( 1.00)
        O              6.00    15.99900     O ( 1.00)

      2 Sym. Ops., with inversion, found

                                    s                        frac. trans.

      isym =  1     identity

 cryst.   s( 1) = (     1          0          0      )
                  (     0          1          0      )
                  (     0          0          1      )

 cart.    s( 1) = (  1.0000000 -0.0000000  0.0000000 )
                  (  0.0000000  1.0000000  0.0000000 )
                  (  0.0000000  0.0000000  1.0000000 )

      isym =  2     inversion

 cryst.   s( 2) = (    -1          0          0      )
                  (     0         -1          0      )
                  (     0          0         -1      )

 cart.    s( 2) = ( -1.0000000  0.0000000 -0.0000000 )
                  (  0.0000000 -1.0000000 -0.0000000 )
                  (  0.0000000  0.0000000 -1.0000000 )

   Cartesian axes

     site n.     atom                  positions (alat units)
         1           Li  tau(   1) = (   0.3442980   0.0792477   0.1486679  )
         2           Li  tau(   2) = (   1.0501410   0.2417129   0.4368629  )
         3           Li  tau(   3) = (   1.7559841   0.4041781   0.7250578  )
         4           Cr  tau(   4) = (   0.4500349   0.1035854   0.5839537  )
         5           Cr  tau(   5) = (   1.6502472   0.3798405   0.2897720  )
         6           Co  tau(   6) = (   0.9496865   0.2185911   0.0000000  )
         7           O   tau(   7) = (   1.4373863   0.3308459   0.7899791  )
         8           O   tau(   8) = (   1.9374302   0.4459419   0.2068720  )
         9           O   tau(   9) = (   0.7378950   0.1698427   0.4968869  )
        10           O   tau(  10) = (   0.1628519   0.0374839   0.6668537  )
        11           O   tau(  11) = (   0.6628958   0.1525799   0.0837466  )
        12           O   tau(  12) = (   1.3623870   0.3135832   0.3768388  )

   Crystallographic axes

     site n.     atom                  positions (cryst. coord.)
         1           Li  tau(   1) = (  0.1632710  0.1632710  0.1701540  )
         2           Li  tau(   2) = (  0.5000000  0.5000000  0.5000000  )
         3           Li  tau(   3) = (  0.8367290  0.8367290  0.8298460  )
         4           Cr  tau(   4) = (  0.1662430  0.1662430  0.6683490  )
         5           Cr  tau(   5) = (  0.8337570  0.8337570  0.3316510  )
         6           Co  tau(   6) = (  0.5000000  0.5000000  0.0000000  )
         7           O   tau(   7) = (  0.6611310  0.6611310  0.9041500  )
         8           O   tau(   8) = (  0.9949920  0.9949920  0.2367700  )
         9           O   tau(   9) = (  0.3283390  0.3283390  0.5686990  )
        10           O   tau(  10) = (  0.0050080  0.0050080  0.7632300  )
        11           O   tau(  11) = (  0.3388690  0.3388690  0.0958500  )
        12           O   tau(  12) = (  0.6716610  0.6716610  0.4313010  )

     number of k points=     1  Methfessel-Paxton smearing, width (Ry)=  0.0010
                       cart. coord. in units 2pi/alat
        k(    1) = (   0.0000000   0.0000000   0.0000000), wk =   2.0000000

                       cryst. coord.
        k(    1) = (   0.0000000   0.0000000   0.0000000), wk =   2.0000000

     Check: negative core charge=   -0.000021

     Initial potential from superposition of free atoms

     starting charge      85.6477, renormalised to      90.0000

     negative rho (up, down):  2.387E-03 0.000E+00
     Starting wfcs are   72 randomized atomic wfcs
     Checking if some PAW data can be deallocated...

     Self-consistent Calculation

     iteration #  1     ecut=    30.00 Ry     beta= 0.70
     Davidson diagonalization with overlap

     ethr =  1.00E-02,  avg # of iterations =  3.0

     negative rho (up, down):  2.236E-03 0.000E+00

     total energy              =    -906.25472219 Ry
     estimated scf accuracy    <      46.95830283 Ry

[...]

     total energy              =    -942.63171842 Ry
     estimated scf accuracy    <       0.00000136 Ry

     iteration # 29     ecut=    30.00 Ry     beta= 0.70
     Davidson diagonalization with overlap

     ethr =  1.51E-09,  avg # of iterations =  1.0

[...]

     End of self-consistent calculation

          k = 0.0000 0.0000 0.0000 (  1028 PWs)   bands (ev):

   -85.1996 -62.0675 -62.0576 -48.7173 -48.4541 -48.1870 -35.7738 -35.5775
   -35.5705 -33.9552 -33.9164 -33.1004 -33.0914 -33.0792 -33.0568  -9.6915
    -8.8160  -8.7336  -8.6087  -8.3628  -8.3425   3.2802   3.7867   3.7871
     4.0801   4.1199   5.1510   5.2684   5.5340   5.5831   5.6271   5.6427
     6.3824   6.5455   6.7674   6.8797   7.5280   7.6887   7.6928   8.7460
     8.9362   9.4559   9.8861  10.0072  10.2312  10.4859  10.5370  10.7951
    10.8783  11.2882  11.9306  12.4336  13.0507  13.0828

     occupation numbers
     1.0000   1.0000   1.0000   1.0000   1.0000   1.0000   1.0000   1.0000
     1.0000   1.0000   1.0000   1.0000   1.0000   1.0000   1.0000   1.0000
     1.0000   1.0000   1.0000   1.0000   1.0000   1.0000   1.0000   1.0000
     1.0000   1.0000   1.0000   1.0000   1.0000   1.0000   1.0000   1.0000
     1.0000   1.0000   1.0000   1.0000   1.0000   1.0000   1.0000   1.0000
     1.0000   1.0000   1.0000   1.0000   1.0000  -0.0000  -0.0000  -0.0000
    -0.0000  -0.0000  -0.0000  -0.0000  -0.0000  -0.0000

     the Fermi energy is    10.3315 ev

!    total energy              =    -942.63171801 Ry
     estimated scf accuracy    <       0.00000060 Ry
     smearing contrib. (-TS)   =       0.00000000 Ry
     internal energy E=F+TS    =    -942.63171801 Ry

     The total energy is F=E-TS. E is the sum of the following terms:
     one-electron contribution =    -533.51986965 Ry
     hartree contribution      =     307.46925377 Ry
     xc contribution           =    -132.41946436 Ry
     ewald contribution        =    -527.09343999 Ry
     one-center paw contrib.   =     -57.06819779 Ry
      -> PAW hartree energy AE =     177.02663786 Ry
      -> PAW hartree energy PS =    -176.35930068 Ry
      -> PAW xc energy AE      =    -102.86618660 Ry
      -> PAW xc energy PS      =      45.13065163 Ry
      -> total E_H with PAW    =     308.13659095 Ry
      -> total E_XC with PAW   =    -190.15499932 Ry

     convergence has been achieved in  29 iterations

     negative rho (up, down):  2.424E-03 0.000E+00

     Forces acting on atoms (cartesian axes, Ry/au):

     atom    1 type  1   force =     0.00030639    0.00007154   -0.00362664
     atom    2 type  1   force =     0.00000000    0.00000000    0.00000000
     atom    3 type  1   force =    -0.00030639   -0.00007154    0.00362664
     atom    4 type  2   force =     0.03092890    0.00711735   -0.02431419
     atom    5 type  2   force =    -0.03092890   -0.00711735    0.02431419
     atom    6 type  3   force =     0.00000000    0.00000000    0.00000000
     atom    7 type  4   force =    -0.03907161   -0.00899459   -0.09783007
     atom    8 type  4   force =    -0.06184869   -0.01423749   -0.04812427
     atom    9 type  4   force =    -0.03135829   -0.00721869   -0.09321878
     atom   10 type  4   force =     0.06184869    0.01423749    0.04812427
     atom   11 type  4   force =     0.03907161    0.00899459    0.09783007
     atom   12 type  4   force =     0.03135829    0.00721869    0.09321878
     The non-local contrib.  to forces
     atom    1 type  1   force =     0.01283255    0.00295444    0.01025551
     atom    2 type  1   force =     0.00000000    0.00000000    0.00000000
     atom    3 type  1   force =    -0.01283255   -0.00295444   -0.01025551
     atom    4 type  2   force =     0.00826028    0.00190151   -0.01373315
     atom    5 type  2   force =    -0.00826028   -0.00190151    0.01373315
     atom    6 type  3   force =     0.00000000    0.00000000    0.00000000
     atom    7 type  4   force =    -0.41517603   -0.09556330   -0.15587693
     atom    8 type  4   force =    -0.48304739   -0.11118556   -0.25216993
     atom    9 type  4   force =    -0.34660210   -0.07977412   -0.17484315
     atom   10 type  4   force =     0.48304739    0.11118556    0.25216993
     atom   11 type  4   force =     0.41517603    0.09556330    0.15587693
     atom   12 type  4   force =     0.34660210    0.07977412    0.17484315
     The ionic contribution  to forces
     atom    1 type  1   force =     0.84278792    0.19398606    0.29751629
     atom    2 type  1   force =    -0.00000000   -0.00000000    0.00000000
     atom    3 type  1   force =    -0.84278792   -0.19398606   -0.29751629
     atom    4 type  2   force =     2.77229233    0.63810366   -2.52630798
     atom    5 type  2   force =    -2.77229233   -0.63810366    2.52630798
     atom    6 type  3   force =    -0.00000000   -0.00000000    0.00000000
     atom    7 type  4   force =    12.46683971    2.86951560    8.00539757
     atom    8 type  4   force =    10.25360593    2.36009148   11.64654265
     atom    9 type  4   force =     9.06742793    2.08706669    8.91007076
     atom   10 type  4   force =   -10.25360593   -2.36009148  -11.64654265
     atom   11 type  4   force =   -12.46683970   -2.86951560   -8.00539757
     atom   12 type  4   force =    -9.06742793   -2.08706669   -8.91007076
     The local contribution  to forces
     atom    1 type  1   force =    -0.85539044   -0.19688647   -0.31148946
     atom    2 type  1   force =     0.00028686    0.00006650    0.00015720
     atom    3 type  1   force =     0.85519929    0.19684238    0.31141567
     atom    4 type  2   force =    -2.75212908   -0.63346397    2.51802626
     atom    5 type  2   force =     2.75079424    0.63315320   -2.51714203
     atom    6 type  3   force =     0.00113273    0.00026767   -0.00159086
     atom    7 type  4   force =   -12.09538190   -2.78401070   -7.94855862
     atom    8 type  4   force =    -9.83686922   -2.26417314  -11.44560071
     atom    9 type  4   force =    -8.75590432   -2.01537309   -8.82893536
     atom   10 type  4   force =     9.83806204    2.26444518   11.44520784
     atom   11 type  4   force =    12.09499596    2.78393493    7.94749198
     atom   12 type  4   force =     8.75506426    2.01516894    8.83029946
     The core correction contribution to forces
     atom    1 type  1   force =     0.00000000    0.00000000    0.00000000
     atom    2 type  1   force =     0.00000000    0.00000000    0.00000000
     atom    3 type  1   force =     0.00000000    0.00000000    0.00000000
     atom    4 type  2   force =     0.00191974    0.00044183   -0.00158642
     atom    5 type  2   force =    -0.00192157   -0.00044231    0.00158666
     atom    6 type  3   force =    -0.00000044   -0.00000006    0.00000009
     atom    7 type  4   force =     0.00444819    0.00102391    0.00069492
     atom    8 type  4   force =     0.00497740    0.00114568    0.00273858
     atom    9 type  4   force =     0.00322553    0.00074231    0.00120598
     atom   10 type  4   force =    -0.00497770   -0.00114572   -0.00273818
     atom   11 type  4   force =    -0.00444736   -0.00102364   -0.00069380
     atom   12 type  4   force =    -0.00322503   -0.00074228   -0.00120746
     The Hubbard contrib.    to forces
     atom    1 type  1   force =     0.00000000    0.00000000    0.00000000
     atom    2 type  1   force =     0.00000000    0.00000000    0.00000000
     atom    3 type  1   force =     0.00000000    0.00000000    0.00000000
     atom    4 type  2   force =     0.00000000    0.00000000    0.00000000
     atom    5 type  2   force =     0.00000000    0.00000000    0.00000000
     atom    6 type  3   force =     0.00000000    0.00000000    0.00000000
     atom    7 type  4   force =     0.00000000    0.00000000    0.00000000
     atom    8 type  4   force =     0.00000000    0.00000000    0.00000000
     atom    9 type  4   force =     0.00000000    0.00000000    0.00000000
     atom   10 type  4   force =     0.00000000    0.00000000    0.00000000
     atom   11 type  4   force =     0.00000000    0.00000000    0.00000000
     atom   12 type  4   force =     0.00000000    0.00000000    0.00000000
     The SCF correction term to forces
     atom    1 type  1   force =     0.00005650    0.00001268    0.00008220
     atom    2 type  1   force =    -0.00023894   -0.00005596   -0.00013100
     atom    3 type  1   force =     0.00009493    0.00002174   -0.00002606
     atom    4 type  2   force =     0.00056019    0.00013041   -0.00066863
     atom    5 type  2   force =     0.00072560    0.00017301   -0.00012728
     atom    6 type  3   force =    -0.00108591   -0.00026297    0.00149096
     atom    7 type  4   force =     0.00021465    0.00004581    0.00053968
     atom    8 type  4   force =    -0.00052945   -0.00011835    0.00038423
     atom    9 type  4   force =     0.00049440    0.00011476   -0.00076822
     atom   10 type  4   force =    -0.00069114   -0.00015844    0.00004644
     atom   11 type  4   force =     0.00020291    0.00004151    0.00057923
     atom   12 type  4   force =     0.00034460    0.00007985   -0.00069680

     Total force =     0.240246     Total SCF correction =     0.002836

     Computing stress (Cartesian axis) and pressure

     negative rho (up, down):  2.424E-03 0.000E+00
          total   stress  (Ry/bohr**3)                   (kbar)     P=     -608.66
  -0.00436488  -0.00020072   0.00028308         -642.10      -29.53       41.64
  -0.00020072  -0.00353909   0.00006516          -29.53     -520.62        9.59
   0.00028308   0.00006516  -0.00450885           41.64        9.59     -663.27

     kinetic stress (kbar)  30189.95   -211.25    281.77
                             -211.25  31059.11     64.86
                              281.77     64.86  31095.14

     local   stress (kbar)   -774.65   9412.37  34707.22
                             9412.37 -39501.01   7988.63
                            34707.22   7988.63  -9366.55

     nonloc. stress (kbar)   7761.85    -25.74      9.93
                              -25.74   7867.77      2.29
                                9.93      2.29   7999.74

     hartree stress (kbar)  13297.48  -4218.29 -15654.39
                            -4218.29  30653.24  -3603.20
                           -15654.39  -3603.20  16931.77

     exc-cor stress (kbar)  -6264.54     -1.39     -3.72
                               -1.39  -6258.81     -0.86
                               -3.72     -0.86  -6255.19

     corecor stress (kbar)  -1957.37      1.90     -1.75
                                1.90  -1965.21     -0.40
                               -1.75     -0.40  -1968.09

     ewald   stress (kbar) -42894.83  -4987.14 -19297.42
                            -4987.14 -22375.71  -4441.72
                           -19297.42  -4441.72 -39100.09

     hubbard stress (kbar)      0.00      0.00      0.00
                                0.00      0.00      0.00
                                0.00      0.00      0.00

     DFT-D   stress (kbar)      0.00      0.00      0.00
                                0.00      0.00      0.00
                                0.00      0.00      0.00

     XDM     stress (kbar)      0.00      0.00      0.00
                                0.00      0.00      0.00
                                0.00      0.00      0.00

     dft-nl  stress (kbar)      0.00      0.00      0.00
                                0.00      0.00      0.00
                                0.00      0.00      0.00

     TS-vdW  stress (kbar)      0.00      0.00      0.00
                                0.00      0.00      0.00
                                0.00      0.00      0.00

[...]

                                0.00      0.00      0.00

     Writing all to output data dir new_calculations/myprefix.save/

     General routines

     Parallel routines

     PAW routines

   This run was terminated on:  18:13:36  20May2023

   JOB DONE.