     Program PWSCF v.7.0 starts on 20May2023 at 21:28:43

     Reading input from espresso_8813.pwi
Warning: card &CELL ignored
Warning: card / ignored

     Current dimensions of program PWSCF are:
     Max number of different atomic species (ntypx) = 10
     Max number of k-points (npk) =  40000
     Max angular momentum in pseudopotentials (lmaxx) =  4

     gamma-point specific algorithms are used
     Message from routine setup:
     using ibrav=0 with symmetry is DISCOURAGED, use correct ibrav instead

     Subspace diagonalization in iterative solution of the eigenvalue problem:
     a serial algorithm will be used

     Using Slab Decomposition

     bravais-lattice index     =            0
     lattice parameter (alat)  =      11.6685  a.u.
     unit-cell volume          =    2285.4539 (a.u.)^3
     number of atoms/cell      =           14
     number of atomic types    =            2
     number of electrons       =       314.00
     number of Kohn-Sham states=          188
     kinetic-energy cutoff     =      30.0000  Ry
     charge density cutoff     =     240.0000  Ry
     scf convergence threshold =      1.0E-06
     mixing beta               =       0.7000
     number of iterations used =            8  plain     mixing
     Exchange-correlation= PBE
                           (   1   4   3   4   0   0   0)

     celldm(1)=  11.668477  celldm(2)=   0.000000  celldm(3)=   0.000000
     celldm(4)=   0.000000  celldm(5)=   0.000000  celldm(6)=   0.000000

     crystal axes: (cart. coord. in units of alat)
               a(1) = (   1.000000   0.000000   0.000000 )
               a(2) = (   0.000000   1.163977   0.000000 )
               a(3) = (  -0.500000  -0.163894   1.235907 )

     reciprocal axes: (cart. coord. in units 2 pi/alat)
               b(1) = (  1.000000  0.000000  0.404561 )
               b(2) = (  0.000000  0.859124  0.113929 )
               b(3) = (  0.000000  0.000000  0.809123 )

     PseudoPot. # 1 for Lu read from file:
     /home/pragov/projects/rrg-bengioy-ad/pragov/crystal_structure_design/SSSP/Lu.GGA-PBE-paw-v1.0.UPF
     MD5 check sum: 9ceca61ee0c17e9380a83635bfffa61d
     Pseudo is Projector augmented-wave + core cor, Zval = 25.0
     Generated using ATOMPAW code
     Shape of augmentation charge: BESSEL
     Using radial grid of 1118 points,  8 beta functions with:
                l(1) =   0
                l(2) =   0
                l(3) =   1
                l(4) =   1
                l(5) =   2
                l(6) =   2
                l(7) =   3
                l(8) =   3
     Q(r) pseudized with 0 coefficients

     PseudoPot. # 2 for Ru read from file:
     /home/pragov/projects/rrg-bengioy-ad/pragov/crystal_structure_design/SSSP/Ru_ONCV_PBE-1.0.oncvpsp.upf
     MD5 check sum: be037bb81c227cfb9b1461a9f099f4bd
     Pseudo is Norm-conserving, Zval = 16.0
     Generated using ONCVPSP code by D. R. Hamann
     Using radial grid of 1458 points,  6 beta functions with:
                l(1) =   0
                l(2) =   0
                l(3) =   1
                l(4) =   1
                l(5) =   2
                l(6) =   2

     atomic species   valence    mass     pseudopotential
        Lu            25.00   174.96680     Lu( 1.00)
        Ru            16.00   101.07000     Ru( 1.00)

      4 Sym. Ops., with inversion, found ( 2 have fractional translation)

                                    s                        frac. trans.

      isym =  1     identity

 cryst.   s( 1) = (     1          0          0      )
                  (     0          1          0      )
                  (     0          0          1      )

 cart.    s( 1) = (  1.0000000  0.0000000 -0.0000000 )
                  (  0.0000000  1.0000000 -0.0000000 )
                  (  0.0000000  0.0000000  1.0000000 )

      isym =  2     180 deg rotation - cart. axis [1,0,0]

 cryst.   s( 2) = (     1          0          0      )    f =(  0.0000000 )
                  (     0         -1          0      )       (  0.5000000 )
                  (    -1          0         -1      )       ( -0.0000000 )

 cart.    s( 2) = (  1.0000000  0.0000000  0.0000000 )    f =(  0.0000000 )
                  (  0.0000000 -1.0000000  0.0000000 )       (  0.5819883 )
                  (  0.0000000  0.0000000 -1.0000000 )       ( -0.0000000 )

      isym =  3     inversion

 cryst.   s( 3) = (    -1          0          0      )
                  (     0         -1          0      )
                  (     0          0         -1      )

 cart.    s( 3) = ( -1.0000000  0.0000000  0.0000000 )
                  (  0.0000000 -1.0000000  0.0000000 )
                  (  0.0000000  0.0000000 -1.0000000 )

      isym =  4     inv. 180 deg rotation - cart. axis [1,0,0]

 cryst.   s( 4) = (    -1          0          0      )    f =(  0.0000000 )
                  (     0          1          0      )       ( -0.5000000 )
                  (     1          0          1      )       (  0.0000000 )

 cart.    s( 4) = ( -1.0000000  0.0000000 -0.0000000 )    f =(  0.0000000 )
                  (  0.0000000  1.0000000 -0.0000000 )       ( -0.5819883 )
                  (  0.0000000  0.0000000  1.0000000 )       (  0.0000000 )

   Cartesian axes

     site n.     atom                  positions (alat units)
         1           Lu  tau(   1) = (   0.1145055  -0.0359746   1.0034216  )
         2           Lu  tau(   2) = (   0.3854945   1.0360570   0.2324852  )
         3           Lu  tau(   3) = (   0.6145055   0.4540687   0.2324852  )
         4           Lu  tau(   4) = (  -0.1145055   0.5460137   1.0034216  )
         5           Lu  tau(   5) = (   0.0856740   0.2924690   0.5355357  )
         6           Lu  tau(   6) = (   0.4143260   0.7076134   0.7003711  )
         7           Lu  tau(   7) = (   0.5856750   0.1256251   0.7003711  )
         8           Lu  tau(   8) = (  -0.0856750   0.8744573   0.5355357  )
         9           Lu  tau(   9) = (   0.0804700   0.2909941   0.0000000  )
        10           Lu  tau(  10) = (   0.9195300   0.8729824   0.0000000  )
        11           Ru  tau(  11) = (   0.2109050   0.6363096   0.2723741  )
        12           Ru  tau(  12) = (   0.2890950   0.3637728   0.9635327  )
        13           Ru  tau(  13) = (  -0.2890940   0.9457611   0.9635327  )
        14           Ru  tau(  14) = (   0.7890940   0.0543213   0.2723741  )

   Crystallographic axes

     site n.     atom                  positions (cryst. coord.)
         1           Lu  tau(   1) = (  0.5204510  0.0834120  0.8118910  )
         2           Lu  tau(   2) = (  0.4795490  0.9165880  0.1881090  )
         3           Lu  tau(   3) = (  0.7085600  0.4165880  0.1881090  )
         4           Lu  tau(   4) = (  0.2914400  0.5834120  0.8118910  )
         5           Lu  tau(   5) = (  0.3023310  0.3122800  0.4333140  )
         6           Lu  tau(   6) = (  0.6976690  0.6877200  0.5666860  )
         7           Lu  tau(   7) = (  0.8690180  0.1877200  0.5666860  )
         8           Lu  tau(   8) = (  0.1309820  0.8122800  0.4333140  )
         9           Lu  tau(   9) = (  0.0804700  0.2500000  0.0000000  )
        10           Lu  tau(  10) = (  0.9195300  0.7500000  0.0000000  )
        11           Ru  tau(  11) = (  0.3210970  0.5777000  0.2203840  )
        12           Ru  tau(  12) = (  0.6789030  0.4223000  0.7796160  )
        13           Ru  tau(  13) = (  0.1007140  0.9223000  0.7796160  )
        14           Ru  tau(  14) = (  0.8992860  0.0777000  0.2203840  )

     number of k points=     1  Methfessel-Paxton smearing, width (Ry)=  0.0010
                       cart. coord. in units 2pi/alat
        k(    1) = (   0.0000000   0.0000000   0.0000000), wk =   2.0000000

                       cryst. coord.
        k(    1) = (   0.0000000   0.0000000   0.0000000), wk =   2.0000000

     Initial potential from superposition of free atoms

     starting charge     313.9601, renormalised to     314.0000
     Starting wfcs are  360 randomized atomic wfcs
     Checking if some PAW data can be deallocated...

     Self-consistent Calculation

     iteration #  1     ecut=    30.00 Ry     beta= 0.70
     Davidson diagonalization with overlap

     ethr =  1.00E-02,  avg # of iterations =  4.0

     total energy              =  -11550.28563501 Ry
     estimated scf accuracy    <       7.99872103 Ry

[...]

     total energy              =  -11555.81225154 Ry
     estimated scf accuracy    <       0.00000217 Ry

     iteration # 25     ecut=    30.00 Ry     beta= 0.70
     Davidson diagonalization with overlap

     ethr =  6.90E-10,  avg # of iterations =  2.0

     End of self-consistent calculation

          k = 0.0000 0.0000 0.0000 (  3172 PWs)   bands (ev):

   -55.8253 -55.8244 -55.8241 -55.8240 -40.2825 -40.2775 -40.2766 -40.2751
   -39.9687 -39.9617 -39.9518 -39.9511 -39.9492 -39.9464 -25.8767 -25.8760
   -25.8756 -25.8754 -25.8443 -25.8435 -25.8430 -25.8429 -25.7771 -25.7749
   -25.7742 -25.7740 -11.0741 -11.0715 -11.0346 -11.0204 -11.0068 -10.9766
   -10.9470 -10.9350 -10.9295 -10.9046 -10.8726 -10.8652 -10.8070 -10.7939
   -10.7551 -10.7342 -10.6645 -10.6495 -10.6457 -10.6448 -10.6308 -10.6175
   -10.6004 -10.5991 -10.5717 -10.5430 -10.4995 -10.4892 -10.4847 -10.4676
     9.7468  11.1103  11.1112  11.1137  11.1140  11.1153  11.1157  11.1158
    11.1217  11.1267  11.1283  11.1336  11.1452  11.1522  11.1532  11.1541
    11.1543  11.1567  11.1583  11.1621  11.1624  11.1724  11.1768  11.1773
    11.1801  11.1829  11.1855  11.1896  11.1907  11.3634  11.3689  11.3744
    11.3783  11.3816  11.3817  11.3826  11.3881  11.3903  11.3904  11.3923
    11.3928  11.3950  11.3979  11.4010  11.4013  11.4027  11.4043  11.4082
    11.4097  11.4099  11.4106  11.4136  11.4194  11.4200  11.4206  11.4217
    11.4220  11.4257  11.4331  11.4352  11.4391  11.4411  11.4414  11.4415
    11.4483  11.4522  11.4578  11.4609  11.4635  11.4644  11.4705  12.5330
    12.8092  12.8148  12.9518  12.9655  13.2645  13.4771  13.5142  13.5197
    13.6586  13.7568  13.7754  13.8417  14.0473  14.0655  14.1333  14.1513
    14.1890  14.2176  14.3213  14.3797  14.3860  14.5127  14.6819  15.0559
    15.2173  15.6554  15.7952  15.8147  15.9294  15.9800  16.0187  16.3142
    16.3658  16.3845  16.6551  16.6966  16.7212  17.4269  17.4438  17.5091
    17.5213  17.6686  17.8844  17.9344  18.0354  18.4116  18.4775  18.7112
    18.7585  18.9015  19.1663  19.1952  19.2112  19.3951  19.7516  19.9427
    20.0341  20.1035  20.3328  20.3770

     occupation numbers
     1.0000   1.0000   1.0000   1.0000   1.0000   1.0000   1.0000   1.0000
     1.0000   1.0000   1.0000   1.0000   1.0000   1.0000   1.0000   1.0000
     1.0000   1.0000   1.0000   1.0000   1.0000   1.0000   1.0000   1.0000
     1.0000   1.0000   1.0000   1.0000   1.0000   1.0000   1.0000   1.0000
     1.0000   1.0000   1.0000   1.0000   1.0000   1.0000   1.0000   1.0000
     1.0000   1.0000   1.0000   1.0000   1.0000   1.0000   1.0000   1.0000
     1.0000   1.0000   1.0000   1.0000   1.0000   1.0000   1.0000   1.0000
     1.0000   1.0000   1.0000   1.0000   1.0000   1.0000   1.0000   1.0000
     1.0000   1.0000   1.0000   1.0000   1.0000   1.0000   1.0000   1.0000
     1.0000   1.0000   1.0000   1.0000   1.0000   1.0000   1.0000   1.0000
     1.0000   1.0000   1.0000   1.0000   1.0000   1.0000   1.0000   1.0000
     1.0000   1.0000   1.0000   1.0000   1.0000   1.0000   1.0000   1.0000
     1.0000   1.0000   1.0000   1.0000   1.0000   1.0000   1.0000   1.0000
     1.0000   1.0000   1.0000   1.0000   1.0000   1.0000   1.0000   1.0000
     1.0000   1.0000   1.0000   1.0000   1.0000   1.0000   1.0000   1.0000
     1.0000   1.0000   1.0000   1.0000   1.0000   1.0000   1.0000   1.0000
     1.0000   1.0000   1.0000   1.0000   1.0000   1.0000   1.0000   1.0000
     1.0000   1.0000   1.0000   1.0000   1.0000   1.0000   1.0000   1.0000
     1.0000   1.0000   1.0000   1.0000   1.0000   1.0000   1.0000   1.0000
     1.0000   1.0000   1.0000   1.0000   1.0122  -0.0122  -0.0000  -0.0000
    -0.0000  -0.0000  -0.0000  -0.0000  -0.0000  -0.0000  -0.0000  -0.0000
    -0.0000  -0.0000  -0.0000  -0.0000  -0.0000  -0.0000  -0.0000  -0.0000
    -0.0000  -0.0000  -0.0000  -0.0000  -0.0000  -0.0000  -0.0000  -0.0000
    -0.0000  -0.0000  -0.0000  -0.0000

     the Fermi energy is    15.9547 ev

!    total energy              =  -11555.81225119 Ry
     estimated scf accuracy    <       0.00000083 Ry
     smearing contrib. (-TS)   =       0.00010454 Ry
     internal energy E=F+TS    =  -11555.81235573 Ry

     The total energy is F=E-TS. E is the sum of the following terms:
     one-electron contribution =   -4391.49678434 Ry
     hartree contribution      =    1980.46893134 Ry
     xc contribution           =    -493.44475887 Ry
     ewald contribution        =   -3741.73703365 Ry
     one-center paw contrib.   =   -4909.60271020 Ry
      -> PAW hartree energy AE =    4916.04484727 Ry
      -> PAW hartree energy PS =   -4232.51369103 Ry
      -> PAW xc energy AE      =   -5993.44819738 Ry
      -> PAW xc energy PS      =     400.31433093 Ry
      -> total E_H with PAW    =    2664.00008758 Ry
      -> total E_XC with PAW   =   -6086.57862531 Ry

     convergence has been achieved in  25 iterations

     Forces acting on atoms (cartesian axes, Ry/au):

     atom    1 type  1   force =    -0.00094453   -0.01805276   -0.00463382
     atom    2 type  1   force =     0.00094453    0.01805276    0.00463382
     atom    3 type  1   force =    -0.00094453    0.01805276    0.00463382
     atom    4 type  1   force =     0.00094453   -0.01805276   -0.00463382
     atom    5 type  1   force =    -0.02316255    0.00048342    0.00406249
     atom    6 type  1   force =     0.02316255   -0.00048342   -0.00406249
     atom    7 type  1   force =    -0.02316255   -0.00048342   -0.00406249
     atom    8 type  1   force =     0.02316255    0.00048342    0.00406249
     atom    9 type  1   force =     0.01674186    0.00000000    0.00000000
     atom   10 type  1   force =    -0.01674186    0.00000000   -0.00000000
     atom   11 type  2   force =    -0.01919137   -0.01450829   -0.00939582
     atom   12 type  2   force =     0.01919137    0.01450829    0.00939582
     atom   13 type  2   force =    -0.01919137    0.01450829    0.00939582
     atom   14 type  2   force =     0.01919137   -0.01450829   -0.00939582
     The non-local contrib.  to forces
     atom    1 type  1   force =     0.09085840    0.03235655   -0.00009217
     atom    2 type  1   force =    -0.09085840   -0.03235655    0.00009217
     atom    3 type  1   force =     0.09085840   -0.03235655    0.00009217
     atom    4 type  1   force =    -0.09085840    0.03235655   -0.00009217
     atom    5 type  1   force =     0.11858386    0.05649468   -0.02574258
     atom    6 type  1   force =    -0.11858386   -0.05649468    0.02574258
     atom    7 type  1   force =     0.11858386   -0.05649468    0.02574258
     atom    8 type  1   force =    -0.11858386    0.05649468   -0.02574258
     atom    9 type  1   force =     0.01506121    0.00000000    0.00000000
     atom   10 type  1   force =    -0.01506121    0.00000000   -0.00000000
     atom   11 type  2   force =     0.07733627    0.02970505   -0.01156591
     atom   12 type  2   force =    -0.07733627   -0.02970505    0.01156591
     atom   13 type  2   force =     0.07733627   -0.02970505    0.01156591
     atom   14 type  2   force =    -0.07733627    0.02970505   -0.01156591
     The ionic contribution  to forces
     atom    1 type  1   force =    -1.89135252   -6.71722613   -6.51420081
     atom    2 type  1   force =     1.89135252    6.71722613    6.51420081
     atom    3 type  1   force =    -1.89163054    6.71731996    6.51409270
     atom    4 type  1   force =     1.89163054   -6.71731996   -6.51409270
     atom    5 type  1   force =    -0.74183837   -5.23237177    6.58526390
     atom    6 type  1   force =     0.74183836    5.23237177   -6.58526391
     atom    7 type  1   force =    -0.74231972    5.23242997   -6.58515139
     atom    8 type  1   force =     0.74231972   -5.23242997    6.58515138
     atom    9 type  1   force =    11.44707772   -0.00007946    0.00003786
     atom   10 type  1   force =   -11.44707772    0.00007946   -0.00003785
     atom   11 type  2   force =     0.89538514   -2.06355729    1.35036458
     atom   12 type  2   force =    -0.89538514    2.06355728   -1.35036458
     atom   13 type  2   force =     0.89523251    2.06357153   -1.35019593
     atom   14 type  2   force =    -0.89523251   -2.06357153    1.35019593
     The local contribution  to forces
     atom    1 type  1   force =     1.79958078    6.66782960    6.51145663
     atom    2 type  1   force =    -1.79878457   -6.66535439   -6.51232807
     atom    3 type  1   force =     1.80028777   -6.66850419   -6.51190730
     atom    4 type  1   force =    -1.79984874    6.66438916    6.51052230
     atom    5 type  1   force =     0.59851235    5.17656542   -6.55594366
     atom    6 type  1   force =    -0.60062765   -5.17666058    6.55637934
     atom    7 type  1   force =     0.60195659   -5.17497752    6.55710222
     atom    8 type  1   force =    -0.60014578    5.17638472   -6.55401986
     atom    9 type  1   force =   -11.44560063    0.00080015    0.00004774
     atom   10 type  1   force =    11.44467112    0.00003508   -0.00060208
     atom   11 type  2   force =    -0.99202862    2.01703984   -1.34913564
     atom   12 type  2   force =     0.99118114   -2.02082119    1.34911651
     atom   13 type  2   force =    -0.99126419   -2.01821766    1.34875660
     atom   14 type  2   force =     0.99232095    2.02166895   -1.34926533
     The core correction contribution to forces
     atom    1 type  1   force =     0.00000151   -0.00000188   -0.00000053
     atom    2 type  1   force =    -0.00000150    0.00000189    0.00000053
     atom    3 type  1   force =     0.00000151    0.00000188    0.00000053
     atom    4 type  1   force =    -0.00000151   -0.00000189   -0.00000054
     atom    5 type  1   force =     0.00000117   -0.00000146   -0.00000102
     atom    6 type  1   force =    -0.00000117    0.00000146    0.00000102
     atom    7 type  1   force =     0.00000118    0.00000147    0.00000102
     atom    8 type  1   force =    -0.00000117   -0.00000146   -0.00000100
     atom    9 type  1   force =     0.00000242    0.00000000    0.00000000
     atom   10 type  1   force =    -0.00000242    0.00000000   -0.00000000
     atom   11 type  2   force =     0.00000000    0.00000000    0.00000000
     atom   12 type  2   force =     0.00000000    0.00000000    0.00000000
     atom   13 type  2   force =     0.00000000    0.00000000    0.00000000
     atom   14 type  2   force =     0.00000000    0.00000000    0.00000000
     The Hubbard contrib.    to forces
     atom    1 type  1   force =     0.00000000    0.00000000    0.00000000
     atom    2 type  1   force =     0.00000000    0.00000000    0.00000000
     atom    3 type  1   force =     0.00000000    0.00000000    0.00000000
     atom    4 type  1   force =     0.00000000    0.00000000    0.00000000
     atom    5 type  1   force =     0.00000000    0.00000000    0.00000000
     atom    6 type  1   force =     0.00000000    0.00000000    0.00000000
     atom    7 type  1   force =     0.00000000    0.00000000    0.00000000
     atom    8 type  1   force =     0.00000000    0.00000000    0.00000000
     atom    9 type  1   force =     0.00000000    0.00000000    0.00000000
     atom   10 type  1   force =     0.00000000    0.00000000    0.00000000
     atom   11 type  2   force =     0.00000000    0.00000000    0.00000000
     atom   12 type  2   force =     0.00000000    0.00000000    0.00000000
     atom   13 type  2   force =     0.00000000    0.00000000    0.00000000
     atom   14 type  2   force =     0.00000000    0.00000000    0.00000000
     The SCF correction term to forces
     atom    1 type  1   force =     0.00001398   -0.00109700   -0.00176509
     atom    2 type  1   force =    -0.00074721   -0.00146818    0.00274078
     atom    3 type  1   force =    -0.00059682    0.00159835    0.00239577
     atom    4 type  1   force =    -0.00008216    0.00261229   -0.00089012
     atom    5 type  1   force =     0.00173098   -0.00019882    0.00046215
     atom    6 type  1   force =     0.00062362    0.00031556   -0.00100011
     atom    7 type  1   force =    -0.00147809   -0.00141733   -0.00188049
     atom    8 type  1   force =    -0.00045424    0.00007313   -0.00150388
     atom    9 type  1   force =     0.00030560   -0.00066683   -0.00010835
     atom   10 type  1   force =     0.00083282   -0.00012453    0.00062995
     atom   11 type  2   force =     0.00022705    0.00228163    0.00095383
     atom   12 type  2   force =     0.00082052    0.00152035   -0.00094709
     atom   13 type  2   force =    -0.00059073   -0.00118487   -0.00073160
     atom   14 type  2   force =    -0.00063326   -0.00228953    0.00120094

     Total force =     0.082674     Total SCF correction =     0.008175

     Computing stress (Cartesian axis) and pressure

          total   stress  (Ry/bohr**3)                   (kbar)     P=      -14.00
   0.00008534   0.00000000   0.00000000           12.55        0.00        0.00
   0.00000000  -0.00029161  -0.00009256            0.00      -42.90      -13.62
   0.00000000  -0.00009256  -0.00007927            0.00      -13.62      -11.66

     kinetic stress (kbar)  21540.58      0.00      0.00
                                0.00  21610.22      6.08
                                0.00      6.08  21554.44

     local   stress (kbar)   7907.93     -0.08     -0.02
                               -0.08   3306.87   1702.12
                               -0.02   1702.12   2283.86

     nonloc. stress (kbar)  21772.60      0.00      0.00
                                0.00  21774.22      5.57
                                0.00      5.57  21774.65

     hartree stress (kbar)  41065.81      0.05      0.01
                                0.05  42794.32   -712.25
                                0.01   -712.25  43614.35

     exc-cor stress (kbar) -10066.87      0.00      0.00
                                0.00 -10062.42      0.47
                                0.00      0.47 -10065.55

     corecor stress (kbar)     -2.37      0.00     -0.00
                                0.00     -2.37     -0.00
                               -0.00     -0.00     -2.37

     ewald   stress (kbar) -82205.13      0.03     -0.00
                                0.03 -79463.74  -1015.60
                               -0.00  -1015.60 -79171.04

     hubbard stress (kbar)      0.00      0.00      0.00
                                0.00      0.00      0.00
                                0.00      0.00      0.00

     DFT-D   stress (kbar)      0.00      0.00      0.00
                                0.00      0.00      0.00
                                0.00      0.00      0.00

     XDM     stress (kbar)      0.00      0.00      0.00
                                0.00      0.00      0.00
                                0.00      0.00      0.00

     dft-nl  stress (kbar)      0.00      0.00      0.00
                                0.00      0.00      0.00
                                0.00      0.00      0.00

     TS-vdW  stress (kbar)      0.00      0.00      0.00
                                0.00      0.00      0.00
                                0.00      0.00      0.00

[...]

                                0.00      0.00      0.00

     Writing all to output data dir new_calculations/myprefix.save/

     General routines

     Parallel routines

     PAW routines

   This run was terminated on:  21:31:54  20May2023

   JOB DONE.