     Program PWSCF v.7.0 starts on 21May2023 at  3:13:10

     Reading input from espresso_8018.pwi
Warning: card &CELL ignored
Warning: card / ignored

     Current dimensions of program PWSCF are:
     Max number of different atomic species (ntypx) = 10
     Max number of k-points (npk) =  40000
     Max angular momentum in pseudopotentials (lmaxx) =  4
     file O.pbe-n-kjpaw_psl.0.1.UPF: wavefunction(s)  2P renormalized

     gamma-point specific algorithms are used
     Message from routine setup:
     using ibrav=0 with symmetry is DISCOURAGED, use correct ibrav instead

     Subspace diagonalization in iterative solution of the eigenvalue problem:
     a serial algorithm will be used

     Using Slab Decomposition

     bravais-lattice index     =            0
     lattice parameter (alat)  =      14.3278  a.u.
     unit-cell volume          =    1580.4045 (a.u.)^3
     number of atoms/cell      =           18
     number of atomic types    =            3
     number of electrons       =       186.00
     number of Kohn-Sham states=          112
     kinetic-energy cutoff     =      30.0000  Ry
     charge density cutoff     =     240.0000  Ry
     scf convergence threshold =      1.0E-06
     mixing beta               =       0.7000
     number of iterations used =            8  plain     mixing
     Exchange-correlation= SLA  PW   PBX  PBC
                           (   1   4   3   4   0   0   0)

     celldm(1)=  14.327817  celldm(2)=   0.000000  celldm(3)=   0.000000
     celldm(4)=   0.000000  celldm(5)=   0.000000  celldm(6)=   0.000000

     crystal axes: (cart. coord. in units of alat)
               a(1) = (   1.000000   0.000000   0.000000 )
               a(2) = (   0.657453   0.753496   0.000000 )
               a(3) = (   0.203028   0.092298   0.713095 )

     reciprocal axes: (cart. coord. in units 2 pi/alat)
               b(1) = (  1.000000 -0.872537 -0.171777 )
               b(2) = (  0.000000  1.327148 -0.171777 )
               b(3) = (  0.000000  0.000000  1.402337 )

     PseudoPot. # 1 for Na read from file:
     /home/pragov/projects/rrg-bengioy-ad/pragov/crystal_structure_design/SSSP/na_pbe_v1.5.uspp.F.UPF
     MD5 check sum: 44600605ef58000f06b90626533354dc
     Pseudo is Ultrasoft, Zval =  9.0
     Generated by new atomic code, or converted to UPF format
     Using radial grid of  819 points,  5 beta functions with:
                l(1) =   0
                l(2) =   0
                l(3) =   1
                l(4) =   1
                l(5) =   2
     Q(r) pseudized with  8 coefficients,  rinner =    1.250   1.250   1.250
                                                       1.250   1.250

     PseudoPot. # 2 for Co read from file:
     /home/pragov/projects/rrg-bengioy-ad/pragov/crystal_structure_design/SSSP/Co_pbe_v1.2.uspp.F.UPF
     MD5 check sum: 5f91765df6ddd3222702df6e7b74a16d
     Pseudo is Ultrasoft + core correction, Zval = 17.0
     Generated by new atomic code, or converted to UPF format
     Using radial grid of  863 points,  6 beta functions with:
                l(1) =   0
                l(2) =   0
                l(3) =   1
                l(4) =   1
                l(5) =   2
                l(6) =   2
     Q(r) pseudized with  8 coefficients,  rinner =    1.200   1.200   1.200
                                                       1.200   1.200

     PseudoPot. # 3 for O  read from file:
     /home/pragov/projects/rrg-bengioy-ad/pragov/crystal_structure_design/SSSP/O.pbe-n-kjpaw_psl.0.1.UPF
     MD5 check sum: 0234752ac141de4415c5fc33072bef88
     Pseudo is Projector augmented-wave + core cor, Zval =  6.0
     Generated using "atomic" code by A. Dal Corso  v.5.0.99 svn rev. 10869
     Shape of augmentation charge: BESSEL
     Using radial grid of 1095 points,  4 beta functions with:
                l(1) =   0
                l(2) =   0
                l(3) =   1
                l(4) =   1
     Q(r) pseudized with 0 coefficients

     atomic species   valence    mass     pseudopotential
        Na             9.00    22.98977     Na( 1.00)
        Co            17.00    58.93319     Co( 1.00)
        O              6.00    15.99900     O ( 1.00)

      2 Sym. Ops., with inversion, found

                                    s                        frac. trans.

      isym =  1     identity

 cryst.   s( 1) = (     1          0          0      )
                  (     0          1          0      )
                  (     0          0          1      )

 cart.    s( 1) = (  1.0000000 -0.0000000 -0.0000000 )
                  (  0.0000000  1.0000000 -0.0000000 )
                  (  0.0000000  0.0000000  1.0000000 )

      isym =  2     inversion

 cryst.   s( 2) = (    -1          0          0      )
                  (     0         -1          0      )
                  (     0          0         -1      )

 cart.    s( 2) = ( -1.0000000  0.0000000  0.0000000 )
                  (  0.0000000 -1.0000000  0.0000000 )
                  (  0.0000000  0.0000000 -1.0000000 )

   Cartesian axes

     site n.     atom                  positions (alat units)
         1           Na  tau(   1) = (   1.6171113   0.8434899   0.6957071  )
         2           Na  tau(   2) = (   1.5972268   0.6177819   0.3391595  )
         3           Na  tau(   3) = (   0.2632538   0.2280121   0.3739357  )
         4           Na  tau(   4) = (   0.2433693   0.0023041   0.0173881  )
         5           Co  tau(   5) = (   0.6833953   0.2002070   0.4091063  )
         6           Co  tau(   6) = (   0.4986416   0.3371594   0.0525587  )
         7           Co  tau(   7) = (   1.3618390   0.5086346   0.6605365  )
         8           Co  tau(   8) = (   1.1770853   0.6455870   0.3039889  )
         9           Co  tau(   9) = (   0.9748783   0.4594313   0.5348214  )
        10           Co  tau(  10) = (   0.8856023   0.3863627   0.1782738  )
        11           O   tau(  11) = (   0.9436956   0.2348120   0.3880735  )
        12           O   tau(  12) = (   0.6958516   0.5105433   0.0315259  )
        13           O   tau(  13) = (   0.5582571   0.3737694   0.5484786  )
        14           O   tau(  14) = (   1.3133330   0.7170348   0.5211642  )
        15           O   tau(  15) = (   0.5471476   0.1287591   0.1919310  )
        16           O   tau(  16) = (   1.3022235   0.4720246   0.1646166  )
        17           O   tau(  17) = (   1.1646290   0.3352507   0.6815692  )
        18           O   tau(  18) = (   0.9167850   0.6109819   0.3250216  )

   Crystallographic axes

     site n.     atom                  positions (cryst. coord.)
         1           Na  tau(   1) = (  0.7616280  0.9999290  0.9756160  )
         2           Na  tau(   2) = (  0.9999290  0.7616280  0.4756160  )
         3           Na  tau(   3) = (  0.0000710  0.2383720  0.5243840  )
         4           Na  tau(   4) = (  0.2383720  0.0000710  0.0243840  )
         5           Co  tau(   5) = (  0.4384320  0.1954290  0.5737050  )
         6           Co  tau(   6) = (  0.1954290  0.4384320  0.0737050  )
         7           Co  tau(   7) = (  0.8045710  0.5615680  0.9262950  )
         8           Co  tau(   8) = (  0.5615680  0.8045710  0.4262950  )
         9           Co  tau(   9) = (  0.4821370  0.5178630  0.7500000  )
        10           Co  tau(  10) = (  0.5178630  0.4821370  0.2500000  )
        11           O   tau(  11) = (  0.6721510  0.2449680  0.5442100  )
        12           O   tau(  12) = (  0.2449680  0.6721510  0.0442100  )
        13           O   tau(  13) = (  0.1379130  0.4018310  0.7691520  )
        14           O   tau(  14) = (  0.5981690  0.8620870  0.7308480  )
        15           O   tau(  15) = (  0.4018310  0.1379130  0.2691520  )
        16           O   tau(  16) = (  0.8620870  0.5981690  0.2308480  )
        17           O   tau(  17) = (  0.7550320  0.3278490  0.9557900  )
        18           O   tau(  18) = (  0.3278490  0.7550320  0.4557900  )

     number of k points=     1  Methfessel-Paxton smearing, width (Ry)=  0.0010
                       cart. coord. in units 2pi/alat
        k(    1) = (   0.0000000   0.0000000   0.0000000), wk =   2.0000000

                       cryst. coord.
        k(    1) = (   0.0000000   0.0000000   0.0000000), wk =   2.0000000

     Check: negative core charge=   -0.000021

     Initial potential from superposition of free atoms

     starting charge     179.9748, renormalised to     186.0000
     Starting wfcs are  130 randomized atomic wfcs
     Checking if some PAW data can be deallocated...

     Self-consistent Calculation

     iteration #  1     ecut=    30.00 Ry     beta= 0.70
     Davidson diagonalization with overlap

     ethr =  1.00E-02,  avg # of iterations =  2.0

     total energy              =   -2480.70738262 Ry
     estimated scf accuracy    <      34.29832227 Ry

[...]

     total energy              =   -2504.75503001 Ry
     estimated scf accuracy    <       0.00000261 Ry

     iteration # 38     ecut=    30.00 Ry     beta= 0.70
     Davidson diagonalization with overlap

     ethr =  5.75E-10,  avg # of iterations =  1.0

     End of self-consistent calculation

          k = 0.0000 0.0000 0.0000 (  2200 PWs)   bands (ev):

   -87.0248 -87.0248 -87.0221 -87.0220 -86.6425 -86.6389 -50.4494 -50.4455
   -50.4433 -50.4404 -50.4030 -50.4026 -50.3826 -50.3775 -50.0865 -50.0765
   -50.0712 -50.0606 -50.0522 -50.0478 -50.0412 -50.0370 -49.5794 -49.5788
   -44.1024 -44.1008 -44.0975 -44.0967 -16.0814 -16.0795 -16.0271 -16.0237
   -16.0112 -16.0109 -16.0081 -16.0080 -16.0057 -15.9844 -15.9747 -15.9743
   -11.3585 -10.9429 -10.8945 -10.8783 -10.7194 -10.3635 -10.3336 -10.2429
     1.3518   1.8236   2.1220   2.1834   2.3393   2.5406   2.5991   2.6343
     3.0895   3.1068   3.1364   3.1917   3.1990   3.2165   3.4015   3.4058
     3.6155   3.7151   3.9496   3.9508   4.0516   4.3479   4.3609   4.5977
     6.3833   6.4366   6.5748   6.6423   6.7571   6.8719   6.9228   6.9801
     6.9819   7.1388   7.2814   7.3103   7.4984   7.5368   7.6990   7.8000
     7.8660   7.8834   7.9159   8.0309   8.0821   8.1732   8.2326   8.2617
     8.3735   8.5820   8.7875   8.8864   9.0065   9.0363   9.2339  12.3285
    12.6066  13.1110  13.1639  13.6857  13.7127  13.7722  14.0850  14.6462

     occupation numbers
     1.0000   1.0000   1.0000   1.0000   1.0000   1.0000   1.0000   1.0000
     1.0000   1.0000   1.0000   1.0000   1.0000   1.0000   1.0000   1.0000
     1.0000   1.0000   1.0000   1.0000   1.0000   1.0000   1.0000   1.0000
     1.0000   1.0000   1.0000   1.0000   1.0000   1.0000   1.0000   1.0000
     1.0000   1.0000   1.0000   1.0000   1.0000   1.0000   1.0000   1.0000
     1.0000   1.0000   1.0000   1.0000   1.0000   1.0000   1.0000   1.0000
     1.0000   1.0000   1.0000   1.0000   1.0000   1.0000   1.0000   1.0000
     1.0000   1.0000   1.0000   1.0000   1.0000   1.0000   1.0000   1.0000
     1.0000   1.0000   1.0000   1.0000   1.0000   1.0000   1.0000   1.0000
     1.0000   1.0000   1.0000   1.0000   1.0000   1.0000   1.0000   1.0000
     1.0000   1.0000   1.0000   1.0000   1.0000   1.0000   1.0000   1.0000
     1.0000   1.0000   1.0000   1.0000   1.0000  -0.0000  -0.0000  -0.0000
    -0.0000  -0.0000  -0.0000  -0.0000  -0.0000  -0.0000  -0.0000  -0.0000
    -0.0000  -0.0000  -0.0000  -0.0000  -0.0000  -0.0000  -0.0000  -0.0000

     the Fermi energy is     8.1277 ev

!    total energy              =   -2504.75502959 Ry
     estimated scf accuracy    <       0.00000053 Ry
     smearing contrib. (-TS)   =       0.00000016 Ry
     internal energy E=F+TS    =   -2504.75502976 Ry

     The total energy is F=E-TS. E is the sum of the following terms:
     one-electron contribution =   -1868.20791996 Ry
     hartree contribution      =    1007.67434213 Ry
     xc contribution           =    -311.61750228 Ry
     ewald contribution        =   -1256.36657568 Ry
     one-center paw contrib.   =     -76.23737396 Ry
      -> PAW hartree energy AE =     224.26842683 Ry
      -> PAW hartree energy PS =    -223.50332360 Ry
      -> PAW xc energy AE      =    -135.36515335 Ry
      -> PAW xc energy PS      =      58.36267615 Ry
      -> total E_H with PAW    =    1008.43944536 Ry
      -> total E_XC with PAW   =    -388.61997947 Ry

     convergence has been achieved in  38 iterations

     Forces acting on atoms (cartesian axes, Ry/au):

     atom    1 type  1   force =    -0.00082515    0.00660660   -0.00129145
     atom    2 type  1   force =     0.00442938   -0.00497663   -0.00129775
     atom    3 type  1   force =    -0.00442938    0.00497663    0.00129775
     atom    4 type  1   force =     0.00082515   -0.00660660    0.00129145
     atom    5 type  2   force =    -0.00496566    0.05309486    0.01364812
     atom    6 type  2   force =     0.03678352   -0.03861862    0.01364049
     atom    7 type  2   force =    -0.03678352    0.03861862   -0.01364049
     atom    8 type  2   force =     0.00496566   -0.05309486   -0.01364812
     atom    9 type  2   force =     0.00361553   -0.00790581    0.00008415
     atom   10 type  2   force =    -0.00361553    0.00790581   -0.00008415
     atom   11 type  3   force =    -0.00844599    0.02849921   -0.01741169
     atom   12 type  3   force =     0.01591865   -0.02512163   -0.01741246
     atom   13 type  3   force =     0.00410095   -0.01460302    0.00840978
     atom   14 type  3   force =     0.00830838   -0.01269907   -0.00840323
     atom   15 type  3   force =    -0.00830838    0.01269907    0.00840323
     atom   16 type  3   force =    -0.00410095    0.01460302   -0.00840978
     atom   17 type  3   force =    -0.01591865    0.02512163    0.01741246
     atom   18 type  3   force =     0.00844599   -0.02849921    0.01741169
     The non-local contrib.  to forces
     atom    1 type  1   force =     0.07919501   -0.28962852   -0.02883711
     atom    2 type  1   force =    -0.16616934    0.25007722   -0.02884042
     atom    3 type  1   force =     0.16616934   -0.25007722    0.02884042
     atom    4 type  1   force =    -0.07919501    0.28962852    0.02883711
     atom    5 type  2   force =    -0.02356112   -0.11295400   -0.05646892
     atom    6 type  2   force =    -0.10055459    0.05654639   -0.05647531
     atom    7 type  2   force =     0.10055459   -0.05654639    0.05647531
     atom    8 type  2   force =     0.02356112    0.11295400    0.05646892
     atom    9 type  2   force =     0.04545272   -0.09992669    0.00007983
     atom   10 type  2   force =    -0.04545272    0.09992669   -0.00007983
     atom   11 type  3   force =    -0.50028019    0.61659812   -0.15963126
     atom   12 type  3   force =     0.13568123   -0.78238686   -0.15962328
     atom   13 type  3   force =     0.09381539   -0.20151004    0.44174870
     atom   14 type  3   force =     0.09016953   -0.20318359   -0.44175196
     atom   15 type  3   force =    -0.09016953    0.20318359    0.44175196
     atom   16 type  3   force =    -0.09381539    0.20151004   -0.44174870
     atom   17 type  3   force =    -0.13568123    0.78238686    0.15962328
     atom   18 type  3   force =     0.50028019   -0.61659812    0.15963126
     The ionic contribution  to forces
     atom    1 type  1   force =     8.62667791   -3.97334134   -1.71076385
     atom    2 type  1   force =     2.67774070    9.11244851   -1.71076385
     atom    3 type  1   force =    -2.67774070   -9.11244851    1.71076385
     atom    4 type  1   force =    -8.62667790    3.97334134    1.71076385
     atom    5 type  2   force =    -0.28196780   -3.96291914    3.65884019
     atom    6 type  2   force =    -3.17142242    2.39297176    3.65884019
     atom    7 type  2   force =     3.17142241   -2.39297176   -3.65884019
     atom    8 type  2   force =     0.28196780    3.96291914   -3.65884019
     atom    9 type  2   force =    -1.48895864    3.27524046   -0.00000000
     atom   10 type  2   force =     1.48895864   -3.27524046    0.00000000
     atom   11 type  3   force =    10.82608480  -14.85801397    0.28895143
     atom   12 type  3   force =    -4.07780463   17.92585285    0.28895143
     atom   13 type  3   force =    -4.31728223   -0.17905684   -4.33331494
     atom   14 type  3   force =     2.97332885    3.13533136    4.33331494
     atom   15 type  3   force =    -2.97332885   -3.13533136   -4.33331494
     atom   16 type  3   force =     4.31728223    0.17905684    4.33331494
     atom   17 type  3   force =     4.07780463  -17.92585285   -0.28895143
     atom   18 type  3   force =   -10.82608480   14.85801397   -0.28895143
     The local contribution  to forces
     atom    1 type  1   force =    -8.70685038    4.26958091    1.73843761
     atom    2 type  1   force =    -2.50727228   -9.36755125    1.73831674
     atom    3 type  1   force =     2.50729813    9.36750950   -1.73843310
     atom    4 type  1   force =     8.70686950   -4.26941530   -1.73827113
     atom    5 type  2   force =     0.30189909    4.12770049   -3.59098806
     atom    6 type  2   force =     3.30816463   -2.48664118   -3.59025905
     atom    7 type  2   force =    -3.30851277    2.48599673    3.59085011
     atom    8 type  2   force =    -0.30164232   -4.12722263    3.59018167
     atom    9 type  2   force =     1.44772912   -3.18495382   -0.00019977
     atom   10 type  2   force =    -1.44753888    3.18395066    0.00025855
     atom   11 type  3   force =   -10.34015805   14.27679104   -0.14914437
     atom   12 type  3   force =     3.95968542  -17.17734688   -0.14822408
     atom   13 type  3   force =     4.22860642    0.36329968    3.90527478
     atom   14 type  3   force =    -3.05380797   -2.94712090   -3.90544221
     atom   15 type  3   force =     3.05401067    2.94730711    3.90541189
     atom   16 type  3   force =    -4.22850014   -0.36340933   -3.90534379
     atom   17 type  3   force =    -3.95941169   17.17746776    0.14924129
     atom   18 type  3   force =    10.33978097  -14.27690069    0.14831191
     The core correction contribution to forces
     atom    1 type  1   force =     0.00000000    0.00000000    0.00000000
     atom    2 type  1   force =     0.00000000    0.00000000    0.00000000
     atom    3 type  1   force =     0.00000000    0.00000000    0.00000000
     atom    4 type  1   force =     0.00000000    0.00000000    0.00000000
     atom    5 type  2   force =    -0.00144143    0.00136331    0.00190727
     atom    6 type  2   force =     0.00007730   -0.00198264    0.00190674
     atom    7 type  2   force =    -0.00008100    0.00198119   -0.00190648
     atom    8 type  2   force =     0.00143933   -0.00136346   -0.00190643
     atom    9 type  2   force =    -0.00056961    0.00125334   -0.00000043
     atom   10 type  2   force =     0.00057222   -0.00125612   -0.00000003
     atom   11 type  3   force =     0.00561458   -0.00700634    0.00201469
     atom   12 type  3   force =    -0.00158753    0.00883935    0.00201540
     atom   13 type  3   force =    -0.00096702    0.00255244   -0.00535549
     atom   14 type  3   force =    -0.00128737    0.00240738    0.00535564
     atom   15 type  3   force =     0.00128737   -0.00240725   -0.00535576
     atom   16 type  3   force =     0.00096815   -0.00255270    0.00535561
     atom   17 type  3   force =     0.00158835   -0.00883665   -0.00201378
     atom   18 type  3   force =    -0.00561524    0.00700735   -0.00201474
     The Hubbard contrib.    to forces
     atom    1 type  1   force =     0.00000000    0.00000000    0.00000000
     atom    2 type  1   force =     0.00000000    0.00000000    0.00000000
     atom    3 type  1   force =     0.00000000    0.00000000    0.00000000
     atom    4 type  1   force =     0.00000000    0.00000000    0.00000000
     atom    5 type  2   force =     0.00000000    0.00000000    0.00000000
     atom    6 type  2   force =     0.00000000    0.00000000    0.00000000
     atom    7 type  2   force =     0.00000000    0.00000000    0.00000000
     atom    8 type  2   force =     0.00000000    0.00000000    0.00000000
     atom    9 type  2   force =     0.00000000    0.00000000    0.00000000
     atom   10 type  2   force =     0.00000000    0.00000000    0.00000000
     atom   11 type  3   force =     0.00000000    0.00000000    0.00000000
     atom   12 type  3   force =     0.00000000    0.00000000    0.00000000
     atom   13 type  3   force =     0.00000000    0.00000000    0.00000000
     atom   14 type  3   force =     0.00000000    0.00000000    0.00000000
     atom   15 type  3   force =     0.00000000    0.00000000    0.00000000
     atom   16 type  3   force =     0.00000000    0.00000000    0.00000000
     atom   17 type  3   force =     0.00000000    0.00000000    0.00000000
     atom   18 type  3   force =     0.00000000    0.00000000    0.00000000
     The SCF correction term to forces
     atom    1 type  1   force =     0.00015196   -0.00002571   -0.00012700
     atom    2 type  1   force =     0.00013667    0.00004556   -0.00002298
     atom    3 type  1   force =    -0.00014979   -0.00001049    0.00011383
     atom    4 type  1   force =    -0.00017180   -0.00018241   -0.00003727
     atom    5 type  2   force =     0.00009156   -0.00010254    0.00035530
     atom    6 type  2   force =     0.00049272    0.00049387   -0.00034557
     atom    7 type  2   force =    -0.00019263    0.00016567   -0.00019272
     atom    8 type  2   force =    -0.00037432   -0.00038865    0.00044557
     atom    9 type  2   force =    -0.00002335    0.00048467    0.00020383
     atom   10 type  2   force =    -0.00014006    0.00052880   -0.00026355
     atom   11 type  3   force =     0.00027520    0.00016002    0.00040340
     atom   12 type  3   force =    -0.00003029   -0.00001159   -0.00049215
     atom   13 type  3   force =    -0.00004059    0.00010360    0.00006305
     atom   14 type  3   force =    -0.00009617   -0.00013341    0.00011501
     atom   15 type  3   force =    -0.00010955   -0.00005311   -0.00009527
     atom   16 type  3   force =    -0.00000479   -0.00000997    0.00001847
     atom   17 type  3   force =    -0.00019318    0.00002502   -0.00044712
     atom   18 type  3   force =     0.00006720    0.00000795    0.00044027

     Total force =     0.135678     Total SCF correction =     0.001782

     Computing stress (Cartesian axis) and pressure

          total   stress  (Ry/bohr**3)                   (kbar)     P=     -594.95
  -0.00408030  -0.00003289   0.00007321         -600.23       -4.84       10.77
  -0.00003289  -0.00402291   0.00003325           -4.84     -591.79        4.89
   0.00007321   0.00003325  -0.00402995           10.77        4.89     -592.83

     kinetic stress (kbar)  28452.08     56.31    -46.67
                               56.31  28353.80    -21.20
                              -46.67    -21.20  28452.59

     local   stress (kbar) -10244.73 -11826.38  -4589.07
                           -11826.38  10393.07  -2086.28
                            -4589.07  -2086.28 -21970.85

     nonloc. stress (kbar)  -4921.70     37.51    -30.59
                               37.51  -4987.16    -13.90
                              -30.59    -13.90  -4867.07

     hartree stress (kbar)  32768.64   5655.79   2064.15
                             5655.79  22899.00    938.40
                             2064.15    938.40  38127.34

     exc-cor stress (kbar)  -7529.61     -0.02      0.56
                               -0.02  -7529.58      0.25
                                0.56      0.25  -7528.07

     corecor stress (kbar)  -1569.55     -0.36      0.53
                               -0.36  -1568.93      0.24
                                0.53      0.24  -1570.71

     ewald   stress (kbar) -37555.36   6072.31   2611.86
                             6072.31 -48152.00   1187.38
                             2611.86   1187.38 -31236.06

     hubbard stress (kbar)      0.00      0.00      0.00
                                0.00      0.00      0.00
                                0.00      0.00      0.00

     DFT-D   stress (kbar)      0.00      0.00      0.00
                                0.00      0.00      0.00
                                0.00      0.00      0.00

     XDM     stress (kbar)      0.00      0.00      0.00
                                0.00      0.00      0.00
                                0.00      0.00      0.00

     dft-nl  stress (kbar)      0.00      0.00      0.00
                                0.00      0.00      0.00
                                0.00      0.00      0.00

     TS-vdW  stress (kbar)      0.00      0.00      0.00
                                0.00      0.00      0.00
                                0.00      0.00      0.00

[...]

                                0.00      0.00      0.00

     Writing all to output data dir new_calculations/myprefix.save/

     General routines

     Parallel routines

     PAW routines

   This run was terminated on:   3:14: 7  21May2023

   JOB DONE.