     Program PWSCF v.7.0 starts on 21May2023 at  5:15:28

     Reading input from espresso_9037.pwi
Warning: card &CELL ignored
Warning: card / ignored

     Current dimensions of program PWSCF are:
     Max number of different atomic species (ntypx) = 10
     Max number of k-points (npk) =  40000
     Max angular momentum in pseudopotentials (lmaxx) =  4
     file O.pbe-n-kjpaw_psl.0.1.UPF: wavefunction(s)  2P renormalized

     gamma-point specific algorithms are used
     Message from routine setup:
     using ibrav=0 with symmetry is DISCOURAGED, use correct ibrav instead

     Subspace diagonalization in iterative solution of the eigenvalue problem:
     a serial algorithm will be used

     Using Slab Decomposition

     bravais-lattice index     =            0
     lattice parameter (alat)  =      13.1553  a.u.
     unit-cell volume          =    1062.4179 (a.u.)^3
     number of atoms/cell      =           12
     number of atomic types    =            3
     number of electrons       =        88.00
     number of Kohn-Sham states=           53
     kinetic-energy cutoff     =      30.0000  Ry
     charge density cutoff     =     240.0000  Ry
     scf convergence threshold =      1.0E-06
     mixing beta               =       0.7000
     number of iterations used =            8  plain     mixing
     Exchange-correlation= SLA  PW   PBX  PBC
                           (   1   4   3   4   0   0   0)

     celldm(1)=  13.155343  celldm(2)=   0.000000  celldm(3)=   0.000000
     celldm(4)=   0.000000  celldm(5)=   0.000000  celldm(6)=   0.000000

     crystal axes: (cart. coord. in units of alat)
               a(1) = (   1.000000   0.000000   0.000000 )
               a(2) = (   0.452404   0.891813   0.000000 )
               a(3) = (  -0.726202  -0.445907   0.523257 )

     reciprocal axes: (cart. coord. in units 2 pi/alat)
               b(1) = (  1.000000 -0.507286  0.955553 )
               b(2) = (  0.000000  1.121311  0.955553 )
               b(3) = (  0.000000  0.000000  1.911107 )

     PseudoPot. # 1 for Bi read from file:
     /home/pragov/projects/rrg-bengioy-ad/pragov/crystal_structure_design/SSSP/Bi_pbe_v1.uspp.F.UPF
     MD5 check sum: cceb9f28ec65b6d7ff33140f5b0b1758
     Pseudo is Ultrasoft + core correction, Zval = 15.0
     Generated by new atomic code, or converted to UPF format
     Using radial grid of  899 points,  6 beta functions with:
                l(1) =   0
                l(2) =   0
                l(3) =   1
                l(4) =   1
                l(5) =   2
                l(6) =   2
     Q(r) pseudized with  6 coefficients,  rinner =    1.000   1.000   1.000
                                                       1.000   1.000

     PseudoPot. # 2 for As read from file:
     /home/pragov/projects/rrg-bengioy-ad/pragov/crystal_structure_design/SSSP/As.pbe-n-rrkjus_psl.0.2.UPF
     MD5 check sum: 767315de957beeeb34f87d97bf945c8f
     Pseudo is Ultrasoft + core correction, Zval =  5.0
     Generated using "atomic" code by A. Dal Corso  v.5.0.99 svn rev. 10869
     Using radial grid of 1209 points,  4 beta functions with:
                l(1) =   0
                l(2) =   0
                l(3) =   1
                l(4) =   1
     Q(r) pseudized with 0 coefficients

     PseudoPot. # 3 for O  read from file:
     /home/pragov/projects/rrg-bengioy-ad/pragov/crystal_structure_design/SSSP/O.pbe-n-kjpaw_psl.0.1.UPF
     MD5 check sum: 0234752ac141de4415c5fc33072bef88
     Pseudo is Projector augmented-wave + core cor, Zval =  6.0
     Generated using "atomic" code by A. Dal Corso  v.5.0.99 svn rev. 10869
     Shape of augmentation charge: BESSEL
     Using radial grid of 1095 points,  4 beta functions with:
                l(1) =   0
                l(2) =   0
                l(3) =   1
                l(4) =   1
     Q(r) pseudized with 0 coefficients

     atomic species   valence    mass     pseudopotential
        Bi            15.00   208.98040     Bi( 1.00)
        As             5.00    74.92159     As( 1.00)
        O              6.00    15.99900     O ( 1.00)

      2 Sym. Ops., with inversion, found ( 1 have fractional translation)

                                    s                        frac. trans.

      isym =  1     identity

 cryst.   s( 1) = (     1          0          0      )
                  (     0          1          0      )
                  (     0          0          1      )

 cart.    s( 1) = (  1.0000000 -0.0000000  0.0000000 )
                  (  0.0000000  1.0000000  0.0000000 )
                  (  0.0000000  0.0000000  1.0000000 )

      isym =  2     inversion

 cryst.   s( 2) = (    -1          0          0      )    f =(  0.2500000 )
                  (     0         -1          0      )       ( -0.2500000 )
                  (     0          0         -1      )       ( -0.5000000 )

 cart.    s( 2) = ( -1.0000000  0.0000000 -0.0000000 )    f =(  0.5000000 )
                  (  0.0000000 -1.0000000 -0.0000000 )       (  0.0000000 )
                  (  0.0000000  0.0000000 -1.0000000 )       ( -0.2616285 )

   Cartesian axes

     site n.     atom                  positions (alat units)
         1           Bi  tau(   1) = (   0.2262021   0.4459065   0.2616285  )
         2           Bi  tau(   2) = (   0.7262021   0.4459065   0.0000000  )
         3           As  tau(   3) = (   0.5000000  -0.0000000   0.2616285  )
         4           As  tau(   4) = (   0.0000000   0.0000000   0.0000000  )
         5           O   tau(   5) = (   0.2805521   0.1054092   0.3155444  )
         6           O   tau(   6) = (  -0.0543500   0.3404973   0.4693412  )
         7           O   tau(   7) = (   0.5841483   0.1149378   0.0569743  )
         8           O   tau(   8) = (   0.9471307   0.6484199   0.2077126  )
         9           O   tau(   9) = (   0.5856296   0.4228594   0.3186028  )
        10           O   tau(  10) = (  -0.3594275   0.0230471   0.4662827  )
        11           O   tau(  11) = (   1.0052734   0.2433932   0.0539159  )
        12           O   tau(  12) = (  -0.0841483  -0.1149378   0.2046542  )

   Crystallographic axes

     site n.     atom                  positions (cryst. coord.)
         1           Bi  tau(   1) = (  0.2500000  0.7500000  0.5000000  )
         2           Bi  tau(   2) = (  0.5000000  0.5000000  0.0000000  )
         3           As  tau(   3) = (  0.7500000  0.2500000  0.5000000  )
         4           As  tau(   4) = (  0.0000000  0.0000000  0.0000000  )
         5           O   tau(   5) = (  0.5285990  0.4197160  0.6030390  )
         6           O   tau(   6) = (  0.2214010  0.8302840  0.8969610  )
         7           O   tau(   7) = (  0.5802840  0.1833230  0.1088840  )
         8           O   tau(   8) = (  0.8166770  0.9255610  0.3969610  )
         9           O   tau(   9) = (  0.6755610  0.7785990  0.6088840  )
        10           O   tau(  10) = (  0.0744390  0.4714010  0.8911160  )
        11           O   tau(  11) = (  0.9333230  0.3244390  0.1030390  )
        12           O   tau(  12) = (  0.1697160  0.0666770  0.3911160  )

     number of k points=     1  Methfessel-Paxton smearing, width (Ry)=  0.0010
                       cart. coord. in units 2pi/alat
        k(    1) = (   0.0000000   0.0000000   0.0000000), wk =   2.0000000

                       cryst. coord.
        k(    1) = (   0.0000000   0.0000000   0.0000000), wk =   2.0000000

     Check: negative core charge=   -0.000009

     Initial potential from superposition of free atoms

     starting charge      85.9994, renormalised to      88.0000

     negative rho (up, down):  8.542E-02 0.000E+00
     Starting wfcs are   58 randomized atomic wfcs
     Checking if some PAW data can be deallocated...

     Self-consistent Calculation

     iteration #  1     ecut=    30.00 Ry     beta= 0.70
     Davidson diagonalization with overlap

     ethr =  1.00E-02,  avg # of iterations =  3.0

     negative rho (up, down):  7.780E-02 0.000E+00

     total energy              =    -740.35962417 Ry
     estimated scf accuracy    <       1.59195333 Ry

[...]

     total energy              =    -741.09737692 Ry
     estimated scf accuracy    <       0.00000750 Ry

     iteration #  9     ecut=    30.00 Ry     beta= 0.70
     Davidson diagonalization with overlap

     ethr =  8.52E-09,  avg # of iterations =  2.0

[...]

     End of self-consistent calculation

          k = 0.0000 0.0000 0.0000 (  1494 PWs)   bands (ev):

   -14.0989 -13.8793 -13.7657 -13.7205 -13.6754 -13.6308 -13.5924 -13.4761
   -13.4617 -13.3673 -13.1503 -12.8571 -12.1603 -12.1362 -11.6552 -11.0199
   -10.3167 -10.2102  -3.4001  -1.7779  -1.4670   1.5987   1.8349   2.0084
     2.1388   2.9060   3.0887   3.3298   4.0742   4.0952   4.8434   4.8512
     4.9590   5.3450   5.8471   5.9282   5.9789   6.0995   6.1432   6.6342
     7.1225   7.1709   7.4575   7.7420  10.9952  12.2381  12.2650  12.7728
    12.8156  12.9641  13.2231  13.3002  15.9473

     occupation numbers
     1.0000   1.0000   1.0000   1.0000   1.0000   1.0000   1.0000   1.0000
     1.0000   1.0000   1.0000   1.0000   1.0000   1.0000   1.0000   1.0000
     1.0000   1.0000   1.0000   1.0000   1.0000   1.0000   1.0000   1.0000
     1.0000   1.0000   1.0000   1.0000   1.0000   1.0000   1.0000   1.0000
     1.0000   1.0000   1.0000   1.0000   1.0000   1.0000   1.0000   1.0000
     1.0000   1.0000   1.0000   1.0000  -0.0000  -0.0000  -0.0000  -0.0000
    -0.0000  -0.0000  -0.0000  -0.0000  -0.0000

     the Fermi energy is     8.5038 ev

!    total energy              =    -741.09737790 Ry
     estimated scf accuracy    <       0.00000079 Ry
     smearing contrib. (-TS)   =       0.00000000 Ry
     internal energy E=F+TS    =    -741.09737790 Ry

     The total energy is F=E-TS. E is the sum of the following terms:
     one-electron contribution =    -146.60062526 Ry
     hartree contribution      =     132.68089126 Ry
     xc contribution           =    -207.26861574 Ry
     ewald contribution        =    -443.61271502 Ry
     one-center paw contrib.   =     -76.29631314 Ry
      -> PAW hartree energy AE =     210.55610524 Ry
      -> PAW hartree energy PS =    -209.91324361 Ry
      -> PAW xc energy AE      =    -133.08822178 Ry
      -> PAW xc energy PS      =      56.14904700 Ry
      -> total E_H with PAW    =     133.32375289 Ry
      -> total E_XC with PAW   =    -284.20779052 Ry

     convergence has been achieved in   9 iterations

     negative rho (up, down):  7.808E-02 0.000E+00

     Forces acting on atoms (cartesian axes, Ry/au):

     atom    1 type  1   force =     0.00128971   -0.05406965    0.00154164
     atom    2 type  1   force =    -0.00128971    0.05406965   -0.00154164
     atom    3 type  2   force =     0.03854260   -0.02613265   -0.01558238
     atom    4 type  2   force =    -0.03854260    0.02613265    0.01558238
     atom    5 type  3   force =    -0.13860695    0.08696560    0.01971669
     atom    6 type  3   force =     0.13860695   -0.08696560   -0.01971669
     atom    7 type  3   force =     0.00637202   -0.03318594   -0.20078312
     atom    8 type  3   force =     0.00700383   -0.12048965    0.02736394
     atom    9 type  3   force =    -0.06606582    0.00058994   -0.13480594
     atom   10 type  3   force =     0.06606582   -0.00058994    0.13480594
     atom   11 type  3   force =    -0.00700383    0.12048965   -0.02736394
     atom   12 type  3   force =    -0.00637202    0.03318594    0.20078312
     The non-local contrib.  to forces
     atom    1 type  1   force =    -0.02619211    0.04774119    0.00365123
     atom    2 type  1   force =     0.02619211   -0.04774119   -0.00365123
     atom    3 type  2   force =     0.03969114   -0.02439533    0.01085848
     atom    4 type  2   force =    -0.03969114    0.02439533   -0.01085848
     atom    5 type  3   force =     0.79681926   -0.35379921   -0.07718256
     atom    6 type  3   force =    -0.79681926    0.35379921    0.07718256
     atom    7 type  3   force =    -0.32180795   -0.46619185    0.78643690
     atom    8 type  3   force =     0.27670687    1.02677238    0.13778506
     atom    9 type  3   force =     0.72965485    0.04465088    0.78904052
     atom   10 type  3   force =    -0.72965485   -0.04465088   -0.78904052
     atom   11 type  3   force =    -0.27670687   -1.02677238   -0.13778506
     atom   12 type  3   force =     0.32180795    0.46619185   -0.78643690
     The ionic contribution  to forces
     atom    1 type  1   force =     0.00001400    0.00003177   -0.00004651
     atom    2 type  1   force =    -0.00001400   -0.00003177    0.00004651
     atom    3 type  2   force =    -0.00002746    0.00000381    0.00003485
     atom    4 type  2   force =     0.00002746   -0.00000381   -0.00003485
     atom    5 type  3   force =    -0.42502590   -0.87235734   -0.43999201
     atom    6 type  3   force =     0.42502590    0.87235734    0.43999201
     atom    7 type  3   force =     0.92789144    0.05347239    0.52093265
     atom    8 type  3   force =    -0.97026380    0.01553511    0.43998504
     atom    9 type  3   force =    -0.46743270   -0.80332098    0.52094887
     atom   10 type  3   force =     0.46743270    0.80332098   -0.52094887
     atom   11 type  3   force =     0.97026380   -0.01553511   -0.43998504
     atom   12 type  3   force =    -0.92789144   -0.05347239   -0.52093265
     The local contribution  to forces
     atom    1 type  1   force =     0.02321674   -0.13635749    0.01161868
     atom    2 type  1   force =    -0.02643438    0.05745339    0.01577030
     atom    3 type  2   force =     0.00268645   -0.01794077   -0.03587007
     atom    4 type  2   force =     0.00554070   -0.01158521    0.01064068
     atom    5 type  3   force =    -0.51946916    1.23811091    0.49186889
     atom    6 type  3   force =     0.48767829   -1.37962573   -0.58324899
     atom    7 type  3   force =    -0.60647499    0.40520821   -1.52695251
     atom    8 type  3   force =     0.70611208   -1.11941480   -0.58002828
     atom    9 type  3   force =    -0.30771676    0.75061497   -1.40622481
     atom   10 type  3   force =     0.33110331   -0.76894904    1.46500663
     atom   11 type  3   force =    -0.70280760    1.18372303    0.52298629
     atom   12 type  3   force =     0.59931881   -0.34408839    1.46947687
     The core correction contribution to forces
     atom    1 type  1   force =     0.00204203   -0.01034710    0.00173472
     atom    2 type  1   force =    -0.00020254    0.00184393    0.00187191
     atom    3 type  2   force =     0.00061399   -0.00064688   -0.00495798
     atom    4 type  2   force =     0.00101445   -0.00311010    0.00149248
     atom    5 type  3   force =    -0.00738056    0.00293146   -0.00152852
     atom    6 type  3   force =     0.00700477   -0.00560042   -0.00027339
     atom    7 type  3   force =     0.00241062    0.00549051   -0.01004747
     atom    8 type  3   force =    -0.00386271   -0.01083245    0.00086353
     atom    9 type  3   force =    -0.00820705   -0.00125997   -0.00929323
     atom   10 type  3   force =     0.00896850   -0.00033296    0.00928210
     atom   11 type  3   force =     0.00448956    0.01240975   -0.00087712
     atom   12 type  3   force =    -0.00321666   -0.00388908    0.00959141
     The Hubbard contrib.    to forces
     atom    1 type  1   force =     0.00000000    0.00000000    0.00000000
     atom    2 type  1   force =     0.00000000    0.00000000    0.00000000
     atom    3 type  2   force =     0.00000000    0.00000000    0.00000000
     atom    4 type  2   force =     0.00000000    0.00000000    0.00000000
     atom    5 type  3   force =     0.00000000    0.00000000    0.00000000
     atom    6 type  3   force =     0.00000000    0.00000000    0.00000000
     atom    7 type  3   force =     0.00000000    0.00000000    0.00000000
     atom    8 type  3   force =     0.00000000    0.00000000    0.00000000
     atom    9 type  3   force =     0.00000000    0.00000000    0.00000000
     atom   10 type  3   force =     0.00000000    0.00000000    0.00000000
     atom   11 type  3   force =     0.00000000    0.00000000    0.00000000
     atom   12 type  3   force =     0.00000000    0.00000000    0.00000000
     The SCF correction term to forces
     atom    1 type  1   force =     0.00156929    0.00106811    0.00018489
     atom    2 type  1   force =    -0.00147067   -0.00124857    0.00002224
     atom    3 type  2   force =     0.00044901    0.00023861   -0.00004240
     atom    4 type  2   force =    -0.00056353   -0.00017145   -0.00005218
     atom    5 type  3   force =     0.00051635   -0.00006508   -0.00003943
     atom    6 type  3   force =    -0.00021582   -0.00004088    0.00004079
     atom    7 type  3   force =     0.00032237    0.00016589    0.00003591
     atom    8 type  3   force =     0.00024788    0.00054049    0.00021926
     atom    9 type  3   force =    -0.00032860   -0.00013038    0.00002335
     atom   10 type  3   force =     0.00025171   -0.00001349   -0.00019276
     atom   11 type  3   force =    -0.00030622   -0.00024525   -0.00024233
     atom   12 type  3   force =    -0.00042119   -0.00022498    0.00027299

     Total force =     0.472888     Total SCF correction =     0.003093

     Computing stress (Cartesian axis) and pressure

     negative rho (up, down):  7.808E-02 0.000E+00
          total   stress  (Ry/bohr**3)                   (kbar)     P=     -187.46
  -0.00012337  -0.00002872  -0.00120884          -18.15       -4.22     -177.83
  -0.00002872  -0.00185089   0.00084175           -4.22     -272.28      123.83
  -0.00120884   0.00084175  -0.00184865         -177.83      123.83     -271.95

     kinetic stress (kbar)  16338.30     34.26    -36.08
                               34.26  16315.34     27.82
                              -36.08     27.82  16325.19

     local   stress (kbar)  -6371.58   -776.48   -138.71
                             -776.48  -5770.39    122.60
                             -138.71    122.60  -5275.90

     nonloc. stress (kbar)   9406.92    -46.87    -22.64
                              -46.87   9361.05     -8.49
                              -22.64     -8.49   9343.39

     hartree stress (kbar)   6470.58    402.86     17.80
                              402.86   6073.96    -18.11
                               17.80    -18.11   5826.80

     exc-cor stress (kbar)   9659.25     -2.31     -0.14
                               -2.31   9661.52     -0.02
                               -0.14     -0.02   9663.45

     corecor stress (kbar) -15381.14      5.04      1.94
                                5.04 -15388.56      0.04
                                1.94      0.04 -15396.80

     ewald   stress (kbar) -20140.46    379.27     -0.00
                              379.27 -20525.20     -0.02
                               -0.00     -0.02 -20758.09

     hubbard stress (kbar)      0.00      0.00      0.00
                                0.00      0.00      0.00
                                0.00      0.00      0.00

     DFT-D   stress (kbar)      0.00      0.00      0.00
                                0.00      0.00      0.00
                                0.00      0.00      0.00

     XDM     stress (kbar)      0.00      0.00      0.00
                                0.00      0.00      0.00
                                0.00      0.00      0.00

     dft-nl  stress (kbar)      0.00      0.00      0.00
                                0.00      0.00      0.00
                                0.00      0.00      0.00

     TS-vdW  stress (kbar)      0.00      0.00      0.00
                                0.00      0.00      0.00
                                0.00      0.00      0.00

[...]

                                0.00      0.00      0.00

     Writing all to output data dir new_calculations/myprefix.save/

     General routines

     Parallel routines

     PAW routines

   This run was terminated on:   5:15:41  21May2023

   JOB DONE.