     Program PWSCF v.7.0 starts on 20May2023 at 21:54:21

     Reading input from espresso_13697.pwi
Warning: card &CELL ignored
Warning: card / ignored

     Current dimensions of program PWSCF are:
     Max number of different atomic species (ntypx) = 10
     Max number of k-points (npk) =  40000
     Max angular momentum in pseudopotentials (lmaxx) =  4

     gamma-point specific algorithms are used
     Message from routine setup:
     using ibrav=0 with symmetry is DISCOURAGED, use correct ibrav instead

     Subspace diagonalization in iterative solution of the eigenvalue problem:
     a serial algorithm will be used

     Using Slab Decomposition

     bravais-lattice index     =            0
     lattice parameter (alat)  =      12.5528  a.u.
     unit-cell volume          =    1008.6608 (a.u.)^3
     number of atoms/cell      =            9
     number of atomic types    =            3
     number of electrons       =       129.00
     number of Kohn-Sham states=           78
     kinetic-energy cutoff     =      30.0000  Ry
     charge density cutoff     =     240.0000  Ry
     scf convergence threshold =      1.0E-06
     mixing beta               =       0.7000
     number of iterations used =            8  plain     mixing
     Exchange-correlation= PBE
                           (   1   4   3   4   0   0   0)

     celldm(1)=  12.552830  celldm(2)=   0.000000  celldm(3)=   0.000000
     celldm(4)=   0.000000  celldm(5)=   0.000000  celldm(6)=   0.000000

     crystal axes: (cart. coord. in units of alat)
               a(1) = (   1.000000   0.000000   0.000000 )
               a(2) = (  -0.500000   0.866025   0.000000 )
               a(3) = (   0.000000   0.000000   0.588830 )

     reciprocal axes: (cart. coord. in units 2 pi/alat)
               b(1) = (  1.000000  0.577350  0.000000 )
               b(2) = (  0.000000  1.154700  0.000000 )
               b(3) = (  0.000000  0.000000  1.698284 )

     PseudoPot. # 1 for Hf read from file:
     /home/pragov/projects/rrg-bengioy-ad/pragov/crystal_structure_design/SSSP/Hf-sp.oncvpsp.upf
     MD5 check sum: 417ed15784afe83d2e06dacf143de3f8
     Pseudo is Norm-conserving + core correction, Zval = 12.0
     Generated using ONCVPSP code by D. R. Hamann
     Using radial grid of 1656 points,  8 beta functions with:
                l(1) =   0
                l(2) =   0
                l(3) =   1
                l(4) =   1
                l(5) =   2
                l(6) =   2
                l(7) =   3
                l(8) =   3

     PseudoPot. # 2 for Ge read from file:
     /home/pragov/projects/rrg-bengioy-ad/pragov/crystal_structure_design/SSSP/ge_pbe_v1.4.uspp.F.UPF
     MD5 check sum: 9c9eaa91e581c3f09632fb3098b2c6b2
     Pseudo is Ultrasoft + core correction, Zval = 14.0
     Generated by new atomic code, or converted to UPF format
     Using radial grid of  873 points,  6 beta functions with:
                l(1) =   0
                l(2) =   0
                l(3) =   1
                l(4) =   1
                l(5) =   2
                l(6) =   2
     Q(r) pseudized with  8 coefficients,  rinner =    1.400   1.400   1.400
                                                       1.400   1.400

     PseudoPot. # 3 for Rh read from file:
     /home/pragov/projects/rrg-bengioy-ad/pragov/crystal_structure_design/SSSP/Rh_ONCV_PBE-1.0.oncvpsp.upf
     MD5 check sum: ba07c69523b14cacd10683cd4c4284c1
     Pseudo is Norm-conserving, Zval = 17.0
     Generated using ONCVPSP code by D. R. Hamann
     Using radial grid of 1442 points,  6 beta functions with:
                l(1) =   0
                l(2) =   0
                l(3) =   1
                l(4) =   1
                l(5) =   2
                l(6) =   2

     atomic species   valence    mass     pseudopotential
        Hf            12.00   178.49000     Hf( 1.00)
        Ge            14.00    72.63000     Ge( 1.00)
        Rh            17.00   102.90550     Rh( 1.00)

     12 Sym. Ops. (no inversion) found

                                    s                        frac. trans.

      isym =  1     identity

 cryst.   s( 1) = (     1          0          0      )
                  (     0          1          0      )
                  (     0          0          1      )

 cart.    s( 1) = (  1.0000000  0.0000000  0.0000000 )
                  (  0.0000000  1.0000000  0.0000000 )
                  (  0.0000000  0.0000000  1.0000000 )

      isym =  2     180 deg rotation - cart. axis [1,0,0]

[...]

      isym =  3     120 deg rotation - cryst. axis [0,0,1]

[...]

      isym =  6     180 deg rotation - cryst. axis [1,1,0]

[...]

      isym =  7     inv. 180 deg rotation - cart. axis [0,0,1]

[...]

      isym =  8     inv. 180 deg rotation - cart. axis [0,1,0]

[...]

      isym =  9     inv.  60 deg rotation - cryst. axis [0,0,1]

 cryst.   s( 9) = (    -1         -1          0      )
                  (     1          0          0      )
                  (     0          0         -1      )

 cart.    s( 9) = ( -0.5000001  0.8660254  0.0000000 )
                  ( -0.8660255 -0.4999999  0.0000000 )
                  (  0.0000000  0.0000000 -1.0000000 )

[...]

 cryst.   s(10) = (     0          1          0      )
                  (    -1         -1          0      )
                  (     0          0         -1      )

 cart.    s(10) = ( -0.4999999 -0.8660254  0.0000000 )
                  (  0.8660255 -0.5000001  0.0000000 )
                  (  0.0000000  0.0000000 -1.0000000 )

[...]

      isym = 12     inv. 180 deg rotation - cryst. axis [2,1,0]

 cryst.   s(12) = (    -1         -1          0      )
                  (     0          1          0      )
                  (     0          0          1      )

 cart.    s(12) = ( -0.5000001 -0.8660252  0.0000000 )
                  ( -0.8660255  0.5000001  0.0000000 )
                  (  0.0000000  0.0000000  1.0000000 )

   Cartesian axes

     site n.     atom                  positions (alat units)
         1           Hf  tau(   1) = (   0.2109030   0.3652947   0.2944148  )
         2           Hf  tau(   2) = (   0.5781940   0.0000000   0.2944148  )
         3           Hf  tau(   3) = (   0.7109031   0.5007307   0.2944148  )
         4           Ge  tau(   4) = (   0.5000005   0.2886749   0.0000000  )
         5           Ge  tau(   5) = (  -0.0000004   0.5773506   0.0000000  )
         6           Ge  tau(   6) = (   0.0000000   0.0000000   0.2944148  )
         7           Rh  tau(   7) = (   0.3756971   0.6507263   0.0000000  )
         8           Rh  tau(   8) = (   0.2486060   0.0000000   0.0000000  )
         9           Rh  tau(   9) = (  -0.1243030   0.2152991   0.0000000  )

   Crystallographic axes

     site n.     atom                  positions (cryst. coord.)
         1           Hf  tau(   1) = (  0.4218060  0.4218060  0.5000000  )
         2           Hf  tau(   2) = (  0.5781940  0.0000000  0.5000000  )
         3           Hf  tau(   3) = (  1.0000000  0.5781940  0.5000000  )
         4           Ge  tau(   4) = (  0.6666670  0.3333330  0.0000000  )
         5           Ge  tau(   5) = (  0.3333330  0.6666670  0.0000000  )
         6           Ge  tau(   6) = (  0.0000000  0.0000000  0.5000000  )
         7           Rh  tau(   7) = (  0.7513940  0.7513940  0.0000000  )
         8           Rh  tau(   8) = (  0.2486060  0.0000000  0.0000000  )
         9           Rh  tau(   9) = ( -0.0000000  0.2486060  0.0000000  )

     number of k points=     1  Methfessel-Paxton smearing, width (Ry)=  0.0010
                       cart. coord. in units 2pi/alat
        k(    1) = (   0.0000000   0.0000000   0.0000000), wk =   2.0000000

                       cryst. coord.
        k(    1) = (   0.0000000   0.0000000   0.0000000), wk =   2.0000000

     Initial potential from superposition of free atoms

     starting charge     128.9905, renormalised to     129.0000
     Starting wfcs are   87 randomized atomic wfcs

     Self-consistent Calculation

     iteration #  1     ecut=    30.00 Ry     beta= 0.70
     Davidson diagonalization with overlap

     ethr =  1.00E-02,  avg # of iterations =  2.0

     total energy              =   -1629.04477368 Ry
     estimated scf accuracy    <       1.96826024 Ry

[...]

     total energy              =   -1630.28359585 Ry
     estimated scf accuracy    <       0.00000255 Ry

     iteration # 19     ecut=    30.00 Ry     beta= 0.70
     Davidson diagonalization with overlap

     ethr =  1.97E-09,  avg # of iterations =  1.0

     End of self-consistent calculation

          k = 0.0000 0.0000 0.0000 (  1381 PWs)   bands (ev):

   -61.0463 -61.0332 -61.0331 -44.9526 -44.9294 -44.9294 -29.2034 -29.0798
   -29.0797 -29.0132 -28.9954 -28.9953 -28.6824 -28.6823 -28.6353 -13.8287
   -13.8287 -13.7833 -13.7510 -13.5626 -13.5625 -13.5589 -13.5328 -13.5327
    -7.4709  -7.4709  -7.4419  -7.4419  -7.4311  -6.5687  -6.5687  -6.5611
    -6.5611  -6.5052  -6.5052  -6.4963  -6.4963  -6.4775  -6.4670   6.1538
     7.8184   8.8678  12.2071  12.2072  12.4520  12.4829  12.4829  13.1302
    13.7388  13.9148  13.9148  14.6708  14.6709  14.7363  14.7363  14.8882
    14.9086  14.9086  15.5913  15.5913  16.8948  16.9302  17.3144  17.3203
    17.5615  17.5615  18.5338  18.5338  18.6376  18.6376  19.0566  20.1012
    20.3413  20.3413  20.4694  21.3105  21.4346  21.4346

     occupation numbers
     1.0000   1.0000   1.0000   1.0000   1.0000   1.0000   1.0000   1.0000
     1.0000   1.0000   1.0000   1.0000   1.0000   1.0000   1.0000   1.0000
     1.0000   1.0000   1.0000   1.0000   1.0000   1.0000   1.0000   1.0000
     1.0000   1.0000   1.0000   1.0000   1.0000   1.0000   1.0000   1.0000
     1.0000   1.0000   1.0000   1.0000   1.0000   1.0000   1.0000   1.0000
     1.0000   1.0000   1.0000   1.0000   1.0000   1.0000   1.0000   1.0000
     1.0000   1.0000   1.0000   1.0000   1.0000   1.0000   1.0000   1.0000
     1.0000   1.0000   1.0000   1.0000   1.0000   1.0000   1.0000   1.0000
     0.2507   0.2493  -0.0000  -0.0000  -0.0000  -0.0000  -0.0000  -0.0000
    -0.0000  -0.0000  -0.0000  -0.0000  -0.0000  -0.0000

     the Fermi energy is    17.5572 ev

!    total energy              =   -1630.28359573 Ry
     estimated scf accuracy    <       0.00000020 Ry
     smearing contrib. (-TS)   =      -0.00041261 Ry
     internal energy E=F+TS    =   -1630.28318311 Ry

     The total energy is F=E-TS. E is the sum of the following terms:
     one-electron contribution =    -597.44157016 Ry
     hartree contribution      =     391.90833731 Ry
     xc contribution           =    -327.03179752 Ry
     ewald contribution        =   -1097.71815275 Ry

     convergence has been achieved in  19 iterations

     Forces acting on atoms (cartesian axes, Ry/au):

     atom    1 type  1   force =     0.06234795    0.10798980    0.00000000
     atom    2 type  1   force =    -0.12469590    0.00000001    0.00000000
     atom    3 type  1   force =     0.06234795   -0.10798981    0.00000000
     atom    4 type  2   force =     0.00000000    0.00000000    0.00000000
     atom    5 type  2   force =    -0.00000000    0.00000000    0.00000000
     atom    6 type  2   force =    -0.00000000    0.00000000    0.00000000
     atom    7 type  3   force =    -0.00727945   -0.01260838    0.00000000
     atom    8 type  3   force =     0.01455891   -0.00000000    0.00000000
     atom    9 type  3   force =    -0.00727945    0.01260839    0.00000000
     The non-local contrib.  to forces
     atom    1 type  1   force =     0.03712334    0.06429951   -0.00000000
     atom    2 type  1   force =    -0.07424669    0.00000001   -0.00000000
     atom    3 type  1   force =     0.03712334   -0.06429952    0.00000000
     atom    4 type  2   force =     0.00000000   -0.00000000    0.00000000
     atom    5 type  2   force =    -0.00000000   -0.00000000    0.00000000
     atom    6 type  2   force =     0.00000000    0.00000000    0.00000000
     atom    7 type  3   force =     0.06197867    0.10735019    0.00000000
     atom    8 type  3   force =    -0.12395733    0.00000001    0.00000000
     atom    9 type  3   force =     0.06197867   -0.10735020    0.00000000
     The ionic contribution  to forces
     atom    1 type  1   force =     1.14685396    1.98640909   -0.00000000
     atom    2 type  1   force =    -2.29366716   -0.00002406   -0.00000000
     atom    3 type  1   force =     1.14681253   -1.98638618   -0.00000000
     atom    4 type  2   force =    -0.00013446    0.00007502    0.00000000
     atom    5 type  2   force =     0.00013220   -0.00007893    0.00000000
     atom    6 type  2   force =    -0.00000029   -0.00000050   -0.00000000
     atom    7 type  3   force =    -5.11237808   -8.85489750    0.00000000
     atom    8 type  3   force =    10.22460090    0.00009226    0.00000000
     atom    9 type  3   force =    -5.11221962    8.85481080    0.00000000
     The local contribution  to forces
     atom    1 type  1   force =    -1.11821541   -1.93677886    0.00000454
     atom    2 type  1   force =     2.23631570    0.00014358    0.00000289
     atom    3 type  1   force =    -1.11812727    1.93705005    0.00000479
     atom    4 type  2   force =     0.00121943   -0.00012203   -0.00000289
     atom    5 type  2   force =    -0.00135108    0.00049764   -0.00000401
     atom    6 type  2   force =     0.00005853   -0.00093234    0.00000588
     atom    7 type  3   force =     5.04381383    8.73532383   -0.00000999
     atom    8 type  3   force =   -10.08572487   -0.00123402   -0.00000437
     atom    9 type  3   force =     5.04199915   -8.73454351   -0.00001286
     The core correction contribution to forces
     atom    1 type  1   force =    -0.00337419   -0.00584814    0.00000017
     atom    2 type  1   force =     0.00675828   -0.00000499    0.00000002
     atom    3 type  1   force =    -0.00338462    0.00585814    0.00000018
     atom    4 type  2   force =     0.00000312    0.00000110   -0.00000000
     atom    5 type  2   force =    -0.00000328    0.00000270   -0.00000004
     atom    6 type  2   force =    -0.00000043   -0.00000929    0.00000006
     atom    7 type  3   force =     0.00000000    0.00000000    0.00000000
     atom    8 type  3   force =     0.00000000    0.00000000    0.00000000
     atom    9 type  3   force =     0.00000000    0.00000000    0.00000000
     The Hubbard contrib.    to forces
     atom    1 type  1   force =     0.00000000    0.00000000    0.00000000
     atom    2 type  1   force =     0.00000000    0.00000000    0.00000000
     atom    3 type  1   force =     0.00000000    0.00000000    0.00000000
     atom    4 type  2   force =     0.00000000    0.00000000    0.00000000
     atom    5 type  2   force =     0.00000000    0.00000000    0.00000000
     atom    6 type  2   force =     0.00000000    0.00000000    0.00000000
     atom    7 type  3   force =     0.00000000    0.00000000    0.00000000
     atom    8 type  3   force =     0.00000000    0.00000000    0.00000000
     atom    9 type  3   force =     0.00000000    0.00000000    0.00000000
     The SCF correction term to forces
     atom    1 type  1   force =     0.00001153   -0.00001937   -0.00000445
     atom    2 type  1   force =     0.00015759   -0.00012643   -0.00000300
     atom    3 type  1   force =    -0.00012857   -0.00015633   -0.00000471
     atom    4 type  2   force =    -0.00103766    0.00007083    0.00000359
     atom    5 type  2   force =     0.00117239   -0.00042294    0.00000524
     atom    6 type  2   force =    -0.00009882    0.00076333   -0.00000795
     atom    7 type  3   force =    -0.00067766   -0.00044116    0.00001044
     atom    8 type  3   force =    -0.00036631    0.00106385    0.00000443
     atom    9 type  3   force =     0.00093131   -0.00036598    0.00001306

     Total force =     0.217447     Total SCF correction =     0.002496

     Computing stress (Cartesian axis) and pressure

          total   stress  (Ry/bohr**3)                   (kbar)     P=     -187.76
  -0.00119318   0.00000000  -0.00000000         -175.52        0.00       -0.00
   0.00000000  -0.00119318   0.00000000            0.00     -175.52        0.00
  -0.00000000   0.00000000  -0.00144280           -0.00        0.00     -212.24

     kinetic stress (kbar)  33393.04     -0.00      0.00
                               -0.00  33393.04      0.00
                                0.00     -0.00  33368.96

     local   stress (kbar)    527.68      0.65      0.00
                                0.65    527.91      0.00
                                0.00      0.00   6846.00

     nonloc. stress (kbar)   8257.30     -0.00      0.00
                               -0.00   8257.30     -0.00
                                0.00      0.00   8378.05

     hartree stress (kbar)  20002.61     -0.39     -0.00
                               -0.39  20002.46     -0.00
                               -0.00     -0.00  17151.61

     exc-cor stress (kbar)  10270.40     -0.00     -0.00
                               -0.00  10270.40     -0.00
                               -0.00     -0.00  10274.58

     corecor stress (kbar) -20461.98      0.01      0.00
                                0.01 -20461.98      0.00
                                0.00      0.00 -20467.29

     ewald   stress (kbar) -52164.60     -0.03      0.00
                               -0.03 -52164.63      0.00
                                0.00      0.00 -55764.15

     hubbard stress (kbar)      0.00      0.00      0.00
                                0.00      0.00      0.00
                                0.00      0.00      0.00

     DFT-D   stress (kbar)      0.00      0.00      0.00
                                0.00      0.00      0.00
                                0.00      0.00      0.00

     XDM     stress (kbar)      0.00      0.00      0.00
                                0.00      0.00      0.00
                                0.00      0.00      0.00

     dft-nl  stress (kbar)      0.00      0.00      0.00
                                0.00      0.00      0.00
                                0.00      0.00      0.00

     TS-vdW  stress (kbar)      0.00      0.00      0.00
                                0.00      0.00      0.00
                                0.00      0.00      0.00

[...]

                                0.00      0.00      0.00

     Writing all to output data dir new_calculations/myprefix.save/

     General routines

     Parallel routines

   This run was terminated on:  21:54:41  20May2023

   JOB DONE.