     Program PWSCF v.7.0 starts on 21May2023 at  4:59: 8

     Reading input from espresso_10026.pwi
Warning: card &CELL ignored
Warning: card / ignored

     Current dimensions of program PWSCF are:
     Max number of different atomic species (ntypx) = 10
     Max number of k-points (npk) =  40000
     Max angular momentum in pseudopotentials (lmaxx) =  4
     file O.pbe-n-kjpaw_psl.0.1.UPF: wavefunction(s)  2P renormalized

     gamma-point specific algorithms are used

     Subspace diagonalization in iterative solution of the eigenvalue problem:
     a serial algorithm will be used

     Using Slab Decomposition

     bravais-lattice index     =            0
     lattice parameter (alat)  =       9.8459  a.u.
     unit-cell volume          =    1151.4313 (a.u.)^3
     number of atoms/cell      =           16
     number of atomic types    =            4
     number of electrons       =        89.00
     number of Kohn-Sham states=           54
     kinetic-energy cutoff     =      30.0000  Ry
     charge density cutoff     =     240.0000  Ry
     scf convergence threshold =      1.0E-06
     mixing beta               =       0.7000
     number of iterations used =            8  plain     mixing
     Exchange-correlation= SLA  PW   PBX  PBC
                           (   1   4   3   4   0   0   0)

     celldm(1)=   9.845877  celldm(2)=   0.000000  celldm(3)=   0.000000
     celldm(4)=   0.000000  celldm(5)=   0.000000  celldm(6)=   0.000000

     crystal axes: (cart. coord. in units of alat)
               a(1) = (   1.000000   0.000000   0.000000 )
               a(2) = (  -0.014628   0.999893   0.000000 )
               a(3) = (   0.003894   0.003951   1.206483 )

     reciprocal axes: (cart. coord. in units 2 pi/alat)
               b(1) = (  1.000000  0.014630 -0.003275 )
               b(2) = (  0.000000  1.000107 -0.003275 )
               b(3) = (  0.000000  0.000000  0.828855 )

     PseudoPot. # 1 for Li read from file:
     /home/pragov/projects/rrg-bengioy-ad/pragov/crystal_structure_design/SSSP/li_pbe_v1.4.uspp.F.UPF
     MD5 check sum: e912e257baa3777c20ea3d68f190483c
     Pseudo is Ultrasoft, Zval =  3.0
     Generated by new atomic code, or converted to UPF format
     Using radial grid of  751 points,  5 beta functions with:
                l(1) =   0
                l(2) =   0
                l(3) =   0
                l(4) =   1
                l(5) =   1
     Q(r) pseudized with 10 coefficients,  rinner =    1.150   1.150   1.150

     PseudoPot. # 2 for Si read from file:
     /home/pragov/projects/rrg-bengioy-ad/pragov/crystal_structure_design/SSSP/Si.pbe-n-rrkjus_psl.1.0.0.UPF
     MD5 check sum: 0b0bb1205258b0d07b9f9672cf965d36
     Pseudo is Ultrasoft + core correction, Zval =  4.0
     Generated using "atomic" code by A. Dal Corso  v.5.1
     Using radial grid of 1141 points,  6 beta functions with:
                l(1) =   0
                l(2) =   0
                l(3) =   1
                l(4) =   1
                l(5) =   2
                l(6) =   2
     Q(r) pseudized with 0 coefficients

     PseudoPot. # 3 for Ni read from file:
     /home/pragov/projects/rrg-bengioy-ad/pragov/crystal_structure_design/SSSP/ni_pbe_v1.4.uspp.F.UPF
     MD5 check sum: 1ee80287db30b12d2bc1f57a5b5d6409
     Pseudo is Ultrasoft + core correction, Zval = 18.0
     Generated by new atomic code, or converted to UPF format
     Using radial grid of  865 points,  6 beta functions with:
                l(1) =   0
                l(2) =   0
                l(3) =   1
                l(4) =   1
                l(5) =   2
                l(6) =   2
     Q(r) pseudized with 10 coefficients,  rinner =    0.980   0.980   0.980
                                                       0.980   0.980

     PseudoPot. # 4 for O  read from file:
     /home/pragov/projects/rrg-bengioy-ad/pragov/crystal_structure_design/SSSP/O.pbe-n-kjpaw_psl.0.1.UPF
     MD5 check sum: 0234752ac141de4415c5fc33072bef88
     Pseudo is Projector augmented-wave + core cor, Zval =  6.0
     Generated using "atomic" code by A. Dal Corso  v.5.0.99 svn rev. 10869
     Shape of augmentation charge: BESSEL
     Using radial grid of 1095 points,  4 beta functions with:
                l(1) =   0
                l(2) =   0
                l(3) =   1
                l(4) =   1
     Q(r) pseudized with 0 coefficients

     atomic species   valence    mass     pseudopotential
        Li             3.00     6.94000     Li( 1.00)
        Si             4.00    28.08500     Si( 1.00)
        Ni            18.00    58.69340     Ni( 1.00)
        O              6.00    15.99900     O ( 1.00)

     No symmetry found

                                    s                        frac. trans.

      isym =  1     identity

 cryst.   s( 1) = (     1          0          0      )
                  (     0          1          0      )
                  (     0          0          1      )

 cart.    s( 1) = (  1.0000000  0.0000000  0.0000000 )
                  (  0.0000000  1.0000000 -0.0000000 )
                  (  0.0000000  0.0000000  1.0000000 )

   Cartesian axes

     site n.     atom                  positions (alat units)
         1           Li  tau(   1) = (   0.7885378   0.8258068   0.3117540  )
         2           Li  tau(   2) = (   0.6876873   0.3077771   0.0000000  )
         3           Li  tau(   3) = (   0.3219645   0.6720829   0.6032416  )
         4           Li  tau(   4) = (   0.6804925   0.3187618   0.6032416  )
         5           Li  tau(   5) = (   0.1750822   0.2033109   0.8947291  )
         6           Si  tau(   6) = (   0.8069741   0.8328412   0.8998265  )
         7           Si  tau(   7) = (   0.1683182   0.1847737   0.3066566  )
         8           Ni  tau(   8) = (   0.3106982   0.6792913   0.0000000  )
         9           O   tau(   9) = (   0.6756246   0.7030833   1.1652033  )
        10           O   tau(  10) = (   0.6941654   0.6976492   0.6450534  )
        11           O   tau(  11) = (   0.2142179   0.8640837   0.2855118  )
        12           O   tau(  12) = (   0.8588381   0.2006145   0.3004167  )
        13           O   tau(  13) = (   0.1284082   0.7770094   0.9209713  )
        14           O   tau(  14) = (   0.8012359   0.1421635   0.9060664  )
        15           O   tau(  15) = (   0.2961409   0.3180072   0.0412798  )
        16           O   tau(  16) = (   0.3018456   0.2995479   0.5614297  )

   Crystallographic axes

     site n.     atom                  positions (cryst. coord.)
         1           Li  tau(   1) = (  0.7995980  0.8248740  0.2583990  )
         2           Li  tau(   2) = (  0.6921900  0.3078100  0.0000000  )
         3           Li  tau(   3) = (  0.3298210  0.6701790  0.5000000  )
         4           Li  tau(   4) = (  0.6831800  0.3168200  0.5000000  )
         5           Li  tau(   5) = (  0.1751260  0.2004020  0.7416010  )
         6           Si  tau(   6) = (  0.8162110  0.8299830  0.7458260  )
         7           Si  tau(   7) = (  0.1700170  0.1837890  0.2541740  )
         8           Ni  tau(   8) = (  0.3206360  0.6793640  0.0000000  )
         9           O   tau(   9) = (  0.6820940  0.6993420  0.9657850  )
        10           O   tau(  10) = (  0.7022590  0.6956110  0.5346560  )
        11           O   tau(  11) = (  0.2259240  0.8632410  0.2366480  )
        12           O   tau(  12) = (  0.8607890  0.1996520  0.2490020  )
        13           O   tau(  13) = (  0.1367590  0.7740760  0.7633520  )
        14           O   tau(  14) = (  0.8003480  0.1392110  0.7509980  )
        15           O   tau(  15) = (  0.3006580  0.3179060  0.0342150  )
        16           O   tau(  16) = (  0.3043890  0.2977410  0.4653440  )

     number of k points=     1  Methfessel-Paxton smearing, width (Ry)=  0.0010
                       cart. coord. in units 2pi/alat
        k(    1) = (   0.0000000   0.0000000   0.0000000), wk =   2.0000000

                       cryst. coord.
        k(    1) = (   0.0000000   0.0000000   0.0000000), wk =   2.0000000

     Check: negative core charge=   -0.000013

     Initial potential from superposition of free atoms

     starting charge      84.7452, renormalised to      89.0000
     Starting wfcs are   78 randomized atomic wfcs
     Checking if some PAW data can be deallocated...

     Self-consistent Calculation

     iteration #  1     ecut=    30.00 Ry     beta= 0.70
     Davidson diagonalization with overlap

     ethr =  1.00E-02,  avg # of iterations =  3.0

     total energy              =    -745.43252374 Ry
     estimated scf accuracy    <      34.83538660 Ry

[...]

     total energy              =    -772.44537200 Ry
     estimated scf accuracy    <       0.00000118 Ry

     iteration # 36     ecut=    30.00 Ry     beta= 0.70
     Davidson diagonalization with overlap

     ethr =  1.32E-09,  avg # of iterations =  1.0

     End of self-consistent calculation

          k = 0.0000 0.0000 0.0000 (  1596 PWs)   bands (ev):

   -99.8625 -60.6934 -60.1662 -59.6550 -39.2074 -39.2069 -39.1124 -38.5534
   -38.1674 -15.1494 -14.8339 -13.9790 -13.9258 -13.2690 -13.1069 -12.8003
   -12.7401  -2.9715  -2.3702  -1.3237  -1.1915  -0.7078  -0.6364  -0.4033
    -0.1379   0.1486   0.3495   0.4617   0.8410   0.9390   1.2637   1.4779
     1.8047   1.8435   1.9547   2.3800   2.5643   2.6728   2.8825   3.1724
     3.2579   3.3196   3.5822   4.1133   4.1195   4.1258   8.1818  11.8452
    12.1826  12.2857  12.7198  12.9608  13.1103  13.3395

     occupation numbers
     1.0000   1.0000   1.0000   1.0000   1.0000   1.0000   1.0000   1.0000
     1.0000   1.0000   1.0000   1.0000   1.0000   1.0000   1.0000   1.0000
     1.0000   1.0000   1.0000   1.0000   1.0000   1.0000   1.0000   1.0000
     1.0000   1.0000   1.0000   1.0000   1.0000   1.0000   1.0000   1.0000
     1.0000   1.0000   1.0000   1.0000   1.0000   1.0000   1.0000   1.0000
     1.0000   1.0000   1.0000   0.8458   0.5000   0.1542  -0.0000  -0.0000
    -0.0000  -0.0000  -0.0000  -0.0000  -0.0000  -0.0000

     the Fermi energy is     4.1195 ev

!    total energy              =    -772.44537213 Ry
     estimated scf accuracy    <       0.00000009 Ry
     smearing contrib. (-TS)   =      -0.00054828 Ry
     internal energy E=F+TS    =    -772.44482385 Ry

     The total energy is F=E-TS. E is the sum of the following terms:
     one-electron contribution =    -505.68487049 Ry
     hartree contribution      =     287.05327142 Ry
     xc contribution           =    -125.39511303 Ry
     ewald contribution        =    -352.30305308 Ry
     one-center paw contrib.   =     -76.11505866 Ry
      -> PAW hartree energy AE =     245.11251440 Ry
      -> PAW hartree energy PS =    -244.22889992 Ry
      -> PAW xc energy AE      =    -138.56170114 Ry
      -> PAW xc energy PS      =      61.56302801 Ry
      -> total E_H with PAW    =     287.93688589 Ry
      -> total E_XC with PAW   =    -202.39378617 Ry

     convergence has been achieved in  36 iterations

     Forces acting on atoms (cartesian axes, Ry/au):

     atom    1 type  1   force =    -0.00559746   -0.00573233   -0.00261244
     atom    2 type  1   force =     0.00276423   -0.00271229    0.00002257
     atom    3 type  1   force =     0.00293150   -0.00288721    0.00002238
     atom    4 type  1   force =     0.00295344   -0.00290683    0.00001916
     atom    5 type  1   force =     0.00566925    0.00570070    0.00264700
     atom    6 type  2   force =    -0.01087646    0.01034858    0.00484532
     atom    7 type  2   force =    -0.01050272    0.01071089   -0.00476383
     atom    8 type  3   force =     0.00591335   -0.00600307   -0.00035234
     atom    9 type  4   force =     0.02065742   -0.01925098    0.03489646
     atom   10 type  4   force =     0.00084814   -0.00115906   -0.01843928
     atom   11 type  4   force =     0.00232676    0.03273245    0.00522431
     atom   12 type  4   force =    -0.00090830    0.00429962   -0.00059506
     atom   13 type  4   force =    -0.03261756   -0.00282977   -0.00515859
     atom   14 type  4   force =    -0.00430516    0.00085489    0.00063650
     atom   15 type  4   force =     0.01955341   -0.02035141   -0.03487539
     atom   16 type  4   force =     0.00119017   -0.00081418    0.01848324
     The non-local contrib.  to forces
     atom    1 type  1   force =     0.00214008   -0.05665140   -0.04456455
     atom    2 type  1   force =    -0.03924060    0.03867048    0.00000251
     atom    3 type  1   force =    -0.04827531    0.04757113   -0.00000467
     atom    4 type  1   force =    -0.00712069    0.00701272   -0.00000468
     atom    5 type  1   force =     0.05668122   -0.00130736    0.04455769
     atom    6 type  2   force =     0.05577011   -0.08348452    0.09098389
     atom    7 type  2   force =     0.08429376   -0.05452845   -0.09097748
     atom    8 type  3   force =    -0.01301682    0.01257169   -0.00061339
     atom    9 type  4   force =    -0.21055514    0.37482765   -0.78803679
     atom   10 type  4   force =     0.37804525    0.50961116    0.96265737
     atom   11 type  4   force =    -0.05809566    0.72657179   -0.51311791
     atom   12 type  4   force =     1.15910075   -0.11788649    0.01086444
     atom   13 type  4   force =    -0.72709295    0.04729176    0.51337782
     atom   14 type  4   force =     0.13482701   -1.15726048   -0.01086817
     atom   15 type  4   force =    -0.37796892    0.20512055    0.78795082
     atom   16 type  4   force =    -0.50401985   -0.38542925   -0.96263596
     The ionic contribution  to forces
     atom    1 type  1   force =    -0.21573443   -0.30035492    1.47400522
     atom    2 type  1   force =     1.00164967   -0.98710304    0.00000000
     atom    3 type  1   force =    -0.33263874    0.32780794    0.00000000
     atom    4 type  1   force =     0.26567837   -0.26182001   -0.00000000
     atom    5 type  1   force =     0.29716700    0.22010497   -1.47400522
     atom    6 type  2   force =    -0.26914617    0.38804063   -2.15977596
     atom    7 type  2   force =    -0.39193621    0.26344107    2.15977596
     atom    8 type  3   force =    -0.39468935    0.38895741    0.00000000
     atom    9 type  4   force =     9.34335271   -0.37024675    1.07901716
     atom   10 type  4   force =     0.01772059   -1.30554273   -3.71893243
     atom   11 type  4   force =    -2.49245195    3.39247716   11.57935230
     atom   12 type  4   force =    -4.12649599    1.02619341    2.18256442
     atom   13 type  4   force =    -3.42857404    2.44255974  -11.57935231
     atom   14 type  4   force =    -1.08644645    4.11104320   -2.18256442
     atom   15 type  4   force =     0.50688273   -9.33693700   -1.07901716
     atom   16 type  4   force =     1.30566226    0.00137893    3.71893243
     The local contribution  to forces
     atom    1 type  1   force =     0.20799719    0.35128922   -1.43208694
     atom    2 type  1   force =    -0.95965698    0.94572746    0.00000070
     atom    3 type  1   force =     0.38380172   -0.37824994    0.00001087
     atom    4 type  1   force =    -0.25562283    0.25189294   -0.00000165
     atom    5 type  1   force =    -0.34818576   -0.21309172    1.43206841
     atom    6 type  2   force =     0.20996148   -0.30635563    2.08627655
     atom    7 type  2   force =     0.30938424   -0.20551843   -2.08620783
     atom    8 type  3   force =     0.41316406   -0.40685327    0.00062899
     atom    9 type  4   force =    -9.11531052   -0.02035086   -0.26332429
     atom   10 type  4   force =    -0.39159524    0.79921956    2.74643108
     atom   11 type  4   force =     2.55260197   -4.07991454  -11.06700734
     atom   12 type  4   force =     2.97656716   -0.90505756   -2.19388122
     atom   13 type  4   force =     4.11664132   -2.49250689   11.06666278
     atom   14 type  4   force =     0.94847654   -2.96297931    2.19388629
     atom   15 type  4   force =    -0.11287350    9.11454452    0.26336349
     atom   16 type  4   force =    -0.80485269    0.37981594   -2.74643119
     The core correction contribution to forces
     atom    1 type  1   force =     0.00000000    0.00000000    0.00000000
     atom    2 type  1   force =     0.00000000    0.00000000    0.00000000
     atom    3 type  1   force =     0.00000000    0.00000000    0.00000000
     atom    4 type  1   force =     0.00000000    0.00000000    0.00000000
     atom    5 type  1   force =     0.00000000    0.00000000    0.00000000
     atom    6 type  2   force =    -0.00745842    0.01214948   -0.01262895
     atom    7 type  2   force =    -0.01225749    0.00727773    0.01262920
     atom    8 type  3   force =     0.00043981   -0.00042691    0.00001802
     atom    9 type  4   force =     0.00312330   -0.00344320    0.00722228
     atom   10 type  4   force =    -0.00334462   -0.00442323   -0.00860428
     atom   11 type  4   force =     0.00029318   -0.00639877    0.00590780
     atom   12 type  4   force =    -0.01006358    0.00102919   -0.00016749
     atom   13 type  4   force =     0.00639887   -0.00019706   -0.00591151
     atom   14 type  4   force =    -0.00117621    0.01004748    0.00016753
     atom   15 type  4   force =     0.00349000   -0.00307359   -0.00722100
     atom   16 type  4   force =     0.00437383    0.00340857    0.00860408
     The Hubbard contrib.    to forces
     atom    1 type  1   force =     0.00000000    0.00000000    0.00000000
     atom    2 type  1   force =     0.00000000    0.00000000    0.00000000
     atom    3 type  1   force =     0.00000000    0.00000000    0.00000000
     atom    4 type  1   force =     0.00000000    0.00000000    0.00000000
     atom    5 type  1   force =     0.00000000    0.00000000    0.00000000
     atom    6 type  2   force =     0.00000000    0.00000000    0.00000000
     atom    7 type  2   force =     0.00000000    0.00000000    0.00000000
     atom    8 type  3   force =     0.00000000    0.00000000    0.00000000
     atom    9 type  4   force =     0.00000000    0.00000000    0.00000000
     atom   10 type  4   force =     0.00000000    0.00000000    0.00000000
     atom   11 type  4   force =     0.00000000    0.00000000    0.00000000
     atom   12 type  4   force =     0.00000000    0.00000000    0.00000000
     atom   13 type  4   force =     0.00000000    0.00000000    0.00000000
     atom   14 type  4   force =     0.00000000    0.00000000    0.00000000
     atom   15 type  4   force =     0.00000000    0.00000000    0.00000000
     atom   16 type  4   force =     0.00000000    0.00000000    0.00000000
     The SCF correction term to forces
     atom    1 type  1   force =    -0.00001484   -0.00001114    0.00001157
     atom    2 type  1   force =    -0.00000239   -0.00000311   -0.00000290
     atom    3 type  1   force =     0.00002930   -0.00001227   -0.00000608
     atom    4 type  1   force =     0.00000407    0.00001160    0.00000323
     atom    5 type  1   force =    -0.00000774   -0.00000111    0.00000386
     atom    6 type  2   force =    -0.00001800    0.00000269   -0.00003247
     atom    7 type  2   force =    -0.00000157    0.00004304   -0.00000595
     atom    8 type  3   force =     0.00000111   -0.00024792   -0.00040822
     atom    9 type  4   force =     0.00003253   -0.00003375   -0.00000416
     atom   10 type  4   force =     0.00000762   -0.00001974   -0.00001327
     atom   11 type  4   force =    -0.00003531    0.00000089    0.00006719
     atom   12 type  4   force =    -0.00003118    0.00002514    0.00000253
     atom   13 type  4   force =    -0.00000530    0.00002675    0.00004236
     atom   14 type  4   force =    -0.00000058    0.00000807   -0.00000699
     atom   15 type  4   force =     0.00000855   -0.00000183    0.00002621
     atom   16 type  4   force =     0.00001208    0.00001570   -0.00000839

     Total force =     0.087836     Total SCF correction =     0.000497

     Computing stress (Cartesian axis) and pressure

          total   stress  (Ry/bohr**3)                   (kbar)     P=     -480.17
  -0.00339757  -0.00013869   0.00009649         -499.80      -20.40       14.19
  -0.00013869  -0.00340181   0.00009766          -20.40     -500.42       14.37
   0.00009649   0.00009766  -0.00299291           14.19       14.37     -440.27

     kinetic stress (kbar)  17734.59     -4.73    -17.37
                               -4.73  17734.55    -17.32
                              -17.37    -17.32  17746.08

     local   stress (kbar) -14937.68   1523.53   -386.38
                             1523.53 -14893.41   -393.00
                             -386.38   -393.00 -12362.61

     nonloc. stress (kbar)   3374.10     50.04     -7.55
                               50.04   3375.64     -7.44
                               -7.55     -7.44   3479.91

     hartree stress (kbar)  12723.68   -725.02    111.54
                             -725.02  12702.57    113.54
                              111.54    113.54  11247.23

     exc-cor stress (kbar)  -3197.27      1.26      0.96
                                1.26  -3197.23      0.98
                                0.96      0.98  -3193.49

     corecor stress (kbar)  -1588.67     -1.93     -1.91
                               -1.93  -1588.73     -1.94
                               -1.91     -1.94  -1590.06

     ewald   stress (kbar) -14608.55   -863.55    314.91
                             -863.55 -14633.82    319.55
                              314.91    319.55 -15767.33

     hubbard stress (kbar)      0.00      0.00      0.00
                                0.00      0.00      0.00
                                0.00      0.00      0.00

     DFT-D   stress (kbar)      0.00      0.00      0.00
                                0.00      0.00      0.00
                                0.00      0.00      0.00

     XDM     stress (kbar)      0.00      0.00      0.00
                                0.00      0.00      0.00
                                0.00      0.00      0.00

     dft-nl  stress (kbar)      0.00      0.00      0.00
                                0.00      0.00      0.00
                                0.00      0.00      0.00

     TS-vdW  stress (kbar)      0.00      0.00      0.00
                                0.00      0.00      0.00
                                0.00      0.00      0.00

[...]

                                0.00      0.00      0.00

     Writing all to output data dir new_calculations/myprefix.save/

     General routines

     Parallel routines

     PAW routines

   This run was terminated on:   4:59:38  21May2023

   JOB DONE.