     Program PWSCF v.7.0 starts on 20May2023 at  8: 5:16

     Reading input from espresso_9230.pwi
Warning: card &CELL ignored
Warning: card / ignored

     Current dimensions of program PWSCF are:
     Max number of different atomic species (ntypx) = 10
     Max number of k-points (npk) =  40000
     Max angular momentum in pseudopotentials (lmaxx) =  4
     file O.pbe-n-kjpaw_psl.0.1.UPF: wavefunction(s)  2P renormalized

     gamma-point specific algorithms are used

     Subspace diagonalization in iterative solution of the eigenvalue problem:
     a serial algorithm will be used

     Using Slab Decomposition

     bravais-lattice index     =            0
     lattice parameter (alat)  =       9.9625  a.u.
     unit-cell volume          =    1223.9222 (a.u.)^3
     number of atoms/cell      =           13
     number of atomic types    =            3
     number of electrons       =        88.00
     number of Kohn-Sham states=           53
     kinetic-energy cutoff     =      30.0000  Ry
     charge density cutoff     =     240.0000  Ry
     scf convergence threshold =      1.0E-06
     mixing beta               =       0.7000
     number of iterations used =            8  plain     mixing
     Exchange-correlation= SLA  PW   PBX  PBC
                           (   1   4   3   4   0   0   0)

     celldm(1)=   9.962466  celldm(2)=   0.000000  celldm(3)=   0.000000
     celldm(4)=   0.000000  celldm(5)=   0.000000  celldm(6)=   0.000000

     crystal axes: (cart. coord. in units of alat)
               a(1) = (   1.000000   0.000000   0.000000 )
               a(2) = (  -0.431447   0.902138   0.000000 )
               a(3) = (   0.006864   0.010892   1.372082 )

     reciprocal axes: (cart. coord. in units 2 pi/alat)
               b(1) = (  1.000000  0.478249 -0.008799 )
               b(2) = (  0.000000  1.108478 -0.008799 )
               b(3) = (  0.000000  0.000000  0.728819 )

     PseudoPot. # 1 for Ca read from file:
     /home/pragov/projects/rrg-bengioy-ad/pragov/crystal_structure_design/SSSP/Ca_pbe_v1.uspp.F.UPF
     MD5 check sum: 403a4c14b9e4d4dfdc3024c9a3812218
     Pseudo is Ultrasoft + core correction, Zval = 10.0
     Generated by new atomic code, or converted to UPF format
     Using radial grid of  845 points,  6 beta functions with:
                l(1) =   0
                l(2) =   0
                l(3) =   1
                l(4) =   1
                l(5) =   2
                l(6) =   2
     Q(r) pseudized with  8 coefficients,  rinner =    1.500   1.500   1.500
                                                       1.500   1.500

     PseudoPot. # 2 for P  read from file:
     /home/pragov/projects/rrg-bengioy-ad/pragov/crystal_structure_design/SSSP/P.pbe-n-rrkjus_psl.1.0.0.UPF
     MD5 check sum: 8b930f418f0a4573dca56cd030ffe088
     Pseudo is Ultrasoft + core correction, Zval =  5.0
     Generated using "atomic" code by A. Dal Corso  v.5.1
     Using radial grid of 1147 points,  6 beta functions with:
                l(1) =   0
                l(2) =   0
                l(3) =   1
                l(4) =   1
                l(5) =   2
                l(6) =   2
     Q(r) pseudized with 0 coefficients

     PseudoPot. # 3 for O  read from file:
     /home/pragov/projects/rrg-bengioy-ad/pragov/crystal_structure_design/SSSP/O.pbe-n-kjpaw_psl.0.1.UPF
     MD5 check sum: 0234752ac141de4415c5fc33072bef88
     Pseudo is Projector augmented-wave + core cor, Zval =  6.0
     Generated using "atomic" code by A. Dal Corso  v.5.0.99 svn rev. 10869
     Shape of augmentation charge: BESSEL
     Using radial grid of 1095 points,  4 beta functions with:
                l(1) =   0
                l(2) =   0
                l(3) =   1
                l(4) =   1
     Q(r) pseudized with 0 coefficients

     atomic species   valence    mass     pseudopotential
        Ca            10.00    40.07800     Ca( 1.00)
        P              5.00    30.97376     P ( 1.00)
        O              6.00    15.99900     O ( 1.00)

     No symmetry found

                                    s                        frac. trans.

      isym =  1     identity

 cryst.   s( 1) = (     1          0          0      )
                  (     0          1          0      )
                  (     0          0          1      )

 cart.    s( 1) = (  1.0000000  0.0000000 -0.0000000 )
                  (  0.0000000  1.0000000  0.0000000 )
                  (  0.0000000  0.0000000  1.0000000 )

   Cartesian axes

     site n.     atom                  positions (alat units)
         1           Ca  tau(   1) = (   0.0147622   0.6209246   0.0000000  )
         2           Ca  tau(   2) = (   0.9872300   0.0056598   0.3745524  )
         3           Ca  tau(   3) = (   0.9962487   0.0199701   0.9975300  )
         4           P   tau(   4) = (   0.0708687   0.5931736   0.6860412  )
         5           P   tau(   5) = (   0.5028284   0.3133316   0.0000000  )
         6           O   tau(   6) = (   0.3423398   0.7073165   0.6941996  )
         7           O   tau(   7) = (   0.0850215   0.2990226   0.6778828  )
         8           O   tau(   8) = (  -0.0614201   0.6886838   0.4382774  )
         9           O   tau(   9) = (  -0.0723703   0.6713088   0.9338050  )
        10           O   tau(  10) = (   0.6376567   0.2163514   1.1367703  )
        11           O   tau(  11) = (   0.6553535   0.2444312   0.2353108  )
        12           O   tau(  12) = (   0.4828473   0.6248519   1.3604980  )
        13           O   tau(  13) = (   0.2200375   0.2078445   0.0115845  )

   Crystallographic axes

     site n.     atom                  positions (cryst. coord.)
         1           Ca  tau(   1) = (  0.3117190  0.6882810  0.0000000  )
         2           Ca  tau(   2) = (  0.9866410  0.0029780  0.2729810  )
         3           Ca  tau(   3) = (  0.9970220  0.0133590  0.7270190  )
         4           P   tau(   4) = (  0.3485170  0.6514830  0.5000000  )
         5           P   tau(   5) = (  0.6526790  0.3473210  0.0000000  )
         6           O   tau(   6) = (  0.6745050  0.7779360  0.5059460  )
         7           O   tau(   7) = (  0.2220640  0.3254950  0.4940540  )
         8           O   tau(   8) = (  0.2640860  0.7595340  0.3194250  )
         9           O   tau(   9) = (  0.2404660  0.7359140  0.6805750  )
        10           O   tau(  10) = (  0.7311240  0.2298180  0.8285000  )
        11           O   tau(  11) = (  0.7701820  0.2688760  0.1714990  )
        12           O   tau(  12) = (  0.7697110  0.6806630  0.9915570  )
        13           O   tau(  13) = (  0.3193370  0.2302890  0.0084430  )

     number of k points=     1  Methfessel-Paxton smearing, width (Ry)=  0.0010
                       cart. coord. in units 2pi/alat
        k(    1) = (   0.0000000   0.0000000   0.0000000), wk =   2.0000000

                       cryst. coord.
        k(    1) = (   0.0000000   0.0000000   0.0000000), wk =   2.0000000

     Check: negative core charge=   -0.000012

     Initial potential from superposition of free atoms

     starting charge      87.9833, renormalised to      88.0000
     Starting wfcs are   70 randomized atomic wfcs
     Checking if some PAW data can be deallocated...

     Self-consistent Calculation

     iteration #  1     ecut=    30.00 Ry     beta= 0.70
     Davidson diagonalization with overlap

     ethr =  1.00E-02,  avg # of iterations =  2.0

     total energy              =    -585.84413353 Ry
     estimated scf accuracy    <       2.78199629 Ry

[...]

     total energy              =    -587.07642800 Ry
     estimated scf accuracy    <       0.00001219 Ry

     iteration #  9     ecut=    30.00 Ry     beta= 0.70
     Davidson diagonalization with overlap

     ethr =  1.36E-08,  avg # of iterations =  2.0

     End of self-consistent calculation

          k = 0.0000 0.0000 0.0000 (  1700 PWs)   bands (ev):

   -34.6194 -33.0444 -33.0174 -15.8212 -15.6833 -15.6209 -15.3761 -15.0066
   -14.3903 -14.3686 -14.2458 -14.0624 -14.0323 -13.8609 -12.8136 -12.7118
   -12.5099 -12.0582 -11.9435 -11.9405  -2.6086  -1.9729  -0.2931   0.0021
     0.1926   0.1991   0.4805   0.6106   1.9076   2.1311   2.2459   2.6229
     2.7038   2.8958   2.9909   3.3083   3.4856   3.6293   3.8965   4.2260
     4.4160   4.5846   4.9616   5.2102   9.5748  10.1166  10.2419  10.6159
    10.9850  11.0648  11.1153  12.1902  12.3258

     occupation numbers
     1.0000   1.0000   1.0000   1.0000   1.0000   1.0000   1.0000   1.0000
     1.0000   1.0000   1.0000   1.0000   1.0000   1.0000   1.0000   1.0000
     1.0000   1.0000   1.0000   1.0000   1.0000   1.0000   1.0000   1.0000
     1.0000   1.0000   1.0000   1.0000   1.0000   1.0000   1.0000   1.0000
     1.0000   1.0000   1.0000   1.0000   1.0000   1.0000   1.0000   1.0000
     1.0000   1.0000   1.0000   1.0000  -0.0000  -0.0000  -0.0000  -0.0000
    -0.0000  -0.0000  -0.0000  -0.0000  -0.0000

     the Fermi energy is     6.5597 ev

!    total energy              =    -587.07643030 Ry
     estimated scf accuracy    <       0.00000044 Ry
     smearing contrib. (-TS)   =       0.00000000 Ry
     internal energy E=F+TS    =    -587.07643030 Ry

     The total energy is F=E-TS. E is the sum of the following terms:
     one-electron contribution =    -202.52396051 Ry
     hartree contribution      =     143.95990717 Ry
     xc contribution           =    -105.42877397 Ry
     ewald contribution        =    -346.98165328 Ry
     one-center paw contrib.   =     -76.10194972 Ry
      -> PAW hartree energy AE =     250.99811047 Ry
      -> PAW hartree energy PS =    -250.09338854 Ry
      -> PAW xc energy AE      =    -139.46935440 Ry
      -> PAW xc energy PS      =      62.46268276 Ry
      -> total E_H with PAW    =     144.86462910 Ry
      -> total E_XC with PAW   =    -182.43544562 Ry

     convergence has been achieved in   9 iterations

     Forces acting on atoms (cartesian axes, Ry/au):

     atom    1 type  1   force =     0.01952136   -0.01230539    0.00002452
     atom    2 type  1   force =    -0.00168402    0.00509550    0.00377133
     atom    3 type  1   force =    -0.00529743   -0.00069722   -0.00380262
     atom    4 type  2   force =     0.01377628   -0.00868457    0.00000341
     atom    5 type  2   force =    -0.04451568    0.02805432   -0.00000645
     atom    6 type  3   force =     0.00557818    0.00173412    0.00013807
     atom    7 type  3   force =     0.00083867   -0.00577692   -0.00015799
     atom    8 type  3   force =    -0.00974141    0.00516593   -0.02247091
     atom    9 type  3   force =    -0.00884305    0.00655174    0.02243651
     atom   10 type  3   force =     0.00540264   -0.00856496   -0.03075081
     atom   11 type  3   force =     0.01007609   -0.00118185    0.03081834
     atom   12 type  3   force =    -0.00367125   -0.02233841   -0.00441239
     atom   13 type  3   force =     0.01855963    0.01294770    0.00440899
     The non-local contrib.  to forces
     atom    1 type  1   force =    -0.03847893    0.02424899    0.00003215
     atom    2 type  1   force =     0.00784154   -0.02314440   -0.03720918
     atom    3 type  1   force =     0.02428308    0.00288760    0.03718596
     atom    4 type  2   force =    -0.01685006    0.01064522   -0.00003210
     atom    5 type  2   force =    -0.14701486    0.09265473    0.00007790
     atom    6 type  3   force =    -1.33258869   -0.43095125   -0.06142910
     atom    7 type  3   force =    -0.18616153    1.38812342    0.06135073
     atom    8 type  3   force =     0.59468918   -0.47650934    1.12649762
     atom    9 type  3   force =     0.68648601   -0.33090411   -1.12654444
     atom   10 type  3   force =    -0.52753604    0.50775815    1.56584898
     atom   11 type  3   force =    -0.68569231    0.25686095   -1.56566012
     atom   12 type  3   force =     0.02974977   -1.38292258    0.07345701
     atom   13 type  3   force =     1.26041825    0.56982792   -0.07334099
     The ionic contribution  to forces
     atom    1 type  1   force =    -0.16688884    0.10518042    0.00000541
     atom    2 type  1   force =    -0.08938763   -0.63243110    1.42336744
     atom    3 type  1   force =     0.53198905    0.35349207   -1.42336491
     atom    4 type  2   force =     0.00705240   -0.00444501   -0.00000446
     atom    5 type  2   force =    -0.44327554    0.27935728   -0.00003508
     atom    6 type  3   force =     4.12044670   -0.87341975    0.15463691
     atom    7 type  3   force =     2.56569890   -3.34037823   -0.15465032
     atom    8 type  3   force =    -1.60856253    1.57621890   -1.66132410
     atom    9 type  3   force =    -2.11597712    0.77109050    1.66132092
     atom   10 type  3   force =     0.51317693   -0.65855602   -8.11129477
     atom   11 type  3   force =     0.81558211   -0.17886029    8.11133765
     atom   12 type  3   force =    -0.19362107    4.27062925   -0.24560306
     atom   13 type  3   force =    -3.93623335   -1.66787804    0.24560839
     The local contribution  to forces
     atom    1 type  1   force =     0.22512884   -0.14189921    0.00021426
     atom    2 type  1   force =     0.07954688    0.66096284   -1.38134042
     atom    3 type  1   force =    -0.56187985   -0.35704214    1.38123331
     atom    4 type  2   force =     0.02169303   -0.01365964   -0.00005956
     atom    5 type  2   force =     0.53431243   -0.33672347    0.00020949
     atom    6 type  3   force =    -2.79431963    1.30187609   -0.09372587
     atom    7 type  3   force =    -2.38007586    1.95918293    0.09360693
     atom    8 type  3   force =     1.00966337   -1.09899853    0.52283227
     atom    9 type  3   force =     1.42705131   -0.43669087   -0.52292135
     atom   10 type  3   force =     0.01530164    0.14657290    6.52827583
     atom   11 type  3   force =    -0.12561633   -0.07706104   -6.52822807
     atom   12 type  3   force =     0.16021498   -2.92276579    0.16854615
     atom   13 type  3   force =     2.70585219    1.11647209   -0.16841594
     The core correction contribution to forces
     atom    1 type  1   force =    -0.00019972    0.00012541    0.00000262
     atom    2 type  1   force =     0.00018822   -0.00029338   -0.00046597
     atom    3 type  1   force =     0.00034627   -0.00004441    0.00046453
     atom    4 type  2   force =     0.00214626   -0.00135389    0.00000142
     atom    5 type  2   force =     0.01145952   -0.00722202   -0.00000263
     atom    6 type  3   force =     0.01168493    0.00399942    0.00052860
     atom    7 type  3   force =     0.00143342   -0.01226705   -0.00052757
     atom    8 type  3   force =    -0.00523125    0.00425465   -0.01003339
     atom    9 type  3   force =    -0.00609556    0.00288367    0.01003371
     atom   10 type  3   force =     0.00432849   -0.00427162   -0.01374669
     atom   11 type  3   force =     0.00572161   -0.00206244    0.01374475
     atom   12 type  3   force =    -0.00011502    0.01237192   -0.00068873
     atom   13 type  3   force =    -0.01121081   -0.00523426    0.00068725
     The Hubbard contrib.    to forces
     atom    1 type  1   force =     0.00000000    0.00000000    0.00000000
     atom    2 type  1   force =     0.00000000    0.00000000    0.00000000
     atom    3 type  1   force =     0.00000000    0.00000000    0.00000000
     atom    4 type  2   force =     0.00000000    0.00000000    0.00000000
     atom    5 type  2   force =     0.00000000    0.00000000    0.00000000
     atom    6 type  3   force =     0.00000000    0.00000000    0.00000000
     atom    7 type  3   force =     0.00000000    0.00000000    0.00000000
     atom    8 type  3   force =     0.00000000    0.00000000    0.00000000
     atom    9 type  3   force =     0.00000000    0.00000000    0.00000000
     atom   10 type  3   force =     0.00000000    0.00000000    0.00000000
     atom   11 type  3   force =     0.00000000    0.00000000    0.00000000
     atom   12 type  3   force =     0.00000000    0.00000000    0.00000000
     atom   13 type  3   force =     0.00000000    0.00000000    0.00000000
     The SCF correction term to forces
     atom    1 type  1   force =    -0.00003360    0.00003522   -0.00022356
     atom    2 type  1   force =     0.00013337   -0.00000225   -0.00057418
     atom    3 type  1   force =    -0.00002959    0.00000588    0.00068485
     atom    4 type  2   force =    -0.00025896    0.00012496    0.00010447
     atom    5 type  2   force =     0.00000916   -0.00001598   -0.00024978
     atom    6 type  3   force =     0.00036126    0.00022584    0.00013389
     atom    7 type  3   force =    -0.00004987   -0.00044178    0.00006860
     atom    8 type  3   force =    -0.00029378    0.00019646   -0.00043695
     atom    9 type  3   force =    -0.00030129    0.00016877    0.00055403
     atom   10 type  3   force =     0.00013802   -0.00007216    0.00017220
     atom   11 type  3   force =     0.00008741   -0.00006281   -0.00036952
     atom   12 type  3   force =     0.00010648    0.00034501   -0.00011741
     atom   13 type  3   force =    -0.00026026   -0.00024380   -0.00012337

     Total force =     0.090200     Total SCF correction =     0.001630

     Computing stress (Cartesian axis) and pressure

          total   stress  (Ry/bohr**3)                   (kbar)     P=     -291.36
  -0.00196964  -0.00001406   0.00002682         -289.74       -2.07        3.95
  -0.00001406  -0.00198294   0.00004309           -2.07     -291.70        6.34
   0.00002682   0.00004309  -0.00198927            3.95        6.34     -292.63

     kinetic stress (kbar)  17098.01     31.31     -6.57
                               31.31  17127.96    -10.39
                               -6.57    -10.39  17019.23

     local   stress (kbar)  -9420.44    625.70     81.25
                              625.70  -8821.93    129.06
                               81.25    129.06  -9328.56

     nonloc. stress (kbar)   3856.76     -4.31      1.98
                               -4.31   3852.64      3.16
                                1.98      3.16   3853.51

     hartree stress (kbar)   5867.57   -143.93    -41.53
                             -143.93   5729.88    -65.98
                              -41.53    -65.98   5705.31

     exc-cor stress (kbar)  -2638.40     -1.87      0.00
                               -1.87  -2640.19      0.00
                                0.00      0.00  -2636.06

     corecor stress (kbar)  -1264.89      0.12     -0.17
                                0.12  -1264.78     -0.26
                               -0.17     -0.26  -1265.41

     ewald   stress (kbar) -13788.34   -509.07    -31.03
                             -509.07 -14275.27    -49.24
                              -31.03    -49.24 -13640.64

     hubbard stress (kbar)      0.00      0.00      0.00
                                0.00      0.00      0.00
                                0.00      0.00      0.00

     DFT-D   stress (kbar)      0.00      0.00      0.00
                                0.00      0.00      0.00
                                0.00      0.00      0.00

     XDM     stress (kbar)      0.00      0.00      0.00
                                0.00      0.00      0.00
                                0.00      0.00      0.00

     dft-nl  stress (kbar)      0.00      0.00      0.00
                                0.00      0.00      0.00
                                0.00      0.00      0.00

     TS-vdW  stress (kbar)      0.00      0.00      0.00
                                0.00      0.00      0.00
                                0.00      0.00      0.00

[...]

                                0.00      0.00      0.00

     Writing all to output data dir new_calculations/myprefix.save/

     General routines

     Parallel routines

     PAW routines

   This run was terminated on:   8: 5:28  20May2023

   JOB DONE.