     Program PWSCF v.7.0 starts on 20May2023 at  8:30:27

     Reading input from espresso_8296.pwi
Warning: card &CELL ignored
Warning: card / ignored

     Current dimensions of program PWSCF are:
     Max number of different atomic species (ntypx) = 10
     Max number of k-points (npk) =  40000
     Max angular momentum in pseudopotentials (lmaxx) =  4
     file K.pbe-spn-kjpaw_psl.1.0.0.UPF: wavefunction(s)  3S renormalized
     file Al.pbe-n-kjpaw_psl.1.0.0.UPF: wavefunction(s)  3S 3P renormalized

     gamma-point specific algorithms are used
     Message from routine setup:
     using ibrav=0 with symmetry is DISCOURAGED, use correct ibrav instead

     Subspace diagonalization in iterative solution of the eigenvalue problem:
     a serial algorithm will be used

     Using Slab Decomposition

     bravais-lattice index     =            0
     lattice parameter (alat)  =      13.9271  a.u.
     unit-cell volume          =    1240.4965 (a.u.)^3
     number of atoms/cell      =           12
     number of atomic types    =            3
     number of electrons       =        32.00
     number of Kohn-Sham states=           20
     kinetic-energy cutoff     =      30.0000  Ry
     charge density cutoff     =     240.0000  Ry
     scf convergence threshold =      1.0E-06
     mixing beta               =       0.7000
     number of iterations used =            8  plain     mixing
     Exchange-correlation= PBE
                           (   1   4   3   4   0   0   0)

     celldm(1)=  13.927146  celldm(2)=   0.000000  celldm(3)=   0.000000
     celldm(4)=   0.000000  celldm(5)=   0.000000  celldm(6)=   0.000000

     crystal axes: (cart. coord. in units of alat)
               a(1) = (   1.000000   0.000000   0.000000 )
               a(2) = (   0.463109   0.886301   0.000000 )
               a(3) = (  -0.731555  -0.443151   0.518117 )

     reciprocal axes: (cart. coord. in units 2 pi/alat)
               b(1) = (  1.000000 -0.522519  0.965033 )
               b(2) = (  0.000000  1.128285  0.965033 )
               b(3) = (  0.000000  0.000000  1.930066 )

     PseudoPot. # 1 for K  read from file:
     /home/pragov/projects/rrg-bengioy-ad/pragov/crystal_structure_design/SSSP/K.pbe-spn-kjpaw_psl.1.0.0.UPF
     MD5 check sum: 7d58810084cac21f60fbe77ea2b688fd
     Pseudo is Projector augmented-wave + core cor, Zval =  9.0
     Generated using "atomic" code by A. Dal Corso  v.5.1
     Shape of augmentation charge: PSQ
     Using radial grid of 1165 points,  6 beta functions with:
                l(1) =   0
                l(2) =   0
                l(3) =   1
                l(4) =   1
                l(5) =   2
                l(6) =   2
     Q(r) pseudized with 0 coefficients

     PseudoPot. # 2 for Al read from file:
     /home/pragov/projects/rrg-bengioy-ad/pragov/crystal_structure_design/SSSP/Al.pbe-n-kjpaw_psl.1.0.0.UPF
     MD5 check sum: cfc449ca30b5f3223ec38ddd88ac046d
     Pseudo is Projector augmented-wave + core cor, Zval =  3.0
     Generated using "atomic" code by A. Dal Corso  v.5.1
     Shape of augmentation charge: PSQ
     Using radial grid of 1135 points,  6 beta functions with:
                l(1) =   0
                l(2) =   0
                l(3) =   1
                l(4) =   1
                l(5) =   2
                l(6) =   2
     Q(r) pseudized with 0 coefficients

     PseudoPot. # 3 for H  read from file:
     /home/pragov/projects/rrg-bengioy-ad/pragov/crystal_structure_design/SSSP/H.pbe-rrkjus_psl.1.0.0.UPF
     MD5 check sum: f52b6d4d1c606e5624b1dc7b2218f220
     Pseudo is Ultrasoft, Zval =  1.0
     Generated using "atomic" code by A. Dal Corso  v.5.1
     Using radial grid of  929 points,  2 beta functions with:
                l(1) =   0
                l(2) =   0
     Q(r) pseudized with 0 coefficients

     atomic species   valence    mass     pseudopotential
        K              9.00    39.09830     K ( 1.00)
        Al             3.00    26.98154     Al( 1.00)
        H              1.00     1.00800     H ( 1.00)

      2 Sym. Ops., with inversion, found ( 1 have fractional translation)

                                    s                        frac. trans.

      isym =  1     identity

 cryst.   s( 1) = (     1          0          0      )
                  (     0          1          0      )
                  (     0          0          1      )

 cart.    s( 1) = (  1.0000000 -0.0000000 -0.0000000 )
                  (  0.0000000  1.0000000 -0.0000000 )
                  (  0.0000000  0.0000000  1.0000000 )

      isym =  2     inversion

 cryst.   s( 2) = (    -1          0          0      )    f =(  0.2500000 )
                  (     0         -1          0      )       ( -0.2500000 )
                  (     0          0         -1      )       (  0.5000000 )

 cart.    s( 2) = ( -1.0000000  0.0000000  0.0000000 )    f =( -0.2315547 )
                  (  0.0000000 -1.0000000  0.0000000 )       ( -0.4431506 )
                  (  0.0000000  0.0000000 -1.0000000 )       (  0.2590585 )

   Cartesian axes

     site n.     atom                  positions (alat units)
         1           K   tau(   1) = (   0.5000000   0.0000000   0.2590585  )
         2           K   tau(   2) = (   0.0000000   0.0000000   0.0000000  )
         3           Al  tau(   3) = (   0.2315547   0.4431506   0.2590585  )
         4           Al  tau(   4) = (   0.7315547   0.4431506   0.0000000  )
         5           H   tau(   5) = (   0.4259656   0.3631380   0.3287132  )
         6           H   tau(   6) = (   0.2506744   0.6525126   0.1894039  )
         7           H   tau(   7) = (   0.8022310   0.5674011   0.1691632  )
         8           H   tau(   8) = (   0.1428543   0.0050989   0.3489539  )
         9           H   tau(   9) = (  -0.1944109   0.0800126   0.4484624  )
        10           H   tau(  10) = (   0.7124350   0.2337885   0.0696546  )
        11           H   tau(  11) = (   0.1608784   0.3189000   0.0898954  )
        12           H   tau(  12) = (   0.0887004   0.4380517   0.4282217  )

   Crystallographic axes

     site n.     atom                  positions (cryst. coord.)
         1           K   tau(   1) = (  0.7500000  0.2500000  0.5000000  )
         2           K   tau(   2) = (  0.0000000  0.0000000  0.0000000  )
         3           Al  tau(   3) = (  0.2500000  0.7500000  0.5000000  )
         4           Al  tau(   4) = (  0.5000000  0.5000000  0.0000000  )
         5           H   tau(   5) = (  0.5534380  0.7269420  0.6344380  )
         6           H   tau(   6) = (  0.0925050  0.9190010  0.3655620  )
         7           H   tau(   7) = (  0.6690010  0.8034380  0.3264960  )
         8           H   tau(   8) = (  0.4769420  0.3425050  0.6735040  )
         9           H   tau(   9) = (  0.1965620  0.5230580  0.8655620  )
        10           H   tau(  10) = (  0.6574950  0.3309990  0.1344380  )
        11           H   tau(  11) = (  0.0809990  0.4465620  0.1735040  )
        12           H   tau(  12) = (  0.2730580  0.9074950  0.8264960  )

     number of k points=     1  Methfessel-Paxton smearing, width (Ry)=  0.0010
                       cart. coord. in units 2pi/alat
        k(    1) = (   0.0000000   0.0000000   0.0000000), wk =   2.0000000

                       cryst. coord.
        k(    1) = (   0.0000000   0.0000000   0.0000000), wk =   2.0000000

     Check: negative core charge=   -0.000002

     Initial potential from superposition of free atoms

     starting charge      31.9577, renormalised to      32.0000
     Starting wfcs are   32 randomized atomic wfcs
     Checking if some PAW data can be deallocated...

     Self-consistent Calculation

     iteration #  1     ecut=    30.00 Ry     beta= 0.70
     Davidson diagonalization with overlap

     ethr =  1.00E-02,  avg # of iterations =  3.0

     total energy              =    -314.42979103 Ry
     estimated scf accuracy    <       0.68813428 Ry

[...]

     total energy              =    -314.49495264 Ry
     estimated scf accuracy    <       0.00000397 Ry

     iteration #  6     ecut=    30.00 Ry     beta= 0.70
     Davidson diagonalization with overlap

     ethr =  1.24E-08,  avg # of iterations =  2.0

     End of self-consistent calculation

          k = 0.0000 0.0000 0.0000 (  1711 PWs)   bands (ev):

   -28.5001 -28.4670 -12.1287 -12.1050 -12.0797 -12.0281 -11.9977 -11.9281
    -5.1915  -3.6601  -1.5821  -1.0453  -1.0419  -0.5983  -0.5961  -0.5240
     4.5371   4.8405   6.1771   6.1826

     occupation numbers
     1.0000   1.0000   1.0000   1.0000   1.0000   1.0000   1.0000   1.0000
     1.0000   1.0000   1.0000   1.0000   1.0000   1.0000   1.0000   1.0000
    -0.0000  -0.0000  -0.0000  -0.0000

     the Fermi energy is     1.9493 ev

!    total energy              =    -314.49495359 Ry
     estimated scf accuracy    <       0.00000006 Ry
     smearing contrib. (-TS)   =       0.00000000 Ry
     internal energy E=F+TS    =    -314.49495359 Ry

     The total energy is F=E-TS. E is the sum of the following terms:
     one-electron contribution =     -55.94281401 Ry
     hartree contribution      =      36.33340173 Ry
     xc contribution           =     -33.39366212 Ry
     ewald contribution        =     -81.28408248 Ry
     one-center paw contrib.   =    -180.20779671 Ry
      -> PAW hartree energy AE =      79.09856743 Ry
      -> PAW hartree energy PS =     -78.67484710 Ry
      -> PAW xc energy AE      =    -205.95695797 Ry
      -> PAW xc energy PS      =      25.32544092 Ry
      -> total E_H with PAW    =      36.75712207 Ry
      -> total E_XC with PAW   =    -214.02517917 Ry

     convergence has been achieved in   6 iterations

     Forces acting on atoms (cartesian axes, Ry/au):

     atom    1 type  1   force =    -0.00003013    0.00022000   -0.00037923
     atom    2 type  1   force =     0.00003013   -0.00022000    0.00037923
     atom    3 type  2   force =     0.00008775   -0.00011486    0.00051125
     atom    4 type  2   force =    -0.00008775    0.00011486   -0.00051125
     atom    5 type  3   force =    -0.00311834   -0.00223249   -0.00703160
     atom    6 type  3   force =    -0.00355837   -0.00200990    0.00684339
     atom    7 type  3   force =     0.00025571   -0.00798050    0.00089161
     atom    8 type  3   force =    -0.00701663    0.00392282   -0.00054483
     atom    9 type  3   force =     0.00311834    0.00223249    0.00703160
     atom   10 type  3   force =     0.00355837    0.00200990   -0.00684339
     atom   11 type  3   force =    -0.00025571    0.00798050   -0.00089161
     atom   12 type  3   force =     0.00701663   -0.00392282    0.00054483
     The non-local contrib.  to forces
     atom    1 type  1   force =    -0.00003111    0.00057474   -0.00005985
     atom    2 type  1   force =     0.00003111   -0.00057474    0.00005985
     atom    3 type  2   force =    -0.00004571   -0.00016252    0.00044889
     atom    4 type  2   force =     0.00004571    0.00016252   -0.00044889
     atom    5 type  3   force =    -0.02079927    0.00796904   -0.00758893
     atom    6 type  3   force =    -0.00261182   -0.02216097    0.00756473
     atom    7 type  3   force =    -0.00777206   -0.01346675   -0.01738063
     atom    8 type  3   force =    -0.01566397   -0.00064408    0.01754763
     atom    9 type  3   force =     0.02079927   -0.00796904    0.00758893
     atom   10 type  3   force =     0.00261182    0.02216097   -0.00756473
     atom   11 type  3   force =     0.00777206    0.01346675    0.01738063
     atom   12 type  3   force =     0.01566397    0.00064408   -0.01754763
     The ionic contribution  to forces
     atom    1 type  1   force =     0.00000000   -0.00000435    0.00000372
     atom    2 type  1   force =    -0.00000000    0.00000435   -0.00000372
     atom    3 type  2   force =    -0.00000160    0.00000633   -0.00000315
     atom    4 type  2   force =     0.00000160   -0.00000633    0.00000315
     atom    5 type  3   force =     0.15158455   -0.00113320    0.01510113
     atom    6 type  3   force =     0.06919482    0.13486666   -0.01509575
     atom    7 type  3   force =     0.10256667    0.07978382    0.07950618
     atom    8 type  3   force =     0.11821250    0.05395562   -0.07950564
     atom    9 type  3   force =    -0.15158455    0.00113320   -0.01510113
     atom   10 type  3   force =    -0.06919482   -0.13486666    0.01509575
     atom   11 type  3   force =    -0.10256667   -0.07978382   -0.07950618
     atom   12 type  3   force =    -0.11821250   -0.05395562    0.07950564
     The local contribution  to forces
     atom    1 type  1   force =    -0.00006176   -0.00035663   -0.00036180
     atom    2 type  1   force =    -0.00023682    0.00010800    0.00028125
     atom    3 type  2   force =     0.00016204    0.00005089    0.00012263
     atom    4 type  2   force =    -0.00012764   -0.00006531   -0.00003455
     atom    5 type  3   force =    -0.13389990   -0.00910291   -0.01449067
     atom    6 type  3   force =    -0.07005702   -0.11473068    0.01450835
     atom    7 type  3   force =    -0.09460628   -0.07421580   -0.06144507
     atom    8 type  3   force =    -0.10953928   -0.04935079    0.06143805
     atom    9 type  3   force =     0.13387746    0.00900311    0.01460121
     atom   10 type  3   force =     0.07018329    0.11469152   -0.01424570
     atom   11 type  3   force =     0.09447358    0.07439128    0.06102984
     atom   12 type  3   force =     0.10960390    0.04941861   -0.06139367
     The core correction contribution to forces
     atom    1 type  1   force =     0.00001569   -0.00004675    0.00003078
     atom    2 type  1   force =    -0.00001313    0.00002596    0.00000507
     atom    3 type  2   force =     0.00003263    0.00000023   -0.00001623
     atom    4 type  2   force =    -0.00001434   -0.00000187    0.00000857
     atom    5 type  3   force =     0.00000000    0.00000000    0.00000000
     atom    6 type  3   force =     0.00000000    0.00000000    0.00000000
     atom    7 type  3   force =     0.00000000    0.00000000    0.00000000
     atom    8 type  3   force =     0.00000000    0.00000000    0.00000000
     atom    9 type  3   force =     0.00000000    0.00000000    0.00000000
     atom   10 type  3   force =     0.00000000    0.00000000    0.00000000
     atom   11 type  3   force =     0.00000000    0.00000000    0.00000000
     atom   12 type  3   force =     0.00000000    0.00000000    0.00000000
     The Hubbard contrib.    to forces
     atom    1 type  1   force =     0.00000000    0.00000000    0.00000000
     atom    2 type  1   force =     0.00000000    0.00000000    0.00000000
     atom    3 type  2   force =     0.00000000    0.00000000    0.00000000
     atom    4 type  2   force =     0.00000000    0.00000000    0.00000000
     atom    5 type  3   force =     0.00000000    0.00000000    0.00000000
     atom    6 type  3   force =     0.00000000    0.00000000    0.00000000
     atom    7 type  3   force =     0.00000000    0.00000000    0.00000000
     atom    8 type  3   force =     0.00000000    0.00000000    0.00000000
     atom    9 type  3   force =     0.00000000    0.00000000    0.00000000
     atom   10 type  3   force =     0.00000000    0.00000000    0.00000000
     atom   11 type  3   force =     0.00000000    0.00000000    0.00000000
     atom   12 type  3   force =     0.00000000    0.00000000    0.00000000
     The SCF correction term to forces
     atom    1 type  1   force =    -0.00011640   -0.00002339   -0.00003087
     atom    2 type  1   force =     0.00008553    0.00014007   -0.00000202
     atom    3 type  2   force =    -0.00003071   -0.00002347    0.00000274
     atom    4 type  2   force =     0.00003581    0.00001215    0.00000410
     atom    5 type  3   force =    -0.00001275   -0.00001511    0.00000161
     atom    6 type  3   force =    -0.00001730   -0.00000265   -0.00000402
     atom    7 type  3   force =    -0.00000191    0.00000325    0.00000527
     atom    8 type  3   force =     0.00000532   -0.00000663   -0.00000289
     atom    9 type  3   force =     0.00001715    0.00001551   -0.00000268
     atom   10 type  3   force =     0.00002516    0.00000633    0.00000121
     atom   11 type  3   force =    -0.00000398   -0.00000868   -0.00000177
     atom   12 type  3   force =    -0.00000754    0.00000142    0.00000246

     Total force =     0.022699     Total SCF correction =     0.000217

     Computing stress (Cartesian axis) and pressure

          total   stress  (Ry/bohr**3)                   (kbar)     P=       20.71
  -0.00003151  -0.00009494   0.00001513           -4.64      -13.97        2.23
  -0.00009494   0.00018001   0.00001456          -13.97       26.48        2.14
   0.00001513   0.00001456   0.00027383            2.23        2.14       40.28

     kinetic stress (kbar)   4515.92    -15.92      1.29
                              -15.92   4542.10      1.78
                                1.29      1.78   4558.30

     local   stress (kbar)  -3104.34   -260.07      0.60
                             -260.07  -2826.61      0.09
                                0.60      0.09  -2665.82

     nonloc. stress (kbar)   1248.91     -3.36      0.54
                               -3.36   1255.24      0.61
                                0.54      0.61   1254.89

     hartree stress (kbar)   1549.51    124.32     -0.19
                              124.32   1418.01     -0.25
                               -0.19     -0.25   1341.09

     exc-cor stress (kbar)   -254.81      0.30     -0.01
                                0.30   -255.14     -0.01
                               -0.01     -0.01   -255.37

     corecor stress (kbar)   -872.67      0.67     -0.00
                                0.67   -873.57     -0.08
                               -0.00     -0.08   -874.40

     ewald   stress (kbar)  -3087.15    140.10     -0.00
                              140.10  -3233.56     -0.00
                               -0.00     -0.00  -3318.42

     hubbard stress (kbar)      0.00      0.00      0.00
                                0.00      0.00      0.00
                                0.00      0.00      0.00

     DFT-D   stress (kbar)      0.00      0.00      0.00
                                0.00      0.00      0.00
                                0.00      0.00      0.00

     XDM     stress (kbar)      0.00      0.00      0.00
                                0.00      0.00      0.00
                                0.00      0.00      0.00

     dft-nl  stress (kbar)      0.00      0.00      0.00
                                0.00      0.00      0.00
                                0.00      0.00      0.00

     TS-vdW  stress (kbar)      0.00      0.00      0.00
                                0.00      0.00      0.00
                                0.00      0.00      0.00

[...]

                                0.00      0.00      0.00

     Writing all to output data dir new_calculations/myprefix.save/

     General routines

     Parallel routines

     PAW routines

   This run was terminated on:   8:30:39  20May2023

   JOB DONE.