     Program PWSCF v.7.0 starts on 21May2023 at  8:39:19

     Reading input from espresso_20522.pwi
Warning: card &CELL ignored
Warning: card / ignored

     Current dimensions of program PWSCF are:
     Max number of different atomic species (ntypx) = 10
     Max number of k-points (npk) =  40000
     Max angular momentum in pseudopotentials (lmaxx) =  4

     gamma-point specific algorithms are used
     Message from routine setup:
     using ibrav=0 with symmetry is DISCOURAGED, use correct ibrav instead

     Subspace diagonalization in iterative solution of the eigenvalue problem:
     a serial algorithm will be used

     Using Slab Decomposition

     bravais-lattice index     =            0
     lattice parameter (alat)  =      29.7936  a.u.
     unit-cell volume          =    6331.2336 (a.u.)^3
     number of atoms/cell      =           20
     number of atomic types    =            3
     number of electrons       =       136.00
     number of Kohn-Sham states=           82
     kinetic-energy cutoff     =      30.0000  Ry
     charge density cutoff     =     240.0000  Ry
     scf convergence threshold =      1.0E-06
     mixing beta               =       0.7000
     number of iterations used =            8  plain     mixing
     Exchange-correlation= SLA  PW   PBX  PBC
                           (   1   4   3   4   0   0   0)

     celldm(1)=  29.793649  celldm(2)=   0.000000  celldm(3)=   0.000000
     celldm(4)=   0.000000  celldm(5)=   0.000000  celldm(6)=   0.000000

     crystal axes: (cart. coord. in units of alat)
               a(1) = (   1.000000   0.000000   0.000000 )
               a(2) = (   0.948533   0.316678   0.000000 )
               a(3) = (   0.140666   0.022861   0.755960 )

     reciprocal axes: (cart. coord. in units 2 pi/alat)
               b(1) = (  1.000000 -2.995257 -0.095496 )
               b(2) = (  0.000000  3.157779 -0.095496 )
               b(3) = (  0.000000  0.000000  1.322821 )

     PseudoPot. # 1 for Cs read from file:
     /home/pragov/projects/rrg-bengioy-ad/pragov/crystal_structure_design/SSSP/Cs_pbe_v1.uspp.F.UPF
     MD5 check sum: 3476d69cb178dfad3ffaa59df4e07ca4
     Pseudo is Ultrasoft + core correction, Zval =  9.0
     Generated by new atomic code, or converted to UPF format
     Using radial grid of  905 points,  6 beta functions with:
                l(1) =   0
                l(2) =   0
                l(3) =   1
                l(4) =   1
                l(5) =   2
                l(6) =   2
     Q(r) pseudized with  6 coefficients,  rinner =    1.500   1.500   1.500
                                                       1.500   1.500

     PseudoPot. # 2 for Li read from file:
     /home/pragov/projects/rrg-bengioy-ad/pragov/crystal_structure_design/SSSP/li_pbe_v1.4.uspp.F.UPF
     MD5 check sum: e912e257baa3777c20ea3d68f190483c
     Pseudo is Ultrasoft, Zval =  3.0
     Generated by new atomic code, or converted to UPF format
     Using radial grid of  751 points,  5 beta functions with:
                l(1) =   0
                l(2) =   0
                l(3) =   0
                l(4) =   1
                l(5) =   1
     Q(r) pseudized with 10 coefficients,  rinner =    1.150   1.150   1.150

     PseudoPot. # 3 for I  read from file:
     /home/pragov/projects/rrg-bengioy-ad/pragov/crystal_structure_design/SSSP/I.pbe-n-kjpaw_psl.0.2.UPF
     MD5 check sum: d4ef18d9c8f18dc85e5843bca1e50dc0
     Pseudo is Projector augmented-wave + core cor, Zval =  7.0
     Generated using "atomic" code by A. Dal Corso  v.5.0.99 svn rev. 10869
     Shape of augmentation charge: PSQ
     Using radial grid of 1247 points,  4 beta functions with:
                l(1) =   0
                l(2) =   0
                l(3) =   1
                l(4) =   1
     Q(r) pseudized with 0 coefficients

     atomic species   valence    mass     pseudopotential
        Cs             9.00   132.90545     Cs( 1.00)
        Li             3.00     6.94000     Li( 1.00)
        I              7.00   126.90447     I ( 1.00)

      2 Sym. Ops., with inversion, found

                                    s                        frac. trans.

      isym =  1     identity

 cryst.   s( 1) = (     1          0          0      )
                  (     0          1          0      )
                  (     0          0          1      )

 cart.    s( 1) = (  1.0000000  0.0000000 -0.0000000 )
                  (  0.0000000  1.0000000 -0.0000000 )
                  (  0.0000000  0.0000000  1.0000000 )

      isym =  2     inversion

 cryst.   s( 2) = (    -1          0          0      )
                  (     0         -1          0      )
                  (     0          0         -1      )

 cart.    s( 2) = ( -1.0000000 -0.0000000  0.0000000 )
                  (  0.0000000 -1.0000000  0.0000000 )
                  (  0.0000000  0.0000000 -1.0000000 )

   Cartesian axes

     site n.     atom                  positions (alat units)
         1           Cs  tau(   1) = (   1.4917325   0.2424384   0.1950241  )
         2           Cs  tau(   2) = (   0.1840544   0.0299128   0.2603149  )
         3           Cs  tau(   3) = (   1.8504912   0.3007444   0.1178829  )
         4           Cs  tau(   4) = (   0.2387081   0.0387952   0.6380773  )
         5           Cs  tau(   5) = (   1.9051449   0.3096268   0.4956453  )
         6           Cs  tau(   6) = (   0.5974668   0.0971011   0.5609361  )
         7           Li  tau(   7) = (   0.8260736   0.1342546   0.7293157  )
         8           Li  tau(   8) = (   1.2631257   0.2052849   0.0266446  )
         9           Li  tau(   9) = (   0.7538531   0.1225173   0.3145316  )
        10           Li  tau(  10) = (   1.3353462   0.2170223   0.4414286  )
        11           I   tau(  11) = (   1.3990102   0.2273691   0.6058424  )
        12           I   tau(  12) = (   0.6901891   0.1121705   0.1501178  )
        13           I   tau(  13) = (   1.1635429   0.1891006   0.4485014  )
        14           I   tau(  14) = (   0.9923451   0.1612773   0.6749425  )
        15           I   tau(  15) = (   0.3612193   0.0587059   0.0717641  )
        16           I   tau(  16) = (   0.4141869   0.0673142   0.3730377  )
        17           I   tau(  17) = (   1.7279800   0.2808337   0.6841962  )
        18           I   tau(  18) = (   1.6750124   0.2722253   0.3829226  )
        19           I   tau(  19) = (   1.0968542   0.1782623   0.0810178  )
        20           I   tau(  20) = (   0.9256564   0.1504390   0.3074589  )

   Crystallographic axes

     site n.     atom                  positions (cryst. coord.)
         1           Cs  tau(   1) = (  0.7469430  0.7469430  0.2579820  )
         2           Cs  tau(   2) = (  0.0695990  0.0695990  0.3443500  )
         3           Cs  tau(   3) = (  0.9384270  0.9384270  0.1559380  )
         4           Cs  tau(   4) = (  0.0615730  0.0615730  0.8440620  )
         5           Cs  tau(   5) = (  0.9304010  0.9304010  0.6556500  )
         6           Cs  tau(   6) = (  0.2530570  0.2530570  0.7420180  )
         7           Li  tau(   7) = (  0.3543000  0.3543000  0.9647540  )
         8           Li  tau(   8) = (  0.6457000  0.6457000  0.0352460  )
         9           Li  tau(   9) = (  0.3568460  0.3568460  0.4160690  )
        10           Li  tau(  10) = (  0.6431540  0.6431540  0.5839310  )
        11           I   tau(  11) = (  0.6601260  0.6601260  0.8014210  )
        12           I   tau(  12) = (  0.3398740  0.3398740  0.1985790  )
        13           I   tau(  13) = (  0.5543080  0.5543080  0.5932870  )
        14           I   tau(  14) = (  0.4448240  0.4448240  0.8928280  )
        15           I   tau(  15) = (  0.1785270  0.1785270  0.0949310  )
        16           I   tau(  16) = (  0.1769400  0.1769400  0.4934620  )
        17           I   tau(  17) = (  0.8214730  0.8214730  0.9050690  )
        18           I   tau(  18) = (  0.8230600  0.8230600  0.5065380  )
        19           I   tau(  19) = (  0.5551760  0.5551760  0.1071720  )
        20           I   tau(  20) = (  0.4456920  0.4456920  0.4067130  )

     number of k points=     1  Methfessel-Paxton smearing, width (Ry)=  0.0010
                       cart. coord. in units 2pi/alat
        k(    1) = (   0.0000000   0.0000000   0.0000000), wk =   2.0000000

                       cryst. coord.
        k(    1) = (   0.0000000   0.0000000   0.0000000), wk =   2.0000000

     Initial potential from superposition of free atoms

     starting charge     133.9600, renormalised to     136.0000
     Starting wfcs are  138 randomized atomic wfcs
     Checking if some PAW data can be deallocated...

     Self-consistent Calculation

     iteration #  1     ecut=    30.00 Ry     beta= 0.70
     Davidson diagonalization with overlap

     ethr =  1.00E-02,  avg # of iterations =  3.0

     Threshold (ethr) on eigenvalues was too large:
     Diagonalizing with lowered threshold

     Davidson diagonalization with overlap

[...]

     negative rho (up, down):  1.158E-06 0.000E+00

     total energy              =   -4226.87942830 Ry
     estimated scf accuracy    <       0.70352015 Ry

[...]

     total energy              =   -4227.13967721 Ry
     estimated scf accuracy    <       0.00000456 Ry

     iteration #  8     ecut=    30.00 Ry     beta= 0.70
     Davidson diagonalization with overlap

     ethr =  3.36E-09,  avg # of iterations =  6.0

[...]

     End of self-consistent calculation

          k = 0.0000 0.0000 0.0000 (  8774 PWs)   bands (ev):

   -43.5503 -43.5500 -43.4957 -43.4954 -18.8222 -18.8170 -18.8045 -18.8040
   -18.7640 -18.7619  -9.2146  -9.2081  -9.0095  -8.9799  -8.9766  -8.9527
    -8.8436  -8.8247  -8.8196  -8.7338  -5.7176  -5.6785  -5.6632  -5.6378
    -5.6263  -5.6235  -5.6199  -5.6168  -5.6060  -5.5756  -5.5747  -5.5673
    -5.5612  -5.5542  -5.5364  -5.5318  -5.5127  -5.5122  -0.1188  -0.1126
     0.1510   0.3074   0.3430   0.4857   0.5559   0.5918   0.6166   0.6176
     0.6874   0.7350   0.7488   0.7657   0.9240   1.0315   1.1292   1.1644
     1.1909   1.2572   1.3378   1.3503   1.3809   1.3901   1.4289   1.4637
     1.4638   1.5426   1.5457   1.5662   5.2498   5.9093   6.1596   6.2911
     6.3156   6.3982   6.4147   6.5872   6.6919   6.8252   6.8272   6.9664
     6.9736   7.1696

     occupation numbers
     1.0000   1.0000   1.0000   1.0000   1.0000   1.0000   1.0000   1.0000
     1.0000   1.0000   1.0000   1.0000   1.0000   1.0000   1.0000   1.0000
     1.0000   1.0000   1.0000   1.0000   1.0000   1.0000   1.0000   1.0000
     1.0000   1.0000   1.0000   1.0000   1.0000   1.0000   1.0000   1.0000
     1.0000   1.0000   1.0000   1.0000   1.0000   1.0000   1.0000   1.0000
     1.0000   1.0000   1.0000   1.0000   1.0000   1.0000   1.0000   1.0000
     1.0000   1.0000   1.0000   1.0000   1.0000   1.0000   1.0000   1.0000
     1.0000   1.0000   1.0000   1.0000   1.0000   1.0000   1.0000   1.0000
     1.0000   1.0000   1.0000   1.0000  -0.0000  -0.0000  -0.0000  -0.0000
    -0.0000  -0.0000  -0.0000  -0.0000  -0.0000  -0.0000  -0.0000  -0.0000
    -0.0000  -0.0000

     the Fermi energy is     4.1187 ev

!    total energy              =   -4227.13968008 Ry
     estimated scf accuracy    <       0.00000043 Ry
     smearing contrib. (-TS)   =       0.00000000 Ry
     internal energy E=F+TS    =   -4227.13968008 Ry

     The total energy is F=E-TS. E is the sum of the following terms:
     one-electron contribution =     -95.81144644 Ry
     hartree contribution      =      91.53713407 Ry
     xc contribution           =    -613.28596585 Ry
     ewald contribution        =    -404.30752147 Ry
     one-center paw contrib.   =   -3205.27188039 Ry
      -> PAW hartree energy AE =      99.23931073 Ry
      -> PAW hartree energy PS =     -99.87365448 Ry
      -> PAW xc energy AE      =   -3610.03197549 Ry
      -> PAW xc energy PS      =     405.39443885 Ry
      -> total E_H with PAW    =      90.90279032 Ry
      -> total E_XC with PAW   =   -3817.92350249 Ry

     convergence has been achieved in   8 iterations

     negative rho (up, down):  1.744E-08 0.000E+00

     Forces acting on atoms (cartesian axes, Ry/au):

     atom    1 type  1   force =     0.00501282    0.00081410   -0.00176136
     atom    2 type  1   force =    -0.00076188   -0.00012655    0.00083191
     atom    3 type  1   force =    -0.00327943   -0.00053421    0.00165030
     atom    4 type  1   force =     0.00327943    0.00053421   -0.00165030
     atom    5 type  1   force =     0.00076188    0.00012655   -0.00083191
     atom    6 type  1   force =    -0.00501282   -0.00081410    0.00176136
     atom    7 type  2   force =    -0.00425530   -0.00068384   -0.00395697
     atom    8 type  2   force =     0.00425530    0.00068384    0.00395697
     atom    9 type  2   force =    -0.00375008   -0.00059364    0.00584145
     atom   10 type  2   force =     0.00375008    0.00059364   -0.00584145
     atom   11 type  3   force =     0.00266755    0.00043072   -0.00131954
     atom   12 type  3   force =    -0.00266755   -0.00043072    0.00131954
     atom   13 type  3   force =     0.00266346    0.00043390   -0.00235191
     atom   14 type  3   force =    -0.00177138   -0.00028762   -0.00160721
     atom   15 type  3   force =    -0.00636843   -0.00103398   -0.00337312
     atom   16 type  3   force =    -0.00416256   -0.00067353    0.00518893
     atom   17 type  3   force =     0.00636843    0.00103398    0.00337312
     atom   18 type  3   force =     0.00416256    0.00067353   -0.00518893
     atom   19 type  3   force =     0.00177138    0.00028762    0.00160721
     atom   20 type  3   force =    -0.00266346   -0.00043390    0.00235191
     The non-local contrib.  to forces
     atom    1 type  1   force =    -0.00656851   -0.00106827    0.00308367
     atom    2 type  1   force =     0.00100137    0.00017363   -0.00095579
     atom    3 type  1   force =     0.00960548    0.00155995   -0.00351584
     atom    4 type  1   force =    -0.00960548   -0.00155995    0.00351584
     atom    5 type  1   force =    -0.00100137   -0.00017363    0.00095579
     atom    6 type  1   force =     0.00656851    0.00106827   -0.00308367
     atom    7 type  2   force =    -0.06447028   -0.01046803   -0.03282974
     atom    8 type  2   force =     0.06447028    0.01046803    0.03282974
     atom    9 type  2   force =    -0.05456417   -0.00884941    0.05256249
     atom   10 type  2   force =     0.05456417    0.00884941   -0.05256249
     atom   11 type  3   force =    -0.00853961   -0.00138951   -0.00109569
     atom   12 type  3   force =     0.00853961    0.00138951    0.00109569
     atom   13 type  3   force =     0.04796836    0.00779756   -0.00581340
     atom   14 type  3   force =    -0.03630162   -0.00589876    0.00855798
     atom   15 type  3   force =    -0.01925828   -0.00312823    0.00234417
     atom   16 type  3   force =    -0.01495708   -0.00242944    0.00856470
     atom   17 type  3   force =     0.01925828    0.00312823   -0.00234417
     atom   18 type  3   force =     0.01495708    0.00242944   -0.00856470
     atom   19 type  3   force =     0.03630162    0.00589876   -0.00855798
     atom   20 type  3   force =    -0.04796836   -0.00779756    0.00581340
     The ionic contribution  to forces
     atom    1 type  1   force =    -0.98315608   -0.15978390    0.07032619
     atom    2 type  1   force =     0.27535422    0.04475095   -0.04541744
     atom    3 type  1   force =     0.66012469    0.10728438   -0.15814795
     atom    4 type  1   force =    -0.66012469   -0.10728438    0.15814795
     atom    5 type  1   force =    -0.27535422   -0.04475095    0.04541744
     atom    6 type  1   force =     0.98315608    0.15978390   -0.07032619
     atom    7 type  2   force =    -0.53158609   -0.08639411   -0.39276187
     atom    8 type  2   force =     0.53158609    0.08639411    0.39276187
     atom    9 type  2   force =    -0.33331746   -0.05417122    0.59473078
     atom   10 type  2   force =     0.33331746    0.05417122   -0.59473078
     atom   11 type  3   force =     0.92100677    0.14968330    0.02599290
     atom   12 type  3   force =    -0.92100677   -0.14968330   -0.02599290
     atom   13 type  3   force =    -1.03945943   -0.16893439   -0.29780179
     atom   14 type  3   force =     0.50753713    0.08248564   -0.51569984
     atom   15 type  3   force =     1.04014650    0.16904606    0.30662440
     atom   16 type  3   force =     0.76872540    0.12493432   -0.95498304
     atom   17 type  3   force =    -1.04014650   -0.16904606   -0.30662440
     atom   18 type  3   force =    -0.76872540   -0.12493432    0.95498304
     atom   19 type  3   force =    -0.50753713   -0.08248564    0.51569984
     atom   20 type  3   force =     1.03945943    0.16893439    0.29780179
     The local contribution  to forces
     atom    1 type  1   force =     0.99395460    0.16151878   -0.07481027
     atom    2 type  1   force =    -0.27728717   -0.04505872    0.04703572
     atom    3 type  1   force =    -0.67198367   -0.10921333    0.16272310
     atom    4 type  1   force =     0.67203884    0.10922142   -0.16277355
     atom    5 type  1   force =     0.27722478    0.04510364   -0.04705783
     atom    6 type  1   force =    -0.99399223   -0.16156497    0.07483076
     atom    7 type  2   force =     0.59175582    0.09617388    0.42169843
     atom    8 type  2   force =    -0.59177323   -0.09618381   -0.42170760
     atom    9 type  2   force =     0.38407988    0.06242711   -0.64150922
     atom   10 type  2   force =    -0.38408553   -0.06243039    0.64151599
     atom   11 type  3   force =    -0.91138928   -0.14813254   -0.02610908
     atom   12 type  3   force =     0.91137402    0.14812299    0.02613764
     atom   13 type  3   force =     0.99766297    0.16213874    0.30168646
     atom   14 type  3   force =    -0.47464651   -0.07714199    0.50711988
     atom   15 type  3   force =    -1.02748065   -0.16698067   -0.31020579
     atom   16 type  3   force =    -0.75799702   -0.12318093    0.94963817
     atom   17 type  3   force =     1.02741332    0.16697450    0.31014525
     atom   18 type  3   force =     0.75797896    0.12318200   -0.94960237
     atom   19 type  3   force =     0.47472198    0.07714632   -0.50715311
     atom   20 type  3   force =    -0.99758122   -0.16213384   -0.30166105
     The core correction contribution to forces
     atom    1 type  1   force =     0.00111200    0.00017966   -0.00035936
     atom    2 type  1   force =     0.00016831    0.00002660    0.00010071
     atom    3 type  1   force =    -0.00131583   -0.00021366    0.00050183
     atom    4 type  1   force =     0.00131733    0.00021355   -0.00050363
     atom    5 type  1   force =    -0.00017121   -0.00002505   -0.00010212
     atom    6 type  1   force =    -0.00111358   -0.00018176    0.00035966
     atom    7 type  2   force =     0.00000000    0.00000000    0.00000000
     atom    8 type  2   force =     0.00000000    0.00000000    0.00000000
     atom    9 type  2   force =     0.00000000    0.00000000    0.00000000
     atom   10 type  2   force =     0.00000000    0.00000000    0.00000000
     atom   11 type  3   force =     0.00140731    0.00022728   -0.00014955
     atom   12 type  3   force =    -0.00140859   -0.00022849    0.00015314
     atom   13 type  3   force =    -0.00297133   -0.00048277   -0.00005842
     atom   14 type  3   force =     0.00173290    0.00028198   -0.00111734
     atom   15 type  3   force =     0.00015930    0.00002658   -0.00243093
     atom   16 type  3   force =     0.00017119    0.00002903    0.00228488
     atom   17 type  3   force =    -0.00016303   -0.00002672    0.00242642
     atom   18 type  3   force =    -0.00016964   -0.00002869   -0.00228614
     atom   19 type  3   force =    -0.00172693   -0.00028130    0.00111525
     atom   20 type  3   force =     0.00298203    0.00048383    0.00005949
     The Hubbard contrib.    to forces
     atom    1 type  1   force =     0.00000000    0.00000000    0.00000000
     atom    2 type  1   force =     0.00000000    0.00000000    0.00000000
     atom    3 type  1   force =     0.00000000    0.00000000    0.00000000
     atom    4 type  1   force =     0.00000000    0.00000000    0.00000000
     atom    5 type  1   force =     0.00000000    0.00000000    0.00000000
     atom    6 type  1   force =     0.00000000    0.00000000    0.00000000
     atom    7 type  2   force =     0.00000000    0.00000000    0.00000000
     atom    8 type  2   force =     0.00000000    0.00000000    0.00000000
     atom    9 type  2   force =     0.00000000    0.00000000    0.00000000
     atom   10 type  2   force =     0.00000000    0.00000000    0.00000000
     atom   11 type  3   force =     0.00000000    0.00000000    0.00000000
     atom   12 type  3   force =     0.00000000    0.00000000    0.00000000
     atom   13 type  3   force =     0.00000000    0.00000000    0.00000000
     atom   14 type  3   force =     0.00000000    0.00000000    0.00000000
     atom   15 type  3   force =     0.00000000    0.00000000    0.00000000
     atom   16 type  3   force =     0.00000000    0.00000000    0.00000000
     atom   17 type  3   force =     0.00000000    0.00000000    0.00000000
     atom   18 type  3   force =     0.00000000    0.00000000    0.00000000
     atom   19 type  3   force =     0.00000000    0.00000000    0.00000000
     atom   20 type  3   force =     0.00000000    0.00000000    0.00000000
     The SCF correction term to forces
     atom    1 type  1   force =    -0.00033145   -0.00004691   -0.00000441
     atom    2 type  1   force =    -0.00001775   -0.00000876    0.00006316
     atom    3 type  1   force =     0.00029269    0.00004363    0.00008072
     atom    4 type  1   force =    -0.00034376   -0.00006124   -0.00004535
     atom    5 type  1   force =     0.00004477   -0.00001721   -0.00005073
     atom    6 type  1   force =     0.00036613    0.00006574   -0.00002201
     atom    7 type  2   force =     0.00005392    0.00000445   -0.00005781
     atom    8 type  2   force =    -0.00001919    0.00000553    0.00007893
     atom    9 type  2   force =     0.00004121   -0.00000033    0.00005758
     atom   10 type  2   force =    -0.00005648    0.00000320   -0.00006399
     atom   11 type  3   force =     0.00018612    0.00004167    0.00004110
     atom   12 type  3   force =    -0.00016206   -0.00003195   -0.00007480
     atom   13 type  3   force =    -0.00053713   -0.00008462   -0.00037180
     atom   14 type  3   force =    -0.00009378   -0.00001283   -0.00046126
     atom   15 type  3   force =     0.00006385    0.00000143    0.00029481
     atom   16 type  3   force =    -0.00010478   -0.00002495   -0.00031883
     atom   17 type  3   force =     0.00000552    0.00000318   -0.00023019
     atom   18 type  3   force =     0.00012185    0.00002667    0.00027818
     atom   19 type  3   force =     0.00001135    0.00001115    0.00050985
     atom   20 type  3   force =     0.00044465    0.00007989    0.00033125

     Total force =     0.022454     Total SCF correction =     0.001468

     Computing stress (Cartesian axis) and pressure

     negative rho (up, down):  1.744E-08 0.000E+00
          total   stress  (Ry/bohr**3)                   (kbar)     P=       12.71
  -0.00002796  -0.00005915  -0.00000054           -4.11       -8.70       -0.08
  -0.00005915   0.00032635  -0.00000009           -8.70       48.01       -0.01
  -0.00000054  -0.00000009  -0.00003920           -0.08       -0.01       -5.77

     kinetic stress (kbar)   2246.38    -10.95      0.24
                              -10.95   2311.96      0.04
                                0.24      0.04   2248.32

     local   stress (kbar)     31.94     60.23    -89.15
                               60.23   -328.88    -14.49
                              -89.15    -14.49   -173.95

     nonloc. stress (kbar)   1504.03      1.98     -0.58
                                1.98   1492.15     -0.09
                               -0.58     -0.09   1502.60

     hartree stress (kbar)    635.46    -23.36     32.48
                              -23.36    775.42      5.28
                               32.48      5.28    715.97

     exc-cor stress (kbar)  10652.59     -0.04      0.15
                               -0.04  10652.82      0.02
                                0.15      0.02  10652.89

     corecor stress (kbar) -11827.70      0.72     -0.06
                                0.72 -11832.02     -0.01
                               -0.06     -0.01 -11827.84

     ewald   stress (kbar)  -3246.81    -37.29     56.84
                              -37.29  -3023.45      9.24
                               56.84      9.24  -3123.76

     hubbard stress (kbar)      0.00      0.00      0.00
                                0.00      0.00      0.00
                                0.00      0.00      0.00

     DFT-D   stress (kbar)      0.00      0.00      0.00
                                0.00      0.00      0.00
                                0.00      0.00      0.00

     XDM     stress (kbar)      0.00      0.00      0.00
                                0.00      0.00      0.00
                                0.00      0.00      0.00

     dft-nl  stress (kbar)      0.00      0.00      0.00
                                0.00      0.00      0.00
                                0.00      0.00      0.00

     TS-vdW  stress (kbar)      0.00      0.00      0.00
                                0.00      0.00      0.00
                                0.00      0.00      0.00

[...]

                                0.00      0.00      0.00

     Writing all to output data dir new_calculations/myprefix.save/

     General routines

     Parallel routines

     PAW routines

   This run was terminated on:   8:40:33  21May2023

   JOB DONE.