     Program PWSCF v.7.0 starts on 20May2023 at 21:16:38

     Reading input from espresso_22250.pwi
Warning: card &CELL ignored
Warning: card / ignored

     Current dimensions of program PWSCF are:
     Max number of different atomic species (ntypx) = 10
     Max number of k-points (npk) =  40000
     Max angular momentum in pseudopotentials (lmaxx) =  4

     gamma-point specific algorithms are used
     Message from routine setup:
     using ibrav=0 with symmetry is DISCOURAGED, use correct ibrav instead

     Subspace diagonalization in iterative solution of the eigenvalue problem:
     a serial algorithm will be used

     Using Slab Decomposition

     bravais-lattice index     =            0
     lattice parameter (alat)  =       8.6097  a.u.
     unit-cell volume          =     993.7701 (a.u.)^3
     number of atoms/cell      =            6
     number of atomic types    =            3
     number of electrons       =        88.00
     number of Kohn-Sham states=           53
     kinetic-energy cutoff     =      30.0000  Ry
     charge density cutoff     =     240.0000  Ry
     scf convergence threshold =      1.0E-06
     mixing beta               =       0.7000
     number of iterations used =            8  plain     mixing
     Exchange-correlation= PBE
                           (   1   4   3   4   0   0   0)

     celldm(1)=   8.609720  celldm(2)=   0.000000  celldm(3)=   0.000000
     celldm(4)=   0.000000  celldm(5)=   0.000000  celldm(6)=   0.000000

     crystal axes: (cart. coord. in units of alat)
               a(1) = (   1.000000   0.000000   0.000000 )
               a(2) = (  -0.500000   0.866025   0.000000 )
               a(3) = (   0.000000   0.000000   1.797994 )

     reciprocal axes: (cart. coord. in units 2 pi/alat)
               b(1) = (  1.000000  0.577350  0.000000 )
               b(2) = (  0.000000  1.154700  0.000000 )
               b(3) = (  0.000000  0.000000  0.556175 )

     PseudoPot. # 1 for La read from file:
     /home/pragov/projects/rrg-bengioy-ad/pragov/crystal_structure_design/SSSP/La.GGA-PBE-paw-v1.0.UPF
     MD5 check sum: 436541e95c1ad8901025bd0b0ed42ae2
     Pseudo is Projector augmented-wave + core cor, Zval = 11.0
     Generated using ATOMPAW code
     Shape of augmentation charge: BESSEL
     Using radial grid of 1101 points,  8 beta functions with:
                l(1) =   0
                l(2) =   0
                l(3) =   1
                l(4) =   1
                l(5) =   2
                l(6) =   2
                l(7) =   3
                l(8) =   3
     Q(r) pseudized with 0 coefficients

     PseudoPot. # 2 for Ge read from file:
     /home/pragov/projects/rrg-bengioy-ad/pragov/crystal_structure_design/SSSP/ge_pbe_v1.4.uspp.F.UPF
     MD5 check sum: 9c9eaa91e581c3f09632fb3098b2c6b2
     Pseudo is Ultrasoft + core correction, Zval = 14.0
     Generated by new atomic code, or converted to UPF format
     Using radial grid of  873 points,  6 beta functions with:
                l(1) =   0
                l(2) =   0
                l(3) =   1
                l(4) =   1
                l(5) =   2
                l(6) =   2
     Q(r) pseudized with  8 coefficients,  rinner =    1.400   1.400   1.400
                                                       1.400   1.400

     PseudoPot. # 3 for Au read from file:
     /home/pragov/projects/rrg-bengioy-ad/pragov/crystal_structure_design/SSSP/Au_ONCV_PBE-1.0.oncvpsp.upf
     MD5 check sum: d14007822ba0e19f0206237467fc06c2
     Pseudo is Norm-conserving, Zval = 19.0
     Generated using ONCVPSP code by D. R. Hamann
     Using radial grid of 1278 points,  8 beta functions with:
                l(1) =   0
                l(2) =   0
                l(3) =   1
                l(4) =   1
                l(5) =   2
                l(6) =   2
                l(7) =   3
                l(8) =   3

     atomic species   valence    mass     pseudopotential
        La            11.00   138.90547     La( 1.00)
        Ge            14.00    72.63000     Ge( 1.00)
        Au            19.00   196.96657     Au( 1.00)

     12 Sym. Ops. (no inversion) found ( 6 have fractional translation)

                                    s                        frac. trans.

      isym =  1     identity

 cryst.   s( 1) = (     1          0          0      )
                  (     0          1          0      )
                  (     0          0          1      )

 cart.    s( 1) = (  1.0000000  0.0000000  0.0000000 )
                  (  0.0000000  1.0000000  0.0000000 )
                  (  0.0000000  0.0000000  1.0000000 )

      isym =  2     180 deg rotation - cart. axis [0,0,1]

 cryst.   s( 2) = (    -1          0          0      )    f =(  0.0000000 )
                  (     0         -1          0      )       (  0.0000000 )
                  (     0          0          1      )       ( -0.5000000 )

 cart.    s( 2) = ( -1.0000000 -0.0000000  0.0000000 )    f =(  0.0000000 )
                  (  0.0000000 -1.0000000  0.0000000 )       (  0.0000000 )
                  (  0.0000000  0.0000000  1.0000000 )       ( -0.8989970 )

      isym =  3      60 deg rotation - cryst. axis [0,0,1]

[...]

      isym =  6     120 deg rotation - cryst. axis [0,0,-1]

[...]

      isym =  7     inv. 180 deg rotation - cart. axis [0,1,0]

[...]

      isym =  8     inv. 180 deg rotation - cart. axis [1,0,0]

 cryst.   s( 8) = (    -1          0          0      )
                  (     1          1          0      )
                  (     0          0          1      )

 cart.    s( 8) = ( -1.0000000  0.0000003  0.0000000 )
                  (  0.0000000  1.0000000  0.0000000 )
                  (  0.0000000  0.0000000  1.0000000 )

      isym =  9     inv. 180 deg rotation - cryst. axis [1,-1,0]

 cryst.   s( 9) = (     0          1          0      )    f =(  0.0000000 )
                  (     1          0          0      )       (  0.0000000 )
                  (     0          0          1      )       ( -0.5000000 )

 cart.    s( 9) = ( -0.4999999  0.8660255  0.0000000 )    f =(  0.0000000 )
                  (  0.8660255  0.4999999  0.0000000 )       (  0.0000000 )
                  (  0.0000000  0.0000000  1.0000000 )       ( -0.8989970 )

[...]

 cryst.   s(10) = (    -1         -1          0      )    f =(  0.0000000 )
                  (     0          1          0      )       (  0.0000000 )
                  (     0          0          1      )       ( -0.5000000 )

 cart.    s(10) = ( -0.5000001 -0.8660252  0.0000000 )    f =(  0.0000000 )
                  ( -0.8660255  0.5000001  0.0000000 )       (  0.0000000 )
                  (  0.0000000  0.0000000  1.0000000 )       ( -0.8989970 )

[...]

 cryst.   s(11) = (     1          1          0      )
                  (     0         -1          0      )
                  (     0          0          1      )

 cart.    s(11) = (  0.5000001  0.8660252  0.0000000 )
                  (  0.8660255 -0.5000001  0.0000000 )
                  (  0.0000000  0.0000000  1.0000000 )

      isym = 12     inv. 180 deg rotation - cryst. axis [1,1,0]

 cryst.   s(12) = (     0         -1          0      )
                  (    -1          0          0      )
                  (     0          0          1      )

 cart.    s(12) = (  0.4999999 -0.8660255  0.0000000 )
                  ( -0.8660255 -0.4999999  0.0000000 )
                  (  0.0000000  0.0000000  1.0000000 )

   Cartesian axes

     site n.     atom                  positions (alat units)
         1           La  tau(   1) = (   0.0000000   0.0000000   0.0169065  )
         2           La  tau(   2) = (   0.0000000   0.0000000   0.9159035  )
         3           Ge  tau(   3) = (  -0.0000004   0.5773506   1.3990983  )
         4           Ge  tau(   4) = (   0.5000005   0.2886749   0.5001012  )
         5           Au  tau(   5) = (   0.5000005   0.2886749   1.3473322  )
         6           Au  tau(   6) = (  -0.0000004   0.5773506   0.4483352  )

   Crystallographic axes

     site n.     atom                  positions (cryst. coord.)
         1           La  tau(   1) = (  0.0000000  0.0000000  0.0094030  )
         2           La  tau(   2) = (  0.0000000  0.0000000  0.5094030  )
         3           Ge  tau(   3) = (  0.3333330  0.6666670  0.7781440  )
         4           Ge  tau(   4) = (  0.6666670  0.3333330  0.2781440  )
         5           Au  tau(   5) = (  0.6666670  0.3333330  0.7493530  )
         6           Au  tau(   6) = (  0.3333330  0.6666670  0.2493530  )

     number of k points=     1  Methfessel-Paxton smearing, width (Ry)=  0.0010
                       cart. coord. in units 2pi/alat
        k(    1) = (   0.0000000   0.0000000   0.0000000), wk =   2.0000000

                       cryst. coord.
        k(    1) = (   0.0000000   0.0000000   0.0000000), wk =   2.0000000

     Initial potential from superposition of free atoms

     starting charge      87.9810, renormalised to      88.0000
     Starting wfcs are  102 randomized atomic wfcs
     Checking if some PAW data can be deallocated...

     Self-consistent Calculation

     iteration #  1     ecut=    30.00 Ry     beta= 0.70
     Davidson diagonalization with overlap

     ethr =  1.00E-02,  avg # of iterations =  2.0

     Threshold (ethr) on eigenvalues was too large:
     Diagonalizing with lowered threshold

     Davidson diagonalization with overlap

[...]

     total energy              =   -1891.91396891 Ry
     estimated scf accuracy    <       0.67503873 Ry

[...]

     ethr =  1.31E-06,  avg # of iterations = 14.0
     Minimization algorithm failed to find Fermi energy: reverting to bisection
     Possible cause: smearing is larger than the electronic band-gap.

[...]

     total energy              =   -1892.38568750 Ry
     estimated scf accuracy    <       0.00000122 Ry

     iteration # 19     ecut=    30.00 Ry     beta= 0.70
     Davidson diagonalization with overlap

     ethr =  1.39E-09,  avg # of iterations =  2.0

     End of self-consistent calculation

          k = 0.0000 0.0000 0.0000 (  1379 PWs)   bands (ev):

   -95.0933 -95.0928 -46.2364 -46.2364 -46.2304 -46.2304 -45.7206 -45.7110
   -19.1429 -19.1134 -11.4288 -11.4288 -11.4216 -11.4216 -11.2123 -11.2123
   -11.2027 -11.2027 -11.1510 -11.1395  -3.4622  -2.8991  -2.8155  -2.8155
    -2.7604  -2.7604   2.9521   3.9025   6.4685   6.4685   6.6871   6.6871
     7.5819   7.5819   7.8237   7.8237   7.8244   8.4175   9.7477  12.3027
    12.3027  12.7125  12.9424  13.5061  13.5276  13.5276  14.0650  14.3481
    14.3481  15.2443  15.2445  15.3965  15.5673

     occupation numbers
     1.0000   1.0000   1.0000   1.0000   1.0000   1.0000   1.0000   1.0000
     1.0000   1.0000   1.0000   1.0000   1.0000   1.0000   1.0000   1.0000
     1.0000   1.0000   1.0000   1.0000   1.0000   1.0000   1.0000   1.0000
     1.0000   1.0000   1.0000   1.0000   1.0000   1.0000   1.0000   1.0000
     1.0000   1.0000   1.0000   1.0000   1.0000   1.0000   1.0000   1.0000
     1.0000   1.0000   1.0000   0.9831   0.0086   0.0083  -0.0000  -0.0000
    -0.0000  -0.0000  -0.0000  -0.0000  -0.0000

     the Fermi energy is    13.5166 ev

!    total energy              =   -1892.38568733 Ry
     estimated scf accuracy    <       0.00000050 Ry
     smearing contrib. (-TS)   =       0.00011872 Ry
     internal energy E=F+TS    =   -1892.38580605 Ry

     The total energy is F=E-TS. E is the sum of the following terms:
     one-electron contribution =    -572.24245105 Ry
     hartree contribution      =     335.54460204 Ry
     xc contribution           =    -184.51555242 Ry
     ewald contribution        =    -674.92618260 Ry
     one-center paw contrib.   =    -796.24622201 Ry
      -> PAW hartree energy AE =      70.58086801 Ry
      -> PAW hartree energy PS =     -70.65671880 Ry
      -> PAW xc energy AE      =    -810.84584918 Ry
      -> PAW xc energy PS      =      14.67547795 Ry
      -> total E_H with PAW    =     335.46875125 Ry
      -> total E_XC with PAW   =    -980.68592365 Ry

     convergence has been achieved in  19 iterations

     Forces acting on atoms (cartesian axes, Ry/au):

     atom    1 type  1   force =    -0.00000000    0.00000000    0.01686759
     atom    2 type  1   force =     0.00000000   -0.00000000    0.01686759
     atom    3 type  2   force =     0.00000000    0.00000000   -0.01230303
     atom    4 type  2   force =     0.00000000   -0.00000000   -0.01230303
     atom    5 type  3   force =     0.00000000    0.00000000   -0.00456455
     atom    6 type  3   force =     0.00000000    0.00000000   -0.00456455
     The non-local contrib.  to forces
     atom    1 type  1   force =    -0.00000000   -0.00000000   -0.05900544
     atom    2 type  1   force =     0.00000000    0.00000000   -0.05900544
     atom    3 type  2   force =     0.00000000    0.00000000   -0.36840500
     atom    4 type  2   force =     0.00000000    0.00000000   -0.36840500
     atom    5 type  3   force =     0.00000000    0.00000000    0.00396026
     atom    6 type  3   force =     0.00000000   -0.00000000    0.00396026
     The ionic contribution  to forces
     atom    1 type  1   force =    -0.00000390    0.00000225    0.25146818
     atom    2 type  1   force =     0.00000390   -0.00000225    0.25146818
     atom    3 type  2   force =     0.00008802   -0.00005082    1.23388306
     atom    4 type  2   force =    -0.00008802    0.00005082    1.23388306
     atom    5 type  3   force =    -0.00009286    0.00005361   -1.48535124
     atom    6 type  3   force =     0.00009286   -0.00005361   -1.48535124
     The local contribution  to forces
     atom    1 type  1   force =    -0.00002207   -0.00005374   -0.17585639
     atom    2 type  1   force =     0.00007023    0.00004426   -0.17669197
     atom    3 type  2   force =     0.00014380   -0.00029811   -0.88447259
     atom    4 type  2   force =     0.00045899   -0.00016551   -0.88443958
     atom    5 type  3   force =     0.00081916   -0.00052458    1.47653191
     atom    6 type  3   force =     0.00030576   -0.00057632    1.47664132
     The core correction contribution to forces
     atom    1 type  1   force =     0.00000000   -0.00000003    0.00002111
     atom    2 type  1   force =     0.00000005    0.00000001    0.00002084
     atom    3 type  2   force =     0.00001113   -0.00001168    0.00752576
     atom    4 type  2   force =     0.00001246   -0.00000819    0.00753148
     atom    5 type  3   force =     0.00000000    0.00000000    0.00000000
     atom    6 type  3   force =     0.00000000    0.00000000    0.00000000
     The Hubbard contrib.    to forces
     atom    1 type  1   force =     0.00000000    0.00000000    0.00000000
     atom    2 type  1   force =     0.00000000    0.00000000    0.00000000
     atom    3 type  2   force =     0.00000000    0.00000000    0.00000000
     atom    4 type  2   force =     0.00000000    0.00000000    0.00000000
     atom    5 type  3   force =     0.00000000    0.00000000    0.00000000
     atom    6 type  3   force =     0.00000000    0.00000000    0.00000000
     The SCF correction term to forces
     atom    1 type  1   force =     0.00001194    0.00004116   -0.00004231
     atom    2 type  1   force =    -0.00003345   -0.00002360    0.00055969
     atom    3 type  2   force =    -0.00013791    0.00025075   -0.00127884
     atom    4 type  2   force =    -0.00028725    0.00004265   -0.00122714
     atom    5 type  3   force =    -0.00045875    0.00030043   -0.00015702
     atom    6 type  3   force =    -0.00024837    0.00041041   -0.00016207

     Total force =     0.030223     Total SCF correction =     0.002051

     Computing stress (Cartesian axis) and pressure

          total   stress  (Ry/bohr**3)                   (kbar)     P=     -192.03
  -0.00066131   0.00000000   0.00000000          -97.28        0.00        0.00
   0.00000000  -0.00066131   0.00000000            0.00      -97.28        0.00
  -0.00000000  -0.00000000  -0.00259346           -0.00       -0.00     -381.51

     kinetic stress (kbar)  22888.85     -0.00      0.00
                               -0.00  22888.85      0.00
                                0.00      0.00  23290.58

     local   stress (kbar) -16416.42     -0.27      0.54
                               -0.27 -16416.36     -0.50
                                0.54     -0.50  13797.79

     nonloc. stress (kbar)   5991.96     -0.00      0.00
                               -0.00   5991.96      0.00
                               -0.00     -0.00   6212.51

     hartree stress (kbar)  20735.05      0.14     -0.28
                                0.14  20734.99      0.26
                               -0.28      0.26   8199.71

     exc-cor stress (kbar)   2931.26      0.00     -0.01
                                0.00   2931.26      0.00
                               -0.01      0.00   2930.83

     corecor stress (kbar)  -9119.20     -0.00      0.01
                               -0.00  -9119.20     -0.01
                                0.01     -0.01  -9123.00

     ewald   stress (kbar) -27108.82      0.07     -0.00
                                0.07 -27108.74      0.00
                               -0.00      0.00 -45689.93

     hubbard stress (kbar)      0.00      0.00      0.00
                                0.00      0.00      0.00
                                0.00      0.00      0.00

     DFT-D   stress (kbar)      0.00      0.00      0.00
                                0.00      0.00      0.00
                                0.00      0.00      0.00

     XDM     stress (kbar)      0.00      0.00      0.00
                                0.00      0.00      0.00
                                0.00      0.00      0.00

     dft-nl  stress (kbar)      0.00      0.00      0.00
                                0.00      0.00      0.00
                                0.00      0.00      0.00

     TS-vdW  stress (kbar)      0.00      0.00      0.00
                                0.00      0.00      0.00
                                0.00      0.00      0.00

[...]

                                0.00      0.00      0.00

     Writing all to output data dir new_calculations/myprefix.save/

     General routines

     Parallel routines

     PAW routines

   This run was terminated on:  21:17:11  20May2023

   JOB DONE.