     Program PWSCF v.7.0 starts on 21May2023 at 16:57:41

     Reading input from espresso_26886.pwi
Warning: card &CELL ignored
Warning: card / ignored

     Current dimensions of program PWSCF are:
     Max number of different atomic species (ntypx) = 10
     Max number of k-points (npk) =  40000
     Max angular momentum in pseudopotentials (lmaxx) =  4

     gamma-point specific algorithms are used
     Message from routine setup:
     using ibrav=0 with symmetry is DISCOURAGED, use correct ibrav instead

     Subspace diagonalization in iterative solution of the eigenvalue problem:
     a serial algorithm will be used

     Using Slab Decomposition

     bravais-lattice index     =            0
     lattice parameter (alat)  =      10.0505  a.u.
     unit-cell volume          =     820.9519 (a.u.)^3
     number of atoms/cell      =            9
     number of atomic types    =            2
     number of electrons       =        93.00
     number of Kohn-Sham states=           56
     kinetic-energy cutoff     =      30.0000  Ry
     charge density cutoff     =     240.0000  Ry
     scf convergence threshold =      1.0E-06
     mixing beta               =       0.7000
     number of iterations used =            8  plain     mixing
     Exchange-correlation= PBE
                           (   1   4   3   4   0   0   0)

     celldm(1)=  10.050506  celldm(2)=   0.000000  celldm(3)=   0.000000
     celldm(4)=   0.000000  celldm(5)=   0.000000  celldm(6)=   0.000000

     crystal axes: (cart. coord. in units of alat)
               a(1) = (   1.000000   0.000000   0.000000 )
               a(2) = (  -0.500000   0.866025   0.000000 )
               a(3) = (   0.000000   0.000000   0.933734 )

     reciprocal axes: (cart. coord. in units 2 pi/alat)
               b(1) = (  1.000000  0.577350  0.000000 )
               b(2) = (  0.000000  1.154701  0.000000 )
               b(3) = (  0.000000  0.000000  1.070968 )

     PseudoPot. # 1 for Ta read from file:
     /home/pragov/projects/rrg-bengioy-ad/pragov/crystal_structure_design/SSSP/Ta_pbe_v1.uspp.F.UPF
     MD5 check sum: f8bbe9446314a3b8ea5d9f3e3836c939
     Pseudo is Ultrasoft + core correction, Zval = 13.0
     Generated by new atomic code, or converted to UPF format
     Using radial grid of  921 points,  7 beta functions with:
                l(1) =   0
                l(2) =   0
                l(3) =   1
                l(4) =   1
                l(5) =   2
                l(6) =   2
                l(7) =   3
     Q(r) pseudized with  6 coefficients,  rinner =    1.300   1.300   1.300
                                                       1.300   1.300   1.300
                                                       1.300

     PseudoPot. # 2 for N  read from file:
     /home/pragov/projects/rrg-bengioy-ad/pragov/crystal_structure_design/SSSP/N.pbe-n-radius_5.UPF
     MD5 check sum: 16739722b17309cd8fe442a2ace49922
     Pseudo is Ultrasoft + core correction, Zval =  5.0
     Generated using "atomic" code by A. Dal Corso  v.5.1
     Using radial grid of 1085 points,  4 beta functions with:
                l(1) =   0
                l(2) =   0
                l(3) =   1
                l(4) =   1
     Q(r) pseudized with 0 coefficients

     atomic species   valence    mass     pseudopotential
        Ta            13.00   180.94788     Ta( 1.00)
        N              5.00    14.00700     N ( 1.00)

     12 Sym. Ops., with inversion, found

                                    s                        frac. trans.

      isym =  1     identity

 cryst.   s( 1) = (     1          0          0      )
                  (     0          1          0      )
                  (     0          0          1      )

 cart.    s( 1) = (  1.0000000  0.0000000  0.0000000 )
                  (  0.0000000  1.0000000  0.0000000 )
                  (  0.0000000  0.0000000  1.0000000 )

      isym =  2     180 deg rotation - cart. axis [0,1,0]

[...]

      isym =  3     120 deg rotation - cryst. axis [0,0,1]

[...]

      isym =  6     180 deg rotation - cryst. axis [2,1,0]

[...]

      isym =  7     inversion

[...]

      isym =  8     inv. 180 deg rotation - cart. axis [0,1,0]

[...]

      isym =  9     inv. 120 deg rotation - cryst. axis [0,0,1]

 cryst.   s( 9) = (     0         -1          0      )
                  (     1          1          0      )
                  (     0          0         -1      )

 cart.    s( 9) = (  0.5000001  0.8660255  0.0000000 )
                  ( -0.8660253  0.4999999  0.0000000 )
                  (  0.0000000  0.0000000 -1.0000000 )

[...]

 cryst.   s(10) = (     1          1          0      )
                  (    -1          0          0      )
                  (     0          0         -1      )

 cart.    s(10) = (  0.4999999 -0.8660255  0.0000000 )
                  (  0.8660253  0.5000001  0.0000000 )
                  (  0.0000000  0.0000000 -1.0000000 )

[...]

      isym = 12     inv. 180 deg rotation - cryst. axis [2,1,0]

 cryst.   s(12) = (    -1         -1          0      )
                  (     0          1          0      )
                  (     0          0          1      )

 cart.    s(12) = ( -0.4999999 -0.8660256  0.0000000 )
                  ( -0.8660253  0.4999999  0.0000000 )
                  (  0.0000000  0.0000000  1.0000000 )

   Cartesian axes

     site n.     atom                  positions (alat units)
         1           Ta  tau(   1) = (   0.3333169   0.5773219   0.7034830  )
         2           Ta  tau(   2) = (   0.8333170   0.2887034   0.7034830  )
         3           Ta  tau(   3) = (   0.3333660   0.0000000   0.7034830  )
         4           Ta  tau(   4) = (   0.1666830   0.2887034   0.2302514  )
         5           Ta  tau(   5) = (   0.6666829   0.5773219   0.2302514  )
         6           Ta  tau(   6) = (   0.6666340   0.0000000   0.2302514  )
         7           N   tau(   7) = (   0.5000005   0.2886748   0.4668672  )
         8           N   tau(   8) = (  -0.0000006   0.5773505   0.4668672  )
         9           N   tau(   9) = (   0.0000000   0.0000000   0.0000000  )

   Crystallographic axes

     site n.     atom                  positions (cryst. coord.)
         1           Ta  tau(   1) = (  0.6666340  0.6666340  0.7534080  )
         2           Ta  tau(   2) = (  1.0000000  0.3333660  0.7534080  )
         3           Ta  tau(   3) = (  0.3333660  0.0000000  0.7534080  )
         4           Ta  tau(   4) = (  0.3333660  0.3333660  0.2465920  )
         5           Ta  tau(   5) = (  1.0000000  0.6666340  0.2465920  )
         6           Ta  tau(   6) = (  0.6666340  0.0000000  0.2465920  )
         7           N   tau(   7) = (  0.6666670  0.3333330  0.5000000  )
         8           N   tau(   8) = (  0.3333330  0.6666670  0.5000000  )
         9           N   tau(   9) = (  0.0000000  0.0000000  0.0000000  )

     number of k points=     1  Methfessel-Paxton smearing, width (Ry)=  0.0010
                       cart. coord. in units 2pi/alat
        k(    1) = (   0.0000000   0.0000000   0.0000000), wk =   2.0000000

                       cryst. coord.
        k(    1) = (   0.0000000   0.0000000   0.0000000), wk =   2.0000000

     Initial potential from superposition of free atoms

     starting charge      92.9933, renormalised to      93.0000

     negative rho (up, down):  5.625E-01 0.000E+00
     Starting wfcs are   90 randomized atomic wfcs

     Self-consistent Calculation

     iteration #  1     ecut=    30.00 Ry     beta= 0.70
     Davidson diagonalization with overlap

     ethr =  1.00E-02,  avg # of iterations =  2.0

     negative rho (up, down):  5.681E-01 0.000E+00

     total energy              =    -911.00627366 Ry
     estimated scf accuracy    <       1.78180928 Ry

[...]

     total energy              =    -911.94136869 Ry
     estimated scf accuracy    <       0.00000406 Ry

     iteration # 13     ecut=    30.00 Ry     beta= 0.70
     Davidson diagonalization with overlap

     ethr =  4.36E-09,  avg # of iterations =  4.0

[...]

     End of self-consistent calculation

          k = 0.0000 0.0000 0.0000 (  1134 PWs)   bands (ev):

   -48.8123 -48.7438 -48.7317 -48.7312 -48.7301 -48.7299 -16.0180 -15.6785
   -15.5301 -15.5297 -15.5134 -15.5130 -15.4886 -15.4035 -15.3593 -15.2596
   -15.2593 -15.2332 -15.2327 -15.0244 -15.0240 -14.9249 -14.9246 -14.8568
     2.0770   3.3423   4.1123  11.2126  12.4969  12.4971  13.0202  13.0202
    13.4569  13.4570  13.5406  13.6087  14.0428  16.4567  16.9486  16.9486
    17.6593  17.6594  17.9762  18.8574  19.1260  19.1262  19.2895  19.5033
    19.5034  20.3528  20.3528  21.2815  21.2816  22.4741  22.4822  23.1039

     occupation numbers
     1.0000   1.0000   1.0000   1.0000   1.0000   1.0000   1.0000   1.0000
     1.0000   1.0000   1.0000   1.0000   1.0000   1.0000   1.0000   1.0000
     1.0000   1.0000   1.0000   1.0000   1.0000   1.0000   1.0000   1.0000
     1.0000   1.0000   1.0000   1.0000   1.0000   1.0000   1.0000   1.0000
     1.0000   1.0000   1.0000   1.0000   1.0000   1.0000   1.0000   1.0000
     1.0000   1.0000   1.0000   1.0000   1.0000   1.0000   0.5000  -0.0000
    -0.0000  -0.0000  -0.0000  -0.0000  -0.0000  -0.0000  -0.0000  -0.0000

     the Fermi energy is    19.2895 ev

!    total energy              =    -911.94136906 Ry
     estimated scf accuracy    <       0.00000056 Ry
     smearing contrib. (-TS)   =      -0.00028209 Ry
     internal energy E=F+TS    =    -911.94108696 Ry

     The total energy is F=E-TS. E is the sum of the following terms:
     one-electron contribution =     -83.02648204 Ry
     hartree contribution      =      95.01772016 Ry
     xc contribution           =    -270.41200390 Ry
     ewald contribution        =    -653.52032118 Ry

     convergence has been achieved in  13 iterations

     negative rho (up, down):  5.768E-01 0.000E+00

     Forces acting on atoms (cartesian axes, Ry/au):

     atom    1 type  1   force =    -0.01088297   -0.01884986    0.02449612
     atom    2 type  1   force =    -0.01088297    0.01884986    0.02449612
     atom    3 type  1   force =     0.02176594    0.00000000    0.02449612
     atom    4 type  1   force =     0.01088297    0.01884986   -0.02449612
     atom    5 type  1   force =     0.01088297   -0.01884986   -0.02449612
     atom    6 type  1   force =    -0.02176594   -0.00000000   -0.02449612
     atom    7 type  2   force =     0.00000000    0.00000000    0.00000000
     atom    8 type  2   force =    -0.00000000   -0.00000000    0.00000000
     atom    9 type  2   force =     0.00000000   -0.00000000    0.00000000
     The non-local contrib.  to forces
     atom    1 type  1   force =    -0.03585299   -0.06209921   -0.08943505
     atom    2 type  1   force =    -0.03585299    0.06209920   -0.08943505
     atom    3 type  1   force =     0.07170598    0.00000001   -0.08943505
     atom    4 type  1   force =     0.03585299    0.06209921    0.08943505
     atom    5 type  1   force =     0.03585299   -0.06209920    0.08943505
     atom    6 type  1   force =    -0.07170598   -0.00000001    0.08943505
     atom    7 type  2   force =    -0.00000000   -0.00000000    0.00000000
     atom    8 type  2   force =     0.00000000    0.00000000    0.00000000
     atom    9 type  2   force =     0.00000000    0.00000000    0.00000000
     The ionic contribution  to forces
     atom    1 type  1   force =    -0.06759308   -0.11707467    2.47846650
     atom    2 type  1   force =    -0.06756214    0.11705600    2.47850125
     atom    3 type  1   force =     0.13515454    0.00001749    2.47850125
     atom    4 type  1   force =     0.06759308    0.11707467   -2.47846650
     atom    5 type  1   force =     0.06756214   -0.11705600   -2.47850125
     atom    6 type  1   force =    -0.13515454   -0.00001749   -2.47850125
     atom    7 type  2   force =    -0.00002691    0.00001554    0.00000000
     atom    8 type  2   force =     0.00002691   -0.00001554    0.00000000
     atom    9 type  2   force =    -0.00000000    0.00000000    0.00000000
     The local contribution  to forces
     atom    1 type  1   force =     0.10062525    0.17494192   -2.35519519
     atom    2 type  1   force =     0.10047419   -0.17482908   -2.35538280
     atom    3 type  1   force =    -0.20113197   -0.00015024   -2.35542039
     atom    4 type  1   force =    -0.10085430   -0.17438554    2.35527102
     atom    5 type  1   force =    -0.10082199    0.17449453    2.35541974
     atom    6 type  1   force =     0.20166455   -0.00001695    2.35535045
     atom    7 type  2   force =     0.00034624   -0.00022327   -0.00010928
     atom    8 type  2   force =    -0.00000691    0.00023424   -0.00010539
     atom    9 type  2   force =    -0.00031245   -0.00009187    0.00014008
     The core correction contribution to forces
     atom    1 type  1   force =    -0.00850665   -0.01473056   -0.00960748
     atom    2 type  1   force =    -0.00849790    0.01472599   -0.00961225
     atom    3 type  1   force =     0.01700570    0.00000044   -0.00961667
     atom    4 type  1   force =     0.00850725    0.01473857    0.00961149
     atom    5 type  1   force =     0.00849337   -0.01472262    0.00961130
     atom    6 type  1   force =    -0.01699866   -0.00000845    0.00961338
     atom    7 type  2   force =    -0.00000166    0.00000092    0.00000025
     atom    8 type  2   force =     0.00000136   -0.00000147    0.00000036
     atom    9 type  2   force =     0.00000068    0.00000021   -0.00000023
     The Hubbard contrib.    to forces
     atom    1 type  1   force =     0.00000000    0.00000000    0.00000000
     atom    2 type  1   force =     0.00000000    0.00000000    0.00000000
     atom    3 type  1   force =     0.00000000    0.00000000    0.00000000
     atom    4 type  1   force =     0.00000000    0.00000000    0.00000000
     atom    5 type  1   force =     0.00000000    0.00000000    0.00000000
     atom    6 type  1   force =     0.00000000    0.00000000    0.00000000
     atom    7 type  2   force =     0.00000000    0.00000000    0.00000000
     atom    8 type  2   force =     0.00000000    0.00000000    0.00000000
     atom    9 type  2   force =     0.00000000    0.00000000    0.00000000
     The SCF correction term to forces
     atom    1 type  1   force =     0.00048428    0.00013616    0.00021817
     atom    2 type  1   force =     0.00053127   -0.00018467    0.00044065
     atom    3 type  1   force =    -0.00096370    0.00012717    0.00048250
     atom    4 type  1   force =    -0.00024648   -0.00077459   -0.00032410
     atom    5 type  1   force =    -0.00015335    0.00052151   -0.00047853
     atom    6 type  1   force =     0.00035633    0.00008865   -0.00041724
     atom    7 type  2   force =    -0.00043658    0.00028637    0.00012311
     atom    8 type  2   force =     0.00009305   -0.00031208    0.00012670
     atom    9 type  2   force =     0.00036704    0.00010420   -0.00014442

     Total force =     0.080268     Total SCF correction =     0.002041

     Computing stress (Cartesian axis) and pressure

     negative rho (up, down):  5.768E-01 0.000E+00
          total   stress  (Ry/bohr**3)                   (kbar)     P=       62.81
   0.00051773   0.00000000   0.00000000           76.16        0.00        0.00
   0.00000000   0.00051773  -0.00000000            0.00       76.16       -0.00
  -0.00000000   0.00000000   0.00024552           -0.00        0.00       36.12

     kinetic stress (kbar)  33242.96      0.00      0.00
                                0.00  33242.96      0.00
                                0.00     -0.00  33479.86

     local   stress (kbar)  27163.11     -0.18      0.16
                               -0.18  27163.01      0.22
                                0.16      0.22  28045.08

     nonloc. stress (kbar) -18121.68     -0.00      0.00
                               -0.00 -18121.68     -0.00
                                0.00     -0.00 -18204.73

     hartree stress (kbar)   5810.54      0.07     -0.14
                                0.07   5810.57     -0.16
                               -0.14     -0.16   5404.96

     exc-cor stress (kbar)  22053.01      0.00     -0.00
                                0.00  22053.01     -0.00
                               -0.00     -0.00  22058.02

     corecor stress (kbar) -31266.07     -0.01     -0.00
                               -0.01 -31266.08     -0.00
                               -0.00     -0.00 -31255.13

     ewald   stress (kbar) -38805.67      0.00     -0.00
                                0.00 -38805.67     -0.00
                               -0.00     -0.00 -39491.94

     hubbard stress (kbar)      0.00      0.00      0.00
                                0.00      0.00      0.00
                                0.00      0.00      0.00

     DFT-D   stress (kbar)      0.00      0.00      0.00
                                0.00      0.00      0.00
                                0.00      0.00      0.00

     XDM     stress (kbar)      0.00      0.00      0.00
                                0.00      0.00      0.00
                                0.00      0.00      0.00

     dft-nl  stress (kbar)      0.00      0.00      0.00
                                0.00      0.00      0.00
                                0.00      0.00      0.00

     TS-vdW  stress (kbar)      0.00      0.00      0.00
                                0.00      0.00      0.00
                                0.00      0.00      0.00

[...]

                                0.00      0.00      0.00

     Writing all to output data dir new_calculations/myprefix.save/

     General routines

     Parallel routines

   This run was terminated on:  16:58: 1  21May2023

   JOB DONE.