     Program PWSCF v.7.0 starts on 20May2023 at 23: 3:22

     Reading input from espresso_3819.pwi
Warning: card &CELL ignored
Warning: card / ignored

     Current dimensions of program PWSCF are:
     Max number of different atomic species (ntypx) = 10
     Max number of k-points (npk) =  40000
     Max angular momentum in pseudopotentials (lmaxx) =  4

     gamma-point specific algorithms are used
     Message from routine setup:
     using ibrav=0 with symmetry is DISCOURAGED, use correct ibrav instead

     Subspace diagonalization in iterative solution of the eigenvalue problem:
     a serial algorithm will be used

     Using Slab Decomposition

     bravais-lattice index     =            0
     lattice parameter (alat)  =       9.8201  a.u.
     unit-cell volume          =    1735.8471 (a.u.)^3
     number of atoms/cell      =           16
     number of atomic types    =            2
     number of electrons       =       150.00
     number of Kohn-Sham states=           90
     kinetic-energy cutoff     =      30.0000  Ry
     charge density cutoff     =     240.0000  Ry
     scf convergence threshold =      1.0E-06
     mixing beta               =       0.7000
     number of iterations used =            8  plain     mixing
     Exchange-correlation= PBE
                           (   1   4   3   4   0   0   0)

     celldm(1)=   9.820122  celldm(2)=   0.000000  celldm(3)=   0.000000
     celldm(4)=   0.000000  celldm(5)=   0.000000  celldm(6)=   0.000000

     crystal axes: (cart. coord. in units of alat)
               a(1) = (   1.000000   0.000000   0.000000 )
               a(2) = (   0.000000   1.454839   0.000000 )
               a(3) = (   0.000000  -0.727420   1.259928 )

     reciprocal axes: (cart. coord. in units 2 pi/alat)
               b(1) = (  1.000000  0.000000  0.000000 )
               b(2) = (  0.000000  0.687361  0.396848 )
               b(3) = (  0.000000  0.000000  0.793696 )

     PseudoPot. # 1 for Ti read from file:
     /home/pragov/projects/rrg-bengioy-ad/pragov/crystal_structure_design/SSSP/ti_pbe_v1.4.uspp.F.UPF
     MD5 check sum: 88a00a6731bd790ddea75d31a80cb452
     Pseudo is Ultrasoft + core correction, Zval = 12.0
     Generated by new atomic code, or converted to UPF format
     Using radial grid of  851 points,  6 beta functions with:
                l(1) =   0
                l(2) =   0
                l(3) =   1
                l(4) =   1
                l(5) =   2
                l(6) =   2
     Q(r) pseudized with  6 coefficients,  rinner =    1.000   1.000   1.000
                                                       1.000   1.000

     PseudoPot. # 2 for As read from file:
     /home/pragov/projects/rrg-bengioy-ad/pragov/crystal_structure_design/SSSP/As.pbe-n-rrkjus_psl.0.2.UPF
     MD5 check sum: 767315de957beeeb34f87d97bf945c8f
     Pseudo is Ultrasoft + core correction, Zval =  5.0
     Generated using "atomic" code by A. Dal Corso  v.5.0.99 svn rev. 10869
     Using radial grid of 1209 points,  4 beta functions with:
                l(1) =   0
                l(2) =   0
                l(3) =   1
                l(4) =   1
     Q(r) pseudized with 0 coefficients

     atomic species   valence    mass     pseudopotential
        Ti            12.00    47.86700     Ti( 1.00)
        As             5.00    74.92159     As( 1.00)

      8 Sym. Ops., with inversion, found ( 4 have fractional translation)

                                    s                        frac. trans.

      isym =  1     identity

 cryst.   s( 1) = (     1          0          0      )
                  (     0          1          0      )
                  (     0          0          1      )

 cart.    s( 1) = (  1.0000000  0.0000000  0.0000000 )
                  (  0.0000000  1.0000000 -0.0000000 )
                  (  0.0000000  0.0000000  1.0000000 )

      isym =  2     180 deg rotation - cart. axis [0,0,1]

[...]

 cryst.   s( 3) = (    -1          0          0      )    f =(  0.5000000 )
                  (     0          1          0      )       ( -0.0000000 )
                  (     0         -1         -1      )       ( -0.0000000 )

 cart.    s( 3) = ( -1.0000000  0.0000000  0.0000000 )    f =(  0.5000000 )
                  (  0.0000000  1.0000000  0.0000003 )       (  0.0000000 )
                  (  0.0000000  0.0000000 -1.0000000 )       ( -0.0000000 )

      isym =  4     180 deg rotation - cart. axis [1,0,0]

[...]

      isym =  5     inversion

[...]

      isym =  6     inv. 180 deg rotation - cart. axis [0,0,1]

 cryst.   s( 6) = (     1          0          0      )
                  (     0          1          0      )
                  (     0         -1         -1      )

 cart.    s( 6) = (  1.0000000  0.0000000  0.0000000 )
                  (  0.0000000  1.0000000  0.0000003 )
                  (  0.0000000  0.0000000 -1.0000000 )

[...]

      isym =  8     inv. 180 deg rotation - cart. axis [1,0,0]

 cryst.   s( 8) = (    -1          0          0      )    f =(  0.5000000 )
                  (     0          1          0      )       (  0.0000000 )
                  (     0          0          1      )       (  0.0000000 )

 cart.    s( 8) = ( -1.0000000  0.0000000  0.0000000 )    f =(  0.5000000 )
                  (  0.0000000  1.0000000 -0.0000000 )       (  0.0000000 )
                  (  0.0000000  0.0000000  1.0000000 )       (  0.0000000 )

   Cartesian axes

     site n.     atom                  positions (alat units)
         1           Ti  tau(   1) = (   0.7500000   0.5416868   0.9382292  )
         2           Ti  tau(   2) = (   0.2500000   0.1857328   0.3216986  )
         3           Ti  tau(   3) = (   0.7500000  -0.1857329   0.3216986  )
         4           Ti  tau(   4) = (   0.2500000   0.9131524   0.9382292  )
         5           Ti  tau(   5) = (   0.7500000   0.3714656   0.0000000  )
         6           Ti  tau(   6) = (   0.2500000   1.0833739   0.0000000  )
         7           Ti  tau(   7) = (   0.0000000   0.7274204   0.4199755  )
         8           Ti  tau(   8) = (   0.0000000  -0.0000009   0.8399523  )
         9           Ti  tau(   9) = (   0.5000000  -0.0000009   0.8399523  )
        10           Ti  tau(  10) = (   0.5000000   0.7274204   0.4199755  )
        11           As  tau(  11) = (   0.7500000   0.2801344   0.4852070  )
        12           As  tau(  12) = (   0.2500000   0.4472852   0.7747208  )
        13           As  tau(  13) = (   0.7500000  -0.4472854   0.7747208  )
        14           As  tau(  14) = (   0.2500000  -0.2801345   0.4852070  )
        15           As  tau(  15) = (   0.7500000   0.8945706   0.0000000  )
        16           As  tau(  16) = (   0.2500000   0.5602689   0.0000000  )

   Crystallographic axes

     site n.     atom                  positions (cryst. coord.)
         1           Ti  tau(   1) = (  0.7500000  0.7446690  0.7446690  )
         2           Ti  tau(   2) = (  0.2500000  0.2553310  0.2553310  )
         3           Ti  tau(   3) = (  0.7500000  0.0000000  0.2553310  )
         4           Ti  tau(   4) = (  0.2500000  1.0000000  0.7446690  )
         5           Ti  tau(   5) = (  0.7500000  0.2553310  0.0000000  )
         6           Ti  tau(   6) = (  0.2500000  0.7446690  0.0000000  )
         7           Ti  tau(   7) = (  0.0000000  0.6666670  0.3333330  )
         8           Ti  tau(   8) = (  0.0000000  0.3333330  0.6666670  )
         9           Ti  tau(   9) = (  0.5000000  0.3333330  0.6666670  )
        10           Ti  tau(  10) = (  0.5000000  0.6666670  0.3333330  )
        11           As  tau(  11) = (  0.7500000  0.3851070  0.3851070  )
        12           As  tau(  12) = (  0.2500000  0.6148930  0.6148930  )
        13           As  tau(  13) = (  0.7500000  0.0000000  0.6148930  )
        14           As  tau(  14) = (  0.2500000 -0.0000000  0.3851070  )
        15           As  tau(  15) = (  0.7500000  0.6148930  0.0000000  )
        16           As  tau(  16) = (  0.2500000  0.3851070  0.0000000  )

     number of k points=     1  Methfessel-Paxton smearing, width (Ry)=  0.0010
                       cart. coord. in units 2pi/alat
        k(    1) = (   0.0000000   0.0000000   0.0000000), wk =   2.0000000

                       cryst. coord.
        k(    1) = (   0.0000000   0.0000000   0.0000000), wk =   2.0000000

     Check: negative core charge=   -0.000004

     Initial potential from superposition of free atoms

     starting charge     139.9981, renormalised to     150.0000

     negative rho (up, down):  1.315E-02 0.000E+00
     Starting wfcs are  124 randomized atomic wfcs

     Self-consistent Calculation

     iteration #  1     ecut=    30.00 Ry     beta= 0.70
     Davidson diagonalization with overlap

     ethr =  1.00E-02,  avg # of iterations =  4.0

     negative rho (up, down):  1.549E-02 0.000E+00

     total energy              =   -1300.87058387 Ry
     estimated scf accuracy    <       4.21705936 Ry

[...]

     ethr =  2.10E-04,  avg # of iterations =  6.0
     Minimization algorithm failed to find Fermi energy: reverting to bisection
     Possible cause: smearing is larger than the electronic band-gap.

[...]

     WARNING: integrated charge=   149.99993535, expected=   150.00000000

[...]

     WARNING: integrated charge=   150.00001771, expected=   150.00000000

[...]

     total energy              =   -1302.88386731 Ry
     estimated scf accuracy    <       0.00000347 Ry

     iteration # 61     ecut=    30.00 Ry     beta= 0.70
     Davidson diagonalization with overlap

     ethr =  7.96E-10,  avg # of iterations =  2.0

[...]

     End of self-consistent calculation

          k = 0.0000 0.0000 0.0000 (  2397 PWs)   bands (ev):

   -43.8459 -43.8345 -43.8345 -43.8237 -43.8236 -43.8231 -43.0860 -43.0858
   -42.9431 -42.9431 -20.2229 -20.1800 -20.1777 -20.1776 -20.1490 -20.1236
   -20.1235 -20.1196 -20.1195 -20.1025 -20.1025 -20.0686 -20.0685 -20.0652
   -20.0556 -20.0380 -20.0379 -20.0081 -19.7240 -19.7104 -19.4292 -19.4292
   -19.4280 -19.4280 -19.3121 -19.3121 -19.3084 -19.3084 -18.7765 -18.7762
     0.3200   1.5665   1.5666   2.5311   2.5311   2.8295   7.2958   7.7803
     8.5156   8.6141   8.6142   8.9723   8.9724   8.9861   8.9861   9.5538
     9.5538  10.6565  10.6565  10.7022  10.7023  10.7472  10.9991  11.5272
    11.7868  12.0035  12.0036  12.0800  12.1553  12.4719  12.4719  12.7832
    12.9649  13.4333  13.4333  13.4464  13.4743  13.4743  13.9061  13.9061
    14.1949  14.7239  14.7239  14.7605  14.7605  14.9844  15.0216  15.2388
    15.2396  15.2793

     occupation numbers
     1.0000   1.0000   1.0000   1.0000   1.0000   1.0000   1.0000   1.0000
     1.0000   1.0000   1.0000   1.0000   1.0000   1.0000   1.0000   1.0000
     1.0000   1.0000   1.0000   1.0000   1.0000   1.0000   1.0000   1.0000
     1.0000   1.0000   1.0000   1.0000   1.0000   1.0000   1.0000   1.0000
     1.0000   1.0000   1.0000   1.0000   1.0000   1.0000   1.0000   1.0000
     1.0000   1.0000   1.0000   1.0000   1.0000   1.0000   1.0000   1.0000
     1.0000   1.0000   1.0000   1.0000   1.0000   1.0000   1.0000   1.0000
     1.0000   1.0000   1.0000   1.0000   1.0000   1.0000   1.0000   1.0000
     1.0000   1.0000   1.0000   1.0000   1.0000   1.0000   1.0000   1.0000
     1.0000   0.9053   0.9046   0.1930  -0.0015  -0.0015  -0.0000  -0.0000
    -0.0000  -0.0000  -0.0000  -0.0000  -0.0000  -0.0000  -0.0000  -0.0000
    -0.0000  -0.0000

     the Fermi energy is    13.4410 ev

!    total energy              =   -1302.88386714 Ry
     estimated scf accuracy    <       0.00000028 Ry
     smearing contrib. (-TS)   =      -0.00029590 Ry
     internal energy E=F+TS    =   -1302.88357124 Ry

     The total energy is F=E-TS. E is the sum of the following terms:
     one-electron contribution =    -438.48617509 Ry
     hartree contribution      =     279.87409131 Ry
     xc contribution           =    -237.19318370 Ry
     ewald contribution        =    -907.07830377 Ry

     convergence has been achieved in  61 iterations

     negative rho (up, down):  6.970E-03 0.000E+00

     Forces acting on atoms (cartesian axes, Ry/au):

     atom    1 type  1   force =     0.00000000    0.03537774    0.06128996
     atom    2 type  1   force =     0.00000000   -0.03537774   -0.06128996
     atom    3 type  1   force =     0.00000000    0.03537774   -0.06128994
     atom    4 type  1   force =     0.00000000   -0.03537774    0.06128994
     atom    5 type  1   force =     0.00000000   -0.07084259   -0.00000001
     atom    6 type  1   force =     0.00000000    0.07084259    0.00000001
     atom    7 type  1   force =     0.00000000    0.00000000   -0.00000491
     atom    8 type  1   force =     0.00000000    0.00000000    0.00000491
     atom    9 type  1   force =     0.00000000    0.00000000    0.00000491
     atom   10 type  1   force =     0.00000000    0.00000000   -0.00000491
     atom   11 type  2   force =     0.00000000    0.01606083    0.02775317
     atom   12 type  2   force =     0.00000000   -0.01606083   -0.02775317
     atom   13 type  2   force =     0.00000000    0.01606083   -0.02775317
     atom   14 type  2   force =     0.00000000   -0.01606083    0.02775317
     atom   15 type  2   force =     0.00000000   -0.03207178   -0.00000001
     atom   16 type  2   force =     0.00000000    0.03207178    0.00000001
     The non-local contrib.  to forces
     atom    1 type  1   force =    -0.00000000   -0.02123447   -0.03682117
     atom    2 type  1   force =     0.00000000    0.02123447    0.03682117
     atom    3 type  1   force =     0.00000000   -0.02123447    0.03682117
     atom    4 type  1   force =     0.00000000    0.02123447   -0.03682117
     atom    5 type  1   force =     0.00000000    0.04244518    0.00000001
     atom    6 type  1   force =    -0.00000000   -0.04244518   -0.00000001
     atom    7 type  1   force =     0.00000000    0.00000000    0.00004907
     atom    8 type  1   force =     0.00000000    0.00000000   -0.00004907
     atom    9 type  1   force =     0.00000000    0.00000000   -0.00004907
     atom   10 type  1   force =     0.00000000    0.00000000    0.00004907
     atom   11 type  2   force =     0.00000000   -0.00928818   -0.01606511
     atom   12 type  2   force =    -0.00000000    0.00928818    0.01606511
     atom   13 type  2   force =     0.00000000   -0.00928818    0.01606510
     atom   14 type  2   force =     0.00000000    0.00928818   -0.01606510
     atom   15 type  2   force =     0.00000000    0.01853069    0.00000000
     atom   16 type  2   force =     0.00000000   -0.01853069   -0.00000000
     The ionic contribution  to forces
     atom    1 type  1   force =     0.00000000    2.47320965    4.28372556
     atom    2 type  1   force =    -0.00000000   -2.47320965   -4.28372556
     atom    3 type  1   force =     0.00000000    2.47330817   -4.28378192
     atom    4 type  1   force =    -0.00000000   -2.47330817    4.28378192
     atom    5 type  1   force =    -0.00000000   -4.94651805    0.00005596
     atom    6 type  1   force =     0.00000000    4.94651805   -0.00005596
     atom    7 type  1   force =     0.00000000   -0.00008847    0.00005108
     atom    8 type  1   force =     0.00000000    0.00008847   -0.00005108
     atom    9 type  1   force =    -0.00000000    0.00008847   -0.00005108
     atom   10 type  1   force =    -0.00000000   -0.00008847    0.00005108
     atom   11 type  2   force =     0.00000000   -0.33547309   -0.58105654
     atom   12 type  2   force =     0.00000000    0.33547309    0.58105654
     atom   13 type  2   force =    -0.00000000   -0.33551364    0.58108004
     atom   14 type  2   force =     0.00000000    0.33551364   -0.58108004
     atom   15 type  2   force =     0.00000000    0.67098690   -0.00002321
     atom   16 type  2   force =     0.00000000   -0.67098690    0.00002321
     The local contribution  to forces
     atom    1 type  1   force =     0.00011696   -2.42161611   -4.19422448
     atom    2 type  1   force =    -0.00011605    2.42203619    4.19403566
     atom    3 type  1   force =     0.00011599   -2.42137386    4.19408201
     atom    4 type  1   force =    -0.00011546    2.42180830   -4.19390811
     atom    5 type  1   force =     0.00011854    4.84329988    0.00012128
     atom    6 type  1   force =    -0.00011677   -4.84340274   -0.00017633
     atom    7 type  1   force =    -0.00012662   -0.00036038   -0.00040028
     atom    8 type  1   force =    -0.00013434   -0.00000341    0.00040990
     atom    9 type  1   force =     0.00013593   -0.00000876    0.00041553
     atom   10 type  1   force =     0.00013084   -0.00035828   -0.00040283
     atom   11 type  2   force =     0.00010091    0.36138298    0.62548905
     atom   12 type  2   force =    -0.00010086   -0.36134611   -0.62568106
     atom   13 type  2   force =     0.00009980    0.36131142   -0.62546384
     atom   14 type  2   force =    -0.00009933   -0.36129246    0.62570779
     atom   15 type  2   force =     0.00009908   -0.72269647   -0.00006711
     atom   16 type  2   force =    -0.00009806    0.72240081    0.00004407
     The core correction contribution to forces
     atom    1 type  1   force =    -0.00000442    0.00502425    0.00869445
     atom    2 type  1   force =     0.00000449   -0.00502270   -0.00869338
     atom    3 type  1   force =    -0.00000404    0.00501541   -0.00868982
     atom    4 type  1   force =     0.00000421   -0.00501347    0.00868892
     atom    5 type  1   force =    -0.00000408   -0.01004161   -0.00000428
     atom    6 type  1   force =     0.00000444    0.01004289    0.00000482
     atom    7 type  1   force =    -0.00000010    0.00000124   -0.00000232
     atom    8 type  1   force =    -0.00000026   -0.00000210    0.00000081
     atom    9 type  1   force =     0.00000024   -0.00000212    0.00000128
     atom   10 type  1   force =     0.00000014    0.00000107   -0.00000223
     atom   11 type  2   force =    -0.00000098   -0.00044638   -0.00078512
     atom   12 type  2   force =     0.00000097    0.00044603    0.00078629
     atom   13 type  2   force =    -0.00000083   -0.00044833    0.00078331
     atom   14 type  2   force =     0.00000093    0.00044685   -0.00078211
     atom   15 type  2   force =    -0.00000107    0.00090549   -0.00000354
     atom   16 type  2   force =     0.00000112   -0.00090486    0.00000166
     The Hubbard contrib.    to forces
     atom    1 type  1   force =     0.00000000    0.00000000    0.00000000
     atom    2 type  1   force =     0.00000000    0.00000000    0.00000000
     atom    3 type  1   force =     0.00000000    0.00000000    0.00000000
     atom    4 type  1   force =     0.00000000    0.00000000    0.00000000
     atom    5 type  1   force =     0.00000000    0.00000000    0.00000000
     atom    6 type  1   force =     0.00000000    0.00000000    0.00000000
     atom    7 type  1   force =     0.00000000    0.00000000    0.00000000
     atom    8 type  1   force =     0.00000000    0.00000000    0.00000000
     atom    9 type  1   force =     0.00000000    0.00000000    0.00000000
     atom   10 type  1   force =     0.00000000    0.00000000    0.00000000
     atom   11 type  2   force =     0.00000000    0.00000000    0.00000000
     atom   12 type  2   force =     0.00000000    0.00000000    0.00000000
     atom   13 type  2   force =     0.00000000    0.00000000    0.00000000
     atom   14 type  2   force =     0.00000000    0.00000000    0.00000000
     atom   15 type  2   force =     0.00000000    0.00000000    0.00000000
     atom   16 type  2   force =     0.00000000    0.00000000    0.00000000
     The SCF correction term to forces
     atom    1 type  1   force =    -0.00011270    0.00002846   -0.00007566
     atom    2 type  1   force =     0.00011277   -0.00040885    0.00026362
     atom    3 type  1   force =    -0.00011164   -0.00033089    0.00028638
     atom    4 type  1   force =     0.00010906   -0.00006542   -0.00046115
     atom    5 type  1   force =    -0.00011093   -0.00002923   -0.00017154
     atom    6 type  1   force =     0.00011460    0.00012833    0.00024035
     atom    7 type  1   force =     0.00012141    0.00042402    0.00029101
     atom    8 type  1   force =     0.00012712   -0.00008440   -0.00031310
     atom    9 type  1   force =    -0.00012856   -0.00007855   -0.00031823
     atom   10 type  1   force =    -0.00012456    0.00042104    0.00029259
     atom   11 type  2   force =    -0.00009076   -0.00011133    0.00016023
     atom   12 type  2   force =     0.00009071    0.00006906    0.00002928
     atom   13 type  2   force =    -0.00008883   -0.00001168   -0.00022296
     atom   14 type  2   force =     0.00008912   -0.00001618   -0.00001255
     atom   15 type  2   force =    -0.00009013    0.00020117    0.00007057
     atom   16 type  2   force =     0.00008902    0.00009298   -0.00005145

     Total force =     0.190367     Total SCF correction =     0.001354

     Computing stress (Cartesian axis) and pressure

     negative rho (up, down):  6.970E-03 0.000E+00
          total   stress  (Ry/bohr**3)                   (kbar)     P=      -35.00
  -0.00065259   0.00000000   0.00000000          -96.00        0.00        0.00
   0.00000000  -0.00003045  -0.00000000            0.00       -4.48       -0.00
   0.00000000  -0.00000000  -0.00003064            0.00       -0.00       -4.51

     kinetic stress (kbar)  15986.27      0.00      0.00
                                0.00  15967.84      0.00
                                0.00      0.00  15967.89

     local   stress (kbar)  -2086.38      0.00     -0.00
                                0.00   2987.61      0.06
                               -0.00      0.06   2987.29

     nonloc. stress (kbar)   5816.70      0.00      0.00
                                0.00   5838.94      0.00
                                0.00      0.00   5838.96

     hartree stress (kbar)   9441.60     -0.00      0.00
                               -0.00   7138.12     -0.06
                                0.00     -0.06   7138.33

     exc-cor stress (kbar)    773.92     -0.00      0.00
                               -0.00    775.10      0.00
                                0.00      0.00    775.10

     corecor stress (kbar)  -6188.66      0.00     -0.00
                                0.00  -6196.44     -0.00
                               -0.00     -0.00  -6196.44

     ewald   stress (kbar) -23839.44     -0.00      0.00
                               -0.00 -26515.65      0.01
                                0.00      0.01 -26515.64

     hubbard stress (kbar)      0.00      0.00      0.00
                                0.00      0.00      0.00
                                0.00      0.00      0.00

     DFT-D   stress (kbar)      0.00      0.00      0.00
                                0.00      0.00      0.00
                                0.00      0.00      0.00

     XDM     stress (kbar)      0.00      0.00      0.00
                                0.00      0.00      0.00
                                0.00      0.00      0.00

     dft-nl  stress (kbar)      0.00      0.00      0.00
                                0.00      0.00      0.00
                                0.00      0.00      0.00

     TS-vdW  stress (kbar)      0.00      0.00      0.00
                                0.00      0.00      0.00
                                0.00      0.00      0.00

[...]

                                0.00      0.00      0.00

     Writing all to output data dir new_calculations/myprefix.save/

     General routines

     Parallel routines

   This run was terminated on:  23: 4:41  20May2023

   JOB DONE.