     Program PWSCF v.7.0 starts on 20May2023 at 21:45:52

     Reading input from espresso_12564.pwi
Warning: card &CELL ignored
Warning: card / ignored

     Current dimensions of program PWSCF are:
     Max number of different atomic species (ntypx) = 10
     Max number of k-points (npk) =  40000
     Max angular momentum in pseudopotentials (lmaxx) =  4

     gamma-point specific algorithms are used
     Message from routine setup:
     using ibrav=0 with symmetry is DISCOURAGED, use correct ibrav instead

     Subspace diagonalization in iterative solution of the eigenvalue problem:
     a serial algorithm will be used

     Using Slab Decomposition

     bravais-lattice index     =            0
     lattice parameter (alat)  =       7.9422  a.u.
     unit-cell volume          =    1563.3493 (a.u.)^3
     number of atoms/cell      =            6
     number of atomic types    =            3
     number of electrons       =        70.00
     number of Kohn-Sham states=           42
     kinetic-energy cutoff     =      30.0000  Ry
     charge density cutoff     =     240.0000  Ry
     scf convergence threshold =      1.0E-06
     mixing beta               =       0.7000
     number of iterations used =            8  plain     mixing
     Exchange-correlation= SLA  PW   PBX  PBC
                           (   1   4   3   4   0   0   0)

     celldm(1)=   7.942167  celldm(2)=   0.000000  celldm(3)=   0.000000
     celldm(4)=   0.000000  celldm(5)=   0.000000  celldm(6)=   0.000000

     crystal axes: (cart. coord. in units of alat)
               a(1) = (   1.000000   0.000000   0.000000 )
               a(2) = (   0.000000   1.335600   0.000000 )
               a(3) = (   0.000000   0.000000   2.336482 )

     reciprocal axes: (cart. coord. in units 2 pi/alat)
               b(1) = (  1.000000  0.000000  0.000000 )
               b(2) = (  0.000000  0.748727  0.000000 )
               b(3) = (  0.000000  0.000000  0.427994 )

     PseudoPot. # 1 for Er read from file:
     /home/pragov/projects/rrg-bengioy-ad/pragov/crystal_structure_design/SSSP/Er.GGA-PBE-paw-v1.0.UPF
     MD5 check sum: 5952a841f12bc97f67d25f9d1b2e7e35
     Pseudo is Projector augmented-wave + core cor, Zval = 22.0
     Generated using ATOMPAW code
     Shape of augmentation charge: BESSEL
     Using radial grid of 1114 points,  8 beta functions with:
                l(1) =   0
                l(2) =   0
                l(3) =   1
                l(4) =   1
                l(5) =   2
                l(6) =   2
                l(7) =   3
                l(8) =   3
     Q(r) pseudized with 0 coefficients

     PseudoPot. # 2 for Se read from file:
     /home/pragov/projects/rrg-bengioy-ad/pragov/crystal_structure_design/SSSP/Se_pbe_v1.uspp.F.UPF
     MD5 check sum: 1b3568f3a8ae88f9a2a0ad0698632c85
     Pseudo is Ultrasoft + core correction, Zval =  6.0
     Generated by new atomic code, or converted to UPF format
     Using radial grid of  877 points,  6 beta functions with:
                l(1) =   0
                l(2) =   0
                l(3) =   1
                l(4) =   1
                l(5) =   2
                l(6) =   2
     Q(r) pseudized with  8 coefficients,  rinner =    1.300   1.300   1.300
                                                       1.300   1.300

     PseudoPot. # 3 for I  read from file:
     /home/pragov/projects/rrg-bengioy-ad/pragov/crystal_structure_design/SSSP/I.pbe-n-kjpaw_psl.0.2.UPF
     MD5 check sum: d4ef18d9c8f18dc85e5843bca1e50dc0
     Pseudo is Projector augmented-wave + core cor, Zval =  7.0
     Generated using "atomic" code by A. Dal Corso  v.5.0.99 svn rev. 10869
     Shape of augmentation charge: PSQ
     Using radial grid of 1247 points,  4 beta functions with:
                l(1) =   0
                l(2) =   0
                l(3) =   1
                l(4) =   1
     Q(r) pseudized with 0 coefficients

     atomic species   valence    mass     pseudopotential
        Er            22.00   167.25900     Er( 1.00)
        Se             6.00    78.97100     Se( 1.00)
        I              7.00   126.90447     I ( 1.00)

      8 Sym. Ops., with inversion, found ( 4 have fractional translation)

                                    s                        frac. trans.

      isym =  1     identity

 cryst.   s( 1) = (     1          0          0      )
                  (     0          1          0      )
                  (     0          0          1      )

 cart.    s( 1) = (  1.0000000  0.0000000  0.0000000 )
                  (  0.0000000  1.0000000  0.0000000 )
                  (  0.0000000  0.0000000  1.0000000 )

      isym =  2     180 deg rotation - cart. axis [0,0,1]

[...]

 cryst.   s( 3) = (    -1          0          0      )    f =(  0.5000000 )
                  (     0          1          0      )       ( -0.5000000 )
                  (     0          0         -1      )       ( -0.0000000 )

 cart.    s( 3) = ( -1.0000000  0.0000000  0.0000000 )    f =(  0.5000000 )
                  (  0.0000000  1.0000000  0.0000000 )       ( -0.6678002 )
                  (  0.0000000  0.0000000 -1.0000000 )       ( -0.0000000 )

      isym =  4     180 deg rotation - cart. axis [1,0,0]

[...]

      isym =  5     inversion

[...]

      isym =  6     inv. 180 deg rotation - cart. axis [0,0,1]

 cryst.   s( 6) = (     1          0          0      )    f =(  0.5000000 )
                  (     0          1          0      )       ( -0.5000000 )
                  (     0          0         -1      )       ( -0.0000000 )

 cart.    s( 6) = (  1.0000000  0.0000000  0.0000000 )    f =(  0.5000000 )
                  (  0.0000000  1.0000000  0.0000000 )       ( -0.6678002 )
                  (  0.0000000  0.0000000 -1.0000000 )       ( -0.0000000 )

[...]

      isym =  8     inv. 180 deg rotation - cart. axis [1,0,0]

 cryst.   s( 8) = (    -1          0          0      )
                  (     0          1          0      )
                  (     0          0          1      )

 cart.    s( 8) = ( -1.0000000  0.0000000  0.0000000 )
                  (  0.0000000  1.0000000  0.0000000 )
                  (  0.0000000  0.0000000  1.0000000 )

   Cartesian axes

     site n.     atom                  positions (alat units)
         1           Er  tau(   1) = (   0.5000000   0.0000000   2.0646250  )
         2           Er  tau(   2) = (   0.0000000   0.6678002   0.2718567  )
         3           Se  tau(   3) = (   0.5000000   0.6678002   2.1513038  )
         4           Se  tau(   4) = (   0.0000000   0.0000000   0.1851779  )
         5           I   tau(   5) = (   0.0000000   0.0000000   1.5454448  )
         6           I   tau(   6) = (   0.5000000   0.6678002   0.7910369  )

   Crystallographic axes

     site n.     atom                  positions (cryst. coord.)
         1           Er  tau(   1) = (  0.5000000  0.0000000  0.8836470  )
         2           Er  tau(   2) = (  0.0000000  0.5000000  0.1163530  )
         3           Se  tau(   3) = (  0.5000000  0.5000000  0.9207450  )
         4           Se  tau(   4) = (  0.0000000  0.0000000  0.0792550  )
         5           I   tau(   5) = (  0.0000000  0.0000000  0.6614410  )
         6           I   tau(   6) = (  0.5000000  0.5000000  0.3385590  )

     number of k points=     1  Methfessel-Paxton smearing, width (Ry)=  0.0010
                       cart. coord. in units 2pi/alat
        k(    1) = (   0.0000000   0.0000000   0.0000000), wk =   2.0000000

                       cryst. coord.
        k(    1) = (   0.0000000   0.0000000   0.0000000), wk =   2.0000000

     Initial potential from superposition of free atoms

     starting charge      69.9913, renormalised to      70.0000
     Starting wfcs are   80 randomized atomic wfcs
     Checking if some PAW data can be deallocated...

     Self-consistent Calculation

     iteration #  1     ecut=    30.00 Ry     beta= 0.70
     Davidson diagonalization with overlap

     ethr =  1.00E-02,  avg # of iterations =  2.0

     total energy              =   -2604.29248149 Ry
     estimated scf accuracy    <      10.49646142 Ry

[...]

     negative rho (up, down):  9.778E-05 0.000E+00

[...]

     total energy              =   -2616.86881503 Ry
     estimated scf accuracy    <       0.00001616 Ry

     iteration # 62     ecut=    30.00 Ry     beta= 0.70
     Davidson diagonalization with overlap

     ethr =  2.71E-09,  avg # of iterations =  1.0

[...]

     End of self-consistent calculation

          k = 0.0000 0.0000 0.0000 (  2174 PWs)   bands (ev):

   -43.2180 -43.2145 -17.7126 -17.6470 -17.6062 -17.5577 -17.3707 -17.3391
    -7.7399  -7.0985  -7.0635  -7.0400   1.6708   1.7500   1.9019   2.7623
     2.9139   2.9743   3.0521   3.0866   3.3154   3.6910   3.7210   3.8426
     4.7700   4.8251   4.8895   4.9098   4.9485   4.9949   5.0044   5.0103
     5.1121   5.1634   5.2086   5.2128   5.2390   5.2600   7.2501   7.9578
     8.3774   8.4337

     occupation numbers
     1.0000   1.0000   1.0000   1.0000   1.0000   1.0000   1.0000   1.0000
     1.0000   1.0000   1.0000   1.0000   1.0000   1.0000   1.0000   1.0000
     1.0000   1.0000   1.0000   1.0000   1.0000   1.0000   1.0000   1.0000
     1.0000   1.0000   1.0000   1.0000   1.0000   1.0000   1.0000   1.0000
     1.0000   1.0000   0.6311   0.3751  -0.0062  -0.0000  -0.0000  -0.0000
    -0.0000  -0.0000

     the Fermi energy is     5.2108 ev

!    total energy              =   -2616.86881571 Ry
     estimated scf accuracy    <       0.00000008 Ry
     smearing contrib. (-TS)   =      -0.00049617 Ry
     internal energy E=F+TS    =   -2616.86831954 Ry

     The total energy is F=E-TS. E is the sum of the following terms:
     one-electron contribution =    -966.00212450 Ry
     hartree contribution      =     479.39953084 Ry
     xc contribution           =    -208.95691323 Ry
     ewald contribution        =    -308.45158819 Ry
     one-center paw contrib.   =   -1612.85722446 Ry
      -> PAW hartree energy AE =     707.94727088 Ry
      -> PAW hartree energy PS =    -634.59121892 Ry
      -> PAW xc energy AE      =   -1830.86901679 Ry
      -> PAW xc energy PS      =     144.65574036 Ry
      -> total E_H with PAW    =     552.75558280 Ry
      -> total E_XC with PAW   =   -1895.17018966 Ry

     convergence has been achieved in  62 iterations

     negative rho (up, down):  3.457E-05 0.000E+00

     Forces acting on atoms (cartesian axes, Ry/au):

     atom    1 type  1   force =     0.00000000    0.00000000   -0.02449302
     atom    2 type  1   force =     0.00000000    0.00000000    0.02449302
     atom    3 type  2   force =     0.00000000    0.00000000    0.07818454
     atom    4 type  2   force =     0.00000000    0.00000000   -0.07818454
     atom    5 type  3   force =     0.00000000    0.00000000    0.01905121
     atom    6 type  3   force =     0.00000000    0.00000000   -0.01905121
     The non-local contrib.  to forces
     atom    1 type  1   force =     0.00000000    0.00000000   -0.06816166
     atom    2 type  1   force =     0.00000000    0.00000000    0.06816166
     atom    3 type  2   force =     0.00000000    0.00000000   -0.00520726
     atom    4 type  2   force =     0.00000000    0.00000000    0.00520726
     atom    5 type  3   force =     0.00000000    0.00000000    0.11910186
     atom    6 type  3   force =     0.00000000    0.00000000   -0.11910186
     The ionic contribution  to forces
     atom    1 type  1   force =     0.00000000   -0.00000000  -30.56603989
     atom    2 type  1   force =     0.00000000   -0.00000000   30.56603989
     atom    3 type  2   force =     0.00000000   -0.00000000  -10.67933729
     atom    4 type  2   force =    -0.00000000   -0.00000000   10.67933729
     atom    5 type  3   force =    -0.00000000    0.00000000  -16.88452913
     atom    6 type  3   force =    -0.00000000   -0.00000000   16.88452913
     The local contribution  to forces
     atom    1 type  1   force =    -0.00001089   -0.00014390   30.60956158
     atom    2 type  1   force =     0.00000387   -0.00001583  -30.60993900
     atom    3 type  2   force =    -0.00000347    0.00000175   10.75998390
     atom    4 type  2   force =     0.00000528   -0.00000073  -10.76013652
     atom    5 type  3   force =    -0.00000067   -0.00000650   16.78649278
     atom    6 type  3   force =     0.00000049   -0.00000073  -16.78636971
     The core correction contribution to forces
     atom    1 type  1   force =    -0.00000000   -0.00000000    0.00000183
     atom    2 type  1   force =     0.00000000   -0.00000000   -0.00000183
     atom    3 type  2   force =    -0.00000044   -0.00000034    0.00271855
     atom    4 type  2   force =     0.00000069    0.00000007   -0.00271867
     atom    5 type  3   force =    -0.00000014    0.00000002   -0.00184612
     atom    6 type  3   force =     0.00000005   -0.00000003    0.00184554
     The Hubbard contrib.    to forces
     atom    1 type  1   force =     0.00000000    0.00000000    0.00000000
     atom    2 type  1   force =     0.00000000    0.00000000    0.00000000
     atom    3 type  2   force =     0.00000000    0.00000000    0.00000000
     atom    4 type  2   force =     0.00000000    0.00000000    0.00000000
     atom    5 type  3   force =     0.00000000    0.00000000    0.00000000
     atom    6 type  3   force =     0.00000000    0.00000000    0.00000000
     The SCF correction term to forces
     atom    1 type  1   force =     0.00001122    0.00012066    0.00013436
     atom    2 type  1   force =    -0.00000035    0.00000003    0.00022156
     atom    3 type  2   force =     0.00000193   -0.00000271    0.00002769
     atom    4 type  2   force =    -0.00000219   -0.00000052    0.00012717
     atom    5 type  3   force =     0.00000099    0.00000787   -0.00016915
     atom    6 type  3   force =    -0.00000103   -0.00000064    0.00004472

     Total force =     0.118959     Total SCF correction =     0.000360

     Computing stress (Cartesian axis) and pressure

     negative rho (up, down):  3.457E-05 0.000E+00
          total   stress  (Ry/bohr**3)                   (kbar)     P=       51.50
   0.00061979   0.00000000   0.00000000           91.17        0.00        0.00
   0.00000000   0.00063031   0.00000000            0.00       92.72        0.00
   0.00000000   0.00000000  -0.00019974            0.00        0.00      -29.38

     kinetic stress (kbar)   4451.24      0.00      0.00
                                0.00   4356.35      0.00
                                0.00      0.00   4309.44

     local   stress (kbar) -36207.26     -0.05      0.03
                               -0.05 -27604.18     -0.10
                                0.03     -0.10  28471.43

     nonloc. stress (kbar)   4965.60      0.00      0.00
                                0.00   4909.55      0.00
                                0.00      0.00   4907.16

     hartree stress (kbar)  26603.25      0.02     -0.01
                                0.02  22769.89      0.04
                               -0.01      0.04  -4263.51

     exc-cor stress (kbar)   8775.68      0.00     -0.00
                                0.00   8772.83      0.00
                               -0.00      0.00   8774.13

     corecor stress (kbar) -11610.87     -0.00      0.00
                               -0.00 -11601.88      0.00
                                0.00      0.00 -11600.26

     ewald   stress (kbar)   3113.53      0.00      0.00
                                0.00  -1509.85     -0.00
                                0.00     -0.00 -30627.77

     hubbard stress (kbar)      0.00      0.00      0.00
                                0.00      0.00      0.00
                                0.00      0.00      0.00

     DFT-D   stress (kbar)      0.00      0.00      0.00
                                0.00      0.00      0.00
                                0.00      0.00      0.00

     XDM     stress (kbar)      0.00      0.00      0.00
                                0.00      0.00      0.00
                                0.00      0.00      0.00

     dft-nl  stress (kbar)      0.00      0.00      0.00
                                0.00      0.00      0.00
                                0.00      0.00      0.00

     TS-vdW  stress (kbar)      0.00      0.00      0.00
                                0.00      0.00      0.00
                                0.00      0.00      0.00

[...]

                                0.00      0.00      0.00

     Writing all to output data dir new_calculations/myprefix.save/

     General routines

     Parallel routines

     PAW routines

   This run was terminated on:  21:47:38  20May2023

   JOB DONE.