     Program PWSCF v.7.0 starts on 21May2023 at 18:47:17

     Reading input from espresso_24977.pwi
Warning: card &CELL ignored
Warning: card / ignored

     Current dimensions of program PWSCF are:
     Max number of different atomic species (ntypx) = 10
     Max number of k-points (npk) =  40000
     Max angular momentum in pseudopotentials (lmaxx) =  4

     gamma-point specific algorithms are used
     Message from routine setup:
     using ibrav=0 with symmetry is DISCOURAGED, use correct ibrav instead

     Subspace diagonalization in iterative solution of the eigenvalue problem:
     a serial algorithm will be used

     Using Slab Decomposition

     bravais-lattice index     =            0
     lattice parameter (alat)  =      11.7310  a.u.
     unit-cell volume          =    1614.3761 (a.u.)^3
     number of atoms/cell      =           12
     number of atomic types    =            3
     number of electrons       =       144.00
     number of Kohn-Sham states=           86
     kinetic-energy cutoff     =      30.0000  Ry
     charge density cutoff     =     240.0000  Ry
     scf convergence threshold =      1.0E-06
     mixing beta               =       0.7000
     number of iterations used =            8  plain     mixing
     Exchange-correlation=  SLA  PW   PBX  PBC
                           (   1   4   3   4   0   0   0)

     celldm(1)=  11.730996  celldm(2)=   0.000000  celldm(3)=   0.000000
     celldm(4)=   0.000000  celldm(5)=   0.000000  celldm(6)=   0.000000

     crystal axes: (cart. coord. in units of alat)
               a(1) = (   1.000000   0.000000   0.000000 )
               a(2) = (   0.000000   1.000000   0.000000 )
               a(3) = (   0.000000   0.000000   1.000000 )

     reciprocal axes: (cart. coord. in units 2 pi/alat)
               b(1) = (  1.000000  0.000000  0.000000 )
               b(2) = (  0.000000  1.000000  0.000000 )
               b(3) = (  0.000000  0.000000  1.000000 )

     PseudoPot. # 1 for Sn read from file:
     /home/pragov/projects/rrg-bengioy-ad/pragov/crystal_structure_design/SSSP/Sn_pbe_v1.uspp.F.UPF
     MD5 check sum: 4cf58ce39ec5d5d420df3dd08604eb00
     Pseudo is Ultrasoft + core correction, Zval = 14.0
     Generated by new atomic code, or converted to UPF format
     Using radial grid of  891 points,  6 beta functions with:
                l(1) =   0
                l(2) =   0
                l(3) =   1
                l(4) =   1
                l(5) =   2
                l(6) =   2
     Q(r) pseudized with  6 coefficients,  rinner =    1.200   1.200   1.200
                                                       1.200   1.200

     PseudoPot. # 2 for Pt read from file:
     /home/pragov/projects/rrg-bengioy-ad/pragov/crystal_structure_design/SSSP/pt_pbe_v1.4.uspp.F.UPF
     MD5 check sum: f09d6de1a584b5a045c4fc126da2d0c4
     Pseudo is Ultrasoft + core correction, Zval = 16.0
     Generated by new atomic code, or converted to UPF format
     Using radial grid of  985 points,  6 beta functions with:
                l(1) =   0
                l(2) =   0
                l(3) =   1
                l(4) =   1
                l(5) =   2
                l(6) =   2
     Q(r) pseudized with  8 coefficients,  rinner =    1.300   1.300   1.300
                                                       1.300   1.300

     PseudoPot. # 3 for S  read from file:
     /home/pragov/projects/rrg-bengioy-ad/pragov/crystal_structure_design/SSSP/s_pbe_v1.4.uspp.F.UPF
     MD5 check sum: 88d86576ff6df21479756cfb9bdac1df
     Pseudo is Ultrasoft + core correction, Zval =  6.0
     Generated by new atomic code, or converted to UPF format
     Using radial grid of  907 points,  6 beta functions with:
                l(1) =   0
                l(2) =   0
                l(3) =   1
                l(4) =   1
                l(5) =   2
                l(6) =   2
     Q(r) pseudized with  8 coefficients,  rinner =    1.300   1.300   1.300
                                                       1.300   1.300

     atomic species   valence    mass     pseudopotential
        Sn            14.00   118.71000     Sn( 1.00)
        Pt            16.00   195.08400     Pt( 1.00)
        S              6.00    32.06000     S ( 1.00)

     12 Sym. Ops. (no inversion) found ( 9 have fractional translation)

                                    s                        frac. trans.

      isym =  1     identity

 cryst.   s( 1) = (     1          0          0      )
                  (     0          1          0      )
                  (     0          0          1      )

 cart.    s( 1) = (  1.0000000  0.0000000  0.0000000 )
                  (  0.0000000  1.0000000  0.0000000 )
                  (  0.0000000  0.0000000  1.0000000 )

      isym =  2     180 deg rotation - cart. axis [0,0,1]

 cryst.   s( 2) = (    -1          0          0      )    f =(  0.5000000 )
                  (     0         -1          0      )       (  0.0000000 )
                  (     0          0          1      )       (  0.5000000 )

 cart.    s( 2) = ( -1.0000000  0.0000000  0.0000000 )    f =(  0.5000000 )
                  (  0.0000000 -1.0000000  0.0000000 )       (  0.0000000 )
                  (  0.0000000  0.0000000  1.0000000 )       (  0.5000000 )

[...]

 cryst.   s( 8) = (     0          0          1      )    f =(  0.5000000 )
                  (    -1          0          0      )       (  0.0000000 )
                  (     0         -1          0      )       (  0.5000000 )

 cart.    s( 8) = (  0.0000000 -1.0000000  0.0000000 )    f =(  0.5000000 )
                  (  0.0000000  0.0000000 -1.0000000 )       (  0.0000000 )
                  (  1.0000000  0.0000000  0.0000000 )       (  0.5000000 )

[...]

 cryst.   s( 9) = (     0          1          0      )
                  (     0          0          1      )
                  (     1          0          0      )

 cart.    s( 9) = (  0.0000000  0.0000000  1.0000000 )
                  (  1.0000000  0.0000000  0.0000000 )
                  (  0.0000000  1.0000000  0.0000000 )

[...]

 cryst.   s(10) = (     0         -1          0      )    f =(  0.5000000 )
                  (     0          0         -1      )       (  0.5000000 )
                  (     1          0          0      )       (  0.0000000 )

 cart.    s(10) = (  0.0000000  0.0000000  1.0000000 )    f =(  0.5000000 )
                  ( -1.0000000  0.0000000  0.0000000 )       (  0.5000000 )
                  (  0.0000000 -1.0000000  0.0000000 )       (  0.0000000 )

[...]

      isym = 12     120 deg rotation - cart. axis [-1,-1,1]

 cryst.   s(12) = (     0          1          0      )    f =(  0.0000000 )
                  (     0          0         -1      )       ( -0.5000000 )
                  (    -1          0          0      )       (  0.5000000 )

 cart.    s(12) = (  0.0000000  0.0000000 -1.0000000 )    f =(  0.0000000 )
                  (  1.0000000  0.0000000  0.0000000 )       ( -0.5000000 )
                  (  0.0000000 -1.0000000  0.0000000 )       (  0.5000000 )

   Cartesian axes

     site n.     atom                  positions (alat units)
         1           Sn  tau(   1) = (   0.1177660   0.6177660   0.8822340  )
         2           Sn  tau(   2) = (   0.6177660   0.8822340   0.1177660  )
         3           Sn  tau(   3) = (   0.8822340   0.1177660   0.6177660  )
         4           Sn  tau(   4) = (   0.3822340   0.3822340   0.3822340  )
         5           Pt  tau(   5) = (   0.4888770   0.9888770   0.5111230  )
         6           Pt  tau(   6) = (   0.9888770   0.5111230   0.4888770  )
         7           Pt  tau(   7) = (   0.5111230   0.4888770   0.9888770  )
         8           Pt  tau(   8) = (   0.0111230   0.0111230   0.0111230  )
         9           S   tau(   9) = (   0.8797660   0.3797660   0.1202340  )
        10           S   tau(  10) = (   0.3797660   0.1202340   0.8797660  )
        11           S   tau(  11) = (   0.1202340   0.8797660   0.3797660  )
        12           S   tau(  12) = (   0.6202340   0.6202340   0.6202340  )

   Crystallographic axes

     site n.     atom                  positions (cryst. coord.)
         1           Sn  tau(   1) = (  0.1177660  0.6177660  0.8822340  )
         2           Sn  tau(   2) = (  0.6177660  0.8822340  0.1177660  )
         3           Sn  tau(   3) = (  0.8822340  0.1177660  0.6177660  )
         4           Sn  tau(   4) = (  0.3822340  0.3822340  0.3822340  )
         5           Pt  tau(   5) = (  0.4888770  0.9888770  0.5111230  )
         6           Pt  tau(   6) = (  0.9888770  0.5111230  0.4888770  )
         7           Pt  tau(   7) = (  0.5111230  0.4888770  0.9888770  )
         8           Pt  tau(   8) = (  0.0111230  0.0111230  0.0111230  )
         9           S   tau(   9) = (  0.8797660  0.3797660  0.1202340  )
        10           S   tau(  10) = (  0.3797660  0.1202340  0.8797660  )
        11           S   tau(  11) = (  0.1202340  0.8797660  0.3797660  )
        12           S   tau(  12) = (  0.6202340  0.6202340  0.6202340  )

     number of k points=     1  Methfessel-Paxton smearing, width (Ry)=  0.0010
                       cart. coord. in units 2pi/alat
        k(    1) = (   0.0000000   0.0000000   0.0000000), wk =   2.0000000

                       cryst. coord.
        k(    1) = (   0.0000000   0.0000000   0.0000000), wk =   2.0000000

     Initial potential from superposition of free atoms

     starting charge     137.9996, renormalised to     144.0000

     negative rho (up, down):  7.746E-01 0.000E+00
     Starting wfcs are  100 randomized atomic wfcs

     Self-consistent Calculation

     iteration #  1     ecut=    30.00 Ry     beta= 0.70
     Davidson diagonalization with overlap

     ethr =  1.00E-02,  avg # of iterations =  4.0

     negative rho (up, down):  6.661E-01 0.000E+00

     total energy              =   -1584.29717023 Ry
     estimated scf accuracy    <      15.34170284 Ry

[...]

     total energy              =   -1592.83846608 Ry
     estimated scf accuracy    <       0.00000223 Ry

     iteration # 12     ecut=    30.00 Ry     beta= 0.70
     Davidson diagonalization with overlap

     ethr =  1.55E-09,  avg # of iterations =  2.0

[...]

     End of self-consistent calculation

          k = 0.0000 0.0000 0.0000 (  2229 PWs)   bands (ev):

   -40.5269 -40.5269 -40.5269 -40.5262 -40.5262 -40.5260 -40.5260 -40.5260
   -40.3518 -40.3517 -40.3516 -40.3515  -8.4133  -8.4018  -8.4018  -8.4017
    -8.3417  -8.3417  -8.3416  -8.3324  -8.3324  -8.3213  -8.3212  -8.3212
    -8.2531  -8.2530  -8.2530  -8.2324  -8.2324  -8.2323  -8.2130  -8.2130
    -1.6191  -0.6955  -0.6955  -0.6954   5.1141   5.1141   5.1142   5.3823
     6.6788   6.6788   6.6788   7.2247   7.2247   7.2247   7.4859   7.4859
     7.9792   7.9793   7.9793   9.3088   9.3524   9.3524   9.3524   9.4100
     9.4100   9.4100   9.4502   9.4502   9.6231   9.6231   9.6231   9.8666
     9.8666  10.1512  10.6517  10.6517  10.6518  11.9462  11.9462  11.9463
    12.9455  12.9455  12.9456  14.6466  15.8282  15.8282  15.8282  17.0891
    17.0892  17.5708  17.5708  17.5708  18.5441  18.7893

     occupation numbers
     1.0000   1.0000   1.0000   1.0000   1.0000   1.0000   1.0000   1.0000
     1.0000   1.0000   1.0000   1.0000   1.0000   1.0000   1.0000   1.0000
     1.0000   1.0000   1.0000   1.0000   1.0000   1.0000   1.0000   1.0000
     1.0000   1.0000   1.0000   1.0000   1.0000   1.0000   1.0000   1.0000
     1.0000   1.0000   1.0000   1.0000   1.0000   1.0000   1.0000   1.0000
     1.0000   1.0000   1.0000   1.0000   1.0000   1.0000   1.0000   1.0000
     1.0000   1.0000   1.0000   1.0000   1.0000   1.0000   1.0000   1.0000
     1.0000   1.0000   1.0000   1.0000   1.0000   1.0000   1.0000   1.0000
     1.0000   1.0000   1.0000   1.0000   1.0000   1.0000   1.0000   1.0000
    -0.0000  -0.0000  -0.0000  -0.0000  -0.0000  -0.0000  -0.0000  -0.0000
    -0.0000  -0.0000  -0.0000  -0.0000  -0.0000  -0.0000

     the Fermi energy is    12.4079 ev

!    total energy              =   -1592.83846649 Ry
     estimated scf accuracy    <       0.00000002 Ry
     smearing contrib. (-TS)   =       0.00000000 Ry
     internal energy E=F+TS    =   -1592.83846649 Ry

     The total energy is F=E-TS. E is the sum of the following terms:
     one-electron contribution =    -451.60825657 Ry
     hartree contribution      =     323.57646867 Ry
     xc contribution           =    -451.84763932 Ry
     ewald contribution        =   -1012.95903928 Ry

     convergence has been achieved in  12 iterations

     negative rho (up, down):  7.075E-01 0.000E+00

     Forces acting on atoms (cartesian axes, Ry/au):

     atom    1 type  1   force =    -0.03291446   -0.03291446    0.03291446
     atom    2 type  1   force =    -0.03291446    0.03291446   -0.03291446
     atom    3 type  1   force =     0.03291446   -0.03291446   -0.03291446
     atom    4 type  1   force =     0.03291446    0.03291446    0.03291446
     atom    5 type  2   force =     0.00887488    0.00887488   -0.00887488
     atom    6 type  2   force =     0.00887488   -0.00887488    0.00887488
     atom    7 type  2   force =    -0.00887488    0.00887488    0.00887488
     atom    8 type  2   force =    -0.00887488   -0.00887488   -0.00887488
     atom    9 type  3   force =     0.09404981    0.09404981   -0.09404981
     atom   10 type  3   force =     0.09404981   -0.09404981    0.09404981
     atom   11 type  3   force =    -0.09404981    0.09404981    0.09404981
     atom   12 type  3   force =    -0.09404981   -0.09404981   -0.09404981
     The non-local contrib.  to forces
     atom    1 type  1   force =     0.06823735    0.06823735   -0.06823735
     atom    2 type  1   force =     0.06823735   -0.06823735    0.06823735
     atom    3 type  1   force =    -0.06823735    0.06823735    0.06823735
     atom    4 type  1   force =    -0.06823735   -0.06823735   -0.06823735
     atom    5 type  2   force =    -0.10616961   -0.10616961    0.10616961
     atom    6 type  2   force =    -0.10616961    0.10616961   -0.10616961
     atom    7 type  2   force =     0.10616961   -0.10616961   -0.10616961
     atom    8 type  2   force =     0.10616961    0.10616961    0.10616961
     atom    9 type  3   force =    -0.18912569   -0.18912569    0.18912569
     atom   10 type  3   force =    -0.18912569    0.18912569   -0.18912569
     atom   11 type  3   force =     0.18912569   -0.18912569   -0.18912569
     atom   12 type  3   force =     0.18912569    0.18912569    0.18912569
     The ionic contribution  to forces
     atom    1 type  1   force =    -1.10370067   -1.10370067    1.10370067
     atom    2 type  1   force =    -1.10370067    1.10370067   -1.10370067
     atom    3 type  1   force =     1.10370067   -1.10370067   -1.10370067
     atom    4 type  1   force =     1.10370067    1.10370067    1.10370067
     atom    5 type  2   force =    -3.79659354   -3.79659354    3.79659354
     atom    6 type  2   force =    -3.79659354    3.79659354   -3.79659354
     atom    7 type  2   force =     3.79659354   -3.79659354   -3.79659354
     atom    8 type  2   force =     3.79659354    3.79659354    3.79659354
     atom    9 type  3   force =    -0.21347219   -0.21347219    0.21347219
     atom   10 type  3   force =    -0.21347219    0.21347219   -0.21347219
     atom   11 type  3   force =     0.21347219   -0.21347219   -0.21347219
     atom   12 type  3   force =     0.21347219    0.21347219    0.21347219
     The local contribution  to forces
     atom    1 type  1   force =     1.00609050    1.00608898   -1.00633263
     atom    2 type  1   force =     1.00620140   -1.00601035    1.00609340
     atom    3 type  1   force =    -1.00618397    1.00608768    1.00622884
     atom    4 type  1   force =    -1.00607675   -1.00612857   -1.00606980
     atom    5 type  2   force =     3.91922523    3.91913266   -3.91901974
     atom    6 type  2   force =     3.91916002   -3.91894754    3.91943962
     atom    7 type  2   force =    -3.91902788    3.91881984    3.91896236
     atom    8 type  2   force =    -3.91943722   -3.91903955   -3.91931341
     atom    9 type  3   force =     0.48538080    0.48542729   -0.48554790
     atom   10 type  3   force =     0.48553743   -0.48538911    0.48541551
     atom   11 type  3   force =    -0.48545882    0.48540946    0.48554341
     atom   12 type  3   force =    -0.48540944   -0.48547346   -0.48545375
     The core correction contribution to forces
     atom    1 type  1   force =    -0.00361091   -0.00361082    0.00360967
     atom    2 type  1   force =    -0.00361094    0.00361316   -0.00361229
     atom    3 type  1   force =     0.00361116   -0.00361106   -0.00360906
     atom    4 type  1   force =     0.00361190    0.00361173    0.00361138
     atom    5 type  2   force =    -0.00746125   -0.00746502    0.00746614
     atom    6 type  2   force =    -0.00746557    0.00746754   -0.00746038
     atom    7 type  2   force =     0.00746764   -0.00747069   -0.00746824
     atom    8 type  2   force =     0.00745944    0.00747044    0.00746189
     atom    9 type  3   force =     0.01120551    0.01120626   -0.01120827
     atom   10 type  3   force =     0.01120744   -0.01120580    0.01120649
     atom   11 type  3   force =    -0.01120656    0.01120587    0.01120726
     atom   12 type  3   force =    -0.01120536   -0.01120742   -0.01120732
     The Hubbard contrib.    to forces
     atom    1 type  1   force =     0.00000000    0.00000000    0.00000000
     atom    2 type  1   force =     0.00000000    0.00000000    0.00000000
     atom    3 type  1   force =     0.00000000    0.00000000    0.00000000
     atom    4 type  1   force =     0.00000000    0.00000000    0.00000000
     atom    5 type  2   force =     0.00000000    0.00000000    0.00000000
     atom    6 type  2   force =     0.00000000    0.00000000    0.00000000
     atom    7 type  2   force =     0.00000000    0.00000000    0.00000000
     atom    8 type  2   force =     0.00000000    0.00000000    0.00000000
     atom    9 type  3   force =     0.00000000    0.00000000    0.00000000
     atom   10 type  3   force =     0.00000000    0.00000000    0.00000000
     atom   11 type  3   force =     0.00000000    0.00000000    0.00000000
     atom   12 type  3   force =     0.00000000    0.00000000    0.00000000
     The SCF correction term to forces
     atom    1 type  1   force =     0.00007183    0.00009453    0.00022389
     atom    2 type  1   force =    -0.00004473   -0.00019051    0.00006277
     atom    3 type  1   force =     0.00004702    0.00008360   -0.00007296
     atom    4 type  1   force =    -0.00009217   -0.00002453   -0.00009618
     atom    5 type  2   force =    -0.00013626   -0.00002524   -0.00009093
     atom    6 type  2   force =    -0.00005950   -0.00016189   -0.00036215
     atom    7 type  2   force =    -0.00008092    0.00031171    0.00014902
     atom    8 type  2   force =     0.00037797   -0.00010287    0.00022079
     atom    9 type  3   force =     0.00005494    0.00001047    0.00008191
     atom   10 type  3   force =    -0.00010204   -0.00004709    0.00003903
     atom   11 type  3   force =     0.00001931    0.00002187   -0.00011269
     atom   12 type  3   force =    -0.00001340    0.00002498   -0.00000055

     Total force =     0.346540     Total SCF correction =     0.000833

     Computing stress (Cartesian axis) and pressure

     negative rho (up, down):  7.075E-01 0.000E+00
          total   stress  (Ry/bohr**3)                   (kbar)     P=      -51.97
  -0.00035330   0.00000000   0.00000000          -51.97        0.00        0.00
   0.00000000  -0.00035330   0.00000000            0.00      -51.97        0.00
   0.00000000   0.00000000  -0.00035330            0.00        0.00      -51.97

     kinetic stress (kbar)  20760.25      0.00      0.00
                                0.00  20760.25      0.00
                                0.00      0.00  20760.25

     local   stress (kbar)   3080.11      0.01      0.00
                                0.01   3080.11     -0.00
                                0.00     -0.00   3080.10

     nonloc. stress (kbar)   4625.15      0.00      0.00
                                0.00   4625.15      0.00
                                0.00      0.00   4625.15

     hartree stress (kbar)   9828.30     -0.01     -0.00
                               -0.01   9828.31      0.00
                               -0.00      0.00   9828.31

     exc-cor stress (kbar)  18374.05     -0.00     -0.00
                               -0.00  18374.05      0.00
                               -0.00      0.00  18374.05

     corecor stress (kbar) -25952.25      0.00     -0.00
                                0.00 -25952.25     -0.00
                               -0.00     -0.00 -25952.25

     ewald   stress (kbar) -30767.60     -0.00     -0.00
                               -0.00 -30767.60     -0.00
                               -0.00     -0.00 -30767.60

     hubbard stress (kbar)      0.00      0.00      0.00
                                0.00      0.00      0.00
                                0.00      0.00      0.00

     DFT-D   stress (kbar)      0.00      0.00      0.00
                                0.00      0.00      0.00
                                0.00      0.00      0.00

     XDM     stress (kbar)      0.00      0.00      0.00
                                0.00      0.00      0.00
                                0.00      0.00      0.00

     dft-nl  stress (kbar)      0.00      0.00      0.00
                                0.00      0.00      0.00
                                0.00      0.00      0.00

     TS-vdW  stress (kbar)      0.00      0.00      0.00
                                0.00      0.00      0.00
                                0.00      0.00      0.00

[...]

                                0.00      0.00      0.00

     Writing all to output data dir new_calculations/myprefix.save/

     General routines

     Parallel routines

   This run was terminated on:  18:47:40  21May2023

   JOB DONE.