     Program PWSCF v.7.0 starts on 20May2023 at  5:15:24

     Reading input from espresso_13109.pwi
Warning: card &CELL ignored
Warning: card / ignored

     Current dimensions of program PWSCF are:
     Max number of different atomic species (ntypx) = 10
     Max number of k-points (npk) =  40000
     Max angular momentum in pseudopotentials (lmaxx) =  4

     gamma-point specific algorithms are used
     Message from routine setup:
     using ibrav=0 with symmetry is DISCOURAGED, use correct ibrav instead

     Subspace diagonalization in iterative solution of the eigenvalue problem:
     a serial algorithm will be used

     Using Slab Decomposition

     bravais-lattice index     =            0
     lattice parameter (alat)  =      12.7269  a.u.
     unit-cell volume          =    2706.6520 (a.u.)^3
     number of atoms/cell      =           12
     number of atomic types    =            3
     number of electrons       =        80.00
     number of Kohn-Sham states=           48
     kinetic-energy cutoff     =      30.0000  Ry
     charge density cutoff     =     240.0000  Ry
     scf convergence threshold =      1.0E-06
     mixing beta               =       0.7000
     number of iterations used =            8  plain     mixing
     Exchange-correlation= PBE
                           (   1   4   3   4   0   0   0)

     celldm(1)=  12.726880  celldm(2)=   0.000000  celldm(3)=   0.000000
     celldm(4)=   0.000000  celldm(5)=   0.000000  celldm(6)=   0.000000

     crystal axes: (cart. coord. in units of alat)
               a(1) = (   1.000000   0.000000   0.000000 )
               a(2) = (   0.036133   0.999347   0.000000 )
               a(3) = (   0.349602   0.337190   1.313864 )

     reciprocal axes: (cart. coord. in units 2 pi/alat)
               b(1) = (  1.000000 -0.036157 -0.256808 )
               b(2) = (  0.000000  1.000653 -0.256808 )
               b(3) = (  0.000000  0.000000  0.761114 )

     PseudoPot. # 1 for Rb read from file:
     /home/pragov/projects/rrg-bengioy-ad/pragov/crystal_structure_design/SSSP/Rb_ONCV_PBE-1.0.oncvpsp.upf
     MD5 check sum: 55a5172d6bfbce6759a58e35d43f6aa9
     Pseudo is Norm-conserving, Zval =  9.0
     Generated using ONCVPSP code by D. R. Hamann
     Using radial grid of 2308 points,  6 beta functions with:
                l(1) =   0
                l(2) =   0
                l(3) =   1
                l(4) =   1
                l(5) =   2
                l(6) =   2

     PseudoPot. # 2 for B  read from file:
     /home/pragov/projects/rrg-bengioy-ad/pragov/crystal_structure_design/SSSP/b_pbe_v1.4.uspp.F.UPF
     MD5 check sum: cc6de2960df11db49a60e589f9ebb39b
     Pseudo is Ultrasoft + core correction, Zval =  3.0
     Generated by new atomic code, or converted to UPF format
     Using radial grid of  781 points,  4 beta functions with:
                l(1) =   0
                l(2) =   0
                l(3) =   1
                l(4) =   1
     Q(r) pseudized with  8 coefficients,  rinner =    1.100   1.100   1.100

     PseudoPot. # 3 for P  read from file:
     /home/pragov/projects/rrg-bengioy-ad/pragov/crystal_structure_design/SSSP/P.pbe-n-rrkjus_psl.1.0.0.UPF
     MD5 check sum: 8b930f418f0a4573dca56cd030ffe088
     Pseudo is Ultrasoft + core correction, Zval =  5.0
     Generated using "atomic" code by A. Dal Corso  v.5.1
     Using radial grid of 1147 points,  6 beta functions with:
                l(1) =   0
                l(2) =   0
                l(3) =   1
                l(4) =   1
                l(5) =   2
                l(6) =   2
     Q(r) pseudized with 0 coefficients

     atomic species   valence    mass     pseudopotential
        Rb             9.00    85.46780     Rb( 1.00)
        B              3.00    10.81000     B ( 1.00)
        P              5.00    30.97376     P ( 1.00)

      2 Sym. Ops., with inversion, found

                                    s                        frac. trans.

      isym =  1     identity

 cryst.   s( 1) = (     1          0          0      )
                  (     0          1          0      )
                  (     0          0          1      )

 cart.    s( 1) = (  1.0000000  0.0000000  0.0000000 )
                  (  0.0000000  1.0000000  0.0000000 )
                  (  0.0000000  0.0000000  1.0000000 )

      isym =  2     inversion

 cryst.   s( 2) = (    -1          0          0      )
                  (     0         -1          0      )
                  (     0          0         -1      )

 cart.    s( 2) = ( -1.0000000 -0.0000000 -0.0000000 )
                  (  0.0000000 -1.0000000 -0.0000000 )
                  (  0.0000000  0.0000000 -1.0000000 )

   Cartesian axes

     site n.     atom                  positions (alat units)
         1           Rb  tau(   1) = (   0.6969065   0.5740333   1.2886452  )
         2           Rb  tau(   2) = (   0.9616967   0.8294226   0.6821501  )
         3           Rb  tau(   3) = (   0.6888288   0.7625040   0.0252183  )
         4           Rb  tau(   4) = (   0.4240386   0.5071147   0.6317135  )
         5           Rb  tau(   5) = (   0.4480695   1.0969931   0.9853976  )
         6           Rb  tau(   6) = (   0.9376658   0.2395441   0.3284659  )
         7           B   tau(   7) = (   0.3326918   0.8667873   0.3284659  )
         8           B   tau(   8) = (   1.0530435   0.4697500   0.9853976  )
         9           P   tau(   9) = (   0.4997824   1.0206405   0.4640645  )
        10           P   tau(  10) = (   0.1729015   0.7053649   0.1928673  )
        11           P   tau(  11) = (   1.2128338   0.6311723   1.1209962  )
        12           P   tau(  12) = (   0.8859529   0.3158967   0.8497990  )

   Crystallographic axes

     site n.     atom                  positions (cryst. coord.)
         1           Rb  tau(   1) = (  0.3452170  0.2434740  0.9808060  )
         2           Rb  tau(   2) = (  0.7565260  0.6547830  0.5191940  )
         3           Rb  tau(   3) = (  0.6547830  0.7565260  0.0191940  )
         4           Rb  tau(   4) = (  0.2434740  0.3452170  0.4808060  )
         5           Rb  tau(   5) = (  0.1553480  0.8446520  0.7500000  )
         6           Rb  tau(   6) = (  0.8446520  0.1553480  0.2500000  )
         7           B   tau(   7) = (  0.2169990  0.7830010  0.2500000  )
         8           B   tau(   8) = (  0.7830010  0.2169990  0.7500000  )
         9           P   tau(   9) = (  0.3437040  0.9021320  0.3532060  )
        10           P   tau(  10) = (  0.0978680  0.6562960  0.1467940  )
        11           P   tau(  11) = (  0.9021320  0.3437040  0.8532060  )
        12           P   tau(  12) = (  0.6562960  0.0978680  0.6467940  )

     number of k points=     1  Methfessel-Paxton smearing, width (Ry)=  0.0010
                       cart. coord. in units 2pi/alat
        k(    1) = (   0.0000000   0.0000000   0.0000000), wk =   2.0000000

                       cryst. coord.
        k(    1) = (   0.0000000   0.0000000   0.0000000), wk =   2.0000000

     Initial potential from superposition of free atoms

     starting charge      79.8502, renormalised to      80.0000
     Starting wfcs are   54 randomized atomic wfcs

     Self-consistent Calculation

     iteration #  1     ecut=    30.00 Ry     beta= 0.70
     Davidson diagonalization with overlap

     ethr =  1.00E-02,  avg # of iterations =  5.0

     total energy              =    -362.28084858 Ry
     estimated scf accuracy    <       1.36727976 Ry

[...]

     total energy              =    -362.88587072 Ry
     estimated scf accuracy    <       0.00000470 Ry

     iteration #  9     ecut=    30.00 Ry     beta= 0.70
     Davidson diagonalization with overlap

     ethr =  5.87E-09,  avg # of iterations =  2.0

     End of self-consistent calculation

          k = 0.0000 0.0000 0.0000 (  3748 PWs)   bands (ev):

   -23.2934 -23.2854 -23.1690 -23.1630 -23.1416 -23.1375  -7.7002  -7.6447
    -7.6082  -7.5847  -7.4935  -7.4884  -7.3808  -7.3782  -7.3729  -7.2546
    -7.2485  -7.2421  -7.1952  -7.1781  -7.1622  -7.1429  -7.0895  -7.0777
    -6.1271  -5.8442  -4.9967  -4.9819  -0.1074   0.2333   1.5724   2.0350
     2.1155   2.2181   2.2265   2.2320   3.2658   3.4776   3.5270   3.5858
     5.5192   6.6487   6.8959   7.1273   7.1838   7.3294   7.5546   8.0087

     occupation numbers
     1.0000   1.0000   1.0000   1.0000   1.0000   1.0000   1.0000   1.0000
     1.0000   1.0000   1.0000   1.0000   1.0000   1.0000   1.0000   1.0000
     1.0000   1.0000   1.0000   1.0000   1.0000   1.0000   1.0000   1.0000
     1.0000   1.0000   1.0000   1.0000   1.0000   1.0000   1.0000   1.0000
     1.0000   1.0000   1.0000   1.0000   1.0000   1.0000   1.0000   1.0000
    -0.0000  -0.0000  -0.0000  -0.0000  -0.0000  -0.0000  -0.0000  -0.0000

     the Fermi energy is     4.1980 ev

!    total energy              =    -362.88587095 Ry
     estimated scf accuracy    <       0.00000063 Ry
     smearing contrib. (-TS)   =       0.00000000 Ry
     internal energy E=F+TS    =    -362.88587095 Ry

     The total energy is F=E-TS. E is the sum of the following terms:
     one-electron contribution =    -104.70433252 Ry
     hartree contribution      =      73.67910234 Ry
     xc contribution           =     -68.07290591 Ry
     ewald contribution        =    -263.78773485 Ry

     convergence has been achieved in   9 iterations

     Forces acting on atoms (cartesian axes, Ry/au):

     atom    1 type  1   force =    -0.00086678   -0.00145712    0.00855303
     atom    2 type  1   force =     0.00147861    0.00085642   -0.00854906
     atom    3 type  1   force =     0.00086678    0.00145712   -0.00855303
     atom    4 type  1   force =    -0.00147861   -0.00085642    0.00854906
     atom    5 type  1   force =     0.00464086   -0.00480802   -0.00004493
     atom    6 type  1   force =    -0.00464086    0.00480802    0.00004493
     atom    7 type  2   force =    -0.00038086    0.00046246    0.00003279
     atom    8 type  2   force =     0.00038086   -0.00046246   -0.00003279
     atom    9 type  3   force =    -0.00270500   -0.00330217   -0.01390056
     atom   10 type  3   force =     0.00334387    0.00252308    0.01382266
     atom   11 type  3   force =    -0.00334387   -0.00252308   -0.01382266
     atom   12 type  3   force =     0.00270500    0.00330217    0.01390056
     The non-local contrib.  to forces
     atom    1 type  1   force =    -0.00134842    0.01658401    0.00390797
     atom    2 type  1   force =    -0.01651908    0.00194338   -0.00390235
     atom    3 type  1   force =     0.00134842   -0.01658401   -0.00390797
     atom    4 type  1   force =     0.01651908   -0.00194338    0.00390235
     atom    5 type  1   force =    -0.00331195    0.00342745    0.00002293
     atom    6 type  1   force =     0.00331195   -0.00342745   -0.00002293
     atom    7 type  2   force =    -0.01277861    0.01321964    0.00001202
     atom    8 type  2   force =     0.01277861   -0.01321964   -0.00001202
     atom    9 type  3   force =    -0.03471005   -0.02014885   -0.01746999
     atom   10 type  3   force =     0.02140712    0.03396265    0.01743966
     atom   11 type  3   force =    -0.02140712   -0.03396265   -0.01743966
     atom   12 type  3   force =     0.03471005    0.02014885    0.01746999
     The ionic contribution  to forces
     atom    1 type  1   force =     0.06385362    1.21851049   -0.40105744
     atom    2 type  1   force =    -1.22002202   -0.01978345    0.40105744
     atom    3 type  1   force =    -0.06385362   -1.21851049    0.40105744
     atom    4 type  1   force =     1.22002202    0.01978345   -0.40105744
     atom    5 type  1   force =     0.98430788   -1.02054033    0.00000000
     atom    6 type  1   force =    -0.98430788    1.02054033   -0.00000000
     atom    7 type  2   force =     0.00596469   -0.00618425    0.00000000
     atom    8 type  2   force =    -0.00596469    0.00618425    0.00000000
     atom    9 type  3   force =     1.46950314    1.14907803    1.15371998
     atom   10 type  3   force =    -1.20142527   -1.42702387   -1.15371998
     atom   11 type  3   force =     1.20142527    1.42702386    1.15371998
     atom   12 type  3   force =    -1.46950314   -1.14907803   -1.15371998
     The local contribution  to forces
     atom    1 type  1   force =    -0.06326742   -1.23691253    0.40597399
     atom    2 type  1   force =     1.23842785    0.01849294   -0.40592635
     atom    3 type  1   force =     0.06296358    1.23685685   -0.40559675
     atom    4 type  1   force =    -1.23829117   -0.01812401    0.40547843
     atom    5 type  1   force =    -0.97658946    1.01244694    0.00037275
     atom    6 type  1   force =     0.97674692   -1.01262643   -0.00037154
     atom    7 type  2   force =     0.00584782   -0.00604089   -0.00011080
     atom    8 type  2   force =    -0.00587401    0.00601947    0.00011603
     atom    9 type  3   force =    -1.43574525   -1.12991955   -1.14828373
     atom   10 type  3   force =     1.18089348    1.39383765    1.14788845
     atom   11 type  3   force =    -1.18042836   -1.39340075   -1.14746620
     atom   12 type  3   force =     1.43530478    1.12949954    1.14790822
     The core correction contribution to forces
     atom    1 type  1   force =     0.00000000    0.00000000    0.00000000
     atom    2 type  1   force =     0.00000000    0.00000000    0.00000000
     atom    3 type  1   force =     0.00000000    0.00000000    0.00000000
     atom    4 type  1   force =     0.00000000    0.00000000    0.00000000
     atom    5 type  1   force =     0.00000000    0.00000000    0.00000000
     atom    6 type  1   force =     0.00000000    0.00000000    0.00000000
     atom    7 type  2   force =     0.00053485   -0.00055391   -0.00000042
     atom    8 type  2   force =    -0.00053600    0.00055307   -0.00000002
     atom    9 type  3   force =    -0.00232878   -0.00281336   -0.00250243
     atom   10 type  3   force =     0.00289312    0.00222345    0.00249987
     atom   11 type  3   force =    -0.00288849   -0.00221944   -0.00249692
     atom   12 type  3   force =     0.00232510    0.00281001    0.00249958
     The Hubbard contrib.    to forces
     atom    1 type  1   force =     0.00000000    0.00000000    0.00000000
     atom    2 type  1   force =     0.00000000    0.00000000    0.00000000
     atom    3 type  1   force =     0.00000000    0.00000000    0.00000000
     atom    4 type  1   force =     0.00000000    0.00000000    0.00000000
     atom    5 type  1   force =     0.00000000    0.00000000    0.00000000
     atom    6 type  1   force =     0.00000000    0.00000000    0.00000000
     atom    7 type  2   force =     0.00000000    0.00000000    0.00000000
     atom    8 type  2   force =     0.00000000    0.00000000    0.00000000
     atom    9 type  3   force =     0.00000000    0.00000000    0.00000000
     atom   10 type  3   force =     0.00000000    0.00000000    0.00000000
     atom   11 type  3   force =     0.00000000    0.00000000    0.00000000
     atom   12 type  3   force =     0.00000000    0.00000000    0.00000000
     The SCF correction term to forces
     atom    1 type  1   force =    -0.00009555    0.00038235   -0.00030745
     atom    2 type  1   force =    -0.00042296    0.00019526    0.00025918
     atom    3 type  1   force =     0.00041741   -0.00028377   -0.00014172
     atom    4 type  1   force =     0.00025662   -0.00058076    0.00026271
     atom    5 type  1   force =     0.00021606   -0.00013812   -0.00042332
     atom    6 type  1   force =    -0.00041019    0.00032553    0.00045668
     atom    7 type  2   force =     0.00003942    0.00000842    0.00012724
     atom    8 type  2   force =    -0.00003400   -0.00001307   -0.00014153
     atom    9 type  3   force =     0.00053619    0.00046393    0.00060741
     atom   10 type  3   force =    -0.00036675   -0.00042208   -0.00024545
     atom   11 type  3   force =     0.00001266    0.00009063   -0.00009996
     atom   12 type  3   force =    -0.00017154   -0.00011584   -0.00028545

     Total force =     0.035132     Total SCF correction =     0.001853

     Computing stress (Cartesian axis) and pressure

          total   stress  (Ry/bohr**3)                   (kbar)     P=       -5.63
  -0.00006355   0.00001930  -0.00001298           -9.35        2.84       -1.91
   0.00001930  -0.00006494  -0.00001252            2.84       -9.55       -1.84
  -0.00001298  -0.00001252   0.00001370           -1.91       -1.84        2.01

     kinetic stress (kbar)   4074.22    -49.08    -36.85
                              -49.08   4077.77    -35.54
                              -36.85    -35.54   4112.18

     local   stress (kbar)     30.52   -246.77     11.49
                             -246.77     48.36     11.09
                               11.49     11.09    -20.29

     nonloc. stress (kbar)    437.91     19.79     17.52
                               19.79    436.48     16.90
                               17.52     16.90    432.53

     hartree stress (kbar)   1311.55     -0.79    -86.12
                               -0.79   1311.61    -83.07
                              -86.12    -83.07   1381.26

     exc-cor stress (kbar)   -799.80      2.29      2.12
                                2.29   -799.97      2.05
                                2.12      2.05   -799.83

     corecor stress (kbar)   -305.27     -2.39     -2.20
                               -2.39   -305.09     -2.12
                               -2.20     -2.12   -304.30

     ewald   stress (kbar)  -4758.48    279.79     92.13
                              279.79  -4778.71     88.86
                               92.13     88.86  -4799.53

     hubbard stress (kbar)      0.00      0.00      0.00
                                0.00      0.00      0.00
                                0.00      0.00      0.00

     DFT-D   stress (kbar)      0.00      0.00      0.00
                                0.00      0.00      0.00
                                0.00      0.00      0.00

     XDM     stress (kbar)      0.00      0.00      0.00
                                0.00      0.00      0.00
                                0.00      0.00      0.00

     dft-nl  stress (kbar)      0.00      0.00      0.00
                                0.00      0.00      0.00
                                0.00      0.00      0.00

     TS-vdW  stress (kbar)      0.00      0.00      0.00
                                0.00      0.00      0.00
                                0.00      0.00      0.00

[...]

                                0.00      0.00      0.00

     Writing all to output data dir new_calculations/myprefix.save/

     General routines

     Parallel routines

   This run was terminated on:   5:16: 9  20May2023

   JOB DONE.