     Program PWSCF v.7.0 starts on 20May2023 at 17:43:45

     Reading input from espresso_11497.pwi
Warning: card &CELL ignored
Warning: card / ignored

     Current dimensions of program PWSCF are:
     Max number of different atomic species (ntypx) = 10
     Max number of k-points (npk) =  40000
     Max angular momentum in pseudopotentials (lmaxx) =  4

     gamma-point specific algorithms are used
     Message from routine setup:
     using ibrav=0 with symmetry is DISCOURAGED, use correct ibrav instead

     Subspace diagonalization in iterative solution of the eigenvalue problem:
     a serial algorithm will be used

     Using Slab Decomposition

     bravais-lattice index     =            0
     lattice parameter (alat)  =      16.0941  a.u.
     unit-cell volume          =    2947.7101 (a.u.)^3
     number of atoms/cell      =           10
     number of atomic types    =            4
     number of electrons       =        84.00
     number of Kohn-Sham states=           50
     kinetic-energy cutoff     =      30.0000  Ry
     charge density cutoff     =     240.0000  Ry
     scf convergence threshold =      1.0E-06
     mixing beta               =       0.7000
     number of iterations used =            8  plain     mixing
     Exchange-correlation=  SLA  PW   PBX  PBC
                           (   1   4   3   4   0   0   0)

     celldm(1)=  16.094096  celldm(2)=   0.000000  celldm(3)=   0.000000
     celldm(4)=   0.000000  celldm(5)=   0.000000  celldm(6)=   0.000000

     crystal axes: (cart. coord. in units of alat)
               a(1) = (   1.000000   0.000000   0.000000 )
               a(2) = (   0.500000   0.866025   0.000000 )
               a(3) = (   0.500000   0.288675   0.816497 )

     reciprocal axes: (cart. coord. in units 2 pi/alat)
               b(1) = (  1.000000 -0.577350 -0.408248 )
               b(2) = (  0.000000  1.154701 -0.408248 )
               b(3) = (  0.000000  0.000000  1.224745 )

     PseudoPot. # 1 for Cs read from file:
     /home/pragov/projects/rrg-bengioy-ad/pragov/crystal_structure_design/SSSP/Cs_pbe_v1.uspp.F.UPF
     MD5 check sum: 3476d69cb178dfad3ffaa59df4e07ca4
     Pseudo is Ultrasoft + core correction, Zval =  9.0
     Generated by new atomic code, or converted to UPF format
     Using radial grid of  905 points,  6 beta functions with:
                l(1) =   0
                l(2) =   0
                l(3) =   1
                l(4) =   1
                l(5) =   2
                l(6) =   2
     Q(r) pseudized with  6 coefficients,  rinner =    1.500   1.500   1.500
                                                       1.500   1.500

     PseudoPot. # 2 for Y  read from file:
     /home/pragov/projects/rrg-bengioy-ad/pragov/crystal_structure_design/SSSP/Y_pbe_v1.uspp.F.UPF
     MD5 check sum: 2cf71db95cafeb975fc457bd7f14888e
     Pseudo is Ultrasoft + core correction, Zval = 11.0
     Generated by new atomic code, or converted to UPF format
     Using radial grid of  885 points,  6 beta functions with:
                l(1) =   0
                l(2) =   0
                l(3) =   1
                l(4) =   1
                l(5) =   2
                l(6) =   2
     Q(r) pseudized with  6 coefficients,  rinner =    1.200   1.200   1.200
                                                       1.200   1.200

     PseudoPot. # 3 for Tl read from file:
     /home/pragov/projects/rrg-bengioy-ad/pragov/crystal_structure_design/SSSP/Tl_pbe_v1.2.uspp.F.UPF
     MD5 check sum: b76cf1f7e72655a2b2c53cf6385d7059
     Pseudo is Ultrasoft + core correction, Zval = 13.0
     Generated by new atomic code, or converted to UPF format
     Using radial grid of  899 points,  6 beta functions with:
                l(1) =   0
                l(2) =   0
                l(3) =   1
                l(4) =   1
                l(5) =   2
                l(6) =   2
     Q(r) pseudized with  6 coefficients,  rinner =    1.100   1.100   1.100
                                                       1.100   1.100

     PseudoPot. # 4 for Br read from file:
     /home/pragov/projects/rrg-bengioy-ad/pragov/crystal_structure_design/SSSP/br_pbe_v1.4.uspp.F.UPF
     MD5 check sum: d3ffb7b29f6225aa16fe06858fb2a80b
     Pseudo is Ultrasoft + core correction, Zval =  7.0
     Generated by new atomic code, or converted to UPF format
     Using radial grid of  879 points,  6 beta functions with:
                l(1) =   0
                l(2) =   0
                l(3) =   1
                l(4) =   1
                l(5) =   2
                l(6) =   2
     Q(r) pseudized with  8 coefficients,  rinner =    1.100   1.100   1.100
                                                       1.100   1.100

     atomic species   valence    mass     pseudopotential
        Cs             9.00   132.90545     Cs( 1.00)
        Y             11.00    88.90584     Y ( 1.00)
        Tl            13.00   204.38000     Tl( 1.00)
        Br             7.00    79.90400     Br( 1.00)

     12 Sym. Ops., with inversion, found

                                    s                        frac. trans.

      isym =  1     identity

 cryst.   s( 1) = (     1          0          0      )
                  (     0          1          0      )
                  (     0          0          1      )

 cart.    s( 1) = (  1.0000000  0.0000000  0.0000000 )
                  (  0.0000000  1.0000000  0.0000000 )
                  (  0.0000000  0.0000000  1.0000000 )

      isym =  2     180 deg rotation - cart. axis [1,0,0]

[...]

      isym =  3     120 deg rotation - cryst. axis [0,0,1]

[...]

      isym =  6     180 deg rotation - cryst. axis [1,1,0]

[...]

      isym =  7     inversion

[...]

      isym =  8     inv. 180 deg rotation - cart. axis [1,0,0]

[...]

      isym =  9     inv. 120 deg rotation - cryst. axis [0,0,1]

 cryst.   s( 9) = (     1         -1          0      )
                  (     1          0          0      )
                  (     1          0         -1      )

 cart.    s( 9) = (  0.5000000  0.8660254  0.0000000 )
                  ( -0.8660254  0.5000000  0.0000000 )
                  (  0.0000000  0.0000000 -1.0000000 )

[...]

 cryst.   s(10) = (     0          1          0      )
                  (    -1          1          0      )
                  (     0          1         -1      )

 cart.    s(10) = (  0.5000000 -0.8660254 -0.0000000 )
                  (  0.8660254  0.5000000  0.0000000 )
                  (  0.0000000  0.0000000 -1.0000000 )

[...]

      isym = 12     inv. 180 deg rotation - cryst. axis [1,1,0]

 cryst.   s(12) = (     1         -1          0      )
                  (     0         -1          0      )
                  (     0         -1          1      )

 cart.    s(12) = (  0.5000000 -0.8660254 -0.0000000 )
                  ( -0.8660254 -0.5000000 -0.0000000 )
                  (  0.0000000  0.0000000  1.0000000 )

   Cartesian axes

     site n.     atom                  positions (alat units)
         1           Cs  tau(   1) = (   1.5000000   0.8660254   0.6123724  )
         2           Cs  tau(   2) = (   0.5000000   0.2886751   0.2041241  )
         3           Y   tau(   3) = (   0.0000000   0.0000000   0.0000000  )
         4           Tl  tau(   4) = (   1.0000000   0.5773503   0.4082483  )
         5           Br  tau(   5) = (   1.0000000   0.2685556   0.1898975  )
         6           Br  tau(   6) = (   0.7325760   0.4229530   0.6265991  )
         7           Br  tau(   7) = (   1.0000000   0.8861449   0.6265991  )
         8           Br  tau(   8) = (   0.7325760   0.7317476   0.1898975  )
         9           Br  tau(   9) = (   1.2674240   0.4229530   0.6265991  )
        10           Br  tau(  10) = (   1.2674240   0.7317476   0.1898975  )

   Crystallographic axes

     site n.     atom                  positions (cryst. coord.)
         1           Cs  tau(   1) = (  0.7500000  0.7500000  0.7500000  )
         2           Cs  tau(   2) = (  0.2500000  0.2500000  0.2500000  )
         3           Y   tau(   3) = (  0.0000000  0.0000000  0.0000000  )
         4           Tl  tau(   4) = (  0.5000000  0.5000000  0.5000000  )
         5           Br  tau(   5) = (  0.7674240  0.2325760  0.2325760  )
         6           Br  tau(   6) = (  0.2325760  0.2325760  0.7674240  )
         7           Br  tau(   7) = (  0.2325760  0.7674240  0.7674240  )
         8           Br  tau(   8) = (  0.2325760  0.7674240  0.2325760  )
         9           Br  tau(   9) = (  0.7674240  0.2325760  0.7674240  )
        10           Br  tau(  10) = (  0.7674240  0.7674240  0.2325760  )

     number of k points=     1  Methfessel-Paxton smearing, width (Ry)=  0.0010
                       cart. coord. in units 2pi/alat
        k(    1) = (   0.0000000   0.0000000   0.0000000), wk =   2.0000000

                       cryst. coord.
        k(    1) = (   0.0000000   0.0000000   0.0000000), wk =   2.0000000

     Check: negative core charge=   -0.000003

     Initial potential from superposition of free atoms

     starting charge      83.9118, renormalised to      84.0000

     negative rho (up, down):  9.409E-02 0.000E+00
     Starting wfcs are   72 randomized atomic wfcs

     Self-consistent Calculation

     iteration #  1     ecut=    30.00 Ry     beta= 0.70
     Davidson diagonalization with overlap

     ethr =  1.00E-02,  avg # of iterations =  2.0

     Threshold (ethr) on eigenvalues was too large:
     Diagonalizing with lowered threshold

     Davidson diagonalization with overlap

[...]

     negative rho (up, down):  9.477E-02 0.000E+00

     total energy              =    -640.71281664 Ry
     estimated scf accuracy    <       0.32786931 Ry

[...]

     total energy              =    -640.82208944 Ry
     estimated scf accuracy    <       0.00000562 Ry

     iteration #  7     ecut=    30.00 Ry     beta= 0.70
     Davidson diagonalization with overlap

     ethr =  6.69E-09,  avg # of iterations =  5.0

[...]

     End of self-consistent calculation

          k = 0.0000 0.0000 0.0000 (  4050 PWs)   bands (ev):

   -39.6068 -19.6106 -19.6106 -19.6105 -18.6364 -18.6348 -11.1874 -10.9418
   -10.9414 -10.8961 -10.8957 -10.8955  -7.5070  -7.5070  -7.5069  -7.5059
    -7.5058  -5.4389  -5.4389  -5.4389  -5.4151  -5.4151  -5.4151  -2.6158
    -0.0232  -0.0231  -0.0230   0.2533   0.2534   0.2535   0.2805   0.2808
     0.8489   1.1693   1.1694   1.1695   1.3215   1.3216   1.3216   1.6477
     1.6478   1.6480   6.0323   6.0323   6.0323   6.0397   6.4910   6.4911
     6.4911   7.2175

     occupation numbers
     1.0000   1.0000   1.0000   1.0000   1.0000   1.0000   1.0000   1.0000
     1.0000   1.0000   1.0000   1.0000   1.0000   1.0000   1.0000   1.0000
     1.0000   1.0000   1.0000   1.0000   1.0000   1.0000   1.0000   1.0000
     1.0000   1.0000   1.0000   1.0000   1.0000   1.0000   1.0000   1.0000
     1.0000   1.0000   1.0000   1.0000   1.0000   1.0000   1.0000   1.0000
     1.0000   1.0000  -0.0000  -0.0000  -0.0000  -0.0000  -0.0000  -0.0000
    -0.0000  -0.0000

     the Fermi energy is     4.4101 ev

!    total energy              =    -640.82209170 Ry
     estimated scf accuracy    <       0.00000020 Ry
     smearing contrib. (-TS)   =       0.00000000 Ry
     internal energy E=F+TS    =    -640.82209170 Ry

     The total energy is F=E-TS. E is the sum of the following terms:
     one-electron contribution =    -158.06483348 Ry
     hartree contribution      =     110.78422312 Ry
     xc contribution           =    -301.65666325 Ry
     ewald contribution        =    -291.88481808 Ry

     convergence has been achieved in   7 iterations

     negative rho (up, down):  9.461E-02 0.000E+00

     Forces acting on atoms (cartesian axes, Ry/au):

     atom    1 type  1   force =     0.00000000    0.00000000    0.00001578
     atom    2 type  1   force =     0.00000000    0.00000000   -0.00001578
     atom    3 type  2   force =     0.00000000    0.00000000   -0.00000000
     atom    4 type  3   force =    -0.00000000   -0.00000000    0.00000000
     atom    5 type  4   force =     0.00000000   -0.00145390   -0.00103051
     atom    6 type  4   force =    -0.00125911   -0.00072695    0.00103051
     atom    7 type  4   force =     0.00000000    0.00145390    0.00103051
     atom    8 type  4   force =    -0.00125911    0.00072695   -0.00103051
     atom    9 type  4   force =     0.00125911   -0.00072695    0.00103051
     atom   10 type  4   force =     0.00125911    0.00072695   -0.00103051
     The non-local contrib.  to forces
     atom    1 type  1   force =     0.00000000    0.00000000   -0.00005713
     atom    2 type  1   force =     0.00000000    0.00000000    0.00005713
     atom    3 type  2   force =     0.00000000    0.00000000   -0.00000000
     atom    4 type  3   force =     0.00000000    0.00000000    0.00000000
     atom    5 type  4   force =     0.00000000   -0.01268961   -0.00895097
     atom    6 type  4   force =    -0.01098952   -0.00634480    0.00895097
     atom    7 type  4   force =     0.00000000    0.01268961    0.00895097
     atom    8 type  4   force =    -0.01098952    0.00634480   -0.00895097
     atom    9 type  4   force =     0.01098952   -0.00634480    0.00895097
     atom   10 type  4   force =     0.01098952    0.00634480   -0.00895097
     The ionic contribution  to forces
     atom    1 type  1   force =    -0.00000000   -0.00000000   -0.00000000
     atom    2 type  1   force =     0.00000000   -0.00000000    0.00000000
     atom    3 type  2   force =     0.00000000    0.00000000    0.00000000
     atom    4 type  3   force =     0.00000000    0.00000000   -0.00000000
     atom    5 type  4   force =     0.00000000    1.68800563    1.19360023
     atom    6 type  4   force =     1.46185576    0.84400282   -1.19360023
     atom    7 type  4   force =    -0.00000000   -1.68800563   -1.19360023
     atom    8 type  4   force =     1.46185576   -0.84400282    1.19360023
     atom    9 type  4   force =    -1.46185576    0.84400282   -1.19360023
     atom   10 type  4   force =    -1.46185576   -0.84400282    1.19360023
     The local contribution  to forces
     atom    1 type  1   force =    -0.00009514   -0.00013253   -0.00000430
     atom    2 type  1   force =    -0.00000841    0.00005052   -0.00000022
     atom    3 type  2   force =    -0.00002640   -0.00003535   -0.00003537
     atom    4 type  3   force =     0.00026231    0.00010967   -0.00004128
     atom    5 type  4   force =    -0.00005639   -1.68117914   -1.18876185
     atom    6 type  4   force =    -1.45599816   -0.84064838    1.18869637
     atom    7 type  4   force =     0.00006839    1.68116163    1.18876909
     atom    8 type  4   force =    -1.45598086    0.84049886   -1.18874314
     atom    9 type  4   force =     1.45597496   -0.84049174    1.18870212
     atom   10 type  4   force =     1.45596428    0.84055894   -1.18865279
     The core correction contribution to forces
     atom    1 type  1   force =    -0.00001625   -0.00000050    0.00001552
     atom    2 type  1   force =     0.00000060   -0.00000684   -0.00001387
     atom    3 type  2   force =     0.00000113    0.00000205   -0.00000026
     atom    4 type  3   force =     0.00000463    0.00000358   -0.00000023
     atom    5 type  4   force =     0.00000103    0.00421152    0.00297777
     atom    6 type  4   force =     0.00364173    0.00210341   -0.00297697
     atom    7 type  4   force =     0.00000207   -0.00420649   -0.00297732
     atom    8 type  4   force =     0.00363789   -0.00210227    0.00297436
     atom    9 type  4   force =    -0.00364140    0.00210266   -0.00297635
     atom   10 type  4   force =    -0.00364453   -0.00210166    0.00297804
     The Hubbard contrib.    to forces
     atom    1 type  1   force =     0.00000000    0.00000000    0.00000000
     atom    2 type  1   force =     0.00000000    0.00000000    0.00000000
     atom    3 type  2   force =     0.00000000    0.00000000    0.00000000
     atom    4 type  3   force =     0.00000000    0.00000000    0.00000000
     atom    5 type  4   force =     0.00000000    0.00000000    0.00000000
     atom    6 type  4   force =     0.00000000    0.00000000    0.00000000
     atom    7 type  4   force =     0.00000000    0.00000000    0.00000000
     atom    8 type  4   force =     0.00000000    0.00000000    0.00000000
     atom    9 type  4   force =     0.00000000    0.00000000    0.00000000
     atom   10 type  4   force =     0.00000000    0.00000000    0.00000000
     The SCF correction term to forces
     atom    1 type  1   force =     0.00006359    0.00009399    0.00005720
     atom    2 type  1   force =    -0.00002656   -0.00007650   -0.00006330
     atom    3 type  2   force =     0.00004232    0.00005862    0.00003597
     atom    4 type  3   force =    -0.00028577   -0.00008978    0.00007952
     atom    5 type  4   force =     0.00006239    0.00016440    0.00011259
     atom    6 type  4   force =     0.00024289    0.00016080   -0.00003014
     atom    7 type  4   force =    -0.00010101   -0.00018682   -0.00011537
     atom    8 type  4   force =     0.00024742    0.00000632    0.00010398
     atom    9 type  4   force =    -0.00022176   -0.00001498   -0.00004599
     atom   10 type  4   force =    -0.00019364   -0.00007776   -0.00002218

     Total force =     0.004365     Total SCF correction =     0.000696
     SCF correction compared to forces is large: reduce conv_thr to get better values

     Computing stress (Cartesian axis) and pressure

     negative rho (up, down):  9.461E-02 0.000E+00
          total   stress  (Ry/bohr**3)                   (kbar)     P=       12.14
   0.00008253  -0.00000000   0.00000000           12.14       -0.00        0.00
   0.00000000   0.00008253   0.00000000            0.00       12.14        0.00
   0.00000000   0.00000000   0.00008250            0.00        0.00       12.14

     kinetic stress (kbar)   3696.84      0.00      0.00
                                0.00   3696.84      0.00
                               -0.00      0.00   3696.84

     local   stress (kbar)   -639.36      0.01     -0.00
                                0.01   -639.35      0.01
                               -0.00      0.01   -639.36

     nonloc. stress (kbar)   1744.16     -0.00     -0.00
                               -0.00   1744.16      0.00
                               -0.00      0.00   1744.15

     hartree stress (kbar)   1842.89     -0.01      0.00
                               -0.01   1842.89     -0.01
                                0.00     -0.01   1842.89

     exc-cor stress (kbar)   9795.89     -0.00     -0.00
                               -0.00   9795.89      0.00
                               -0.00      0.00   9795.89

     corecor stress (kbar) -11572.78      0.00     -0.00
                                0.00 -11572.78     -0.00
                               -0.00     -0.00 -11572.78

     ewald   stress (kbar)  -4855.49      0.00     -0.00
                                0.00  -4855.49      0.00
                               -0.00      0.00  -4855.49

     hubbard stress (kbar)      0.00      0.00      0.00
                                0.00      0.00      0.00
                                0.00      0.00      0.00

     DFT-D   stress (kbar)      0.00      0.00      0.00
                                0.00      0.00      0.00
                                0.00      0.00      0.00

     XDM     stress (kbar)      0.00      0.00      0.00
                                0.00      0.00      0.00
                                0.00      0.00      0.00

     dft-nl  stress (kbar)      0.00      0.00      0.00
                                0.00      0.00      0.00
                                0.00      0.00      0.00

     TS-vdW  stress (kbar)      0.00      0.00      0.00
                                0.00      0.00      0.00
                                0.00      0.00      0.00

[...]

                                0.00      0.00      0.00

     Writing all to output data dir new_calculations/myprefix.save/

     General routines

     Parallel routines

   This run was terminated on:  17:44:15  20May2023

   JOB DONE.