     Program PWSCF v.7.0 starts on 20May2023 at 15:34:17

     Reading input from espresso_9462.pwi
Warning: card &CELL ignored
Warning: card / ignored

     Current dimensions of program PWSCF are:
     Max number of different atomic species (ntypx) = 10
     Max number of k-points (npk) =  40000
     Max angular momentum in pseudopotentials (lmaxx) =  4
     file O.pbe-n-kjpaw_psl.0.1.UPF: wavefunction(s)  2P renormalized

     gamma-point specific algorithms are used

     Subspace diagonalization in iterative solution of the eigenvalue problem:
     a serial algorithm will be used

     Using Slab Decomposition

     bravais-lattice index     =            0
     lattice parameter (alat)  =      11.7757  a.u.
     unit-cell volume          =     888.4496 (a.u.)^3
     number of atoms/cell      =            9
     number of atomic types    =            4
     number of electrons       =        81.00
     number of Kohn-Sham states=           49
     kinetic-energy cutoff     =      30.0000  Ry
     charge density cutoff     =     240.0000  Ry
     scf convergence threshold =      1.0E-06
     mixing beta               =       0.7000
     number of iterations used =            8  plain     mixing
     Exchange-correlation= SLA  PW   PBX  PBC
                           (   1   4   3   4   0   0   0)

     celldm(1)=  11.775666  celldm(2)=   0.000000  celldm(3)=   0.000000
     celldm(4)=   0.000000  celldm(5)=   0.000000  celldm(6)=   0.000000

     crystal axes: (cart. coord. in units of alat)
               a(1) = (   1.000000   0.000000   0.000000 )
               a(2) = (   0.833335   0.552769   0.000000 )
               a(3) = (   0.885815   0.267082   0.984312 )

     reciprocal axes: (cart. coord. in units 2 pi/alat)
               b(1) = (  1.000000 -1.507565 -0.490872 )
               b(2) = (  0.000000  1.809075 -0.490872 )
               b(3) = (  0.000000  0.000000  1.015938 )

     PseudoPot. # 1 for Rb read from file:
     /home/pragov/projects/rrg-bengioy-ad/pragov/crystal_structure_design/SSSP/Rb_ONCV_PBE-1.0.oncvpsp.upf
     MD5 check sum: 55a5172d6bfbce6759a58e35d43f6aa9
     Pseudo is Norm-conserving, Zval =  9.0
     Generated using ONCVPSP code by D. R. Hamann
     Using radial grid of 2308 points,  6 beta functions with:
                l(1) =   0
                l(2) =   0
                l(3) =   1
                l(4) =   1
                l(5) =   2
                l(6) =   2

     PseudoPot. # 2 for Li read from file:
     /home/pragov/projects/rrg-bengioy-ad/pragov/crystal_structure_design/SSSP/li_pbe_v1.4.uspp.F.UPF
     MD5 check sum: e912e257baa3777c20ea3d68f190483c
     Pseudo is Ultrasoft, Zval =  3.0
     Generated by new atomic code, or converted to UPF format
     Using radial grid of  751 points,  5 beta functions with:
                l(1) =   0
                l(2) =   0
                l(3) =   0
                l(4) =   1
                l(5) =   1
     Q(r) pseudized with 10 coefficients,  rinner =    1.150   1.150   1.150

     PseudoPot. # 3 for Mn read from file:
     /home/pragov/projects/rrg-bengioy-ad/pragov/crystal_structure_design/SSSP/mn_pbe_v1.5.uspp.F.UPF
     MD5 check sum: 82ef2b46521d7a7d9e736dc3972e4928
     Pseudo is Ultrasoft + core correction, Zval = 15.0
     Generated by new atomic code, or converted to UPF format
     Using radial grid of  859 points,  6 beta functions with:
                l(1) =   0
                l(2) =   0
                l(3) =   1
                l(4) =   1
                l(5) =   2
                l(6) =   2
     Q(r) pseudized with  8 coefficients,  rinner =    0.950   0.950   0.950
                                                       0.950   0.950

     PseudoPot. # 4 for O  read from file:
     /home/pragov/projects/rrg-bengioy-ad/pragov/crystal_structure_design/SSSP/O.pbe-n-kjpaw_psl.0.1.UPF
     MD5 check sum: 0234752ac141de4415c5fc33072bef88
     Pseudo is Projector augmented-wave + core cor, Zval =  6.0
     Generated using "atomic" code by A. Dal Corso  v.5.0.99 svn rev. 10869
     Shape of augmentation charge: BESSEL
     Using radial grid of 1095 points,  4 beta functions with:
                l(1) =   0
                l(2) =   0
                l(3) =   1
                l(4) =   1
     Q(r) pseudized with 0 coefficients

     atomic species   valence    mass     pseudopotential
        Rb             9.00    85.46780     Rb( 1.00)
        Li             3.00     6.94000     Li( 1.00)
        Mn            15.00    54.93804     Mn( 1.00)
        O              6.00    15.99900     O ( 1.00)

     No symmetry found

                                    s                        frac. trans.

      isym =  1     identity

 cryst.   s( 1) = (     1          0          0      )
                  (     0          1          0      )
                  (     0          0          1      )

 cart.    s( 1) = (  1.0000000  0.0000000  0.0000000 )
                  (  0.0000000  1.0000000  0.0000000 )
                  (  0.0000000  0.0000000  1.0000000 )

   Cartesian axes

     site n.     atom                  positions (alat units)
         1           Rb  tau(   1) = (   0.8985176   0.2709120   0.9804291  )
         2           Li  tau(   2) = (   2.2178898   0.6687160   0.7969720  )
         3           Mn  tau(   3) = (   0.5052055   0.1523245   0.1543283  )
         4           Mn  tau(   4) = (   1.0887511   0.3282693   0.4605617  )
         5           Mn  tau(   5) = (   1.6321312   0.4921039   0.5481261  )
         6           O   tau(   6) = (   0.7519988   0.2267352   0.3700738  )
         7           O   tau(   7) = (   1.2594066   0.3797237   0.1803230  )
         8           O   tau(   8) = (   1.4466481   0.4361789   0.8096332  )
         9           O   tau(   9) = (   1.9618612   0.5915208   0.6211158  )

   Crystallographic axes

     site n.     atom                  positions (cryst. coord.)
         1           Rb  tau(   1) = (  0.0088350  0.0088350  0.9960550  )
         2           Li  tau(   2) = (  0.8185460  0.8185460  0.8096740  )
         3           Mn  tau(   3) = (  0.1998110  0.1998110  0.1567880  )
         4           Mn  tau(   4) = (  0.3677870  0.3677870  0.4679020  )
         5           Mn  tau(   5) = (  0.6211930  0.6211930  0.5568620  )
         6           O   tau(   6) = (  0.2285220  0.2285220  0.3759720  )
         7           O   tau(   7) = (  0.5984330  0.5984330  0.1831970  )
         8           O   tau(   8) = (  0.3916540  0.3916540  0.8225370  )
         9           O   tau(   9) = (  0.7652170  0.7652170  0.6310150  )

     number of k points=     1  Methfessel-Paxton smearing, width (Ry)=  0.0010
                       cart. coord. in units 2pi/alat
        k(    1) = (   0.0000000   0.0000000   0.0000000), wk =   2.0000000

                       cryst. coord.
        k(    1) = (   0.0000000   0.0000000   0.0000000), wk =   2.0000000

     Check: negative core charge=   -0.000025

     Initial potential from superposition of free atoms

     starting charge      79.0242, renormalised to      81.0000
     Starting wfcs are   65 randomized atomic wfcs
     Checking if some PAW data can be deallocated...

     Self-consistent Calculation

     iteration #  1     ecut=    30.00 Ry     beta= 0.70
     Davidson diagonalization with overlap

     ethr =  1.00E-02,  avg # of iterations =  2.0

     total energy              =    -858.15563914 Ry
     estimated scf accuracy    <       7.17527151 Ry

[...]

     total energy              =    -863.06672944 Ry
     estimated scf accuracy    <       0.00000667 Ry

     iteration # 25     ecut=    30.00 Ry     beta= 0.70
     Davidson diagonalization with overlap

     ethr =  8.24E-09,  avg # of iterations =  1.0

     End of self-consistent calculation

          k = 0.0000 0.0000 0.0000 (  1232 PWs)   bands (ev):

   -70.9293 -70.8753 -70.7484 -39.9239 -39.9158 -39.9073 -39.8659 -39.8429
   -39.6167 -39.2136 -39.0401 -39.0064 -37.0161 -18.9141 -11.0329 -10.8166
   -10.6596  -9.5708  -3.2368  -3.1772  -2.6265   2.2543   2.8485   2.9830
     3.1789   3.2220   3.3725   3.5415   3.6167   3.7398   4.1093   4.9466
     5.0698   7.7311   7.8339   7.9045   8.1165   8.3422   8.3966   8.5300
     8.6228   8.7293   8.7707   8.9355   8.9453   9.1537   9.4822   9.5187
     9.6784

     occupation numbers
     1.0000   1.0000   1.0000   1.0000   1.0000   1.0000   1.0000   1.0000
     1.0000   1.0000   1.0000   1.0000   1.0000   1.0000   1.0000   1.0000
     1.0000   1.0000   1.0000   1.0000   1.0000   1.0000   1.0000   1.0000
     1.0000   1.0000   1.0000   1.0000   1.0000   1.0000   1.0000   1.0000
     1.0000   1.0000   1.0000   1.0000   1.0000   1.0000   1.0000   1.0000
     0.5000  -0.0000  -0.0000  -0.0000  -0.0000  -0.0000  -0.0000  -0.0000
    -0.0000

     the Fermi energy is     8.6228 ev

!    total energy              =    -863.06672886 Ry
     estimated scf accuracy    <       0.00000091 Ry
     smearing contrib. (-TS)   =      -0.00028209 Ry
     internal energy E=F+TS    =    -863.06644677 Ry

     The total energy is F=E-TS. E is the sum of the following terms:
     one-electron contribution =    -518.54369040 Ry
     hartree contribution      =     288.90483256 Ry
     xc contribution           =    -119.43729511 Ry
     ewald contribution        =    -475.85603172 Ry
     one-center paw contrib.   =     -38.13426210 Ry
      -> PAW hartree energy AE =     111.74871231 Ry
      -> PAW hartree energy PS =    -111.37795979 Ry
      -> PAW xc energy AE      =     -67.62776860 Ry
      -> PAW xc energy PS      =      29.12275398 Ry
      -> total E_H with PAW    =     289.27558508 Ry
      -> total E_XC with PAW   =    -157.94230973 Ry

     convergence has been achieved in  25 iterations

     Forces acting on atoms (cartesian axes, Ry/au):

     atom    1 type  1   force =     0.00500754    0.00150942   -0.00251784
     atom    2 type  2   force =     0.04452084    0.01342018   -0.01444554
     atom    3 type  3   force =    -0.01473887   -0.00444459   -0.00315590
     atom    4 type  3   force =     0.02900388    0.00874416   -0.03268257
     atom    5 type  3   force =    -0.00887129   -0.00267438    0.01731598
     atom    6 type  4   force =    -0.03373222   -0.01017069    0.07674053
     atom    7 type  4   force =     0.01732083    0.00522163    0.04364225
     atom    8 type  4   force =    -0.01682403   -0.00506714    0.01177068
     atom    9 type  4   force =    -0.02168668   -0.00653858   -0.09666759
     The non-local contrib.  to forces
     atom    1 type  1   force =     0.02361979    0.00712160    0.00500197
     atom    2 type  2   force =     0.02509199    0.00756427    0.06791612
     atom    3 type  3   force =    -0.33809048   -0.10193772   -0.01902991
     atom    4 type  3   force =    -0.05163184   -0.01556755    0.34048527
     atom    5 type  3   force =     0.07683232    0.02316479   -0.32962663
     atom    6 type  4   force =     0.00755149    0.00227854    0.19177870
     atom    7 type  4   force =     0.34147156    0.10295905    0.24448289
     atom    8 type  4   force =     0.47480931    0.14315979    0.13194464
     atom    9 type  4   force =    -0.20404281   -0.06152047   -0.69192496
     The ionic contribution  to forces
     atom    1 type  1   force =     0.53900844    0.16251644   -1.19164724
     atom    2 type  2   force =    -0.44776647   -0.13500607    0.23760558
     atom    3 type  3   force =     0.47483922    0.14316878   -6.94412723
     atom    4 type  3   force =     5.20606159    1.56967967    1.59576024
     atom    5 type  3   force =    -4.91571009   -1.48213579    7.25236022
     atom    6 type  4   force =     1.41217136    0.42578380   -4.51131180
     atom    7 type  4   force =    -3.94456320   -1.18932528   -6.48889133
     atom    8 type  4   force =    -1.76866754   -0.53327096    0.53383887
     atom    9 type  4   force =     3.44462669    1.03858942    9.51641270
     The local contribution  to forces
     atom    1 type  1   force =    -0.55741447   -0.16806523    1.18403566
     atom    2 type  2   force =     0.46709430    0.14083226   -0.32016166
     atom    3 type  3   force =    -0.16490068   -0.04972326    6.96090049
     atom    4 type  3   force =    -5.12295639   -1.54462226   -1.95514582
     atom    5 type  3   force =     4.82688030    1.45535747   -6.91428924
     atom    6 type  4   force =    -1.45221823   -0.43786216    4.39885255
     atom    7 type  4   force =     3.62396450    1.09265756    6.29142095
     atom    8 type  4   force =     1.28314152    0.38688817   -0.65305249
     atom    9 type  4   force =    -3.26474396   -0.98435278   -8.92998523
     The core correction contribution to forces
     atom    1 type  1   force =     0.00000000    0.00000000    0.00000000
     atom    2 type  2   force =     0.00000000    0.00000000    0.00000000
     atom    3 type  3   force =     0.01293847    0.00390103   -0.00043393
     atom    4 type  3   force =    -0.00261905   -0.00078964   -0.01375261
     atom    5 type  3   force =     0.00360649    0.00108748    0.00895792
     atom    6 type  4   force =    -0.00049302   -0.00014868   -0.00211030
     atom    7 type  4   force =    -0.00433578   -0.00130730   -0.00287043
     atom    8 type  4   force =    -0.00617947   -0.00186314   -0.00157382
     atom    9 type  4   force =     0.00262958    0.00079284    0.00835609
     The Hubbard contrib.    to forces
     atom    1 type  1   force =     0.00000000    0.00000000    0.00000000
     atom    2 type  2   force =     0.00000000    0.00000000    0.00000000
     atom    3 type  3   force =     0.00000000    0.00000000    0.00000000
     atom    4 type  3   force =     0.00000000    0.00000000    0.00000000
     atom    5 type  3   force =     0.00000000    0.00000000    0.00000000
     atom    6 type  4   force =     0.00000000    0.00000000    0.00000000
     atom    7 type  4   force =     0.00000000    0.00000000    0.00000000
     atom    8 type  4   force =     0.00000000    0.00000000    0.00000000
     atom    9 type  4   force =     0.00000000    0.00000000    0.00000000
     The SCF correction term to forces
     atom    1 type  1   force =    -0.00021961   -0.00006662    0.00007248
     atom    2 type  2   force =     0.00008762    0.00002649    0.00017512
     atom    3 type  3   force =     0.00046120    0.00014335   -0.00048461
     atom    4 type  3   force =     0.00013616    0.00004071   -0.00004894
     atom    5 type  3   force =    -0.00049371   -0.00015156   -0.00010558
     atom    6 type  4   force =    -0.00075722   -0.00022542   -0.00048792
     atom    7 type  4   force =     0.00077036    0.00023437   -0.00051912
     atom    8 type  4   force =     0.00005875    0.00001578    0.00059419
     atom    9 type  4   force =    -0.00016957   -0.00005080    0.00045452

     Total force =     0.157132     Total SCF correction =     0.001800

     Computing stress (Cartesian axis) and pressure

          total   stress  (Ry/bohr**3)                   (kbar)     P=     -470.75
  -0.00311458   0.00005840   0.00028952         -458.17        8.59       42.59
   0.00005840  -0.00329063   0.00008729            8.59     -484.07       12.84
   0.00028952   0.00008729  -0.00319517           42.59       12.84     -470.03

     kinetic stress (kbar)  23487.17    102.89    328.23
                              102.89  23176.94     98.97
                              328.23     98.97  23245.54

     local   stress (kbar) -17945.87   2184.69   3127.02
                             2184.69 -24532.94    942.82
                             3127.02    942.82  -6073.31

     nonloc. stress (kbar)   8966.95     56.16     38.26
                               56.16   8797.62     11.54
                               38.26     11.54   8900.37

     hartree stress (kbar)  16953.72   -933.57  -1294.62
                             -933.57  19768.54   -390.34
                            -1294.62   -390.34  11113.16

     exc-cor stress (kbar)  -4094.17      0.57      0.88
                                0.57  -4095.90      0.27
                                0.88      0.27  -4094.55

     corecor stress (kbar)  -2067.62     -1.48     -1.58
                               -1.48  -2063.15     -0.48
                               -1.58     -0.48  -2064.88

     ewald   stress (kbar) -25758.34  -1400.65  -2155.60
                            -1400.65 -21535.19   -649.93
                            -2155.60   -649.93 -31496.35

     hubbard stress (kbar)      0.00      0.00      0.00
                                0.00      0.00      0.00
                                0.00      0.00      0.00

     DFT-D   stress (kbar)      0.00      0.00      0.00
                                0.00      0.00      0.00
                                0.00      0.00      0.00

     XDM     stress (kbar)      0.00      0.00      0.00
                                0.00      0.00      0.00
                                0.00      0.00      0.00

     dft-nl  stress (kbar)      0.00      0.00      0.00
                                0.00      0.00      0.00
                                0.00      0.00      0.00

     TS-vdW  stress (kbar)      0.00      0.00      0.00
                                0.00      0.00      0.00
                                0.00      0.00      0.00

[...]

                                0.00      0.00      0.00

     Writing all to output data dir new_calculations/myprefix.save/

     General routines

     Parallel routines

     PAW routines

   This run was terminated on:  15:34:38  20May2023

   JOB DONE.