     Program PWSCF v.7.0 starts on 20May2023 at  5: 8:18

     Reading input from espresso_8147.pwi
Warning: card &CELL ignored
Warning: card / ignored

     Current dimensions of program PWSCF are:
     Max number of different atomic species (ntypx) = 10
     Max number of k-points (npk) =  40000
     Max angular momentum in pseudopotentials (lmaxx) =  4
     file O.pbe-n-kjpaw_psl.0.1.UPF: wavefunction(s)  2P renormalized

     gamma-point specific algorithms are used

     Subspace diagonalization in iterative solution of the eigenvalue problem:
     a serial algorithm will be used

     Using Slab Decomposition

     bravais-lattice index     =            0
     lattice parameter (alat)  =       9.7290  a.u.
     unit-cell volume          =    1132.3720 (a.u.)^3
     number of atoms/cell      =           12
     number of atomic types    =            4
     number of electrons       =       110.00
     number of Kohn-Sham states=           66
     kinetic-energy cutoff     =      30.0000  Ry
     charge density cutoff     =     240.0000  Ry
     scf convergence threshold =      1.0E-06
     mixing beta               =       0.7000
     number of iterations used =            8  plain     mixing
     Exchange-correlation= SLA  PW   PBX  PBC
                           (   1   4   3   4   0   0   0)

     celldm(1)=   9.728979  celldm(2)=   0.000000  celldm(3)=   0.000000
     celldm(4)=   0.000000  celldm(5)=   0.000000  celldm(6)=   0.000000

     crystal axes: (cart. coord. in units of alat)
               a(1) = (   1.000000   0.000000   0.000000 )
               a(2) = (  -0.473171   1.090863   0.000000 )
               a(3) = (  -0.036149  -0.441093   1.127241 )

     reciprocal axes: (cart. coord. in units 2 pi/alat)
               b(1) = (  1.000000  0.433758  0.201799 )
               b(2) = (  0.000000  0.916705  0.358709 )
               b(3) = (  0.000000  0.000000  0.887121 )

     PseudoPot. # 1 for Cu read from file:
     /home/pragov/projects/rrg-bengioy-ad/pragov/crystal_structure_design/SSSP/Cu_pbe_v1.2.uspp.F.UPF
     MD5 check sum: 6e991ff952a84172a2a52a1c1e996048
     Pseudo is Ultrasoft + core correction, Zval = 19.0
     Generated by new atomic code, or converted to UPF format
     Using radial grid of  867 points,  6 beta functions with:
                l(1) =   0
                l(2) =   0
                l(3) =   1
                l(4) =   1
                l(5) =   2
                l(6) =   2
     Q(r) pseudized with  8 coefficients,  rinner =    1.150   1.150   1.150
                                                       1.150   1.150

     PseudoPot. # 2 for Bi read from file:
     /home/pragov/projects/rrg-bengioy-ad/pragov/crystal_structure_design/SSSP/Bi_pbe_v1.uspp.F.UPF
     MD5 check sum: cceb9f28ec65b6d7ff33140f5b0b1758
     Pseudo is Ultrasoft + core correction, Zval = 15.0
     Generated by new atomic code, or converted to UPF format
     Using radial grid of  899 points,  6 beta functions with:
                l(1) =   0
                l(2) =   0
                l(3) =   1
                l(4) =   1
                l(5) =   2
                l(6) =   2
     Q(r) pseudized with  6 coefficients,  rinner =    1.000   1.000   1.000
                                                       1.000   1.000

     PseudoPot. # 3 for W  read from file:
     /home/pragov/projects/rrg-bengioy-ad/pragov/crystal_structure_design/SSSP/W_pbe_v1.2.uspp.F.UPF
     MD5 check sum: 9c083fa34c2a2ea0f02f1f893e16e1c8
     Pseudo is Ultrasoft + core correction, Zval = 14.0
     Generated by new atomic code, or converted to UPF format
     Using radial grid of  923 points,  8 beta functions with:
                l(1) =   0
                l(2) =   0
                l(3) =   0
                l(4) =   1
                l(5) =   1
                l(6) =   2
                l(7) =   2
                l(8) =   3
     Q(r) pseudized with  6 coefficients,  rinner =    1.350   1.350   1.350
                                                       1.350   1.350   1.350
                                                       1.350

     PseudoPot. # 4 for O  read from file:
     /home/pragov/projects/rrg-bengioy-ad/pragov/crystal_structure_design/SSSP/O.pbe-n-kjpaw_psl.0.1.UPF
     MD5 check sum: 0234752ac141de4415c5fc33072bef88
     Pseudo is Projector augmented-wave + core cor, Zval =  6.0
     Generated using "atomic" code by A. Dal Corso  v.5.0.99 svn rev. 10869
     Shape of augmentation charge: BESSEL
     Using radial grid of 1095 points,  4 beta functions with:
                l(1) =   0
                l(2) =   0
                l(3) =   1
                l(4) =   1
     Q(r) pseudized with 0 coefficients

     atomic species   valence    mass     pseudopotential
        Cu            19.00    63.54600     Cu( 1.00)
        Bi            15.00   208.98040     Bi( 1.00)
        W             14.00   183.84000     W ( 1.00)
        O              6.00    15.99900     O ( 1.00)

     No symmetry found

                                    s                        frac. trans.

      isym =  1     identity

 cryst.   s( 1) = (     1          0          0      )
                  (     0          1          0      )
                  (     0          0          1      )

 cart.    s( 1) = (  1.0000000 -0.0000000 -0.0000000 )
                  (  0.0000000  1.0000000 -0.0000000 )
                  (  0.0000000  0.0000000  1.0000000 )

   Cartesian axes

     site n.     atom                  positions (alat units)
         1           Cu  tau(   1) = (   0.4022710   0.6335354   0.8844460  )
         2           Bi  tau(   2) = (  -0.0738596   0.8560345   0.3269553  )
         3           W   tau(   3) = (  -0.1076575   0.1795460   0.7051402  )
         4           W   tau(   4) = (   0.3932778   0.0002540   1.0735611  )
         5           O   tau(   5) = (   0.2078429  -0.0457274   0.7053725  )
         6           O   tau(   6) = (   0.7016444  -0.1414502   0.9126282  )
         7           O   tau(   7) = (   0.0286977   0.4814318   0.5809442  )
         8           O   tau(   8) = (   0.5590712   0.5949899   0.2382955  )
         9           O   tau(   9) = (   0.7676737   0.0296420   0.4095742  )
        10           O   tau(  10) = (   0.0762719   0.2232421   1.0758404  )
        11           O   tau(  11) = (   0.5819820   0.3208272   0.8617986  )
        12           O   tau(  12) = (   0.2979684   0.1401038   0.0756661  )

   Crystallographic axes

     site n.     atom                  positions (cryst. coord.)
         1           Cu  tau(   1) = (  0.8555530  0.8980240  0.7846110  )
         2           Bi  tau(   2) = (  0.3634320  0.9020130  0.2900490  )
         3           W   tau(   3) = (  0.1125190  0.4175310  0.6255450  )
         4           W   tau(   4) = (  0.6100320  0.3853290  0.9523790  )
         5           O   tau(   5) = (  0.3303520  0.2111050  0.6257510  )
         6           O   tau(   6) = (  0.8244570  0.1977000  0.8096120  )
         7           O   tau(   7) = (  0.3547570  0.6497210  0.5153680  )
         8           O   tau(   8) = (  0.8652410  0.6309090  0.2113970  )
         9           O   tau(   9) = (  0.8631830  0.1740910  0.3633420  )
        10           O   tau(  10) = (  0.3902090  0.5905610  0.9544010  )
        11           O   tau(  11) = (  0.8950540  0.6032390  0.7645200  )
        12           O   tau(  12) = (  0.3740090  0.1555760  0.0671250  )

     number of k points=     1  Methfessel-Paxton smearing, width (Ry)=  0.0010
                       cart. coord. in units 2pi/alat
        k(    1) = (   0.0000000   0.0000000   0.0000000), wk =   2.0000000

                       cryst. coord.
        k(    1) = (   0.0000000   0.0000000   0.0000000), wk =   2.0000000

     Check: negative core charge=   -0.000011

     Initial potential from superposition of free atoms

     starting charge     107.7993, renormalised to     110.0000

     negative rho (up, down):  1.704E-01 0.000E+00
     Starting wfcs are   80 randomized atomic wfcs
     Checking if some PAW data can be deallocated...

     Self-consistent Calculation

     iteration #  1     ecut=    30.00 Ry     beta= 0.70
     Davidson diagonalization with overlap

     ethr =  1.00E-02,  avg # of iterations =  2.0

     negative rho (up, down):  1.562E-01 0.000E+00

     total energy              =   -1237.38092562 Ry
     estimated scf accuracy    <       5.40247835 Ry

[...]

     total energy              =   -1240.41863563 Ry
     estimated scf accuracy    <       0.00000150 Ry

     iteration # 16     ecut=    30.00 Ry     beta= 0.70
     Davidson diagonalization with overlap

     ethr =  1.36E-09,  avg # of iterations =  3.0

[...]

     End of self-consistent calculation

          k = 0.0000 0.0000 0.0000 (  1579 PWs)   bands (ev):

  -101.7232 -66.9919 -66.9866 -59.2699 -59.0820 -59.0573 -31.3234 -31.2780
   -31.2578 -31.2132 -31.1781 -31.1229 -14.4783 -14.4210 -14.3971 -14.3628
   -14.3227 -10.8112  -9.7550  -9.6244  -9.5151  -9.3119  -9.2749  -9.1324
    -8.9948  -1.8838   1.7343   2.0457   2.4453   2.7431   2.9091   3.0860
     3.1244   3.4292   3.9900   4.0341   4.5148   5.0337   5.0796   5.2298
     5.4737   5.4949   5.8346   5.8981   6.1304   6.1449   6.4640   6.5043
     6.6087   6.8549   8.2669   8.3958   8.4348   8.7266   8.8340  10.5545
    10.7336  10.8519  10.9164  11.4650  11.8262  11.9626  12.8007  13.1980
    13.8161  14.5331

     occupation numbers
     1.0000   1.0000   1.0000   1.0000   1.0000   1.0000   1.0000   1.0000
     1.0000   1.0000   1.0000   1.0000   1.0000   1.0000   1.0000   1.0000
     1.0000   1.0000   1.0000   1.0000   1.0000   1.0000   1.0000   1.0000
     1.0000   1.0000   1.0000   1.0000   1.0000   1.0000   1.0000   1.0000
     1.0000   1.0000   1.0000   1.0000   1.0000   1.0000   1.0000   1.0000
     1.0000   1.0000   1.0000   1.0000   1.0000   1.0000   1.0000   1.0000
     1.0000   1.0000   1.0000   1.0000   1.0000   1.0000   1.0000  -0.0000
    -0.0000  -0.0000  -0.0000  -0.0000  -0.0000  -0.0000  -0.0000  -0.0000
    -0.0000  -0.0000

     the Fermi energy is     9.2069 ev

!    total energy              =   -1240.41863570 Ry
     estimated scf accuracy    <       0.00000046 Ry
     smearing contrib. (-TS)   =       0.00000000 Ry
     internal energy E=F+TS    =   -1240.41863570 Ry

     The total energy is F=E-TS. E is the sum of the following terms:
     one-electron contribution =    -647.84211348 Ry
     hartree contribution      =     378.51057495 Ry
     xc contribution           =    -244.85393946 Ry
     ewald contribution        =    -650.02845130 Ry
     one-center paw contrib.   =     -76.20470640 Ry
      -> PAW hartree energy AE =     236.47533937 Ry
      -> PAW hartree energy PS =    -235.65259491 Ry
      -> PAW xc energy AE      =    -137.29336770 Ry
      -> PAW xc energy PS      =      60.26591683 Ry
      -> total E_H with PAW    =     379.33331942 Ry
      -> total E_XC with PAW   =    -321.88139033 Ry

     convergence has been achieved in  16 iterations

     negative rho (up, down):  1.596E-01 0.000E+00

     Forces acting on atoms (cartesian axes, Ry/au):

     atom    1 type  1   force =    -0.00013830   -0.00008411   -0.00112750
     atom    2 type  2   force =    -0.00079495    0.00006710   -0.00081306
     atom    3 type  3   force =    -0.00838856    0.03239311   -0.04208654
     atom    4 type  3   force =     0.00959700   -0.03260802    0.04183872
     atom    5 type  4   force =    -0.00322612    0.03129825    0.01760973
     atom    6 type  4   force =    -0.04127832    0.01089089    0.03555943
     atom    7 type  4   force =    -0.01100183   -0.03008578    0.03498703
     atom    8 type  4   force =    -0.01552506   -0.00590912   -0.04407121
     atom    9 type  4   force =     0.01472478    0.00597113    0.04622789
     atom   10 type  4   force =     0.00384615   -0.03139005   -0.01843478
     atom   11 type  4   force =     0.04119655   -0.01136844   -0.03335200
     atom   12 type  4   force =     0.01098867    0.03082504   -0.03633770
     The non-local contrib.  to forces
     atom    1 type  1   force =     0.00220615    0.00009720    0.00056878
     atom    2 type  2   force =    -0.00913648   -0.00003128   -0.00833792
     atom    3 type  3   force =     0.00712062   -0.02559909    0.06653756
     atom    4 type  3   force =    -0.00806319    0.02679301   -0.06312693
     atom    5 type  4   force =    -0.28564625    0.36466442    0.16282085
     atom    6 type  4   force =    -0.26891734    0.15108034    0.00587178
     atom    7 type  4   force =    -0.38212379   -0.73222476    0.23174306
     atom    8 type  4   force =    -0.09448339   -0.24832497   -0.93301892
     atom    9 type  4   force =     0.09112444    0.24375947    0.96340102
     atom   10 type  4   force =     0.30183989   -0.34191564   -0.15772691
     atom   11 type  4   force =     0.27101187   -0.13917712   -0.01254521
     atom   12 type  4   force =     0.39533087    0.72677903   -0.22776109
     The ionic contribution  to forces
     atom    1 type  1   force =     0.50653159    0.24562374    0.22638031
     atom    2 type  2   force =    -0.10872266    0.05542397   -0.24193811
     atom    3 type  3   force =     0.87295747    3.02422150   -8.26404010
     atom    4 type  3   force =    -1.00639423   -3.11559708    8.50609832
     atom    5 type  4   force =     3.05630804   -3.61190733   -6.67613246
     atom    6 type  4   force =    -1.18161902    0.94737466    1.53444416
     atom    7 type  4   force =     2.72582857    5.15477590   -6.78644498
     atom    8 type  4   force =     0.81902234    1.62687622   10.01836850
     atom    9 type  4   force =    -0.66749017   -1.50348784  -10.31032505
     atom   10 type  4   force =    -3.21257954    3.37478277    6.80268144
     atom   11 type  4   force =     1.40076866   -0.84711390   -1.31794192
     atom   12 type  4   force =    -3.20461106   -5.35097260    6.50884989
     The local contribution  to forces
     atom    1 type  1   force =    -0.50879972   -0.24607518   -0.22800409
     atom    2 type  2   force =     0.11667184   -0.05538685    0.24913907
     atom    3 type  3   force =    -0.89627760   -2.96754701    8.15295388
     atom    4 type  3   force =     1.03138223    3.05770543   -8.39881493
     atom    5 type  4   force =    -2.77637756    3.28175233    6.53218768
     atom    6 type  4   force =     1.40717600   -1.08661320   -1.50513482
     atom    7 type  4   force =    -2.35731022   -4.45853041    6.59122366
     atom    8 type  4   force =    -0.74046673   -1.38622209   -9.13734908
     atom    9 type  4   force =     0.59137512    1.26740268    9.40109589
     atom   10 type  4   force =     2.91740799   -3.06724977   -6.66441391
     atom   11 type  4   force =    -1.62868080    0.97421287    1.29767121
     atom   12 type  4   force =     2.82313091    4.66104762   -6.31890589
     The core correction contribution to forces
     atom    1 type  1   force =    -0.00001712   -0.00000159   -0.00000185
     atom    2 type  2   force =     0.00040492   -0.00007447    0.00023896
     atom    3 type  3   force =     0.00776759    0.00135635    0.00281028
     atom    4 type  3   force =    -0.00724560   -0.00105866   -0.00233472
     atom    5 type  4   force =     0.00257672   -0.00308126   -0.00105671
     atom    6 type  4   force =     0.00177509   -0.00038958    0.00052694
     atom    7 type  4   force =     0.00248819    0.00583547   -0.00159716
     atom    8 type  4   force =     0.00034766    0.00165810    0.00766777
     atom    9 type  4   force =    -0.00033995   -0.00163120   -0.00792261
     atom   10 type  4   force =    -0.00273253    0.00284706    0.00100484
     atom   11 type  4   force =    -0.00179304    0.00023095   -0.00043829
     atom   12 type  4   force =    -0.00268337   -0.00574047    0.00147147
     The Hubbard contrib.    to forces
     atom    1 type  1   force =     0.00000000    0.00000000    0.00000000
     atom    2 type  2   force =     0.00000000    0.00000000    0.00000000
     atom    3 type  3   force =     0.00000000    0.00000000    0.00000000
     atom    4 type  3   force =     0.00000000    0.00000000    0.00000000
     atom    5 type  4   force =     0.00000000    0.00000000    0.00000000
     atom    6 type  4   force =     0.00000000    0.00000000    0.00000000
     atom    7 type  4   force =     0.00000000    0.00000000    0.00000000
     atom    8 type  4   force =     0.00000000    0.00000000    0.00000000
     atom    9 type  4   force =     0.00000000    0.00000000    0.00000000
     atom   10 type  4   force =     0.00000000    0.00000000    0.00000000
     atom   11 type  4   force =     0.00000000    0.00000000    0.00000000
     atom   12 type  4   force =     0.00000000    0.00000000    0.00000000
     The SCF correction term to forces
     atom    1 type  1   force =    -0.00006050    0.00030345   -0.00006324
     atom    2 type  2   force =    -0.00001387    0.00016748    0.00009232
     atom    3 type  3   force =     0.00004205   -0.00000689   -0.00034077
     atom    4 type  3   force =    -0.00008352   -0.00041897    0.00002438
     atom    5 type  4   force =    -0.00008838   -0.00009816   -0.00020224
     atom    6 type  4   force =     0.00030564   -0.00052959   -0.00014123
     atom    7 type  4   force =     0.00011411    0.00008977    0.00006986
     atom    8 type  4   force =     0.00005375    0.00013536    0.00026791
     atom    9 type  4   force =     0.00005404   -0.00004024   -0.00001396
     atom   10 type  4   force =    -0.00009095    0.00017727    0.00002715
     atom   11 type  4   force =    -0.00011144    0.00051052   -0.00009040
     atom   12 type  4   force =    -0.00017998   -0.00025680    0.00001531

     Total force =     0.153995     Total SCF correction =     0.001197

     Computing stress (Cartesian axis) and pressure

     negative rho (up, down):  1.596E-01 0.000E+00
          total   stress  (Ry/bohr**3)                   (kbar)     P=     -442.47
  -0.00311593   0.00005303   0.00008807         -458.37        7.80       12.96
   0.00005303  -0.00297813  -0.00015057            7.80     -438.10      -22.15
   0.00008807  -0.00015057  -0.00292942           12.96      -22.15     -430.93

     kinetic stress (kbar)  24594.30    136.46     41.54
                              136.46  24680.58    -45.29
                               41.54    -45.29  24788.74

     local   stress (kbar) -14633.60   3102.95  -1575.45
                             3102.95 -23673.09   -304.85
                            -1575.45   -304.85   6988.55

     nonloc. stress (kbar)   4473.37     -7.41     -7.84
                               -7.41   4465.83      7.32
                               -7.84      7.32   4474.05

     hartree stress (kbar)  18440.57  -1302.08    722.38
                            -1302.08  22060.93     33.29
                              722.38     33.29   8670.35

     exc-cor stress (kbar)   6074.79     -0.47      0.05
                               -0.47   6083.02      2.09
                                0.05      2.09   6072.77

     corecor stress (kbar) -13479.36     -0.52      0.21
                               -0.52 -13482.77     -0.07
                                0.21     -0.07 -13482.01

     ewald   stress (kbar) -25928.44  -1921.13    832.07
                            -1921.13 -20572.59    285.36
                              832.07    285.36 -37943.38

     hubbard stress (kbar)      0.00      0.00      0.00
                                0.00      0.00      0.00
                                0.00      0.00      0.00

     DFT-D   stress (kbar)      0.00      0.00      0.00
                                0.00      0.00      0.00
                                0.00      0.00      0.00

     XDM     stress (kbar)      0.00      0.00      0.00
                                0.00      0.00      0.00
                                0.00      0.00      0.00

     dft-nl  stress (kbar)      0.00      0.00      0.00
                                0.00      0.00      0.00
                                0.00      0.00      0.00

     TS-vdW  stress (kbar)      0.00      0.00      0.00
                                0.00      0.00      0.00
                                0.00      0.00      0.00

[...]

                                0.00      0.00      0.00

     Writing all to output data dir new_calculations/myprefix.save/

     General routines

     Parallel routines

     PAW routines

   This run was terminated on:   5: 8:40  20May2023

   JOB DONE.