     Program PWSCF v.7.0 starts on 21May2023 at  1:26: 1

     Reading input from espresso_18736.pwi
Warning: card &CELL ignored
Warning: card / ignored

     Current dimensions of program PWSCF are:
     Max number of different atomic species (ntypx) = 10
     Max number of k-points (npk) =  40000
     Max angular momentum in pseudopotentials (lmaxx) =  4

     gamma-point specific algorithms are used
     Message from routine setup:
     using ibrav=0 with symmetry is DISCOURAGED, use correct ibrav instead

     Subspace diagonalization in iterative solution of the eigenvalue problem:
     a serial algorithm will be used

     Using Slab Decomposition

     bravais-lattice index     =            0
     lattice parameter (alat)  =       8.5249  a.u.
     unit-cell volume          =    1917.1248 (a.u.)^3
     number of atoms/cell      =           12
     number of atomic types    =            3
     number of electrons       =       180.00
     number of Kohn-Sham states=          108
     kinetic-energy cutoff     =      30.0000  Ry
     charge density cutoff     =     240.0000  Ry
     scf convergence threshold =      1.0E-06
     mixing beta               =       0.7000
     number of iterations used =            8  plain     mixing
     Exchange-correlation= SLA  PW   PBE  PBE
                           (   1   4   3   4   0   0   0)

     celldm(1)=   8.524891  celldm(2)=   0.000000  celldm(3)=   0.000000
     celldm(4)=   0.000000  celldm(5)=   0.000000  celldm(6)=   0.000000

     crystal axes: (cart. coord. in units of alat)
               a(1) = (   1.000000   0.000000   0.000000 )
               a(2) = (  -0.500000   0.866025   0.000000 )
               a(3) = (   0.000000   0.000000   3.573166 )

     reciprocal axes: (cart. coord. in units 2 pi/alat)
               b(1) = (  1.000000  0.577350  0.000000 )
               b(2) = (  0.000000  1.154701  0.000000 )
               b(3) = (  0.000000  0.000000  0.279864 )

     PseudoPot. # 1 for Y  read from file:
     /home/pragov/projects/rrg-bengioy-ad/pragov/crystal_structure_design/SSSP/Y_pbe_v1.uspp.F.UPF
     MD5 check sum: 2cf71db95cafeb975fc457bd7f14888e
     Pseudo is Ultrasoft + core correction, Zval = 11.0
     Generated by new atomic code, or converted to UPF format
     Using radial grid of  885 points,  6 beta functions with:
                l(1) =   0
                l(2) =   0
                l(3) =   1
                l(4) =   1
                l(5) =   2
                l(6) =   2
     Q(r) pseudized with  6 coefficients,  rinner =    1.200   1.200   1.200
                                                       1.200   1.200

     PseudoPot. # 2 for Zn read from file:
     /home/pragov/projects/rrg-bengioy-ad/pragov/crystal_structure_design/SSSP/Zn_pbe_v1.uspp.F.UPF
     MD5 check sum: df62231357ef9e81f77b2b3087fa5675
     Pseudo is Ultrasoft, Zval = 20.0
     Generated by new atomic code, or converted to UPF format
     Using radial grid of  943 points,  6 beta functions with:
                l(1) =   0
                l(2) =   0
                l(3) =   1
                l(4) =   1
                l(5) =   2
                l(6) =   2
     Q(r) pseudized with  8 coefficients,  rinner =    1.100   1.100   1.100
                                                       1.100   1.100

     PseudoPot. # 3 for Sn read from file:
     /home/pragov/projects/rrg-bengioy-ad/pragov/crystal_structure_design/SSSP/Sn_pbe_v1.uspp.F.UPF
     MD5 check sum: 4cf58ce39ec5d5d420df3dd08604eb00
     Pseudo is Ultrasoft + core correction, Zval = 14.0
     Generated by new atomic code, or converted to UPF format
     Using radial grid of  891 points,  6 beta functions with:
                l(1) =   0
                l(2) =   0
                l(3) =   1
                l(4) =   1
                l(5) =   2
                l(6) =   2
     Q(r) pseudized with  6 coefficients,  rinner =    1.200   1.200   1.200
                                                       1.200   1.200

     atomic species   valence    mass     pseudopotential
        Y             11.00    88.90584     Y ( 1.00)
        Zn            20.00    65.38000     Zn( 1.00)
        Sn            14.00   118.71000     Sn( 1.00)

     24 Sym. Ops., with inversion, found (12 have fractional translation)

                                    s                        frac. trans.

      isym =  1     identity

 cryst.   s( 1) = (     1          0          0      )
                  (     0          1          0      )
                  (     0          0          1      )

 cart.    s( 1) = (  1.0000000 -0.0000000  0.0000000 )
                  (  0.0000000  1.0000000  0.0000000 )
                  (  0.0000000  0.0000000  1.0000000 )

      isym =  2     180 deg rotation - cart. axis [0,0,1]

 cryst.   s( 2) = (    -1          0          0      )    f =(  0.0000000 )
                  (     0         -1          0      )       (  0.0000000 )
                  (     0          0          1      )       ( -0.5000000 )

 cart.    s( 2) = ( -1.0000000  0.0000000  0.0000000 )    f =(  0.0000000 )
                  (  0.0000000 -1.0000000  0.0000000 )       (  0.0000000 )
                  (  0.0000000  0.0000000  1.0000000 )       ( -1.7865830 )

[...]

      isym =  4     180 deg rotation - cart. axis [1,0,0]

[...]

      isym =  5      60 deg rotation - cryst. axis [0,0,1]

[...]

 cryst.   s( 8) = (    -1         -1          0      )
                  (     1          0          0      )
                  (     0          0          1      )

 cart.    s( 8) = ( -0.5000000  0.8660254  0.0000000 )
                  ( -0.8660254 -0.5000000  0.0000000 )
                  (  0.0000000  0.0000000  1.0000000 )

[...]

 cryst.   s( 9) = (     0         -1          0      )    f =(  0.0000000 )
                  (    -1          0          0      )       (  0.0000000 )
                  (     0          0         -1      )       (  0.5000000 )

 cart.    s( 9) = (  0.5000000 -0.8660254  0.0000000 )    f =(  0.0000000 )
                  ( -0.8660254 -0.5000000  0.0000000 )       (  0.0000000 )
                  (  0.0000000  0.0000000 -1.0000000 )       (  1.7865830 )

[...]

 cryst.   s(10) = (     1          1          0      )    f =(  0.0000000 )
                  (     0         -1          0      )       (  0.0000000 )
                  (     0          0         -1      )       (  0.5000000 )

 cart.    s(10) = (  0.5000000  0.8660255  0.0000000 )    f =(  0.0000000 )
                  (  0.8660254 -0.5000000  0.0000000 )       (  0.0000000 )
                  (  0.0000000  0.0000000 -1.0000000 )       (  1.7865830 )

[...]

 cryst.   s(11) = (    -1         -1          0      )
                  (     0          1          0      )
                  (     0          0         -1      )

 cart.    s(11) = ( -0.5000000 -0.8660255  0.0000000 )
                  ( -0.8660254  0.5000000  0.0000000 )
                  (  0.0000000  0.0000000 -1.0000000 )

      isym = 12     180 deg rotation - cryst. axis [1,1,0]

[...]

      isym = 13     inversion

[...]

      isym = 14     inv. 180 deg rotation - cart. axis [0,0,1]

[...]

      isym = 16     inv. 180 deg rotation - cart. axis [1,0,0]

[...]

      isym = 17     inv.  60 deg rotation - cryst. axis [0,0,1]

[...]

 cryst.   s(22) = (    -1         -1          0      )    f =(  0.0000000 )
                  (     0          1          0      )       (  0.0000000 )
                  (     0          0          1      )       ( -0.5000000 )

 cart.    s(22) = ( -0.5000000 -0.8660255  0.0000000 )    f =(  0.0000000 )
                  ( -0.8660254  0.5000000  0.0000000 )       (  0.0000000 )
                  (  0.0000000  0.0000000  1.0000000 )       ( -1.7865830 )

[...]

      isym = 24     inv. 180 deg rotation - cryst. axis [1,1,0]

 cryst.   s(24) = (     0         -1          0      )
                  (    -1          0          0      )
                  (     0          0          1      )

 cart.    s(24) = (  0.5000000 -0.8660254  0.0000000 )
                  ( -0.8660254 -0.5000000  0.0000000 )
                  (  0.0000000  0.0000000  1.0000000 )

   Cartesian axes

     site n.     atom                  positions (alat units)
         1           Y   tau(   1) = (   0.0000000   0.0000000   0.0000000  )
         2           Y   tau(   2) = (   0.0000000   0.0000000   0.8932915  )
         3           Y   tau(   3) = (   0.0000000   0.0000000   1.7865830  )
         4           Y   tau(   4) = (   0.0000000   0.0000000   2.6798746  )
         5           Zn  tau(   5) = (   0.5000005   0.2886748   2.9970681  )
         6           Zn  tau(   6) = (  -0.0000005   0.5773505   1.2104850  )
         7           Zn  tau(   7) = (   0.5000005   0.2886748   2.3626810  )
         8           Zn  tau(   8) = (  -0.0000005   0.5773505   0.5760980  )
         9           Sn  tau(   9) = (  -0.0000005   0.5773505   2.1931736  )
        10           Sn  tau(  10) = (   0.5000005   0.2886748   0.4065906  )
        11           Sn  tau(  11) = (   0.5000005   0.2886748   1.3799925  )
        12           Sn  tau(  12) = (  -0.0000005   0.5773505   3.1665755  )

   Crystallographic axes

     site n.     atom                  positions (cryst. coord.)
         1           Y   tau(   1) = (  0.0000000  0.0000000  0.0000000  )
         2           Y   tau(   2) = (  0.0000000  0.0000000  0.2500000  )
         3           Y   tau(   3) = (  0.0000000  0.0000000  0.5000000  )
         4           Y   tau(   4) = (  0.0000000  0.0000000  0.7500000  )
         5           Zn  tau(   5) = (  0.6666670  0.3333330  0.8387710  )
         6           Zn  tau(   6) = (  0.3333330  0.6666670  0.3387710  )
         7           Zn  tau(   7) = (  0.6666670  0.3333330  0.6612290  )
         8           Zn  tau(   8) = (  0.3333330  0.6666670  0.1612290  )
         9           Sn  tau(   9) = (  0.3333330  0.6666670  0.6137900  )
        10           Sn  tau(  10) = (  0.6666670  0.3333330  0.1137900  )
        11           Sn  tau(  11) = (  0.6666670  0.3333330  0.3862100  )
        12           Sn  tau(  12) = (  0.3333330  0.6666670  0.8862100  )

     number of k points=     1  Methfessel-Paxton smearing, width (Ry)=  0.0010
                       cart. coord. in units 2pi/alat
        k(    1) = (   0.0000000   0.0000000   0.0000000), wk =   2.0000000

                       cryst. coord.
        k(    1) = (   0.0000000   0.0000000   0.0000000), wk =   2.0000000

     Check: negative core charge=   -0.000004

     Initial potential from superposition of free atoms

     starting charge     175.9814, renormalised to     180.0000

     negative rho (up, down):  1.757E-01 0.000E+00
     Starting wfcs are  140 randomized atomic wfcs

     Self-consistent Calculation

     iteration #  1     ecut=    30.00 Ry     beta= 0.70
     Davidson diagonalization with overlap

     ethr =  1.00E-02,  avg # of iterations =  3.0

     negative rho (up, down):  1.396E-01 0.000E+00

     total energy              =   -2722.05131457 Ry
     estimated scf accuracy    <     151.23897972 Ry

[...]

     total energy              =   -2847.36868266 Ry
     estimated scf accuracy    <       0.00000124 Ry

     iteration # 32     ecut=    30.00 Ry     beta= 0.70
     Davidson diagonalization with overlap

     ethr =  6.89E-10,  avg # of iterations =  2.0

[...]

     End of self-consistent calculation

          k = 0.0000 0.0000 0.0000 (  2676 PWs)   bands (ev):

  -115.4302-115.4289-115.4287-115.4285 -69.5637 -69.5626 -69.5613 -69.5573
   -69.5100 -69.5100 -69.5054 -69.5054 -69.5051 -69.5051 -69.5042 -69.5042
   -31.0535 -31.0533 -30.5307 -30.5304 -11.2681 -11.2606 -10.9904 -10.9903
   -10.9901 -10.9901 -10.7882 -10.7794 -10.5359 -10.5358 -10.5356 -10.5355
    -9.3479  -9.3437  -9.3420  -9.3379  -9.3014  -9.3014  -9.2993  -9.2993
    -9.2838  -9.2838  -9.2807  -9.2807  -9.2056  -9.2056  -9.2002  -9.2002
    -9.1942  -9.1942  -9.1898  -9.1898   1.9938   2.3617   2.5488   2.9963
     3.5846   3.6306   3.6403   3.6403   3.6426   3.6426   3.6450   3.6450
     3.6489   3.6489   3.6849   3.6849   3.6864   3.6864   3.8253   3.8253
     3.8308   3.8308   3.9436   4.1894   6.8665   8.2191   9.0612  10.2418
    10.2419  10.6974  10.6975  10.9052  10.9053  11.1032  11.6300  12.1664
    12.1665  12.2698  12.2698  12.3203  12.3390  12.3922  12.3922  12.8019
    12.8019  13.2765  13.3578  13.3578  13.4476  13.6027  13.6233  14.1455
    14.1455  14.3732  14.3732  15.1836

     occupation numbers
     1.0000   1.0000   1.0000   1.0000   1.0000   1.0000   1.0000   1.0000
     1.0000   1.0000   1.0000   1.0000   1.0000   1.0000   1.0000   1.0000
     1.0000   1.0000   1.0000   1.0000   1.0000   1.0000   1.0000   1.0000
     1.0000   1.0000   1.0000   1.0000   1.0000   1.0000   1.0000   1.0000
     1.0000   1.0000   1.0000   1.0000   1.0000   1.0000   1.0000   1.0000
     1.0000   1.0000   1.0000   1.0000   1.0000   1.0000   1.0000   1.0000
     1.0000   1.0000   1.0000   1.0000   1.0000   1.0000   1.0000   1.0000
     1.0000   1.0000   1.0000   1.0000   1.0000   1.0000   1.0000   1.0000
     1.0000   1.0000   1.0000   1.0000   1.0000   1.0000   1.0000   1.0000
     1.0000   1.0000   1.0000   1.0000   1.0000   1.0000   1.0000   1.0000
     1.0000   1.0000   1.0000   1.0000   1.0000   1.0000   1.0000   1.0000
     1.0000   0.5010   0.4990  -0.0000  -0.0000  -0.0000  -0.0000  -0.0000
    -0.0000  -0.0000  -0.0000  -0.0000  -0.0000  -0.0000  -0.0000  -0.0000
    -0.0000  -0.0000  -0.0000  -0.0000

     the Fermi energy is    12.2698 ev

!    total energy              =   -2847.36868261 Ry
     estimated scf accuracy    <       0.00000021 Ry
     smearing contrib. (-TS)   =      -0.00056418 Ry
     internal energy E=F+TS    =   -2847.36811843 Ry

     The total energy is F=E-TS. E is the sum of the following terms:
     one-electron contribution =   -2146.66591162 Ry
     hartree contribution      =    1155.37998395 Ry
     xc contribution           =    -447.43912360 Ry
     ewald contribution        =   -1408.64306717 Ry

     convergence has been achieved in  32 iterations

     negative rho (up, down):  1.623E-01 0.000E+00

     Forces acting on atoms (cartesian axes, Ry/au):

     atom    1 type  1   force =    -0.00000000   -0.00000000    0.00000000
     atom    2 type  1   force =     0.00000000    0.00000000    0.00000000
     atom    3 type  1   force =     0.00000000   -0.00000000    0.00000000
     atom    4 type  1   force =     0.00000000   -0.00000000   -0.00000000
     atom    5 type  2   force =    -0.00000000   -0.00000000   -0.05942519
     atom    6 type  2   force =     0.00000000    0.00000000   -0.05942519
     atom    7 type  2   force =    -0.00000000   -0.00000000    0.05942519
     atom    8 type  2   force =     0.00000000    0.00000000    0.05942519
     atom    9 type  3   force =     0.00000000    0.00000000   -0.06368600
     atom   10 type  3   force =     0.00000000    0.00000000   -0.06368600
     atom   11 type  3   force =     0.00000000   -0.00000000    0.06368600
     atom   12 type  3   force =     0.00000000   -0.00000000    0.06368600
     The non-local contrib.  to forces
     atom    1 type  1   force =    -0.00000000   -0.00000000   -0.00000000
     atom    2 type  1   force =     0.00000000   -0.00000000    0.00000000
     atom    3 type  1   force =    -0.00000000   -0.00000000    0.00000000
     atom    4 type  1   force =    -0.00000000    0.00000000    0.00000000
     atom    5 type  2   force =     0.00000000   -0.00000000    1.05395884
     atom    6 type  2   force =    -0.00000000    0.00000000    1.05395884
     atom    7 type  2   force =    -0.00000000    0.00000000   -1.05395884
     atom    8 type  2   force =     0.00000000    0.00000000   -1.05395884
     atom    9 type  3   force =     0.00000000    0.00000000    0.58937820
     atom   10 type  3   force =    -0.00000000   -0.00000000    0.58937820
     atom   11 type  3   force =     0.00000000    0.00000000   -0.58937820
     atom   12 type  3   force =     0.00000000    0.00000000   -0.58937820
     The ionic contribution  to forces
     atom    1 type  1   force =     0.00000000   -0.00000000   -0.00000000
     atom    2 type  1   force =    -0.00002026    0.00001170   -0.00000000
     atom    3 type  1   force =     0.00000000   -0.00000000    0.00000000
     atom    4 type  1   force =     0.00002026   -0.00001170    0.00000000
     atom    5 type  2   force =    -0.00008909    0.00005143   20.59519329
     atom    6 type  2   force =     0.00008909   -0.00005143   20.59519329
     atom    7 type  2   force =    -0.00008909    0.00005143  -20.59519329
     atom    8 type  2   force =     0.00008909   -0.00005143  -20.59519329
     atom    9 type  3   force =     0.00008291   -0.00004787  -17.84024819
     atom   10 type  3   force =    -0.00008291    0.00004787  -17.84024819
     atom   11 type  3   force =    -0.00008291    0.00004787   17.84024819
     atom   12 type  3   force =     0.00008291   -0.00004787   17.84024819
     The local contribution  to forces
     atom    1 type  1   force =     0.00000245    0.00009209    0.00038947
     atom    2 type  1   force =     0.00022486   -0.00021099   -0.00050463
     atom    3 type  1   force =     0.00000230   -0.00005837   -0.00056758
     atom    4 type  1   force =    -0.00022016    0.00025004   -0.00011907
     atom    5 type  2   force =     0.00060277   -0.00087708  -21.70783913
     atom    6 type  2   force =    -0.00089256    0.00108178  -21.70957243
     atom    7 type  2   force =     0.00088474   -0.00059249   21.70806837
     atom    8 type  2   force =    -0.00051649    0.00044040   21.70961509
     atom    9 type  3   force =    -0.00015302    0.00028863   17.20245313
     atom   10 type  3   force =     0.00010262   -0.00026141   17.20390381
     atom   11 type  3   force =     0.00012487   -0.00006497  -17.20325536
     atom   12 type  3   force =    -0.00015625   -0.00013726  -17.20204630
     The core correction contribution to forces
     atom    1 type  1   force =    -0.00000002   -0.00000081   -0.00000011
     atom    2 type  1   force =     0.00000081   -0.00000040   -0.00000537
     atom    3 type  1   force =     0.00000004    0.00000109    0.00000019
     atom    4 type  1   force =    -0.00000065    0.00000069   -0.00000366
     atom    5 type  2   force =     0.00000000    0.00000000    0.00000000
     atom    6 type  2   force =     0.00000000    0.00000000    0.00000000
     atom    7 type  2   force =     0.00000000    0.00000000    0.00000000
     atom    8 type  2   force =     0.00000000    0.00000000    0.00000000
     atom    9 type  3   force =    -0.00000083    0.00000710   -0.01550779
     atom   10 type  3   force =     0.00000031   -0.00000539   -0.01550266
     atom   11 type  3   force =     0.00000018    0.00000127    0.01551517
     atom   12 type  3   force =    -0.00000188   -0.00000645    0.01551739
     The Hubbard contrib.    to forces
     atom    1 type  1   force =     0.00000000    0.00000000    0.00000000
     atom    2 type  1   force =     0.00000000    0.00000000    0.00000000
     atom    3 type  1   force =     0.00000000    0.00000000    0.00000000
     atom    4 type  1   force =     0.00000000    0.00000000    0.00000000
     atom    5 type  2   force =     0.00000000    0.00000000    0.00000000
     atom    6 type  2   force =     0.00000000    0.00000000    0.00000000
     atom    7 type  2   force =     0.00000000    0.00000000    0.00000000
     atom    8 type  2   force =     0.00000000    0.00000000    0.00000000
     atom    9 type  3   force =     0.00000000    0.00000000    0.00000000
     atom   10 type  3   force =     0.00000000    0.00000000    0.00000000
     atom   11 type  3   force =     0.00000000    0.00000000    0.00000000
     atom   12 type  3   force =     0.00000000    0.00000000    0.00000000
     The SCF correction term to forces
     atom    1 type  1   force =    -0.00000139   -0.00008873   -0.00041725
     atom    2 type  1   force =    -0.00013777    0.00014130    0.00044122
     atom    3 type  1   force =    -0.00000161    0.00006180    0.00055157
     atom    4 type  1   force =     0.00013561   -0.00017566    0.00007438
     atom    5 type  2   force =    -0.00046231    0.00094577   -0.00076071
     atom    6 type  2   force =     0.00083387   -0.00126681    0.00100338
     atom    7 type  2   force =    -0.00081058    0.00047989    0.00057381
     atom    8 type  2   force =     0.00033168   -0.00021039   -0.00111687
     atom    9 type  3   force =     0.00006263   -0.00017255    0.00017238
     atom   10 type  3   force =    -0.00000343    0.00015786   -0.00121120
     atom   11 type  3   force =    -0.00004229    0.00005733    0.00047100
     atom   12 type  3   force =     0.00006387    0.00012969   -0.00063019

     Total force =     0.174210     Total SCF correction =     0.003254

     Computing stress (Cartesian axis) and pressure

     negative rho (up, down):  1.623E-01 0.000E+00
          total   stress  (Ry/bohr**3)                   (kbar)     P=      -63.56
   0.00003498   0.00000000   0.00000000            5.15        0.00        0.00
   0.00000000   0.00003498  -0.00000000            0.00        5.15       -0.00
   0.00000000   0.00000000  -0.00136608            0.00        0.00     -200.96

     kinetic stress (kbar)  17327.95      0.00     -0.00
                                0.00  17327.95     -0.00
                               -0.00     -0.00  17008.43

     local   stress (kbar) -17876.14      0.17      0.00
                                0.17 -17875.79      0.00
                                0.00      0.00  10299.24

     nonloc. stress (kbar)   5921.70      0.00      0.00
                                0.00   5921.70      0.00
                                0.00      0.00   5797.30

     hartree stress (kbar)  33633.84     -0.08     -0.01
                               -0.08  33633.68      0.00
                               -0.01      0.00  21387.25

     exc-cor stress (kbar)   4400.38     -0.00      0.00
                               -0.00   4400.38     -0.00
                                0.00     -0.00   4387.73

     corecor stress (kbar) -12599.49      0.00     -0.00
                                0.00 -12599.49      0.00
                               -0.00      0.00 -12599.08

     ewald   stress (kbar) -30803.22      0.05     -0.00
                                0.05 -30803.15      0.00
                               -0.00      0.00 -46481.82

     hubbard stress (kbar)      0.00      0.00      0.00
                                0.00      0.00      0.00
                                0.00      0.00      0.00

     DFT-D   stress (kbar)      0.00      0.00      0.00
                                0.00      0.00      0.00
                                0.00      0.00      0.00

     XDM     stress (kbar)      0.00      0.00      0.00
                                0.00      0.00      0.00
                                0.00      0.00      0.00

     dft-nl  stress (kbar)      0.00      0.00      0.00
                                0.00      0.00      0.00
                                0.00      0.00      0.00

     TS-vdW  stress (kbar)      0.00      0.00      0.00
                                0.00      0.00      0.00
                                0.00      0.00      0.00

[...]

                                0.00      0.00      0.00

     Writing all to output data dir new_calculations/myprefix.save/

     General routines

     Parallel routines

   This run was terminated on:   1:26:58  21May2023

   JOB DONE.