     Program PWSCF v.7.0 starts on 21May2023 at  4:29: 5

     Reading input from espresso_3056.pwi
Warning: card &CELL ignored
Warning: card / ignored

     Current dimensions of program PWSCF are:
     Max number of different atomic species (ntypx) = 10
     Max number of k-points (npk) =  40000
     Max angular momentum in pseudopotentials (lmaxx) =  4
     file Mg.pbe-n-kjpaw_psl.0.3.0.UPF: wavefunction(s)  3S renormalized
     file O.pbe-n-kjpaw_psl.0.1.UPF: wavefunction(s)  2P renormalized

     gamma-point specific algorithms are used
     Message from routine setup:
     using ibrav=0 with symmetry is DISCOURAGED, use correct ibrav instead

     Subspace diagonalization in iterative solution of the eigenvalue problem:
     a serial algorithm will be used

     Using Slab Decomposition

     bravais-lattice index     =            0
     lattice parameter (alat)  =      10.7001  a.u.
     unit-cell volume          =     862.7407 (a.u.)^3
     number of atoms/cell      =           10
     number of atomic types    =            4
     number of electrons       =        72.00
     number of Kohn-Sham states=           43
     kinetic-energy cutoff     =      30.0000  Ry
     charge density cutoff     =     240.0000  Ry
     scf convergence threshold =      1.0E-06
     mixing beta               =       0.7000
     number of iterations used =            8  plain     mixing
     Exchange-correlation= SLA  PW   PBX  PBC
                           (   1   4   3   4   0   0   0)

     celldm(1)=  10.700077  celldm(2)=   0.000000  celldm(3)=   0.000000
     celldm(4)=   0.000000  celldm(5)=   0.000000  celldm(6)=   0.000000

     crystal axes: (cart. coord. in units of alat)
               a(1) = (   1.000000   0.000000   0.000000 )
               a(2) = (   0.008033   0.999968   0.000000 )
               a(3) = (  -0.504017  -0.499984   0.704261 )

     reciprocal axes: (cart. coord. in units 2 pi/alat)
               b(1) = (  1.000000 -0.008034  0.709964 )
               b(2) = (  0.000000  1.000032  0.709964 )
               b(3) = (  0.000000  0.000000  1.419928 )

     PseudoPot. # 1 for Sr read from file:
     /home/pragov/projects/rrg-bengioy-ad/pragov/crystal_structure_design/SSSP/Sr_pbe_v1.uspp.F.UPF
     MD5 check sum: 6b418c05fbe9db5448babca5e47b7a5b
     Pseudo is Ultrasoft + core correction, Zval = 10.0
     Generated by new atomic code, or converted to UPF format
     Using radial grid of  883 points,  6 beta functions with:
                l(1) =   0
                l(2) =   0
                l(3) =   1
                l(4) =   1
                l(5) =   2
                l(6) =   2
     Q(r) pseudized with  6 coefficients,  rinner =    1.400   1.400   1.400
                                                       1.400   1.400

     PseudoPot. # 2 for Mg read from file:
     /home/pragov/projects/rrg-bengioy-ad/pragov/crystal_structure_design/SSSP/Mg.pbe-n-kjpaw_psl.0.3.0.UPF
     MD5 check sum: 24ecedc7f3e3cbe212e682f4413594e4
     Pseudo is Projector augmented-wave + core cor, Zval =  2.0
     Generated using "atomic" code by A. Dal Corso  v.5.0.99 svn rev. 10869
     Shape of augmentation charge: PSQ
     Using radial grid of 1129 points,  4 beta functions with:
                l(1) =   0
                l(2) =   0
                l(3) =   1
                l(4) =   1
     Q(r) pseudized with 0 coefficients

     PseudoPot. # 3 for Mo read from file:
     /home/pragov/projects/rrg-bengioy-ad/pragov/crystal_structure_design/SSSP/Mo_ONCV_PBE-1.0.oncvpsp.upf
     MD5 check sum: 1b5d28e075c9ccadda658a603575cd1f
     Pseudo is Norm-conserving, Zval = 14.0
     Generated using ONCVPSP code by D. R. Hamann
     Using radial grid of 1526 points,  6 beta functions with:
                l(1) =   0
                l(2) =   0
                l(3) =   1
                l(4) =   1
                l(5) =   2
                l(6) =   2

     PseudoPot. # 4 for O  read from file:
     /home/pragov/projects/rrg-bengioy-ad/pragov/crystal_structure_design/SSSP/O.pbe-n-kjpaw_psl.0.1.UPF
     MD5 check sum: 0234752ac141de4415c5fc33072bef88
     Pseudo is Projector augmented-wave + core cor, Zval =  6.0
     Generated using "atomic" code by A. Dal Corso  v.5.0.99 svn rev. 10869
     Shape of augmentation charge: BESSEL
     Using radial grid of 1095 points,  4 beta functions with:
                l(1) =   0
                l(2) =   0
                l(3) =   1
                l(4) =   1
     Q(r) pseudized with 0 coefficients

     atomic species   valence    mass     pseudopotential
        Sr            10.00    87.62000     Sr( 1.00)
        Mg             2.00    24.30500     Mg( 1.00)
        Mo            14.00    95.95000     Mo( 1.00)
        O              6.00    15.99900     O ( 1.00)

      2 Sym. Ops., with inversion, found

                                    s                        frac. trans.

      isym =  1     identity

 cryst.   s( 1) = (     1          0          0      )
                  (     0          1          0      )
                  (     0          0          1      )

 cart.    s( 1) = (  1.0000000  0.0000000  0.0000000 )
                  (  0.0000000  1.0000000  0.0000000 )
                  (  0.0000000  0.0000000  1.0000000 )

      isym =  2     inversion

 cryst.   s( 2) = (    -1          0          0      )
                  (     0         -1          0      )
                  (     0          0         -1      )

 cart.    s( 2) = ( -1.0000000 -0.0000000 -0.0000000 )
                  (  0.0000000 -1.0000000 -0.0000000 )
                  (  0.0000000  0.0000000 -1.0000000 )

   Cartesian axes

     site n.     atom                  positions (alat units)
         1           Sr  tau(   1) = (   0.5000000   0.0000000   0.3521304  )
         2           Sr  tau(   2) = (   0.0040167   0.4999839   0.3521304  )
         3           Mg  tau(   3) = (   0.5040167   0.4999839   0.0000000  )
         4           Mo  tau(   4) = (   0.0000000   0.0000000   0.0000000  )
         5           O   tau(   5) = (   0.7642677   0.7581525   0.0000000  )
         6           O   tau(   6) = (   0.2437656   0.2418152   0.0000000  )
         7           O   tau(   7) = (   0.5362561   0.4674844   0.3643472  )
         8           O   tau(   8) = (  -0.0322394   0.0324995   0.3399136  )
         9           O   tau(   9) = (   0.2565950  -0.2586657   0.6584839  )
        10           O   tau(  10) = (   0.2474217   0.7586495   0.0457770  )

   Crystallographic axes

     site n.     atom                  positions (cryst. coord.)
         1           Sr  tau(   1) = (  0.7500000  0.2500000  0.5000000  )
         2           Sr  tau(   2) = (  0.2500000  0.7500000  0.5000000  )
         3           Mg  tau(   3) = (  0.5000000  0.5000000  0.0000000  )
         4           Mo  tau(   4) = (  0.0000000  0.0000000  0.0000000  )
         5           O   tau(   5) = (  0.7581770  0.7581770  0.0000000  )
         6           O   tau(   6) = (  0.2418230  0.2418230  0.0000000  )
         7           O   tau(   7) = (  0.7911740  0.7261730  0.5173470  )
         8           O   tau(   8) = (  0.2088260  0.2738270  0.4826530  )
         9           O   tau(   9) = (  0.7261730  0.2088260  0.9350000  )
        10           O   tau(  10) = (  0.2738270  0.7911740  0.0650000  )

     number of k points=     1  Methfessel-Paxton smearing, width (Ry)=  0.0010
                       cart. coord. in units 2pi/alat
        k(    1) = (   0.0000000   0.0000000   0.0000000), wk =   2.0000000

                       cryst. coord.
        k(    1) = (   0.0000000   0.0000000   0.0000000), wk =   2.0000000

     Check: negative core charge=   -0.000011

     Initial potential from superposition of free atoms

     starting charge      71.9308, renormalised to      72.0000

     negative rho (up, down):  1.244E-01 0.000E+00
     Starting wfcs are   64 randomized atomic wfcs
     Checking if some PAW data can be deallocated...

     Self-consistent Calculation

     iteration #  1     ecut=    30.00 Ry     beta= 0.70
     Davidson diagonalization with overlap

     ethr =  1.00E-02,  avg # of iterations =  2.0

     negative rho (up, down):  1.272E-01 0.000E+00

     total energy              =    -559.16511733 Ry
     estimated scf accuracy    <       3.92438105 Ry

[...]

     total energy              =    -561.23620926 Ry
     estimated scf accuracy    <       0.00000200 Ry

     iteration # 11     ecut=    30.00 Ry     beta= 0.70
     Davidson diagonalization with overlap

     ethr =  2.78E-09,  avg # of iterations =  4.0

[...]

     End of self-consistent calculation

          k = 0.0000 0.0000 0.0000 (  1211 PWs)   bands (ev):

   -52.7605 -26.8794 -26.8793 -26.8604 -24.6670 -24.6252  -8.1308  -7.6237
    -7.2688  -7.0607  -7.0596  -6.8605  -6.8441  -6.8440  -6.5774  -6.4423
    -6.4418  -6.3830   4.3756   5.0397   5.0789   5.0794   5.1382   5.1535
     6.3625   6.3665   6.3670   8.0921   8.1876   8.1883   8.7768   8.7771
     8.7815   8.9508   9.2080   9.2089  11.2482  11.2484  11.2846  13.8744
    14.2104  14.7605  15.2763

     occupation numbers
     1.0000   1.0000   1.0000   1.0000   1.0000   1.0000   1.0000   1.0000
     1.0000   1.0000   1.0000   1.0000   1.0000   1.0000   1.0000   1.0000
     1.0000   1.0000   1.0000   1.0000   1.0000   1.0000   1.0000   1.0000
     1.0000   1.0000   1.0000   1.0000   1.0000   1.0000   1.0000   1.0000
     1.0000   1.0000   1.0000   1.0000  -0.0000  -0.0000  -0.0000  -0.0000
    -0.0000  -0.0000  -0.0000

     the Fermi energy is    11.1431 ev

!    total energy              =    -561.23620952 Ry
     estimated scf accuracy    <       0.00000030 Ry
     smearing contrib. (-TS)   =       0.00000000 Ry
     internal energy E=F+TS    =    -561.23620952 Ry

     The total energy is F=E-TS. E is the sum of the following terms:
     one-electron contribution =    -140.54061008 Ry
     hartree contribution      =     111.74498526 Ry
     xc contribution           =     -99.17436243 Ry
     ewald contribution        =    -344.91022891 Ry
     one-center paw contrib.   =     -88.35599335 Ry
      -> PAW hartree energy AE =     183.92114225 Ry
      -> PAW hartree energy PS =    -183.22532799 Ry
      -> PAW xc energy AE      =    -136.55834577 Ry
      -> PAW xc energy PS      =      47.50653816 Ry
      -> total E_H with PAW    =     112.44079951 Ry
      -> total E_XC with PAW   =    -188.22617004 Ry

     convergence has been achieved in  11 iterations

     negative rho (up, down):  1.326E-01 0.000E+00

     Forces acting on atoms (cartesian axes, Ry/au):

     atom    1 type  1   force =     0.00002099    0.00002178   -0.00000233
     atom    2 type  1   force =    -0.00002099   -0.00002178    0.00000233
     atom    3 type  2   force =     0.00000000    0.00000000    0.00000000
     atom    4 type  3   force =     0.00000000    0.00000000    0.00000000
     atom    5 type  4   force =     0.03966796    0.03935096    0.00000274
     atom    6 type  4   force =    -0.03966796   -0.03935096   -0.00000274
     atom    7 type  4   force =     0.04740330   -0.04778981    0.05332854
     atom    8 type  4   force =    -0.04740330    0.04778981   -0.05332854
     atom    9 type  4   force =     0.03765251   -0.03795503   -0.06729920
     atom   10 type  4   force =    -0.03765251    0.03795503    0.06729920
     The non-local contrib.  to forces
     atom    1 type  1   force =     0.00001879    0.00001340   -0.00000247
     atom    2 type  1   force =    -0.00001879   -0.00001340    0.00000247
     atom    3 type  2   force =     0.00000000    0.00000000    0.00000000
     atom    4 type  3   force =     0.00000000    0.00000000    0.00000000
     atom    5 type  4   force =     0.22953553    0.22769586    0.00000259
     atom    6 type  4   force =    -0.22953553   -0.22769586   -0.00000259
     atom    7 type  4   force =    -0.02087040    0.02103333    0.31928296
     atom    8 type  4   force =     0.02087040   -0.02103333   -0.31928296
     atom    9 type  4   force =     0.22487579   -0.22668610    0.02970031
     atom   10 type  4   force =    -0.22487579    0.22668610   -0.02970031
     The ionic contribution  to forces
     atom    1 type  1   force =    -0.00002130   -0.00002177    0.00003070
     atom    2 type  1   force =     0.00002130    0.00002177   -0.00003070
     atom    3 type  2   force =    -0.00000000    0.00000000    0.00000000
     atom    4 type  3   force =    -0.00000000    0.00000000    0.00000000
     atom    5 type  4   force =    -6.78249838   -6.72825474    0.00000039
     atom    6 type  4   force =     6.78249838    6.72825475   -0.00000039
     atom    7 type  4   force =     0.44525868   -0.44885007   -9.47385134
     atom    8 type  4   force =    -0.44525868    0.44885007    9.47385134
     atom    9 type  4   force =    -6.67206334    6.72589138   -0.63226345
     atom   10 type  4   force =     6.67206335   -6.72589138    0.63226345
     The local contribution  to forces
     atom    1 type  1   force =     0.00014968    0.00014036   -0.00003188
     atom    2 type  1   force =    -0.00015710   -0.00017526    0.00003394
     atom    3 type  2   force =    -0.00000978   -0.00001321    0.00004971
     atom    4 type  3   force =     0.00003402    0.00012459   -0.00032400
     atom    5 type  4   force =     6.59404666    6.54132253   -0.00001418
     atom    6 type  4   force =    -6.59403280   -6.54130574   -0.00000740
     atom    7 type  4   force =    -0.37714276    0.38019698    9.20957496
     atom    8 type  4   force =     0.37707356   -0.38010119   -9.20974848
     atom    9 type  4   force =     6.48625837   -6.53858149    0.53555061
     atom   10 type  4   force =    -6.48621971    6.53857396   -0.53555114
     The core correction contribution to forces
     atom    1 type  1   force =    -0.00000032    0.00000090   -0.00000038
     atom    2 type  1   force =    -0.00000065   -0.00000059   -0.00000090
     atom    3 type  2   force =    -0.00000048    0.00000030   -0.00000067
     atom    4 type  3   force =     0.00000000    0.00000000    0.00000000
     atom    5 type  4   force =    -0.00135946   -0.00134865   -0.00000000
     atom    6 type  4   force =     0.00135931    0.00134825    0.00000013
     atom    7 type  4   force =     0.00016391   -0.00016523   -0.00185952
     atom    8 type  4   force =    -0.00016443    0.00016567    0.00185935
     atom    9 type  4   force =    -0.00130943    0.00131990   -0.00023381
     atom   10 type  4   force =     0.00130888   -0.00131942    0.00023410
     The Hubbard contrib.    to forces
     atom    1 type  1   force =     0.00000000    0.00000000    0.00000000
     atom    2 type  1   force =     0.00000000    0.00000000    0.00000000
     atom    3 type  2   force =     0.00000000    0.00000000    0.00000000
     atom    4 type  3   force =     0.00000000    0.00000000    0.00000000
     atom    5 type  4   force =     0.00000000    0.00000000    0.00000000
     atom    6 type  4   force =     0.00000000    0.00000000    0.00000000
     atom    7 type  4   force =     0.00000000    0.00000000    0.00000000
     atom    8 type  4   force =     0.00000000    0.00000000    0.00000000
     atom    9 type  4   force =     0.00000000    0.00000000    0.00000000
     atom   10 type  4   force =     0.00000000    0.00000000    0.00000000
     The SCF correction term to forces
     atom    1 type  1   force =    -0.00012607   -0.00012174    0.00000684
     atom    2 type  1   force =     0.00013403    0.00013507    0.00000266
     atom    3 type  2   force =     0.00000625    0.00000996   -0.00004133
     atom    4 type  3   force =    -0.00005417   -0.00012908    0.00037484
     atom    5 type  4   force =    -0.00004310   -0.00006942    0.00001096
     atom    6 type  4   force =     0.00005596    0.00004226    0.00000452
     atom    7 type  4   force =    -0.00002255    0.00001195    0.00015323
     atom    8 type  4   force =     0.00005943   -0.00007463   -0.00003605
     atom    9 type  4   force =    -0.00012342    0.00011598   -0.00005461
     atom   10 type  4   force =     0.00005621   -0.00007953    0.00005135

     Total force =     0.189126     Total SCF correction =     0.000565

     Computing stress (Cartesian axis) and pressure

     negative rho (up, down):  1.326E-01 0.000E+00
          total   stress  (Ry/bohr**3)                   (kbar)     P=     -217.79
  -0.00154130  -0.00017807  -0.00000009         -226.73      -26.20       -0.01
  -0.00017807  -0.00153841   0.00000011          -26.20     -226.31        0.02
  -0.00000009   0.00000011  -0.00136186           -0.01        0.02     -200.34

     kinetic stress (kbar)  21430.68     27.74      0.03
                               27.74  21430.23     -0.03
                                0.03     -0.03  21402.57

     local   stress (kbar) -11959.79   -368.62      0.03
                             -368.62 -11953.76     -0.05
                                0.03     -0.05 -11588.26

     nonloc. stress (kbar)   8152.99    -11.31     -0.00
                              -11.31   8153.17      0.00
                               -0.00      0.00   8164.35

     hartree stress (kbar)   6383.66     95.37     -0.07
                               95.37   6382.08      0.07
                               -0.07      0.07   6287.79

     exc-cor stress (kbar)   -734.84      1.47      0.00
                                1.47   -734.87     -0.00
                                0.00     -0.00   -736.33

     corecor stress (kbar)  -3974.21      0.12     -0.00
                                0.12  -3974.21      0.00
                               -0.00      0.00  -3974.32

     ewald   stress (kbar) -19525.21    229.03     -0.01
                              229.03 -19528.95      0.03
                               -0.01      0.03 -19756.14

     hubbard stress (kbar)      0.00      0.00      0.00
                                0.00      0.00      0.00
                                0.00      0.00      0.00

     DFT-D   stress (kbar)      0.00      0.00      0.00
                                0.00      0.00      0.00
                                0.00      0.00      0.00

     XDM     stress (kbar)      0.00      0.00      0.00
                                0.00      0.00      0.00
                                0.00      0.00      0.00

     dft-nl  stress (kbar)      0.00      0.00      0.00
                                0.00      0.00      0.00
                                0.00      0.00      0.00

     TS-vdW  stress (kbar)      0.00      0.00      0.00
                                0.00      0.00      0.00
                                0.00      0.00      0.00

[...]

                                0.00      0.00      0.00

     Writing all to output data dir new_calculations/myprefix.save/

     General routines

     Parallel routines

     PAW routines

   This run was terminated on:   4:29:18  21May2023

   JOB DONE.