     Program PWSCF v.7.0 starts on 20May2023 at  4:38: 6

     Reading input from espresso_2162.pwi
Warning: card &CELL ignored
Warning: card / ignored

     Current dimensions of program PWSCF are:
     Max number of different atomic species (ntypx) = 10
     Max number of k-points (npk) =  40000
     Max angular momentum in pseudopotentials (lmaxx) =  4
     file Ba.pbe-spn-kjpaw_psl.1.0.0.UPF: wavefunction(s)  5S 6S renormalized
     file O.pbe-n-kjpaw_psl.0.1.UPF: wavefunction(s)  2P renormalized

     gamma-point specific algorithms are used
     Message from routine setup:
     using ibrav=0 with symmetry is DISCOURAGED, use correct ibrav instead

     Subspace diagonalization in iterative solution of the eigenvalue problem:
     a serial algorithm will be used

     Using Slab Decomposition

     bravais-lattice index     =            0
     lattice parameter (alat)  =      11.4793  a.u.
     unit-cell volume          =    1325.0027 (a.u.)^3
     number of atoms/cell      =           10
     number of atomic types    =            3
     number of electrons       =        68.00
     number of Kohn-Sham states=           41
     kinetic-energy cutoff     =      30.0000  Ry
     charge density cutoff     =     240.0000  Ry
     scf convergence threshold =      1.0E-06
     mixing beta               =       0.7000
     number of iterations used =            8  plain     mixing
     Exchange-correlation= SLA  PW   PBX  PBC
                           (   1   4   3   4   0   0   0)

     celldm(1)=  11.479266  celldm(2)=   0.000000  celldm(3)=   0.000000
     celldm(4)=   0.000000  celldm(5)=   0.000000  celldm(6)=   0.000000

     crystal axes: (cart. coord. in units of alat)
               a(1) = (   1.000000   0.000000   0.000000 )
               a(2) = (   0.000000   0.766269   0.000000 )
               a(3) = (   0.000000   0.347020   1.143123 )

     reciprocal axes: (cart. coord. in units 2 pi/alat)
               b(1) = (  1.000000  0.000000  0.000000 )
               b(2) = (  0.000000  1.305024 -0.396169 )
               b(3) = (  0.000000  0.000000  0.874796 )

     PseudoPot. # 1 for Ba read from file:
     /home/pragov/projects/rrg-bengioy-ad/pragov/crystal_structure_design/SSSP/Ba.pbe-spn-kjpaw_psl.1.0.0.UPF
     MD5 check sum: c432291d3e53af55f19d5e8866385beb
     Pseudo is Projector augmented-wave + core cor, Zval = 10.0
     Generated using "atomic" code by A. Dal Corso  v.5.1
     Shape of augmentation charge: PSQ
     Using radial grid of 1251 points,  7 beta functions with:
                l(1) =   0
                l(2) =   0
                l(3) =   0
                l(4) =   1
                l(5) =   1
                l(6) =   2
                l(7) =   2
     Q(r) pseudized with 0 coefficients

     PseudoPot. # 2 for Te read from file:
     /home/pragov/projects/rrg-bengioy-ad/pragov/crystal_structure_design/SSSP/Te_pbe_v1.uspp.F.UPF
     MD5 check sum: c319670d6894cc26e93307826a071b75
     Pseudo is Ultrasoft + core correction, Zval =  6.0
     Generated by new atomic code, or converted to UPF format
     Using radial grid of  891 points,  5 beta functions with:
                l(1) =   0
                l(2) =   0
                l(3) =   1
                l(4) =   1
                l(5) =   2
     Q(r) pseudized with  6 coefficients,  rinner =    1.800   1.800   1.800
                                                       1.800   1.800

     PseudoPot. # 3 for O  read from file:
     /home/pragov/projects/rrg-bengioy-ad/pragov/crystal_structure_design/SSSP/O.pbe-n-kjpaw_psl.0.1.UPF
     MD5 check sum: 0234752ac141de4415c5fc33072bef88
     Pseudo is Projector augmented-wave + core cor, Zval =  6.0
     Generated using "atomic" code by A. Dal Corso  v.5.0.99 svn rev. 10869
     Shape of augmentation charge: BESSEL
     Using radial grid of 1095 points,  4 beta functions with:
                l(1) =   0
                l(2) =   0
                l(3) =   1
                l(4) =   1
     Q(r) pseudized with 0 coefficients

     atomic species   valence    mass     pseudopotential
        Ba            10.00   137.32700     Ba( 1.00)
        Te             6.00   127.60000     Te( 1.00)
        O              6.00    15.99900     O ( 1.00)

      4 Sym. Ops., with inversion, found ( 2 have fractional translation)

                                    s                        frac. trans.

      isym =  1     identity

 cryst.   s( 1) = (     1          0          0      )
                  (     0          1          0      )
                  (     0          0          1      )

 cart.    s( 1) = (  1.0000000  0.0000000  0.0000000 )
                  (  0.0000000  1.0000000 -0.0000000 )
                  (  0.0000000  0.0000000  1.0000000 )

      isym =  2     180 deg rotation - cart. axis [1,0,0]

 cryst.   s( 2) = (     1          0          0      )    f =(  0.5000000 )
                  (     0         -1          0      )       (  0.0000000 )
                  (     0          0         -1      )       (  0.0000000 )

 cart.    s( 2) = (  1.0000000  0.0000000  0.0000000 )    f =(  0.5000000 )
                  (  0.0000000 -1.0000000  0.0000000 )       (  0.0000000 )
                  (  0.0000000  0.0000000 -1.0000000 )       (  0.0000000 )

      isym =  3     inversion

 cryst.   s( 3) = (    -1          0          0      )
                  (     0         -1          0      )
                  (     0          0         -1      )

 cart.    s( 3) = ( -1.0000000  0.0000000  0.0000000 )
                  (  0.0000000 -1.0000000  0.0000000 )
                  (  0.0000000  0.0000000 -1.0000000 )

      isym =  4     inv. 180 deg rotation - cart. axis [1,0,0]

 cryst.   s( 4) = (    -1          0          0      )    f =(  0.5000000 )
                  (     0          1          0      )       (  0.0000000 )
                  (     0          0          1      )       (  0.0000000 )

 cart.    s( 4) = ( -1.0000000  0.0000000  0.0000000 )    f =(  0.5000000 )
                  (  0.0000000  1.0000000 -0.0000000 )       (  0.0000000 )
                  (  0.0000000  0.0000000  1.0000000 )       (  0.0000000 )

   Cartesian axes

     site n.     atom                  positions (alat units)
         1           Ba  tau(   1) = (   0.2500000   0.3692559   0.3584811  )
         2           Ba  tau(   2) = (   0.7500000   0.7440333   0.7846420  )
         3           Te  tau(   3) = (   0.2500000   0.3489884   0.9742073  )
         4           Te  tau(   4) = (   0.7500000   0.7643008   0.1689159  )
         5           O   tau(   5) = (   0.5141410   0.7464482   0.3727656  )
         6           O   tau(   6) = (   0.0141410   0.3668411   0.7703575  )
         7           O   tau(   7) = (   0.4858590   0.3668411   0.7703575  )
         8           O   tau(   8) = (   0.9858590   0.7464482   0.3727656  )
         9           O   tau(   9) = (   0.7500000   0.3058788   0.1166683  )
        10           O   tau(  10) = (   0.2500000   0.8074104   1.0264549  )

   Crystallographic axes

     site n.     atom                  positions (cryst. coord.)
         1           Ba  tau(   1) = (  0.2500000  0.3398690  0.3135980  )
         2           Ba  tau(   2) = (  0.7500000  0.6601310  0.6864020  )
         3           Te  tau(   3) = (  0.2500000  0.0694880  0.8522330  )
         4           Te  tau(   4) = (  0.7500000  0.9305120  0.1477670  )
         5           O   tau(   5) = (  0.5141410  0.8264550  0.3260940  )
         6           O   tau(   6) = (  0.0141410  0.1735450  0.6739060  )
         7           O   tau(   7) = (  0.4858590  0.1735450  0.6739060  )
         8           O   tau(   8) = (  0.9858590  0.8264550  0.3260940  )
         9           O   tau(   9) = (  0.7500000  0.3529590  0.1020610  )
        10           O   tau(  10) = (  0.2500000  0.6470410  0.8979390  )

     number of k points=     1  Methfessel-Paxton smearing, width (Ry)=  0.0010
                       cart. coord. in units 2pi/alat
        k(    1) = (   0.0000000   0.0000000   0.0000000), wk =   2.0000000

                       cryst. coord.
        k(    1) = (   0.0000000   0.0000000   0.0000000), wk =   2.0000000

     Check: negative core charge=   -0.000006

     Initial potential from superposition of free atoms

     starting charge      67.9655, renormalised to      68.0000
     Starting wfcs are   42 randomized atomic wfcs
     Checking if some PAW data can be deallocated...

     Self-consistent Calculation

     iteration #  1     ecut=    30.00 Ry     beta= 0.70
     Davidson diagonalization with overlap

     ethr =  1.00E-02,  avg # of iterations =  5.0

     total energy              =   -1173.86653718 Ry
     estimated scf accuracy    <       3.29794686 Ry

[...]

     total energy              =   -1175.60514201 Ry
     estimated scf accuracy    <       0.00000632 Ry

     iteration # 18     ecut=    30.00 Ry     beta= 0.70
     Davidson diagonalization with overlap

     ethr =  2.04E-09,  avg # of iterations =  4.0

     End of self-consistent calculation

          k = 0.0000 0.0000 0.0000 (  1838 PWs)   bands (ev):

   -19.7225 -19.6815 -12.8573 -12.7603 -11.2651 -11.2264 -11.2189 -11.0580
    -5.0336  -4.9065  -4.8844  -4.7863  -4.7810  -4.7365  -3.2069  -2.8892
     0.6904   0.7850   1.0036   1.3249   2.0464   2.4545   3.5412   3.7008
     3.8649   4.0001   4.1720   4.4424   4.7253   4.7488   4.7743   4.8227
     4.9137   5.0493   8.7582  10.2584  10.4188  11.2324  11.5820  11.8126
    11.9348

     occupation numbers
     1.0000   1.0000   1.0000   1.0000   1.0000   1.0000   1.0000   1.0000
     1.0000   1.0000   1.0000   1.0000   1.0000   1.0000   1.0000   1.0000
     1.0000   1.0000   1.0000   1.0000   1.0000   1.0000   1.0000   1.0000
     1.0000   1.0000   1.0000   1.0000   1.0000   1.0000   1.0000   1.0000
     1.0000   1.0000  -0.0000  -0.0000  -0.0000  -0.0000  -0.0000  -0.0000
    -0.0000

     the Fermi energy is     8.0797 ev

!    total energy              =   -1175.60514188 Ry
     estimated scf accuracy    <       0.00000070 Ry
     smearing contrib. (-TS)   =       0.00000000 Ry
     internal energy E=F+TS    =   -1175.60514188 Ry

     The total energy is F=E-TS. E is the sum of the following terms:
     one-electron contribution =     -83.97684141 Ry
     hartree contribution      =      81.97464750 Ry
     xc contribution           =    -114.14269868 Ry
     ewald contribution        =    -252.36220895 Ry
     one-center paw contrib.   =    -807.09804035 Ry
      -> PAW hartree energy AE =     231.80345441 Ry
      -> PAW hartree energy PS =    -230.99619593 Ry
      -> PAW xc energy AE      =    -890.97607630 Ry
      -> PAW xc energy PS      =      83.07077748 Ry
      -> total E_H with PAW    =      82.78190598 Ry
      -> total E_XC with PAW   =    -922.04799750 Ry

     convergence has been achieved in  18 iterations

     Forces acting on atoms (cartesian axes, Ry/au):

     atom    1 type  1   force =    -0.00000000   -0.00456402    0.00540257
     atom    2 type  1   force =    -0.00000000    0.00456402   -0.00540257
     atom    3 type  2   force =     0.00000000    0.11693408    0.04039482
     atom    4 type  2   force =     0.00000000   -0.11693408   -0.04039482
     atom    5 type  3   force =    -0.04110782   -0.00215323    0.03651339
     atom    6 type  3   force =    -0.04110782    0.00215323   -0.03651339
     atom    7 type  3   force =     0.04110782    0.00215323   -0.03651339
     atom    8 type  3   force =     0.04110782   -0.00215323    0.03651339
     atom    9 type  3   force =     0.00000000    0.11711405   -0.02826544
     atom   10 type  3   force =     0.00000000   -0.11711405    0.02826544
     The non-local contrib.  to forces
     atom    1 type  1   force =     0.00000000    0.00583034   -0.02761973
     atom    2 type  1   force =     0.00000000   -0.00583034    0.02761973
     atom    3 type  2   force =     0.00000000    0.10637738    0.47969917
     atom    4 type  2   force =     0.00000000   -0.10637738   -0.47969917
     atom    5 type  3   force =     0.94073701    0.10297966   -0.77932420
     atom    6 type  3   force =     0.94073701   -0.10297966    0.77932420
     atom    7 type  3   force =    -0.94073701   -0.10297966    0.77932420
     atom    8 type  3   force =    -0.94073701    0.10297966   -0.77932420
     atom    9 type  3   force =     0.00000000   -0.90188656    0.32610720
     atom   10 type  3   force =     0.00000000    0.90188656   -0.32610720
     The ionic contribution  to forces
     atom    1 type  1   force =    -0.00000000   -0.21227063   -1.41288793
     atom    2 type  1   force =    -0.00000000    0.21227063    1.41288793
     atom    3 type  2   force =    -0.00000000    2.53591220    4.34801038
     atom    4 type  2   force =     0.00000000   -2.53591220   -4.34801038
     atom    5 type  3   force =    -2.77627417   -0.41543459    1.53776930
     atom    6 type  3   force =    -2.77627417    0.41543459   -1.53776930
     atom    7 type  3   force =     2.77627417    0.41543459   -1.53776930
     atom    8 type  3   force =     2.77627417   -0.41543459    1.53776930
     atom    9 type  3   force =     0.00000000    3.36980036   -0.92689317
     atom   10 type  3   force =    -0.00000000   -3.36980036    0.92689317
     The local contribution  to forces
     atom    1 type  1   force =    -0.00022514    0.20301353    1.44395871
     atom    2 type  1   force =    -0.00129706   -0.20273085   -1.44459975
     atom    3 type  2   force =     0.00009381   -2.53779602   -4.84367760
     atom    4 type  2   force =    -0.00000881    2.53778799    4.84368367
     atom    5 type  3   force =     1.80362833    0.31146941   -0.72952509
     atom    6 type  3   force =     1.80363772   -0.31147129    0.72950971
     atom    7 type  3   force =    -1.80361478   -0.31146770    0.72954456
     atom    8 type  3   force =    -1.80363102    0.31146926   -0.72952330
     atom    9 type  3   force =    -0.00002438   -2.35869715    0.57640507
     atom   10 type  3   force =     0.00005181    2.35872730   -0.57640083
     The core correction contribution to forces
     atom    1 type  1   force =    -0.00000137   -0.00100444    0.00163642
     atom    2 type  1   force =    -0.00002122    0.00100820   -0.00164800
     atom    3 type  2   force =    -0.00000031    0.01249132    0.05637401
     atom    4 type  2   force =    -0.00000063   -0.01249117   -0.05637389
     atom    5 type  3   force =    -0.00919050   -0.00116714    0.00754907
     atom    6 type  3   force =    -0.00919093    0.00116714   -0.00754947
     atom    7 type  3   force =     0.00919043    0.00116711   -0.00754877
     atom    8 type  3   force =     0.00919040   -0.00116713    0.00754912
     atom    9 type  3   force =     0.00000005    0.00783827   -0.00389609
     atom   10 type  3   force =     0.00000001   -0.00783812    0.00389630
     The Hubbard contrib.    to forces
     atom    1 type  1   force =     0.00000000    0.00000000    0.00000000
     atom    2 type  1   force =     0.00000000    0.00000000    0.00000000
     atom    3 type  2   force =     0.00000000    0.00000000    0.00000000
     atom    4 type  2   force =     0.00000000    0.00000000    0.00000000
     atom    5 type  3   force =     0.00000000    0.00000000    0.00000000
     atom    6 type  3   force =     0.00000000    0.00000000    0.00000000
     atom    7 type  3   force =     0.00000000    0.00000000    0.00000000
     atom    8 type  3   force =     0.00000000    0.00000000    0.00000000
     atom    9 type  3   force =     0.00000000    0.00000000    0.00000000
     atom   10 type  3   force =     0.00000000    0.00000000    0.00000000
     The SCF correction term to forces
     atom    1 type  1   force =    -0.00002082   -0.00000565    0.00002548
     atom    2 type  1   force =     0.00024777   -0.00002644    0.00004791
     atom    3 type  2   force =    -0.00008769   -0.00005202   -0.00001203
     atom    4 type  2   force =     0.00001551    0.00005748    0.00000406
     atom    5 type  3   force =    -0.00000177   -0.00000127    0.00003808
     atom    6 type  3   force =    -0.00003056   -0.00000045   -0.00004584
     atom    7 type  3   force =    -0.00000521   -0.00000137   -0.00005369
     atom    8 type  3   force =     0.00000510   -0.00000288    0.00004176
     atom    9 type  3   force =     0.00002702    0.00005626    0.00001699
     atom   10 type  3   force =    -0.00004340   -0.00009230   -0.00001055

     Total force =     0.268050     Total SCF correction =     0.000322

     Computing stress (Cartesian axis) and pressure

          total   stress  (Ry/bohr**3)                   (kbar)     P=     -194.70
  -0.00112264   0.00000000   0.00000000         -165.15        0.00        0.00
   0.00000000  -0.00165152  -0.00017760            0.00     -242.95      -26.13
   0.00000000  -0.00017760  -0.00119638            0.00      -26.13     -175.99

     kinetic stress (kbar)  10877.73      0.00      0.00
                                0.00  10805.04     49.57
                                0.00     49.57  10899.62

     local   stress (kbar)  -4000.18     -0.00      0.01
                               -0.00  -3944.63   1668.88
                                0.01   1668.88  -1523.93

     nonloc. stress (kbar)   1240.96      0.00      0.00
                                0.00   1240.66    -11.89
                                0.00    -11.89   1205.85

     hartree stress (kbar)   3388.01      0.00     -0.00
                                0.00   3302.80   -540.06
                               -0.00   -540.06   2410.22

     exc-cor stress (kbar)   2752.18      0.00      0.00
                                0.00   2756.65     -2.37
                                0.00     -2.37   2750.61

     corecor stress (kbar)  -5575.98     -0.00     -0.00
                               -0.00  -5573.95     -0.56
                               -0.00     -0.56  -5577.86

     ewald   stress (kbar)  -8847.86     -0.00     -0.00
                               -0.00  -8829.51  -1189.71
                               -0.00  -1189.71 -10340.50

     hubbard stress (kbar)      0.00      0.00      0.00
                                0.00      0.00      0.00
                                0.00      0.00      0.00

     DFT-D   stress (kbar)      0.00      0.00      0.00
                                0.00      0.00      0.00
                                0.00      0.00      0.00

     XDM     stress (kbar)      0.00      0.00      0.00
                                0.00      0.00      0.00
                                0.00      0.00      0.00

     dft-nl  stress (kbar)      0.00      0.00      0.00
                                0.00      0.00      0.00
                                0.00      0.00      0.00

     TS-vdW  stress (kbar)      0.00      0.00      0.00
                                0.00      0.00      0.00
                                0.00      0.00      0.00

[...]

                                0.00      0.00      0.00

     Writing all to output data dir new_calculations/myprefix.save/

     General routines

     Parallel routines

     PAW routines

   This run was terminated on:   4:39: 0  20May2023

   JOB DONE.