     Program PWSCF v.7.0 starts on 21May2023 at  9:43:47

     Reading input from espresso_23556.pwi
Warning: card &CELL ignored
Warning: card / ignored

     Current dimensions of program PWSCF are:
     Max number of different atomic species (ntypx) = 10
     Max number of k-points (npk) =  40000
     Max angular momentum in pseudopotentials (lmaxx) =  4
     file K.pbe-spn-kjpaw_psl.1.0.0.UPF: wavefunction(s)  3S renormalized
     file O.pbe-n-kjpaw_psl.0.1.UPF: wavefunction(s)  2P renormalized

     gamma-point specific algorithms are used
     Message from routine setup:
     using ibrav=0 with symmetry is DISCOURAGED, use correct ibrav instead

     Subspace diagonalization in iterative solution of the eigenvalue problem:
     a serial algorithm will be used

     Using Slab Decomposition

     bravais-lattice index     =            0
     lattice parameter (alat)  =      12.3386  a.u.
     unit-cell volume          =     419.3918 (a.u.)^3
     number of atoms/cell      =            4
     number of atomic types    =            3
     number of electrons       =        46.00
     number of Kohn-Sham states=           28
     kinetic-energy cutoff     =      30.0000  Ry
     charge density cutoff     =     240.0000  Ry
     scf convergence threshold =      1.0E-06
     mixing beta               =       0.7000
     number of iterations used =            8  plain     mixing
     Exchange-correlation= SLA  PW   PBX  PBC
                           (   1   4   3   4   0   0   0)

     celldm(1)=  12.338604  celldm(2)=   0.000000  celldm(3)=   0.000000
     celldm(4)=   0.000000  celldm(5)=   0.000000  celldm(6)=   0.000000

     crystal axes: (cart. coord. in units of alat)
               a(1) = (   1.000000   0.000000   0.000000 )
               a(2) = (   0.864867   0.502001   0.000000 )
               a(3) = (   0.864867   0.232812   0.444751 )

     reciprocal axes: (cart. coord. in units 2 pi/alat)
               b(1) = (  1.000000 -1.722838 -1.042760 )
               b(2) = (  0.000000  1.992027 -1.042760 )
               b(3) = (  0.000000  0.000000  2.248449 )

     PseudoPot. # 1 for K  read from file:
     /home/pragov/projects/rrg-bengioy-ad/pragov/crystal_structure_design/SSSP/K.pbe-spn-kjpaw_psl.1.0.0.UPF
     MD5 check sum: 7d58810084cac21f60fbe77ea2b688fd
     Pseudo is Projector augmented-wave + core cor, Zval =  9.0
     Generated using "atomic" code by A. Dal Corso  v.5.1
     Shape of augmentation charge: PSQ
     Using radial grid of 1165 points,  6 beta functions with:
                l(1) =   0
                l(2) =   0
                l(3) =   1
                l(4) =   1
                l(5) =   2
                l(6) =   2
     Q(r) pseudized with 0 coefficients

     PseudoPot. # 2 for Lu read from file:
     /home/pragov/projects/rrg-bengioy-ad/pragov/crystal_structure_design/SSSP/Lu.GGA-PBE-paw-v1.0.UPF
     MD5 check sum: 9ceca61ee0c17e9380a83635bfffa61d
     Pseudo is Projector augmented-wave + core cor, Zval = 25.0
     Generated using ATOMPAW code
     Shape of augmentation charge: BESSEL
     Using radial grid of 1118 points,  8 beta functions with:
                l(1) =   0
                l(2) =   0
                l(3) =   1
                l(4) =   1
                l(5) =   2
                l(6) =   2
                l(7) =   3
                l(8) =   3
     Q(r) pseudized with 0 coefficients

     PseudoPot. # 3 for O  read from file:
     /home/pragov/projects/rrg-bengioy-ad/pragov/crystal_structure_design/SSSP/O.pbe-n-kjpaw_psl.0.1.UPF
     MD5 check sum: 0234752ac141de4415c5fc33072bef88
     Pseudo is Projector augmented-wave + core cor, Zval =  6.0
     Generated using "atomic" code by A. Dal Corso  v.5.0.99 svn rev. 10869
     Shape of augmentation charge: BESSEL
     Using radial grid of 1095 points,  4 beta functions with:
                l(1) =   0
                l(2) =   0
                l(3) =   1
                l(4) =   1
     Q(r) pseudized with 0 coefficients

     atomic species   valence    mass     pseudopotential
        K              9.00    39.09830     K ( 1.00)
        Lu            25.00   174.96680     Lu( 1.00)
        O              6.00    15.99900     O ( 1.00)

      2 Sym. Ops., with inversion, found

                                    s                        frac. trans.

      isym =  1     identity

 cryst.   s( 1) = (     1          0          0      )
                  (     0          1          0      )
                  (     0          0          1      )

 cart.    s( 1) = (  1.0000000 -0.0000000  0.0000000 )
                  (  0.0000000  1.0000000  0.0000000 )
                  (  0.0000000  0.0000000  1.0000000 )

      isym =  2     inversion

 cryst.   s( 2) = (    -1          0          0      )
                  (     0         -1          0      )
                  (     0          0         -1      )

 cart.    s( 2) = ( -1.0000000  0.0000000 -0.0000000 )
                  (  0.0000000 -1.0000000 -0.0000000 )
                  (  0.0000000  0.0000000 -1.0000000 )

   Cartesian axes

     site n.     atom                  positions (alat units)
         1           K   tau(   1) = (   0.0000000   0.0000000   0.0000000  )
         2           Lu  tau(   2) = (   1.3648669   0.3674069   0.2223756  )
         3           O   tau(   3) = (   0.6194749   0.1667557   0.1009300  )
         4           O   tau(   4) = (   2.1102589   0.5680580   0.3438211  )

   Crystallographic axes

     site n.     atom                  positions (cryst. coord.)
         1           K   tau(   1) = (  0.0000000  0.0000000  0.0000000  )
         2           Lu  tau(   2) = (  0.5000000  0.5000000  0.5000000  )
         3           O   tau(   3) = (  0.2269360  0.2269360  0.2269360  )
         4           O   tau(   4) = (  0.7730640  0.7730640  0.7730640  )

     number of k points=     1  Methfessel-Paxton smearing, width (Ry)=  0.0010
                       cart. coord. in units 2pi/alat
        k(    1) = (   0.0000000   0.0000000   0.0000000), wk =   2.0000000

                       cryst. coord.
        k(    1) = (   0.0000000   0.0000000   0.0000000), wk =   2.0000000

     Check: negative core charge=   -0.000011

     Initial potential from superposition of free atoms

     starting charge      45.9774, renormalised to      46.0000
     Starting wfcs are   48 randomized atomic wfcs
     Checking if some PAW data can be deallocated...

     Self-consistent Calculation

     iteration #  1     ecut=    30.00 Ry     beta= 0.70
     Davidson diagonalization with overlap

     ethr =  1.00E-02,  avg # of iterations =  5.0

     total energy              =   -1275.97025545 Ry
     estimated scf accuracy    <       1.31301015 Ry

[...]

     total energy              =   -1276.59899841 Ry
     estimated scf accuracy    <       0.00000673 Ry

     iteration #  8     ecut=    30.00 Ry     beta= 0.70
     Davidson diagonalization with overlap

     ethr =  1.46E-08,  avg # of iterations =  2.0

     End of self-consistent calculation

          k = 0.0000 0.0000 0.0000 (   599 PWs)   bands (ev):

   -42.9718 -19.2284 -14.2473 -13.3744 -13.3743  -5.8082  -5.0359  -2.4011
    -2.3368  -2.3368   7.1358   8.2976   8.2976   8.3338   8.3338   8.3624
     8.5993   8.6547   8.6547   8.8637  10.3773  10.6014  10.6014  13.4259
    15.6372  16.5443  16.5444  17.8993

     occupation numbers
     1.0000   1.0000   1.0000   1.0000   1.0000   1.0000   1.0000   1.0000
     1.0000   1.0000   1.0000   1.0000   1.0000   1.0000   1.0000   1.0000
     1.0000   1.0000   1.0000   1.0000   1.0000   1.0000   1.0000  -0.0000
    -0.0000  -0.0000  -0.0000  -0.0000

     the Fermi energy is    12.3032 ev

!    total energy              =   -1276.59899987 Ry

     total all-electron energy =     -2585.531497 Ry
     estimated scf accuracy    <       0.00000085 Ry
     smearing contrib. (-TS)   =       0.00000000 Ry
     internal energy E=F+TS    =   -1276.59899987 Ry

     The total energy is F=E-TS. E is the sum of the following terms:
     one-electron contribution =    -559.19148174 Ry
     hartree contribution      =     268.53554132 Ry
     xc contribution           =     -68.13184494 Ry
     ewald contribution        =    -352.73426731 Ry
     one-center paw contrib.   =    -565.07694719 Ry
      -> PAW hartree energy AE =     592.66654606 Ry
      -> PAW hartree energy PS =    -523.47980373 Ry
      -> PAW xc energy AE      =    -700.34500908 Ry
      -> PAW xc energy PS      =      66.08131956 Ry
      -> total E_H with PAW    =     337.72228365 Ry
      -> total E_XC with PAW   =    -702.39553447 Ry

     convergence has been achieved in   8 iterations

     Forces acting on atoms (cartesian axes, Ry/au):

     atom    1 type  1   force =     0.00000000    0.00000000    0.00000000
     atom    2 type  2   force =     0.00000000    0.00000000    0.00000000
     atom    3 type  3   force =    -0.13475128   -0.03627152   -0.02195335
     atom    4 type  3   force =     0.13475128    0.03627152    0.02195335
     The non-local contrib.  to forces
     atom    1 type  1   force =     0.00000000    0.00000000    0.00000000
     atom    2 type  2   force =     0.00000000    0.00000000    0.00000000
     atom    3 type  3   force =     0.16489283    0.04439048    0.02686362
     atom    4 type  3   force =    -0.16489283   -0.04439048   -0.02686362
     The ionic contribution  to forces
     atom    1 type  1   force =     0.00000000    0.00000000    0.00000000
     atom    2 type  2   force =    -0.00000000    0.00000000   -0.00000000
     atom    3 type  3   force =    18.98125917    5.10954202    3.09258700
     atom    4 type  3   force =   -18.98125917   -5.10954202   -3.09258700
     The local contribution  to forces
     atom    1 type  1   force =    -0.00029189   -0.00025720    0.00005999
     atom    2 type  2   force =     0.00265251    0.00300757    0.00071069
     atom    3 type  3   force =   -19.27815459   -5.18946425   -3.14099977
     atom    4 type  3   force =    19.27877520    5.18966807    3.14103217
     The core correction contribution to forces
     atom    1 type  1   force =     0.00001218   -0.00000010    0.00000406
     atom    2 type  2   force =     0.00000000    0.00000002    0.00000000
     atom    3 type  3   force =    -0.00351725   -0.00094620   -0.00057314
     atom    4 type  3   force =     0.00351774    0.00094781    0.00057311
     The Hubbard contrib.    to forces
     atom    1 type  1   force =     0.00000000    0.00000000    0.00000000
     atom    2 type  2   force =     0.00000000    0.00000000    0.00000000
     atom    3 type  3   force =     0.00000000    0.00000000    0.00000000
     atom    4 type  3   force =     0.00000000    0.00000000    0.00000000
     The SCF correction term to forces
     atom    1 type  1   force =     0.00064382    0.00030122    0.00004385
     atom    2 type  2   force =    -0.00299336   -0.00383988   -0.00091622
     atom    3 type  3   force =     0.00077192    0.00024709    0.00016634
     atom    4 type  3   force =    -0.00138630   -0.00037120   -0.00020391

     Total force =     0.199777     Total SCF correction =     0.005276

     Computing stress (Cartesian axis) and pressure

          total   stress  (Ry/bohr**3)                   (kbar)     P=      -73.10
  -0.00238509  -0.00080208  -0.00048534         -350.86     -117.99      -71.40
  -0.00080208   0.00037869  -0.00013073         -117.99       55.71      -19.23
  -0.00048534  -0.00013073   0.00051570          -71.40      -19.23       75.86

     kinetic stress (kbar)  19076.77   -249.66   -151.11
                             -249.66  19936.99    -40.68
                             -151.11    -40.68  19979.59

     local   stress (kbar)  54148.40  29889.23  18090.67
                            29889.23 -48840.19   4869.79
                            18090.67   4869.79 -53938.60

     nonloc. stress (kbar)  13623.86    -61.34    -37.11
                              -61.34  13835.26     -9.99
                              -37.11     -9.99  13845.76

     hartree stress (kbar)  -1660.51 -14043.27  -8499.79
                           -14043.27  46728.05  -2288.05
                            -8499.79  -2288.05  49123.50

     exc-cor stress (kbar)  -6211.32     -2.38     -1.44
                               -2.38  -6203.12     -0.39
                               -1.44     -0.39  -6202.72

     corecor stress (kbar)  -1243.52      0.86      0.52
                                0.86  -1246.47      0.14
                                0.52      0.14  -1246.62

     ewald   stress (kbar) -78084.55 -15651.42  -9473.13
                           -15651.42 -24154.81  -2550.06
                            -9473.13  -2550.06 -21485.06

     hubbard stress (kbar)      0.00      0.00      0.00
                                0.00      0.00      0.00
                                0.00      0.00      0.00

     DFT-D   stress (kbar)      0.00      0.00      0.00
                                0.00      0.00      0.00
                                0.00      0.00      0.00

     XDM     stress (kbar)      0.00      0.00      0.00
                                0.00      0.00      0.00
                                0.00      0.00      0.00

     dft-nl  stress (kbar)      0.00      0.00      0.00
                                0.00      0.00      0.00
                                0.00      0.00      0.00

     TS-vdW  stress (kbar)      0.00      0.00      0.00
                                0.00      0.00      0.00
                                0.00      0.00      0.00

[...]

                                0.00      0.00      0.00

     Writing all to output data dir new_calculations/myprefix.save/

     General routines

     Parallel routines

     PAW routines

   This run was terminated on:   9:44: 3  21May2023

   JOB DONE.