     Program PWSCF v.7.0 starts on 20May2023 at  8:32: 9

     Reading input from espresso_11207.pwi
Warning: card &CELL ignored
Warning: card / ignored

     Current dimensions of program PWSCF are:
     Max number of different atomic species (ntypx) = 10
     Max number of k-points (npk) =  40000
     Max angular momentum in pseudopotentials (lmaxx) =  4
     file O.pbe-n-kjpaw_psl.0.1.UPF: wavefunction(s)  2P renormalized

     gamma-point specific algorithms are used
     Message from routine setup:
     using ibrav=0 with symmetry is DISCOURAGED, use correct ibrav instead

     Subspace diagonalization in iterative solution of the eigenvalue problem:
     a serial algorithm will be used

     Using Slab Decomposition

     bravais-lattice index     =            0
     lattice parameter (alat)  =      11.3157  a.u.
     unit-cell volume          =    1105.3619 (a.u.)^3
     number of atoms/cell      =           12
     number of atomic types    =            3
     number of electrons       =        80.00
     number of Kohn-Sham states=           48
     kinetic-energy cutoff     =      30.0000  Ry
     charge density cutoff     =     240.0000  Ry
     scf convergence threshold =      1.0E-06
     mixing beta               =       0.7000
     number of iterations used =            8  plain     mixing
     Exchange-correlation= SLA  PW   PBX  PBC
                           (   1   4   3   4   0   0   0)

     celldm(1)=  11.315683  celldm(2)=   0.000000  celldm(3)=   0.000000
     celldm(4)=   0.000000  celldm(5)=   0.000000  celldm(6)=   0.000000

     crystal axes: (cart. coord. in units of alat)
               a(1) = (   1.000000   0.000000   0.000000 )
               a(2) = (  -0.433755   0.901031   0.000000 )
               a(3) = (  -0.283122  -0.450515   0.846686 )

     reciprocal axes: (cart. coord. in units 2 pi/alat)
               b(1) = (  1.000000  0.481399  0.590538 )
               b(2) = (  0.000000  1.109840  0.590538 )
               b(3) = (  0.000000  0.000000  1.181075 )

     PseudoPot. # 1 for Y  read from file:
     /home/pragov/projects/rrg-bengioy-ad/pragov/crystal_structure_design/SSSP/Y_pbe_v1.uspp.F.UPF
     MD5 check sum: 2cf71db95cafeb975fc457bd7f14888e
     Pseudo is Ultrasoft + core correction, Zval = 11.0
     Generated by new atomic code, or converted to UPF format
     Using radial grid of  885 points,  6 beta functions with:
                l(1) =   0
                l(2) =   0
                l(3) =   1
                l(4) =   1
                l(5) =   2
                l(6) =   2
     Q(r) pseudized with  6 coefficients,  rinner =    1.200   1.200   1.200
                                                       1.200   1.200

     PseudoPot. # 2 for As read from file:
     /home/pragov/projects/rrg-bengioy-ad/pragov/crystal_structure_design/SSSP/As.pbe-n-rrkjus_psl.0.2.UPF
     MD5 check sum: 767315de957beeeb34f87d97bf945c8f
     Pseudo is Ultrasoft + core correction, Zval =  5.0
     Generated using "atomic" code by A. Dal Corso  v.5.0.99 svn rev. 10869
     Using radial grid of 1209 points,  4 beta functions with:
                l(1) =   0
                l(2) =   0
                l(3) =   1
                l(4) =   1
     Q(r) pseudized with 0 coefficients

     PseudoPot. # 3 for O  read from file:
     /home/pragov/projects/rrg-bengioy-ad/pragov/crystal_structure_design/SSSP/O.pbe-n-kjpaw_psl.0.1.UPF
     MD5 check sum: 0234752ac141de4415c5fc33072bef88
     Pseudo is Projector augmented-wave + core cor, Zval =  6.0
     Generated using "atomic" code by A. Dal Corso  v.5.0.99 svn rev. 10869
     Shape of augmentation charge: BESSEL
     Using radial grid of 1095 points,  4 beta functions with:
                l(1) =   0
                l(2) =   0
                l(3) =   1
                l(4) =   1
     Q(r) pseudized with 0 coefficients

     atomic species   valence    mass     pseudopotential
        Y             11.00    88.90584     Y ( 1.00)
        As             5.00    74.92159     As( 1.00)
        O              6.00    15.99900     O ( 1.00)

      4 Sym. Ops., with inversion, found ( 2 have fractional translation)

                                    s                        frac. trans.

      isym =  1     identity

 cryst.   s( 1) = (     1          0          0      )
                  (     0          1          0      )
                  (     0          0          1      )

 cart.    s( 1) = (  1.0000000 -0.0000000  0.0000000 )
                  (  0.0000000  1.0000000  0.0000000 )
                  (  0.0000000  0.0000000  1.0000000 )

      isym =  2     180 deg rotation - cart. axis [0,0,1]

 cryst.   s( 2) = (    -1          0          0      )
                  (     0         -1          0      )
                  (     1          1          1      )

 cart.    s( 2) = ( -1.0000000  0.0000000  0.0000000 )
                  (  0.0000000 -1.0000000  0.0000000 )
                  (  0.0000000  0.0000000  1.0000000 )

      isym =  3     inversion

 cryst.   s( 3) = (    -1          0          0      )    f =( -0.2500000 )
                  (     0         -1          0      )       (  0.2500000 )
                  (     0          0         -1      )       (  0.5000000 )

 cart.    s( 3) = ( -1.0000000  0.0000000 -0.0000000 )    f =( -0.5000000 )
                  (  0.0000000 -1.0000000 -0.0000000 )       (  0.0000000 )
                  (  0.0000000  0.0000000 -1.0000000 )       (  0.4233431 )

      isym =  4     inv. 180 deg rotation - cart. axis [0,0,1]

 cryst.   s( 4) = (     1          0          0      )    f =( -0.2500000 )
                  (     0          1          0      )       (  0.2500000 )
                  (    -1         -1         -1      )       (  0.5000000 )

 cart.    s( 4) = (  1.0000000 -0.0000000 -0.0000000 )    f =( -0.5000000 )
                  (  0.0000000  1.0000000 -0.0000000 )       (  0.0000000 )
                  (  0.0000000  0.0000000 -1.0000000 )       (  0.4233431 )

   Cartesian axes

     site n.     atom                  positions (alat units)
         1           Y   tau(   1) = (   0.5000000   0.0000000   0.4233431  )
         2           Y   tau(   2) = (   0.2831225   0.4505154   0.0000000  )
         3           As  tau(   3) = (  -0.2168775   0.4505154   0.4233431  )
         4           As  tau(   4) = (   0.0000000   0.0000000   0.0000000  )
         5           O   tau(   5) = (   0.7699673  -0.0779495   0.1532883  )
         6           O   tau(   6) = (   0.5530902   0.3725650   0.2700548  )
         7           O   tau(   7) = (  -0.1873346   0.2094379   0.5766314  )
         8           O   tau(   8) = (   0.3126644   0.2094379   0.6933979  )
         9           O   tau(   9) = (   0.2300323   0.0779504   0.1532883  )
        10           O   tau(  10) = (   0.0131552   0.5284649   0.2700548  )
        11           O   tau(  11) = (   0.1873356  -0.2094379   0.5766314  )
        12           O   tau(  12) = (   0.6873346  -0.2094379   0.6933979  )

   Crystallographic axes

     site n.     atom                  positions (cryst. coord.)
         1           Y   tau(   1) = (  0.7500000  0.2500000  0.5000000  )
         2           Y   tau(   2) = (  0.5000000  0.5000000  0.0000000  )
         3           As  tau(   3) = (  0.2500000  0.7500000  0.5000000  )
         4           As  tau(   4) = (  0.0000000  0.0000000  0.0000000  )
         5           O   tau(   5) = (  0.8229650  0.0040110  0.1810450  )
         6           O   tau(   6) = (  0.8919200  0.5729650  0.3189550  )
         7           O   tau(   7) = (  0.2540110  0.5729650  0.6810450  )
         8           O   tau(   8) = (  0.8229650  0.6419200  0.8189550  )
         9           O   tau(   9) = (  0.3580800  0.1770350  0.1810450  )
        10           O   tau(  10) = (  0.4270350  0.7459890  0.3189550  )
        11           O   tau(  11) = (  0.4270350  0.1080800  0.6810450  )
        12           O   tau(  12) = (  0.9959890  0.1770350  0.8189550  )

     number of k points=     1  Methfessel-Paxton smearing, width (Ry)=  0.0010
                       cart. coord. in units 2pi/alat
        k(    1) = (   0.0000000   0.0000000   0.0000000), wk =   2.0000000

                       cryst. coord.
        k(    1) = (   0.0000000   0.0000000   0.0000000), wk =   2.0000000

     Check: negative core charge=   -0.000010

     Initial potential from superposition of free atoms

     starting charge      79.9906, renormalised to      80.0000

     negative rho (up, down):  9.017E-02 0.000E+00
     Starting wfcs are   66 randomized atomic wfcs
     Checking if some PAW data can be deallocated...

     Self-consistent Calculation

     iteration #  1     ecut=    30.00 Ry     beta= 0.70
     Davidson diagonalization with overlap

     ethr =  1.00E-02,  avg # of iterations =  2.0

     negative rho (up, down):  9.261E-02 0.000E+00

     total energy              =    -543.27315234 Ry
     estimated scf accuracy    <       3.39777811 Ry

[...]

     total energy              =    -544.90409625 Ry
     estimated scf accuracy    <       0.00000143 Ry

     iteration # 10     ecut=    30.00 Ry     beta= 0.70
     Davidson diagonalization with overlap

     ethr =  1.79E-09,  avg # of iterations =  2.0

[...]

     End of self-consistent calculation

          k = 0.0000 0.0000 0.0000 (  1532 PWs)   bands (ev):

   -34.4871 -34.4663 -14.8666 -14.8666 -14.8006 -14.6459 -14.4982 -14.4982
   -13.4767 -13.0604 -11.2442 -10.9996 -10.8680 -10.8677 -10.5903 -10.5901
    -2.8975  -2.0135   0.4535   0.9443   0.9444   1.3282   2.1677   2.1678
     2.6481   3.0047   3.4904   3.7360   3.8998   3.8999   4.6596   4.6597
     5.2157   5.3121   5.3212   5.3212   5.3664   5.3666   5.3920   5.7662
     9.4014  11.2108  12.2555  12.3126  12.3127  12.3857  12.5444  12.5444

     occupation numbers
     1.0000   1.0000   1.0000   1.0000   1.0000   1.0000   1.0000   1.0000
     1.0000   1.0000   1.0000   1.0000   1.0000   1.0000   1.0000   1.0000
     1.0000   1.0000   1.0000   1.0000   1.0000   1.0000   1.0000   1.0000
     1.0000   1.0000   1.0000   1.0000   1.0000   1.0000   1.0000   1.0000
     1.0000   1.0000   1.0000   1.0000   1.0000   1.0000   1.0000   1.0000
    -0.0000  -0.0000  -0.0000  -0.0000  -0.0000  -0.0000  -0.0000  -0.0000

     the Fermi energy is     6.7675 ev

!    total energy              =    -544.90409648 Ry
     estimated scf accuracy    <       0.00000018 Ry
     smearing contrib. (-TS)   =       0.00000000 Ry
     internal energy E=F+TS    =    -544.90409648 Ry

     The total energy is F=E-TS. E is the sum of the following terms:
     one-electron contribution =    -131.95888320 Ry
     hartree contribution      =     110.09509752 Ry
     xc contribution           =    -122.38910870 Ry
     ewald contribution        =    -324.50775862 Ry
     one-center paw contrib.   =     -76.14344347 Ry
      -> PAW hartree energy AE =     242.93786157 Ry
      -> PAW hartree energy PS =    -242.06857139 Ry
      -> PAW xc energy AE      =    -138.26311101 Ry
      -> PAW xc energy PS      =      61.25037735 Ry
      -> total E_H with PAW    =     110.96438770 Ry
      -> total E_XC with PAW   =    -199.40184236 Ry

     convergence has been achieved in  10 iterations

     negative rho (up, down):  9.463E-02 0.000E+00

     Forces acting on atoms (cartesian axes, Ry/au):

     atom    1 type  1   force =     0.00000000    0.00000000    0.00004610
     atom    2 type  1   force =     0.00000000    0.00000000   -0.00004610
     atom    3 type  2   force =     0.00000000    0.00000000   -0.00000736
     atom    4 type  2   force =     0.00000000    0.00000000    0.00000736
     atom    5 type  3   force =    -0.00535527   -0.00602635    0.00132547
     atom    6 type  3   force =    -0.00535527   -0.00602635   -0.00132547
     atom    7 type  3   force =    -0.00310157   -0.00746834    0.00135246
     atom    8 type  3   force =    -0.00310157   -0.00746834   -0.00135246
     atom    9 type  3   force =     0.00535527    0.00602635    0.00132547
     atom   10 type  3   force =     0.00535527    0.00602635   -0.00132547
     atom   11 type  3   force =     0.00310157    0.00746834    0.00135246
     atom   12 type  3   force =     0.00310157    0.00746834   -0.00135246
     The non-local contrib.  to forces
     atom    1 type  1   force =     0.00000000    0.00000000    0.00001822
     atom    2 type  1   force =     0.00000000    0.00000000   -0.00001822
     atom    3 type  2   force =     0.00000000    0.00000000    0.00006563
     atom    4 type  2   force =     0.00000000    0.00000000   -0.00006563
     atom    5 type  3   force =     1.10404900    0.35627544   -0.74524183
     atom    6 type  3   force =     1.10404900    0.35627544    0.74524183
     atom    7 type  3   force =    -0.15789212    1.14924380   -0.74515020
     atom    8 type  3   force =    -0.15789212    1.14924380    0.74515020
     atom    9 type  3   force =    -1.10404900   -0.35627544   -0.74524183
     atom   10 type  3   force =    -1.10404900   -0.35627544    0.74524183
     atom   11 type  3   force =     0.15789212   -1.14924380   -0.74515020
     atom   12 type  3   force =     0.15789212   -1.14924380    0.74515020
     The ionic contribution  to forces
     atom    1 type  1   force =    -0.00000367    0.00000231   -0.00000000
     atom    2 type  1   force =     0.00000367   -0.00000231    0.00000000
     atom    3 type  2   force =    -0.00002416    0.00001518   -0.00000000
     atom    4 type  2   force =     0.00002416   -0.00001518    0.00000000
     atom    5 type  3   force =    -0.73320208    1.26790881    1.29543092
     atom    6 type  3   force =    -0.73321026    1.26794697   -1.29544382
     atom    7 type  3   force =     1.46045504   -0.11067579    1.29543092
     atom    8 type  3   force =     1.46049297   -0.11066662   -1.29544382
     atom    9 type  3   force =     0.73321026   -1.26794697    1.29544382
     atom   10 type  3   force =     0.73320208   -1.26790881   -1.29543092
     atom   11 type  3   force =    -1.46049297    0.11066662    1.29544382
     atom   12 type  3   force =    -1.46045504    0.11067579   -1.29543092
     The local contribution  to forces
     atom    1 type  1   force =    -0.00018791    0.00010477    0.00025477
     atom    2 type  1   force =     0.00021729   -0.00000713   -0.00037159
     atom    3 type  2   force =     0.00003136    0.00002749    0.00004786
     atom    4 type  2   force =    -0.00004160   -0.00005755   -0.00002282
     atom    5 type  3   force =    -0.36454077   -1.62604547   -0.55656738
     atom    6 type  3   force =    -0.36459459   -1.62613016    0.55643110
     atom    7 type  3   force =    -1.30687512   -1.03388970   -0.55651521
     atom    8 type  3   force =    -1.30704384   -1.03386778    0.55649762
     atom    9 type  3   force =     0.36460334    1.62609894   -0.55644332
     atom   10 type  3   force =     0.36454243    1.62607298    0.55654940
     atom   11 type  3   force =     1.30701641    1.03389171   -0.55651969
     atom   12 type  3   force =     1.30693047    1.03391319    0.55649547
     The core correction contribution to forces
     atom    1 type  1   force =    -0.00000148    0.00000281    0.00000264
     atom    2 type  1   force =     0.00000169   -0.00000133   -0.00000465
     atom    3 type  2   force =     0.00000648   -0.00000205   -0.00001329
     atom    4 type  2   force =    -0.00000571    0.00000642    0.00000674
     atom    5 type  3   force =    -0.01153320   -0.00405437    0.00760755
     atom    6 type  3   force =    -0.01153290   -0.00405514   -0.00760818
     atom    7 type  3   force =     0.00134968   -0.01215020    0.00760654
     atom    8 type  3   force =     0.00134931   -0.01214874   -0.00760677
     atom    9 type  3   force =     0.01153278    0.00405510    0.00760773
     atom   10 type  3   force =     0.01153353    0.00405473   -0.00760802
     atom   11 type  3   force =    -0.00134923    0.01214894    0.00760651
     atom   12 type  3   force =    -0.00134946    0.01215086   -0.00760704
     The Hubbard contrib.    to forces
     atom    1 type  1   force =     0.00000000    0.00000000    0.00000000
     atom    2 type  1   force =     0.00000000    0.00000000    0.00000000
     atom    3 type  2   force =     0.00000000    0.00000000    0.00000000
     atom    4 type  2   force =     0.00000000    0.00000000    0.00000000
     atom    5 type  3   force =     0.00000000    0.00000000    0.00000000
     atom    6 type  3   force =     0.00000000    0.00000000    0.00000000
     atom    7 type  3   force =     0.00000000    0.00000000    0.00000000
     atom    8 type  3   force =     0.00000000    0.00000000    0.00000000
     atom    9 type  3   force =     0.00000000    0.00000000    0.00000000
     atom   10 type  3   force =     0.00000000    0.00000000    0.00000000
     atom   11 type  3   force =     0.00000000    0.00000000    0.00000000
     atom   12 type  3   force =     0.00000000    0.00000000    0.00000000
     The SCF correction term to forces
     atom    1 type  1   force =     0.00018370   -0.00008687   -0.00023722
     atom    2 type  1   force =    -0.00021497   -0.00000088    0.00034068
     atom    3 type  2   force =     0.00002921   -0.00006168   -0.00013286
     atom    4 type  2   force =    -0.00001210    0.00012187    0.00006378
     atom    5 type  3   force =    -0.00014664   -0.00008319    0.00008684
     atom    6 type  3   force =    -0.00004417   -0.00007909    0.00004226
     atom    7 type  3   force =    -0.00013356   -0.00002445   -0.00003900
     atom    8 type  3   force =    -0.00000353    0.00001941    0.00003426
     atom    9 type  3   force =     0.00003326    0.00011254   -0.00005395
     atom   10 type  3   force =     0.00015474    0.00007703   -0.00008878
     atom   11 type  3   force =     0.00004188   -0.00003262   -0.00003248
     atom   12 type  3   force =     0.00008665    0.00003018    0.00003198

     Total force =     0.023150     Total SCF correction =     0.000661

     Computing stress (Cartesian axis) and pressure

     negative rho (up, down):  9.463E-02 0.000E+00
          total   stress  (Ry/bohr**3)                   (kbar)     P=     -311.05
  -0.00211272  -0.00001411   0.00000000         -310.79       -2.08        0.00
  -0.00001411  -0.00212672   0.00000000           -2.08     -312.85        0.00
   0.00000000   0.00000000  -0.00210399            0.00        0.00     -309.51

     kinetic stress (kbar)  16994.35   -225.07     -0.00
                             -225.07  16777.66     -0.00
                               -0.00     -0.00  17135.81

     local   stress (kbar)  -9144.82  -3624.82      0.06
                            -3624.82 -12634.81     -0.00
                                0.06     -0.00  -6866.83

     nonloc. stress (kbar)   5955.25    -20.62     -0.00
                              -20.62   5935.38     -0.00
                               -0.00     -0.00   5968.20

     hartree stress (kbar)   4754.52   1161.28     -0.04
                             1161.28   5872.58      0.00
                               -0.04      0.00   4024.71

     exc-cor stress (kbar)   1158.12      6.67      0.00
                                6.67   1164.54     -0.00
                                0.00     -0.00   1153.93

     corecor stress (kbar)  -5331.41     -3.05     -0.00
                               -3.05  -5334.34      0.00
                               -0.00      0.00  -5329.49

     ewald   stress (kbar) -14696.82   2703.53     -0.01
                             2703.53 -12093.87     -0.02
                               -0.01     -0.02 -16395.84

     hubbard stress (kbar)      0.00      0.00      0.00
                                0.00      0.00      0.00
                                0.00      0.00      0.00

     DFT-D   stress (kbar)      0.00      0.00      0.00
                                0.00      0.00      0.00
                                0.00      0.00      0.00

     XDM     stress (kbar)      0.00      0.00      0.00
                                0.00      0.00      0.00
                                0.00      0.00      0.00

     dft-nl  stress (kbar)      0.00      0.00      0.00
                                0.00      0.00      0.00
                                0.00      0.00      0.00

     TS-vdW  stress (kbar)      0.00      0.00      0.00
                                0.00      0.00      0.00
                                0.00      0.00      0.00

[...]

                                0.00      0.00      0.00

     Writing all to output data dir new_calculations/myprefix.save/

     General routines

     Parallel routines

     PAW routines

   This run was terminated on:   8:32:20  20May2023

   JOB DONE.