     Program PWSCF v.7.0 starts on 20May2023 at 13:52: 3

     Reading input from espresso_4447.pwi
Warning: card &CELL ignored
Warning: card / ignored

     Current dimensions of program PWSCF are:
     Max number of different atomic species (ntypx) = 10
     Max number of k-points (npk) =  40000
     Max angular momentum in pseudopotentials (lmaxx) =  4
     file O.pbe-n-kjpaw_psl.0.1.UPF: wavefunction(s)  2P renormalized

     gamma-point specific algorithms are used

     Subspace diagonalization in iterative solution of the eigenvalue problem:
     a serial algorithm will be used

     Using Slab Decomposition

     bravais-lattice index     =            0
     lattice parameter (alat)  =       7.2508  a.u.
     unit-cell volume          =     516.3282 (a.u.)^3
     number of atoms/cell      =            6
     number of atomic types    =            3
     number of electrons       =        56.00
     number of Kohn-Sham states=           34
     kinetic-energy cutoff     =      30.0000  Ry
     charge density cutoff     =     240.0000  Ry
     scf convergence threshold =      1.0E-06
     mixing beta               =       0.7000
     number of iterations used =            8  plain     mixing
     Exchange-correlation=  SLA  PW   PBX  PBC
                           (   1   4   3   4   0   0   0)

     celldm(1)=   7.250845  celldm(2)=   0.000000  celldm(3)=   0.000000
     celldm(4)=   0.000000  celldm(5)=   0.000000  celldm(6)=   0.000000

     crystal axes: (cart. coord. in units of alat)
               a(1) = (   1.000000   0.000000   0.000000 )
               a(2) = (  -0.000019   1.630769   0.000000 )
               a(3) = (  -0.000111  -0.000192   0.830553 )

     reciprocal axes: (cart. coord. in units 2 pi/alat)
               b(1) = (  1.000000  0.000012  0.000134 )
               b(2) = (  0.000000  0.613208  0.000142 )
               b(3) = (  0.000000  0.000000  1.204017 )

     PseudoPot. # 1 for Mn read from file:
     /home/pragov/projects/rrg-bengioy-ad/pragov/crystal_structure_design/SSSP/mn_pbe_v1.5.uspp.F.UPF
     MD5 check sum: 82ef2b46521d7a7d9e736dc3972e4928
     Pseudo is Ultrasoft + core correction, Zval = 15.0
     Generated by new atomic code, or converted to UPF format
     Using radial grid of  859 points,  6 beta functions with:
                l(1) =   0
                l(2) =   0
                l(3) =   1
                l(4) =   1
                l(5) =   2
                l(6) =   2
     Q(r) pseudized with  8 coefficients,  rinner =    0.950   0.950   0.950
                                                       0.950   0.950

     PseudoPot. # 2 for O  read from file:
     /home/pragov/projects/rrg-bengioy-ad/pragov/crystal_structure_design/SSSP/O.pbe-n-kjpaw_psl.0.1.UPF
     MD5 check sum: 0234752ac141de4415c5fc33072bef88
     Pseudo is Projector augmented-wave + core cor, Zval =  6.0
     Generated using "atomic" code by A. Dal Corso  v.5.0.99 svn rev. 10869
     Shape of augmentation charge: BESSEL
     Using radial grid of 1095 points,  4 beta functions with:
                l(1) =   0
                l(2) =   0
                l(3) =   1
                l(4) =   1
     Q(r) pseudized with 0 coefficients

     PseudoPot. # 3 for F  read from file:
     /home/pragov/projects/rrg-bengioy-ad/pragov/crystal_structure_design/SSSP/f_pbe_v1.4.uspp.F.UPF
     MD5 check sum: 4c38b6a325caf53ec0e86aed9459de46
     Pseudo is Ultrasoft, Zval =  7.0
     Generated by new atomic code, or converted to UPF format
     Using radial grid of  799 points,  4 beta functions with:
                l(1) =   0
                l(2) =   0
                l(3) =   1
                l(4) =   1
     Q(r) pseudized with  8 coefficients,  rinner =    0.950   0.950   0.950

     atomic species   valence    mass     pseudopotential
        Mn            15.00    54.93804     Mn( 1.00)
        O              6.00    15.99900     O ( 1.00)
        F              7.00    18.99840     F ( 1.00)

     No symmetry found

                                    s                        frac. trans.

      isym =  1     identity

 cryst.   s( 1) = (     1          0          0      )
                  (     0          1          0      )
                  (     0          0          1      )

 cart.    s( 1) = (  1.0000000 -0.0000000 -0.0000000 )
                  (  0.0000000  1.0000000  0.0000000 )
                  (  0.0000000  0.0000000  1.0000000 )

   Cartesian axes

     site n.     atom                  positions (alat units)
         1           Mn  tau(   1) = (   0.2499068   0.2458678   0.6284605  )
         2           Mn  tau(   2) = (   0.7499532   1.3846628   0.2130161  )
         3           O   tau(   3) = (   0.2499549   1.5076253   0.1596431  )
         4           O   tau(   4) = (   0.7499164   0.1229870   0.5751249  )
         5           F   tau(   5) = (   0.2499808   0.5685114   0.2503263  )
         6           F   tau(   6) = (   0.7498974   1.0620787   0.6650896  )

   Crystallographic axes

     site n.     atom                  positions (cryst. coord.)
         1           Mn  tau(   1) = (  0.2499940  0.1508570  0.7566770  )
         2           Mn  tau(   2) = (  0.7499980  0.8491160  0.2564750  )
         3           O   tau(   3) = (  0.2499940  0.9245100  0.1922130  )
         4           O   tau(   4) = (  0.7499950  0.0754980  0.6924600  )
         5           F   tau(   5) = (  0.2500210  0.3486510  0.3013970  )
         6           F   tau(   6) = (  0.7499990  0.6513690  0.8007790  )

     number of k points=     1  Methfessel-Paxton smearing, width (Ry)=  0.0010
                       cart. coord. in units 2pi/alat
        k(    1) = (   0.0000000   0.0000000   0.0000000), wk =   2.0000000

                       cryst. coord.
        k(    1) = (   0.0000000   0.0000000   0.0000000), wk =   2.0000000

     Check: negative core charge=   -0.000026

     Initial potential from superposition of free atoms

     starting charge      54.9998, renormalised to      56.0000
     Starting wfcs are   42 randomized atomic wfcs
     Checking if some PAW data can be deallocated...

     Self-consistent Calculation

     iteration #  1     ecut=    30.00 Ry     beta= 0.70
     Davidson diagonalization with overlap

     ethr =  1.00E-02,  avg # of iterations =  2.0

     total energy              =    -600.67520408 Ry
     estimated scf accuracy    <       2.99842492 Ry

[...]

     negative rho (up, down):  1.233E-05 0.000E+00

[...]

     total energy              =    -602.46263624 Ry
     estimated scf accuracy    <       0.00001713 Ry

     iteration # 18     ecut=    30.00 Ry     beta= 0.70
     Davidson diagonalization with overlap

     ethr =  8.32E-09,  avg # of iterations =  2.0

     End of self-consistent calculation

          k = 0.0000 0.0000 0.0000 (   708 PWs)   bands (ev):

   -73.0332 -73.0295 -42.0146 -41.9814 -41.8200 -41.7906 -41.4141 -41.3996
   -16.9159 -16.7577 -12.5700 -11.4014   0.6109   0.6297   0.6589   0.9528
     1.1866   1.8844   2.2194   2.3466   2.6589   3.5606   3.5847   4.3762
     6.2670   6.4195   6.4748   6.4782   6.7601   7.1505   7.3631   7.5451
     8.4904   8.7499

     occupation numbers
     1.0000   1.0000   1.0000   1.0000   1.0000   1.0000   1.0000   1.0000
     1.0000   1.0000   1.0000   1.0000   1.0000   1.0000   1.0000   1.0000
     1.0000   1.0000   1.0000   1.0000   1.0000   1.0000   1.0000   1.0000
     1.0000   1.0000   1.0000   1.0000  -0.0000  -0.0000  -0.0000  -0.0000
    -0.0000  -0.0000

     the Fermi energy is     6.6422 ev

!    total energy              =    -602.46263724 Ry
     estimated scf accuracy    <       0.00000066 Ry
     smearing contrib. (-TS)   =       0.00000000 Ry
     internal energy E=F+TS    =    -602.46263724 Ry

     The total energy is F=E-TS. E is the sum of the following terms:
     one-electron contribution =    -420.86394090 Ry
     hartree contribution      =     232.84838571 Ry
     xc contribution           =     -86.18825272 Ry
     ewald contribution        =    -309.23292986 Ry
     one-center paw contrib.   =     -19.02589949 Ry
      -> PAW hartree energy AE =      58.81876434 Ry
      -> PAW hartree energy PS =     -58.60071668 Ry
      -> PAW xc energy AE      =     -34.25600507 Ry
      -> PAW xc energy PS      =      15.01205792 Ry
      -> total E_H with PAW    =     233.06643338 Ry
      -> total E_XC with PAW   =    -105.43219987 Ry

     convergence has been achieved in  18 iterations

     Forces acting on atoms (cartesian axes, Ry/au):

     atom    1 type  1   force =    -0.00000751    0.09843799   -0.00222613
     atom    2 type  1   force =    -0.00002887   -0.09815255   -0.00231700
     atom    3 type  2   force =     0.00001578    0.18742250    0.02323292
     atom    4 type  2   force =     0.00003046   -0.18768657    0.02284919
     atom    5 type  3   force =    -0.00001213   -0.07152983   -0.02086086
     atom    6 type  3   force =     0.00000227    0.07150845   -0.02067812
     The non-local contrib.  to forces
     atom    1 type  1   force =    -0.00003406   -0.24861269    0.05222525
     atom    2 type  1   force =    -0.00000647    0.24809163    0.05252068
     atom    3 type  2   force =    -0.00000395   -0.18411361    0.26241461
     atom    4 type  2   force =     0.00011901    0.18452549    0.26219500
     atom    5 type  3   force =    -0.00011454   -0.94716139    0.15510549
     atom    6 type  3   force =    -0.00003990    0.94698272    0.15484780
     The ionic contribution  to forces
     atom    1 type  1   force =     0.00012487   22.27174792    1.52951778
     atom    2 type  1   force =    -0.00014152  -22.26992292    1.51930276
     atom    3 type  2   force =    -0.00011009   -9.31470993    0.69018042
     atom    4 type  2   force =    -0.00100216    9.31301660    0.68767831
     atom    5 type  3   force =     0.00066392   19.34255976   -2.21495708
     atom    6 type  3   force =     0.00046498  -19.34269142   -2.21172219
     The local contribution  to forces
     atom    1 type  1   force =    -0.00009775  -21.94478191   -1.58130284
     atom    2 type  1   force =     0.00012362   21.94353537   -1.57178995
     atom    3 type  2   force =     0.00012908    9.68319344   -0.92567789
     atom    4 type  2   force =     0.00091521   -9.68248318   -0.92341818
     atom    5 type  3   force =    -0.00055886  -18.46754011    2.03920850
     atom    6 type  3   force =    -0.00042106   18.46792797    2.03619763
     The core correction contribution to forces
     atom    1 type  1   force =     0.00000383    0.01877462   -0.00234110
     atom    2 type  1   force =     0.00000105   -0.01874233   -0.00236913
     atom    3 type  2   force =     0.00000015    0.00334917   -0.00370401
     atom    4 type  2   force =    -0.00000111   -0.00335194   -0.00369964
     atom    5 type  3   force =     0.00000000    0.00000000    0.00000000
     atom    6 type  3   force =     0.00000000    0.00000000    0.00000000
     The Hubbard contrib.    to forces
     atom    1 type  1   force =     0.00000000    0.00000000    0.00000000
     atom    2 type  1   force =     0.00000000    0.00000000    0.00000000
     atom    3 type  2   force =     0.00000000    0.00000000    0.00000000
     atom    4 type  2   force =     0.00000000    0.00000000    0.00000000
     atom    5 type  3   force =     0.00000000    0.00000000    0.00000000
     atom    6 type  3   force =     0.00000000    0.00000000    0.00000000
     The SCF correction term to forces
     atom    1 type  1   force =    -0.00000449    0.00132424   -0.00031400
     atom    2 type  1   force =    -0.00000565   -0.00110011    0.00002985
     atom    3 type  2   force =     0.00000049   -0.00028237    0.00003101
     atom    4 type  2   force =    -0.00000059    0.00062065    0.00010490
     atom    5 type  3   force =    -0.00000276    0.00062611   -0.00020657
     atom    6 type  3   force =    -0.00000186   -0.00069663    0.00000986

     Total force =     0.319127     Total SCF correction =     0.002112

     Computing stress (Cartesian axis) and pressure

          total   stress  (Ry/bohr**3)                   (kbar)     P=     -524.08
  -0.00366765   0.00000011   0.00000158         -539.53        0.02        0.23
   0.00000011  -0.00380873   0.00000308            0.02     -560.28        0.45
   0.00000158   0.00000308  -0.00321146            0.23        0.45     -472.42

     kinetic stress (kbar)  28756.08      0.02      0.18
                                0.02  29555.62      0.28
                                0.18      0.28  29490.23

     local   stress (kbar) -35759.94     -1.61      5.82
                               -1.61  19166.09     39.24
                                5.82     39.24 -59765.88

     nonloc. stress (kbar)  10594.22      0.01      0.03
                                0.01  10435.99      0.13
                                0.03      0.13  10739.39

     hartree stress (kbar)  27084.24      0.67     -2.28
                                0.67   1907.82    -15.79
                               -2.28    -15.79  37347.88

     exc-cor stress (kbar)  -5390.24      0.00     -0.00
                                0.00  -5387.57     -0.03
                               -0.00     -0.03  -5379.12

     corecor stress (kbar)  -2286.47     -0.00     -0.00
                               -0.00  -2284.78      0.00
                               -0.00      0.00  -2293.42

     ewald   stress (kbar) -23537.43      0.94     -3.51
                                0.94 -53953.45    -23.39
                               -3.51    -23.39 -10611.49

     hubbard stress (kbar)      0.00      0.00      0.00
                                0.00      0.00      0.00
                                0.00      0.00      0.00

     DFT-D   stress (kbar)      0.00      0.00      0.00
                                0.00      0.00      0.00
                                0.00      0.00      0.00

     XDM     stress (kbar)      0.00      0.00      0.00
                                0.00      0.00      0.00
                                0.00      0.00      0.00

     dft-nl  stress (kbar)      0.00      0.00      0.00
                                0.00      0.00      0.00
                                0.00      0.00      0.00

     TS-vdW  stress (kbar)      0.00      0.00      0.00
                                0.00      0.00      0.00
                                0.00      0.00      0.00

[...]

                                0.00      0.00      0.00

     Writing all to output data dir new_calculations/myprefix.save/

     General routines

     Parallel routines

     PAW routines

   This run was terminated on:  13:52:11  20May2023

   JOB DONE.