     Program PWSCF v.7.0 starts on 21May2023 at  6:33: 4

     Reading input from espresso_11905.pwi
Warning: card &CELL ignored
Warning: card / ignored

     Current dimensions of program PWSCF are:
     Max number of different atomic species (ntypx) = 10
     Max number of k-points (npk) =  40000
     Max angular momentum in pseudopotentials (lmaxx) =  4
     file C.pbe-n-kjpaw_psl.1.0.0.UPF: wavefunction(s)  2S 2P renormalized

     gamma-point specific algorithms are used
     Message from routine setup:
     using ibrav=0 with symmetry is DISCOURAGED, use correct ibrav instead

     Subspace diagonalization in iterative solution of the eigenvalue problem:
     a serial algorithm will be used

     Using Slab Decomposition

     bravais-lattice index     =            0
     lattice parameter (alat)  =       7.7527  a.u.
     unit-cell volume          =     465.9625 (a.u.)^3
     number of atoms/cell      =            5
     number of atomic types    =            3
     number of electrons       =        64.00
     number of Kohn-Sham states=           38
     kinetic-energy cutoff     =      30.0000  Ry
     charge density cutoff     =     240.0000  Ry
     scf convergence threshold =      1.0E-06
     mixing beta               =       0.7000
     number of iterations used =            8  plain     mixing
     Exchange-correlation= SLA  PW   PBX  PBC
                           (   1   4   3   4   0   0   0)

     celldm(1)=   7.752652  celldm(2)=   0.000000  celldm(3)=   0.000000
     celldm(4)=   0.000000  celldm(5)=   0.000000  celldm(6)=   0.000000

     crystal axes: (cart. coord. in units of alat)
               a(1) = (   1.000000   0.000000   0.000000 )
               a(2) = (   0.000000   1.000000   0.000000 )
               a(3) = (   0.000000   0.000000   1.000000 )

     reciprocal axes: (cart. coord. in units 2 pi/alat)
               b(1) = (  1.000000  0.000000  0.000000 )
               b(2) = (  0.000000  1.000000  0.000000 )
               b(3) = (  0.000000  0.000000  1.000000 )

     PseudoPot. # 1 for Zr read from file:
     /home/pragov/projects/rrg-bengioy-ad/pragov/crystal_structure_design/SSSP/Zr_pbe_v1.uspp.F.UPF
     MD5 check sum: 5db81b1e868ab7776c4564c113de050b
     Pseudo is Ultrasoft + core correction, Zval = 12.0
     Generated by new atomic code, or converted to UPF format
     Using radial grid of  887 points,  6 beta functions with:
                l(1) =   0
                l(2) =   0
                l(3) =   1
                l(4) =   1
                l(5) =   2
                l(6) =   2
     Q(r) pseudized with  6 coefficients,  rinner =    1.200   1.200   1.200
                                                       1.200   1.200

     PseudoPot. # 2 for Ru read from file:
     /home/pragov/projects/rrg-bengioy-ad/pragov/crystal_structure_design/SSSP/Ru_ONCV_PBE-1.0.oncvpsp.upf
     MD5 check sum: be037bb81c227cfb9b1461a9f099f4bd
     Pseudo is Norm-conserving, Zval = 16.0
     Generated using ONCVPSP code by D. R. Hamann
     Using radial grid of 1458 points,  6 beta functions with:
                l(1) =   0
                l(2) =   0
                l(3) =   1
                l(4) =   1
                l(5) =   2
                l(6) =   2

     PseudoPot. # 3 for C  read from file:
     /home/pragov/projects/rrg-bengioy-ad/pragov/crystal_structure_design/SSSP/C.pbe-n-kjpaw_psl.1.0.0.UPF
     MD5 check sum: 5d2aebdfa2cae82b50a7e79e9516da0f
     Pseudo is Projector augmented-wave + core cor, Zval =  4.0
     Generated using "atomic" code by A. Dal Corso  v.5.1
     Shape of augmentation charge: PSQ
     Using radial grid of 1073 points,  4 beta functions with:
                l(1) =   0
                l(2) =   0
                l(3) =   1
                l(4) =   1
     Q(r) pseudized with 0 coefficients

     atomic species   valence    mass     pseudopotential
        Zr            12.00    91.22400     Zr( 1.00)
        Ru            16.00   101.07000     Ru( 1.00)
        C              4.00    12.01100     C ( 1.00)

     48 Sym. Ops., with inversion, found

                                    s                        frac. trans.

      isym =  1     identity

 cryst.   s( 1) = (     1          0          0      )
                  (     0          1          0      )
                  (     0          0          1      )

 cart.    s( 1) = (  1.0000000  0.0000000  0.0000000 )
                  (  0.0000000  1.0000000  0.0000000 )
                  (  0.0000000  0.0000000  1.0000000 )

      isym =  2     180 deg rotation - cart. axis [0,0,1]

[...]

 cryst.   s( 9) = (     0          0          1      )
                  (     0         -1          0      )
                  (     1          0          0      )

 cart.    s( 9) = (  0.0000000  0.0000000  1.0000000 )
                  (  0.0000000 -1.0000000  0.0000000 )
                  (  1.0000000  0.0000000  0.0000000 )

[...]

 cryst.   s(10) = (     0          0         -1      )
                  (     0         -1          0      )
                  (    -1          0          0      )

 cart.    s(10) = (  0.0000000  0.0000000 -1.0000000 )
                  (  0.0000000 -1.0000000  0.0000000 )
                  ( -1.0000000  0.0000000  0.0000000 )

[...]

      isym = 24     120 deg rotation - cart. axis [-1,-1,1]

[...]

      isym = 25     inversion

[...]

      isym = 26     inv. 180 deg rotation - cart. axis [0,0,1]

[...]

      isym = 48     inv. 120 deg rotation - cart. axis [-1,-1,1]

 cryst.   s(48) = (     0         -1          0      )
                  (     0          0          1      )
                  (     1          0          0      )

 cart.    s(48) = (  0.0000000  0.0000000  1.0000000 )
                  ( -1.0000000  0.0000000  0.0000000 )
                  (  0.0000000  1.0000000  0.0000000 )

   Cartesian axes

     site n.     atom                  positions (alat units)
         1           Zr  tau(   1) = (   0.0000000   0.0000000   0.0000000  )
         2           Ru  tau(   2) = (   0.0000000   0.5000000   0.5000000  )
         3           Ru  tau(   3) = (   0.5000000   0.0000000   0.5000000  )
         4           Ru  tau(   4) = (   0.5000000   0.5000000   0.0000000  )
         5           C   tau(   5) = (   0.5000000   0.5000000   0.5000000  )

   Crystallographic axes

     site n.     atom                  positions (cryst. coord.)
         1           Zr  tau(   1) = (  0.0000000  0.0000000  0.0000000  )
         2           Ru  tau(   2) = (  0.0000000  0.5000000  0.5000000  )
         3           Ru  tau(   3) = (  0.5000000  0.0000000  0.5000000  )
         4           Ru  tau(   4) = (  0.5000000  0.5000000  0.0000000  )
         5           C   tau(   5) = (  0.5000000  0.5000000  0.5000000  )

     number of k points=     1  Methfessel-Paxton smearing, width (Ry)=  0.0010
                       cart. coord. in units 2pi/alat
        k(    1) = (   0.0000000   0.0000000   0.0000000), wk =   2.0000000

                       cryst. coord.
        k(    1) = (   0.0000000   0.0000000   0.0000000), wk =   2.0000000

     Check: negative core charge=   -0.000013

     Initial potential from superposition of free atoms

     starting charge      63.9962, renormalised to      64.0000

     negative rho (up, down):  6.004E-02 0.000E+00
     Starting wfcs are   47 randomized atomic wfcs
     Checking if some PAW data can be deallocated...

     Self-consistent Calculation

     iteration #  1     ecut=    30.00 Ry     beta= 0.70
     Davidson diagonalization with overlap

     ethr =  1.00E-02,  avg # of iterations =  2.0

     negative rho (up, down):  5.996E-02 0.000E+00

     total energy              =    -682.01492621 Ry
     estimated scf accuracy    <       1.79602131 Ry

[...]

     total energy              =    -683.04612892 Ry
     estimated scf accuracy    <       0.00000179 Ry

     iteration # 13     ecut=    30.00 Ry     beta= 0.70
     Davidson diagonalization with overlap

     ethr =  2.80E-09,  avg # of iterations =  2.0

[...]

     End of self-consistent calculation

          k = 0.0000 0.0000 0.0000 (   655 PWs)   bands (ev):

   -53.1752 -53.1075 -53.1073 -29.4553 -23.3915 -23.3915 -23.3914 -23.0000
   -23.0000 -22.9999 -22.9707 -22.9706 -22.9706  -7.4585  -7.4584  -7.4584
     7.9558  13.5414  14.7049  14.7050  15.0118  15.0118  15.0118  17.7770
    17.7771  17.7771  18.9839  18.9839  18.9839  19.1238  19.1239  20.5505
    20.8017  20.8017  20.8018  22.8128  22.8129  24.1161

     occupation numbers
     1.0000   1.0000   1.0000   1.0000   1.0000   1.0000   1.0000   1.0000
     1.0000   1.0000   1.0000   1.0000   1.0000   1.0000   1.0000   1.0000
     1.0000   1.0000   1.0000   1.0000   1.0000   1.0000   1.0000   1.0000
     1.0000   1.0000   1.0000   1.0000   1.0000   1.0000   1.0000   1.0000
    -0.0000  -0.0000  -0.0000  -0.0000  -0.0000  -0.0000

     the Fermi energy is    20.6164 ev

!    total energy              =    -683.04612888 Ry
     estimated scf accuracy    <       0.00000026 Ry
     smearing contrib. (-TS)   =       0.00000000 Ry
     internal energy E=F+TS    =    -683.04612888 Ry

     The total energy is F=E-TS. E is the sum of the following terms:
     one-electron contribution =    -153.46895714 Ry
     hartree contribution      =     114.80624983 Ry
     xc contribution           =     -81.95726179 Ry
     ewald contribution        =    -556.28106955 Ry
     one-center paw contrib.   =      -6.14509022 Ry
      -> PAW hartree energy AE =       8.19609407 Ry
      -> PAW hartree energy PS =      -8.18915043 Ry
      -> PAW xc energy AE      =     -10.33944768 Ry
      -> PAW xc energy PS      =       4.18741381 Ry
      -> total E_H with PAW    =     114.81319347 Ry
      -> total E_XC with PAW   =     -88.10929565 Ry

     convergence has been achieved in  13 iterations

     negative rho (up, down):  6.096E-02 0.000E+00

     Forces acting on atoms (cartesian axes, Ry/au):

     atom    1 type  1   force =     0.00000000    0.00000000    0.00000000
     atom    2 type  2   force =     0.00000000    0.00000000    0.00000000
     atom    3 type  2   force =     0.00000000    0.00000000    0.00000000
     atom    4 type  2   force =     0.00000000    0.00000000    0.00000000
     atom    5 type  3   force =     0.00000000    0.00000000    0.00000000
     The non-local contrib.  to forces
     atom    1 type  1   force =     0.00000000    0.00000000    0.00000000
     atom    2 type  2   force =     0.00000000    0.00000000    0.00000000
     atom    3 type  2   force =     0.00000000    0.00000000    0.00000000
     atom    4 type  2   force =     0.00000000    0.00000000    0.00000000
     atom    5 type  3   force =     0.00000000    0.00000000    0.00000000
     The ionic contribution  to forces
     atom    1 type  1   force =    -0.00000000   -0.00000000   -0.00000000
     atom    2 type  2   force =    -0.00000000    0.00000000    0.00000000
     atom    3 type  2   force =     0.00000000   -0.00000000    0.00000000
     atom    4 type  2   force =     0.00000000    0.00000000   -0.00000000
     atom    5 type  3   force =     0.00000000    0.00000000    0.00000000
     The local contribution  to forces
     atom    1 type  1   force =     0.00000738    0.00002021   -0.00003402
     atom    2 type  2   force =    -0.00000768   -0.00001931    0.00003107
     atom    3 type  2   force =    -0.00001271    0.00001915    0.00004102
     atom    4 type  2   force =    -0.00001146   -0.00001094   -0.00004465
     atom    5 type  3   force =    -0.00000097   -0.00000476    0.00001362
     The core correction contribution to forces
     atom    1 type  1   force =     0.00000002    0.00000054   -0.00000070
     atom    2 type  2   force =     0.00000000    0.00000000    0.00000000
     atom    3 type  2   force =     0.00000000    0.00000000    0.00000000
     atom    4 type  2   force =     0.00000000    0.00000000    0.00000000
     atom    5 type  3   force =     0.00000000    0.00000002    0.00000001
     The Hubbard contrib.    to forces
     atom    1 type  1   force =     0.00000000    0.00000000    0.00000000
     atom    2 type  2   force =     0.00000000    0.00000000    0.00000000
     atom    3 type  2   force =     0.00000000    0.00000000    0.00000000
     atom    4 type  2   force =     0.00000000    0.00000000    0.00000000
     atom    5 type  3   force =     0.00000000    0.00000000    0.00000000
     The SCF correction term to forces
     atom    1 type  1   force =    -0.00000774   -0.00001992    0.00003458
     atom    2 type  2   force =     0.00000003    0.00002964   -0.00005106
     atom    3 type  2   force =     0.00001498   -0.00003014   -0.00005796
     atom    4 type  2   force =     0.00001356    0.00002495    0.00006024
     atom    5 type  3   force =     0.00000131    0.00000566   -0.00001305

     Total force =     0.000000     Total SCF correction =     0.000119

     Computing stress (Cartesian axis) and pressure

     negative rho (up, down):  6.096E-02 0.000E+00
          total   stress  (Ry/bohr**3)                   (kbar)     P=      -52.22
  -0.00035496   0.00000000   0.00000000          -52.22        0.00        0.00
   0.00000000  -0.00035496   0.00000000            0.00      -52.22        0.00
   0.00000000   0.00000000  -0.00035496            0.00        0.00      -52.22

     kinetic stress (kbar)  45555.77      0.00      0.00
                                0.00  45555.77      0.00
                                0.00      0.00  45555.77

     local   stress (kbar)  -3615.60      0.61     -0.08
                                0.61  -3615.61     -0.45
                               -0.08     -0.45  -3615.69

     nonloc. stress (kbar)  12331.42      0.00      0.00
                                0.00  12331.42      0.00
                                0.00      0.00  12331.42

     hartree stress (kbar)  12081.48     -0.16      0.02
                               -0.16  12081.47      0.12
                                0.02      0.12  12081.57

     exc-cor stress (kbar)  -5523.47     -0.00      0.00
                               -0.00  -5523.47      0.00
                                0.00      0.00  -5523.47

     corecor stress (kbar)  -2342.21      0.00     -0.00
                                0.00  -2342.21     -0.00
                               -0.00     -0.00  -2342.21

     ewald   stress (kbar) -58539.60     -0.00     -0.00
                               -0.00 -58539.60      0.00
                               -0.00      0.00 -58539.60

     hubbard stress (kbar)      0.00      0.00      0.00
                                0.00      0.00      0.00
                                0.00      0.00      0.00

     DFT-D   stress (kbar)      0.00      0.00      0.00
                                0.00      0.00      0.00
                                0.00      0.00      0.00

     XDM     stress (kbar)      0.00      0.00      0.00
                                0.00      0.00      0.00
                                0.00      0.00      0.00

     dft-nl  stress (kbar)      0.00      0.00      0.00
                                0.00      0.00      0.00
                                0.00      0.00      0.00

     TS-vdW  stress (kbar)      0.00      0.00      0.00
                                0.00      0.00      0.00
                                0.00      0.00      0.00

[...]

                                0.00      0.00      0.00

     Writing all to output data dir new_calculations/myprefix.save/

     General routines

     Parallel routines

     PAW routines

   This run was terminated on:   6:33:32  21May2023

   JOB DONE.