     Program PWSCF v.7.0 starts on 21May2023 at  3:22: 3

     Reading input from espresso_17825.pwi
Warning: card &CELL ignored
Warning: card / ignored

     Current dimensions of program PWSCF are:
     Max number of different atomic species (ntypx) = 10
     Max number of k-points (npk) =  40000
     Max angular momentum in pseudopotentials (lmaxx) =  4
     file Ga.pbe-dn-kjpaw_psl.1.0.0.UPF: wavefunction(s)  4S renormalized

     gamma-point specific algorithms are used

     Subspace diagonalization in iterative solution of the eigenvalue problem:
     a serial algorithm will be used

     Using Slab Decomposition

     bravais-lattice index     =            0
     lattice parameter (alat)  =      12.4808  a.u.
     unit-cell volume          =    1109.1991 (a.u.)^3
     number of atoms/cell      =            8
     number of atomic types    =            4
     number of electrons       =        88.00
     number of Kohn-Sham states=           53
     kinetic-energy cutoff     =      30.0000  Ry
     charge density cutoff     =     240.0000  Ry
     scf convergence threshold =      1.0E-06
     mixing beta               =       0.7000
     number of iterations used =            8  plain     mixing
     Exchange-correlation=  SLA  PW   PBX  PBC
                           (   1   4   3   4   0   0   0)

     celldm(1)=  12.480815  celldm(2)=   0.000000  celldm(3)=   0.000000
     celldm(4)=   0.000000  celldm(5)=   0.000000  celldm(6)=   0.000000

     crystal axes: (cart. coord. in units of alat)
               a(1) = (   1.000000   0.000000   0.000000 )
               a(2) = (   0.289453   0.957192   0.000000 )
               a(3) = (  -0.644726  -0.478596   0.596048 )

     reciprocal axes: (cart. coord. in units 2 pi/alat)
               b(1) = (  1.000000 -0.302398  0.838858 )
               b(2) = (  0.000000  1.044722  0.838858 )
               b(3) = (  0.000000  0.000000  1.677716 )

     PseudoPot. # 1 for Ga read from file:
     /home/pragov/projects/rrg-bengioy-ad/pragov/crystal_structure_design/SSSP/Ga.pbe-dn-kjpaw_psl.1.0.0.UPF
     MD5 check sum: a27b4342b1af7e5f338de752e9ed7044
     Pseudo is Projector augmented-wave + core cor, Zval = 13.0
     Generated using "atomic" code by A. Dal Corso  v.5.1
     Shape of augmentation charge: PSQ
     Using radial grid of 1205 points,  6 beta functions with:
                l(1) =   0
                l(2) =   0
                l(3) =   1
                l(4) =   1
                l(5) =   2
                l(6) =   2
     Q(r) pseudized with 0 coefficients

     PseudoPot. # 2 for Cu read from file:
     /home/pragov/projects/rrg-bengioy-ad/pragov/crystal_structure_design/SSSP/Cu_pbe_v1.2.uspp.F.UPF
     MD5 check sum: 6e991ff952a84172a2a52a1c1e996048
     Pseudo is Ultrasoft + core correction, Zval = 19.0
     Generated by new atomic code, or converted to UPF format
     Using radial grid of  867 points,  6 beta functions with:
                l(1) =   0
                l(2) =   0
                l(3) =   1
                l(4) =   1
                l(5) =   2
                l(6) =   2
     Q(r) pseudized with  8 coefficients,  rinner =    1.150   1.150   1.150
                                                       1.150   1.150

     PseudoPot. # 3 for Ag read from file:
     /home/pragov/projects/rrg-bengioy-ad/pragov/crystal_structure_design/SSSP/Ag_ONCV_PBE-1.0.oncvpsp.upf
     MD5 check sum: 94f47bd0669c641108e45594df92fabc
     Pseudo is Norm-conserving, Zval = 19.0
     Generated using ONCVPSP code by D. R. Hamann
     Using radial grid of 1398 points,  6 beta functions with:
                l(1) =   0
                l(2) =   0
                l(3) =   1
                l(4) =   1
                l(5) =   2
                l(6) =   2

     PseudoPot. # 4 for S  read from file:
     /home/pragov/projects/rrg-bengioy-ad/pragov/crystal_structure_design/SSSP/s_pbe_v1.4.uspp.F.UPF
     MD5 check sum: 88d86576ff6df21479756cfb9bdac1df
     Pseudo is Ultrasoft + core correction, Zval =  6.0
     Generated by new atomic code, or converted to UPF format
     Using radial grid of  907 points,  6 beta functions with:
                l(1) =   0
                l(2) =   0
                l(3) =   1
                l(4) =   1
                l(5) =   2
                l(6) =   2
     Q(r) pseudized with  8 coefficients,  rinner =    1.300   1.300   1.300
                                                       1.300   1.300

     atomic species   valence    mass     pseudopotential
        Ga            13.00    69.72300     Ga( 1.00)
        Cu            19.00    63.54600     Cu( 1.00)
        Ag            19.00   107.86820     Ag( 1.00)
        S              6.00    32.06000     S ( 1.00)

     No symmetry found

                                    s                        frac. trans.

      isym =  1     identity

 cryst.   s( 1) = (     1          0          0      )
                  (     0          1          0      )
                  (     0          0          1      )

 cart.    s( 1) = (  1.0000000  0.0000000 -0.0000000 )
                  (  0.0000000  1.0000000  0.0000000 )
                  (  0.0000000  0.0000000  1.0000000 )

   Cartesian axes

     site n.     atom                  positions (alat units)
         1           Ga  tau(   1) = (   0.5000000   0.0000000   0.2980242  )
         2           Ga  tau(   2) = (   0.6447264   0.4785962   0.0000000  )
         3           Cu  tau(   3) = (   0.0000000   0.0000000   0.0000000  )
         4           Ag  tau(   4) = (   0.1447264   0.4785962   0.2980242  )
         5           S   tau(   5) = (   0.5063091   0.3494953   0.2965585  )
         6           S   tau(   6) = (  -0.1636396  -0.0951234   0.2994899  )
         7           S   tau(   7) = (   0.3277916  -0.1260091   0.5748904  )
         8           S   tau(   8) = (   0.6189916   0.8288295   0.0211579  )

   Crystallographic axes

     site n.     atom                  positions (cryst. coord.)
         1           Ga  tau(   1) = (  0.7500000  0.2500000  0.5000000  )
         2           Ga  tau(   2) = (  0.5000000  0.5000000  0.0000000  )
         3           Cu  tau(   3) = (  0.0000000  0.0000000  0.0000000  )
         4           Ag  tau(   4) = (  0.2500000  0.7500000  0.5000000  )
         5           S   tau(   5) = (  0.6493930  0.6138960  0.4975410  )
         6           S   tau(   6) = (  0.1163550  0.1518520  0.5024590  )
         7           S   tau(   7) = (  0.8481480  0.3506070  0.9645030  )
         8           S   tau(   8) = (  0.3861040  0.8836450  0.0354970  )

     number of k points=     1  Methfessel-Paxton smearing, width (Ry)=  0.0010
                       cart. coord. in units 2pi/alat
        k(    1) = (   0.0000000   0.0000000   0.0000000), wk =   2.0000000

                       cryst. coord.
        k(    1) = (   0.0000000   0.0000000   0.0000000), wk =   2.0000000

     Check: negative core charge=   -0.000002

     Initial potential from superposition of free atoms

     starting charge      86.9937, renormalised to      88.0000
     Starting wfcs are   57 randomized atomic wfcs
     Checking if some PAW data can be deallocated...

     Self-consistent Calculation

     iteration #  1     ecut=    30.00 Ry     beta= 0.70
     Davidson diagonalization with overlap

     ethr =  1.00E-02,  avg # of iterations =  4.0

     total energy              =   -1341.68471964 Ry
     estimated scf accuracy    <       2.53021935 Ry

[...]

     total energy              =   -1343.10483613 Ry
     estimated scf accuracy    <       0.00000910 Ry

     iteration # 13     ecut=    30.00 Ry     beta= 0.70
     Davidson diagonalization with overlap

     ethr =  1.03E-08,  avg # of iterations =  3.0

     End of self-consistent calculation

          k = 0.0000 0.0000 0.0000 (  1525 PWs)   bands (ev):

  -103.5120 -84.6975 -61.0166 -60.8642 -60.8642 -47.7388 -47.7388 -47.7237
    -8.1432  -8.1432  -8.1381  -7.9741  -7.9529  -7.9440  -7.9439  -7.9439
    -7.8553  -7.8308  -6.6100  -4.8257  -4.8255  -4.7944  -0.1908   1.6503
     2.7437   2.9198   3.1300   3.1301   3.2790   3.5351   3.5351   3.9795
     4.3275   4.4371   4.4372   4.7165   5.7514   5.9935   5.9935   6.2287
     6.6379   7.6135   7.6135   7.7980   8.2338  10.1469  10.6302  12.0698
    12.0698  12.1476  12.6159  12.9477  12.9477

     occupation numbers
     1.0000   1.0000   1.0000   1.0000   1.0000   1.0000   1.0000   1.0000
     1.0000   1.0000   1.0000   1.0000   1.0000   1.0000   1.0000   1.0000
     1.0000   1.0000   1.0000   1.0000   1.0000   1.0000   1.0000   1.0000
     1.0000   1.0000   1.0000   1.0000   1.0000   1.0000   1.0000   1.0000
     1.0000   1.0000   1.0000   1.0000   1.0000   1.0000   1.0000   1.0000
     1.0000   1.0000   1.0000   1.0000  -0.0000  -0.0000  -0.0000  -0.0000
    -0.0000  -0.0000  -0.0000  -0.0000  -0.0000

     the Fermi energy is     8.0679 ev

!    total energy              =   -1343.10483762 Ry
     estimated scf accuracy    <       0.00000002 Ry
     smearing contrib. (-TS)   =       0.00000000 Ry
     internal energy E=F+TS    =   -1343.10483762 Ry

     The total energy is F=E-TS. E is the sum of the following terms:
     one-electron contribution =    -812.97614751 Ry
     hartree contribution      =     454.23736481 Ry
     xc contribution           =    -176.08639838 Ry
     ewald contribution        =    -586.36127356 Ry
     one-center paw contrib.   =    -221.91838299 Ry
      -> PAW hartree energy AE =     279.21865957 Ry
      -> PAW hartree energy PS =    -274.85756306 Ry
      -> PAW xc energy AE      =    -301.45962067 Ry
      -> PAW xc energy PS      =      75.18014117 Ry
      -> total E_H with PAW    =     458.59846132 Ry
      -> total E_XC with PAW   =    -402.36587787 Ry

     convergence has been achieved in  13 iterations

     Forces acting on atoms (cartesian axes, Ry/au):

     atom    1 type  1   force =    -0.00000179    0.00006676    0.00003966
     atom    2 type  1   force =    -0.00000061    0.00001377    0.00006670
     atom    3 type  2   force =     0.00000324   -0.00009856   -0.00003459
     atom    4 type  3   force =    -0.00002131   -0.00003378   -0.00003107
     atom    5 type  4   force =    -0.00406975    0.03247589    0.01797055
     atom    6 type  4   force =     0.02989935   -0.01327959   -0.01798973
     atom    7 type  4   force =    -0.00217763   -0.02401775    0.02849869
     atom    8 type  4   force =    -0.02363148    0.00487326   -0.02852021
     The non-local contrib.  to forces
     atom    1 type  1   force =     0.00001621    0.00001130    0.00002719
     atom    2 type  1   force =     0.00001578   -0.00000848    0.00006396
     atom    3 type  2   force =    -0.00000719   -0.00007138    0.00000346
     atom    4 type  3   force =    -0.00002252    0.00001164    0.00000524
     atom    5 type  4   force =     0.01105054   -0.12654187   -0.13914146
     atom    6 type  4   force =    -0.11789395    0.04716967    0.13911445
     atom    7 type  4   force =    -0.02943699    0.15136982   -0.10817951
     atom    8 type  4   force =     0.13640776   -0.07202317    0.10812756
     The ionic contribution  to forces
     atom    1 type  1   force =     0.00000000    0.00000000   -0.00000000
     atom    2 type  1   force =    -0.00000000    0.00000000   -0.00000000
     atom    3 type  2   force =     0.00000000   -0.00000000   -0.00000000
     atom    4 type  3   force =    -0.00000000   -0.00000000   -0.00000000
     atom    5 type  4   force =    -0.04534514   -1.24616771   -2.11115898
     atom    6 type  4   force =    -1.20594744    0.31730259    2.11115898
     atom    7 type  4   force =    -0.63270656    2.15958458   -0.97358064
     atom    8 type  4   force =     1.88399914   -1.23071945    0.97358064
     The local contribution  to forces
     atom    1 type  1   force =    -0.00002985   -0.00005798   -0.00003828
     atom    2 type  1   force =     0.00001451   -0.00001995   -0.00006778
     atom    3 type  2   force =     0.00001256    0.00012775    0.00001372
     atom    4 type  3   force =    -0.00011374    0.00008447    0.00010234
     atom    5 type  4   force =     0.03044941    1.39837357    2.26073073
     atom    6 type  4   force =     1.34727908   -0.37558341   -2.26072117
     atom    7 type  4   force =     0.65857277   -2.32664225    1.10463548
     atom    8 type  4   force =    -2.03642570    1.30389780   -1.10460939
     The core correction contribution to forces
     atom    1 type  1   force =    -0.00000044    0.00000044   -0.00000081
     atom    2 type  1   force =    -0.00000070    0.00000023   -0.00000078
     atom    3 type  2   force =    -0.00000002   -0.00000001   -0.00000010
     atom    4 type  3   force =     0.00000000    0.00000000    0.00000000
     atom    5 type  4   force =    -0.00027751    0.00678828    0.00748549
     atom    6 type  4   force =     0.00641570   -0.00222902   -0.00748275
     atom    7 type  4   force =     0.00138782   -0.00828698    0.00561612
     atom    8 type  4   force =    -0.00753348    0.00372918   -0.00561226
     The Hubbard contrib.    to forces
     atom    1 type  1   force =     0.00000000    0.00000000    0.00000000
     atom    2 type  1   force =     0.00000000    0.00000000    0.00000000
     atom    3 type  2   force =     0.00000000    0.00000000    0.00000000
     atom    4 type  3   force =     0.00000000    0.00000000    0.00000000
     atom    5 type  4   force =     0.00000000    0.00000000    0.00000000
     atom    6 type  4   force =     0.00000000    0.00000000    0.00000000
     atom    7 type  4   force =     0.00000000    0.00000000    0.00000000
     atom    8 type  4   force =     0.00000000    0.00000000    0.00000000
     The SCF correction term to forces
     atom    1 type  1   force =     0.00001549    0.00010520    0.00005189
     atom    2 type  1   force =    -0.00002702    0.00003417    0.00007163
     atom    3 type  2   force =     0.00000107   -0.00016271   -0.00005135
     atom    4 type  3   force =     0.00011814   -0.00013768   -0.00013831
     atom    5 type  4   force =     0.00005614    0.00001582    0.00005511
     atom    6 type  4   force =     0.00004914    0.00005278   -0.00005892
     atom    7 type  4   force =     0.00000852   -0.00005072    0.00000757
     atom    8 type  4   force =    -0.00007602   -0.00001889   -0.00000643

     Total force =     0.074683     Total SCF correction =     0.000355

     Computing stress (Cartesian axis) and pressure

          total   stress  (Ry/bohr**3)                   (kbar)     P=     -258.73
  -0.00197873  -0.00033799  -0.00000003         -291.08      -49.72       -0.00
  -0.00033799  -0.00177431  -0.00000002          -49.72     -261.01       -0.00
  -0.00000003  -0.00000002  -0.00152339           -0.00       -0.00     -224.10

     kinetic stress (kbar)  17551.13    -33.21      0.00
                              -33.21  17571.20      0.00
                                0.00      0.00  17595.87

     local   stress (kbar) -10817.50    769.72     -0.01
                              769.72 -11283.00      0.01
                               -0.01      0.01 -11854.37

     nonloc. stress (kbar)   5084.38    -31.50     -0.00
                              -31.50   5103.44     -0.01
                               -0.00     -0.01   5126.81

     hartree stress (kbar)  19924.35   -240.40      0.00
                             -240.40  20069.72     -0.01
                                0.00     -0.01  20248.16

     exc-cor stress (kbar)    185.28     -0.97      0.00
                               -0.97    185.86     -0.00
                                0.00     -0.00    186.58

     corecor stress (kbar)  -5962.62      0.71      0.00
                                0.71  -5963.05     -0.00
                                0.00     -0.00  -5963.57

     ewald   stress (kbar) -26256.10   -514.07     -0.00
                             -514.07 -25945.19     -0.00
                               -0.00     -0.00 -25563.58

     hubbard stress (kbar)      0.00      0.00      0.00
                                0.00      0.00      0.00
                                0.00      0.00      0.00

     DFT-D   stress (kbar)      0.00      0.00      0.00
                                0.00      0.00      0.00
                                0.00      0.00      0.00

     XDM     stress (kbar)      0.00      0.00      0.00
                                0.00      0.00      0.00
                                0.00      0.00      0.00

     dft-nl  stress (kbar)      0.00      0.00      0.00
                                0.00      0.00      0.00
                                0.00      0.00      0.00

     TS-vdW  stress (kbar)      0.00      0.00      0.00
                                0.00      0.00      0.00
                                0.00      0.00      0.00

[...]

                                0.00      0.00      0.00

     Writing all to output data dir new_calculations/myprefix.save/

     General routines

     Parallel routines

     PAW routines

   This run was terminated on:   3:22:27  21May2023

   JOB DONE.