     Program PWSCF v.7.0 starts on 20May2023 at 16: 9:38

     Reading input from espresso_9487.pwi
Warning: card &CELL ignored
Warning: card / ignored

     Current dimensions of program PWSCF are:
     Max number of different atomic species (ntypx) = 10
     Max number of k-points (npk) =  40000
     Max angular momentum in pseudopotentials (lmaxx) =  4
     file Ba.pbe-spn-kjpaw_psl.1.0.0.UPF: wavefunction(s)  5S 6S renormalized
     file In.pbe-dn-rrkjus_psl.0.2.2.UPF: wavefunction(s)  5S renormalized

     gamma-point specific algorithms are used
     Message from routine setup:
     using ibrav=0 with symmetry is DISCOURAGED, use correct ibrav instead

     Subspace diagonalization in iterative solution of the eigenvalue problem:
     a serial algorithm will be used

     Using Slab Decomposition

     bravais-lattice index     =            0
     lattice parameter (alat)  =      12.6532  a.u.
     unit-cell volume          =    1359.2860 (a.u.)^3
     number of atoms/cell      =            6
     number of atomic types    =            2
     number of electrons       =        72.00
     number of Kohn-Sham states=           43
     kinetic-energy cutoff     =      30.0000  Ry
     charge density cutoff     =     240.0000  Ry
     scf convergence threshold =      1.0E-06
     mixing beta               =       0.7000
     number of iterations used =            8  plain     mixing
     Exchange-correlation= PBE
                           (   1   4   3   4   0   0   0)

     celldm(1)=  12.653150  celldm(2)=   0.000000  celldm(3)=   0.000000
     celldm(4)=   0.000000  celldm(5)=   0.000000  celldm(6)=   0.000000

     crystal axes: (cart. coord. in units of alat)
               a(1) = (   1.000000   0.000000   0.000000 )
               a(2) = (  -0.154582   0.987980   0.000000 )
               a(3) = (  -0.163882  -0.715469   0.679152 )

     reciprocal axes: (cart. coord. in units 2 pi/alat)
               b(1) = (  1.000000  0.156463  0.406134 )
               b(2) = (  0.000000  1.012166  1.066292 )
               b(3) = (  0.000000  0.000000  1.472426 )

     PseudoPot. # 1 for Ba read from file:
     /home/pragov/projects/rrg-bengioy-ad/pragov/crystal_structure_design/SSSP/Ba.pbe-spn-kjpaw_psl.1.0.0.UPF
     MD5 check sum: c432291d3e53af55f19d5e8866385beb
     Pseudo is Projector augmented-wave + core cor, Zval = 10.0
     Generated using "atomic" code by A. Dal Corso  v.5.1
     Shape of augmentation charge: PSQ
     Using radial grid of 1251 points,  7 beta functions with:
                l(1) =   0
                l(2) =   0
                l(3) =   0
                l(4) =   1
                l(5) =   1
                l(6) =   2
                l(7) =   2
     Q(r) pseudized with 0 coefficients

     PseudoPot. # 2 for In read from file:
     /home/pragov/projects/rrg-bengioy-ad/pragov/crystal_structure_design/SSSP/In.pbe-dn-rrkjus_psl.0.2.2.UPF
     MD5 check sum: 25e7c42c3b55b68f4bf926be2e7201a4
     Pseudo is Ultrasoft + core correction, Zval = 13.0
     Generated using "atomic" code by A. Dal Corso  v.5.0.99 svn rev. 10869
     Using radial grid of 1241 points,  6 beta functions with:
                l(1) =   0
                l(2) =   0
                l(3) =   1
                l(4) =   1
                l(5) =   2
                l(6) =   2
     Q(r) pseudized with 0 coefficients

     atomic species   valence    mass     pseudopotential
        Ba            10.00   137.32700     Ba( 1.00)
        In            13.00   114.81800     In( 1.00)

      2 Sym. Ops., with inversion, found

                                    s                        frac. trans.

      isym =  1     identity

 cryst.   s( 1) = (     1          0          0      )
                  (     0          1          0      )
                  (     0          0          1      )

 cart.    s( 1) = (  1.0000000  0.0000000 -0.0000000 )
                  (  0.0000000  1.0000000  0.0000000 )
                  (  0.0000000  0.0000000  1.0000000 )

      isym =  2     inversion

 cryst.   s( 2) = (    -1          0          0      )
                  (     0         -1          0      )
                  (     0          0         -1      )

 cart.    s( 2) = ( -1.0000000 -0.0000000  0.0000000 )
                  (  0.0000000 -1.0000000 -0.0000000 )
                  (  0.0000000  0.0000000 -1.0000000 )

   Cartesian axes

     site n.     atom                  positions (alat units)
         1           Ba  tau(   1) = (   0.0086905  -0.0906503   0.5093636  )
         2           Ba  tau(   2) = (   0.6728452   0.3631613   0.1697879  )
         3           In  tau(   3) = (   0.1935880   0.1112843   0.0461232  )
         4           In  tau(   4) = (   0.4879478   0.1612268   0.6330283  )
         5           In  tau(   5) = (   0.4980813  -0.1492709   0.2934525  )
         6           In  tau(   6) = (   0.1834545   0.4217819   0.3856990  )

   Crystallographic axes

     site n.     atom                  positions (cryst. coord.)
         1           Ba  tau(   1) = (  0.2013770  0.4513770  0.7500000  )
         2           Ba  tau(   2) = (  0.7986230  0.5486230  0.2500000  )
         3           In  tau(   3) = (  0.2297320  0.1618190  0.0679130  )
         4           In  tau(   4) = (  0.7702680  0.8381810  0.9320870  )
         5           In  tau(   5) = (  0.5939070  0.1618190  0.4320870  )
         6           In  tau(   6) = (  0.4060930  0.8381810  0.5679130  )

     number of k points=     1  Methfessel-Paxton smearing, width (Ry)=  0.0010
                       cart. coord. in units 2pi/alat
        k(    1) = (   0.0000000   0.0000000   0.0000000), wk =   2.0000000

                       cryst. coord.
        k(    1) = (   0.0000000   0.0000000   0.0000000), wk =   2.0000000

     Initial potential from superposition of free atoms

     starting charge      71.9511, renormalised to      72.0000
     Starting wfcs are   46 randomized atomic wfcs
     Checking if some PAW data can be deallocated...

     Self-consistent Calculation

     iteration #  1     ecut=    30.00 Ry     beta= 0.70
     Davidson diagonalization with overlap

     ethr =  1.00E-02,  avg # of iterations =  5.0

     Threshold (ethr) on eigenvalues was too large:
     Diagonalizing with lowered threshold

     Davidson diagonalization with overlap

[...]

     negative rho (up, down):  3.955E-02 0.000E+00

     total energy              =   -1451.82694135 Ry
     estimated scf accuracy    <       0.30178486 Ry

[...]

     negative rho (up, down):  5.601E-04 0.000E+00

[...]

     total energy              =   -1451.89065818 Ry
     estimated scf accuracy    <       0.00000377 Ry

     iteration # 22     ecut=    30.00 Ry     beta= 0.70
     Davidson diagonalization with overlap

     ethr =  5.24E-09,  avg # of iterations =  2.0

     End of self-consistent calculation

          k = 0.0000 0.0000 0.0000 (  1875 PWs)   bands (ev):

   -19.4805 -19.4457  -5.5065  -5.4569  -5.4545  -5.4193  -5.3930  -5.3874
    -5.3068  -5.2908  -5.2613  -5.2588  -5.2574  -5.2562  -5.2413  -5.2402
    -5.2399  -5.1652  -5.0992  -5.0763  -5.0335  -5.0288  -4.8368  -4.7549
    -4.6025  -4.5802  -4.4906  -4.4436   1.2868   3.6271   5.1495   6.4839
     7.3734   7.5434   7.6695   8.4241   8.5669   9.9782  10.6071  10.6370
    11.0843  11.1508  13.0133

     occupation numbers
     1.0000   1.0000   1.0000   1.0000   1.0000   1.0000   1.0000   1.0000
     1.0000   1.0000   1.0000   1.0000   1.0000   1.0000   1.0000   1.0000
     1.0000   1.0000   1.0000   1.0000   1.0000   1.0000   1.0000   1.0000
     1.0000   1.0000   1.0000   1.0000   1.0000   1.0000   1.0000   1.0000
     1.0000   1.0000   1.0000   1.0000  -0.0000  -0.0000  -0.0000  -0.0000
    -0.0000  -0.0000  -0.0000

     the Fermi energy is     8.4937 ev

!    total energy              =   -1451.89065808 Ry
     estimated scf accuracy    <       0.00000057 Ry
     smearing contrib. (-TS)   =       0.00000000 Ry
     internal energy E=F+TS    =   -1451.89065808 Ry

     The total energy is F=E-TS. E is the sum of the following terms:
     one-electron contribution =    -252.18284338 Ry
     hartree contribution      =     180.37676994 Ry
     xc contribution           =    -231.13175596 Ry
     ewald contribution        =    -399.07184802 Ry
     one-center paw contrib.   =    -749.88098065 Ry
      -> PAW hartree energy AE =      57.25658789 Ry
      -> PAW hartree energy PS =     -57.05683232 Ry
      -> PAW xc energy AE      =    -788.36380054 Ry
      -> PAW xc energy PS      =      38.28306432 Ry
      -> total E_H with PAW    =     180.57652551 Ry
      -> total E_XC with PAW   =    -981.21249219 Ry

     convergence has been achieved in  22 iterations

     Forces acting on atoms (cartesian axes, Ry/au):

     atom    1 type  1   force =     0.04421466    0.05166929    0.00001305
     atom    2 type  1   force =    -0.04421466   -0.05166929   -0.00001305
     atom    3 type  2   force =     0.02668792   -0.05866923    0.03619411
     atom    4 type  2   force =    -0.02668792    0.05866923   -0.03619411
     atom    5 type  2   force =    -0.06216019    0.01783575   -0.03612457
     atom    6 type  2   force =     0.06216019   -0.01783575    0.03612457
     The non-local contrib.  to forces
     atom    1 type  1   force =     0.05158806    0.06043376    0.00009291
     atom    2 type  1   force =    -0.05158806   -0.06043376   -0.00009291
     atom    3 type  2   force =    -0.03601105    0.30443659   -0.13812960
     atom    4 type  2   force =     0.03601105   -0.30443659    0.13812960
     atom    5 type  2   force =     0.30595098    0.01218459    0.13766259
     atom    6 type  2   force =    -0.30595098   -0.01218459   -0.13766259
     The ionic contribution  to forces
     atom    1 type  1   force =    -2.72930576   -3.18957842    0.00000942
     atom    2 type  1   force =     2.72930576    3.18957842   -0.00000942
     atom    3 type  2   force =    -3.34916574    1.72432150   -2.26233013
     atom    4 type  2   force =     3.34916574   -1.72432150    2.26233013
     atom    5 type  2   force =     2.22129964   -3.04239069    2.26239383
     atom    6 type  2   force =    -2.22129964    3.04239069   -2.26239383
     The local contribution  to forces
     atom    1 type  1   force =     2.72873064    3.18758652   -0.00058735
     atom    2 type  1   force =    -2.72768481   -3.18864926   -0.00046294
     atom    3 type  2   force =     3.40582794   -2.08214420    2.43182613
     atom    4 type  2   force =    -3.40589080    2.08205913   -2.43181612
     atom    5 type  2   force =    -2.58331734    3.04285781   -2.43136824
     atom    6 type  2   force =     2.58335456   -3.04289406    2.43141798
     The core correction contribution to forces
     atom    1 type  1   force =    -0.00628658   -0.00736849   -0.00000515
     atom    2 type  1   force =     0.00630096    0.00734915   -0.00000235
     atom    3 type  2   force =     0.00598461   -0.00526813    0.00479934
     atom    4 type  2   force =    -0.00598534    0.00526558   -0.00479816
     atom    5 type  2   force =    -0.00608276    0.00505778   -0.00474426
     atom    6 type  2   force =     0.00608173   -0.00505837    0.00474442
     The Hubbard contrib.    to forces
     atom    1 type  1   force =     0.00000000    0.00000000    0.00000000
     atom    2 type  1   force =     0.00000000    0.00000000    0.00000000
     atom    3 type  2   force =     0.00000000    0.00000000    0.00000000
     atom    4 type  2   force =     0.00000000    0.00000000    0.00000000
     atom    5 type  2   force =     0.00000000    0.00000000    0.00000000
     atom    6 type  2   force =     0.00000000    0.00000000    0.00000000
     The SCF correction term to forces
     atom    1 type  1   force =    -0.00005491    0.00011769    0.00004672
     atom    2 type  1   force =    -0.00009172    0.00000795    0.00009807
     atom    3 type  2   force =     0.00004774   -0.00001273    0.00002662
     atom    4 type  2   force =     0.00000701    0.00010487   -0.00004134
     atom    5 type  2   force =    -0.00001900    0.00012292   -0.00007169
     atom    6 type  2   force =    -0.00003375   -0.00009277    0.00001541

     Total force =     0.176499     Total SCF correction =     0.000289

     Computing stress (Cartesian axis) and pressure

          total   stress  (Ry/bohr**3)                   (kbar)     P=      -37.64
  -0.00039357   0.00007759  -0.00035071          -57.90       11.41      -51.59
   0.00007759  -0.00037108   0.00029769           11.41      -54.59       43.79
  -0.00035071   0.00029769  -0.00000292          -51.59       43.79       -0.43

     kinetic stress (kbar)  10662.76    -37.98    -70.20
                              -37.98  10651.92     59.52
                              -70.20     59.52  10787.80

     local   stress (kbar)  -1511.01   -355.09   1927.92
                             -355.09  -1621.79  -1649.73
                             1927.92  -1649.73  -3752.37

     nonloc. stress (kbar)   3535.43      6.88    -12.89
                                6.88   3536.22     11.25
                              -12.89     11.25   3545.81

     hartree stress (kbar)   6156.79     84.08   -830.43
                               84.08   6182.92    710.58
                             -830.43    710.58   7181.09

     exc-cor stress (kbar)  11356.69     -0.39     -1.59
                               -0.39  11356.56      1.36
                               -1.59      1.36  11359.11

     corecor stress (kbar) -15450.71     -0.71      0.40
                               -0.71 -15450.98     -0.35
                                0.40     -0.35 -15450.68

     ewald   stress (kbar) -14807.84    314.61  -1064.80
                              314.61 -14709.44    911.16
                            -1064.80    911.16 -13671.20

     hubbard stress (kbar)      0.00      0.00      0.00
                                0.00      0.00      0.00
                                0.00      0.00      0.00

     DFT-D   stress (kbar)      0.00      0.00      0.00
                                0.00      0.00      0.00
                                0.00      0.00      0.00

     XDM     stress (kbar)      0.00      0.00      0.00
                                0.00      0.00      0.00
                                0.00      0.00      0.00

     dft-nl  stress (kbar)      0.00      0.00      0.00
                                0.00      0.00      0.00
                                0.00      0.00      0.00

     TS-vdW  stress (kbar)      0.00      0.00      0.00
                                0.00      0.00      0.00
                                0.00      0.00      0.00

[...]

                                0.00      0.00      0.00

     Writing all to output data dir new_calculations/myprefix.save/

     General routines

     Parallel routines

     PAW routines

   This run was terminated on:  16:10: 3  20May2023

   JOB DONE.