     Program PWSCF v.7.0 starts on 20May2023 at 10:26:32

     Reading input from espresso_1338.pwi
Warning: card &CELL ignored
Warning: card / ignored

     Current dimensions of program PWSCF are:
     Max number of different atomic species (ntypx) = 10
     Max number of k-points (npk) =  40000
     Max angular momentum in pseudopotentials (lmaxx) =  4
     file O.pbe-n-kjpaw_psl.0.1.UPF: wavefunction(s)  2P renormalized

     gamma-point specific algorithms are used
     Message from routine setup:
     using ibrav=0 with symmetry is DISCOURAGED, use correct ibrav instead

     Subspace diagonalization in iterative solution of the eigenvalue problem:
     a serial algorithm will be used

     Using Slab Decomposition

     bravais-lattice index     =            0
     lattice parameter (alat)  =      10.6348  a.u.
     unit-cell volume          =     741.6416 (a.u.)^3
     number of atoms/cell      =            8
     number of atomic types    =            3
     number of electrons       =        94.00
     number of Kohn-Sham states=           56
     kinetic-energy cutoff     =      30.0000  Ry
     charge density cutoff     =     240.0000  Ry
     scf convergence threshold =      1.0E-06
     mixing beta               =       0.7000
     number of iterations used =            8  plain     mixing
     Exchange-correlation= SLA  PW   PBX  PBC
                           (   1   4   3   4   0   0   0)

     celldm(1)=  10.634849  celldm(2)=   0.000000  celldm(3)=   0.000000
     celldm(4)=   0.000000  celldm(5)=   0.000000  celldm(6)=   0.000000

     crystal axes: (cart. coord. in units of alat)
               a(1) = (   1.000000   0.000000   0.000000 )
               a(2) = (   0.845829   0.533454   0.000000 )
               a(3) = (   0.096908   0.028007   1.155855 )

     reciprocal axes: (cart. coord. in units 2 pi/alat)
               b(1) = (  1.000000 -1.585572 -0.045422 )
               b(2) = (  0.000000  1.874577 -0.045422 )
               b(3) = (  0.000000  0.000000  0.865160 )

     PseudoPot. # 1 for Ag read from file:
     /home/pragov/projects/rrg-bengioy-ad/pragov/crystal_structure_design/SSSP/Ag_ONCV_PBE-1.0.oncvpsp.upf
     MD5 check sum: 94f47bd0669c641108e45594df92fabc
     Pseudo is Norm-conserving, Zval = 19.0
     Generated using ONCVPSP code by D. R. Hamann
     Using radial grid of 1398 points,  6 beta functions with:
                l(1) =   0
                l(2) =   0
                l(3) =   1
                l(4) =   1
                l(5) =   2
                l(6) =   2

     PseudoPot. # 2 for Pt read from file:
     /home/pragov/projects/rrg-bengioy-ad/pragov/crystal_structure_design/SSSP/pt_pbe_v1.4.uspp.F.UPF
     MD5 check sum: f09d6de1a584b5a045c4fc126da2d0c4
     Pseudo is Ultrasoft + core correction, Zval = 16.0
     Generated by new atomic code, or converted to UPF format
     Using radial grid of  985 points,  6 beta functions with:
                l(1) =   0
                l(2) =   0
                l(3) =   1
                l(4) =   1
                l(5) =   2
                l(6) =   2
     Q(r) pseudized with  8 coefficients,  rinner =    1.300   1.300   1.300
                                                       1.300   1.300

     PseudoPot. # 3 for O  read from file:
     /home/pragov/projects/rrg-bengioy-ad/pragov/crystal_structure_design/SSSP/O.pbe-n-kjpaw_psl.0.1.UPF
     MD5 check sum: 0234752ac141de4415c5fc33072bef88
     Pseudo is Projector augmented-wave + core cor, Zval =  6.0
     Generated using "atomic" code by A. Dal Corso  v.5.0.99 svn rev. 10869
     Shape of augmentation charge: BESSEL
     Using radial grid of 1095 points,  4 beta functions with:
                l(1) =   0
                l(2) =   0
                l(3) =   1
                l(4) =   1
     Q(r) pseudized with 0 coefficients

     atomic species   valence    mass     pseudopotential
        Ag            19.00   107.86820     Ag( 1.00)
        Pt            16.00   195.08400     Pt( 1.00)
        O              6.00    15.99900     O ( 1.00)

      2 Sym. Ops., with inversion, found

                                    s                        frac. trans.

      isym =  1     identity

 cryst.   s( 1) = (     1          0          0      )
                  (     0          1          0      )
                  (     0          0          1      )

 cart.    s( 1) = (  1.0000000 -0.0000000 -0.0000000 )
                  (  0.0000000  1.0000000  0.0000000 )
                  (  0.0000000  0.0000000  1.0000000 )

      isym =  2     inversion

 cryst.   s( 2) = (    -1          0          0      )
                  (     0         -1          0      )
                  (     0          0         -1      )

 cart.    s( 2) = ( -1.0000000  0.0000000  0.0000000 )
                  (  0.0000000 -1.0000000 -0.0000000 )
                  (  0.0000000  0.0000000 -1.0000000 )

   Cartesian axes

     site n.     atom                  positions (alat units)
         1           Ag  tau(   1) = (   1.2333815   0.3564532   0.6375582  )
         2           Ag  tau(   2) = (   0.7093560   0.2050073   0.5182970  )
         3           Pt  tau(   3) = (   0.2190309   0.0633010   0.0654445  )
         4           Pt  tau(   4) = (   1.7237065   0.4981595   1.0904107  )
         5           O   tau(   5) = (   1.3454742   0.3888486   1.0089113  )
         6           O   tau(   6) = (   0.8701333   0.2514727   0.8692956  )
         7           O   tau(   7) = (   1.0726042   0.3099878   0.2865596  )
         8           O   tau(   8) = (   0.5972632   0.1726120   0.1469439  )

   Crystallographic axes

     site n.     atom                  positions (cryst. coord.)
         1           Ag  tau(   1) = (  0.6392400  0.6392400  0.5515900  )
         2           Ag  tau(   2) = (  0.3607600  0.3607600  0.4484100  )
         3           Pt  tau(   3) = (  0.1156900  0.1156900  0.0566200  )
         4           Pt  tau(   4) = (  0.8843100  0.8843100  0.9433800  )
         5           O   tau(   5) = (  0.6831000  0.6831000  0.8728700  )
         6           O   tau(   6) = (  0.4319200  0.4319200  0.7520800  )
         7           O   tau(   7) = (  0.5680800  0.5680800  0.2479200  )
         8           O   tau(   8) = (  0.3169000  0.3169000  0.1271300  )

     number of k points=     1  Methfessel-Paxton smearing, width (Ry)=  0.0010
                       cart. coord. in units 2pi/alat
        k(    1) = (   0.0000000   0.0000000   0.0000000), wk =   2.0000000

                       cryst. coord.
        k(    1) = (   0.0000000   0.0000000   0.0000000), wk =   2.0000000

     Check: negative core charge=   -0.000010

     Initial potential from superposition of free atoms

     starting charge      92.9994, renormalised to      94.0000

     negative rho (up, down):  3.764E-01 0.000E+00
     Starting wfcs are   60 randomized atomic wfcs
     Checking if some PAW data can be deallocated...

     Self-consistent Calculation

     iteration #  1     ecut=    30.00 Ry     beta= 0.70
     Davidson diagonalization with overlap

     ethr =  1.00E-02,  avg # of iterations =  6.0

     negative rho (up, down):  3.399E-01 0.000E+00

     total energy              =   -1159.00060296 Ry
     estimated scf accuracy    <       4.53953099 Ry

[...]

     total energy              =   -1161.82489919 Ry
     estimated scf accuracy    <       0.00000149 Ry

     iteration # 12     ecut=    30.00 Ry     beta= 0.70
     Davidson diagonalization with overlap

     ethr =  1.59E-09,  avg # of iterations =  2.0

[...]

     End of self-consistent calculation

          k = 0.0000 0.0000 0.0000 (  1030 PWs)   bands (ev):

   -79.3730 -79.3667 -42.5743 -42.5719 -42.3693 -42.3083 -42.2573 -42.2440
   -41.1345 -41.1241 -40.6965 -40.6842 -40.5038 -40.3352  -7.2525  -6.6057
    -5.9683  -5.8793   4.7248   4.9755   5.5315   5.8295   6.1280   6.5160
     7.5273   8.2157   8.5720   8.7210   8.8136   9.0962   9.1897   9.2596
     9.3723   9.6290   9.6472   9.7574   9.8623   9.9454   9.9502  10.0255
    10.0745  10.5486  10.8848  10.9842  11.3344  11.6115  12.0783  13.4939
    13.5302  15.2644  15.3426  17.2013  17.8340  18.7462  18.8173  21.1725

     occupation numbers
     1.0000   1.0000   1.0000   1.0000   1.0000   1.0000   1.0000   1.0000
     1.0000   1.0000   1.0000   1.0000   1.0000   1.0000   1.0000   1.0000
     1.0000   1.0000   1.0000   1.0000   1.0000   1.0000   1.0000   1.0000
     1.0000   1.0000   1.0000   1.0000   1.0000   1.0000   1.0000   1.0000
     1.0000   1.0000   1.0000   1.0000   1.0000   1.0000   1.0000   1.0000
     1.0000   1.0000   1.0000   1.0000   1.0000   1.0000   1.0000  -0.0000
    -0.0000  -0.0000  -0.0000  -0.0000  -0.0000  -0.0000  -0.0000  -0.0000

     the Fermi energy is    12.6445 ev

!    total energy              =   -1161.82489941 Ry
     estimated scf accuracy    <       0.00000020 Ry
     smearing contrib. (-TS)   =       0.00000000 Ry
     internal energy E=F+TS    =   -1161.82489941 Ry

     The total energy is F=E-TS. E is the sum of the following terms:
     one-electron contribution =    -403.34037261 Ry
     hartree contribution      =     252.68967039 Ry
     xc contribution           =    -196.87499055 Ry
     ewald contribution        =    -776.14420776 Ry
     one-center paw contrib.   =     -38.15499888 Ry
      -> PAW hartree energy AE =     111.92006031 Ry
      -> PAW hartree energy PS =    -111.55734716 Ry
      -> PAW xc energy AE      =     -67.67683074 Ry
      -> PAW xc energy PS      =      29.15911871 Ry
      -> total E_H with PAW    =     253.05238354 Ry
      -> total E_XC with PAW   =    -235.39270258 Ry

     convergence has been achieved in  12 iterations

     negative rho (up, down):  3.544E-01 0.000E+00

     Forces acting on atoms (cartesian axes, Ry/au):

     atom    1 type  1   force =    -0.01480461   -0.00427860    0.01682269
     atom    2 type  1   force =     0.01480461    0.00427860   -0.01682269
     atom    3 type  2   force =     0.06281222    0.01815256    0.06615563
     atom    4 type  2   force =    -0.06281222   -0.01815256   -0.06615563
     atom    5 type  3   force =    -0.02917941   -0.00843368   -0.00618979
     atom    6 type  3   force =    -0.01600095   -0.00462408    0.02312818
     atom    7 type  3   force =     0.01600095    0.00462408   -0.02312818
     atom    8 type  3   force =     0.02917941    0.00843368    0.00618979
     The non-local contrib.  to forces
     atom    1 type  1   force =    -0.15394560   -0.04449093    0.00544848
     atom    2 type  1   force =     0.15394560    0.04449093   -0.00544848
     atom    3 type  2   force =     0.16990553    0.04910350    0.09521795
     atom    4 type  2   force =    -0.16990553   -0.04910350   -0.09521795
     atom    5 type  3   force =    -0.56205121   -0.16243561    0.41698642
     atom    6 type  3   force =    -0.87599663   -0.25316727    0.38931934
     atom    7 type  3   force =     0.87599663    0.25316727   -0.38931934
     atom    8 type  3   force =     0.56205121    0.16243561   -0.41698642
     The ionic contribution  to forces
     atom    1 type  1   force =    -4.01516476   -1.16040207    0.51818461
     atom    2 type  1   force =     4.01516476    1.16040207   -0.51818461
     atom    3 type  2   force =    -2.42172630   -0.69989063    1.51305919
     atom    4 type  2   force =     2.42172630    0.69989063   -1.51305919
     atom    5 type  3   force =     0.82440368    0.23825666   -4.22288274
     atom    6 type  3   force =     2.71945342    0.78593521   -3.42009916
     atom    7 type  3   force =    -2.71945342   -0.78593521    3.42009917
     atom    8 type  3   force =    -0.82440368   -0.23825666    4.22288274
     The local contribution  to forces
     atom    1 type  1   force =     4.15466651    1.20071915   -0.50634392
     atom    2 type  1   force =    -4.15454630   -1.20068427    0.50678850
     atom    3 type  2   force =     2.30093120    0.66498145   -1.54874079
     atom    4 type  2   force =    -2.30069495   -0.66491551    1.54843411
     atom    5 type  3   force =    -0.29918121   -0.08646617    3.80390408
     atom    6 type  3   force =    -1.87007042   -0.54045881    3.05770089
     atom    7 type  3   force =     1.86996256    0.54042734   -3.05820237
     atom    8 type  3   force =     0.29879589    0.08635440   -3.80339805
     The core correction contribution to forces
     atom    1 type  1   force =     0.00000000    0.00000000    0.00000000
     atom    2 type  1   force =     0.00000000    0.00000000    0.00000000
     atom    3 type  2   force =     0.01287279    0.00372025    0.00602673
     atom    4 type  2   force =    -0.01287877   -0.00372224   -0.00603380
     atom    5 type  3   force =     0.00718238    0.00207574   -0.00393685
     atom    6 type  3   force =     0.01074229    0.00310458   -0.00380548
     atom    7 type  3   force =    -0.01074450   -0.00310521    0.00380555
     atom    8 type  3   force =    -0.00718258   -0.00207580    0.00393809
     The Hubbard contrib.    to forces
     atom    1 type  1   force =     0.00000000    0.00000000    0.00000000
     atom    2 type  1   force =     0.00000000    0.00000000    0.00000000
     atom    3 type  2   force =     0.00000000    0.00000000    0.00000000
     atom    4 type  2   force =     0.00000000    0.00000000    0.00000000
     atom    5 type  3   force =     0.00000000    0.00000000    0.00000000
     atom    6 type  3   force =     0.00000000    0.00000000    0.00000000
     atom    7 type  3   force =     0.00000000    0.00000000    0.00000000
     atom    8 type  3   force =     0.00000000    0.00000000    0.00000000
     The SCF correction term to forces
     atom    1 type  1   force =    -0.00038970   -0.00011330   -0.00047384
     atom    2 type  1   force =     0.00021162    0.00006133    0.00001455
     atom    3 type  2   force =     0.00079727    0.00023013    0.00059895
     atom    4 type  2   force =    -0.00109101   -0.00030980   -0.00027238
     atom    5 type  3   force =     0.00048756    0.00014161   -0.00026515
     atom    6 type  3   force =    -0.00018508   -0.00005397    0.00004763
     atom    7 type  3   force =     0.00018421    0.00005371    0.00052383
     atom    8 type  3   force =    -0.00006082   -0.00001796   -0.00025101

     Total force =     0.147954     Total SCF correction =     0.001895

     Computing stress (Cartesian axis) and pressure

     negative rho (up, down):  3.544E-01 0.000E+00
          total   stress  (Ry/bohr**3)                   (kbar)     P=     -907.42
  -0.00575881   0.00034164   0.00033763         -847.15       50.26       49.67
   0.00034164  -0.00684220   0.00009758           50.26    -1006.52       14.35
   0.00033763   0.00009758  -0.00590453           49.67       14.35     -868.59

     kinetic stress (kbar)  49535.06    224.95    -20.60
                              224.95  48821.71     -5.95
                              -20.60     -5.95  48858.11

     local   stress (kbar)  -4422.64    953.86    658.79
                              953.86  -7447.46    190.39
                              658.79    190.39  -6119.59

     nonloc. stress (kbar)     93.58     90.08     -3.42
                               90.08   -192.07     -0.99
                               -3.42     -0.99    147.77

     hartree stress (kbar)  16383.31   -206.71   -130.03
                             -206.71  17038.80    -37.58
                             -130.03    -37.58  16699.04

     exc-cor stress (kbar)   6217.17     -1.48     -1.84
                               -1.48   6221.85     -0.53
                               -1.84     -0.53   6225.69

     corecor stress (kbar) -15621.26     -7.53    -10.55
                               -7.53 -15597.39     -3.05
                              -10.55     -3.05 -15615.25

     ewald   stress (kbar) -53032.37  -1002.92   -442.69
                            -1002.92 -49851.96   -127.94
                             -442.69   -127.94 -51064.37

     hubbard stress (kbar)      0.00      0.00      0.00
                                0.00      0.00      0.00
                                0.00      0.00      0.00

     DFT-D   stress (kbar)      0.00      0.00      0.00
                                0.00      0.00      0.00
                                0.00      0.00      0.00

     XDM     stress (kbar)      0.00      0.00      0.00
                                0.00      0.00      0.00
                                0.00      0.00      0.00

     dft-nl  stress (kbar)      0.00      0.00      0.00
                                0.00      0.00      0.00
                                0.00      0.00      0.00

     TS-vdW  stress (kbar)      0.00      0.00      0.00
                                0.00      0.00      0.00
                                0.00      0.00      0.00

[...]

                                0.00      0.00      0.00

     Writing all to output data dir new_calculations/myprefix.save/

     General routines

     Parallel routines

     PAW routines

   This run was terminated on:  10:26:53  20May2023

   JOB DONE.