     Program PWSCF v.7.0 starts on 20May2023 at 13:42:25

     Reading input from espresso_7415.pwi
Warning: card &CELL ignored
Warning: card / ignored

     Current dimensions of program PWSCF are:
     Max number of different atomic species (ntypx) = 10
     Max number of k-points (npk) =  40000
     Max angular momentum in pseudopotentials (lmaxx) =  4
     file Ba.pbe-spn-kjpaw_psl.1.0.0.UPF: wavefunction(s)  5S 6S renormalized
     file O.pbe-n-kjpaw_psl.0.1.UPF: wavefunction(s)  2P renormalized

     gamma-point specific algorithms are used
     Message from routine setup:
     using ibrav=0 with symmetry is DISCOURAGED, use correct ibrav instead

     Subspace diagonalization in iterative solution of the eigenvalue problem:
     a serial algorithm will be used

     Using Slab Decomposition

     bravais-lattice index     =            0
     lattice parameter (alat)  =      11.6495  a.u.
     unit-cell volume          =    1117.9224 (a.u.)^3
     number of atoms/cell      =           10
     number of atomic types    =            5
     number of electrons       =        89.00
     number of Kohn-Sham states=           54
     kinetic-energy cutoff     =      30.0000  Ry
     charge density cutoff     =     240.0000  Ry
     scf convergence threshold =      1.0E-06
     mixing beta               =       0.7000
     number of iterations used =            8  plain     mixing
     Exchange-correlation= SLA  PW   PBX  PBC
                           (   1   4   3   4   0   0   0)

     celldm(1)=  11.649543  celldm(2)=   0.000000  celldm(3)=   0.000000
     celldm(4)=   0.000000  celldm(5)=   0.000000  celldm(6)=   0.000000

     crystal axes: (cart. coord. in units of alat)
               a(1) = (   1.000000   0.000000   0.000000 )
               a(2) = (   0.500000   0.866025   0.000000 )
               a(3) = (   0.500000   0.288675   0.816497 )

     reciprocal axes: (cart. coord. in units 2 pi/alat)
               b(1) = (  1.000000 -0.577350 -0.408248 )
               b(2) = (  0.000000  1.154701 -0.408248 )
               b(3) = (  0.000000  0.000000  1.224745 )

     PseudoPot. # 1 for Ba read from file:
     /home/pragov/projects/rrg-bengioy-ad/pragov/crystal_structure_design/SSSP/Ba.pbe-spn-kjpaw_psl.1.0.0.UPF
     MD5 check sum: c432291d3e53af55f19d5e8866385beb
     Pseudo is Projector augmented-wave + core cor, Zval = 10.0
     Generated using "atomic" code by A. Dal Corso  v.5.1
     Shape of augmentation charge: PSQ
     Using radial grid of 1251 points,  7 beta functions with:
                l(1) =   0
                l(2) =   0
                l(3) =   0
                l(4) =   1
                l(5) =   1
                l(6) =   2
                l(7) =   2
     Q(r) pseudized with 0 coefficients

     PseudoPot. # 2 for Sr read from file:
     /home/pragov/projects/rrg-bengioy-ad/pragov/crystal_structure_design/SSSP/Sr_pbe_v1.uspp.F.UPF
     MD5 check sum: 6b418c05fbe9db5448babca5e47b7a5b
     Pseudo is Ultrasoft + core correction, Zval = 10.0
     Generated by new atomic code, or converted to UPF format
     Using radial grid of  883 points,  6 beta functions with:
                l(1) =   0
                l(2) =   0
                l(3) =   1
                l(4) =   1
                l(5) =   2
                l(6) =   2
     Q(r) pseudized with  6 coefficients,  rinner =    1.400   1.400   1.400
                                                       1.400   1.400

     PseudoPot. # 3 for Gd read from file:
     /home/pragov/projects/rrg-bengioy-ad/pragov/crystal_structure_design/SSSP/Gd.GGA-PBE-paw-v1.0.UPF
     MD5 check sum: 3e8e0d208da550914ae52eaf991d13de
     Pseudo is Projector augmented-wave + core cor, Zval = 18.0
     Generated using ATOMPAW code
     Shape of augmentation charge: BESSEL
     Using radial grid of 1110 points,  8 beta functions with:
                l(1) =   0
                l(2) =   0
                l(3) =   1
                l(4) =   1
                l(5) =   2
                l(6) =   2
                l(7) =   3
                l(8) =   3
     Q(r) pseudized with 0 coefficients

     PseudoPot. # 4 for Bi read from file:
     /home/pragov/projects/rrg-bengioy-ad/pragov/crystal_structure_design/SSSP/Bi_pbe_v1.uspp.F.UPF
     MD5 check sum: cceb9f28ec65b6d7ff33140f5b0b1758
     Pseudo is Ultrasoft + core correction, Zval = 15.0
     Generated by new atomic code, or converted to UPF format
     Using radial grid of  899 points,  6 beta functions with:
                l(1) =   0
                l(2) =   0
                l(3) =   1
                l(4) =   1
                l(5) =   2
                l(6) =   2
     Q(r) pseudized with  6 coefficients,  rinner =    1.000   1.000   1.000
                                                       1.000   1.000

     PseudoPot. # 5 for O  read from file:
     /home/pragov/projects/rrg-bengioy-ad/pragov/crystal_structure_design/SSSP/O.pbe-n-kjpaw_psl.0.1.UPF
     MD5 check sum: 0234752ac141de4415c5fc33072bef88
     Pseudo is Projector augmented-wave + core cor, Zval =  6.0
     Generated using "atomic" code by A. Dal Corso  v.5.0.99 svn rev. 10869
     Shape of augmentation charge: BESSEL
     Using radial grid of 1095 points,  4 beta functions with:
                l(1) =   0
                l(2) =   0
                l(3) =   1
                l(4) =   1
     Q(r) pseudized with 0 coefficients

     atomic species   valence    mass     pseudopotential
        Ba            10.00   137.32700     Ba( 1.00)
        Sr            10.00    87.62000     Sr( 1.00)
        Gd            18.00   157.25000     Gd( 1.00)
        Bi            15.00   208.98040     Bi( 1.00)
        O              6.00    15.99900     O ( 1.00)

      6 Sym. Ops. (no inversion) found

                                    s                        frac. trans.

      isym =  1     identity

 cryst.   s( 1) = (     1          0          0      )
                  (     0          1          0      )
                  (     0          0          1      )

 cart.    s( 1) = (  1.0000000  0.0000000  0.0000000 )
                  (  0.0000000  1.0000000 -0.0000000 )
                  (  0.0000000  0.0000000  1.0000000 )

      isym =  2     120 deg rotation - cryst. axis [0,0,1]

[...]

      isym =  3     120 deg rotation - cryst. axis [0,0,-1]

[...]

      isym =  4     inv. 180 deg rotation - cart. axis [1,0,0]

[...]

      isym =  5     inv. 180 deg rotation - cryst. axis [0,1,0]

[...]

      isym =  6     inv. 180 deg rotation - cryst. axis [1,1,0]

 cryst.   s( 6) = (     1         -1          0      )
                  (     0         -1          0      )
                  (     0         -1          1      )

 cart.    s( 6) = (  0.5000000 -0.8660254  0.0000000 )
                  ( -0.8660254 -0.5000000  0.0000000 )
                  (  0.0000000  0.0000000  1.0000000 )

   Cartesian axes

     site n.     atom                  positions (alat units)
         1           Ba  tau(   1) = (   0.5000000   0.2886751   0.2041241  )
         2           Sr  tau(   2) = (   1.5000000   0.8660254   0.6123724  )
         3           Gd  tau(   3) = (   1.0000000   0.5773503   0.4082483  )
         4           Bi  tau(   4) = (   0.0000000   0.0000000   0.0000000  )
         5           O   tau(   5) = (   1.0000000   0.2806138   0.1984239  )
         6           O   tau(   6) = (   1.0000000   0.8740867   0.6180727  )
         7           O   tau(   7) = (   1.2569813   0.4289820   0.6180727  )
         8           O   tau(   8) = (   0.7430187   0.7257185   0.1984239  )
         9           O   tau(   9) = (   1.2569813   0.7257185   0.1984239  )
        10           O   tau(  10) = (   0.7430187   0.4289820   0.6180727  )

   Crystallographic axes

     site n.     atom                  positions (cryst. coord.)
         1           Ba  tau(   1) = (  0.2500000  0.2500000  0.2500000  )
         2           Sr  tau(   2) = (  0.7500000  0.7500000  0.7500000  )
         3           Gd  tau(   3) = (  0.5000000  0.5000000  0.5000000  )
         4           Bi  tau(   4) = (  0.0000000  0.0000000  0.0000000  )
         5           O   tau(   5) = (  0.7569813  0.2430187  0.2430187  )
         6           O   tau(   6) = (  0.2430187  0.7569813  0.7569813  )
         7           O   tau(   7) = (  0.7569813  0.2430187  0.7569813  )
         8           O   tau(   8) = (  0.2430187  0.7569813  0.2430187  )
         9           O   tau(   9) = (  0.7569813  0.7569813  0.2430187  )
        10           O   tau(  10) = (  0.2430187  0.2430187  0.7569813  )

     number of k points=     1  Methfessel-Paxton smearing, width (Ry)=  0.0010
                       cart. coord. in units 2pi/alat
        k(    1) = (   0.0000000   0.0000000   0.0000000), wk =   2.0000000

                       cryst. coord.
        k(    1) = (   0.0000000   0.0000000   0.0000000), wk =   2.0000000

     Check: negative core charge=   -0.000011

     Initial potential from superposition of free atoms

     starting charge      87.9441, renormalised to      89.0000

     negative rho (up, down):  1.040E-01 0.000E+00
     Starting wfcs are   83 randomized atomic wfcs
     Checking if some PAW data can be deallocated...

     Self-consistent Calculation

     iteration #  1     ecut=    30.00 Ry     beta= 0.70
     Davidson diagonalization with overlap

     ethr =  1.00E-02,  avg # of iterations =  5.0

     negative rho (up, down):  1.027E-01 0.000E+00

     total energy              =   -1619.43085971 Ry
     estimated scf accuracy    <       6.74580713 Ry

[...]

     total energy              =   -1625.01692186 Ry
     estimated scf accuracy    <       0.00000284 Ry

     iteration # 54     ecut=    30.00 Ry     beta= 0.70
     Davidson diagonalization with overlap

     ethr =  3.19E-09,  avg # of iterations =  1.0

[...]

     End of self-consistent calculation

          k = 0.0000 0.0000 0.0000 (  1560 PWs)   bands (ev):

   -30.7769 -25.9542 -17.4802 -12.6222 -12.6221 -12.2176 -12.2145 -12.2145
    -9.5599  -9.5371  -9.5371  -8.1000  -7.8843  -7.8843  -7.8777  -6.0744
    -6.0743  -6.0271  -6.0103  -6.0103  -2.7051  -2.6988  -2.6988   0.6895
     6.1545   6.1616   6.1616   7.0015   7.0055   7.0056   7.5839   7.5840
     8.3212   8.3213   8.3243   8.4673   8.4790   8.4790   9.2951   9.2952
     9.2979  10.8654  10.9215  10.9215  11.1178  11.1262  11.2548  11.2760
    11.2760  13.1186  13.1186  13.7202  13.9636  13.9678

     occupation numbers
     1.0000   1.0000   1.0000   1.0000   1.0000   1.0000   1.0000   1.0000
     1.0000   1.0000   1.0000   1.0000   1.0000   1.0000   1.0000   1.0000
     1.0000   1.0000   1.0000   1.0000   1.0000   1.0000   1.0000   1.0000
     1.0000   1.0000   1.0000   1.0000   1.0000   1.0000   1.0000   1.0000
     1.0000   1.0000   1.0000   1.0000   1.0000   1.0000   1.0000   1.0000
     1.0000   1.0000   1.0000   1.0000   0.4502   0.0498  -0.0000  -0.0000
    -0.0000  -0.0000  -0.0000  -0.0000  -0.0000  -0.0000

     the Fermi energy is    11.1170 ev

!    total energy              =   -1625.01692108 Ry
     estimated scf accuracy    <       0.00000058 Ry
     smearing contrib. (-TS)   =      -0.00029595 Ry
     internal energy E=F+TS    =   -1625.01662514 Ry

     The total energy is F=E-TS. E is the sum of the following terms:
     one-electron contribution =    -251.57176024 Ry
     hartree contribution      =     187.55100684 Ry
     xc contribution           =    -171.10954219 Ry
     ewald contribution        =    -491.77532528 Ry
     one-center paw contrib.   =    -898.11100426 Ry
      -> PAW hartree energy AE =     391.45367402 Ry
      -> PAW hartree energy PS =    -381.36480072 Ry
      -> PAW xc energy AE      =    -994.04429955 Ry
      -> PAW xc energy PS      =      85.84442199 Ry
      -> total E_H with PAW    =     197.63988014 Ry
      -> total E_XC with PAW   =   -1079.30941975 Ry

     convergence has been achieved in  54 iterations

     negative rho (up, down):  1.092E-01 0.000E+00

     Forces acting on atoms (cartesian axes, Ry/au):

     atom    1 type  1   force =     0.00000000    0.00000000    0.00134365
     atom    2 type  2   force =     0.00000000    0.00000000    0.00054437
     atom    3 type  3   force =     0.00000000    0.00000000    0.00438935
     atom    4 type  4   force =     0.00000000    0.00000000    0.00685176
     atom    5 type  5   force =     0.00000000    0.00673093    0.00409205
     atom    6 type  5   force =     0.00000000   -0.00674206   -0.00846842
     atom    7 type  5   force =    -0.00583879    0.00337103   -0.00846842
     atom    8 type  5   force =     0.00582916   -0.00336547    0.00409205
     atom    9 type  5   force =    -0.00582916   -0.00336547    0.00409205
     atom   10 type  5   force =     0.00583879    0.00337103   -0.00846842
     The non-local contrib.  to forces
     atom    1 type  1   force =     0.00000000    0.00000000    0.00122781
     atom    2 type  2   force =     0.00000000    0.00000000    0.00174607
     atom    3 type  3   force =     0.00000000    0.00000000    0.02048084
     atom    4 type  4   force =     0.00000000    0.00000000    0.02380501
     atom    5 type  5   force =     0.00000000   -0.42646589   -0.28674965
     atom    6 type  5   force =     0.00000000    0.42191740    0.34247301
     atom    7 type  5   force =     0.36539118   -0.21095870    0.34247301
     atom    8 type  5   force =    -0.36933029    0.21323294   -0.28674965
     atom    9 type  5   force =     0.36933029    0.21323294   -0.28674965
     atom   10 type  5   force =    -0.36539118   -0.21095870    0.34247301
     The ionic contribution  to forces
     atom    1 type  1   force =    -0.00000000    0.00000000   -0.00000000
     atom    2 type  2   force =    -0.00000000   -0.00000000   -0.00000000
     atom    3 type  3   force =     0.00000000   -0.00000000    0.00000000
     atom    4 type  4   force =     0.00000000    0.00000000   -0.00000000
     atom    5 type  5   force =    -0.00000000    0.31244548    0.22093232
     atom    6 type  5   force =     0.00000000   -0.31244548   -0.22093232
     atom    7 type  5   force =    -0.27058573    0.15622274   -0.22093232
     atom    8 type  5   force =     0.27058573   -0.15622274    0.22093232
     atom    9 type  5   force =    -0.27058573   -0.15622274    0.22093232
     atom   10 type  5   force =     0.27058573    0.15622274   -0.22093232
     The local contribution  to forces
     atom    1 type  1   force =    -0.00020397   -0.00003403    0.00027841
     atom    2 type  2   force =    -0.00000431   -0.00000322   -0.00109228
     atom    3 type  3   force =     0.00007122    0.00003300   -0.01611414
     atom    4 type  4   force =    -0.00004343   -0.00001289   -0.01524240
     atom    5 type  5   force =     0.00000816    0.11523891    0.06620693
     atom    6 type  5   force =     0.00001783   -0.11072008   -0.12554623
     atom    7 type  5   force =    -0.09587178    0.05537340   -0.12553688
     atom    8 type  5   force =     0.09979973   -0.05761233    0.06620505
     atom    9 type  5   force =    -0.09979850   -0.05762041    0.06622949
     atom   10 type  5   force =     0.09592455    0.05537941   -0.12557283
     The core correction contribution to forces
     atom    1 type  1   force =    -0.00000226    0.00000011   -0.00015629
     atom    2 type  2   force =     0.00000007    0.00000001   -0.00010979
     atom    3 type  3   force =     0.00000000    0.00000000    0.00000109
     atom    4 type  4   force =     0.00000205    0.00000073   -0.00170184
     atom    5 type  5   force =     0.00000024    0.00498895    0.00332017
     atom    6 type  5   force =     0.00000015   -0.00495284   -0.00408770
     atom    7 type  5   force =    -0.00428912    0.00247650   -0.00408760
     atom    8 type  5   force =     0.00432058   -0.00249429    0.00332010
     atom    9 type  5   force =    -0.00432049   -0.00249448    0.00332029
     atom   10 type  5   force =     0.00428976    0.00247668   -0.00408795
     The Hubbard contrib.    to forces
     atom    1 type  1   force =     0.00000000    0.00000000    0.00000000
     atom    2 type  2   force =     0.00000000    0.00000000    0.00000000
     atom    3 type  3   force =     0.00000000    0.00000000    0.00000000
     atom    4 type  4   force =     0.00000000    0.00000000    0.00000000
     atom    5 type  5   force =     0.00000000    0.00000000    0.00000000
     atom    6 type  5   force =     0.00000000    0.00000000    0.00000000
     atom    7 type  5   force =     0.00000000    0.00000000    0.00000000
     atom    8 type  5   force =     0.00000000    0.00000000    0.00000000
     atom    9 type  5   force =     0.00000000    0.00000000    0.00000000
     atom   10 type  5   force =     0.00000000    0.00000000    0.00000000
     The SCF correction term to forces
     atom    1 type  1   force =     0.00001565    0.00000011   -0.00000400
     atom    2 type  2   force =     0.00000533    0.00000336    0.00000265
     atom    3 type  3   force =    -0.00009449   -0.00003953    0.00002383
     atom    4 type  4   force =     0.00006935    0.00002200   -0.00000675
     atom    5 type  5   force =     0.00000751    0.00052618    0.00038298
     atom    6 type  5   force =    -0.00000920   -0.00053260   -0.00037090
     atom    7 type  5   force =    -0.00046504    0.00025748   -0.00037322
     atom    8 type  5   force =     0.00045841   -0.00025771    0.00038118
     atom    9 type  5   force =    -0.00045182   -0.00026309    0.00036876
     atom   10 type  5   force =     0.00045161    0.00026158   -0.00035720

     Total force =     0.024617     Total SCF correction =     0.001586

     Computing stress (Cartesian axis) and pressure

     negative rho (up, down):  1.092E-01 0.000E+00
          total   stress  (Ry/bohr**3)                   (kbar)     P=     -189.18
  -0.00129792  -0.00000000  -0.00000000         -190.93       -0.00       -0.00
   0.00000000  -0.00129792   0.00000000            0.00     -190.93        0.00
  -0.00000000  -0.00000000  -0.00126220           -0.00       -0.00     -185.68

     kinetic stress (kbar)  15633.02      0.00      0.00
                                0.00  15633.02     -0.00
                                0.00     -0.00  15668.12

     local   stress (kbar)  -7220.77      0.00     -0.02
                                0.00  -7220.73      0.01
                               -0.02      0.01  -7216.01

     nonloc. stress (kbar)   9865.86      0.00      0.00
                                0.00   9865.86     -0.00
                                0.00     -0.00   9832.21

     hartree stress (kbar)   8226.90     -0.01      0.02
                               -0.01   8226.89     -0.00
                                0.02     -0.00   8225.66

     exc-cor stress (kbar)   4517.96      0.00      0.00
                                0.00   4517.96     -0.00
                                0.00     -0.00   4518.31

     corecor stress (kbar)  -9643.34      0.00      0.00
                                0.00  -9643.34      0.00
                                0.00      0.00  -9643.41

     ewald   stress (kbar) -21570.56      0.00      0.00
                                0.00 -21570.56     -0.00
                                0.00     -0.00 -21570.56

     hubbard stress (kbar)      0.00      0.00      0.00
                                0.00      0.00      0.00
                                0.00      0.00      0.00

     DFT-D   stress (kbar)      0.00      0.00      0.00
                                0.00      0.00      0.00
                                0.00      0.00      0.00

     XDM     stress (kbar)      0.00      0.00      0.00
                                0.00      0.00      0.00
                                0.00      0.00      0.00

     dft-nl  stress (kbar)      0.00      0.00      0.00
                                0.00      0.00      0.00
                                0.00      0.00      0.00

     TS-vdW  stress (kbar)      0.00      0.00      0.00
                                0.00      0.00      0.00
                                0.00      0.00      0.00

[...]

                                0.00      0.00      0.00

     Writing all to output data dir new_calculations/myprefix.save/

     General routines

     Parallel routines

     PAW routines

   This run was terminated on:  13:44: 0  20May2023

   JOB DONE.