     Program PWSCF v.7.0 starts on 20May2023 at 20:24:51

     Reading input from espresso_12511.pwi
Warning: card &CELL ignored
Warning: card / ignored

     Current dimensions of program PWSCF are:
     Max number of different atomic species (ntypx) = 10
     Max number of k-points (npk) =  40000
     Max angular momentum in pseudopotentials (lmaxx) =  4

     gamma-point specific algorithms are used
     Message from routine setup:
     using ibrav=0 with symmetry is DISCOURAGED, use correct ibrav instead

     Subspace diagonalization in iterative solution of the eigenvalue problem:
     a serial algorithm will be used

     Using Slab Decomposition

     bravais-lattice index     =            0
     lattice parameter (alat)  =      14.5832  a.u.
     unit-cell volume          =    2193.0310 (a.u.)^3
     number of atoms/cell      =           10
     number of atomic types    =            4
     number of electrons       =        80.00
     number of Kohn-Sham states=           48
     kinetic-energy cutoff     =      30.0000  Ry
     charge density cutoff     =     240.0000  Ry
     scf convergence threshold =      1.0E-06
     mixing beta               =       0.7000
     number of iterations used =            8  plain     mixing
     Exchange-correlation=  SLA  PW   PBX  PBC
                           (   1   4   3   4   0   0   0)

     celldm(1)=  14.583214  celldm(2)=   0.000000  celldm(3)=   0.000000
     celldm(4)=   0.000000  celldm(5)=   0.000000  celldm(6)=   0.000000

     crystal axes: (cart. coord. in units of alat)
               a(1) = (   1.000000   0.000000   0.000000 )
               a(2) = (   0.500000   0.866025   0.000000 )
               a(3) = (   0.500000   0.288675   0.816497 )

     reciprocal axes: (cart. coord. in units 2 pi/alat)
               b(1) = (  1.000000 -0.577350 -0.408248 )
               b(2) = (  0.000000  1.154701 -0.408248 )
               b(3) = (  0.000000  0.000000  1.224745 )

     PseudoPot. # 1 for Cs read from file:
     /home/pragov/projects/rrg-bengioy-ad/pragov/crystal_structure_design/SSSP/Cs_pbe_v1.uspp.F.UPF
     MD5 check sum: 3476d69cb178dfad3ffaa59df4e07ca4
     Pseudo is Ultrasoft + core correction, Zval =  9.0
     Generated by new atomic code, or converted to UPF format
     Using radial grid of  905 points,  6 beta functions with:
                l(1) =   0
                l(2) =   0
                l(3) =   1
                l(4) =   1
                l(5) =   2
                l(6) =   2
     Q(r) pseudized with  6 coefficients,  rinner =    1.500   1.500   1.500
                                                       1.500   1.500

     PseudoPot. # 2 for Na read from file:
     /home/pragov/projects/rrg-bengioy-ad/pragov/crystal_structure_design/SSSP/na_pbe_v1.5.uspp.F.UPF
     MD5 check sum: 44600605ef58000f06b90626533354dc
     Pseudo is Ultrasoft, Zval =  9.0
     Generated by new atomic code, or converted to UPF format
     Using radial grid of  819 points,  5 beta functions with:
                l(1) =   0
                l(2) =   0
                l(3) =   1
                l(4) =   1
                l(5) =   2
     Q(r) pseudized with  8 coefficients,  rinner =    1.250   1.250   1.250
                                                       1.250   1.250

     PseudoPot. # 3 for Y  read from file:
     /home/pragov/projects/rrg-bengioy-ad/pragov/crystal_structure_design/SSSP/Y_pbe_v1.uspp.F.UPF
     MD5 check sum: 2cf71db95cafeb975fc457bd7f14888e
     Pseudo is Ultrasoft + core correction, Zval = 11.0
     Generated by new atomic code, or converted to UPF format
     Using radial grid of  885 points,  6 beta functions with:
                l(1) =   0
                l(2) =   0
                l(3) =   1
                l(4) =   1
                l(5) =   2
                l(6) =   2
     Q(r) pseudized with  6 coefficients,  rinner =    1.200   1.200   1.200
                                                       1.200   1.200

     PseudoPot. # 4 for Cl read from file:
     /home/pragov/projects/rrg-bengioy-ad/pragov/crystal_structure_design/SSSP/cl_pbe_v1.4.uspp.F.UPF
     MD5 check sum: fc6f6913ecf08c9257cb748ef0700058
     Pseudo is Ultrasoft + core correction, Zval =  7.0
     Generated by new atomic code, or converted to UPF format
     Using radial grid of  909 points,  6 beta functions with:
                l(1) =   0
                l(2) =   0
                l(3) =   1
                l(4) =   1
                l(5) =   2
                l(6) =   2
     Q(r) pseudized with  8 coefficients,  rinner =    1.300   1.300   1.300
                                                       1.300   1.300

     atomic species   valence    mass     pseudopotential
        Cs             9.00   132.90545     Cs( 1.00)
        Na             9.00    22.98977     Na( 1.00)
        Y             11.00    88.90584     Y ( 1.00)
        Cl             7.00    35.45000     Cl( 1.00)

     12 Sym. Ops., with inversion, found

                                    s                        frac. trans.

      isym =  1     identity

 cryst.   s( 1) = (     1          0          0      )
                  (     0          1          0      )
                  (     0          0          1      )

 cart.    s( 1) = (  1.0000000  0.0000000  0.0000000 )
                  (  0.0000000  1.0000000  0.0000000 )
                  (  0.0000000  0.0000000  1.0000000 )

      isym =  2     180 deg rotation - cart. axis [1,0,0]

[...]

      isym =  3     120 deg rotation - cryst. axis [0,0,1]

[...]

      isym =  6     180 deg rotation - cryst. axis [1,1,0]

[...]

      isym =  7     inversion

[...]

      isym =  8     inv. 180 deg rotation - cart. axis [1,0,0]

[...]

      isym =  9     inv. 120 deg rotation - cryst. axis [0,0,1]

 cryst.   s( 9) = (     1         -1          0      )
                  (     1          0          0      )
                  (     1          0         -1      )

 cart.    s( 9) = (  0.5000000  0.8660254  0.0000000 )
                  ( -0.8660254  0.5000000  0.0000000 )
                  (  0.0000000  0.0000000 -1.0000000 )

[...]

 cryst.   s(10) = (     0          1          0      )
                  (    -1          1          0      )
                  (     0          1         -1      )

 cart.    s(10) = (  0.5000000 -0.8660254  0.0000000 )
                  (  0.8660254  0.5000000  0.0000000 )
                  (  0.0000000  0.0000000 -1.0000000 )

[...]

      isym = 12     inv. 180 deg rotation - cryst. axis [1,1,0]

 cryst.   s(12) = (     1         -1          0      )
                  (     0         -1          0      )
                  (     0         -1          1      )

 cart.    s(12) = (  0.5000000 -0.8660254  0.0000000 )
                  ( -0.8660254 -0.5000000 -0.0000000 )
                  (  0.0000000  0.0000000  1.0000000 )

   Cartesian axes

     site n.     atom                  positions (alat units)
         1           Cs  tau(   1) = (   1.5000000   0.8660254   0.6123724  )
         2           Cs  tau(   2) = (   0.5000000   0.2886751   0.2041241  )
         3           Na  tau(   3) = (   1.0000000   0.5773503   0.4082483  )
         4           Y   tau(   4) = (   0.0000000   0.0000000   0.0000000  )
         5           Cl  tau(   5) = (   1.0000000   0.2800103   0.1979972  )
         6           Cl  tau(   6) = (   0.7424960   0.4286803   0.6184994  )
         7           Cl  tau(   7) = (   1.0000000   0.8746903   0.6184994  )
         8           Cl  tau(   8) = (   0.7424960   0.7260203   0.1979972  )
         9           Cl  tau(   9) = (   1.2575040   0.4286803   0.6184994  )
        10           Cl  tau(  10) = (   1.2575040   0.7260203   0.1979972  )

   Crystallographic axes

     site n.     atom                  positions (cryst. coord.)
         1           Cs  tau(   1) = (  0.7500000  0.7500000  0.7500000  )
         2           Cs  tau(   2) = (  0.2500000  0.2500000  0.2500000  )
         3           Na  tau(   3) = (  0.5000000  0.5000000  0.5000000  )
         4           Y   tau(   4) = (  0.0000000  0.0000000  0.0000000  )
         5           Cl  tau(   5) = (  0.7575040  0.2424960  0.2424960  )
         6           Cl  tau(   6) = (  0.2424960  0.2424960  0.7575040  )
         7           Cl  tau(   7) = (  0.2424960  0.7575040  0.7575040  )
         8           Cl  tau(   8) = (  0.2424960  0.7575040  0.2424960  )
         9           Cl  tau(   9) = (  0.7575040  0.2424960  0.7575040  )
        10           Cl  tau(  10) = (  0.7575040  0.7575040  0.2424960  )

     number of k points=     1  Methfessel-Paxton smearing, width (Ry)=  0.0010
                       cart. coord. in units 2pi/alat
        k(    1) = (   0.0000000   0.0000000   0.0000000), wk =   2.0000000

                       cryst. coord.
        k(    1) = (   0.0000000   0.0000000   0.0000000), wk =   2.0000000

     Check: negative core charge=   -0.000002

     Initial potential from superposition of free atoms

     starting charge      79.9104, renormalised to      80.0000

     negative rho (up, down):  1.384E-01 0.000E+00
     Starting wfcs are   68 randomized atomic wfcs

     Self-consistent Calculation

     iteration #  1     ecut=    30.00 Ry     beta= 0.70
     Davidson diagonalization with overlap

     ethr =  1.00E-02,  avg # of iterations =  3.0

     Threshold (ethr) on eigenvalues was too large:
     Diagonalizing with lowered threshold

     Davidson diagonalization with overlap

[...]

     negative rho (up, down):  1.429E-01 0.000E+00

     total energy              =    -509.98811215 Ry
     estimated scf accuracy    <       0.41953818 Ry

[...]

     total energy              =    -510.12904193 Ry
     estimated scf accuracy    <       0.00000174 Ry

     iteration #  7     ecut=    30.00 Ry     beta= 0.70
     Davidson diagonalization with overlap

     ethr =  2.17E-09,  avg # of iterations =  7.0

[...]

     End of self-consistent calculation

          k = 0.0000 0.0000 0.0000 (  3041 PWs)   bands (ev):

   -47.5952 -38.7688 -19.5038 -19.5038 -19.5038 -18.8084 -18.8084 -18.8084
   -17.3749 -17.3663 -10.8609 -10.5386 -10.5386 -10.4749 -10.4749 -10.4749
    -4.2868  -4.2868  -4.2868  -4.2028  -4.2028  -4.2028  -0.6778   0.4522
     0.4522   0.4522   0.4643   0.4643   0.5355   0.5355   0.5355   1.4042
     1.4042   1.4043   1.6871   1.6871   1.6871   1.9150   1.9150   1.9150
     6.9111   6.9111   6.9111   7.1350   8.2015   8.2015   8.6375   8.6375

     occupation numbers
     1.0000   1.0000   1.0000   1.0000   1.0000   1.0000   1.0000   1.0000
     1.0000   1.0000   1.0000   1.0000   1.0000   1.0000   1.0000   1.0000
     1.0000   1.0000   1.0000   1.0000   1.0000   1.0000   1.0000   1.0000
     1.0000   1.0000   1.0000   1.0000   1.0000   1.0000   1.0000   1.0000
     1.0000   1.0000   1.0000   1.0000   1.0000   1.0000   1.0000   1.0000
    -0.0000  -0.0000  -0.0000  -0.0000  -0.0000  -0.0000  -0.0000  -0.0000

     the Fermi energy is     5.2420 ev

!    total energy              =    -510.12904403 Ry
     estimated scf accuracy    <       0.00000084 Ry
     smearing contrib. (-TS)   =       0.00000000 Ry
     internal energy E=F+TS    =    -510.12904403 Ry

     The total energy is F=E-TS. E is the sum of the following terms:
     one-electron contribution =    -184.22259319 Ry
     hartree contribution      =     119.34724226 Ry
     xc contribution           =    -154.04246629 Ry
     ewald contribution        =    -291.21122681 Ry

     convergence has been achieved in   7 iterations

     negative rho (up, down):  1.386E-01 0.000E+00

     Forces acting on atoms (cartesian axes, Ry/au):

     atom    1 type  1   force =     0.00000000    0.00000000    0.00000061
     atom    2 type  1   force =    -0.00000000   -0.00000000   -0.00000061
     atom    3 type  2   force =     0.00000000    0.00000000   -0.00000000
     atom    4 type  3   force =     0.00000000    0.00000000   -0.00000000
     atom    5 type  4   force =     0.00000000   -0.00766034   -0.00541636
     atom    6 type  4   force =    -0.00663405   -0.00383017    0.00541636
     atom    7 type  4   force =     0.00000000    0.00766034    0.00541636
     atom    8 type  4   force =    -0.00663405    0.00383017   -0.00541636
     atom    9 type  4   force =     0.00663405   -0.00383017    0.00541636
     atom   10 type  4   force =     0.00663405    0.00383017   -0.00541636
     The non-local contrib.  to forces
     atom    1 type  1   force =     0.00000000    0.00000000   -0.00000735
     atom    2 type  1   force =     0.00000000   -0.00000000    0.00000735
     atom    3 type  2   force =    -0.00000000   -0.00000000    0.00000000
     atom    4 type  3   force =    -0.00000000   -0.00000000   -0.00000000
     atom    5 type  4   force =     0.00000000   -0.03150491   -0.02227894
     atom    6 type  4   force =    -0.02728405   -0.01575246    0.02227894
     atom    7 type  4   force =     0.00000000    0.03150491    0.02227894
     atom    8 type  4   force =    -0.02728405    0.01575246   -0.02227894
     atom    9 type  4   force =     0.02728405   -0.01575246    0.02227894
     atom   10 type  4   force =     0.02728405    0.01575246   -0.02227894
     The ionic contribution  to forces
     atom    1 type  1   force =    -0.00000000    0.00000000    0.00000000
     atom    2 type  1   force =     0.00000000   -0.00000000   -0.00000000
     atom    3 type  2   force =     0.00000000    0.00000000   -0.00000000
     atom    4 type  3   force =     0.00000000   -0.00000000    0.00000000
     atom    5 type  4   force =     0.00000000    1.72539534    1.22003874
     atom    6 type  4   force =     1.49423619    0.86269767   -1.22003874
     atom    7 type  4   force =    -0.00000000   -1.72539534   -1.22003874
     atom    8 type  4   force =     1.49423619   -0.86269767    1.22003874
     atom    9 type  4   force =    -1.49423619    0.86269767   -1.22003874
     atom   10 type  4   force =    -1.49423619   -0.86269767    1.22003874
     The local contribution  to forces
     atom    1 type  1   force =     0.00012073    0.00010834    0.00000153
     atom    2 type  1   force =    -0.00017322    0.00011383   -0.00002067
     atom    3 type  2   force =     0.00000685   -0.00002026    0.00001609
     atom    4 type  3   force =    -0.00006314   -0.00026349    0.00026910
     atom    5 type  4   force =     0.00021932   -1.70049473   -1.20233656
     atom    6 type  4   force =    -1.47247488   -0.85018622    1.20242613
     atom    7 type  4   force =    -0.00011420    1.70046083    1.20243877
     atom    8 type  4   force =    -1.47280319    0.85034226   -1.20236336
     atom    9 type  4   force =     1.47255666   -0.85038961    1.20240500
     atom   10 type  4   force =     1.47274744    0.85017711   -1.20252356
     The core correction contribution to forces
     atom    1 type  1   force =     0.00000208    0.00000438    0.00000255
     atom    2 type  1   force =    -0.00000698    0.00000521   -0.00000048
     atom    3 type  2   force =     0.00000000    0.00000000    0.00000000
     atom    4 type  3   force =    -0.00000129   -0.00000651    0.00000746
     atom    5 type  4   force =     0.00000317   -0.00000284   -0.00000118
     atom    6 type  4   force =     0.00000093   -0.00000084    0.00000176
     atom    7 type  4   force =    -0.00000109    0.00000252    0.00000174
     atom    8 type  4   force =    -0.00000458    0.00000282   -0.00000120
     atom    9 type  4   force =     0.00000104   -0.00000302    0.00000214
     atom   10 type  4   force =     0.00000296    0.00000053   -0.00000267
     The Hubbard contrib.    to forces
     atom    1 type  1   force =     0.00000000    0.00000000    0.00000000
     atom    2 type  1   force =     0.00000000    0.00000000    0.00000000
     atom    3 type  2   force =     0.00000000    0.00000000    0.00000000
     atom    4 type  3   force =     0.00000000    0.00000000    0.00000000
     atom    5 type  4   force =     0.00000000    0.00000000    0.00000000
     atom    6 type  4   force =     0.00000000    0.00000000    0.00000000
     atom    7 type  4   force =     0.00000000    0.00000000    0.00000000
     atom    8 type  4   force =     0.00000000    0.00000000    0.00000000
     atom    9 type  4   force =     0.00000000    0.00000000    0.00000000
     atom   10 type  4   force =     0.00000000    0.00000000    0.00000000
     The SCF correction term to forces
     atom    1 type  1   force =    -0.00009899   -0.00006794    0.00001416
     atom    2 type  1   force =     0.00011004   -0.00005668    0.00002348
     atom    3 type  2   force =     0.00003882    0.00011766   -0.00005542
     atom    4 type  3   force =     0.00004995    0.00019825   -0.00019616
     atom    5 type  4   force =    -0.00015951   -0.00106068   -0.00082962
     atom    6 type  4   force =    -0.00104106   -0.00057655    0.00074146
     atom    7 type  4   force =     0.00009552    0.00109077    0.00073788
     atom    8 type  4   force =    -0.00082658    0.00045859   -0.00079539
     atom    9 type  4   force =     0.00100264   -0.00041494    0.00077712
     atom   10 type  4   force =     0.00085186    0.00058414   -0.00067138

     Total force =     0.022981     Total SCF correction =     0.003241
     SCF correction compared to forces is large: reduce conv_thr to get better values

     Computing stress (Cartesian axis) and pressure

     negative rho (up, down):  1.386E-01 0.000E+00
          total   stress  (Ry/bohr**3)                   (kbar)     P=       21.24
   0.00014435   0.00000000   0.00000000           21.24        0.00        0.00
  -0.00000000   0.00014435   0.00000000           -0.00       21.24        0.00
   0.00000000  -0.00000000   0.00014435            0.00       -0.00       21.24

     kinetic stress (kbar)   5845.40      0.00      0.00
                                0.00   5845.40     -0.00
                                0.00      0.00   5845.40

     local   stress (kbar)  -2916.00     -0.00     -0.01
                               -0.00  -2915.99     -0.00
                               -0.01     -0.00  -2915.99

     nonloc. stress (kbar)   2965.88     -0.00     -0.00
                               -0.00   2965.88     -0.00
                               -0.00     -0.00   2965.87

     hartree stress (kbar)   2668.54      0.00      0.00
                                0.00   2668.54      0.00
                                0.00      0.00   2668.54

     exc-cor stress (kbar)   3519.95      0.00      0.00
                                0.00   3519.95     -0.00
                                0.00     -0.00   3519.95

     corecor stress (kbar)  -5551.21      0.00     -0.00
                                0.00  -5551.21     -0.00
                               -0.00     -0.00  -5551.21

     ewald   stress (kbar)  -6511.33      0.00     -0.00
                                0.00  -6511.33     -0.00
                               -0.00     -0.00  -6511.33

     hubbard stress (kbar)      0.00      0.00      0.00
                                0.00      0.00      0.00
                                0.00      0.00      0.00

     DFT-D   stress (kbar)      0.00      0.00      0.00
                                0.00      0.00      0.00
                                0.00      0.00      0.00

     XDM     stress (kbar)      0.00      0.00      0.00
                                0.00      0.00      0.00
                                0.00      0.00      0.00

     dft-nl  stress (kbar)      0.00      0.00      0.00
                                0.00      0.00      0.00
                                0.00      0.00      0.00

     TS-vdW  stress (kbar)      0.00      0.00      0.00
                                0.00      0.00      0.00
                                0.00      0.00      0.00

[...]

                                0.00      0.00      0.00

     Writing all to output data dir new_calculations/myprefix.save/

     General routines

     Parallel routines

   This run was terminated on:  20:25:16  20May2023

   JOB DONE.