     Program PWSCF v.7.0 starts on 20May2023 at 10:19:21

     Reading input from espresso_18234.pwi
Warning: card &CELL ignored
Warning: card / ignored

     Current dimensions of program PWSCF are:
     Max number of different atomic species (ntypx) = 10
     Max number of k-points (npk) =  40000
     Max angular momentum in pseudopotentials (lmaxx) =  4
     file Mg.pbe-n-kjpaw_psl.0.3.0.UPF: wavefunction(s)  3S renormalized

     gamma-point specific algorithms are used
     Message from routine setup:
     using ibrav=0 with symmetry is DISCOURAGED, use correct ibrav instead

     Subspace diagonalization in iterative solution of the eigenvalue problem:
     a serial algorithm will be used

     Using Slab Decomposition

     bravais-lattice index     =            0
     lattice parameter (alat)  =       8.6035  a.u.
     unit-cell volume          =     896.8218 (a.u.)^3
     number of atoms/cell      =            4
     number of atomic types    =            3
     number of electrons       =        29.00
     number of Kohn-Sham states=           19
     kinetic-energy cutoff     =      30.0000  Ry
     charge density cutoff     =     240.0000  Ry
     scf convergence threshold =      1.0E-06
     mixing beta               =       0.7000
     number of iterations used =            8  plain     mixing
     Exchange-correlation= SLA  PW   PBE  PBE
                           (   1   4   3   4   0   0   0)

     celldm(1)=   8.603464  celldm(2)=   0.000000  celldm(3)=   0.000000
     celldm(4)=   0.000000  celldm(5)=   0.000000  celldm(6)=   0.000000

     crystal axes: (cart. coord. in units of alat)
               a(1) = (   1.000000   0.000000   0.000000 )
               a(2) = (   0.000000   1.000000   0.000000 )
               a(3) = (   0.000000   0.000000   1.408271 )

     reciprocal axes: (cart. coord. in units 2 pi/alat)
               b(1) = (  1.000000  0.000000  0.000000 )
               b(2) = (  0.000000  1.000000  0.000000 )
               b(3) = (  0.000000  0.000000  0.710091 )

     PseudoPot. # 1 for Mg read from file:
     /home/pragov/projects/rrg-bengioy-ad/pragov/crystal_structure_design/SSSP/Mg.pbe-n-kjpaw_psl.0.3.0.UPF
     MD5 check sum: 24ecedc7f3e3cbe212e682f4413594e4
     Pseudo is Projector augmented-wave + core cor, Zval =  2.0
     Generated using "atomic" code by A. Dal Corso  v.5.0.99 svn rev. 10869
     Shape of augmentation charge: PSQ
     Using radial grid of 1129 points,  4 beta functions with:
                l(1) =   0
                l(2) =   0
                l(3) =   1
                l(4) =   1
     Q(r) pseudized with 0 coefficients

     PseudoPot. # 2 for Mn read from file:
     /home/pragov/projects/rrg-bengioy-ad/pragov/crystal_structure_design/SSSP/mn_pbe_v1.5.uspp.F.UPF
     MD5 check sum: 82ef2b46521d7a7d9e736dc3972e4928
     Pseudo is Ultrasoft + core correction, Zval = 15.0
     Generated by new atomic code, or converted to UPF format
     Using radial grid of  859 points,  6 beta functions with:
                l(1) =   0
                l(2) =   0
                l(3) =   1
                l(4) =   1
                l(5) =   2
                l(6) =   2
     Q(r) pseudized with  8 coefficients,  rinner =    0.950   0.950   0.950
                                                       0.950   0.950

     PseudoPot. # 3 for Te read from file:
     /home/pragov/projects/rrg-bengioy-ad/pragov/crystal_structure_design/SSSP/Te_pbe_v1.uspp.F.UPF
     MD5 check sum: c319670d6894cc26e93307826a071b75
     Pseudo is Ultrasoft + core correction, Zval =  6.0
     Generated by new atomic code, or converted to UPF format
     Using radial grid of  891 points,  5 beta functions with:
                l(1) =   0
                l(2) =   0
                l(3) =   1
                l(4) =   1
                l(5) =   2
     Q(r) pseudized with  6 coefficients,  rinner =    1.800   1.800   1.800
                                                       1.800   1.800

     atomic species   valence    mass     pseudopotential
        Mg             2.00    24.30500     Mg( 1.00)
        Mn            15.00    54.93804     Mn( 1.00)
        Te             6.00   127.60000     Te( 1.00)

      8 Sym. Ops. (no inversion) found

                                    s                        frac. trans.

      isym =  1     identity

 cryst.   s( 1) = (     1          0          0      )
                  (     0          1          0      )
                  (     0          0          1      )

 cart.    s( 1) = (  1.0000000  0.0000000  0.0000000 )
                  (  0.0000000  1.0000000  0.0000000 )
                  (  0.0000000  0.0000000  1.0000000 )

      isym =  2     180 deg rotation - cart. axis [0,0,1]

[...]

      isym =  4     180 deg rotation - cart. axis [1,-1,0]

[...]

      isym =  5     inv. 180 deg rotation - cart. axis [0,1,0]

[...]

      isym =  8     inv.  90 deg rotation - cart. axis [0,0,1]

 cryst.   s( 8) = (     0         -1          0      )
                  (     1          0          0      )
                  (     0          0         -1      )

 cart.    s( 8) = (  0.0000000  1.0000000  0.0000000 )
                  ( -1.0000000  0.0000000  0.0000000 )
                  (  0.0000000  0.0000000 -1.0000000 )

   Cartesian axes

     site n.     atom                  positions (alat units)
         1           Mg  tau(   1) = (   0.0000000   0.0000000   0.0000000  )
         2           Mn  tau(   2) = (   0.5000000   0.5000000   0.7041353  )
         3           Te  tau(   3) = (   0.0000000   0.5000000   0.3648069  )
         4           Te  tau(   4) = (   0.5000000   0.0000000   1.0434638  )

   Crystallographic axes

     site n.     atom                  positions (cryst. coord.)
         1           Mg  tau(   1) = (  0.0000000  0.0000000  0.0000000  )
         2           Mn  tau(   2) = (  0.5000000  0.5000000  0.5000000  )
         3           Te  tau(   3) = (  0.0000000  0.5000000  0.2590460  )
         4           Te  tau(   4) = (  0.5000000  0.0000000  0.7409540  )

     number of k points=     1  Methfessel-Paxton smearing, width (Ry)=  0.0010
                       cart. coord. in units 2pi/alat
        k(    1) = (   0.0000000   0.0000000   0.0000000), wk =   2.0000000

                       cryst. coord.
        k(    1) = (   0.0000000   0.0000000   0.0000000), wk =   2.0000000

     Check: negative core charge=   -0.000006

     Initial potential from superposition of free atoms

     starting charge      28.4986, renormalised to      29.0000
     Starting wfcs are   25 randomized atomic wfcs
     Checking if some PAW data can be deallocated...

     Self-consistent Calculation

     iteration #  1     ecut=    30.00 Ry     beta= 0.70
     Davidson diagonalization with overlap

     ethr =  1.00E-02,  avg # of iterations =  2.0

     total energy              =    -297.32569086 Ry
     estimated scf accuracy    <       0.32140164 Ry

[...]

     total energy              =    -297.44146132 Ry
     estimated scf accuracy    <       0.00000157 Ry

     iteration # 13     ecut=    30.00 Ry     beta= 0.70
     Davidson diagonalization with overlap

     ethr =  5.42E-09,  avg # of iterations =  1.0

     End of self-consistent calculation

          k = 0.0000 0.0000 0.0000 (  1239 PWs)   bands (ev):

   -73.8748 -43.0448 -42.4390 -42.4390  -6.9757  -6.1994   0.2320   2.0010
     2.0011   2.5820   2.5855   2.5855   4.2599   4.7888   5.3493   5.6936
     5.6936   5.9040   7.1682

     occupation numbers
     1.0000   1.0000   1.0000   1.0000   1.0000   1.0000   1.0000   1.0000
     1.0000   1.0000   1.0000   1.0000   1.0000   1.0000   0.5000  -0.0000
    -0.0000  -0.0000  -0.0000

     the Fermi energy is     5.3493 ev

!    total energy              =    -297.44146097 Ry
     estimated scf accuracy    <       0.00000049 Ry
     smearing contrib. (-TS)   =      -0.00028209 Ry
     internal energy E=F+TS    =    -297.44117887 Ry

     The total energy is F=E-TS. E is the sum of the following terms:
     one-electron contribution =    -213.53772753 Ry
     hartree contribution      =     114.11028839 Ry
     xc contribution           =     -56.95621204 Ry
     ewald contribution        =    -109.78486704 Ry
     one-center paw contrib.   =     -31.27266065 Ry
      -> PAW hartree energy AE =       0.53623431 Ry
      -> PAW hartree energy PS =      -0.53491469 Ry
      -> PAW xc energy AE      =     -32.44722222 Ry
      -> PAW xc energy PS      =       1.17324195 Ry
      -> total E_H with PAW    =     114.11160800 Ry
      -> total E_XC with PAW   =     -88.23019231 Ry

     convergence has been achieved in  13 iterations

     Forces acting on atoms (cartesian axes, Ry/au):

     atom    1 type  1   force =     0.00000000    0.00000000    0.00000000
     atom    2 type  2   force =     0.00000000    0.00000000    0.00000000
     atom    3 type  3   force =     0.00000000    0.00000000    0.03998063
     atom    4 type  3   force =     0.00000000    0.00000000   -0.03998063
     The non-local contrib.  to forces
     atom    1 type  1   force =     0.00000000    0.00000000    0.00000000
     atom    2 type  2   force =     0.00000000    0.00000000    0.00000000
     atom    3 type  3   force =     0.00000000    0.00000000   -0.02922487
     atom    4 type  3   force =     0.00000000    0.00000000    0.02922487
     The ionic contribution  to forces
     atom    1 type  1   force =    -0.00000000   -0.00000000   -0.00000000
     atom    2 type  2   force =    -0.00000000   -0.00000000    0.00000000
     atom    3 type  3   force =    -0.00000000   -0.00000000   -5.19761239
     atom    4 type  3   force =     0.00000000    0.00000000    5.19761239
     The local contribution  to forces
     atom    1 type  1   force =     0.00000030   -0.00000367   -0.00000885
     atom    2 type  2   force =    -0.00001372   -0.00004656    0.00016739
     atom    3 type  3   force =    -0.00002391   -0.00001138    5.26846059
     atom    4 type  3   force =    -0.00000868   -0.00000533   -5.26850996
     The core correction contribution to forces
     atom    1 type  1   force =     0.00000002   -0.00000025   -0.00000037
     atom    2 type  2   force =     0.00000116   -0.00000178    0.00000114
     atom    3 type  3   force =     0.00000303    0.00000240   -0.00162456
     atom    4 type  3   force =     0.00000103    0.00000066    0.00162958
     The Hubbard contrib.    to forces
     atom    1 type  1   force =     0.00000000    0.00000000    0.00000000
     atom    2 type  2   force =     0.00000000    0.00000000    0.00000000
     atom    3 type  3   force =     0.00000000    0.00000000    0.00000000
     atom    4 type  3   force =     0.00000000    0.00000000    0.00000000
     The SCF correction term to forces
     atom    1 type  1   force =    -0.00000049    0.00000165    0.00000544
     atom    2 type  2   force =     0.00002158    0.00001868   -0.00019478
     atom    3 type  3   force =    -0.00001181   -0.00001217   -0.00003980
     atom    4 type  3   force =     0.00000000   -0.00000055    0.00004082

     Total force =     0.056541     Total SCF correction =     0.000206

     Computing stress (Cartesian axis) and pressure

          total   stress  (Ry/bohr**3)                   (kbar)     P=      -54.00
  -0.00023166   0.00000000   0.00000000          -34.08        0.00        0.00
  -0.00000000  -0.00023166   0.00000000           -0.00      -34.08        0.00
   0.00000000   0.00000000  -0.00063786            0.00        0.00      -93.83

     kinetic stress (kbar)   5825.06     -0.00      0.00
                               -0.00   5825.06      0.00
                                0.00      0.00   5695.54

     local   stress (kbar)  -6508.51      0.01     -0.00
                                0.01  -6508.47      0.00
                               -0.00      0.00   1137.02

     nonloc. stress (kbar)      4.63      0.00      0.00
                                0.00      4.63      0.00
                                0.00      0.00   -135.28

     hartree stress (kbar)   7449.72     -0.00      0.00
                               -0.00   7449.69     -0.00
                                0.00     -0.00   3818.02

     exc-cor stress (kbar)   2235.66     -0.00     -0.00
                               -0.00   2235.66     -0.00
                               -0.00     -0.00   2234.67

     corecor stress (kbar)  -4309.98     -0.00     -0.00
                               -0.00  -4309.98     -0.00
                               -0.00     -0.00  -4297.21

     ewald   stress (kbar)  -4730.67     -0.00     -0.00
                               -0.00  -4730.67      0.00
                               -0.00      0.00  -8546.60

     hubbard stress (kbar)      0.00      0.00      0.00
                                0.00      0.00      0.00
                                0.00      0.00      0.00

     DFT-D   stress (kbar)      0.00      0.00      0.00
                                0.00      0.00      0.00
                                0.00      0.00      0.00

     XDM     stress (kbar)      0.00      0.00      0.00
                                0.00      0.00      0.00
                                0.00      0.00      0.00

     dft-nl  stress (kbar)      0.00      0.00      0.00
                                0.00      0.00      0.00
                                0.00      0.00      0.00

     TS-vdW  stress (kbar)      0.00      0.00      0.00
                                0.00      0.00      0.00
                                0.00      0.00      0.00

[...]

                                0.00      0.00      0.00

     Writing all to output data dir new_calculations/myprefix.save/

     General routines

     Parallel routines

     PAW routines

   This run was terminated on:  10:19:38  20May2023

   JOB DONE.