     Program PWSCF v.7.0 starts on 20May2023 at 23:58:49

     Reading input from espresso_18668.pwi
Warning: card &CELL ignored
Warning: card / ignored

     Current dimensions of program PWSCF are:
     Max number of different atomic species (ntypx) = 10
     Max number of k-points (npk) =  40000
     Max angular momentum in pseudopotentials (lmaxx) =  4
     file In.pbe-dn-rrkjus_psl.0.2.2.UPF: wavefunction(s)  5S renormalized

     gamma-point specific algorithms are used

     Subspace diagonalization in iterative solution of the eigenvalue problem:
     a serial algorithm will be used

     Using Slab Decomposition

     bravais-lattice index     =            0
     lattice parameter (alat)  =      14.5451  a.u.
     unit-cell volume          =    2176.6190 (a.u.)^3
     number of atoms/cell      =           10
     number of atomic types    =            3
     number of electrons       =        86.00
     number of Kohn-Sham states=           52
     kinetic-energy cutoff     =      30.0000  Ry
     charge density cutoff     =     240.0000  Ry
     scf convergence threshold =      1.0E-06
     mixing beta               =       0.7000
     number of iterations used =            8  plain     mixing
     Exchange-correlation=  SLA  PW   PBX  PBC
                           (   1   4   3   4   0   0   0)

     celldm(1)=  14.545150  celldm(2)=   0.000000  celldm(3)=   0.000000
     celldm(4)=   0.000000  celldm(5)=   0.000000  celldm(6)=   0.000000

     crystal axes: (cart. coord. in units of alat)
               a(1) = (   1.000000   0.000000   0.000000 )
               a(2) = (   0.499781   0.866152   0.000000 )
               a(3) = (   0.499781   0.288633   0.816646 )

     reciprocal axes: (cart. coord. in units 2 pi/alat)
               b(1) = (  1.000000 -0.577013 -0.408054 )
               b(2) = (  0.000000  1.154532 -0.408054 )
               b(3) = (  0.000000  0.000000  1.224521 )

     PseudoPot. # 1 for Rb read from file:
     /home/pragov/projects/rrg-bengioy-ad/pragov/crystal_structure_design/SSSP/Rb_ONCV_PBE-1.0.oncvpsp.upf
     MD5 check sum: 55a5172d6bfbce6759a58e35d43f6aa9
     Pseudo is Norm-conserving, Zval =  9.0
     Generated using ONCVPSP code by D. R. Hamann
     Using radial grid of 2308 points,  6 beta functions with:
                l(1) =   0
                l(2) =   0
                l(3) =   1
                l(4) =   1
                l(5) =   2
                l(6) =   2

     PseudoPot. # 2 for In read from file:
     /home/pragov/projects/rrg-bengioy-ad/pragov/crystal_structure_design/SSSP/In.pbe-dn-rrkjus_psl.0.2.2.UPF
     MD5 check sum: 25e7c42c3b55b68f4bf926be2e7201a4
     Pseudo is Ultrasoft + core correction, Zval = 13.0
     Generated using "atomic" code by A. Dal Corso  v.5.0.99 svn rev. 10869
     Using radial grid of 1241 points,  6 beta functions with:
                l(1) =   0
                l(2) =   0
                l(3) =   1
                l(4) =   1
                l(5) =   2
                l(6) =   2
     Q(r) pseudized with 0 coefficients

     PseudoPot. # 3 for Cl read from file:
     /home/pragov/projects/rrg-bengioy-ad/pragov/crystal_structure_design/SSSP/cl_pbe_v1.4.uspp.F.UPF
     MD5 check sum: fc6f6913ecf08c9257cb748ef0700058
     Pseudo is Ultrasoft + core correction, Zval =  7.0
     Generated by new atomic code, or converted to UPF format
     Using radial grid of  909 points,  6 beta functions with:
                l(1) =   0
                l(2) =   0
                l(3) =   1
                l(4) =   1
                l(5) =   2
                l(6) =   2
     Q(r) pseudized with  8 coefficients,  rinner =    1.300   1.300   1.300
                                                       1.300   1.300

     atomic species   valence    mass     pseudopotential
        Rb             9.00    85.46780     Rb( 1.00)
        In            13.00   114.81800     In( 1.00)
        Cl             7.00    35.45000     Cl( 1.00)

     No symmetry found

                                    s                        frac. trans.

      isym =  1     identity

 cryst.   s( 1) = (     1          0          0      )
                  (     0          1          0      )
                  (     0          0          1      )

 cart.    s( 1) = (  1.0000000  0.0000000 -0.0000000 )
                  (  0.0000000  1.0000000 -0.0000000 )
                  (  0.0000000  0.0000000  1.0000000 )

   Cartesian axes

     site n.     atom                  positions (alat units)
         1           Rb  tau(   1) = (   1.4644647   0.8457564   0.5981056  )
         2           Rb  tau(   2) = (   0.4646840   0.2683639   0.1897828  )
         3           In  tau(   3) = (   1.9904293   1.1495110   0.8129161  )
         4           In  tau(   4) = (   0.9906486   0.5721185   0.4045932  )
         5           Cl  tau(   5) = (   0.9968057   0.2537646   0.2456176  )
         6           Cl  tau(   6) = (   0.7179830   0.4770267   0.6126109  )
         7           Cl  tau(   7) = (   0.7720117   0.7053834   0.1574117  )
         8           Cl  tau(   8) = (   1.2720117   0.6722332   0.2042880  )
         9           Cl  tau(   9) = (   0.9965864   0.8935349   0.5657346  )
        10           Cl  tau(  10) = (   1.2179830   0.4477991   0.6539405  )

   Crystallographic axes

     site n.     atom                  positions (cryst. coord.)
         1           Rb  tau(   1) = (  0.7323930  0.7323930  0.7323930  )
         2           Rb  tau(   2) = (  0.2323930  0.2323930  0.2323930  )
         3           In  tau(   3) = (  0.9954330  0.9954330  0.9954330  )
         4           In  tau(   4) = (  0.4954330  0.4954330  0.4954330  )
         5           Cl  tau(   5) = (  0.7501550  0.1927540  0.3007640  )
         6           Cl  tau(   6) = (  0.1927540  0.3007640  0.7501550  )
         7           Cl  tau(   7) = (  0.3007640  0.7501550  0.1927540  )
         8           Cl  tau(   8) = (  0.8007640  0.6927540  0.2501550  )
         9           Cl  tau(   9) = (  0.2501550  0.8007640  0.6927540  )
        10           Cl  tau(  10) = (  0.6927540  0.2501550  0.8007640  )

     number of k points=     1  Methfessel-Paxton smearing, width (Ry)=  0.0010
                       cart. coord. in units 2pi/alat
        k(    1) = (   0.0000000   0.0000000   0.0000000), wk =   2.0000000

                       cryst. coord.
        k(    1) = (   0.0000000   0.0000000   0.0000000), wk =   2.0000000

     Initial potential from superposition of free atoms

     starting charge      85.9430, renormalised to      86.0000

     negative rho (up, down):  8.962E-02 0.000E+00
     Starting wfcs are   52 randomized atomic wfcs

     Self-consistent Calculation

     iteration #  1     ecut=    30.00 Ry     beta= 0.70
     Davidson diagonalization with overlap

     ethr =  1.00E-02,  avg # of iterations =  3.0

     Threshold (ethr) on eigenvalues was too large:
     Diagonalizing with lowered threshold

     Davidson diagonalization with overlap

[...]

     negative rho (up, down):  9.310E-02 0.000E+00

     total energy              =    -588.13952934 Ry
     estimated scf accuracy    <       0.42302702 Ry

[...]

     total energy              =    -588.29522004 Ry
     estimated scf accuracy    <       0.00000185 Ry

     iteration #  8     ecut=    30.00 Ry     beta= 0.70
     Davidson diagonalization with overlap

     ethr =  2.15E-09,  avg # of iterations =  2.0

[...]

     End of self-consistent calculation

          k = 0.0000 0.0000 0.0000 (  2993 PWs)   bands (ev):

   -22.9073 -22.9057 -11.4646 -11.4644 -11.3813 -11.0280 -11.0277 -11.0080
   -10.6677 -10.6677 -10.5840 -10.5840 -10.5836 -10.5801 -10.5789 -10.5789
    -9.9478  -9.9477  -7.0173  -7.0018  -7.0018  -6.9989  -6.9784  -6.9784
    -3.2268  -0.8132  -0.8130  -0.7400   0.3699   0.3776   0.3777   0.5698
     0.9639   1.0141   1.0143   1.1184   1.1185   1.2026   1.2026   1.2653
     1.5088   1.5090   1.9940   6.3452   6.8575   6.8667   6.8667   7.0986
     8.6705   8.8424   8.8425   9.6037

     occupation numbers
     1.0000   1.0000   1.0000   1.0000   1.0000   1.0000   1.0000   1.0000
     1.0000   1.0000   1.0000   1.0000   1.0000   1.0000   1.0000   1.0000
     1.0000   1.0000   1.0000   1.0000   1.0000   1.0000   1.0000   1.0000
     1.0000   1.0000   1.0000   1.0000   1.0000   1.0000   1.0000   1.0000
     1.0000   1.0000   1.0000   1.0000   1.0000   1.0000   1.0000   1.0000
     1.0000   1.0000   1.0000  -0.0000  -0.0000  -0.0000  -0.0000  -0.0000
    -0.0000  -0.0000  -0.0000  -0.0000

     the Fermi energy is     5.6419 ev

!    total energy              =    -588.29522029 Ry
     estimated scf accuracy    <       0.00000016 Ry
     smearing contrib. (-TS)   =       0.00000000 Ry
     internal energy E=F+TS    =    -588.29522029 Ry

     The total energy is F=E-TS. E is the sum of the following terms:
     one-electron contribution =    -236.22239540 Ry
     hartree contribution      =     158.61256070 Ry
     xc contribution           =    -167.12372482 Ry
     ewald contribution        =    -343.56166077 Ry

     convergence has been achieved in   8 iterations

     negative rho (up, down):  8.929E-02 0.000E+00

     Forces acting on atoms (cartesian axes, Ry/au):

     atom    1 type  1   force =    -0.00338254   -0.00193255   -0.00136900
     atom    2 type  1   force =    -0.00338035   -0.00194318   -0.00137516
     atom    3 type  2   force =    -0.00023687   -0.00028659   -0.00023086
     atom    4 type  2   force =    -0.00036470   -0.00015033   -0.00008432
     atom    5 type  3   force =     0.00077854   -0.00282192    0.00660372
     atom    6 type  3   force =    -0.00206062    0.00694708   -0.00023326
     atom    7 type  3   force =     0.00497821   -0.00196287   -0.00484249
     atom    8 type  3   force =     0.00495021   -0.00523418   -0.00020740
     atom    9 type  3   force =     0.00077598    0.00528949   -0.00487041
     atom   10 type  3   force =    -0.00205785    0.00209505    0.00660917
     The non-local contrib.  to forces
     atom    1 type  1   force =     0.01283641    0.00740591    0.00523794
     atom    2 type  1   force =     0.01283272    0.00741675    0.00523813
     atom    3 type  2   force =    -0.00614154   -0.00362689   -0.00257616
     atom    4 type  2   force =    -0.00617075   -0.00355366   -0.00249920
     atom    5 type  3   force =     0.00349639    0.00281891    0.01339494
     atom    6 type  3   force =     0.00419885    0.01312103   -0.00291783
     atom    7 type  3   force =     0.01346351   -0.00373295   -0.00183906
     atom    8 type  3   force =     0.01350007   -0.00295438   -0.00294247
     atom    9 type  3   force =     0.00352148    0.01355946   -0.00181844
     atom   10 type  3   force =     0.00414471    0.00161707    0.01336753
     The ionic contribution  to forces
     atom    1 type  1   force =     0.95612179    0.55217846    0.39049212
     atom    2 type  1   force =     0.95612164    0.55217871    0.39049212
     atom    3 type  2   force =    -0.43857628   -0.25328617   -0.17912008
     atom    4 type  2   force =    -0.43857625   -0.25328620   -0.17912008
     atom    5 type  3   force =    -0.30619430   -0.49793688    0.82008564
     atom    6 type  3   force =    -0.58431944    0.76776329   -0.28869882
     atom    7 type  3   force =     0.37296794   -0.56871822   -0.74275885
     atom    8 type  3   force =     0.37296818   -0.88982269   -0.28869882
     atom    9 type  3   force =    -0.30619427    0.60728129   -0.74275885
     atom   10 type  3   force =    -0.58431901   -0.01635160    0.82008564
     The local contribution  to forces
     atom    1 type  1   force =    -0.97224224   -0.56160642   -0.39710662
     atom    2 type  1   force =    -0.97229293   -0.56149511   -0.39710900
     atom    3 type  2   force =     0.44506438    0.25736086    0.18202895
     atom    4 type  2   force =     0.44537730    0.25710186    0.18173458
     atom    5 type  3   force =     0.30353602    0.49207522   -0.82660487
     atom    6 type  3   force =     0.57786081   -0.77348209    0.29139505
     atom    7 type  3   force =    -0.38116026    0.57037033    0.73953491
     atom    8 type  3   force =    -0.38092401    0.88742673    0.29120149
     atom    9 type  3   force =     0.30347201   -0.61493799    0.73966606
     atom   10 type  3   force =     0.57840497    0.01678673   -0.82619628
     The core correction contribution to forces
     atom    1 type  1   force =     0.00000000    0.00000000    0.00000000
     atom    2 type  1   force =     0.00000000    0.00000000    0.00000000
     atom    3 type  2   force =    -0.00080888   -0.00046238   -0.00032676
     atom    4 type  2   force =    -0.00080511   -0.00046420   -0.00033047
     atom    5 type  3   force =    -0.00006431   -0.00001411   -0.00053096
     atom    6 type  3   force =    -0.00004498   -0.00051376    0.00013011
     atom    7 type  3   force =    -0.00046748    0.00019567    0.00016553
     atom    8 type  3   force =    -0.00046904    0.00022018    0.00013102
     atom    9 type  3   force =    -0.00006591   -0.00050439    0.00016495
     atom   10 type  3   force =    -0.00004104   -0.00004833   -0.00052857
     The Hubbard contrib.    to forces
     atom    1 type  1   force =     0.00000000    0.00000000    0.00000000
     atom    2 type  1   force =     0.00000000    0.00000000    0.00000000
     atom    3 type  2   force =     0.00000000    0.00000000    0.00000000
     atom    4 type  2   force =     0.00000000    0.00000000    0.00000000
     atom    5 type  3   force =     0.00000000    0.00000000    0.00000000
     atom    6 type  3   force =     0.00000000    0.00000000    0.00000000
     atom    7 type  3   force =     0.00000000    0.00000000    0.00000000
     atom    8 type  3   force =     0.00000000    0.00000000    0.00000000
     atom    9 type  3   force =     0.00000000    0.00000000    0.00000000
     atom   10 type  3   force =     0.00000000    0.00000000    0.00000000
     The SCF correction term to forces
     atom    1 type  1   force =    -0.00010529    0.00007249   -0.00000132
     atom    2 type  1   force =    -0.00004858   -0.00006056   -0.00000528
     atom    3 type  2   force =     0.00021864   -0.00028903   -0.00024569
     atom    4 type  2   force =    -0.00019668    0.00003485    0.00012197
     atom    5 type  3   force =    -0.00000205    0.00021791    0.00025010
     atom    6 type  3   force =     0.00023734    0.00004158   -0.00015065
     atom    7 type  3   force =     0.00016769   -0.00009472    0.00004610
     atom    8 type  3   force =    -0.00013179   -0.00012105    0.00009250
     atom    9 type  3   force =     0.00003588   -0.00012590   -0.00013300
     atom   10 type  3   force =    -0.00025428    0.00007415   -0.00012802

     Total force =     0.018651     Total SCF correction =     0.000813

     Computing stress (Cartesian axis) and pressure

     negative rho (up, down):  8.929E-02 0.000E+00
          total   stress  (Ry/bohr**3)                   (kbar)     P=        7.18
   0.00005827   0.00001094   0.00000774            8.57        1.61        1.14
   0.00001094   0.00004565   0.00000448            1.61        6.72        0.66
   0.00000774   0.00000448   0.00004249            1.14        0.66        6.25

     kinetic stress (kbar)   6910.74      3.99      2.81
                                3.99   6906.14      1.63
                                2.81      1.63   6904.99

     local   stress (kbar)  -3655.90    190.42    134.68
                              190.42  -3875.63     77.79
                              134.68     77.79  -3930.62

     nonloc. stress (kbar)   3366.48      0.75      0.53
                                0.75   3365.61      0.31
                                0.53      0.31   3365.39

     hartree stress (kbar)   3510.63    -72.33    -51.17
                              -72.33   3594.09    -29.55
                              -51.17    -29.55   3614.98

     exc-cor stress (kbar)   3200.90     -0.27     -0.19
                               -0.27   3201.21     -0.11
                               -0.19     -0.11   3201.29

     corecor stress (kbar)  -5479.87     -0.08     -0.06
                               -0.08  -5479.78     -0.03
                               -0.06     -0.03  -5479.76

     ewald   stress (kbar)  -7844.40   -120.86    -85.47
                             -120.86  -7704.92    -49.36
                              -85.47    -49.36  -7670.03

     hubbard stress (kbar)      0.00      0.00      0.00
                                0.00      0.00      0.00
                                0.00      0.00      0.00

     DFT-D   stress (kbar)      0.00      0.00      0.00
                                0.00      0.00      0.00
                                0.00      0.00      0.00

     XDM     stress (kbar)      0.00      0.00      0.00
                                0.00      0.00      0.00
                                0.00      0.00      0.00

     dft-nl  stress (kbar)      0.00      0.00      0.00
                                0.00      0.00      0.00
                                0.00      0.00      0.00

     TS-vdW  stress (kbar)      0.00      0.00      0.00
                                0.00      0.00      0.00
                                0.00      0.00      0.00

[...]

                                0.00      0.00      0.00

     Writing all to output data dir new_calculations/myprefix.save/

     General routines

     Parallel routines

   This run was terminated on:  23:59:29  20May2023

   JOB DONE.