     Program PWSCF v.7.0 starts on 21May2023 at 17:51:50

     Reading input from espresso_23820.pwi
Warning: card &CELL ignored
Warning: card / ignored

     Current dimensions of program PWSCF are:
     Max number of different atomic species (ntypx) = 10
     Max number of k-points (npk) =  40000
     Max angular momentum in pseudopotentials (lmaxx) =  4

     gamma-point specific algorithms are used
     Message from routine setup:
     using ibrav=0 with symmetry is DISCOURAGED, use correct ibrav instead

     Subspace diagonalization in iterative solution of the eigenvalue problem:
     a serial algorithm will be used

     Using Slab Decomposition

     bravais-lattice index     =            0
     lattice parameter (alat)  =      11.5775  a.u.
     unit-cell volume          =     808.6009 (a.u.)^3
     number of atoms/cell      =           10
     number of atomic types    =            3
     number of electrons       =        94.00
     number of Kohn-Sham states=           56
     kinetic-energy cutoff     =      30.0000  Ry
     charge density cutoff     =     240.0000  Ry
     scf convergence threshold =      1.0E-06
     mixing beta               =       0.7000
     number of iterations used =            8  plain     mixing
     Exchange-correlation= PBE
                           (   1   4   3   4   0   0   0)

     celldm(1)=  11.577469  celldm(2)=   0.000000  celldm(3)=   0.000000
     celldm(4)=   0.000000  celldm(5)=   0.000000  celldm(6)=   0.000000

     crystal axes: (cart. coord. in units of alat)
               a(1) = (   1.000000   0.000000   0.000000 )
               a(2) = (   0.000000   1.000000   0.000000 )
               a(3) = (   0.000000   0.000000   0.521067 )

     reciprocal axes: (cart. coord. in units 2 pi/alat)
               b(1) = (  1.000000  0.000000  0.000000 )
               b(2) = (  0.000000  1.000000  0.000000 )
               b(3) = (  0.000000  0.000000  1.919140 )

     PseudoPot. # 1 for Ta read from file:
     /home/pragov/projects/rrg-bengioy-ad/pragov/crystal_structure_design/SSSP/Ta_pbe_v1.uspp.F.UPF
     MD5 check sum: f8bbe9446314a3b8ea5d9f3e3836c939
     Pseudo is Ultrasoft + core correction, Zval = 13.0
     Generated by new atomic code, or converted to UPF format
     Using radial grid of  921 points,  7 beta functions with:
                l(1) =   0
                l(2) =   0
                l(3) =   1
                l(4) =   1
                l(5) =   2
                l(6) =   2
                l(7) =   3
     Q(r) pseudized with  6 coefficients,  rinner =    1.300   1.300   1.300
                                                       1.300   1.300   1.300
                                                       1.300

     PseudoPot. # 2 for B  read from file:
     /home/pragov/projects/rrg-bengioy-ad/pragov/crystal_structure_design/SSSP/b_pbe_v1.4.uspp.F.UPF
     MD5 check sum: cc6de2960df11db49a60e589f9ebb39b
     Pseudo is Ultrasoft + core correction, Zval =  3.0
     Generated by new atomic code, or converted to UPF format
     Using radial grid of  781 points,  4 beta functions with:
                l(1) =   0
                l(2) =   0
                l(3) =   1
                l(4) =   1
     Q(r) pseudized with  8 coefficients,  rinner =    1.100   1.100   1.100

     PseudoPot. # 3 for Mo read from file:
     /home/pragov/projects/rrg-bengioy-ad/pragov/crystal_structure_design/SSSP/Mo_ONCV_PBE-1.0.oncvpsp.upf
     MD5 check sum: 1b5d28e075c9ccadda658a603575cd1f
     Pseudo is Norm-conserving, Zval = 14.0
     Generated using ONCVPSP code by D. R. Hamann
     Using radial grid of 1526 points,  6 beta functions with:
                l(1) =   0
                l(2) =   0
                l(3) =   1
                l(4) =   1
                l(5) =   2
                l(6) =   2

     atomic species   valence    mass     pseudopotential
        Ta            13.00   180.94788     Ta( 1.00)
        B              3.00    10.81000     B ( 1.00)
        Mo            14.00    95.95000     Mo( 1.00)

     16 Sym. Ops., with inversion, found ( 8 have fractional translation)

                                    s                        frac. trans.

      isym =  1     identity

 cryst.   s( 1) = (     1          0          0      )
                  (     0          1          0      )
                  (     0          0          1      )

 cart.    s( 1) = (  1.0000000  0.0000000  0.0000000 )
                  (  0.0000000  1.0000000  0.0000000 )
                  (  0.0000000  0.0000000  1.0000000 )

      isym =  2     180 deg rotation - cart. axis [0,0,1]

[...]

 cryst.   s( 3) = (    -1          0          0      )    f =(  0.5000000 )
                  (     0          1          0      )       (  0.5000000 )
                  (     0          0         -1      )       (  0.0000000 )

 cart.    s( 3) = ( -1.0000000  0.0000000  0.0000000 )    f =(  0.5000000 )
                  (  0.0000000  1.0000000  0.0000000 )       (  0.5000000 )
                  (  0.0000000  0.0000000 -1.0000000 )       (  0.0000000 )

[...]

 cryst.   s( 6) = (     0         -1          0      )    f =(  0.5000000 )
                  (    -1          0          0      )       (  0.5000000 )
                  (     0          0         -1      )       (  0.0000000 )

 cart.    s( 6) = (  0.0000000 -1.0000000  0.0000000 )    f =(  0.5000000 )
                  ( -1.0000000  0.0000000  0.0000000 )       (  0.5000000 )
                  (  0.0000000  0.0000000 -1.0000000 )       (  0.0000000 )

[...]

      isym =  8      90 deg rotation - cart. axis [0,0,1]

[...]

      isym =  9     inversion

 cryst.   s( 9) = (    -1          0          0      )
                  (     0         -1          0      )
                  (     0          0         -1      )

 cart.    s( 9) = ( -1.0000000  0.0000000  0.0000000 )
                  (  0.0000000 -1.0000000  0.0000000 )
                  (  0.0000000  0.0000000 -1.0000000 )

      isym = 10     inv. 180 deg rotation - cart. axis [0,0,1]

 cryst.   s(10) = (     1          0          0      )
                  (     0          1          0      )
                  (     0          0         -1      )

 cart.    s(10) = (  1.0000000  0.0000000  0.0000000 )
                  (  0.0000000  1.0000000  0.0000000 )
                  (  0.0000000  0.0000000 -1.0000000 )

[...]

 cryst.   s(11) = (     1          0          0      )    f =(  0.5000000 )
                  (     0         -1          0      )       (  0.5000000 )
                  (     0          0          1      )       (  0.0000000 )

 cart.    s(11) = (  1.0000000  0.0000000  0.0000000 )    f =(  0.5000000 )
                  (  0.0000000 -1.0000000  0.0000000 )       (  0.5000000 )
                  (  0.0000000  0.0000000  1.0000000 )       (  0.0000000 )

[...]

 cryst.   s(14) = (     0          1          0      )    f =(  0.5000000 )
                  (     1          0          0      )       (  0.5000000 )
                  (     0          0          1      )       (  0.0000000 )

 cart.    s(14) = (  0.0000000  1.0000000  0.0000000 )    f =(  0.5000000 )
                  (  1.0000000  0.0000000  0.0000000 )       (  0.5000000 )
                  (  0.0000000  0.0000000  1.0000000 )       (  0.0000000 )

[...]

      isym = 16     inv.  90 deg rotation - cart. axis [0,0,1]

 cryst.   s(16) = (     0         -1          0      )
                  (     1          0          0      )
                  (     0          0         -1      )

 cart.    s(16) = (  0.0000000  1.0000000  0.0000000 )
                  ( -1.0000000  0.0000000  0.0000000 )
                  (  0.0000000  0.0000000 -1.0000000 )

   Cartesian axes

     site n.     atom                  positions (alat units)
         1           Ta  tau(   1) = (   0.5000000   0.5000000   0.0000000  )
         2           Ta  tau(   2) = (   0.0000000   0.0000000   0.0000000  )
         3           B   tau(   3) = (   0.1092990   0.6092990   0.0000000  )
         4           B   tau(   4) = (   0.8907010   0.3907010   0.0000000  )
         5           B   tau(   5) = (   0.6092990   0.8907010   0.0000000  )
         6           B   tau(   6) = (   0.3907010   0.1092990   0.0000000  )
         7           Mo  tau(   7) = (   0.6738270   0.1738270   0.2605333  )
         8           Mo  tau(   8) = (   0.3261730   0.8261730   0.2605333  )
         9           Mo  tau(   9) = (   0.1738270   0.3261730   0.2605333  )
        10           Mo  tau(  10) = (   0.8261730   0.6738270   0.2605333  )

   Crystallographic axes

     site n.     atom                  positions (cryst. coord.)
         1           Ta  tau(   1) = (  0.5000000  0.5000000  0.0000000  )
         2           Ta  tau(   2) = (  0.0000000  0.0000000  0.0000000  )
         3           B   tau(   3) = (  0.1092990  0.6092990  0.0000000  )
         4           B   tau(   4) = (  0.8907010  0.3907010  0.0000000  )
         5           B   tau(   5) = (  0.6092990  0.8907010  0.0000000  )
         6           B   tau(   6) = (  0.3907010  0.1092990  0.0000000  )
         7           Mo  tau(   7) = (  0.6738270  0.1738270  0.5000000  )
         8           Mo  tau(   8) = (  0.3261730  0.8261730  0.5000000  )
         9           Mo  tau(   9) = (  0.1738270  0.3261730  0.5000000  )
        10           Mo  tau(  10) = (  0.8261730  0.6738270  0.5000000  )

     number of k points=     1  Methfessel-Paxton smearing, width (Ry)=  0.0010
                       cart. coord. in units 2pi/alat
        k(    1) = (   0.0000000   0.0000000   0.0000000), wk =   2.0000000

                       cryst. coord.
        k(    1) = (   0.0000000   0.0000000   0.0000000), wk =   2.0000000

     Check: negative core charge=   -0.000002

     Initial potential from superposition of free atoms

     starting charge      93.9927, renormalised to      94.0000

     negative rho (up, down):  1.827E-01 0.000E+00
     Starting wfcs are   82 randomized atomic wfcs

     Self-consistent Calculation

     iteration #  1     ecut=    30.00 Ry     beta= 0.70
     Davidson diagonalization with overlap

     ethr =  1.00E-02,  avg # of iterations =  2.0

     Threshold (ethr) on eigenvalues was too large:
     Diagonalizing with lowered threshold

     Davidson diagonalization with overlap

[...]

     negative rho (up, down):  1.822E-01 0.000E+00

     total energy              =    -857.60927418 Ry
     estimated scf accuracy    <       0.80400880 Ry

[...]

     total energy              =    -857.98630548 Ry
     estimated scf accuracy    <       0.00001033 Ry

     iteration # 22     ecut=    30.00 Ry     beta= 0.70
     Davidson diagonalization with overlap

     ethr =  8.94E-09,  avg # of iterations =  1.0

[...]

     End of self-consistent calculation

          k = 0.0000 0.0000 0.0000 (  1132 PWs)   bands (ev):

   -47.8205 -47.8193 -41.5503 -41.5180 -41.5175 -41.5173 -16.0936 -16.0935
   -15.9727 -15.9393 -15.7469 -15.7293 -15.6218 -15.6218 -15.4275 -15.2854
   -15.2853 -15.2830 -14.4655 -14.4655 -14.2524 -14.2524 -14.2236 -14.1132
     8.2601  10.3253  12.2809  12.2811  13.6018  13.7159  14.7914  15.0754
    15.4653  15.4654  15.4724  15.6324  16.4512  16.4575  16.4576  17.1491
    17.1492  17.4831  18.0088  18.2775  18.8638  19.5689  19.5735  19.5735
    20.0713  20.4367  20.4367  20.7414  21.2520  21.4597  21.7863  21.9636

     occupation numbers
     1.0000   1.0000   1.0000   1.0000   1.0000   1.0000   1.0000   1.0000
     1.0000   1.0000   1.0000   1.0000   1.0000   1.0000   1.0000   1.0000
     1.0000   1.0000   1.0000   1.0000   1.0000   1.0000   1.0000   1.0000
     1.0000   1.0000   1.0000   1.0000   1.0000   1.0000   1.0000   1.0000
     1.0000   1.0000   1.0000   1.0000   1.0000   1.0000   1.0000   1.0000
     1.0000   1.0000   1.0000   1.0000   1.0000   0.8327   0.5838   0.5835
    -0.0000  -0.0000  -0.0000  -0.0000  -0.0000  -0.0000  -0.0000  -0.0000

     the Fermi energy is    19.5749 ev

!    total energy              =    -857.98630547 Ry
     estimated scf accuracy    <       0.00000033 Ry
     smearing contrib. (-TS)   =      -0.00069238 Ry
     internal energy E=F+TS    =    -857.98561309 Ry

     The total energy is F=E-TS. E is the sum of the following terms:
     one-electron contribution =    -114.06123889 Ry
     hartree contribution      =     111.58530068 Ry
     xc contribution           =    -159.43333742 Ry
     ewald contribution        =    -696.07633747 Ry

     convergence has been achieved in  22 iterations

     negative rho (up, down):  1.841E-01 0.000E+00

     Forces acting on atoms (cartesian axes, Ry/au):

     atom    1 type  1   force =     0.00000000    0.00000000    0.00000000
     atom    2 type  1   force =     0.00000000    0.00000000    0.00000000
     atom    3 type  2   force =    -0.07689840   -0.07689840   -0.00000000
     atom    4 type  2   force =     0.07689840    0.07689840    0.00000000
     atom    5 type  2   force =    -0.07689840    0.07689840    0.00000000
     atom    6 type  2   force =     0.07689840   -0.07689840    0.00000000
     atom    7 type  3   force =    -0.08829129   -0.08829129   -0.00000000
     atom    8 type  3   force =     0.08829129    0.08829129    0.00000000
     atom    9 type  3   force =    -0.08829129    0.08829129    0.00000000
     atom   10 type  3   force =     0.08829129   -0.08829129   -0.00000000
     The non-local contrib.  to forces
     atom    1 type  1   force =     0.00000000    0.00000000   -0.00000000
     atom    2 type  1   force =     0.00000000    0.00000000    0.00000000
     atom    3 type  2   force =    -0.03524064   -0.03524064   -0.00000000
     atom    4 type  2   force =     0.03524064    0.03524064    0.00000000
     atom    5 type  2   force =    -0.03524064    0.03524064   -0.00000000
     atom    6 type  2   force =     0.03524064   -0.03524064   -0.00000000
     atom    7 type  3   force =     0.07608861    0.07608861    0.00000000
     atom    8 type  3   force =    -0.07608861   -0.07608861    0.00000000
     atom    9 type  3   force =     0.07608861   -0.07608861    0.00000000
     atom   10 type  3   force =    -0.07608861    0.07608861    0.00000000
     The ionic contribution  to forces
     atom    1 type  1   force =     0.00000000   -0.00000000   -0.00000000
     atom    2 type  1   force =     0.00000000   -0.00000000   -0.00000000
     atom    3 type  2   force =    -0.05414425   -0.05414425    0.00000000
     atom    4 type  2   force =     0.05414425    0.05414425    0.00000000
     atom    5 type  2   force =    -0.05414425    0.05414425    0.00000000
     atom    6 type  2   force =     0.05414425   -0.05414425    0.00000000
     atom    7 type  3   force =    -0.70239018   -0.70239018   -0.00000000
     atom    8 type  3   force =     0.70239018    0.70239018   -0.00000000
     atom    9 type  3   force =    -0.70239018    0.70239018   -0.00000000
     atom   10 type  3   force =     0.70239018   -0.70239018   -0.00000000
     The local contribution  to forces
     atom    1 type  1   force =     0.00110225   -0.00021083   -0.00000038
     atom    2 type  1   force =    -0.00122453   -0.00022324    0.00000174
     atom    3 type  2   force =     0.01275550    0.01312109    0.00000017
     atom    4 type  2   force =    -0.01321493   -0.01303155    0.00000012
     atom    5 type  2   force =     0.01324037   -0.01283525    0.00000045
     atom    6 type  2   force =    -0.01271309    0.01293827    0.00000142
     atom    7 type  3   force =     0.53820939    0.53726026    0.00000525
     atom    8 type  3   force =    -0.53749709   -0.53721347   -0.00000665
     atom    9 type  3   force =     0.53760855   -0.53849141   -0.00002913
     atom   10 type  3   force =    -0.53831021    0.53873884    0.00002271
     The core correction contribution to forces
     atom    1 type  1   force =    -0.00000520   -0.00000698    0.00000012
     atom    2 type  1   force =     0.00000313   -0.00000097    0.00000016
     atom    3 type  2   force =    -0.00049076   -0.00049078   -0.00000002
     atom    4 type  2   force =     0.00049137    0.00049104   -0.00000004
     atom    5 type  2   force =    -0.00049104    0.00049137    0.00000001
     atom    6 type  2   force =     0.00049078   -0.00049046    0.00000004
     atom    7 type  3   force =     0.00000000    0.00000000    0.00000000
     atom    8 type  3   force =     0.00000000    0.00000000    0.00000000
     atom    9 type  3   force =     0.00000000    0.00000000    0.00000000
     atom   10 type  3   force =     0.00000000    0.00000000    0.00000000
     The Hubbard contrib.    to forces
     atom    1 type  1   force =     0.00000000    0.00000000    0.00000000
     atom    2 type  1   force =     0.00000000    0.00000000    0.00000000
     atom    3 type  2   force =     0.00000000    0.00000000    0.00000000
     atom    4 type  2   force =     0.00000000    0.00000000    0.00000000
     atom    5 type  2   force =     0.00000000    0.00000000    0.00000000
     atom    6 type  2   force =     0.00000000    0.00000000    0.00000000
     atom    7 type  3   force =     0.00000000    0.00000000    0.00000000
     atom    8 type  3   force =     0.00000000    0.00000000    0.00000000
     atom    9 type  3   force =     0.00000000    0.00000000    0.00000000
     atom   10 type  3   force =     0.00000000    0.00000000    0.00000000
     The SCF correction term to forces
     atom    1 type  1   force =    -0.00107633    0.00018878   -0.00000032
     atom    2 type  1   force =     0.00122643    0.00021710   -0.00000092
     atom    3 type  2   force =     0.00021553   -0.00012662    0.00000011
     atom    4 type  2   force =     0.00022664    0.00005417   -0.00000036
     atom    5 type  2   force =    -0.00024662   -0.00011999   -0.00000042
     atom    6 type  2   force =    -0.00024406    0.00004390   -0.00000043
     atom    7 type  3   force =    -0.00020466    0.00071989   -0.00000570
     atom    8 type  3   force =    -0.00056346   -0.00068137    0.00000854
     atom    9 type  3   force =     0.00037662    0.00040648    0.00002761
     atom   10 type  3   force =     0.00032728   -0.00064993   -0.00002398

     Total force =     0.331164     Total SCF correction =     0.002276

     Computing stress (Cartesian axis) and pressure

     negative rho (up, down):  1.841E-01 0.000E+00
          total   stress  (Ry/bohr**3)                   (kbar)     P=      -38.99
  -0.00194302   0.00000000   0.00000000         -285.83        0.00        0.00
   0.00000000  -0.00194302   0.00000000            0.00     -285.83        0.00
   0.00000000   0.00000000   0.00309096            0.00        0.00      454.70

     kinetic stress (kbar)  31849.35      0.00      0.00
                                0.00  31849.35      0.00
                                0.00      0.00  33678.01

     local   stress (kbar)   8875.86     -0.13      0.05
                               -0.13   8875.86     -0.08
                                0.05     -0.08   6216.90

     nonloc. stress (kbar)   1972.17      0.00      0.00
                                0.00   1972.17      0.00
                                0.00      0.00   1718.56

     hartree stress (kbar)   6401.48      0.04     -0.02
                                0.04   6401.48      0.03
                               -0.02      0.03   7497.25

     exc-cor stress (kbar)   4137.49      0.00     -0.00
                                0.00   4137.49      0.00
                               -0.00      0.00   4152.35

     corecor stress (kbar) -11075.76     -0.00      0.00
                               -0.00 -11075.76     -0.00
                                0.00     -0.00 -11067.20

     ewald   stress (kbar) -42446.41      0.00     -0.00
                                0.00 -42446.41     -0.00
                               -0.00     -0.00 -41741.18

     hubbard stress (kbar)      0.00      0.00      0.00
                                0.00      0.00      0.00
                                0.00      0.00      0.00

     DFT-D   stress (kbar)      0.00      0.00      0.00
                                0.00      0.00      0.00
                                0.00      0.00      0.00

     XDM     stress (kbar)      0.00      0.00      0.00
                                0.00      0.00      0.00
                                0.00      0.00      0.00

     dft-nl  stress (kbar)      0.00      0.00      0.00
                                0.00      0.00      0.00
                                0.00      0.00      0.00

     TS-vdW  stress (kbar)      0.00      0.00      0.00
                                0.00      0.00      0.00
                                0.00      0.00      0.00

[...]

                                0.00      0.00      0.00

     Writing all to output data dir new_calculations/myprefix.save/

     General routines

     Parallel routines

   This run was terminated on:  17:52:21  21May2023

   JOB DONE.