     Program PWSCF v.7.0 starts on 20May2023 at 15: 1:27

     Reading input from espresso_17451.pwi
Warning: card &CELL ignored
Warning: card / ignored

     Current dimensions of program PWSCF are:
     Max number of different atomic species (ntypx) = 10
     Max number of k-points (npk) =  40000
     Max angular momentum in pseudopotentials (lmaxx) =  4
     file K.pbe-spn-kjpaw_psl.1.0.0.UPF: wavefunction(s)  3S renormalized

     gamma-point specific algorithms are used
     Message from routine setup:
     using ibrav=0 with symmetry is DISCOURAGED, use correct ibrav instead

     Subspace diagonalization in iterative solution of the eigenvalue problem:
     a serial algorithm will be used

     Using Slab Decomposition

     bravais-lattice index     =            0
     lattice parameter (alat)  =      16.3487  a.u.
     unit-cell volume          =     977.6383 (a.u.)^3
     number of atoms/cell      =            4
     number of atomic types    =            3
     number of electrons       =        32.00
     number of Kohn-Sham states=           20
     kinetic-energy cutoff     =      30.0000  Ry
     charge density cutoff     =     240.0000  Ry
     scf convergence threshold =      1.0E-06
     mixing beta               =       0.7000
     number of iterations used =            8  plain     mixing
     Exchange-correlation= SLA  PW   PBE  PBE
                           (   1   4   3   4   0   0   0)

     celldm(1)=  16.348738  celldm(2)=   0.000000  celldm(3)=   0.000000
     celldm(4)=   0.000000  celldm(5)=   0.000000  celldm(6)=   0.000000

     crystal axes: (cart. coord. in units of alat)
               a(1) = (   1.000000   0.000000   0.000000 )
               a(2) = (   0.864571   0.502511   0.000000 )
               a(3) = (   0.864571   0.233006   0.445225 )

     reciprocal axes: (cart. coord. in units 2 pi/alat)
               b(1) = (  1.000000 -1.720501 -1.041458 )
               b(2) = (  0.000000  1.990006 -1.041458 )
               b(3) = (  0.000000  0.000000  2.246054 )

     PseudoPot. # 1 for K  read from file:
     /home/pragov/projects/rrg-bengioy-ad/pragov/crystal_structure_design/SSSP/K.pbe-spn-kjpaw_psl.1.0.0.UPF
     MD5 check sum: 7d58810084cac21f60fbe77ea2b688fd
     Pseudo is Projector augmented-wave + core cor, Zval =  9.0
     Generated using "atomic" code by A. Dal Corso  v.5.1
     Shape of augmentation charge: PSQ
     Using radial grid of 1165 points,  6 beta functions with:
                l(1) =   0
                l(2) =   0
                l(3) =   1
                l(4) =   1
                l(5) =   2
                l(6) =   2
     Q(r) pseudized with 0 coefficients

     PseudoPot. # 2 for Y  read from file:
     /home/pragov/projects/rrg-bengioy-ad/pragov/crystal_structure_design/SSSP/Y_pbe_v1.uspp.F.UPF
     MD5 check sum: 2cf71db95cafeb975fc457bd7f14888e
     Pseudo is Ultrasoft + core correction, Zval = 11.0
     Generated by new atomic code, or converted to UPF format
     Using radial grid of  885 points,  6 beta functions with:
                l(1) =   0
                l(2) =   0
                l(3) =   1
                l(4) =   1
                l(5) =   2
                l(6) =   2
     Q(r) pseudized with  6 coefficients,  rinner =    1.200   1.200   1.200
                                                       1.200   1.200

     PseudoPot. # 3 for Te read from file:
     /home/pragov/projects/rrg-bengioy-ad/pragov/crystal_structure_design/SSSP/Te_pbe_v1.uspp.F.UPF
     MD5 check sum: c319670d6894cc26e93307826a071b75
     Pseudo is Ultrasoft + core correction, Zval =  6.0
     Generated by new atomic code, or converted to UPF format
     Using radial grid of  891 points,  5 beta functions with:
                l(1) =   0
                l(2) =   0
                l(3) =   1
                l(4) =   1
                l(5) =   2
     Q(r) pseudized with  6 coefficients,  rinner =    1.800   1.800   1.800
                                                       1.800   1.800

     atomic species   valence    mass     pseudopotential
        K              9.00    39.09830     K ( 1.00)
        Y             11.00    88.90584     Y ( 1.00)
        Te             6.00   127.60000     Te( 1.00)

      2 Sym. Ops., with inversion, found

                                    s                        frac. trans.

      isym =  1     identity

 cryst.   s( 1) = (     1          0          0      )
                  (     0          1          0      )
                  (     0          0          1      )

 cart.    s( 1) = (  1.0000000  0.0000000  0.0000000 )
                  (  0.0000000  1.0000000  0.0000000 )
                  (  0.0000000  0.0000000  1.0000000 )

      isym =  2     inversion

 cryst.   s( 2) = (    -1          0          0      )
                  (     0         -1          0      )
                  (     0          0         -1      )

 cart.    s( 2) = ( -1.0000000 -0.0000000 -0.0000000 )
                  (  0.0000000 -1.0000000 -0.0000000 )
                  (  0.0000000  0.0000000 -1.0000000 )

   Cartesian axes

     site n.     atom                  positions (alat units)
         1           K   tau(   1) = (   1.3645707   0.3677586   0.2226126  )
         2           Y   tau(   2) = (   0.0000000   0.0000000   0.0000000  )
         3           Te  tau(   3) = (   0.7200158   0.1940478   0.1174616  )
         4           Te  tau(   4) = (   2.0091257   0.5414694   0.3277637  )

   Crystallographic axes

     site n.     atom                  positions (cryst. coord.)
         1           K   tau(   1) = (  0.5000000  0.5000000  0.5000000  )
         2           Y   tau(   2) = (  0.0000000  0.0000000  0.0000000  )
         3           Te  tau(   3) = (  0.2638250  0.2638250  0.2638250  )
         4           Te  tau(   4) = (  0.7361750  0.7361750  0.7361750  )

     number of k points=     1  Methfessel-Paxton smearing, width (Ry)=  0.0010
                       cart. coord. in units 2pi/alat
        k(    1) = (   0.0000000   0.0000000   0.0000000), wk =   2.0000000

                       cryst. coord.
        k(    1) = (   0.0000000   0.0000000   0.0000000), wk =   2.0000000

     Check: negative core charge=   -0.000002

     Initial potential from superposition of free atoms

     starting charge      31.9763, renormalised to      32.0000

     negative rho (up, down):  4.337E-02 0.000E+00
     Starting wfcs are   29 randomized atomic wfcs
     Checking if some PAW data can be deallocated...

     Self-consistent Calculation

     iteration #  1     ecut=    30.00 Ry     beta= 0.70
     Davidson diagonalization with overlap

     ethr =  1.00E-02,  avg # of iterations =  2.0

     Threshold (ethr) on eigenvalues was too large:
     Diagonalizing with lowered threshold

     Davidson diagonalization with overlap

[...]

     negative rho (up, down):  4.299E-02 0.000E+00

     total energy              =    -253.34290785 Ry
     estimated scf accuracy    <       0.31241740 Ry

[...]

     total energy              =    -253.43426709 Ry
     estimated scf accuracy    <       0.00000539 Ry

     iteration #  8     ecut=    30.00 Ry     beta= 0.70
     Davidson diagonalization with overlap

     ethr =  1.69E-08,  avg # of iterations =  4.0

[...]

     End of self-consistent calculation

          k = 0.0000 0.0000 0.0000 (  1376 PWs)   bands (ev):

   -37.4046 -25.0313 -17.5900 -17.2176 -17.2176  -8.5799  -8.5070  -8.5070
    -4.5485  -3.8410   2.4901   4.1876   4.1876   5.3842   5.6884   5.6884
     7.5269   7.7081   7.7082   8.3527

     occupation numbers
     1.0000   1.0000   1.0000   1.0000   1.0000   1.0000   1.0000   1.0000
     1.0000   1.0000   1.0000   1.0000   1.0000   1.0000   1.0000   1.0000
    -0.0000  -0.0000  -0.0000  -0.0000

     the Fermi energy is     7.0503 ev

!    total energy              =    -253.43426834 Ry
     estimated scf accuracy    <       0.00000020 Ry
     smearing contrib. (-TS)   =       0.00000000 Ry
     internal energy E=F+TS    =    -253.43426834 Ry

     The total energy is F=E-TS. E is the sum of the following terms:
     one-electron contribution =     -54.68981162 Ry
     hartree contribution      =      37.59412564 Ry
     xc contribution           =     -62.52150574 Ry
     ewald contribution        =    -118.39720690 Ry
     one-center paw contrib.   =     -55.41986973 Ry
      -> PAW hartree energy AE =      37.79308201 Ry
      -> PAW hartree energy PS =     -37.58204698 Ry
      -> PAW xc energy AE      =     -66.23507898 Ry
      -> PAW xc energy PS      =      10.60417423 Ry
      -> total E_H with PAW    =      37.80516066 Ry
      -> total E_XC with PAW   =    -118.15241050 Ry

     convergence has been achieved in   8 iterations

     negative rho (up, down):  4.273E-02 0.000E+00

     Forces acting on atoms (cartesian axes, Ry/au):

     atom    1 type  1   force =     0.00000000    0.00000000    0.00000000
     atom    2 type  2   force =     0.00000000    0.00000000    0.00000000
     atom    3 type  3   force =     0.05804741    0.01564560    0.00947355
     atom    4 type  3   force =    -0.05804741   -0.01564560   -0.00947355
     The non-local contrib.  to forces
     atom    1 type  1   force =     0.00000000    0.00000000    0.00000000
     atom    2 type  2   force =     0.00000000    0.00000000    0.00000000
     atom    3 type  3   force =     0.19410159    0.05232052    0.03169372
     atom    4 type  3   force =    -0.19410159   -0.05232052   -0.03169372
     The ionic contribution  to forces
     atom    1 type  1   force =    -0.00000000   -0.00000000   -0.00000000
     atom    2 type  2   force =     0.00000000   -0.00000000    0.00000000
     atom    3 type  3   force =    -2.78559861   -0.75073275   -0.45443552
     atom    4 type  3   force =     2.78559861    0.75073275    0.45443552
     The local contribution  to forces
     atom    1 type  1   force =     0.00037607    0.00014725    0.00003977
     atom    2 type  2   force =    -0.00010330   -0.00003041   -0.00010589
     atom    3 type  3   force =     2.63228565    0.70941385    0.42943506
     atom    4 type  3   force =    -2.63250848   -0.70947546   -0.42943741
     The core correction contribution to forces
     atom    1 type  1   force =    -0.00000029    0.00000079   -0.00000014
     atom    2 type  2   force =     0.00000965   -0.00000568   -0.00000352
     atom    3 type  3   force =     0.01751068    0.00471916    0.00285712
     atom    4 type  3   force =    -0.01750248   -0.00471715   -0.00286000
     The Hubbard contrib.    to forces
     atom    1 type  1   force =     0.00000000    0.00000000    0.00000000
     atom    2 type  2   force =     0.00000000    0.00000000    0.00000000
     atom    3 type  3   force =     0.00000000    0.00000000    0.00000000
     atom    4 type  3   force =     0.00000000    0.00000000    0.00000000
     The SCF correction term to forces
     atom    1 type  1   force =    -0.00027992   -0.00012040   -0.00003393
     atom    2 type  2   force =     0.00014493    0.00002788    0.00007627
     atom    3 type  3   force =    -0.00033077   -0.00009138   -0.00007071
     atom    4 type  3   force =     0.00038767    0.00011856    0.00008817

     Total force =     0.086070     Total SCF correction =     0.000645

     Computing stress (Cartesian axis) and pressure

     negative rho (up, down):  4.273E-02 0.000E+00
          total   stress  (Ry/bohr**3)                   (kbar)     P=       86.60
   0.00001163  -0.00024546  -0.00014874            1.71      -36.11      -21.88
  -0.00024546   0.00085634  -0.00004006          -36.11      125.97       -5.89
  -0.00014874  -0.00004006   0.00089815          -21.88       -5.89      132.12

     kinetic stress (kbar)   5371.45    -66.72    -40.38
                              -66.72   5601.02    -10.88
                              -40.38    -10.88   5612.40

     local   stress (kbar)   1458.20    521.52    315.65
                              521.52   -336.32     85.06
                              315.65     85.06   -425.46

     nonloc. stress (kbar)    290.62     30.76     18.63
                               30.76    184.76      5.03
                               18.63      5.03    179.56

     hartree stress (kbar)   1306.40   -246.37   -149.13
                             -246.37   2154.15    -40.19
                             -149.13    -40.19   2196.23

     exc-cor stress (kbar)   3724.40     -0.08     -0.05
                               -0.08   3724.69     -0.01
                               -0.05     -0.01   3724.70

     corecor stress (kbar)  -5558.03      2.51      1.52
                                2.51  -5566.67      0.41
                                1.52      0.41  -5567.09

     ewald   stress (kbar)  -6591.33   -277.73   -168.12
                             -277.73  -5635.65    -45.31
                             -168.12    -45.31  -5588.22

     hubbard stress (kbar)      0.00      0.00      0.00
                                0.00      0.00      0.00
                                0.00      0.00      0.00

     DFT-D   stress (kbar)      0.00      0.00      0.00
                                0.00      0.00      0.00
                                0.00      0.00      0.00

     XDM     stress (kbar)      0.00      0.00      0.00
                                0.00      0.00      0.00
                                0.00      0.00      0.00

     dft-nl  stress (kbar)      0.00      0.00      0.00
                                0.00      0.00      0.00
                                0.00      0.00      0.00

     TS-vdW  stress (kbar)      0.00      0.00      0.00
                                0.00      0.00      0.00
                                0.00      0.00      0.00

[...]

                                0.00      0.00      0.00

     Writing all to output data dir new_calculations/myprefix.save/

     General routines

     Parallel routines

     PAW routines

   This run was terminated on:  15: 1:40  20May2023

   JOB DONE.