     Program PWSCF v.7.0 starts on 21May2023 at 11:31: 3

     Reading input from espresso_26667.pwi
Warning: card &CELL ignored
Warning: card / ignored

     Current dimensions of program PWSCF are:
     Max number of different atomic species (ntypx) = 10
     Max number of k-points (npk) =  40000
     Max angular momentum in pseudopotentials (lmaxx) =  4
     file Ga.pbe-dn-kjpaw_psl.1.0.0.UPF: wavefunction(s)  4S renormalized

     gamma-point specific algorithms are used
     Message from routine setup:
     using ibrav=0 with symmetry is DISCOURAGED, use correct ibrav instead

     Subspace diagonalization in iterative solution of the eigenvalue problem:
     a serial algorithm will be used

     Using Slab Decomposition

     bravais-lattice index     =            0
     lattice parameter (alat)  =      11.0825  a.u.
     unit-cell volume          =    2068.2820 (a.u.)^3
     number of atoms/cell      =           14
     number of atomic types    =            3
     number of electrons       =       148.00
     number of Kohn-Sham states=           89
     kinetic-energy cutoff     =      30.0000  Ry
     charge density cutoff     =     240.0000  Ry
     scf convergence threshold =      1.0E-06
     mixing beta               =       0.7000
     number of iterations used =            8  plain     mixing
     Exchange-correlation=  SLA  PW   PBX  PBC
                           (   1   4   3   4   0   0   0)

     celldm(1)=  11.082505  celldm(2)=   0.000000  celldm(3)=   0.000000
     celldm(4)=   0.000000  celldm(5)=   0.000000  celldm(6)=   0.000000

     crystal axes: (cart. coord. in units of alat)
               a(1) = (   1.000000   0.000000   0.000000 )
               a(2) = (  -0.469281   0.883049   0.000000 )
               a(3) = (   0.000000   0.000000   1.720724 )

     reciprocal axes: (cart. coord. in units 2 pi/alat)
               b(1) = (  1.000000  0.531433  0.000000 )
               b(2) = (  0.000000  1.132440  0.000000 )
               b(3) = (  0.000000  0.000000  0.581151 )

     PseudoPot. # 1 for Yb read from file:
     /home/pragov/projects/rrg-bengioy-ad/pragov/crystal_structure_design/SSSP/Yb.GGA-PBE-paw-v1.0.UPF
     MD5 check sum: 43b6465ad8021f06e3edb42ae292e187
     Pseudo is Projector augmented-wave + core cor, Zval = 24.0
     Generated using ATOMPAW code
     Shape of augmentation charge: BESSEL
     Using radial grid of 1117 points,  8 beta functions with:
                l(1) =   0
                l(2) =   0
                l(3) =   1
                l(4) =   1
                l(5) =   2
                l(6) =   2
                l(7) =   3
                l(8) =   3
     Q(r) pseudized with 0 coefficients

     PseudoPot. # 2 for Ga read from file:
     /home/pragov/projects/rrg-bengioy-ad/pragov/crystal_structure_design/SSSP/Ga.pbe-dn-kjpaw_psl.1.0.0.UPF
     MD5 check sum: a27b4342b1af7e5f338de752e9ed7044
     Pseudo is Projector augmented-wave + core cor, Zval = 13.0
     Generated using "atomic" code by A. Dal Corso  v.5.1
     Shape of augmentation charge: PSQ
     Using radial grid of 1205 points,  6 beta functions with:
                l(1) =   0
                l(2) =   0
                l(3) =   1
                l(4) =   1
                l(5) =   2
                l(6) =   2
     Q(r) pseudized with 0 coefficients

     PseudoPot. # 3 for S  read from file:
     /home/pragov/projects/rrg-bengioy-ad/pragov/crystal_structure_design/SSSP/s_pbe_v1.4.uspp.F.UPF
     MD5 check sum: 88d86576ff6df21479756cfb9bdac1df
     Pseudo is Ultrasoft + core correction, Zval =  6.0
     Generated by new atomic code, or converted to UPF format
     Using radial grid of  907 points,  6 beta functions with:
                l(1) =   0
                l(2) =   0
                l(3) =   1
                l(4) =   1
                l(5) =   2
                l(6) =   2
     Q(r) pseudized with  8 coefficients,  rinner =    1.300   1.300   1.300
                                                       1.300   1.300

     atomic species   valence    mass     pseudopotential
        Yb            24.00   173.05400     Yb( 1.00)
        Ga            13.00    69.72300     Ga( 1.00)
        S              6.00    32.06000     S ( 1.00)

      4 Sym. Ops., with inversion, found

                                    s                        frac. trans.

      isym =  1     identity

 cryst.   s( 1) = (     1          0          0      )
                  (     0          1          0      )
                  (     0          0          1      )

 cart.    s( 1) = (  1.0000000 -0.0000000  0.0000000 )
                  (  0.0000000  1.0000000  0.0000000 )
                  (  0.0000000  0.0000000  1.0000000 )

      isym =  2     180 deg rotation - cart. axis [0,0,1]

[...]

      isym =  3     inversion

[...]

      isym =  4     inv. 180 deg rotation - cart. axis [0,0,1]

 cryst.   s( 4) = (     1          0          0      )
                  (     0          1          0      )
                  (     0          0         -1      )

 cart.    s( 4) = (  1.0000000 -0.0000000  0.0000000 )
                  (  0.0000000  1.0000000  0.0000000 )
                  (  0.0000000  0.0000000 -1.0000000 )

   Cartesian axes

     site n.     atom                  positions (alat units)
         1           Yb  tau(   1) = (   0.2653593   0.4415243   1.2905433  )
         2           Yb  tau(   2) = (   0.2653593   0.4415243   0.4301811  )
         3           Ga  tau(   3) = (   0.6585594   0.2078917   0.8603622  )
         4           Ga  tau(   4) = (  -0.1278409   0.6751569   0.8603622  )
         5           Ga  tau(   5) = (   0.6561897   0.2039489   0.0000000  )
         6           Ga  tau(   6) = (  -0.1254712   0.6790997   0.0000000  )
         7           S   tau(   7) = (   0.2610429   0.1729062   0.8603622  )
         8           S   tau(   8) = (   0.2696756   0.7101424   0.8603622  )
         9           S   tau(   9) = (   0.5005365   0.5713934   0.0000000  )
        10           S   tau(  10) = (   0.0301820   0.3116552   0.0000000  )
        11           S   tau(  11) = (   0.5000000   0.0000000   1.4229135  )
        12           S   tau(  12) = (  -0.2346407   0.4415243   1.1581731  )
        13           S   tau(  13) = (   0.5000000   0.0000000   0.2978109  )
        14           S   tau(  14) = (  -0.2346407   0.4415243   0.5625513  )

   Crystallographic axes

     site n.     atom                  positions (cryst. coord.)
         1           Yb  tau(   1) = (  0.5000000  0.5000000  0.7500000  )
         2           Yb  tau(   2) = (  0.5000000  0.5000000  0.2500000  )
         3           Ga  tau(   3) = (  0.7690400  0.2354250  0.5000000  )
         4           Ga  tau(   4) = (  0.2309600  0.7645750  0.5000000  )
         5           Ga  tau(   5) = (  0.7645750  0.2309600  0.0000000  )
         6           Ga  tau(   6) = (  0.2354250  0.7690400  0.0000000  )
         7           S   tau(   7) = (  0.3529310  0.1958060  0.5000000  )
         8           S   tau(   8) = (  0.6470690  0.8041940  0.5000000  )
         9           S   tau(   9) = (  0.8041940  0.6470690  0.0000000  )
        10           S   tau(  10) = (  0.1958060  0.3529310  0.0000000  )
        11           S   tau(  11) = (  0.5000000  0.0000000  0.8269270  )
        12           S   tau(  12) = ( -0.0000000  0.5000000  0.6730730  )
        13           S   tau(  13) = (  0.5000000  0.0000000  0.1730730  )
        14           S   tau(  14) = ( -0.0000000  0.5000000  0.3269270  )

     number of k points=     1  Methfessel-Paxton smearing, width (Ry)=  0.0010
                       cart. coord. in units 2pi/alat
        k(    1) = (   0.0000000   0.0000000   0.0000000), wk =   2.0000000

                       cryst. coord.
        k(    1) = (   0.0000000   0.0000000   0.0000000), wk =   2.0000000

     Check: negative core charge=   -0.000002

     Initial potential from superposition of free atoms

     starting charge     147.9799, renormalised to     148.0000
     Starting wfcs are  132 randomized atomic wfcs
     Checking if some PAW data can be deallocated...

     Self-consistent Calculation

     iteration #  1     ecut=    30.00 Ry     beta= 0.70
     Davidson diagonalization with overlap

     ethr =  1.00E-02,  avg # of iterations =  3.0

     Threshold (ethr) on eigenvalues was too large:
     Diagonalizing with lowered threshold

     Davidson diagonalization with overlap

[...]

     total energy              =   -3326.61097341 Ry
     estimated scf accuracy    <       1.18330480 Ry

[...]

     total energy              =   -3327.59769451 Ry
     estimated scf accuracy    <       0.00000224 Ry

     iteration # 26     ecut=    30.00 Ry     beta= 0.70
     Davidson diagonalization with overlap

     ethr =  1.51E-09,  avg # of iterations =  2.0

     End of self-consistent calculation

          k = 0.0000 0.0000 0.0000 (  2873 PWs)   bands (ev):

   -42.7956 -42.7943 -15.2382 -15.2362 -15.2362 -15.2332 -15.2065 -15.1857
    -7.6894  -7.6884  -7.6558  -7.6542  -7.6072  -7.5947  -7.5326  -7.5161
    -7.3859  -7.3856  -7.3753  -7.3723  -7.3674  -7.3662  -7.3294  -7.3288
    -7.3129  -7.3122  -7.2700  -7.2687  -6.4559  -6.0447  -4.6418  -4.6164
    -4.6153  -4.1676  -4.1456  -3.8872   0.9629   1.3326   1.7017   1.8463
     2.2636   3.0785   3.3915   3.5832   3.6311   3.6415   3.7737   4.0001
     4.2416   5.1556   5.3076   5.3979   5.6020   5.6504   5.6652   6.1915
     6.4329   6.6585   6.7002   6.7218   9.3237   9.3298   9.3334   9.3344
     9.3353   9.3368   9.3436   9.3557   9.3558   9.3630   9.3644   9.3812
     9.3841   9.3926   9.7241  10.2603  10.5635  10.7559  10.9028  11.1247
    11.2233  12.0144  12.5404  12.5894  12.6520  12.6736  12.7163  12.8152
    13.1541

     occupation numbers
     1.0000   1.0000   1.0000   1.0000   1.0000   1.0000   1.0000   1.0000
     1.0000   1.0000   1.0000   1.0000   1.0000   1.0000   1.0000   1.0000
     1.0000   1.0000   1.0000   1.0000   1.0000   1.0000   1.0000   1.0000
     1.0000   1.0000   1.0000   1.0000   1.0000   1.0000   1.0000   1.0000
     1.0000   1.0000   1.0000   1.0000   1.0000   1.0000   1.0000   1.0000
     1.0000   1.0000   1.0000   1.0000   1.0000   1.0000   1.0000   1.0000
     1.0000   1.0000   1.0000   1.0000   1.0000   1.0000   1.0000   1.0000
     1.0000   1.0000   1.0000   1.0000   1.0000   1.0000   1.0000   1.0000
     1.0000   1.0000   1.0000   1.0000   1.0000   1.0000   1.0000   1.0000
     1.0000   1.0000  -0.0000  -0.0000  -0.0000  -0.0000  -0.0000  -0.0000
    -0.0000  -0.0000  -0.0000  -0.0000  -0.0000  -0.0000  -0.0000  -0.0000
    -0.0000

     the Fermi energy is     9.5567 ev

!    total energy              =   -3327.59769487 Ry
     estimated scf accuracy    <       0.00000011 Ry
     smearing contrib. (-TS)   =       0.00000000 Ry
     internal energy E=F+TS    =   -3327.59769487 Ry

     The total energy is F=E-TS. E is the sum of the following terms:
     one-electron contribution =   -1390.76331620 Ry
     hartree contribution      =     721.72020550 Ry
     xc contribution           =    -296.96138775 Ry
     ewald contribution        =    -950.01786591 Ry
     one-center paw contrib.   =   -1411.57533051 Ry
      -> PAW hartree energy AE =    1466.90224807 Ry
      -> PAW hartree energy PS =   -1330.43369562 Ry
      -> PAW xc energy AE      =   -1773.31794727 Ry
      -> PAW xc energy PS      =     225.27406431 Ry
      -> total E_H with PAW    =     858.18875795 Ry
      -> total E_XC with PAW   =   -1845.00527071 Ry

     convergence has been achieved in  26 iterations

     Forces acting on atoms (cartesian axes, Ry/au):

     atom    1 type  1   force =     0.00000000    0.00000000   -0.00021741
     atom    2 type  1   force =     0.00000000    0.00000000    0.00021741
     atom    3 type  2   force =     0.03002684    0.00510801   -0.00000000
     atom    4 type  2   force =    -0.03002684   -0.00510801   -0.00000000
     atom    5 type  2   force =     0.00957965   -0.02891179    0.00000000
     atom    6 type  2   force =    -0.00957965    0.02891179    0.00000000
     atom    7 type  3   force =    -0.07194419    0.02106300    0.00000000
     atom    8 type  3   force =     0.07194419   -0.02106300    0.00000000
     atom    9 type  3   force =    -0.05237658    0.05364926    0.00000000
     atom   10 type  3   force =     0.05237658   -0.05364926    0.00000000
     atom   11 type  3   force =     0.00000000    0.00000000   -0.03221566
     atom   12 type  3   force =     0.00000000    0.00000000    0.03221081
     atom   13 type  3   force =     0.00000000    0.00000000    0.03221566
     atom   14 type  3   force =     0.00000000    0.00000000   -0.03221081
     The non-local contrib.  to forces
     atom    1 type  1   force =     0.00000000    0.00000000   -0.00020493
     atom    2 type  1   force =     0.00000000    0.00000000    0.00020493
     atom    3 type  2   force =    -0.02691812   -0.03279253    0.00000000
     atom    4 type  2   force =     0.02691812    0.03279253    0.00000000
     atom    5 type  2   force =     0.01633931    0.03918017    0.00000000
     atom    6 type  2   force =    -0.01633931   -0.03918017    0.00000000
     atom    7 type  3   force =     0.18368802   -0.14193423    0.00000000
     atom    8 type  3   force =    -0.18368802    0.14193423    0.00000000
     atom    9 type  3   force =     0.21153757   -0.09559644    0.00000000
     atom   10 type  3   force =    -0.21153757    0.09559644    0.00000000
     atom   11 type  3   force =     0.00000000    0.00000000    0.14795037
     atom   12 type  3   force =     0.00000000    0.00000000   -0.14794526
     atom   13 type  3   force =     0.00000000    0.00000000   -0.14795037
     atom   14 type  3   force =     0.00000000    0.00000000    0.14794526
     The ionic contribution  to forces
     atom    1 type  1   force =    -0.00000000   -0.00000000   -0.00000000
     atom    2 type  1   force =    -0.00000000   -0.00000000    0.00000000
     atom    3 type  2   force =     5.66246899   -3.73770500    0.00000000
     atom    4 type  2   force =    -5.66246898    3.73770500    0.00000000
     atom    5 type  2   force =     5.95786715   -3.24619972   -0.00000000
     atom    6 type  2   force =    -5.95786715    3.24619972   -0.00000000
     atom    7 type  3   force =    -6.16048372   -0.94644635   -0.00000000
     atom    8 type  3   force =     6.16048372    0.94644635    0.00000000
     atom    9 type  3   force =    -2.05524282    5.88415646   -0.00000000
     atom   10 type  3   force =     2.05524281   -5.88415646   -0.00000000
     atom   11 type  3   force =     0.00000000   -0.00000000   -5.36080995
     atom   12 type  3   force =     0.00000000    0.00000000    5.36080995
     atom   13 type  3   force =     0.00000000   -0.00000000    5.36080995
     atom   14 type  3   force =     0.00000000    0.00000000   -5.36080995
     The local contribution  to forces
     atom    1 type  1   force =    -0.00036877   -0.00068833    0.00040167
     atom    2 type  1   force =    -0.00051437   -0.00019931   -0.00019023
     atom    3 type  2   force =    -5.60452275    3.77623181    0.00011142
     atom    4 type  2   force =     5.60454676   -3.77624225    0.00010844
     atom    5 type  2   force =    -5.96472294    3.17694817   -0.00011324
     atom    6 type  2   force =     5.96470412   -3.17694173   -0.00010647
     atom    7 type  3   force =     5.91448334    1.10180489    0.00010050
     atom    8 type  3   force =    -5.91449736   -1.10181664    0.00008492
     atom    9 type  3   force =     1.80263907   -5.73985680   -0.00010856
     atom   10 type  3   force =    -1.80263804    5.73985862   -0.00011855
     atom   11 type  3   force =    -0.00002564    0.00001681    5.18806379
     atom   12 type  3   force =     0.00003299   -0.00001315   -5.18794081
     atom   13 type  3   force =    -0.00001355   -0.00000354   -5.18811946
     atom   14 type  3   force =     0.00004422   -0.00000215    5.18797670
     The core correction contribution to forces
     atom    1 type  1   force =    -0.00000000   -0.00000000    0.00000000
     atom    2 type  1   force =    -0.00000000   -0.00000000   -0.00000000
     atom    3 type  2   force =    -0.00091378   -0.00065427    0.00000057
     atom    4 type  2   force =     0.00091391    0.00065402    0.00000086
     atom    5 type  2   force =     0.00014789    0.00111350    0.00000034
     atom    6 type  2   force =    -0.00014905   -0.00111308    0.00000030
     atom    7 type  3   force =    -0.00965788    0.00758442    0.00000019
     atom    8 type  3   force =     0.00965847   -0.00758487    0.00000035
     atom    9 type  3   force =    -0.01123062    0.00496923   -0.00000055
     atom   10 type  3   force =     0.01122974   -0.00496900   -0.00000056
     atom   11 type  3   force =    -0.00000007    0.00000002   -0.00743380
     atom   12 type  3   force =     0.00000003    0.00000005    0.00743336
     atom   13 type  3   force =    -0.00000012    0.00000016    0.00743458
     atom   14 type  3   force =     0.00000000    0.00000002   -0.00743364
     The Hubbard contrib.    to forces
     atom    1 type  1   force =     0.00000000    0.00000000    0.00000000
     atom    2 type  1   force =     0.00000000    0.00000000    0.00000000
     atom    3 type  2   force =     0.00000000    0.00000000    0.00000000
     atom    4 type  2   force =     0.00000000    0.00000000    0.00000000
     atom    5 type  2   force =     0.00000000    0.00000000    0.00000000
     atom    6 type  2   force =     0.00000000    0.00000000    0.00000000
     atom    7 type  3   force =     0.00000000    0.00000000    0.00000000
     atom    8 type  3   force =     0.00000000    0.00000000    0.00000000
     atom    9 type  3   force =     0.00000000    0.00000000    0.00000000
     atom   10 type  3   force =     0.00000000    0.00000000    0.00000000
     atom   11 type  3   force =     0.00000000    0.00000000    0.00000000
     atom   12 type  3   force =     0.00000000    0.00000000    0.00000000
     atom   13 type  3   force =     0.00000000    0.00000000    0.00000000
     atom   14 type  3   force =     0.00000000    0.00000000    0.00000000
     The SCF correction term to forces
     atom    1 type  1   force =     0.00045723    0.00082127   -0.00043204
     atom    2 type  1   force =     0.00063461    0.00024156    0.00018483
     atom    3 type  2   force =    -0.00008831    0.00002822   -0.00007865
     atom    4 type  2   force =     0.00006253   -0.00001710   -0.00007631
     atom    5 type  2   force =    -0.00005548    0.00004417    0.00009112
     atom    6 type  2   force =     0.00006802   -0.00005486    0.00007646
     atom    7 type  3   force =     0.00003291    0.00004873   -0.00009446
     atom    8 type  3   force =    -0.00000573   -0.00004760   -0.00007734
     atom    9 type  3   force =    -0.00008536   -0.00002067    0.00009328
     atom   10 type  3   force =     0.00007407    0.00002368    0.00009930
     atom   11 type  3   force =     0.00002497   -0.00001716    0.00001482
     atom   12 type  3   force =    -0.00002986    0.00001429   -0.00015697
     atom   13 type  3   force =     0.00001232    0.00000965    0.00004185
     atom   14 type  3   force =    -0.00004176    0.00000200    0.00010029

     Total force =     0.174195     Total SCF correction =     0.001308

     Computing stress (Cartesian axis) and pressure

          total   stress  (Ry/bohr**3)                   (kbar)     P=       11.01
  -0.00008066   0.00010484   0.00000000          -11.86       15.42        0.00
   0.00010484   0.00003080   0.00000000           15.42        4.53        0.00
   0.00000000   0.00000000   0.00027444            0.00        0.00       40.37

     kinetic stress (kbar)   7678.94    -81.34      0.00
                              -81.34   7592.49      0.00
                                0.00      0.00   7771.08

     local   stress (kbar)  -2831.37   1205.22      0.00
                             1205.22  -1550.33     -0.00
                                0.00     -0.00  -7064.18

     nonloc. stress (kbar)   6503.56    -15.65      0.00
                              -15.65   6486.92      0.00
                                0.00      0.00   6520.56

     hartree stress (kbar)  16705.93   -709.07     -0.00
                             -709.07  15952.25      0.00
                               -0.00      0.00  18673.66

     exc-cor stress (kbar)   1400.18      1.31      0.00
                                1.31   1401.58     -0.00
                                0.00     -0.00   1400.32

     corecor stress (kbar)  -6346.89      1.93      0.00
                                1.93  -6344.84      0.00
                                0.00      0.00  -6347.47

     ewald   stress (kbar) -23122.22   -386.99      0.00
                             -386.99 -23533.53     -0.00
                                0.00     -0.00 -20913.59

     hubbard stress (kbar)      0.00      0.00      0.00
                                0.00      0.00      0.00
                                0.00      0.00      0.00

     DFT-D   stress (kbar)      0.00      0.00      0.00
                                0.00      0.00      0.00
                                0.00      0.00      0.00

     XDM     stress (kbar)      0.00      0.00      0.00
                                0.00      0.00      0.00
                                0.00      0.00      0.00

     dft-nl  stress (kbar)      0.00      0.00      0.00
                                0.00      0.00      0.00
                                0.00      0.00      0.00

     TS-vdW  stress (kbar)      0.00      0.00      0.00
                                0.00      0.00      0.00
                                0.00      0.00      0.00

[...]

                                0.00      0.00      0.00

     Writing all to output data dir new_calculations/myprefix.save/

     General routines

     Parallel routines

     PAW routines

   This run was terminated on:  11:32:17  21May2023

   JOB DONE.