     Program PWSCF v.7.0 starts on 21May2023 at 15:26:15

     Reading input from espresso_22839.pwi
Warning: card &CELL ignored
Warning: card / ignored

     Current dimensions of program PWSCF are:
     Max number of different atomic species (ntypx) = 10
     Max number of k-points (npk) =  40000
     Max angular momentum in pseudopotentials (lmaxx) =  4
     file Mg.pbe-n-kjpaw_psl.0.3.0.UPF: wavefunction(s)  3S renormalized

     gamma-point specific algorithms are used
     Message from routine setup:
     using ibrav=0 with symmetry is DISCOURAGED, use correct ibrav instead

     Subspace diagonalization in iterative solution of the eigenvalue problem:
     a serial algorithm will be used

     Using Slab Decomposition

     bravais-lattice index     =            0
     lattice parameter (alat)  =      10.4536  a.u.
     unit-cell volume          =     608.7666 (a.u.)^3
     number of atoms/cell      =            4
     number of atomic types    =            2
     number of electrons       =        38.00
     number of Kohn-Sham states=           23
     kinetic-energy cutoff     =      30.0000  Ry
     charge density cutoff     =     240.0000  Ry
     scf convergence threshold =      1.0E-06
     mixing beta               =       0.7000
     number of iterations used =            8  plain     mixing
     Exchange-correlation= SLA  PW   PBE  PBE
                           (   1   4   3   4   0   0   0)

     celldm(1)=  10.453623  celldm(2)=   0.000000  celldm(3)=   0.000000
     celldm(4)=   0.000000  celldm(5)=   0.000000  celldm(6)=   0.000000

     crystal axes: (cart. coord. in units of alat)
               a(1) = (   1.000000   0.000000   0.000000 )
               a(2) = (   0.351800   0.936075   0.000000 )
               a(3) = (  -0.675900  -0.468038   0.569298 )

     reciprocal axes: (cart. coord. in units 2 pi/alat)
               b(1) = (  1.000000 -0.375824  0.878275 )
               b(2) = (  0.000000  1.068290  0.878275 )
               b(3) = (  0.000000  0.000000  1.756550 )

     PseudoPot. # 1 for Mg read from file:
     /home/pragov/projects/rrg-bengioy-ad/pragov/crystal_structure_design/SSSP/Mg.pbe-n-kjpaw_psl.0.3.0.UPF
     MD5 check sum: 24ecedc7f3e3cbe212e682f4413594e4
     Pseudo is Projector augmented-wave + core cor, Zval =  2.0
     Generated using "atomic" code by A. Dal Corso  v.5.0.99 svn rev. 10869
     Shape of augmentation charge: PSQ
     Using radial grid of 1129 points,  4 beta functions with:
                l(1) =   0
                l(2) =   0
                l(3) =   1
                l(4) =   1
     Q(r) pseudized with 0 coefficients

     PseudoPot. # 2 for Zr read from file:
     /home/pragov/projects/rrg-bengioy-ad/pragov/crystal_structure_design/SSSP/Zr_pbe_v1.uspp.F.UPF
     MD5 check sum: 5db81b1e868ab7776c4564c113de050b
     Pseudo is Ultrasoft + core correction, Zval = 12.0
     Generated by new atomic code, or converted to UPF format
     Using radial grid of  887 points,  6 beta functions with:
                l(1) =   0
                l(2) =   0
                l(3) =   1
                l(4) =   1
                l(5) =   2
                l(6) =   2
     Q(r) pseudized with  6 coefficients,  rinner =    1.200   1.200   1.200
                                                       1.200   1.200

     atomic species   valence    mass     pseudopotential
        Mg             2.00    24.30500     Mg( 1.00)
        Zr            12.00    91.22400     Zr( 1.00)

      4 Sym. Ops., with inversion, found

                                    s                        frac. trans.

      isym =  1     identity

 cryst.   s( 1) = (     1          0          0      )
                  (     0          1          0      )
                  (     0          0          1      )

 cart.    s( 1) = (  1.0000000 -0.0000000  0.0000000 )
                  (  0.0000000  1.0000000 -0.0000000 )
                  (  0.0000000  0.0000000  1.0000000 )

      isym =  2     180 deg rotation - cart. axis [0,0,1]

[...]

      isym =  3     inversion

[...]

      isym =  4     inv. 180 deg rotation - cart. axis [0,0,1]

 cryst.   s( 4) = (     1          0          0      )
                  (     0          1          0      )
                  (    -1         -1         -1      )

 cart.    s( 4) = (  1.0000000 -0.0000000 -0.0000000 )
                  (  0.0000000  1.0000000 -0.0000000 )
                  (  0.0000000  0.0000000 -1.0000000 )

   Cartesian axes

     site n.     atom                  positions (alat units)
         1           Mg  tau(   1) = (   0.0000000   0.0000000   0.0000000  )
         2           Zr  tau(   2) = (   0.6759000   0.4680376   0.0000000  )
         3           Zr  tau(   3) = (   0.1759000   0.4680376   0.2846489  )
         4           Zr  tau(   4) = (   0.5000000   0.0000000   0.2846489  )

   Crystallographic axes

     site n.     atom                  positions (cryst. coord.)
         1           Mg  tau(   1) = (  0.0000000  0.0000000  0.0000000  )
         2           Zr  tau(   2) = (  0.5000000  0.5000000  0.0000000  )
         3           Zr  tau(   3) = (  0.2500000  0.7500000  0.5000000  )
         4           Zr  tau(   4) = (  0.7500000  0.2500000  0.5000000  )

     number of k points=     1  Methfessel-Paxton smearing, width (Ry)=  0.0010
                       cart. coord. in units 2pi/alat
        k(    1) = (   0.0000000   0.0000000   0.0000000), wk =   2.0000000

                       cryst. coord.
        k(    1) = (   0.0000000   0.0000000   0.0000000), wk =   2.0000000

     Check: negative core charge=   -0.000003

     Initial potential from superposition of free atoms

     starting charge      37.9926, renormalised to      38.0000

     negative rho (up, down):  1.817E-01 0.000E+00
     Starting wfcs are   43 randomized atomic wfcs
     Checking if some PAW data can be deallocated...

     Self-consistent Calculation

     iteration #  1     ecut=    30.00 Ry     beta= 0.70
     Davidson diagonalization with overlap

     ethr =  1.00E-02,  avg # of iterations =  2.0

     Threshold (ethr) on eigenvalues was too large:
     Diagonalizing with lowered threshold

     Davidson diagonalization with overlap

[...]

     negative rho (up, down):  1.787E-01 0.000E+00

     total energy              =    -331.19097206 Ry
     estimated scf accuracy    <       0.20100830 Ry

[...]

     total energy              =    -331.25414127 Ry
     estimated scf accuracy    <       0.00000211 Ry

     iteration # 13     ecut=    30.00 Ry     beta= 0.70
     Davidson diagonalization with overlap

     ethr =  5.56E-09,  avg # of iterations =  6.0

[...]

     End of self-consistent calculation

          k = 0.0000 0.0000 0.0000 (   836 PWs)   bands (ev):

   -37.5077 -36.3167 -36.2055 -16.1234 -15.3047 -15.3018 -14.5555 -14.5530
   -14.4823 -14.4342 -14.0132 -14.0077   5.8365   9.2748   9.9285  10.6158
    11.0422  11.0426  11.3933  11.7219  11.7255  13.7073  13.9693

     occupation numbers
     1.0000   1.0000   1.0000   1.0000   1.0000   1.0000   1.0000   1.0000
     1.0000   1.0000   1.0000   1.0000   1.0000   1.0000   1.0000   1.0000
     1.0000   1.0000   1.0000  -0.0000  -0.0000  -0.0000  -0.0000

     the Fermi energy is    11.4775 ev

!    total energy              =    -331.25414186 Ry
     estimated scf accuracy    <       0.00000054 Ry
     smearing contrib. (-TS)   =       0.00000000 Ry
     internal energy E=F+TS    =    -331.25414186 Ry

     The total energy is F=E-TS. E is the sum of the following terms:
     one-electron contribution =     -83.53223302 Ry
     hartree contribution      =      54.14905682 Ry
     xc contribution           =     -55.02349567 Ry
     ewald contribution        =    -215.54932094 Ry
     one-center paw contrib.   =     -31.29814906 Ry
      -> PAW hartree energy AE =       0.87416889 Ry
      -> PAW hartree energy PS =      -0.87207572 Ry
      -> PAW xc energy AE      =     -32.65381142 Ry
      -> PAW xc energy PS      =       1.35356920 Ry
      -> total E_H with PAW    =      54.15114999 Ry
      -> total E_XC with PAW   =     -86.32373790 Ry

     convergence has been achieved in  13 iterations

     negative rho (up, down):  1.792E-01 0.000E+00

     Forces acting on atoms (cartesian axes, Ry/au):

     atom    1 type  1   force =     0.00000000    0.00000000    0.00000000
     atom    2 type  2   force =     0.00000000    0.00000000    0.00000000
     atom    3 type  2   force =     0.00000000    0.00000000    0.00025347
     atom    4 type  2   force =     0.00000000    0.00000000   -0.00025347
     The non-local contrib.  to forces
     atom    1 type  1   force =     0.00000000    0.00000000    0.00000000
     atom    2 type  2   force =     0.00000000    0.00000000    0.00000000
     atom    3 type  2   force =     0.00000000    0.00000000    0.00006063
     atom    4 type  2   force =     0.00000000    0.00000000   -0.00006063
     The ionic contribution  to forces
     atom    1 type  1   force =    -0.00000000   -0.00000000    0.00000000
     atom    2 type  2   force =    -0.00000000   -0.00000000    0.00000000
     atom    3 type  2   force =     0.00000000    0.00000000   -0.00000000
     atom    4 type  2   force =     0.00000000    0.00000000   -0.00000000
     The local contribution  to forces
     atom    1 type  1   force =    -0.00000984   -0.00000588   -0.00000037
     atom    2 type  2   force =    -0.00009428   -0.00006185   -0.00000023
     atom    3 type  2   force =     0.00000583    0.00009207    0.00042384
     atom    4 type  2   force =     0.00003222   -0.00002276   -0.00042005
     The core correction contribution to forces
     atom    1 type  1   force =    -0.00000045   -0.00000028   -0.00000002
     atom    2 type  2   force =     0.00000190    0.00000195   -0.00000021
     atom    3 type  2   force =    -0.00000111   -0.00000325    0.00000079
     atom    4 type  2   force =    -0.00000374    0.00000058   -0.00000031
     The Hubbard contrib.    to forces
     atom    1 type  1   force =     0.00000000    0.00000000    0.00000000
     atom    2 type  2   force =     0.00000000    0.00000000    0.00000000
     atom    3 type  2   force =     0.00000000    0.00000000    0.00000000
     atom    4 type  2   force =     0.00000000    0.00000000    0.00000000
     The SCF correction term to forces
     atom    1 type  1   force =     0.00000520    0.00000321   -0.00000025
     atom    2 type  2   force =     0.00011470    0.00008575   -0.00000183
     atom    3 type  2   force =     0.00000880   -0.00013865   -0.00022761
     atom    4 type  2   force =    -0.00009509    0.00004696    0.00023171

     Total force =     0.000358     Total SCF correction =     0.000396
     SCF correction compared to forces is large: reduce conv_thr to get better values

     Computing stress (Cartesian axis) and pressure

     negative rho (up, down):  1.792E-01 0.000E+00
          total   stress  (Ry/bohr**3)                   (kbar)     P=     -182.56
  -0.00137212  -0.00013406   0.00000000         -201.85      -19.72        0.00
  -0.00013406  -0.00123206   0.00000000          -19.72     -181.24        0.00
   0.00000000   0.00000000  -0.00111896            0.00        0.00     -164.60

     kinetic stress (kbar)  13217.97   -397.42     -0.00
                             -397.42  13519.63     -0.00
                               -0.00     -0.00  13795.02

     local   stress (kbar)  -6542.98   1339.35     -0.33
                             1339.35  -7549.66     -0.25
                               -0.33     -0.25  -8475.84

     nonloc. stress (kbar)  10529.29      2.22     -0.00
                                2.22  10529.51     -0.00
                               -0.00     -0.00  10529.87

     hartree stress (kbar)   3971.86   -531.99     -0.11
                             -531.99   4372.46     -0.04
                               -0.11     -0.04   4740.50

     exc-cor stress (kbar)   1037.18     -8.07     -0.01
                               -8.07   1043.28     -0.00
                               -0.01     -0.00   1048.86

     corecor stress (kbar)  -4741.70      1.60     -0.07
                                1.60  -4742.75     -0.01
                               -0.07     -0.01  -4743.89

     ewald   stress (kbar) -17673.46   -425.41     -0.00
                             -425.41 -17353.71     -0.00
                               -0.00     -0.00 -17059.13

     hubbard stress (kbar)      0.00      0.00      0.00
                                0.00      0.00      0.00
                                0.00      0.00      0.00

     DFT-D   stress (kbar)      0.00      0.00      0.00
                                0.00      0.00      0.00
                                0.00      0.00      0.00

     XDM     stress (kbar)      0.00      0.00      0.00
                                0.00      0.00      0.00
                                0.00      0.00      0.00

     dft-nl  stress (kbar)      0.00      0.00      0.00
                                0.00      0.00      0.00
                                0.00      0.00      0.00

     TS-vdW  stress (kbar)      0.00      0.00      0.00
                                0.00      0.00      0.00
                                0.00      0.00      0.00

[...]

                                0.00      0.00      0.00

     Writing all to output data dir new_calculations/myprefix.save/

     General routines

     Parallel routines

     PAW routines

   This run was terminated on:  15:26:22  21May2023

   JOB DONE.