     Program PWSCF v.7.0 starts on 21May2023 at  5:36:52

     Reading input from espresso_20438.pwi
Warning: card &CELL ignored
Warning: card / ignored

     Current dimensions of program PWSCF are:
     Max number of different atomic species (ntypx) = 10
     Max number of k-points (npk) =  40000
     Max angular momentum in pseudopotentials (lmaxx) =  4

     gamma-point specific algorithms are used
     Message from routine setup:
     using ibrav=0 with symmetry is DISCOURAGED, use correct ibrav instead

     Subspace diagonalization in iterative solution of the eigenvalue problem:
     a serial algorithm will be used

     Using Slab Decomposition

     bravais-lattice index     =            0
     lattice parameter (alat)  =       8.1289  a.u.
     unit-cell volume          =    1282.8076 (a.u.)^3
     number of atoms/cell      =           10
     number of atomic types    =            3
     number of electrons       =       140.00
     number of Kohn-Sham states=           84
     kinetic-energy cutoff     =      30.0000  Ry
     charge density cutoff     =     240.0000  Ry
     scf convergence threshold =      1.0E-06
     mixing beta               =       0.7000
     number of iterations used =            8  plain     mixing
     Exchange-correlation=  SLA  PW   PBX  PBC
                           (   1   4   3   4   0   0   0)

     celldm(1)=   8.128918  celldm(2)=   0.000000  celldm(3)=   0.000000
     celldm(4)=   0.000000  celldm(5)=   0.000000  celldm(6)=   0.000000

     crystal axes: (cart. coord. in units of alat)
               a(1) = (   1.000000   0.000000   0.000000 )
               a(2) = (   0.000000   0.986657   0.000000 )
               a(3) = (   0.000000   0.004119   2.420456 )

     reciprocal axes: (cart. coord. in units 2 pi/alat)
               b(1) = (  1.000000  0.000000  0.000000 )
               b(2) = (  0.000000  1.013524 -0.001725 )
               b(3) = (  0.000000  0.000000  0.413145 )

     PseudoPot. # 1 for Ca read from file:
     /home/pragov/projects/rrg-bengioy-ad/pragov/crystal_structure_design/SSSP/Ca_pbe_v1.uspp.F.UPF
     MD5 check sum: 403a4c14b9e4d4dfdc3024c9a3812218
     Pseudo is Ultrasoft + core correction, Zval = 10.0
     Generated by new atomic code, or converted to UPF format
     Using radial grid of  845 points,  6 beta functions with:
                l(1) =   0
                l(2) =   0
                l(3) =   1
                l(4) =   1
                l(5) =   2
                l(6) =   2
     Q(r) pseudized with  8 coefficients,  rinner =    1.500   1.500   1.500
                                                       1.500   1.500

     PseudoPot. # 2 for Ge read from file:
     /home/pragov/projects/rrg-bengioy-ad/pragov/crystal_structure_design/SSSP/ge_pbe_v1.4.uspp.F.UPF
     MD5 check sum: 9c9eaa91e581c3f09632fb3098b2c6b2
     Pseudo is Ultrasoft + core correction, Zval = 14.0
     Generated by new atomic code, or converted to UPF format
     Using radial grid of  873 points,  6 beta functions with:
                l(1) =   0
                l(2) =   0
                l(3) =   1
                l(4) =   1
                l(5) =   2
                l(6) =   2
     Q(r) pseudized with  8 coefficients,  rinner =    1.400   1.400   1.400
                                                       1.400   1.400

     PseudoPot. # 3 for Pt read from file:
     /home/pragov/projects/rrg-bengioy-ad/pragov/crystal_structure_design/SSSP/pt_pbe_v1.4.uspp.F.UPF
     MD5 check sum: f09d6de1a584b5a045c4fc126da2d0c4
     Pseudo is Ultrasoft + core correction, Zval = 16.0
     Generated by new atomic code, or converted to UPF format
     Using radial grid of  985 points,  6 beta functions with:
                l(1) =   0
                l(2) =   0
                l(3) =   1
                l(4) =   1
                l(5) =   2
                l(6) =   2
     Q(r) pseudized with  8 coefficients,  rinner =    1.300   1.300   1.300
                                                       1.300   1.300

     atomic species   valence    mass     pseudopotential
        Ca            10.00    40.07800     Ca( 1.00)
        Ge            14.00    72.63000     Ge( 1.00)
        Pt            16.00   195.08400     Pt( 1.00)

      2 Sym. Ops. (no inversion) found ( 1 have fractional translation)

                                    s                        frac. trans.

      isym =  1     identity

 cryst.   s( 1) = (     1          0          0      )
                  (     0          1          0      )
                  (     0          0          1      )

 cart.    s( 1) = (  1.0000000  0.0000000  0.0000000 )
                  (  0.0000000  1.0000000  0.0000000 )
                  (  0.0000000  0.0000000  1.0000000 )

      isym =  2     180 deg rotation - cart. axis [1,0,0]

 cryst.   s( 2) = (     1          0          0      )    f =( -0.5000000 )
                  (     0         -1          0      )       ( -0.0000000 )
                  (     0          0         -1      )       ( -0.0000000 )

 cart.    s( 2) = (  1.0000000  0.0000000  0.0000000 )    f =( -0.5000000 )
                  (  0.0000000 -1.0000000 -0.0000000 )       ( -0.0000000 )
                  (  0.0000000  0.0000000 -1.0000000 )       ( -0.0000000 )

   Cartesian axes

     site n.     atom                  positions (alat units)
         1           Ca  tau(   1) = (   0.2549530   0.2474959   1.8186534  )
         2           Ca  tau(   2) = (   0.7549530   0.7432801   0.6018029  )
         3           Ge  tau(   3) = (   0.7448480   0.7521684   1.5291039  )
         4           Ge  tau(   4) = (   0.7655920   0.2500526   0.0064917  )
         5           Ge  tau(   5) = (   0.2655920   0.7407235   2.4139647  )
         6           Ge  tau(   6) = (   0.2448480   0.2386076   0.8913524  )
         7           Pt  tau(   7) = (   0.2425320   0.7307861   1.2122807  )
         8           Pt  tau(   8) = (   0.7640760   0.7461131   2.0965291  )
         9           Pt  tau(   9) = (   0.2640760   0.2446630   0.3239273  )
        10           Pt  tau(  10) = (   0.7425320   0.2599900   1.2081756  )

   Crystallographic axes

     site n.     atom                  positions (cryst. coord.)
         1           Ca  tau(   1) = (  0.2549530  0.2477060  0.7513680  )
         2           Ca  tau(   2) = (  0.7549530  0.7522940  0.2486320  )
         3           Ge  tau(   3) = (  0.7448480  0.7597030  0.6317420  )
         4           Ge  tau(   4) = (  0.7655920  0.2534230  0.0026820  )
         5           Ge  tau(   5) = (  0.2655920  0.7465770  0.9973180  )
         6           Ge  tau(   6) = (  0.2448480  0.2402970  0.3682580  )
         7           Pt  tau(   7) = (  0.2425320  0.7385780  0.5008480  )
         8           Pt  tau(   8) = (  0.7640760  0.7525870  0.8661710  )
         9           Pt  tau(   9) = (  0.2640760  0.2474130  0.1338290  )
        10           Pt  tau(  10) = (  0.7425320  0.2614220  0.4991520  )

     number of k points=     1  Methfessel-Paxton smearing, width (Ry)=  0.0010
                       cart. coord. in units 2pi/alat
        k(    1) = (   0.0000000   0.0000000   0.0000000), wk =   2.0000000

                       cryst. coord.
        k(    1) = (   0.0000000   0.0000000   0.0000000), wk =   2.0000000

     Check: negative core charge=   -0.000001

     Initial potential from superposition of free atoms

     starting charge     137.9855, renormalised to     140.0000

     negative rho (up, down):  7.450E-01 0.000E+00
     Starting wfcs are  104 randomized atomic wfcs

     Self-consistent Calculation

     iteration #  1     ecut=    30.00 Ry     beta= 0.70
     Davidson diagonalization with overlap

     ethr =  1.00E-02,  avg # of iterations =  2.0

     negative rho (up, down):  6.833E-01 0.000E+00

     total energy              =   -1842.48019559 Ry
     estimated scf accuracy    <       6.98967470 Ry

[...]

     total energy              =   -1847.14584815 Ry
     estimated scf accuracy    <       0.00000294 Ry

     iteration # 15     ecut=    30.00 Ry     beta= 0.70
     Davidson diagonalization with overlap

     ethr =  2.10E-09,  avg # of iterations =  2.0

[...]

     End of self-consistent calculation

          k = 0.0000 0.0000 0.0000 (  1764 PWs)   bands (ev):

   -39.0388 -39.0370 -38.9252 -38.9242 -38.9168 -38.9158 -38.5700 -38.5532
   -38.3945 -38.3858 -38.2991 -38.2979 -27.1078 -27.1077 -10.9268 -10.9263
   -10.9075 -10.9069 -10.9051 -10.9050 -10.8411 -10.8362 -10.8230 -10.8191
   -10.3225 -10.3134 -10.3062 -10.2839 -10.2798 -10.2779 -10.2676 -10.2616
   -10.1996 -10.1475  -8.1512  -8.1509  -8.1488  -8.1485  -8.1141  -8.1071
     2.2735   3.1386   4.3137   6.6041   7.5987   8.0863   8.5329   8.6795
     8.7633   9.1291   9.1648   9.1925   9.4001  10.2744  10.4129  10.4301
    10.4658  10.7143  10.9609  11.0209  11.2444  11.5451  11.9346  12.3474
    12.8354  12.9940  13.5373  13.6421  13.7214  13.8532  15.7358  15.7401
    15.9890  16.2113  16.4133  16.5698  16.6051  16.9666  16.9927  17.9097
    17.9676  18.2512  18.3714  18.4138

     occupation numbers
     1.0000   1.0000   1.0000   1.0000   1.0000   1.0000   1.0000   1.0000
     1.0000   1.0000   1.0000   1.0000   1.0000   1.0000   1.0000   1.0000
     1.0000   1.0000   1.0000   1.0000   1.0000   1.0000   1.0000   1.0000
     1.0000   1.0000   1.0000   1.0000   1.0000   1.0000   1.0000   1.0000
     1.0000   1.0000   1.0000   1.0000   1.0000   1.0000   1.0000   1.0000
     1.0000   1.0000   1.0000   1.0000   1.0000   1.0000   1.0000   1.0000
     1.0000   1.0000   1.0000   1.0000   1.0000   1.0000   1.0000   1.0000
     1.0000   1.0000   1.0000   1.0000   1.0000   1.0000   1.0000   1.0000
     1.0000   1.0000   1.0000   1.0000   1.0000   1.0000  -0.0000  -0.0000
    -0.0000  -0.0000  -0.0000  -0.0000  -0.0000  -0.0000  -0.0000  -0.0000
    -0.0000  -0.0000  -0.0000  -0.0000

     the Fermi energy is    14.9420 ev

!    total energy              =   -1847.14584859 Ry
     estimated scf accuracy    <       0.00000003 Ry
     smearing contrib. (-TS)   =       0.00000000 Ry
     internal energy E=F+TS    =   -1847.14584859 Ry

     The total energy is F=E-TS. E is the sum of the following terms:
     one-electron contribution =    -778.00725369 Ry
     hartree contribution      =     498.91142398 Ry
     xc contribution           =    -485.33847569 Ry
     ewald contribution        =   -1082.71154319 Ry

     convergence has been achieved in  15 iterations

     negative rho (up, down):  7.076E-01 0.000E+00

     Forces acting on atoms (cartesian axes, Ry/au):

     atom    1 type  1   force =    -0.00149646    0.00056695   -0.00717748
     atom    2 type  1   force =    -0.00149646   -0.00056695    0.00717748
     atom    3 type  2   force =    -0.00101516   -0.00735549   -0.05042470
     atom    4 type  2   force =    -0.00393375   -0.00435936   -0.00930653
     atom    5 type  2   force =    -0.00393375    0.00435936    0.00930653
     atom    6 type  2   force =    -0.00101516    0.00735549    0.05042470
     atom    7 type  3   force =     0.00262700   -0.00444448    0.00678530
     atom    8 type  3   force =     0.00381838    0.00477955   -0.13488622
     atom    9 type  3   force =     0.00381838   -0.00477955    0.13488622
     atom   10 type  3   force =     0.00262700    0.00444448   -0.00678530
     The non-local contrib.  to forces
     atom    1 type  1   force =     0.00196276   -0.00121994   -0.02222970
     atom    2 type  1   force =     0.00196276    0.00121994    0.02222970
     atom    3 type  2   force =    -0.00985040   -0.06654836   -0.09878334
     atom    4 type  2   force =     0.01845307    0.00145002    0.04535066
     atom    5 type  2   force =     0.01845307   -0.00145002   -0.04535066
     atom    6 type  2   force =    -0.00985040    0.06654836    0.09878334
     atom    7 type  3   force =     0.00408112    0.03802380    0.00026098
     atom    8 type  3   force =     0.00533947   -0.00065748    0.11499757
     atom    9 type  3   force =     0.00533947    0.00065748   -0.11499757
     atom   10 type  3   force =     0.00408112   -0.03802380   -0.00026098
     The ionic contribution  to forces
     atom    1 type  1   force =     0.00132503    0.16478265    1.07682284
     atom    2 type  1   force =     0.00132503   -0.16478265   -1.07682284
     atom    3 type  2   force =    -0.30476905    0.61920194   12.45490442
     atom    4 type  2   force =    -0.12064034   -0.20887221    0.39228048
     atom    5 type  2   force =    -0.12064034    0.20887221   -0.39228048
     atom    6 type  2   force =    -0.30476905   -0.61920194  -12.45490442
     atom    7 type  3   force =     0.17430208    0.81651305    0.48450171
     atom    8 type  3   force =     0.24978228    0.04929579  -10.03368644
     atom    9 type  3   force =     0.24978228   -0.04929579   10.03368644
     atom   10 type  3   force =     0.17430208   -0.81651305   -0.48450171
     The local contribution  to forces
     atom    1 type  1   force =    -0.00473328   -0.16299897   -1.06413224
     atom    2 type  1   force =    -0.00473879    0.16300242    1.06417496
     atom    3 type  2   force =     0.31333194   -0.56116962  -12.40344637
     atom    4 type  2   force =     0.09860428    0.20287878   -0.44580380
     atom    5 type  2   force =     0.09859803   -0.20288645    0.44621628
     atom    6 type  2   force =     0.31334103    0.56114663   12.40310917
     atom    7 type  3   force =    -0.17590348   -0.85250221   -0.47841627
     atom    8 type  3   force =    -0.25181497   -0.04445959    9.77077024
     atom    9 type  3   force =    -0.25182102    0.04450159   -9.77043243
     atom   10 type  3   force =    -0.17591002    0.85257315    0.47796161
     The core correction contribution to forces
     atom    1 type  1   force =    -0.00004870   -0.00002217    0.00258850
     atom    2 type  1   force =    -0.00004875    0.00002235   -0.00258913
     atom    3 type  2   force =     0.00026349    0.00115451   -0.00308356
     atom    4 type  2   force =    -0.00034775    0.00020728   -0.00087485
     atom    5 type  2   force =    -0.00034799   -0.00020705    0.00087424
     atom    6 type  2   force =     0.00026356   -0.00115506    0.00308314
     atom    7 type  3   force =     0.00015619   -0.00639449    0.00024240
     atom    8 type  3   force =     0.00050923    0.00068750    0.01322552
     atom    9 type  3   force =     0.00050863   -0.00068551   -0.01322138
     atom   10 type  3   force =     0.00015620    0.00639855   -0.00024469
     The Hubbard contrib.    to forces
     atom    1 type  1   force =     0.00000000    0.00000000    0.00000000
     atom    2 type  1   force =     0.00000000    0.00000000    0.00000000
     atom    3 type  2   force =     0.00000000    0.00000000    0.00000000
     atom    4 type  2   force =     0.00000000    0.00000000    0.00000000
     atom    5 type  2   force =     0.00000000    0.00000000    0.00000000
     atom    6 type  2   force =     0.00000000    0.00000000    0.00000000
     atom    7 type  3   force =     0.00000000    0.00000000    0.00000000
     atom    8 type  3   force =     0.00000000    0.00000000    0.00000000
     atom    9 type  3   force =     0.00000000    0.00000000    0.00000000
     atom   10 type  3   force =     0.00000000    0.00000000    0.00000000
     The SCF correction term to forces
     atom    1 type  1   force =    -0.00000368    0.00002573   -0.00022715
     atom    2 type  1   force =     0.00000071   -0.00002865    0.00018452
     atom    3 type  2   force =     0.00000928    0.00001009   -0.00000672
     atom    4 type  2   force =    -0.00001232   -0.00002113   -0.00028672
     atom    5 type  2   force =     0.00000880    0.00003276   -0.00018054
     atom    6 type  2   force =    -0.00000470    0.00002153    0.00036260
     atom    7 type  3   force =    -0.00001382   -0.00008401    0.00019035
     atom    8 type  3   force =     0.00000084   -0.00008191   -0.00019445
     atom    9 type  3   force =     0.00000657    0.00004742   -0.00015018
     atom   10 type  3   force =    -0.00000143    0.00001024    0.00025435

     Total force =     0.205316     Total SCF correction =     0.000717

     Computing stress (Cartesian axis) and pressure

     negative rho (up, down):  7.076E-01 0.000E+00
          total   stress  (Ry/bohr**3)                   (kbar)     P=        8.83
   0.00027712   0.00000000   0.00000000           40.77        0.00        0.00
   0.00000000   0.00018694  -0.00003047            0.00       27.50       -4.48
   0.00000000  -0.00003047  -0.00028389            0.00       -4.48      -41.76

     kinetic stress (kbar)  25741.48      0.00      0.00
                                0.00  25743.98    -13.68
                                0.00    -13.68  25293.73

     local   stress (kbar)   -153.53      0.00      0.00
                                0.00    588.89   -158.56
                                0.00   -158.56  14404.14

     nonloc. stress (kbar)   2148.38      0.00      0.00
                                0.00   2149.62     -6.51
                                0.00     -6.51   2363.86

     hartree stress (kbar)  21465.50     -0.00     -0.00
                               -0.00  21172.32     68.53
                               -0.00     68.53  14574.51

     exc-cor stress (kbar)  21734.29     -0.00     -0.00
                               -0.00  21734.22     -0.34
                               -0.00     -0.34  21733.95

     corecor stress (kbar) -32181.48     -0.00     -0.00
                               -0.00 -32181.81     -0.01
                               -0.00     -0.01 -32146.32

     ewald   stress (kbar) -38713.87      0.00      0.00
                                0.00 -39179.72    106.10
                                0.00    106.10 -46265.62

     hubbard stress (kbar)      0.00      0.00      0.00
                                0.00      0.00      0.00
                                0.00      0.00      0.00

     DFT-D   stress (kbar)      0.00      0.00      0.00
                                0.00      0.00      0.00
                                0.00      0.00      0.00

     XDM     stress (kbar)      0.00      0.00      0.00
                                0.00      0.00      0.00
                                0.00      0.00      0.00

     dft-nl  stress (kbar)      0.00      0.00      0.00
                                0.00      0.00      0.00
                                0.00      0.00      0.00

     TS-vdW  stress (kbar)      0.00      0.00      0.00
                                0.00      0.00      0.00
                                0.00      0.00      0.00

[...]

                                0.00      0.00      0.00

     Writing all to output data dir new_calculations/myprefix.save/

     General routines

     Parallel routines

   This run was terminated on:   5:37:14  21May2023

   JOB DONE.