     Program PWSCF v.7.0 starts on 20May2023 at  8: 0: 9

     Reading input from espresso_1251.pwi
Warning: card &CELL ignored
Warning: card / ignored

     Current dimensions of program PWSCF are:
     Max number of different atomic species (ntypx) = 10
     Max number of k-points (npk) =  40000
     Max angular momentum in pseudopotentials (lmaxx) =  4

     gamma-point specific algorithms are used
     Message from routine setup:
     using ibrav=0 with symmetry is DISCOURAGED, use correct ibrav instead

     Subspace diagonalization in iterative solution of the eigenvalue problem:
     a serial algorithm will be used

     Using Slab Decomposition

     bravais-lattice index     =            0
     lattice parameter (alat)  =      13.2572  a.u.
     unit-cell volume          =    1995.5246 (a.u.)^3
     number of atoms/cell      =           12
     number of atomic types    =            3
     number of electrons       =        96.00
     number of Kohn-Sham states=           58
     kinetic-energy cutoff     =      30.0000  Ry
     charge density cutoff     =     240.0000  Ry
     scf convergence threshold =      1.0E-06
     mixing beta               =       0.7000
     number of iterations used =            8  plain     mixing
     Exchange-correlation= SLA  PW   PBE  PBE
                           (   1   4   3   4   0   0   0)

     celldm(1)=  13.257200  celldm(2)=   0.000000  celldm(3)=   0.000000
     celldm(4)=   0.000000  celldm(5)=   0.000000  celldm(6)=   0.000000

     crystal axes: (cart. coord. in units of alat)
               a(1) = (   1.000000   0.000000   0.000000 )
               a(2) = (  -0.501236   0.865310   0.000000 )
               a(3) = (   0.168940   0.293095   0.989759 )

     reciprocal axes: (cart. coord. in units 2 pi/alat)
               b(1) = (  1.000000  0.579256 -0.342221 )
               b(2) = (  0.000000  1.155655 -0.342221 )
               b(3) = (  0.000000  0.000000  1.010346 )

     PseudoPot. # 1 for Na read from file:
     /home/pragov/projects/rrg-bengioy-ad/pragov/crystal_structure_design/SSSP/na_pbe_v1.5.uspp.F.UPF
     MD5 check sum: 44600605ef58000f06b90626533354dc
     Pseudo is Ultrasoft, Zval =  9.0
     Generated by new atomic code, or converted to UPF format
     Using radial grid of  819 points,  5 beta functions with:
                l(1) =   0
                l(2) =   0
                l(3) =   1
                l(4) =   1
                l(5) =   2
     Q(r) pseudized with  8 coefficients,  rinner =    1.250   1.250   1.250
                                                       1.250   1.250

     PseudoPot. # 2 for Zr read from file:
     /home/pragov/projects/rrg-bengioy-ad/pragov/crystal_structure_design/SSSP/Zr_pbe_v1.uspp.F.UPF
     MD5 check sum: 5db81b1e868ab7776c4564c113de050b
     Pseudo is Ultrasoft + core correction, Zval = 12.0
     Generated by new atomic code, or converted to UPF format
     Using radial grid of  887 points,  6 beta functions with:
                l(1) =   0
                l(2) =   0
                l(3) =   1
                l(4) =   1
                l(5) =   2
                l(6) =   2
     Q(r) pseudized with  6 coefficients,  rinner =    1.200   1.200   1.200
                                                       1.200   1.200

     PseudoPot. # 3 for Se read from file:
     /home/pragov/projects/rrg-bengioy-ad/pragov/crystal_structure_design/SSSP/Se_pbe_v1.uspp.F.UPF
     MD5 check sum: 1b3568f3a8ae88f9a2a0ad0698632c85
     Pseudo is Ultrasoft + core correction, Zval =  6.0
     Generated by new atomic code, or converted to UPF format
     Using radial grid of  877 points,  6 beta functions with:
                l(1) =   0
                l(2) =   0
                l(3) =   1
                l(4) =   1
                l(5) =   2
                l(6) =   2
     Q(r) pseudized with  8 coefficients,  rinner =    1.300   1.300   1.300
                                                       1.300   1.300

     atomic species   valence    mass     pseudopotential
        Na             9.00    22.98977     Na( 1.00)
        Zr            12.00    91.22400     Zr( 1.00)
        Se             6.00    78.97100     Se( 1.00)

      2 Sym. Ops., with inversion, found

                                    s                        frac. trans.

      isym =  1     identity

 cryst.   s( 1) = (     1          0          0      )
                  (     0          1          0      )
                  (     0          0          1      )

 cart.    s( 1) = (  1.0000000 -0.0000000 -0.0000000 )
                  (  0.0000000  1.0000000  0.0000000 )
                  (  0.0000000  0.0000000  1.0000000 )

      isym =  2     inversion

 cryst.   s( 2) = (    -1          0          0      )
                  (     0         -1          0      )
                  (     0          0         -1      )

 cart.    s( 2) = ( -1.0000000  0.0000000  0.0000000 )
                  (  0.0000000 -1.0000000 -0.0000000 )
                  (  0.0000000  0.0000000 -1.0000000 )

   Cartesian axes

     site n.     atom                  positions (alat units)
         1           Na  tau(   1) = (   0.0000000   0.0000000   0.0000000  )
         2           Na  tau(   2) = (   0.3338516   0.5792028   0.4948797  )
         3           Na  tau(   3) = (   0.8478254   0.2829490   0.4948797  )
         4           Na  tau(   4) = (  -0.1801221   0.8754565   0.4948797  )
         5           Zr  tau(   5) = (  -0.0039863   0.5786963   0.0000000  )
         6           Zr  tau(   6) = (   0.5027500   0.2866142   0.0000000  )
         7           Se  tau(   7) = (   0.1374475   0.8654610   0.2219031  )
         8           Se  tau(   8) = (   0.4874418   0.8456679   0.7692480  )
         9           Se  tau(   9) = (   0.5302558   0.2929445   0.7678564  )
        10           Se  tau(  10) = (  -0.0122955   0.6056703   0.7678564  )
        11           Se  tau(  11) = (   0.6799988   0.5527352   0.2219031  )
        12           Se  tau(  12) = (   0.1802615   0.3127376   0.2205115  )

   Crystallographic axes

     site n.     atom                  positions (cryst. coord.)
         1           Na  tau(   1) = (  0.0000000  0.0000000  0.0000000  )
         2           Na  tau(   2) = (  0.5000000  0.5000000  0.5000000  )
         3           Na  tau(   3) = (  0.8423670  0.1576330  0.5000000  )
         4           Na  tau(   4) = (  0.1576330  0.8423670  0.5000000  )
         5           Zr  tau(   5) = (  0.3312270  0.6687730  0.0000000  )
         6           Zr  tau(   6) = (  0.6687730  0.3312270  0.0000000  )
         7           Se  tau(   7) = (  0.5628310  0.9242340  0.2241990  )
         8           Se  tau(   8) = (  0.7140470  0.7140470  0.7772070  )
         9           Se  tau(   9) = (  0.4371690  0.0757660  0.7758010  )
        10           Se  tau(  10) = (  0.0757660  0.4371690  0.7758010  )
        11           Se  tau(  11) = (  0.9242340  0.5628310  0.2241990  )
        12           Se  tau(  12) = (  0.2859530  0.2859530  0.2227930  )

     number of k points=     1  Methfessel-Paxton smearing, width (Ry)=  0.0010
                       cart. coord. in units 2pi/alat
        k(    1) = (   0.0000000   0.0000000   0.0000000), wk =   2.0000000

                       cryst. coord.
        k(    1) = (   0.0000000   0.0000000   0.0000000), wk =   2.0000000

     Initial potential from superposition of free atoms

     starting charge      95.9701, renormalised to      96.0000

     negative rho (up, down):  1.218E-01 0.000E+00
     Starting wfcs are   70 randomized atomic wfcs

     Self-consistent Calculation

     iteration #  1     ecut=    30.00 Ry     beta= 0.70
     Davidson diagonalization with overlap

     ethr =  1.00E-02,  avg # of iterations =  2.0

     Threshold (ethr) on eigenvalues was too large:
     Diagonalizing with lowered threshold

     Davidson diagonalization with overlap

[...]

     negative rho (up, down):  1.253E-01 0.000E+00

     total energy              =    -842.05264291 Ry
     estimated scf accuracy    <       0.67391363 Ry

[...]

     total energy              =    -842.32538292 Ry
     estimated scf accuracy    <       0.00000439 Ry

     iteration # 11     ecut=    30.00 Ry     beta= 0.70
     Davidson diagonalization with overlap

     ethr =  4.57E-09,  avg # of iterations =  4.0

[...]

     End of self-consistent calculation

          k = 0.0000 0.0000 0.0000 (  2769 PWs)   bands (ev):

   -46.1312 -46.1311 -46.0423 -45.5830 -44.3456 -44.3419 -22.3981 -22.3812
   -22.3020 -22.2813 -22.2534 -22.2414 -18.0532 -18.0469 -18.0433 -18.0421
   -18.0259 -18.0255 -17.9615 -17.9603 -17.9345 -17.5039 -17.4989 -17.4918
    -6.9816  -6.1839  -6.1642  -6.1299  -6.0750  -6.0712   1.4962   1.7706
     2.2335   2.4528   2.4536   2.5653   2.8678   2.8945   3.1521   3.1655
     3.4174   3.4880   4.1140   4.4815   4.5700   5.0282   5.2210   5.2635
     6.9220   6.9449   7.0248   7.1061   7.4403   7.6013   8.5490   8.9686
     9.3211   9.3872

     occupation numbers
     1.0000   1.0000   1.0000   1.0000   1.0000   1.0000   1.0000   1.0000
     1.0000   1.0000   1.0000   1.0000   1.0000   1.0000   1.0000   1.0000
     1.0000   1.0000   1.0000   1.0000   1.0000   1.0000   1.0000   1.0000
     1.0000   1.0000   1.0000   1.0000   1.0000   1.0000   1.0000   1.0000
     1.0000   1.0000   1.0000   1.0000   1.0000   1.0000   1.0000   1.0000
     1.0000   1.0000   1.0000   1.0000   1.0000   1.0000   1.0000   1.0000
    -0.0000  -0.0000  -0.0000  -0.0000  -0.0000  -0.0000  -0.0000  -0.0000
    -0.0000  -0.0000

     the Fermi energy is     6.0363 ev

!    total energy              =    -842.32538340 Ry
     estimated scf accuracy    <       0.00000020 Ry
     smearing contrib. (-TS)   =       0.00000000 Ry
     internal energy E=F+TS    =    -842.32538340 Ry

     The total energy is F=E-TS. E is the sum of the following terms:
     one-electron contribution =    -383.61316025 Ry
     hartree contribution      =     220.46481470 Ry
     xc contribution           =    -271.57870302 Ry
     ewald contribution        =    -407.59833484 Ry

     convergence has been achieved in  11 iterations

     negative rho (up, down):  1.273E-01 0.000E+00

     Forces acting on atoms (cartesian axes, Ry/au):

     atom    1 type  1   force =     0.00000000    0.00000000    0.00000000
     atom    2 type  1   force =     0.00000000    0.00000000    0.00000000
     atom    3 type  1   force =     0.00081875   -0.00046175   -0.00000448
     atom    4 type  1   force =    -0.00081875    0.00046175    0.00000448
     atom    5 type  2   force =    -0.00511879    0.00293871   -0.00000194
     atom    6 type  2   force =     0.00511879   -0.00293871    0.00000194
     atom    7 type  3   force =    -0.00017952   -0.00537101   -0.00598804
     atom    8 type  3   force =     0.00440648    0.00764579    0.01022924
     atom    9 type  3   force =     0.00017952    0.00537101    0.00598804
     atom   10 type  3   force =     0.00455655    0.00284834    0.00599318
     atom   11 type  3   force =    -0.00455655   -0.00284834   -0.00599318
     atom   12 type  3   force =    -0.00440648   -0.00764579   -0.01022924
     The non-local contrib.  to forces
     atom    1 type  1   force =     0.00000000    0.00000000    0.00000000
     atom    2 type  1   force =     0.00000000    0.00000000    0.00000000
     atom    3 type  1   force =     0.07993781   -0.04608907   -0.00002544
     atom    4 type  1   force =    -0.07993781    0.04608907    0.00002544
     atom    5 type  2   force =     0.00459455   -0.00265511   -0.00000044
     atom    6 type  2   force =    -0.00459455    0.00265511    0.00000044
     atom    7 type  3   force =    -0.01996765    0.00992910   -0.05223372
     atom    8 type  3   force =    -0.02128966   -0.03693180    0.02817451
     atom    9 type  3   force =     0.01996765   -0.00992910    0.05223372
     atom   10 type  3   force =    -0.01860653    0.01229660    0.05224102
     atom   11 type  3   force =     0.01860653   -0.01229660   -0.05224102
     atom   12 type  3   force =     0.02128966    0.03693180   -0.02817451
     The ionic contribution  to forces
     atom    1 type  1   force =    -0.00000000    0.00000000   -0.00000000
     atom    2 type  1   force =    -0.00000000    0.00000000    0.00000000
     atom    3 type  1   force =     0.59716743   -0.34420646    0.00000000
     atom    4 type  1   force =    -0.59716743    0.34420646    0.00000000
     atom    5 type  2   force =     0.15263243   -0.08797712   -0.00000000
     atom    6 type  2   force =    -0.15263243    0.08797711   -0.00000000
     atom    7 type  3   force =     1.42207777   -0.05521831    2.86721272
     atom    8 type  3   force =     0.63160826    1.09578384   -2.53361383
     atom    9 type  3   force =    -1.42207777    0.05521831   -2.86721272
     atom   10 type  3   force =     0.76057795   -1.20286135   -2.86721272
     atom   11 type  3   force =    -0.76057795    1.20286135    2.86721272
     atom   12 type  3   force =    -0.63160826   -1.09578384    2.53361383
     The local contribution  to forces
     atom    1 type  1   force =    -0.00001601    0.00001546   -0.00000426
     atom    2 type  1   force =    -0.00003850    0.00001150    0.00001540
     atom    3 type  1   force =    -0.67630735    0.38981752    0.00000462
     atom    4 type  1   force =     0.67638103   -0.38985678   -0.00000156
     atom    5 type  2   force =    -0.16236226    0.09352333   -0.00001784
     atom    6 type  2   force =     0.16243258   -0.09360275    0.00001995
     atom    7 type  3   force =    -1.40336249    0.04105574   -2.82544859
     atom    8 type  3   force =    -0.60797856   -1.05472467    2.51760556
     atom    9 type  3   force =     1.40338655   -0.04107627    2.82545887
     atom   10 type  3   force =    -0.73891550    1.19379260    2.82546337
     atom   11 type  3   force =     0.73897134   -1.19380285   -2.82548153
     atom   12 type  3   force =     0.60791760    1.05476624   -2.51760561
     The core correction contribution to forces
     atom    1 type  1   force =     0.00000000    0.00000000    0.00000000
     atom    2 type  1   force =     0.00000000    0.00000000    0.00000000
     atom    3 type  1   force =     0.00000000    0.00000000    0.00000000
     atom    4 type  1   force =     0.00000000    0.00000000    0.00000000
     atom    5 type  2   force =    -0.00022987    0.00013226   -0.00000013
     atom    6 type  2   force =     0.00023109   -0.00013280    0.00000058
     atom    7 type  3   force =     0.00096464   -0.00111814    0.00421209
     atom    8 type  3   force =     0.00198049    0.00343733   -0.00176016
     atom    9 type  3   force =    -0.00096324    0.00111705   -0.00421285
     atom   10 type  3   force =     0.00145256   -0.00027273   -0.00421369
     atom   11 type  3   force =    -0.00144990    0.00027288    0.00421342
     atom   12 type  3   force =    -0.00198157   -0.00343574    0.00175969
     The Hubbard contrib.    to forces
     atom    1 type  1   force =     0.00000000    0.00000000    0.00000000
     atom    2 type  1   force =     0.00000000    0.00000000    0.00000000
     atom    3 type  1   force =     0.00000000    0.00000000    0.00000000
     atom    4 type  1   force =     0.00000000    0.00000000    0.00000000
     atom    5 type  2   force =     0.00000000    0.00000000    0.00000000
     atom    6 type  2   force =     0.00000000    0.00000000    0.00000000
     atom    7 type  3   force =     0.00000000    0.00000000    0.00000000
     atom    8 type  3   force =     0.00000000    0.00000000    0.00000000
     atom    9 type  3   force =     0.00000000    0.00000000    0.00000000
     atom   10 type  3   force =     0.00000000    0.00000000    0.00000000
     atom   11 type  3   force =     0.00000000    0.00000000    0.00000000
     atom   12 type  3   force =     0.00000000    0.00000000    0.00000000
     The SCF correction term to forces
     atom    1 type  1   force =     0.00003018   -0.00001454    0.00002302
     atom    2 type  1   force =     0.00002981   -0.00001763    0.00000191
     atom    3 type  1   force =     0.00004197    0.00000706    0.00001039
     atom    4 type  1   force =    -0.00007344    0.00001379   -0.00002535
     atom    5 type  2   force =     0.00025424   -0.00009210    0.00001831
     atom    6 type  2   force =    -0.00031003    0.00015717   -0.00001721
     atom    7 type  3   force =     0.00011452   -0.00001887    0.00026784
     atom    8 type  3   force =     0.00008137    0.00008532   -0.00017643
     atom    9 type  3   force =    -0.00012736    0.00004154   -0.00028060
     atom   10 type  3   force =     0.00005466   -0.00010954   -0.00028459
     atom   11 type  3   force =    -0.00009996    0.00011411    0.00030346
     atom   12 type  3   force =    -0.00002849   -0.00012002    0.00017776

     Total force =     0.026373     Total SCF correction =     0.000831

     Computing stress (Cartesian axis) and pressure

     negative rho (up, down):  1.273E-01 0.000E+00
          total   stress  (Ry/bohr**3)                   (kbar)     P=      -15.09
  -0.00012199  -0.00000461  -0.00004950          -17.95       -0.68       -7.28
  -0.00000461  -0.00012733  -0.00008586           -0.68      -18.73      -12.63
  -0.00004950  -0.00008586  -0.00005846           -7.28      -12.63       -8.60

     kinetic stress (kbar)   7956.45      3.37     -4.41
                                3.37   7960.35     -7.66
                               -4.41     -7.66   7954.35

     local   stress (kbar)   6408.55      5.88     34.07
                                5.88   6415.37     59.11
                               34.07     59.11   7684.83

     nonloc. stress (kbar)  -7187.92     -0.63     -2.94
                               -0.63  -7188.65     -5.10
                               -2.94     -5.10  -7192.90

     hartree stress (kbar)   5588.43     -1.46    -11.42
                               -1.46   5586.73    -19.82
                              -11.42    -19.82   5076.95

     exc-cor stress (kbar)   9018.17      0.10      0.09
                                0.10   9018.29      0.15
                                0.09      0.15   9017.65

     corecor stress (kbar) -12037.43     -0.28      0.26
                               -0.28 -12037.75      0.46
                                0.26      0.46 -12039.62

     ewald   stress (kbar)  -9764.19     -7.67    -22.92
                               -7.67  -9773.08    -39.77
                              -22.92    -39.77 -10509.86

     hubbard stress (kbar)      0.00      0.00      0.00
                                0.00      0.00      0.00
                                0.00      0.00      0.00

     DFT-D   stress (kbar)      0.00      0.00      0.00
                                0.00      0.00      0.00
                                0.00      0.00      0.00

     XDM     stress (kbar)      0.00      0.00      0.00
                                0.00      0.00      0.00
                                0.00      0.00      0.00

     dft-nl  stress (kbar)      0.00      0.00      0.00
                                0.00      0.00      0.00
                                0.00      0.00      0.00

     TS-vdW  stress (kbar)      0.00      0.00      0.00
                                0.00      0.00      0.00
                                0.00      0.00      0.00

[...]

                                0.00      0.00      0.00

     Writing all to output data dir new_calculations/myprefix.save/

     General routines

     Parallel routines

   This run was terminated on:   8: 0:35  20May2023

   JOB DONE.