     Program PWSCF v.7.0 starts on 20May2023 at 23:55:38

     Reading input from espresso_20305.pwi
Warning: card &CELL ignored
Warning: card / ignored

     Current dimensions of program PWSCF are:
     Max number of different atomic species (ntypx) = 10
     Max number of k-points (npk) =  40000
     Max angular momentum in pseudopotentials (lmaxx) =  4
     file Mg.pbe-n-kjpaw_psl.0.3.0.UPF: wavefunction(s)  3S renormalized

     gamma-point specific algorithms are used
     Message from routine setup:
     using ibrav=0 with symmetry is DISCOURAGED, use correct ibrav instead

     Subspace diagonalization in iterative solution of the eigenvalue problem:
     a serial algorithm will be used

     Using Slab Decomposition

     bravais-lattice index     =            0
     lattice parameter (alat)  =      11.6301  a.u.
     unit-cell volume          =     938.4947 (a.u.)^3
     number of atoms/cell      =            6
     number of atomic types    =            2
     number of electrons       =        84.00
     number of Kohn-Sham states=           50
     kinetic-energy cutoff     =      30.0000  Ry
     charge density cutoff     =     240.0000  Ry
     scf convergence threshold =      1.0E-06
     mixing beta               =       0.7000
     number of iterations used =            8  plain     mixing
     Exchange-correlation= PBE
                           (   1   4   3   4   0   0   0)

     celldm(1)=  11.630095  celldm(2)=   0.000000  celldm(3)=   0.000000
     celldm(4)=   0.000000  celldm(5)=   0.000000  celldm(6)=   0.000000

     crystal axes: (cart. coord. in units of alat)
               a(1) = (   1.000000   0.000000   0.000000 )
               a(2) = (   0.837096   0.547056   0.000000 )
               a(3) = (   0.363606   0.108276   1.090562 )

     reciprocal axes: (cart. coord. in units 2 pi/alat)
               b(1) = (  1.000000 -1.530184 -0.181489 )
               b(2) = (  0.000000  1.827967 -0.181489 )
               b(3) = (  0.000000  0.000000  0.916958 )

     PseudoPot. # 1 for Mg read from file:
     /home/pragov/projects/rrg-bengioy-ad/pragov/crystal_structure_design/SSSP/Mg.pbe-n-kjpaw_psl.0.3.0.UPF
     MD5 check sum: 24ecedc7f3e3cbe212e682f4413594e4
     Pseudo is Projector augmented-wave + core cor, Zval =  2.0
     Generated using "atomic" code by A. Dal Corso  v.5.0.99 svn rev. 10869
     Shape of augmentation charge: PSQ
     Using radial grid of 1129 points,  4 beta functions with:
                l(1) =   0
                l(2) =   0
                l(3) =   1
                l(4) =   1
     Q(r) pseudized with 0 coefficients

     PseudoPot. # 2 for Hg read from file:
     /home/pragov/projects/rrg-bengioy-ad/pragov/crystal_structure_design/SSSP/Hg_ONCV_PBE-1.0.oncvpsp.upf
     MD5 check sum: dd5a8773074bfcf4280086d4d95875c4
     Pseudo is Norm-conserving, Zval = 20.0
     Generated using ONCVPSP code by D. R. Hamann
     Using radial grid of 1262 points,  8 beta functions with:
                l(1) =   0
                l(2) =   0
                l(3) =   1
                l(4) =   1
                l(5) =   2
                l(6) =   2
                l(7) =   3
                l(8) =   3

     atomic species   valence    mass     pseudopotential
        Mg             2.00    24.30500     Mg( 1.00)
        Hg            20.00   200.59200     Hg( 1.00)

      2 Sym. Ops., with inversion, found

                                    s                        frac. trans.

      isym =  1     identity

 cryst.   s( 1) = (     1          0          0      )
                  (     0          1          0      )
                  (     0          0          1      )

 cart.    s( 1) = (  1.0000000  0.0000000  0.0000000 )
                  (  0.0000000  1.0000000 -0.0000000 )
                  (  0.0000000  0.0000000  1.0000000 )

      isym =  2     inversion

 cryst.   s( 2) = (    -1          0          0      )
                  (     0         -1          0      )
                  (     0          0         -1      )

 cart.    s( 2) = ( -1.0000000 -0.0000000 -0.0000000 )
                  (  0.0000000 -1.0000000  0.0000000 )
                  (  0.0000000  0.0000000 -1.0000000 )

   Cartesian axes

     site n.     atom                  positions (alat units)
         1           Mg  tau(   1) = (   0.3150765   0.0938244   0.7847654  )
         2           Mg  tau(   2) = (   1.8856260   0.5615072   0.3057969  )
         3           Hg  tau(   3) = (   1.5275264   0.4548712   1.0387911  )
         4           Hg  tau(   4) = (   0.6731761   0.2004603   0.0517712  )
         5           Hg  tau(   5) = (   1.3631876   0.4059339   0.4157998  )
         6           Hg  tau(   6) = (   0.8375150   0.2493976   0.6747625  )

   Crystallographic axes

     site n.     atom                  positions (cryst. coord.)
         1           Mg  tau(   1) = (  0.0290820  0.0290820  0.7195970  )
         2           Mg  tau(   2) = (  0.9709180  0.9709180  0.2804030  )
         3           Hg  tau(   3) = (  0.6429610  0.6429610  0.9525280  )
         4           Hg  tau(   4) = (  0.3570390  0.3570390  0.0474720  )
         5           Hg  tau(   5) = (  0.6665710  0.6665710  0.3812710  )
         6           Hg  tau(   6) = (  0.3334290  0.3334290  0.6187290  )

     number of k points=     1  Methfessel-Paxton smearing, width (Ry)=  0.0010
                       cart. coord. in units 2pi/alat
        k(    1) = (   0.0000000   0.0000000   0.0000000), wk =   2.0000000

                       cryst. coord.
        k(    1) = (   0.0000000   0.0000000   0.0000000), wk =   2.0000000

     Initial potential from superposition of free atoms

     starting charge      83.9979, renormalised to      84.0000
     Starting wfcs are   48 randomized atomic wfcs +    2 random wfcs
     Checking if some PAW data can be deallocated...

     Self-consistent Calculation

     iteration #  1     ecut=    30.00 Ry     beta= 0.70
     Davidson diagonalization with overlap

     ethr =  1.00E-02,  avg # of iterations =  6.0

     Threshold (ethr) on eigenvalues was too large:
     Diagonalizing with lowered threshold

     Davidson diagonalization with overlap

[...]

     total energy              =   -1307.49980884 Ry
     estimated scf accuracy    <       0.27908205 Ry

[...]

     total energy              =   -1307.60362603 Ry
     estimated scf accuracy    <       0.00000111 Ry

     iteration #  9     ecut=    30.00 Ry     beta= 0.70
     Davidson diagonalization with overlap

     ethr =  1.32E-09,  avg # of iterations =  3.0

     End of self-consistent calculation

          k = 0.0000 0.0000 0.0000 (  1298 PWs)   bands (ev):

  -105.1087-105.1082-104.9910-104.9898 -52.9651 -52.9601 -52.9278 -52.9211
   -52.8921 -52.8802 -52.8631 -52.8597 -52.8095 -52.8077 -52.7584 -52.7574
     2.7390   3.5900   3.6879   3.7734   3.8489   4.0114   4.0638   4.1558
     4.2444   4.2923   4.3034   4.3471   4.4504   4.5951   4.6365   4.6898
     4.7699   4.7825   4.9086   4.9454   5.0663   6.6939   7.0731   8.4586
     9.1634   9.7524   9.8697  15.6566  15.6603  17.1932  17.2993  17.3907
    17.3926  18.0728

     occupation numbers
     1.0000   1.0000   1.0000   1.0000   1.0000   1.0000   1.0000   1.0000
     1.0000   1.0000   1.0000   1.0000   1.0000   1.0000   1.0000   1.0000
     1.0000   1.0000   1.0000   1.0000   1.0000   1.0000   1.0000   1.0000
     1.0000   1.0000   1.0000   1.0000   1.0000   1.0000   1.0000   1.0000
     1.0000   1.0000   1.0000   1.0000   1.0000   1.0000   1.0000   1.0000
     1.0000   1.0000  -0.0000  -0.0000  -0.0000  -0.0000  -0.0000  -0.0000
    -0.0000  -0.0000

     the Fermi energy is     9.8111 ev

!    total energy              =   -1307.60362623 Ry
     estimated scf accuracy    <       0.00000011 Ry
     smearing contrib. (-TS)   =       0.00000000 Ry
     internal energy E=F+TS    =   -1307.60362623 Ry

     The total energy is F=E-TS. E is the sum of the following terms:
     one-electron contribution =    -782.67987445 Ry
     hartree contribution      =     396.25668428 Ry
     xc contribution           =    -112.74525850 Ry
     ewald contribution        =    -745.88345101 Ry
     one-center paw contrib.   =     -62.55172656 Ry
      -> PAW hartree energy AE =       1.20210303 Ry
      -> PAW hartree energy PS =      -1.19935861 Ry
      -> PAW xc energy AE      =     -64.98067422 Ry
      -> PAW xc energy PS      =       2.42620324 Ry
      -> total E_H with PAW    =     396.25942871 Ry
      -> total E_XC with PAW   =    -175.29972948 Ry

     convergence has been achieved in   9 iterations

     Forces acting on atoms (cartesian axes, Ry/au):

     atom    1 type  1   force =     0.00499871    0.00148873    0.00355477
     atom    2 type  1   force =    -0.00499871   -0.00148873   -0.00355477
     atom    3 type  2   force =     0.03232441    0.00961473   -0.04043549
     atom    4 type  2   force =    -0.03232441   -0.00961473    0.04043549
     atom    5 type  2   force =     0.03170724    0.00941662   -0.03469528
     atom    6 type  2   force =    -0.03170724   -0.00941662    0.03469528
     The non-local contrib.  to forces
     atom    1 type  1   force =    -0.01155344   -0.00344078   -0.01065860
     atom    2 type  1   force =     0.01155344    0.00344078    0.01065860
     atom    3 type  2   force =    -0.01367244   -0.00408154    0.16804720
     atom    4 type  2   force =     0.01367244    0.00408154   -0.16804720
     atom    5 type  2   force =    -0.00050839   -0.00015632    0.11869479
     atom    6 type  2   force =     0.00050839    0.00015632   -0.11869479
     The ionic contribution  to forces
     atom    1 type  1   force =    -0.35518170   -0.10576703   -0.62671431
     atom    2 type  1   force =     0.35518170    0.10576703    0.62671431
     atom    3 type  2   force =   -15.45217947   -4.60139449    0.45593990
     atom    4 type  2   force =    15.45217947    4.60139449   -0.45593990
     atom    5 type  2   force =   -10.08841782   -3.00415810   14.21214320
     atom    6 type  2   force =    10.08841782    3.00415810  -14.21214320
     The local contribution  to forces
     atom    1 type  1   force =     0.37044154    0.11031041    0.63982827
     atom    2 type  1   force =    -0.37028417   -0.11026566   -0.63986201
     atom    3 type  2   force =    15.49665086    4.61470231   -0.66360270
     atom    4 type  2   force =   -15.49629955   -4.61453237    0.66382692
     atom    5 type  2   force =    10.11986568    3.01353214  -14.36396452
     atom    6 type  2   force =   -10.12025607   -3.01361058   14.36539637
     The core correction contribution to forces
     atom    1 type  1   force =     0.00137009    0.00040798    0.00108549
     atom    2 type  1   force =    -0.00135962   -0.00040499   -0.00108536
     atom    3 type  2   force =     0.00000000    0.00000000    0.00000000
     atom    4 type  2   force =     0.00000000    0.00000000    0.00000000
     atom    5 type  2   force =     0.00000000    0.00000000    0.00000000
     atom    6 type  2   force =     0.00000000    0.00000000    0.00000000
     The Hubbard contrib.    to forces
     atom    1 type  1   force =     0.00000000    0.00000000    0.00000000
     atom    2 type  1   force =     0.00000000    0.00000000    0.00000000
     atom    3 type  2   force =     0.00000000    0.00000000    0.00000000
     atom    4 type  2   force =     0.00000000    0.00000000    0.00000000
     atom    5 type  2   force =     0.00000000    0.00000000    0.00000000
     atom    6 type  2   force =     0.00000000    0.00000000    0.00000000
     The SCF correction term to forces
     atom    1 type  1   force =    -0.00002076   -0.00000572    0.00000918
     atom    2 type  1   force =    -0.00003303   -0.00000975    0.00001495
     atom    3 type  2   force =     0.00148535    0.00031723   -0.00095796
     atom    4 type  2   force =    -0.00191689   -0.00062961    0.00045760
     atom    5 type  2   force =     0.00081682    0.00023470   -0.00172472
     atom    6 type  2   force =    -0.00032833   -0.00008466   -0.00001910

     Total force =     0.101094     Total SCF correction =     0.003364

     Computing stress (Cartesian axis) and pressure

          total   stress  (Ry/bohr**3)                   (kbar)     P=     -917.90
  -0.00479925   0.00117971  -0.00012378         -705.99      173.54      -18.21
   0.00117971  -0.00840949  -0.00003680          173.54    -1237.08       -5.41
  -0.00012378  -0.00003680  -0.00551043          -18.21       -5.41     -810.61

     kinetic stress (kbar)  39435.50    219.48    -78.04
                              219.48  38763.81    -23.23
                              -78.04    -23.23  39325.17

     local   stress (kbar) -14802.06   3717.75  -4034.47
                             3717.75 -26179.73  -1201.39
                            -4034.47  -1201.39 -24686.62

     nonloc. stress (kbar)   5604.92      8.06     32.62
                                8.06   5580.26      9.71
                               32.62      9.71   5578.62

     hartree stress (kbar)  17313.87  -1842.96   2040.84
                            -1842.96  22954.02    607.73
                             2040.84    607.73  21843.67

     exc-cor stress (kbar)  -5296.46      1.24     -0.01
                                1.24  -5300.25     -0.00
                               -0.01     -0.00  -5296.60

     corecor stress (kbar)   -225.98     -0.02     -1.90
                               -0.02   -225.91     -0.57
                               -1.90     -0.57   -225.83

     ewald   stress (kbar) -42735.79  -1930.00   2022.75
                            -1930.00 -36829.27    602.34
                             2022.75    602.34 -37349.02

     hubbard stress (kbar)      0.00      0.00      0.00
                                0.00      0.00      0.00
                                0.00      0.00      0.00

     DFT-D   stress (kbar)      0.00      0.00      0.00
                                0.00      0.00      0.00
                                0.00      0.00      0.00

     XDM     stress (kbar)      0.00      0.00      0.00
                                0.00      0.00      0.00
                                0.00      0.00      0.00

     dft-nl  stress (kbar)      0.00      0.00      0.00
                                0.00      0.00      0.00
                                0.00      0.00      0.00

     TS-vdW  stress (kbar)      0.00      0.00      0.00
                                0.00      0.00      0.00
                                0.00      0.00      0.00

[...]

                                0.00      0.00      0.00

     Writing all to output data dir new_calculations/myprefix.save/

     General routines

     Parallel routines

     PAW routines

   This run was terminated on:  23:55:46  20May2023

   JOB DONE.