     Program PWSCF v.7.0 starts on 20May2023 at 23:14: 6

     Reading input from espresso_14849.pwi
Warning: card &CELL ignored
Warning: card / ignored

     Current dimensions of program PWSCF are:
     Max number of different atomic species (ntypx) = 10
     Max number of k-points (npk) =  40000
     Max angular momentum in pseudopotentials (lmaxx) =  4
     file Mg.pbe-n-kjpaw_psl.0.3.0.UPF: wavefunction(s)  3S renormalized

     gamma-point specific algorithms are used
     Message from routine setup:
     using ibrav=0 with symmetry is DISCOURAGED, use correct ibrav instead

     Subspace diagonalization in iterative solution of the eigenvalue problem:
     a serial algorithm will be used

     Using Slab Decomposition

     bravais-lattice index     =            0
     lattice parameter (alat)  =      18.9122  a.u.
     unit-cell volume          =    1562.9640 (a.u.)^3
     number of atoms/cell      =            6
     number of atomic types    =            2
     number of electrons       =        52.00
     number of Kohn-Sham states=           31
     kinetic-energy cutoff     =      30.0000  Ry
     charge density cutoff     =     240.0000  Ry
     scf convergence threshold =      1.0E-06
     mixing beta               =       0.7000
     number of iterations used =            8  plain     mixing
     Exchange-correlation= SLA  PW   PBX  PBC
                           (   1   4   3   4   0   0   0)

     celldm(1)=  18.912205  celldm(2)=   0.000000  celldm(3)=   0.000000
     celldm(4)=   0.000000  celldm(5)=   0.000000  celldm(6)=   0.000000

     crystal axes: (cart. coord. in units of alat)
               a(1) = (   1.000000   0.000000   0.000000 )
               a(2) = (  -0.926536   0.376207   0.000000 )
               a(3) = (   0.000000   0.000000   0.614180 )

     reciprocal axes: (cart. coord. in units 2 pi/alat)
               b(1) = (  1.000000  2.462834  0.000000 )
               b(2) = (  0.000000  2.658111  0.000000 )
               b(3) = (  0.000000  0.000000  1.628188 )

     PseudoPot. # 1 for Ca read from file:
     /home/pragov/projects/rrg-bengioy-ad/pragov/crystal_structure_design/SSSP/Ca_pbe_v1.uspp.F.UPF
     MD5 check sum: 403a4c14b9e4d4dfdc3024c9a3812218
     Pseudo is Ultrasoft + core correction, Zval = 10.0
     Generated by new atomic code, or converted to UPF format
     Using radial grid of  845 points,  6 beta functions with:
                l(1) =   0
                l(2) =   0
                l(3) =   1
                l(4) =   1
                l(5) =   2
                l(6) =   2
     Q(r) pseudized with  8 coefficients,  rinner =    1.500   1.500   1.500
                                                       1.500   1.500

     PseudoPot. # 2 for Mg read from file:
     /home/pragov/projects/rrg-bengioy-ad/pragov/crystal_structure_design/SSSP/Mg.pbe-n-kjpaw_psl.0.3.0.UPF
     MD5 check sum: 24ecedc7f3e3cbe212e682f4413594e4
     Pseudo is Projector augmented-wave + core cor, Zval =  2.0
     Generated using "atomic" code by A. Dal Corso  v.5.0.99 svn rev. 10869
     Shape of augmentation charge: PSQ
     Using radial grid of 1129 points,  4 beta functions with:
                l(1) =   0
                l(2) =   0
                l(3) =   1
                l(4) =   1
     Q(r) pseudized with 0 coefficients

     atomic species   valence    mass     pseudopotential
        Ca            10.00    40.07800     Ca( 1.00)
        Mg             2.00    24.30500     Mg( 1.00)

      2 Sym. Ops. (no inversion) found

                                    s                        frac. trans.

      isym =  1     identity

 cryst.   s( 1) = (     1          0          0      )
                  (     0          1          0      )
                  (     0          0          1      )

 cart.    s( 1) = (  1.0000000 -0.0000000  0.0000000 )
                  (  0.0000000  1.0000000  0.0000000 )
                  (  0.0000000  0.0000000  1.0000000 )

      isym =  2     inv. 180 deg rotation - cart. axis [0,0,1]

 cryst.   s( 2) = (     1          0          0      )
                  (     0          1          0      )
                  (     0          0         -1      )

 cart.    s( 2) = (  1.0000000 -0.0000000  0.0000000 )
                  (  0.0000000  1.0000000  0.0000000 )
                  (  0.0000000  0.0000000 -1.0000000 )

   Cartesian axes

     site n.     atom                  positions (alat units)
         1           Ca  tau(   1) = (  -0.9250406   0.3759151   0.0000000  )
         2           Ca  tau(   2) = (  -0.2930580   0.2525038   0.0000000  )
         3           Ca  tau(   3) = (   0.3642298   0.1241510   0.0000000  )
         4           Ca  tau(   4) = (  -0.6930616   0.3306153   0.3070899  )
         5           Ca  tau(   5) = (  -0.0888355   0.2126240   0.3070899  )
         6           Mg  tau(   6) = (   0.5718005   0.0836173   0.3070899  )

   Crystallographic axes

     site n.     atom                  positions (cryst. coord.)
         1           Ca  tau(   1) = (  0.0007760  0.9992240  0.0000000  )
         2           Ca  tau(   2) = (  0.3288170  0.6711830  0.0000000  )
         3           Ca  tau(   3) = (  0.6699930  0.3300070  0.0000000  )
         4           Ca  tau(   4) = (  0.1211890  0.8788120  0.5000000  )
         5           Ca  tau(   5) = (  0.4348220  0.5651780  0.5000000  )
         6           Mg  tau(   6) = (  0.7777360  0.2222640  0.5000000  )

     number of k points=     1  Methfessel-Paxton smearing, width (Ry)=  0.0010
                       cart. coord. in units 2pi/alat
        k(    1) = (   0.0000000   0.0000000   0.0000000), wk =   2.0000000

                       cryst. coord.
        k(    1) = (   0.0000000   0.0000000   0.0000000), wk =   2.0000000

     Initial potential from superposition of free atoms

     starting charge      51.9718, renormalised to      52.0000
     Starting wfcs are   54 randomized atomic wfcs
     Checking if some PAW data can be deallocated...

     Self-consistent Calculation

     iteration #  1     ecut=    30.00 Ry     beta= 0.70
     Davidson diagonalization with overlap

     ethr =  1.00E-02,  avg # of iterations =  4.0

     Threshold (ethr) on eigenvalues was too large:
     Diagonalizing with lowered threshold

     Davidson diagonalization with overlap

[...]

     total energy              =    -408.44264839 Ry
     estimated scf accuracy    <       0.16731474 Ry

[...]

     total energy              =    -408.52639579 Ry
     estimated scf accuracy    <       0.00000541 Ry

     iteration # 16     ecut=    30.00 Ry     beta= 0.70
     Davidson diagonalization with overlap

     ethr =  1.01E-08,  avg # of iterations =  2.0

     End of self-consistent calculation

          k = 0.0000 0.0000 0.0000 (  2172 PWs)   bands (ev):

   -37.2542 -37.1363 -37.0639 -36.9119 -36.7250 -18.2733 -18.2498 -18.1596
   -18.1361 -18.1167 -18.1095 -18.0747 -18.0437 -17.9868 -17.9110 -17.9037
   -17.8906 -17.7858 -17.6885 -17.6493   0.4963   2.1103   2.2977   3.9326
     4.5605   4.9675   4.9691   5.2732   5.2965   5.5254   5.7143

     occupation numbers
     1.0000   1.0000   1.0000   1.0000   1.0000   1.0000   1.0000   1.0000
     1.0000   1.0000   1.0000   1.0000   1.0000   1.0000   1.0000   1.0000
     1.0000   1.0000   1.0000   1.0000   1.0000   1.0000   1.0000   1.0000
     1.0000   0.5469   0.4531  -0.0000  -0.0000  -0.0000  -0.0000

     the Fermi energy is     4.9683 ev

!    total energy              =    -408.52639553 Ry
     estimated scf accuracy    <       0.00000090 Ry
     smearing contrib. (-TS)   =      -0.00055898 Ry
     internal energy E=F+TS    =    -408.52583654 Ry

     The total energy is F=E-TS. E is the sum of the following terms:
     one-electron contribution =    -210.48124150 Ry
     hartree contribution      =     107.64100157 Ry
     xc contribution           =     -60.54707448 Ry
     ewald contribution        =    -213.85466534 Ry
     one-center paw contrib.   =     -31.28385679 Ry
      -> PAW hartree energy AE =       0.63427211 Ry
      -> PAW hartree energy PS =      -0.63263721 Ry
      -> PAW xc energy AE      =     -32.51796500 Ry
      -> PAW xc energy PS      =       1.23247331 Ry
      -> total E_H with PAW    =     107.64263646 Ry
      -> total E_XC with PAW   =     -91.83256617 Ry

     convergence has been achieved in  16 iterations

     Forces acting on atoms (cartesian axes, Ry/au):

     atom    1 type  1   force =    -0.01006054    0.00198012    0.00000000
     atom    2 type  1   force =    -0.00688168    0.00134314    0.00000000
     atom    3 type  1   force =    -0.00105302    0.00020721    0.00000000
     atom    4 type  1   force =     0.01569963   -0.00306747    0.00000000
     atom    5 type  1   force =     0.00724782   -0.00142724    0.00000000
     atom    6 type  2   force =    -0.00495221    0.00096424    0.00000000
     The non-local contrib.  to forces
     atom    1 type  1   force =     0.08146165   -0.01589371    0.00000000
     atom    2 type  1   force =    -0.04393960    0.00857714    0.00000000
     atom    3 type  1   force =     0.05593286   -0.01092503    0.00000000
     atom    4 type  1   force =    -0.02349844    0.00459133    0.00000000
     atom    5 type  1   force =    -0.01688702    0.00329263    0.00000000
     atom    6 type  2   force =     0.00799125   -0.00155912    0.00000000
     The ionic contribution  to forces
     atom    1 type  1   force =    -0.78022672    0.15235939    0.00000000
     atom    2 type  1   force =    -1.61745489    0.31585081    0.00000000
     atom    3 type  1   force =     2.54550017   -0.49707461    0.00000000
     atom    4 type  1   force =     2.52457500   -0.49299174   -0.00000000
     atom    5 type  1   force =    -2.74429795    0.53589717   -0.00000000
     atom    6 type  2   force =     0.07190439   -0.01404102   -0.00000000
     The local contribution  to forces
     atom    1 type  1   force =     0.69210845   -0.13510164    0.00001908
     atom    2 type  1   force =     1.65201483   -0.32260938   -0.00001967
     atom    3 type  1   force =    -2.59827223    0.50738370   -0.00007405
     atom    4 type  1   force =    -2.48554142    0.48538785   -0.00002108
     atom    5 type  1   force =     2.76632696   -0.54022288    0.00013817
     atom    6 type  2   force =    -0.08406389    0.01641382    0.00000205
     The core correction contribution to forces
     atom    1 type  1   force =    -0.00395516    0.00077391    0.00000088
     atom    2 type  1   force =     0.00210313   -0.00041085   -0.00000041
     atom    3 type  1   force =    -0.00338120    0.00066036   -0.00000266
     atom    4 type  1   force =     0.00157564   -0.00030727    0.00000014
     atom    5 type  1   force =     0.00069369   -0.00013611    0.00000278
     atom    6 type  2   force =    -0.00086216    0.00016820   -0.00000006
     The Hubbard contrib.    to forces
     atom    1 type  1   force =     0.00000000    0.00000000    0.00000000
     atom    2 type  1   force =     0.00000000    0.00000000    0.00000000
     atom    3 type  1   force =     0.00000000    0.00000000    0.00000000
     atom    4 type  1   force =     0.00000000    0.00000000    0.00000000
     atom    5 type  1   force =     0.00000000    0.00000000    0.00000000
     atom    6 type  2   force =     0.00000000    0.00000000    0.00000000
     The SCF correction term to forces
     atom    1 type  1   force =     0.00051344   -0.00014774   -0.00002608
     atom    2 type  1   force =     0.00035704   -0.00005449    0.00001923
     atom    3 type  1   force =    -0.00087042    0.00017289    0.00007054
     atom    4 type  1   force =    -0.00144896    0.00026243    0.00003128
     atom    5 type  1   force =     0.00137434   -0.00024797   -0.00013428
     atom    6 type  2   force =     0.00004040   -0.00000754   -0.00000212

     Total force =     0.022167     Total SCF correction =     0.002313
     SCF correction compared to forces is large: reduce conv_thr to get better values

     Computing stress (Cartesian axis) and pressure

          total   stress  (Ry/bohr**3)                   (kbar)     P=      -15.17
  -0.00010230  -0.00011216   0.00000000          -15.05      -16.50        0.00
  -0.00011216  -0.00065482   0.00000000          -16.50      -96.33        0.00
   0.00000000   0.00000000   0.00044770            0.00        0.00       65.86

     kinetic stress (kbar)   6477.61     -7.09      0.00
                               -7.09   6442.69      0.00
                                0.00      0.00   6591.50

     local   stress (kbar)  -2605.67   -424.21     -0.01
                             -424.21  -4695.23      0.00
                               -0.01      0.00  -3633.24

     nonloc. stress (kbar)   2192.28    -10.77      0.00
                              -10.77   2139.23      0.00
                                0.00      0.00   2248.45

     hartree stress (kbar)   2898.96    201.79      0.01
                              201.79   3892.94     -0.00
                                0.01     -0.00   3339.19

     exc-cor stress (kbar)   -868.01      0.29      0.00
                                0.29   -866.57     -0.00
                                0.00     -0.00   -867.79

     corecor stress (kbar)   -867.81      0.38     -0.00
                                0.38   -865.94      0.00
                               -0.00      0.00   -870.26

     ewald   stress (kbar)  -7242.41    223.11     -0.00
                              223.11  -6143.46      0.00
                               -0.00      0.00  -6741.98

     hubbard stress (kbar)      0.00      0.00      0.00
                                0.00      0.00      0.00
                                0.00      0.00      0.00

     DFT-D   stress (kbar)      0.00      0.00      0.00
                                0.00      0.00      0.00
                                0.00      0.00      0.00

     XDM     stress (kbar)      0.00      0.00      0.00
                                0.00      0.00      0.00
                                0.00      0.00      0.00

     dft-nl  stress (kbar)      0.00      0.00      0.00
                                0.00      0.00      0.00
                                0.00      0.00      0.00

     TS-vdW  stress (kbar)      0.00      0.00      0.00
                                0.00      0.00      0.00
                                0.00      0.00      0.00

[...]

                                0.00      0.00      0.00

     Writing all to output data dir new_calculations/myprefix.save/

     General routines

     Parallel routines

     PAW routines

   This run was terminated on:  23:14:23  20May2023

   JOB DONE.