     Program PWSCF v.7.0 starts on 20May2023 at 18:29:56

     Reading input from espresso_8710.pwi
Warning: card &CELL ignored
Warning: card / ignored

     Current dimensions of program PWSCF are:
     Max number of different atomic species (ntypx) = 10
     Max number of k-points (npk) =  40000
     Max angular momentum in pseudopotentials (lmaxx) =  4

     gamma-point specific algorithms are used
     Message from routine setup:
     using ibrav=0 with symmetry is DISCOURAGED, use correct ibrav instead

     Subspace diagonalization in iterative solution of the eigenvalue problem:
     a serial algorithm will be used

     Using Slab Decomposition

     bravais-lattice index     =            0
     lattice parameter (alat)  =      16.5033  a.u.
     unit-cell volume          =    6621.2471 (a.u.)^3
     number of atoms/cell      =           20
     number of atomic types    =            3
     number of electrons       =       176.00
     number of Kohn-Sham states=          106
     kinetic-energy cutoff     =      30.0000  Ry
     charge density cutoff     =     240.0000  Ry
     scf convergence threshold =      1.0E-06
     mixing beta               =       0.7000
     number of iterations used =            8  plain     mixing
     Exchange-correlation= SLA  PW   PBX  PBC
                           (   1   4   3   4   0   0   0)

     celldm(1)=  16.503301  celldm(2)=   0.000000  celldm(3)=   0.000000
     celldm(4)=   0.000000  celldm(5)=   0.000000  celldm(6)=   0.000000

     crystal axes: (cart. coord. in units of alat)
               a(1) = (   1.000000   0.000000   0.000000 )
               a(2) = (   0.000000   1.015921   0.000000 )
               a(3) = (   0.000000   0.000000   1.449998 )

     reciprocal axes: (cart. coord. in units 2 pi/alat)
               b(1) = (  1.000000  0.000000  0.000000 )
               b(2) = (  0.000000  0.984329  0.000000 )
               b(3) = (  0.000000  0.000000  0.689656 )

     PseudoPot. # 1 for Cs read from file:
     /home/pragov/projects/rrg-bengioy-ad/pragov/crystal_structure_design/SSSP/Cs_pbe_v1.uspp.F.UPF
     MD5 check sum: 3476d69cb178dfad3ffaa59df4e07ca4
     Pseudo is Ultrasoft + core correction, Zval =  9.0
     Generated by new atomic code, or converted to UPF format
     Using radial grid of  905 points,  6 beta functions with:
                l(1) =   0
                l(2) =   0
                l(3) =   1
                l(4) =   1
                l(5) =   2
                l(6) =   2
     Q(r) pseudized with  6 coefficients,  rinner =    1.500   1.500   1.500
                                                       1.500   1.500

     PseudoPot. # 2 for Sn read from file:
     /home/pragov/projects/rrg-bengioy-ad/pragov/crystal_structure_design/SSSP/Sn_pbe_v1.uspp.F.UPF
     MD5 check sum: 4cf58ce39ec5d5d420df3dd08604eb00
     Pseudo is Ultrasoft + core correction, Zval = 14.0
     Generated by new atomic code, or converted to UPF format
     Using radial grid of  891 points,  6 beta functions with:
                l(1) =   0
                l(2) =   0
                l(3) =   1
                l(4) =   1
                l(5) =   2
                l(6) =   2
     Q(r) pseudized with  6 coefficients,  rinner =    1.200   1.200   1.200
                                                       1.200   1.200

     PseudoPot. # 3 for I  read from file:
     /home/pragov/projects/rrg-bengioy-ad/pragov/crystal_structure_design/SSSP/I.pbe-n-kjpaw_psl.0.2.UPF
     MD5 check sum: d4ef18d9c8f18dc85e5843bca1e50dc0
     Pseudo is Projector augmented-wave + core cor, Zval =  7.0
     Generated using "atomic" code by A. Dal Corso  v.5.0.99 svn rev. 10869
     Shape of augmentation charge: PSQ
     Using radial grid of 1247 points,  4 beta functions with:
                l(1) =   0
                l(2) =   0
                l(3) =   1
                l(4) =   1
     Q(r) pseudized with 0 coefficients

     atomic species   valence    mass     pseudopotential
        Cs             9.00   132.90545     Cs( 1.00)
        Sn            14.00   118.71000     Sn( 1.00)
        I              7.00   126.90447     I ( 1.00)

      8 Sym. Ops., with inversion, found ( 6 have fractional translation)

                                    s                        frac. trans.

      isym =  1     identity

 cryst.   s( 1) = (     1          0          0      )
                  (     0          1          0      )
                  (     0          0          1      )

 cart.    s( 1) = (  1.0000000  0.0000000  0.0000000 )
                  (  0.0000000  1.0000000  0.0000000 )
                  (  0.0000000  0.0000000  1.0000000 )

      isym =  2     180 deg rotation - cart. axis [0,0,1]

 cryst.   s( 2) = (    -1          0          0      )    f =(  0.0000000 )
                  (     0         -1          0      )       (  0.0000000 )
                  (     0          0          1      )       ( -0.5000000 )

 cart.    s( 2) = ( -1.0000000  0.0000000  0.0000000 )    f =(  0.0000000 )
                  (  0.0000000 -1.0000000  0.0000000 )       (  0.0000000 )
                  (  0.0000000  0.0000000  1.0000000 )       ( -0.7249991 )

[...]

      isym =  4     180 deg rotation - cart. axis [1,0,0]

[...]

      isym =  5     inversion

 cryst.   s( 5) = (    -1          0          0      )
                  (     0         -1          0      )
                  (     0          0         -1      )

 cart.    s( 5) = ( -1.0000000  0.0000000  0.0000000 )
                  (  0.0000000 -1.0000000  0.0000000 )
                  (  0.0000000  0.0000000 -1.0000000 )

      isym =  6     inv. 180 deg rotation - cart. axis [0,0,1]

[...]

      isym =  8     inv. 180 deg rotation - cart. axis [1,0,0]

 cryst.   s( 8) = (    -1          0          0      )    f =( -0.5000000 )
                  (     0          1          0      )       ( -0.5000000 )
                  (     0          0          1      )       ( -0.5000000 )

 cart.    s( 8) = ( -1.0000000  0.0000000  0.0000000 )    f =( -0.5000000 )
                  (  0.0000000  1.0000000  0.0000000 )       ( -0.5079604 )
                  (  0.0000000  0.0000000  1.0000000 )       ( -0.7249991 )

   Cartesian axes

     site n.     atom                  positions (alat units)
         1           Cs  tau(   1) = (   0.0046830   0.0237045   0.3624995  )
         2           Cs  tau(   2) = (   0.5046830   0.4842559   0.3624995  )
         3           Cs  tau(   3) = (   0.9953170   0.9922163   1.0874986  )
         4           Cs  tau(   4) = (   0.4953170   0.5316649   1.0874986  )
         5           Sn  tau(   5) = (   0.5000000   0.0000000   0.0000000  )
         6           Sn  tau(   6) = (   0.0000000   0.5079604   0.7249991  )
         7           Sn  tau(   7) = (   0.0000000   0.5079604   0.0000000  )
         8           Sn  tau(   8) = (   0.5000000   0.0000000   0.7249991  )
         9           I   tau(   9) = (   0.7030980   0.7148750   0.0109678  )
        10           I   tau(  10) = (   0.2969020   0.3010458   0.7359669  )
        11           I   tau(  11) = (   0.7030980   0.7148750   0.7140313  )
        12           I   tau(  12) = (   0.2969020   0.3010458   1.4390304  )
        13           I   tau(  13) = (   0.5026480   0.9956207   1.0874986  )
        14           I   tau(  14) = (   0.2030980   0.8090062   0.7140313  )
        15           I   tau(  15) = (   0.9973520   0.4876603   0.3624995  )
        16           I   tau(  16) = (   0.7969020   0.2069146   0.7359669  )
        17           I   tau(  17) = (   0.7969020   0.2069146   1.4390304  )
        18           I   tau(  18) = (   0.4973520   0.0203001   0.3624995  )
        19           I   tau(  19) = (   0.0026480   0.5282605   1.0874986  )
        20           I   tau(  20) = (   0.2030980   0.8090062   0.0109678  )

   Crystallographic axes

     site n.     atom                  positions (cryst. coord.)
         1           Cs  tau(   1) = (  0.0046830  0.0233330  0.2500000  )
         2           Cs  tau(   2) = (  0.5046830  0.4766670  0.2500000  )
         3           Cs  tau(   3) = (  0.9953170  0.9766670  0.7500000  )
         4           Cs  tau(   4) = (  0.4953170  0.5233330  0.7500000  )
         5           Sn  tau(   5) = (  0.5000000  0.0000000  0.0000000  )
         6           Sn  tau(   6) = (  0.0000000  0.5000000  0.5000000  )
         7           Sn  tau(   7) = (  0.0000000  0.5000000  0.0000000  )
         8           Sn  tau(   8) = (  0.5000000  0.0000000  0.5000000  )
         9           I   tau(   9) = (  0.7030980  0.7036720  0.0075640  )
        10           I   tau(  10) = (  0.2969020  0.2963280  0.5075640  )
        11           I   tau(  11) = (  0.7030980  0.7036720  0.4924360  )
        12           I   tau(  12) = (  0.2969020  0.2963280  0.9924360  )
        13           I   tau(  13) = (  0.5026480  0.9800180  0.7500000  )
        14           I   tau(  14) = (  0.2030980  0.7963280  0.4924360  )
        15           I   tau(  15) = (  0.9973520  0.4800180  0.2500000  )
        16           I   tau(  16) = (  0.7969020  0.2036720  0.5075640  )
        17           I   tau(  17) = (  0.7969020  0.2036720  0.9924360  )
        18           I   tau(  18) = (  0.4973520  0.0199820  0.2500000  )
        19           I   tau(  19) = (  0.0026480  0.5199820  0.7500000  )
        20           I   tau(  20) = (  0.2030980  0.7963280  0.0075640  )

     number of k points=     1  Methfessel-Paxton smearing, width (Ry)=  0.0010
                       cart. coord. in units 2pi/alat
        k(    1) = (   0.0000000   0.0000000   0.0000000), wk =   2.0000000

                       cryst. coord.
        k(    1) = (   0.0000000   0.0000000   0.0000000), wk =   2.0000000

     Check: negative core charge=   -0.000001

     Initial potential from superposition of free atoms

     starting charge     171.8414, renormalised to     176.0000
     Starting wfcs are  136 randomized atomic wfcs
     Checking if some PAW data can be deallocated...

     Self-consistent Calculation

     iteration #  1     ecut=    30.00 Ry     beta= 0.70
     Davidson diagonalization with overlap

     ethr =  1.00E-02,  avg # of iterations =  3.0

     Threshold (ethr) on eigenvalues was too large:
     Diagonalizing with lowered threshold

     Davidson diagonalization with overlap

[...]

     total energy              =   -5452.93968840 Ry
     estimated scf accuracy    <       0.80842758 Ry

[...]

     total energy              =   -5453.22920826 Ry
     estimated scf accuracy    <       0.00000149 Ry

     iteration #  8     ecut=    30.00 Ry     beta= 0.70
     Davidson diagonalization with overlap

     ethr =  8.47E-10,  avg # of iterations =  2.0

     End of self-consistent calculation

          k = 0.0000 0.0000 0.0000 (  9207 PWs)   bands (ev):

   -18.4867 -18.4862 -18.4852 -18.4849 -18.4837 -18.4835 -18.4820 -18.4819
   -18.4793 -18.4792 -18.4784 -18.4784 -18.4769 -18.4768 -18.4760 -18.4759
   -18.4754 -18.4754 -18.4746 -18.4746 -18.1385 -18.1380 -18.1376 -18.1372
    -9.0150  -8.8469  -8.6287  -8.5918  -8.5831  -8.5701  -8.5698  -8.5543
    -8.5520  -8.3943  -8.3912  -8.3873  -4.9794  -4.9744  -4.9713  -4.9681
    -4.9481  -4.9452  -4.9447  -4.9348  -4.9335  -4.9270  -4.9255  -4.9123
    -4.4155  -3.8452  -3.2720  -2.5863  -0.4909  -0.4759  -0.4365  -0.3869
    -0.3263  -0.2295   0.7566   0.9354   0.9589   0.9694   1.0600   1.3375
     1.3657   1.4658   1.4790   1.5359   1.5502   1.5774   1.5774   1.5848
     1.6211   1.7520   1.8061   1.8256   1.8351   1.8568   1.9410   1.9659
     2.0220   2.1025   2.2107   2.3073   2.3094   2.5024   2.9916   3.6319
     4.1398   4.2753   4.3189   4.6685   4.6865   4.8682   6.3929   7.0905
     7.2315   7.4780   7.4885   7.5890   7.6135   7.6377   7.6460   7.7188
     7.9122   8.0010

     occupation numbers
     1.0000   1.0000   1.0000   1.0000   1.0000   1.0000   1.0000   1.0000
     1.0000   1.0000   1.0000   1.0000   1.0000   1.0000   1.0000   1.0000
     1.0000   1.0000   1.0000   1.0000   1.0000   1.0000   1.0000   1.0000
     1.0000   1.0000   1.0000   1.0000   1.0000   1.0000   1.0000   1.0000
     1.0000   1.0000   1.0000   1.0000   1.0000   1.0000   1.0000   1.0000
     1.0000   1.0000   1.0000   1.0000   1.0000   1.0000   1.0000   1.0000
     1.0000   1.0000   1.0000   1.0000   1.0000   1.0000   1.0000   1.0000
     1.0000   1.0000   1.0000   1.0000   1.0000   1.0000   1.0000   1.0000
     1.0000   1.0000   1.0000   1.0000   1.0000   1.0000   1.0000   1.0000
     1.0000   1.0000   1.0000   1.0000   1.0000   1.0000   1.0000   1.0000
     1.0000   1.0000   1.0000   1.0000   1.0000   1.0000   1.0000   1.0000
    -0.0000  -0.0000  -0.0000  -0.0000  -0.0000  -0.0000  -0.0000  -0.0000
    -0.0000  -0.0000  -0.0000  -0.0000  -0.0000  -0.0000  -0.0000  -0.0000
    -0.0000  -0.0000

     the Fermi energy is     3.9558 ev

!    total energy              =   -5453.22920853 Ry
     estimated scf accuracy    <       0.00000015 Ry
     smearing contrib. (-TS)   =       0.00000000 Ry
     internal energy E=F+TS    =   -5453.22920853 Ry

     The total energy is F=E-TS. E is the sum of the following terms:
     one-electron contribution =    -483.02186905 Ry
     hartree contribution      =     319.03788080 Ry
     xc contribution           =    -812.28875053 Ry
     ewald contribution        =    -630.63219256 Ry
     one-center paw contrib.   =   -3846.32427718 Ry
      -> PAW hartree energy AE =     117.32056878 Ry
      -> PAW hartree energy PS =    -118.06562178 Ry
      -> PAW xc energy AE      =   -4331.59426726 Ry
      -> PAW xc energy PS      =     486.01504307 Ry
      -> total E_H with PAW    =     318.29282780 Ry
      -> total E_XC with PAW   =   -4657.86797472 Ry

     convergence has been achieved in   8 iterations

     Forces acting on atoms (cartesian axes, Ry/au):

     atom    1 type  1   force =     0.00041957   -0.00039595    0.00000000
     atom    2 type  1   force =     0.00041957    0.00039595    0.00000000
     atom    3 type  1   force =    -0.00041957    0.00039595    0.00000000
     atom    4 type  1   force =    -0.00041957   -0.00039595    0.00000000
     atom    5 type  2   force =    -0.00000000    0.00000000    0.00000000
     atom    6 type  2   force =     0.00000000   -0.00000000    0.00000000
     atom    7 type  2   force =     0.00000000   -0.00000000    0.00000000
     atom    8 type  2   force =     0.00000000   -0.00000000    0.00000000
     atom    9 type  3   force =    -0.01084407   -0.01142842    0.00313029
     atom   10 type  3   force =     0.01084407    0.01142842    0.00313029
     atom   11 type  3   force =    -0.01084407   -0.01142842   -0.00313029
     atom   12 type  3   force =     0.01084407    0.01142842   -0.00313029
     atom   13 type  3   force =     0.00014170   -0.00470049    0.00000000
     atom   14 type  3   force =    -0.01084407    0.01142842   -0.00313029
     atom   15 type  3   force =    -0.00014170   -0.00470049    0.00000000
     atom   16 type  3   force =     0.01084407   -0.01142842    0.00313029
     atom   17 type  3   force =     0.01084407   -0.01142842   -0.00313029
     atom   18 type  3   force =    -0.00014170    0.00470049   -0.00000000
     atom   19 type  3   force =     0.00014170    0.00470049    0.00000000
     atom   20 type  3   force =    -0.01084407    0.01142842    0.00313029
     The non-local contrib.  to forces
     atom    1 type  1   force =    -0.00189530   -0.00532675    0.00000000
     atom    2 type  1   force =    -0.00189530    0.00532675    0.00000000
     atom    3 type  1   force =     0.00189530    0.00532675   -0.00000000
     atom    4 type  1   force =     0.00189530   -0.00532675   -0.00000000
     atom    5 type  2   force =     0.00000000    0.00000000   -0.00000000
     atom    6 type  2   force =    -0.00000000    0.00000000   -0.00000000
     atom    7 type  2   force =    -0.00000000    0.00000000    0.00000000
     atom    8 type  2   force =     0.00000000    0.00000000    0.00000000
     atom    9 type  3   force =     0.01057900    0.00838350   -0.00514870
     atom   10 type  3   force =    -0.01057900   -0.00838350   -0.00514870
     atom   11 type  3   force =     0.01057900    0.00838350    0.00514870
     atom   12 type  3   force =    -0.01057900   -0.00838350    0.00514870
     atom   13 type  3   force =    -0.00030073   -0.00337334    0.00000000
     atom   14 type  3   force =     0.01057900   -0.00838350    0.00514870
     atom   15 type  3   force =     0.00030073   -0.00337334    0.00000000
     atom   16 type  3   force =    -0.01057900    0.00838350   -0.00514870
     atom   17 type  3   force =    -0.01057900    0.00838350    0.00514870
     atom   18 type  3   force =     0.00030073    0.00337334    0.00000000
     atom   19 type  3   force =    -0.00030073    0.00337334    0.00000000
     atom   20 type  3   force =     0.01057900   -0.00838350   -0.00514870
     The ionic contribution  to forces
     atom    1 type  1   force =    -0.15384217   -0.81101302   -0.00000000
     atom    2 type  1   force =    -0.15384217    0.81101302   -0.00000000
     atom    3 type  1   force =     0.15384217    0.81101302    0.00000000
     atom    4 type  1   force =     0.15384217   -0.81101302    0.00000000
     atom    5 type  2   force =     0.00000000   -0.00000000   -0.00000000
     atom    6 type  2   force =    -0.00000000   -0.00000000   -0.00000000
     atom    7 type  2   force =    -0.00000000   -0.00000000   -0.00000000
     atom    8 type  2   force =     0.00000000    0.00000000   -0.00000000
     atom    9 type  3   force =    -0.70474196   -0.63043970    0.48733618
     atom   10 type  3   force =     0.70474196    0.63043970    0.48733618
     atom   11 type  3   force =    -0.70474196   -0.63043970   -0.48733618
     atom   12 type  3   force =     0.70474196    0.63043970   -0.48733618
     atom   13 type  3   force =    -0.06288103    0.21897472    0.00000000
     atom   14 type  3   force =    -0.70474196    0.63043970   -0.48733618
     atom   15 type  3   force =     0.06288103    0.21897472   -0.00000000
     atom   16 type  3   force =     0.70474196   -0.63043970    0.48733618
     atom   17 type  3   force =     0.70474196   -0.63043970   -0.48733618
     atom   18 type  3   force =     0.06288103   -0.21897472   -0.00000000
     atom   19 type  3   force =    -0.06288103   -0.21897472    0.00000000
     atom   20 type  3   force =    -0.70474196    0.63043970    0.48733618
     The local contribution  to forces
     atom    1 type  1   force =     0.15592848    0.81505225    0.00002564
     atom    2 type  1   force =     0.15582411   -0.81507054    0.00000211
     atom    3 type  1   force =    -0.15588512   -0.81545908   -0.00002143
     atom    4 type  1   force =    -0.15595530    0.81544736    0.00000500
     atom    5 type  2   force =    -0.00003045   -0.00048022   -0.00017837
     atom    6 type  2   force =     0.00031801    0.00072054    0.00006924
     atom    7 type  2   force =     0.00026476    0.00056595   -0.00016323
     atom    8 type  2   force =     0.00006257   -0.00066363    0.00003373
     atom    9 type  3   force =     0.68891814    0.61625039   -0.48058568
     atom   10 type  3   force =    -0.68911440   -0.61597173   -0.48051366
     atom   11 type  3   force =     0.68908163    0.61613164    0.48057245
     atom   12 type  3   force =    -0.68894319   -0.61613982    0.48050168
     atom   13 type  3   force =     0.06289453   -0.21848295    0.00011433
     atom   14 type  3   force =     0.68891491   -0.61626242    0.48056490
     atom   15 type  3   force =    -0.06285461   -0.21822059    0.00012567
     atom   16 type  3   force =    -0.68893524    0.61609562   -0.48050529
     atom   17 type  3   force =    -0.68909277    0.61597405    0.48049048
     atom   18 type  3   force =    -0.06293047    0.21822971   -0.00008334
     atom   19 type  3   force =     0.06294437    0.21849320   -0.00011060
     atom   20 type  3   force =     0.68908764   -0.61609368   -0.48057611
     The core correction contribution to forces
     atom    1 type  1   force =     0.00024848    0.00073300    0.00000047
     atom    2 type  1   force =     0.00024784   -0.00073321   -0.00000002
     atom    3 type  1   force =    -0.00024828   -0.00073672   -0.00000036
     atom    4 type  1   force =    -0.00024907    0.00073643   -0.00000006
     atom    5 type  2   force =     0.00000017   -0.00000838   -0.00000410
     atom    6 type  2   force =     0.00000689    0.00001339    0.00000156
     atom    7 type  2   force =     0.00000588    0.00001124   -0.00000417
     atom    8 type  2   force =     0.00000218   -0.00001385    0.00000117
     atom    9 type  3   force =    -0.00568408   -0.00547263    0.00143980
     atom   10 type  3   force =     0.00568272    0.00548197    0.00144367
     atom   11 type  3   force =    -0.00568290   -0.00546887   -0.00144072
     atom   12 type  3   force =     0.00568355    0.00548047   -0.00144419
     atom   13 type  3   force =     0.00041561   -0.00200494    0.00000031
     atom   14 type  3   force =    -0.00568382    0.00547004   -0.00144117
     atom   15 type  3   force =    -0.00041359   -0.00199573    0.00000037
     atom   16 type  3   force =     0.00568483   -0.00548524    0.00144421
     atom   17 type  3   force =     0.00568468   -0.00548170   -0.00144515
     atom   18 type  3   force =    -0.00041697    0.00199623    0.00000255
     atom   19 type  3   force =     0.00041714    0.00200540    0.00000096
     atom   20 type  3   force =    -0.00568263    0.00547151    0.00144055
     The Hubbard contrib.    to forces
     atom    1 type  1   force =     0.00000000    0.00000000    0.00000000
     atom    2 type  1   force =     0.00000000    0.00000000    0.00000000
     atom    3 type  1   force =     0.00000000    0.00000000    0.00000000
     atom    4 type  1   force =     0.00000000    0.00000000    0.00000000
     atom    5 type  2   force =     0.00000000    0.00000000    0.00000000
     atom    6 type  2   force =     0.00000000    0.00000000    0.00000000
     atom    7 type  2   force =     0.00000000    0.00000000    0.00000000
     atom    8 type  2   force =     0.00000000    0.00000000    0.00000000
     atom    9 type  3   force =     0.00000000    0.00000000    0.00000000
     atom   10 type  3   force =     0.00000000    0.00000000    0.00000000
     atom   11 type  3   force =     0.00000000    0.00000000    0.00000000
     atom   12 type  3   force =     0.00000000    0.00000000    0.00000000
     atom   13 type  3   force =     0.00000000    0.00000000    0.00000000
     atom   14 type  3   force =     0.00000000    0.00000000    0.00000000
     atom   15 type  3   force =     0.00000000    0.00000000    0.00000000
     atom   16 type  3   force =     0.00000000    0.00000000    0.00000000
     atom   17 type  3   force =     0.00000000    0.00000000    0.00000000
     atom   18 type  3   force =     0.00000000    0.00000000    0.00000000
     atom   19 type  3   force =     0.00000000    0.00000000    0.00000000
     atom   20 type  3   force =     0.00000000    0.00000000    0.00000000
     The SCF correction term to forces
     atom    1 type  1   force =    -0.00002303    0.00013659   -0.00002348
     atom    2 type  1   force =     0.00007703   -0.00011825   -0.00000174
     atom    3 type  1   force =    -0.00002537    0.00022843    0.00001680
     atom    4 type  1   force =     0.00003792   -0.00021970   -0.00000545
     atom    5 type  2   force =     0.00004454    0.00049452    0.00017353
     atom    6 type  2   force =    -0.00032527   -0.00076274   -0.00004886
     atom    7 type  2   force =    -0.00026599   -0.00059030    0.00017626
     atom    8 type  2   force =    -0.00005775    0.00068109   -0.00003267
     atom    9 type  3   force =     0.00009599   -0.00016227    0.00008319
     atom   10 type  3   force =     0.00012517   -0.00014905    0.00002050
     atom   11 type  3   force =    -0.00009336   -0.00002577   -0.00006737
     atom   12 type  3   force =    -0.00007193    0.00004236   -0.00000637
     atom   13 type  3   force =     0.00001413    0.00019704   -0.00013236
     atom   14 type  3   force =     0.00009991    0.00017582   -0.00005926
     atom   15 type  3   force =    -0.00005977   -0.00009833   -0.00014461
     atom   16 type  3   force =    -0.00008214    0.00000852    0.00001143
     atom   17 type  3   force =     0.00010145    0.00014753    0.00000734
     atom   18 type  3   force =     0.00002628    0.00008673    0.00009964
     atom   19 type  3   force =    -0.00004105   -0.00020929    0.00012603
     atom   20 type  3   force =    -0.00009750   -0.00001649    0.00007244

     Total force =     0.046409     Total SCF correction =     0.001549

     Computing stress (Cartesian axis) and pressure

          total   stress  (Ry/bohr**3)                   (kbar)     P=       18.61
   0.00016251   0.00000000   0.00000000           23.91        0.00        0.00
   0.00000000   0.00015704   0.00000000            0.00       23.10        0.00
   0.00000000   0.00000000   0.00005992            0.00        0.00        8.81

     kinetic stress (kbar)   3074.06      0.00      0.00
                                0.00   3072.26      0.00
                                0.00      0.00   3059.89

     local   stress (kbar)   -549.76      0.00     -0.00
                                0.00   -606.32     -0.00
                               -0.00     -0.00   -550.87

     nonloc. stress (kbar)   1557.79      0.00      0.00
                                0.00   1557.57      0.00
                                0.00      0.00   1555.82

     hartree stress (kbar)   2365.14     -0.00      0.00
                               -0.00   2384.03      0.00
                                0.00      0.00   2338.93

     exc-cor stress (kbar)  12698.13     -0.00      0.00
                               -0.00  12698.31      0.00
                                0.00      0.00  12698.74

     corecor stress (kbar) -14429.42      0.00      0.00
                                0.00 -14429.20      0.00
                                0.00      0.00 -14428.47

     ewald   stress (kbar)  -4692.04     -0.00      0.00
                               -0.00  -4653.56     -0.00
                                0.00     -0.00  -4665.23

     hubbard stress (kbar)      0.00      0.00      0.00
                                0.00      0.00      0.00
                                0.00      0.00      0.00

     DFT-D   stress (kbar)      0.00      0.00      0.00
                                0.00      0.00      0.00
                                0.00      0.00      0.00

     XDM     stress (kbar)      0.00      0.00      0.00
                                0.00      0.00      0.00
                                0.00      0.00      0.00

     dft-nl  stress (kbar)      0.00      0.00      0.00
                                0.00      0.00      0.00
                                0.00      0.00      0.00

     TS-vdW  stress (kbar)      0.00      0.00      0.00
                                0.00      0.00      0.00
                                0.00      0.00      0.00

[...]

                                0.00      0.00      0.00

     Writing all to output data dir new_calculations/myprefix.save/

     General routines

     Parallel routines

     PAW routines

   This run was terminated on:  18:31:24  20May2023

   JOB DONE.