     Program PWSCF v.7.0 starts on 20May2023 at 19:39:42

     Reading input from espresso_23087.pwi
Warning: card &CELL ignored
Warning: card / ignored

     Current dimensions of program PWSCF are:
     Max number of different atomic species (ntypx) = 10
     Max number of k-points (npk) =  40000
     Max angular momentum in pseudopotentials (lmaxx) =  4

     gamma-point specific algorithms are used
     Message from routine setup:
     using ibrav=0 with symmetry is DISCOURAGED, use correct ibrav instead

     Subspace diagonalization in iterative solution of the eigenvalue problem:
     a serial algorithm will be used

     Using Slab Decomposition

     bravais-lattice index     =            0
     lattice parameter (alat)  =      14.2011  a.u.
     unit-cell volume          =    2025.1144 (a.u.)^3
     number of atoms/cell      =           10
     number of atomic types    =            4
     number of electrons       =        74.00
     number of Kohn-Sham states=           44
     kinetic-energy cutoff     =      30.0000  Ry
     charge density cutoff     =     240.0000  Ry
     scf convergence threshold =      1.0E-06
     mixing beta               =       0.7000
     number of iterations used =            8  plain     mixing
     Exchange-correlation=  SLA  PW   PBX  PBC
                           (   1   4   3   4   0   0   0)

     celldm(1)=  14.201085  celldm(2)=   0.000000  celldm(3)=   0.000000
     celldm(4)=   0.000000  celldm(5)=   0.000000  celldm(6)=   0.000000

     crystal axes: (cart. coord. in units of alat)
               a(1) = (   1.000000   0.000000   0.000000 )
               a(2) = (   0.500000   0.866025   0.000000 )
               a(3) = (   0.500000   0.288675   0.816497 )

     reciprocal axes: (cart. coord. in units 2 pi/alat)
               b(1) = (  1.000000 -0.577350 -0.408248 )
               b(2) = (  0.000000  1.154701 -0.408248 )
               b(3) = (  0.000000  0.000000  1.224745 )

     PseudoPot. # 1 for Cs read from file:
     /home/pragov/projects/rrg-bengioy-ad/pragov/crystal_structure_design/SSSP/Cs_pbe_v1.uspp.F.UPF
     MD5 check sum: 3476d69cb178dfad3ffaa59df4e07ca4
     Pseudo is Ultrasoft + core correction, Zval =  9.0
     Generated by new atomic code, or converted to UPF format
     Using radial grid of  905 points,  6 beta functions with:
                l(1) =   0
                l(2) =   0
                l(3) =   1
                l(4) =   1
                l(5) =   2
                l(6) =   2
     Q(r) pseudized with  6 coefficients,  rinner =    1.500   1.500   1.500
                                                       1.500   1.500

     PseudoPot. # 2 for Li read from file:
     /home/pragov/projects/rrg-bengioy-ad/pragov/crystal_structure_design/SSSP/li_pbe_v1.4.uspp.F.UPF
     MD5 check sum: e912e257baa3777c20ea3d68f190483c
     Pseudo is Ultrasoft, Zval =  3.0
     Generated by new atomic code, or converted to UPF format
     Using radial grid of  751 points,  5 beta functions with:
                l(1) =   0
                l(2) =   0
                l(3) =   0
                l(4) =   1
                l(5) =   1
     Q(r) pseudized with 10 coefficients,  rinner =    1.150   1.150   1.150

     PseudoPot. # 3 for Y  read from file:
     /home/pragov/projects/rrg-bengioy-ad/pragov/crystal_structure_design/SSSP/Y_pbe_v1.uspp.F.UPF
     MD5 check sum: 2cf71db95cafeb975fc457bd7f14888e
     Pseudo is Ultrasoft + core correction, Zval = 11.0
     Generated by new atomic code, or converted to UPF format
     Using radial grid of  885 points,  6 beta functions with:
                l(1) =   0
                l(2) =   0
                l(3) =   1
                l(4) =   1
                l(5) =   2
                l(6) =   2
     Q(r) pseudized with  6 coefficients,  rinner =    1.200   1.200   1.200
                                                       1.200   1.200

     PseudoPot. # 4 for Cl read from file:
     /home/pragov/projects/rrg-bengioy-ad/pragov/crystal_structure_design/SSSP/cl_pbe_v1.4.uspp.F.UPF
     MD5 check sum: fc6f6913ecf08c9257cb748ef0700058
     Pseudo is Ultrasoft + core correction, Zval =  7.0
     Generated by new atomic code, or converted to UPF format
     Using radial grid of  909 points,  6 beta functions with:
                l(1) =   0
                l(2) =   0
                l(3) =   1
                l(4) =   1
                l(5) =   2
                l(6) =   2
     Q(r) pseudized with  8 coefficients,  rinner =    1.300   1.300   1.300
                                                       1.300   1.300

     atomic species   valence    mass     pseudopotential
        Cs             9.00   132.90545     Cs( 1.00)
        Li             3.00     6.94000     Li( 1.00)
        Y             11.00    88.90584     Y ( 1.00)
        Cl             7.00    35.45000     Cl( 1.00)

     12 Sym. Ops., with inversion, found

                                    s                        frac. trans.

      isym =  1     identity

 cryst.   s( 1) = (     1          0          0      )
                  (     0          1          0      )
                  (     0          0          1      )

 cart.    s( 1) = (  1.0000000  0.0000000  0.0000000 )
                  (  0.0000000  1.0000000 -0.0000000 )
                  (  0.0000000  0.0000000  1.0000000 )

      isym =  2     180 deg rotation - cart. axis [1,0,0]

[...]

      isym =  3     120 deg rotation - cryst. axis [0,0,1]

[...]

      isym =  6     180 deg rotation - cryst. axis [1,1,0]

[...]

      isym =  7     inversion

[...]

      isym =  8     inv. 180 deg rotation - cart. axis [1,0,0]

[...]

      isym =  9     inv. 120 deg rotation - cryst. axis [0,0,1]

 cryst.   s( 9) = (     1         -1          0      )
                  (     1          0          0      )
                  (     1          0         -1      )

 cart.    s( 9) = (  0.5000000  0.8660254  0.0000000 )
                  ( -0.8660254  0.5000000  0.0000000 )
                  (  0.0000000  0.0000000 -1.0000000 )

[...]

 cryst.   s(10) = (     0          1          0      )
                  (    -1          1          0      )
                  (     0          1         -1      )

 cart.    s(10) = (  0.5000000 -0.8660254 -0.0000000 )
                  (  0.8660254  0.5000000  0.0000000 )
                  (  0.0000000  0.0000000 -1.0000000 )

[...]

      isym = 12     inv. 180 deg rotation - cryst. axis [1,1,0]

 cryst.   s(12) = (     1         -1          0      )
                  (     0         -1          0      )
                  (     0         -1          1      )

 cart.    s(12) = (  0.5000000 -0.8660254 -0.0000000 )
                  ( -0.8660254 -0.5000000 -0.0000000 )
                  (  0.0000000  0.0000000  1.0000000 )

   Cartesian axes

     site n.     atom                  positions (alat units)
         1           Cs  tau(   1) = (   1.5000000   0.8660254   0.6123724  )
         2           Cs  tau(   2) = (   0.5000000   0.2886751   0.2041241  )
         3           Li  tau(   3) = (   1.0000000   0.5773503   0.4082483  )
         4           Y   tau(   4) = (   0.0000000   0.0000000   0.0000000  )
         5           Cl  tau(   5) = (   1.0000000   0.2883068   0.2038637  )
         6           Cl  tau(   6) = (   0.7496810   0.4328285   0.6126329  )
         7           Cl  tau(   7) = (   1.0000000   0.8663938   0.6126329  )
         8           Cl  tau(   8) = (   0.7496810   0.7218720   0.2038637  )
         9           Cl  tau(   9) = (   1.2503190   0.4328285   0.6126329  )
        10           Cl  tau(  10) = (   1.2503190   0.7218720   0.2038637  )

   Crystallographic axes

     site n.     atom                  positions (cryst. coord.)
         1           Cs  tau(   1) = (  0.7500000  0.7500000  0.7500000  )
         2           Cs  tau(   2) = (  0.2500000  0.2500000  0.2500000  )
         3           Li  tau(   3) = (  0.5000000  0.5000000  0.5000000  )
         4           Y   tau(   4) = (  0.0000000  0.0000000  0.0000000  )
         5           Cl  tau(   5) = (  0.7503190  0.2496810  0.2496810  )
         6           Cl  tau(   6) = (  0.2496810  0.2496810  0.7503190  )
         7           Cl  tau(   7) = (  0.2496810  0.7503190  0.7503190  )
         8           Cl  tau(   8) = (  0.2496810  0.7503190  0.2496810  )
         9           Cl  tau(   9) = (  0.7503190  0.2496810  0.7503190  )
        10           Cl  tau(  10) = (  0.7503190  0.7503190  0.2496810  )

     number of k points=     1  Methfessel-Paxton smearing, width (Ry)=  0.0010
                       cart. coord. in units 2pi/alat
        k(    1) = (   0.0000000   0.0000000   0.0000000), wk =   2.0000000

                       cryst. coord.
        k(    1) = (   0.0000000   0.0000000   0.0000000), wk =   2.0000000

     Check: negative core charge=   -0.000002

     Initial potential from superposition of free atoms

     starting charge      73.4660, renormalised to      74.0000

     negative rho (up, down):  1.351E-01 0.000E+00
     Starting wfcs are   68 randomized atomic wfcs

     Self-consistent Calculation

     iteration #  1     ecut=    30.00 Ry     beta= 0.70
     Davidson diagonalization with overlap

     ethr =  1.00E-02,  avg # of iterations =  4.0

     Threshold (ethr) on eigenvalues was too large:
     Diagonalizing with lowered threshold

     Davidson diagonalization with overlap

[...]

     negative rho (up, down):  1.379E-01 0.000E+00

     total energy              =    -429.02403249 Ry
     estimated scf accuracy    <       0.46872534 Ry

[...]

     total energy              =    -429.21198156 Ry
     estimated scf accuracy    <       0.00000164 Ry

     iteration #  8     ecut=    30.00 Ry     beta= 0.70
     Davidson diagonalization with overlap

     ethr =  2.22E-09,  avg # of iterations =  2.0

[...]

     End of self-consistent calculation

          k = 0.0000 0.0000 0.0000 (  2801 PWs)   bands (ev):

   -41.8371 -38.4513 -18.4854 -18.4854 -18.4854 -16.7402 -16.7263 -10.5042
   -10.1095 -10.1095 -10.0866 -10.0866 -10.0865  -3.7223  -3.7223  -3.7223
    -3.6036  -3.6036  -3.6036  -0.4316   0.7133   0.7133   0.7133   0.9550
     0.9551   0.9637   0.9637   0.9637   1.8365   1.8365   1.8365   2.1824
     2.1824   2.1824   2.4090   2.4090   2.4090   7.2216   7.2216   7.2216
     7.8797   8.6669   8.6669   9.1018

     occupation numbers
     1.0000   1.0000   1.0000   1.0000   1.0000   1.0000   1.0000   1.0000
     1.0000   1.0000   1.0000   1.0000   1.0000   1.0000   1.0000   1.0000
     1.0000   1.0000   1.0000   1.0000   1.0000   1.0000   1.0000   1.0000
     1.0000   1.0000   1.0000   1.0000   1.0000   1.0000   1.0000   1.0000
     1.0000   1.0000   1.0000   1.0000   1.0000  -0.0000  -0.0000  -0.0000
    -0.0000  -0.0000  -0.0000  -0.0000

     the Fermi energy is     2.8365 ev

!    total energy              =    -429.21198177 Ry
     estimated scf accuracy    <       0.00000008 Ry
     smearing contrib. (-TS)   =       0.00000000 Ry
     internal energy E=F+TS    =    -429.21198177 Ry

     The total energy is F=E-TS. E is the sum of the following terms:
     one-electron contribution =     -92.86632108 Ry
     hartree contribution      =      72.45595704 Ry
     xc contribution           =    -143.12389736 Ry
     ewald contribution        =    -265.67772037 Ry

     convergence has been achieved in   8 iterations

     negative rho (up, down):  1.342E-01 0.000E+00

     Forces acting on atoms (cartesian axes, Ry/au):

     atom    1 type  1   force =     0.00000000    0.00000000   -0.00000020
     atom    2 type  1   force =     0.00000000    0.00000000    0.00000020
     atom    3 type  2   force =     0.00000000    0.00000000    0.00000000
     atom    4 type  3   force =     0.00000000    0.00000000    0.00000000
     atom    5 type  4   force =     0.00000000   -0.00832323   -0.00589159
     atom    6 type  4   force =    -0.00720813   -0.00416162    0.00589159
     atom    7 type  4   force =     0.00000000    0.00832323    0.00589159
     atom    8 type  4   force =    -0.00720813    0.00416162   -0.00589159
     atom    9 type  4   force =     0.00720813   -0.00416162    0.00589159
     atom   10 type  4   force =     0.00720813    0.00416162   -0.00589159
     The non-local contrib.  to forces
     atom    1 type  1   force =     0.00000000    0.00000000    0.00000192
     atom    2 type  1   force =     0.00000000    0.00000000   -0.00000192
     atom    3 type  2   force =    -0.00000000    0.00000000   -0.00000000
     atom    4 type  3   force =     0.00000000    0.00000000    0.00000000
     atom    5 type  4   force =     0.00000000   -0.02997170   -0.02119559
     atom    6 type  4   force =    -0.02595625   -0.01498585    0.02119559
     atom    7 type  4   force =     0.00000000    0.02997170    0.02119559
     atom    8 type  4   force =    -0.02595625    0.01498585   -0.02119559
     atom    9 type  4   force =     0.02595625   -0.01498585    0.02119559
     atom   10 type  4   force =     0.02595625    0.01498585   -0.02119559
     The ionic contribution  to forces
     atom    1 type  1   force =     0.00000000   -0.00000000   -0.00000000
     atom    2 type  1   force =     0.00000000    0.00000000   -0.00000000
     atom    3 type  2   force =     0.00000000    0.00000000    0.00000000
     atom    4 type  3   force =    -0.00000000    0.00000000   -0.00000000
     atom    5 type  4   force =     0.00000000    2.85086435    2.01586551
     atom    6 type  4   force =     2.46892095    1.42543217   -2.01586551
     atom    7 type  4   force =     0.00000000   -2.85086435   -2.01586551
     atom    8 type  4   force =     2.46892095   -1.42543217    2.01586551
     atom    9 type  4   force =    -2.46892095    1.42543217   -2.01586551
     atom   10 type  4   force =    -2.46892095   -1.42543217    2.01586551
     The local contribution  to forces
     atom    1 type  1   force =    -0.00000406    0.00000843    0.00000332
     atom    2 type  1   force =     0.00002290    0.00002897    0.00002035
     atom    3 type  2   force =    -0.00000678    0.00000510    0.00000394
     atom    4 type  3   force =    -0.00005567    0.00002555    0.00004524
     atom    5 type  4   force =    -0.00003313   -2.82879304   -2.00025202
     atom    6 type  4   force =    -2.44983573   -1.41439885    2.00027839
     atom    7 type  4   force =    -0.00000929    2.82875525    2.00022310
     atom    8 type  4   force =    -2.44981987    1.41441206   -2.00026249
     atom    9 type  4   force =     2.44984977   -1.41441280    2.00029833
     atom   10 type  4   force =     2.44985916    1.41446881   -2.00030871
     The core correction contribution to forces
     atom    1 type  1   force =    -0.00000179    0.00000036    0.00000114
     atom    2 type  1   force =     0.00000177    0.00000375    0.00000207
     atom    3 type  2   force =     0.00000000    0.00000000    0.00000000
     atom    4 type  3   force =    -0.00000272    0.00000075    0.00000182
     atom    5 type  4   force =    -0.00000073   -0.00010500   -0.00007429
     atom    6 type  4   force =    -0.00009319   -0.00005313    0.00007590
     atom    7 type  4   force =     0.00000021    0.00010540    0.00007378
     atom    8 type  4   force =    -0.00009283    0.00005326   -0.00007622
     atom    9 type  4   force =     0.00009299   -0.00005316    0.00007599
     atom   10 type  4   force =     0.00009440    0.00005492   -0.00007638
     The Hubbard contrib.    to forces
     atom    1 type  1   force =     0.00000000    0.00000000    0.00000000
     atom    2 type  1   force =     0.00000000    0.00000000    0.00000000
     atom    3 type  2   force =     0.00000000    0.00000000    0.00000000
     atom    4 type  3   force =     0.00000000    0.00000000    0.00000000
     atom    5 type  4   force =     0.00000000    0.00000000    0.00000000
     atom    6 type  4   force =     0.00000000    0.00000000    0.00000000
     atom    7 type  4   force =     0.00000000    0.00000000    0.00000000
     atom    8 type  4   force =     0.00000000    0.00000000    0.00000000
     atom    9 type  4   force =     0.00000000    0.00000000    0.00000000
     atom   10 type  4   force =     0.00000000    0.00000000    0.00000000
     The SCF correction term to forces
     atom    1 type  1   force =    -0.00002098   -0.00000438    0.00001231
     atom    2 type  1   force =    -0.00001669    0.00001344   -0.00000141
     atom    3 type  2   force =    -0.00000032    0.00000022   -0.00000636
     atom    4 type  3   force =     0.00006255   -0.00003158   -0.00003316
     atom    5 type  4   force =     0.00002891   -0.00027996   -0.00021535
     atom    6 type  4   force =    -0.00026068   -0.00016716    0.00021819
     atom    7 type  4   force =     0.00002781    0.00032347    0.00025039
     atom    8 type  4   force =    -0.00026787    0.00014131   -0.00024318
     atom    9 type  4   force =     0.00025226   -0.00013228    0.00017998
     atom   10 type  4   force =     0.00024733    0.00009373   -0.00018639

     Total force =     0.024978     Total SCF correction =     0.000902

     Computing stress (Cartesian axis) and pressure

     negative rho (up, down):  1.342E-01 0.000E+00
          total   stress  (Ry/bohr**3)                   (kbar)     P=       33.33
   0.00022656   0.00000000   0.00000000           33.33        0.00        0.00
   0.00000000   0.00022656   0.00000000            0.00       33.33        0.00
   0.00000000   0.00000000   0.00022655            0.00        0.00       33.33

     kinetic stress (kbar)   5666.11      0.00      0.00
                                0.00   5666.11      0.00
                                0.00      0.00   5666.11

     local   stress (kbar)  -5066.45     -0.00      0.00
                               -0.00  -5066.44     -0.00
                                0.00     -0.00  -5066.45

     nonloc. stress (kbar)   6058.32     -0.00     -0.00
                               -0.00   6058.32      0.00
                               -0.00      0.00   6058.32

     hartree stress (kbar)   1754.41      0.00      0.00
                                0.00   1754.41      0.00
                                0.00      0.00   1754.41

     exc-cor stress (kbar)   4065.77      0.00     -0.00
                                0.00   4065.77      0.00
                               -0.00      0.00   4065.77

     corecor stress (kbar)  -6011.86     -0.00      0.00
                               -0.00  -6011.86     -0.00
                                0.00     -0.00  -6011.86

     ewald   stress (kbar)  -6432.98      0.00      0.00
                                0.00  -6432.98     -0.00
                                0.00     -0.00  -6432.98

     hubbard stress (kbar)      0.00      0.00      0.00
                                0.00      0.00      0.00
                                0.00      0.00      0.00

     DFT-D   stress (kbar)      0.00      0.00      0.00
                                0.00      0.00      0.00
                                0.00      0.00      0.00

     XDM     stress (kbar)      0.00      0.00      0.00
                                0.00      0.00      0.00
                                0.00      0.00      0.00

     dft-nl  stress (kbar)      0.00      0.00      0.00
                                0.00      0.00      0.00
                                0.00      0.00      0.00

     TS-vdW  stress (kbar)      0.00      0.00      0.00
                                0.00      0.00      0.00
                                0.00      0.00      0.00

[...]

                                0.00      0.00      0.00

     Writing all to output data dir new_calculations/myprefix.save/

     General routines

     Parallel routines

   This run was terminated on:  19:40: 5  20May2023

   JOB DONE.