     Program PWSCF v.7.0 starts on 20May2023 at 18:17:52

     Reading input from espresso_5593.pwi
Warning: card &CELL ignored
Warning: card / ignored

     Current dimensions of program PWSCF are:
     Max number of different atomic species (ntypx) = 10
     Max number of k-points (npk) =  40000
     Max angular momentum in pseudopotentials (lmaxx) =  4
     file Ba.pbe-spn-kjpaw_psl.1.0.0.UPF: wavefunction(s)  5S 6S renormalized

     gamma-point specific algorithms are used
     Message from routine setup:
     using ibrav=0 with symmetry is DISCOURAGED, use correct ibrav instead

     Subspace diagonalization in iterative solution of the eigenvalue problem:
     a serial algorithm will be used

     Using Slab Decomposition

     bravais-lattice index     =            0
     lattice parameter (alat)  =      13.1493  a.u.
     unit-cell volume          =    2285.6807 (a.u.)^3
     number of atoms/cell      =           14
     number of atomic types    =            4
     number of electrons       =       166.00
     number of Kohn-Sham states=          100
     kinetic-energy cutoff     =      30.0000  Ry
     charge density cutoff     =     240.0000  Ry
     scf convergence threshold =      1.0E-06
     mixing beta               =       0.7000
     number of iterations used =            8  plain     mixing
     Exchange-correlation=  SLA  PW   PBX  PBC
                           (   1   4   3   4   0   0   0)

     celldm(1)=  13.149336  celldm(2)=   0.000000  celldm(3)=   0.000000
     celldm(4)=   0.000000  celldm(5)=   0.000000  celldm(6)=   0.000000

     crystal axes: (cart. coord. in units of alat)
               a(1) = (   1.000000   0.000000   0.000000 )
               a(2) = (   0.000000   0.996130   0.000000 )
               a(3) = (   0.000000   0.013394   1.009225 )

     reciprocal axes: (cart. coord. in units 2 pi/alat)
               b(1) = (  1.000000  0.000000  0.000000 )
               b(2) = (  0.000000  1.003885 -0.013323 )
               b(3) = (  0.000000  0.000000  0.990859 )

     PseudoPot. # 1 for Ba read from file:
     /home/pragov/projects/rrg-bengioy-ad/pragov/crystal_structure_design/SSSP/Ba.pbe-spn-kjpaw_psl.1.0.0.UPF
     MD5 check sum: c432291d3e53af55f19d5e8866385beb
     Pseudo is Projector augmented-wave + core cor, Zval = 10.0
     Generated using "atomic" code by A. Dal Corso  v.5.1
     Shape of augmentation charge: PSQ
     Using radial grid of 1251 points,  7 beta functions with:
                l(1) =   0
                l(2) =   0
                l(3) =   0
                l(4) =   1
                l(5) =   1
                l(6) =   2
                l(7) =   2
     Q(r) pseudized with 0 coefficients

     PseudoPot. # 2 for Cu read from file:
     /home/pragov/projects/rrg-bengioy-ad/pragov/crystal_structure_design/SSSP/Cu_pbe_v1.2.uspp.F.UPF
     MD5 check sum: 6e991ff952a84172a2a52a1c1e996048
     Pseudo is Ultrasoft + core correction, Zval = 19.0
     Generated by new atomic code, or converted to UPF format
     Using radial grid of  867 points,  6 beta functions with:
                l(1) =   0
                l(2) =   0
                l(3) =   1
                l(4) =   1
                l(5) =   2
                l(6) =   2
     Q(r) pseudized with  8 coefficients,  rinner =    1.150   1.150   1.150
                                                       1.150   1.150

     PseudoPot. # 3 for Te read from file:
     /home/pragov/projects/rrg-bengioy-ad/pragov/crystal_structure_design/SSSP/Te_pbe_v1.uspp.F.UPF
     MD5 check sum: c319670d6894cc26e93307826a071b75
     Pseudo is Ultrasoft + core correction, Zval =  6.0
     Generated by new atomic code, or converted to UPF format
     Using radial grid of  891 points,  5 beta functions with:
                l(1) =   0
                l(2) =   0
                l(3) =   1
                l(4) =   1
                l(5) =   2
     Q(r) pseudized with  6 coefficients,  rinner =    1.800   1.800   1.800
                                                       1.800   1.800

     PseudoPot. # 4 for S  read from file:
     /home/pragov/projects/rrg-bengioy-ad/pragov/crystal_structure_design/SSSP/s_pbe_v1.4.uspp.F.UPF
     MD5 check sum: 88d86576ff6df21479756cfb9bdac1df
     Pseudo is Ultrasoft + core correction, Zval =  6.0
     Generated by new atomic code, or converted to UPF format
     Using radial grid of  907 points,  6 beta functions with:
                l(1) =   0
                l(2) =   0
                l(3) =   1
                l(4) =   1
                l(5) =   2
                l(6) =   2
     Q(r) pseudized with  8 coefficients,  rinner =    1.300   1.300   1.300
                                                       1.300   1.300

     atomic species   valence    mass     pseudopotential
        Ba            10.00   137.32700     Ba( 1.00)
        Cu            19.00    63.54600     Cu( 1.00)
        Te             6.00   127.60000     Te( 1.00)
        S              6.00    32.06000     S ( 1.00)

      2 Sym. Ops. (no inversion) found

                                    s                        frac. trans.

      isym =  1     identity

 cryst.   s( 1) = (     1          0          0      )
                  (     0          1          0      )
                  (     0          0          1      )

 cart.    s( 1) = (  1.0000000  0.0000000  0.0000000 )
                  (  0.0000000  1.0000000 -0.0000000 )
                  (  0.0000000  0.0000000  1.0000000 )

      isym =  2     180 deg rotation - cart. axis [1,0,0]

 cryst.   s( 2) = (     1          0          0      )
                  (     0         -1          0      )
                  (     0          0         -1      )

 cart.    s( 2) = (  1.0000000  0.0000000  0.0000000 )
                  (  0.0000000 -1.0000000  0.0000000 )
                  (  0.0000000  0.0000000 -1.0000000 )

   Cartesian axes

     site n.     atom                  positions (alat units)
         1           Ba  tau(   1) = (   0.4986540   0.5047622   0.5046125  )
         2           Cu  tau(   2) = (   0.1937560   0.1915719   0.1969543  )
         3           Cu  tau(   3) = (   0.1937560   0.8179525   0.8122706  )
         4           Cu  tau(   4) = (   0.8112100   0.1997753   0.8189668  )
         5           Cu  tau(   5) = (   0.8112100   0.8097492   0.1902581  )
         6           Cu  tau(   6) = (   0.8054250   0.8044597   0.8129256  )
         7           Cu  tau(   7) = (   0.8054250   0.2050647   0.1962993  )
         8           Te  tau(   8) = (   0.2946430   0.0066971   0.5046125  )
         9           Te  tau(   9) = (   0.7006880   0.0066971   0.5046125  )
        10           Te  tau(  10) = (   0.4955290   0.3071202   1.0084821  )
        11           Te  tau(  11) = (   0.4955290   0.7024042   0.0007428  )
        12           Te  tau(  12) = (   0.9996480   0.5021014   0.7094306  )
        13           Te  tau(  13) = (   0.9996480   0.5074230   0.2997943  )
        14           S   tau(  14) = (   0.0058400   0.0000000   0.0000000  )

   Crystallographic axes

     site n.     atom                  positions (cryst. coord.)
         1           Ba  tau(   1) = (  0.4986540  0.5000000  0.5000000  )
         2           Cu  tau(   2) = (  0.1937560  0.1896920  0.1951540  )
         3           Cu  tau(   3) = (  0.1937560  0.8103080  0.8048460  )
         4           Cu  tau(   4) = (  0.8112100  0.1896400  0.8114810  )
         5           Cu  tau(   5) = (  0.8112100  0.8103600  0.1885190  )
         6           Cu  tau(   6) = (  0.8054250  0.7967540  0.8054950  )
         7           Cu  tau(   7) = (  0.8054250  0.2032460  0.1945050  )
         8           Te  tau(   8) = (  0.2946430 -0.0000000  0.5000000  )
         9           Te  tau(   9) = (  0.7006880 -0.0000000  0.5000000  )
        10           Te  tau(  10) = (  0.4955290  0.2948770  0.9992640  )
        11           Te  tau(  11) = (  0.4955290  0.7051230  0.0007360  )
        12           Te  tau(  12) = (  0.9996480  0.4946000  0.7029460  )
        13           Te  tau(  13) = (  0.9996480  0.5054000  0.2970540  )
        14           S   tau(  14) = (  0.0058400  0.0000000  0.0000000  )

     number of k points=     1  Methfessel-Paxton smearing, width (Ry)=  0.0010
                       cart. coord. in units 2pi/alat
        k(    1) = (   0.0000000   0.0000000   0.0000000), wk =   2.0000000

                       cryst. coord.
        k(    1) = (   0.0000000   0.0000000   0.0000000), wk =   2.0000000

     Initial potential from superposition of free atoms

     starting charge     159.9816, renormalised to     166.0000
     Starting wfcs are  111 randomized atomic wfcs
     Checking if some PAW data can be deallocated...

     Self-consistent Calculation

     iteration #  1     ecut=    30.00 Ry     beta= 0.70
     Davidson diagonalization with overlap

     ethr =  1.00E-02,  avg # of iterations =  5.0

     total energy              =   -3039.02852165 Ry
     estimated scf accuracy    <       5.12771592 Ry

[...]

     total energy              =   -3041.97455786 Ry
     estimated scf accuracy    <       0.00000172 Ry

     iteration # 16     ecut=    30.00 Ry     beta= 0.70
     Davidson diagonalization with overlap

     ethr =  1.04E-09,  avg # of iterations =  2.0

     End of self-consistent calculation

          k = 0.0000 0.0000 0.0000 (  3180 PWs)   bands (ev):

  -103.5725-103.5719-103.5641-103.5633-103.4734-103.4722 -60.9910 -60.9905
   -60.9759 -60.9751 -60.9686 -60.9665 -60.9518 -60.9514 -60.9383 -60.9379
   -60.9339 -60.9314 -60.8950 -60.8938 -60.8589 -60.8580 -60.8472 -60.8455
   -19.6170  -5.1405  -4.8927  -4.8810  -4.8701  -4.2545  -3.8111  -3.7815
    -2.2602  -2.1772  -2.0706   2.4285   2.7287   2.9455   3.3997   3.4255
     3.6053   3.9985   4.2290   4.2559   4.4377   4.6428   4.9000   5.0547
     5.0575   5.1110   5.3802   5.4803   5.7835   5.9081   5.9649   6.0029
     6.1684   6.1821   6.2619   6.2644   6.2912   6.3741   6.3838   6.4323
     6.4660   6.5115   6.5301   6.5541   6.5557   6.6000   6.6136   6.6521
     6.7118   6.7230   6.7489   6.8384   7.0859   7.5017   7.5698   7.6880
     8.1438   8.2199   8.2633   9.8364  10.2261  10.3591  10.3663  10.9439
    11.4816  11.6175  11.6710  12.3212  12.3246  12.3449  12.6007  12.6887
    12.8200  12.8712  13.1450  13.6038

     occupation numbers
     1.0000   1.0000   1.0000   1.0000   1.0000   1.0000   1.0000   1.0000
     1.0000   1.0000   1.0000   1.0000   1.0000   1.0000   1.0000   1.0000
     1.0000   1.0000   1.0000   1.0000   1.0000   1.0000   1.0000   1.0000
     1.0000   1.0000   1.0000   1.0000   1.0000   1.0000   1.0000   1.0000
     1.0000   1.0000   1.0000   1.0000   1.0000   1.0000   1.0000   1.0000
     1.0000   1.0000   1.0000   1.0000   1.0000   1.0000   1.0000   1.0000
     1.0000   1.0000   1.0000   1.0000   1.0000   1.0000   1.0000   1.0000
     1.0000   1.0000   1.0000   1.0000   1.0000   1.0000   1.0000   1.0000
     1.0000   1.0000   1.0000   1.0000   1.0000   1.0000   1.0000   1.0000
     1.0000   1.0000   1.0000   1.0000   1.0000   1.0000   1.0000   1.0000
     1.0000   1.0000   1.0000  -0.0000  -0.0000  -0.0000  -0.0000  -0.0000
    -0.0000  -0.0000  -0.0000  -0.0000  -0.0000  -0.0000  -0.0000  -0.0000
    -0.0000  -0.0000  -0.0000  -0.0000

     the Fermi energy is     9.1521 ev

!    total energy              =   -3041.97455796 Ry
     estimated scf accuracy    <       0.00000023 Ry
     smearing contrib. (-TS)   =       0.00000000 Ry
     internal energy E=F+TS    =   -3041.97455796 Ry

     The total energy is F=E-TS. E is the sum of the following terms:
     one-electron contribution =   -2742.77043666 Ry
     hartree contribution      =    1437.97419057 Ry
     xc contribution           =    -348.49729805 Ry
     ewald contribution        =   -1013.72707165 Ry
     one-center paw contrib.   =    -374.95394216 Ry
      -> PAW hartree energy AE =      28.71930958 Ry
      -> PAW hartree energy PS =     -28.60581915 Ry
      -> PAW xc energy AE      =    -394.22464318 Ry
      -> PAW xc energy PS      =      19.15721059 Ry
      -> total E_H with PAW    =    1438.08768100 Ry
      -> total E_XC with PAW   =    -723.56473064 Ry

     convergence has been achieved in  16 iterations

     Forces acting on atoms (cartesian axes, Ry/au):

     atom    1 type  1   force =     0.00138618    0.00000000    0.00000000
     atom    2 type  2   force =    -0.00027751    0.00108271    0.00255711
     atom    3 type  2   force =    -0.00027751   -0.00108271   -0.00255711
     atom    4 type  2   force =    -0.00336312   -0.00107134   -0.00108750
     atom    5 type  2   force =    -0.00336312    0.00107134    0.00108750
     atom    6 type  2   force =    -0.00609924   -0.00813707   -0.00389877
     atom    7 type  2   force =    -0.00609924    0.00813707    0.00389877
     atom    8 type  3   force =    -0.00389138    0.00000000    0.00000000
     atom    9 type  3   force =     0.00531496    0.00000000    0.00000000
     atom   10 type  3   force =    -0.00238504   -0.00418777   -0.00436143
     atom   11 type  3   force =    -0.00238504    0.00418777    0.00436143
     atom   12 type  3   force =     0.00437017   -0.00225622    0.00210745
     atom   13 type  3   force =     0.00437017    0.00225622   -0.00210745
     atom   14 type  4   force =     0.01269972    0.00000000    0.00000000
     The non-local contrib.  to forces
     atom    1 type  1   force =    -0.01480389    0.00000000    0.00000000
     atom    2 type  2   force =     0.14053630    0.25096571    0.15906926
     atom    3 type  2   force =     0.14053630   -0.25096571   -0.15906926
     atom    4 type  2   force =    -0.28073622    0.17140933   -0.24565624
     atom    5 type  2   force =    -0.28073622   -0.17140933    0.24565624
     atom    6 type  2   force =    -0.08007763    0.03871580   -0.12275755
     atom    7 type  2   force =    -0.08007763   -0.03871580    0.12275755
     atom    8 type  3   force =    -0.01384745    0.00000000    0.00000000
     atom    9 type  3   force =    -0.00793532    0.00000000    0.00000000
     atom   10 type  3   force =    -0.07854289   -0.00070571   -0.05241056
     atom   11 type  3   force =    -0.07854289    0.00070571    0.05241056
     atom   12 type  3   force =     0.05802217   -0.07951319    0.00773814
     atom   13 type  3   force =     0.05802217    0.07951319   -0.00773814
     atom   14 type  4   force =    -0.18591170    0.00000000    0.00000000
     The ionic contribution  to forces
     atom    1 type  1   force =    -5.60550697   -0.00000000    0.00000000
     atom    2 type  2   force =    28.42709226   10.64539999   11.46771723
     atom    3 type  2   force =    28.42709226  -10.64539999  -11.46771723
     atom    4 type  2   force =    -9.10708054   24.98749491  -27.34412309
     atom    5 type  2   force =    -9.10708054  -24.98749491   27.34412309
     atom    6 type  2   force =   -19.17546875  -23.28365246  -23.59048315
     atom    7 type  2   force =   -19.17546875   23.28365246   23.59048315
     atom    8 type  3   force =     3.59505671    0.00000000    0.00000000
     atom    9 type  3   force =    -7.32777616    0.00000000    0.00000000
     atom   10 type  3   force =    -6.76928223    5.19367602   -3.29661736
     atom   11 type  3   force =    -6.76928223   -5.19367602    3.29661736
     atom   12 type  3   force =     5.56455060   -3.85634743   -5.74770179
     atom   13 type  3   force =     5.56455060    3.85634743    5.74770179
     atom   14 type  4   force =    11.45860372   -0.00000000   -0.00000000
     The local contribution  to forces
     atom    1 type  1   force =     5.62007278    0.00008654    0.00026876
     atom    2 type  2   force =   -28.56716268  -10.89463546  -11.62365745
     atom    3 type  2   force =   -28.56720307   10.89458791   11.62367764
     atom    4 type  2   force =     9.38395709  -25.15945800   27.58790222
     atom    5 type  2   force =     9.38390163   25.15947754  -27.58793988
     atom    6 type  2   force =    19.24895741   23.23642032   23.70865341
     atom    7 type  2   force =    19.24898974  -23.23643795  -23.70866972
     atom    8 type  3   force =    -3.57876806   -0.00000028   -0.00000030
     atom    9 type  3   force =     7.33955703   -0.00000290    0.00000716
     atom   10 type  3   force =     6.85765588   -5.19377533    3.35344881
     atom   11 type  3   force =     6.85765603    5.19378646   -3.35344926
     atom   12 type  3   force =    -5.62783967    3.94612040    5.73814599
     atom   13 type  3   force =    -5.62783684   -3.94611411   -5.73813371
     atom   14 type  4   force =   -11.27031418    0.00000653   -0.00000106
     The core correction contribution to forces
     atom    1 type  1   force =     0.00147352    0.00000202    0.00000795
     atom    2 type  2   force =    -0.00021255   -0.00031346   -0.00019299
     atom    3 type  2   force =    -0.00021252    0.00031348    0.00019300
     atom    4 type  2   force =     0.00034577   -0.00025516    0.00035431
     atom    5 type  2   force =     0.00034575    0.00025510   -0.00035428
     atom    6 type  2   force =     0.00011388    0.00000433    0.00017520
     atom    7 type  2   force =     0.00011386   -0.00000432   -0.00017513
     atom    8 type  3   force =    -0.00622316    0.00000019   -0.00000049
     atom    9 type  3   force =     0.00132352   -0.00000038   -0.00000012
     atom   10 type  3   force =    -0.01230228   -0.00327820   -0.00877872
     atom   11 type  3   force =    -0.01230146    0.00327752    0.00877849
     atom   12 type  3   force =     0.00970370   -0.01250844    0.00380094
     atom   13 type  3   force =     0.00970414    0.01250794   -0.00380111
     atom   14 type  4   force =     0.01041754    0.00000034    0.00000035
     The Hubbard contrib.    to forces
     atom    1 type  1   force =     0.00000000    0.00000000    0.00000000
     atom    2 type  2   force =     0.00000000    0.00000000    0.00000000
     atom    3 type  2   force =     0.00000000    0.00000000    0.00000000
     atom    4 type  2   force =     0.00000000    0.00000000    0.00000000
     atom    5 type  2   force =     0.00000000    0.00000000    0.00000000
     atom    6 type  2   force =     0.00000000    0.00000000    0.00000000
     atom    7 type  2   force =     0.00000000    0.00000000    0.00000000
     atom    8 type  3   force =     0.00000000    0.00000000    0.00000000
     atom    9 type  3   force =     0.00000000    0.00000000    0.00000000
     atom   10 type  3   force =     0.00000000    0.00000000    0.00000000
     atom   11 type  3   force =     0.00000000    0.00000000    0.00000000
     atom   12 type  3   force =     0.00000000    0.00000000    0.00000000
     atom   13 type  3   force =     0.00000000    0.00000000    0.00000000
     atom   14 type  4   force =     0.00000000    0.00000000    0.00000000
     The SCF correction term to forces
     atom    1 type  1   force =     0.00014695   -0.00001729   -0.00003776
     atom    2 type  2   force =    -0.00053077   -0.00032708   -0.00037552
     atom    3 type  2   force =    -0.00049813    0.00038856    0.00036216
     atom    4 type  2   force =     0.00014304   -0.00025626    0.00041739
     atom    5 type  2   force =     0.00020639    0.00024908   -0.00041560
     atom    6 type  2   force =     0.00038907    0.00038121    0.00051830
     atom    7 type  2   force =     0.00032271   -0.00035105   -0.00049210
     atom    8 type  3   force =    -0.00011320   -0.00000065    0.00000508
     atom    9 type  3   force =     0.00014210    0.00000815   -0.00000813
     atom   10 type  3   force =     0.00008695   -0.00010206   -0.00000089
     atom   11 type  3   force =     0.00007744    0.00009659    0.00000700
     atom   12 type  3   force =    -0.00006802   -0.00000586    0.00012510
     atom   13 type  3   force =    -0.00007611    0.00000347   -0.00013536
     atom   14 type  4   force =    -0.00009946   -0.00000163    0.00000825

     Total force =     0.025069     Total SCF correction =     0.001666

     Computing stress (Cartesian axis) and pressure

          total   stress  (Ry/bohr**3)                   (kbar)     P=     -253.15
  -0.00170438   0.00000000   0.00000000         -250.72        0.00        0.00
   0.00000000  -0.00174355  -0.00002281            0.00     -256.48       -3.36
   0.00000000  -0.00002281  -0.00171476            0.00       -3.36     -252.25

     kinetic stress (kbar)  13110.07      0.00      0.00
                                0.00  13115.89     -0.63
                                0.00     -0.63  13110.82

     local   stress (kbar) -16016.98     -0.01     -0.00
                               -0.01 -25511.84  -4739.25
                               -0.00  -4739.25 -24613.80

     nonloc. stress (kbar)   5496.61      0.00      0.00
                                0.00   5492.68      2.17
                                0.00      2.17   5495.76

     hartree stress (kbar)  27913.14      0.00      0.00
                                0.00  32556.81   2260.29
                                0.00   2260.29  32077.23

     exc-cor stress (kbar)   -465.47      0.00     -0.00
                                0.00   -465.51     -0.28
                               -0.00     -0.28   -465.54

     corecor stress (kbar)  -5448.80      0.00     -0.00
                                0.00  -5448.71      0.50
                               -0.00      0.50  -5448.92

     ewald   stress (kbar) -24839.29     -0.00      0.00
                               -0.00 -19995.79   2473.85
                                0.00   2473.85 -20407.80

     hubbard stress (kbar)      0.00      0.00      0.00
                                0.00      0.00      0.00
                                0.00      0.00      0.00

     DFT-D   stress (kbar)      0.00      0.00      0.00
                                0.00      0.00      0.00
                                0.00      0.00      0.00

     XDM     stress (kbar)      0.00      0.00      0.00
                                0.00      0.00      0.00
                                0.00      0.00      0.00

     dft-nl  stress (kbar)      0.00      0.00      0.00
                                0.00      0.00      0.00
                                0.00      0.00      0.00

     TS-vdW  stress (kbar)      0.00      0.00      0.00
                                0.00      0.00      0.00
                                0.00      0.00      0.00

[...]

                                0.00      0.00      0.00

     Writing all to output data dir new_calculations/myprefix.save/

     General routines

     Parallel routines

     PAW routines

   This run was terminated on:  18:18:53  20May2023

   JOB DONE.