     Program PWSCF v.7.0 starts on 20May2023 at 22: 4:58

     Reading input from espresso_16641.pwi
Warning: card &CELL ignored
Warning: card / ignored

     Current dimensions of program PWSCF are:
     Max number of different atomic species (ntypx) = 10
     Max number of k-points (npk) =  40000
     Max angular momentum in pseudopotentials (lmaxx) =  4
     file Mg.pbe-n-kjpaw_psl.0.3.0.UPF: wavefunction(s)  3S renormalized

     gamma-point specific algorithms are used
     Message from routine setup:
     using ibrav=0 with symmetry is DISCOURAGED, use correct ibrav instead

     Subspace diagonalization in iterative solution of the eigenvalue problem:
     a serial algorithm will be used

     Using Slab Decomposition

     bravais-lattice index     =            0
     lattice parameter (alat)  =      11.6912  a.u.
     unit-cell volume          =    1129.9484 (a.u.)^3
     number of atoms/cell      =            6
     number of atomic types    =            2
     number of electrons       =        56.00
     number of Kohn-Sham states=           34
     kinetic-energy cutoff     =      30.0000  Ry
     charge density cutoff     =     240.0000  Ry
     scf convergence threshold =      1.0E-06
     mixing beta               =       0.7000
     number of iterations used =            8  plain     mixing
     Exchange-correlation= SLA  PW   PBX  PBC
                           (   1   4   3   4   0   0   0)

     celldm(1)=  11.691167  celldm(2)=   0.000000  celldm(3)=   0.000000
     celldm(4)=   0.000000  celldm(5)=   0.000000  celldm(6)=   0.000000

     crystal axes: (cart. coord. in units of alat)
               a(1) = (   1.000000   0.000000   0.000000 )
               a(2) = (   0.500000   0.866025   0.000000 )
               a(3) = (   0.500000   0.288675   0.816497 )

     reciprocal axes: (cart. coord. in units 2 pi/alat)
               b(1) = (  1.000000 -0.577350 -0.408248 )
               b(2) = (  0.000000  1.154701 -0.408248 )
               b(3) = (  0.000000  0.000000  1.224745 )

     PseudoPot. # 1 for Yb read from file:
     /home/pragov/projects/rrg-bengioy-ad/pragov/crystal_structure_design/SSSP/Yb.GGA-PBE-paw-v1.0.UPF
     MD5 check sum: 43b6465ad8021f06e3edb42ae292e187
     Pseudo is Projector augmented-wave + core cor, Zval = 24.0
     Generated using ATOMPAW code
     Shape of augmentation charge: BESSEL
     Using radial grid of 1117 points,  8 beta functions with:
                l(1) =   0
                l(2) =   0
                l(3) =   1
                l(4) =   1
                l(5) =   2
                l(6) =   2
                l(7) =   3
                l(8) =   3
     Q(r) pseudized with 0 coefficients

     PseudoPot. # 2 for Mg read from file:
     /home/pragov/projects/rrg-bengioy-ad/pragov/crystal_structure_design/SSSP/Mg.pbe-n-kjpaw_psl.0.3.0.UPF
     MD5 check sum: 24ecedc7f3e3cbe212e682f4413594e4
     Pseudo is Projector augmented-wave + core cor, Zval =  2.0
     Generated using "atomic" code by A. Dal Corso  v.5.0.99 svn rev. 10869
     Shape of augmentation charge: PSQ
     Using radial grid of 1129 points,  4 beta functions with:
                l(1) =   0
                l(2) =   0
                l(3) =   1
                l(4) =   1
     Q(r) pseudized with 0 coefficients

     atomic species   valence    mass     pseudopotential
        Yb            24.00   173.05400     Yb( 1.00)
        Mg             2.00    24.30500     Mg( 1.00)

     12 Sym. Ops., with inversion, found ( 6 have fractional translation)

                                    s                        frac. trans.

      isym =  1     identity

 cryst.   s( 1) = (     1          0          0      )
                  (     0          1          0      )
                  (     0          0          1      )

 cart.    s( 1) = (  1.0000000  0.0000000  0.0000000 )
                  (  0.0000000  1.0000000  0.0000000 )
                  (  0.0000000  0.0000000  1.0000000 )

      isym =  2     180 deg rotation - cart. axis [1,0,0]

 cryst.   s( 2) = (     1          0          0      )    f =( -0.2500000 )
                  (     1         -1          0      )       ( -0.2500000 )
                  (     1          0         -1      )       ( -0.2500000 )

 cart.    s( 2) = (  1.0000000  0.0000000  0.0000000 )    f =( -0.5000000 )
                  (  0.0000000 -1.0000000 -0.0000000 )       ( -0.2886751 )
                  (  0.0000000  0.0000000 -1.0000000 )       ( -0.2041241 )

      isym =  3     120 deg rotation - cryst. axis [0,0,1]

[...]

      isym =  6     180 deg rotation - cryst. axis [1,1,0]

[...]

      isym =  7     inversion

[...]

      isym =  8     inv. 180 deg rotation - cart. axis [1,0,0]

 cryst.   s( 8) = (    -1          0          0      )
                  (    -1          1          0      )
                  (    -1          0          1      )

 cart.    s( 8) = ( -1.0000000  0.0000000  0.0000000 )
                  (  0.0000000  1.0000000  0.0000000 )
                  (  0.0000000  0.0000000  1.0000000 )

      isym =  9     inv. 120 deg rotation - cryst. axis [0,0,1]

 cryst.   s( 9) = (     1         -1          0      )    f =( -0.2500000 )
                  (     1          0          0      )       ( -0.2500000 )
                  (     1          0         -1      )       ( -0.2500000 )

 cart.    s( 9) = (  0.5000000  0.8660254  0.0000000 )    f =( -0.5000000 )
                  ( -0.8660254  0.5000000 -0.0000000 )       ( -0.2886751 )
                  (  0.0000000  0.0000000 -1.0000000 )       ( -0.2041241 )

[...]

 cryst.   s(10) = (     0          1          0      )    f =( -0.2500000 )
                  (    -1          1          0      )       ( -0.2500000 )
                  (     0          1         -1      )       ( -0.2500000 )

 cart.    s(10) = (  0.5000000 -0.8660254  0.0000000 )    f =( -0.5000000 )
                  (  0.8660254  0.5000000  0.0000000 )       ( -0.2886751 )
                  (  0.0000000  0.0000000 -1.0000000 )       ( -0.2041241 )

[...]

 cryst.   s(11) = (     0          1          0      )
                  (     1          0          0      )
                  (     0          0          1      )

 cart.    s(11) = (  0.5000000  0.8660254  0.0000000 )
                  (  0.8660254 -0.5000000  0.0000000 )
                  (  0.0000000  0.0000000  1.0000000 )

      isym = 12     inv. 180 deg rotation - cryst. axis [1,1,0]

 cryst.   s(12) = (     1         -1          0      )
                  (     0         -1          0      )
                  (     0         -1          1      )

 cart.    s(12) = (  0.5000000 -0.8660254  0.0000000 )
                  ( -0.8660254 -0.5000000 -0.0000000 )
                  (  0.0000000  0.0000000  1.0000000 )

   Cartesian axes

     site n.     atom                  positions (alat units)
         1           Yb  tau(   1) = (   0.5000000   0.2886751   0.2041241  )
         2           Yb  tau(   2) = (   0.0000000   0.0000000   0.0000000  )
         3           Mg  tau(   3) = (   1.0000000   0.2886751   0.5103104  )
         4           Mg  tau(   4) = (   1.2500000   0.7216878   0.5103104  )
         5           Mg  tau(   5) = (   0.7500000   0.7216878   0.5103104  )
         6           Mg  tau(   6) = (   1.0000000   0.5773503   0.1020621  )

   Crystallographic axes

     site n.     atom                  positions (cryst. coord.)
         1           Yb  tau(   1) = (  0.2500000  0.2500000  0.2500000  )
         2           Yb  tau(   2) = (  0.0000000  0.0000000  0.0000000  )
         3           Mg  tau(   3) = (  0.6250000  0.1250000  0.6250000  )
         4           Mg  tau(   4) = (  0.6250000  0.6250000  0.6250000  )
         5           Mg  tau(   5) = (  0.1250000  0.6250000  0.6250000  )
         6           Mg  tau(   6) = (  0.6250000  0.6250000  0.1250000  )

     number of k points=     1  Methfessel-Paxton smearing, width (Ry)=  0.0010
                       cart. coord. in units 2pi/alat
        k(    1) = (   0.0000000   0.0000000   0.0000000), wk =   2.0000000

                       cryst. coord.
        k(    1) = (   0.0000000   0.0000000   0.0000000), wk =   2.0000000

     Initial potential from superposition of free atoms

     starting charge      55.9883, renormalised to      56.0000
     Starting wfcs are   80 randomized atomic wfcs
     Checking if some PAW data can be deallocated...

     Self-consistent Calculation

     iteration #  1     ecut=    30.00 Ry     beta= 0.70
     Davidson diagonalization with overlap

     ethr =  1.00E-02,  avg # of iterations =  2.0

     total energy              =   -2155.14115026 Ry
     estimated scf accuracy    <       0.81947576 Ry

[...]

     total energy              =   -2156.06346573 Ry
     estimated scf accuracy    <       0.00001642 Ry

     iteration # 90     ecut=    30.00 Ry     beta= 0.70
     Davidson diagonalization with overlap

     ethr =  1.84E-09,  avg # of iterations =  1.0

     End of self-consistent calculation

          k = 0.0000 0.0000 0.0000 (  1560 PWs)   bands (ev):

   -45.7290 -45.7214 -18.0222 -18.0222 -18.0221 -17.9497 -17.9497 -17.9497
     0.6325   5.7666   5.7666   5.7666   5.7938   5.8190   5.8190   5.8190
     5.8631   5.8632   5.8632   5.8771   5.9157   5.9157   5.9157   6.0866
     6.0866   6.0866   6.2152   6.2317   6.2317   6.2317   6.4100   6.4101
     7.4509   9.4188

     occupation numbers
     1.0000   1.0000   1.0000   1.0000   1.0000   1.0000   1.0000   1.0000
     1.0000   1.0000   1.0000   1.0000   1.0000   1.0000   1.0000   1.0000
     1.0000   1.0000   1.0000   1.0000   1.0000   1.0000   1.0000   1.0000
     1.0000   1.0000   1.0249   0.3261   0.3247   0.3243  -0.0000  -0.0000
    -0.0000  -0.0000

     the Fermi energy is     6.2288 ev

!    total energy              =   -2156.06346617 Ry

     total all-electron energy =     -3624.280301 Ry
     estimated scf accuracy    <       0.00000026 Ry
     smearing contrib. (-TS)   =      -0.00063307 Ry
     internal energy E=F+TS    =   -2156.06283309 Ry

     The total energy is F=E-TS. E is the sum of the following terms:
     one-electron contribution =   -1013.50531938 Ry
     hartree contribution      =     453.86674471 Ry
     xc contribution           =     -82.54501411 Ry
     ewald contribution        =    -420.18905881 Ry
     one-center paw contrib.   =   -1093.69018550 Ry
      -> PAW hartree energy AE =     902.81339524 Ry
      -> PAW hartree energy PS =    -775.97211539 Ry
      -> PAW xc energy AE      =   -1300.36702588 Ry
      -> PAW xc energy PS      =      79.83556054 Ry
      -> total E_H with PAW    =     580.70802455 Ry
      -> total E_XC with PAW   =   -1303.07647946 Ry

     convergence has been achieved in  90 iterations

     Forces acting on atoms (cartesian axes, Ry/au):

     atom    1 type  1   force =     0.00000000   -0.00000000   -0.00022306
     atom    2 type  1   force =    -0.00000000    0.00000000    0.00022306
     atom    3 type  2   force =     0.00000000    0.00000000   -0.00000000
     atom    4 type  2   force =    -0.00000000   -0.00000000    0.00000000
     atom    5 type  2   force =     0.00000000   -0.00000000   -0.00000000
     atom    6 type  2   force =     0.00000000    0.00000000   -0.00000000
     The non-local contrib.  to forces
     atom    1 type  1   force =    -0.00000000   -0.00000000   -0.00025596
     atom    2 type  1   force =     0.00000000    0.00000000    0.00025596
     atom    3 type  2   force =    -0.00000000    0.00000000    0.00000000
     atom    4 type  2   force =    -0.00000000    0.00000000   -0.00000000
     atom    5 type  2   force =     0.00000000    0.00000000   -0.00000000
     atom    6 type  2   force =     0.00000000    0.00000000    0.00000000
     The ionic contribution  to forces
     atom    1 type  1   force =     0.00000000   -0.00000000   -0.00000000
     atom    2 type  1   force =    -0.00000000    0.00000000    0.00000000
     atom    3 type  2   force =    -0.00000000    0.00000000    0.00000000
     atom    4 type  2   force =    -0.00000000    0.00000000    0.00000000
     atom    5 type  2   force =     0.00000000    0.00000000    0.00000000
     atom    6 type  2   force =     0.00000000   -0.00000000   -0.00000000
     The local contribution  to forces
     atom    1 type  1   force =    -0.00022777    0.00052211    0.00057369
     atom    2 type  1   force =     0.00141170    0.00037270   -0.00004819
     atom    3 type  2   force =     0.00008326   -0.00006824   -0.00002528
     atom    4 type  2   force =     0.00002830   -0.00004418    0.00004549
     atom    5 type  2   force =    -0.00008355    0.00008184   -0.00005505
     atom    6 type  2   force =    -0.00007317   -0.00003037    0.00000430
     The core correction contribution to forces
     atom    1 type  1   force =     0.00000000    0.00000000    0.00000000
     atom    2 type  1   force =     0.00000000    0.00000000   -0.00000000
     atom    3 type  2   force =     0.00000508   -0.00000422   -0.00000043
     atom    4 type  2   force =    -0.00000053   -0.00000366    0.00000284
     atom    5 type  2   force =    -0.00000548    0.00000546   -0.00000206
     atom    6 type  2   force =    -0.00000439   -0.00000170    0.00000139
     The Hubbard contrib.    to forces
     atom    1 type  1   force =     0.00000000    0.00000000    0.00000000
     atom    2 type  1   force =     0.00000000    0.00000000    0.00000000
     atom    3 type  2   force =     0.00000000    0.00000000    0.00000000
     atom    4 type  2   force =     0.00000000    0.00000000    0.00000000
     atom    5 type  2   force =     0.00000000    0.00000000    0.00000000
     atom    6 type  2   force =     0.00000000    0.00000000    0.00000000
     The SCF correction term to forces
     atom    1 type  1   force =     0.00021284   -0.00051095   -0.00058651
     atom    2 type  1   force =    -0.00137222   -0.00041180   -0.00003043
     atom    3 type  2   force =    -0.00001721    0.00001557    0.00001371
     atom    4 type  2   force =    -0.00001875    0.00000598   -0.00001000
     atom    5 type  2   force =     0.00001967   -0.00001435    0.00002001
     atom    6 type  2   force =     0.00001909    0.00001054    0.00000430

     Total force =     0.000315     Total SCF correction =     0.001645
     SCF correction compared to forces is large: reduce conv_thr to get better values

     Computing stress (Cartesian axis) and pressure

          total   stress  (Ry/bohr**3)                   (kbar)     P=       -8.94
  -0.00006088   0.00000000  -0.00000000           -8.96        0.00       -0.00
   0.00000000  -0.00006088  -0.00000000            0.00       -8.96       -0.00
   0.00000000   0.00000000  -0.00006065            0.00        0.00       -8.92

     kinetic stress (kbar)   3775.19      0.00     -0.00
                                0.00   3775.19      0.00
                               -0.00      0.00   3775.27

     local   stress (kbar)  -8262.81     -0.22     -0.22
                               -0.22  -8262.74      0.03
                               -0.22      0.03  -8262.91

     nonloc. stress (kbar)   6331.32      0.00      0.00
                                0.00   6331.32      0.00
                                0.00      0.00   6331.32

     hartree stress (kbar)  19695.92      0.18      0.18
                                0.18  19695.85     -0.02
                                0.18     -0.02  19695.97

     exc-cor stress (kbar)  -2934.76      0.00     -0.00
                                0.00  -2934.76      0.00
                               -0.00      0.00  -2934.76

     corecor stress (kbar)   -379.37      0.00      0.00
                                0.00   -379.37     -0.00
                                0.00     -0.00   -379.37

     ewald   stress (kbar) -18234.44      0.00      0.00
                                0.00 -18234.44     -0.00
                                0.00     -0.00 -18234.44

     hubbard stress (kbar)      0.00      0.00      0.00
                                0.00      0.00      0.00
                                0.00      0.00      0.00

     DFT-D   stress (kbar)      0.00      0.00      0.00
                                0.00      0.00      0.00
                                0.00      0.00      0.00

     XDM     stress (kbar)      0.00      0.00      0.00
                                0.00      0.00      0.00
                                0.00      0.00      0.00

     dft-nl  stress (kbar)      0.00      0.00      0.00
                                0.00      0.00      0.00
                                0.00      0.00      0.00

     TS-vdW  stress (kbar)      0.00      0.00      0.00
                                0.00      0.00      0.00
                                0.00      0.00      0.00

[...]

                                0.00      0.00      0.00

     Writing all to output data dir new_calculations/myprefix.save/

     General routines

     Parallel routines

     PAW routines

   This run was terminated on:  22: 7:17  20May2023

   JOB DONE.