     Program PWSCF v.7.0 starts on 21May2023 at  2:33: 1

     Reading input from espresso_12717.pwi
Warning: card &CELL ignored
Warning: card / ignored

     Current dimensions of program PWSCF are:
     Max number of different atomic species (ntypx) = 10
     Max number of k-points (npk) =  40000
     Max angular momentum in pseudopotentials (lmaxx) =  4

     gamma-point specific algorithms are used
     Message from routine setup:
     using ibrav=0 with symmetry is DISCOURAGED, use correct ibrav instead

     Subspace diagonalization in iterative solution of the eigenvalue problem:
     a serial algorithm will be used

     Using Slab Decomposition

     bravais-lattice index     =            0
     lattice parameter (alat)  =      14.9525  a.u.
     unit-cell volume          =    5101.9864 (a.u.)^3
     number of atoms/cell      =           20
     number of atomic types    =            3
     number of electrons       =       176.00
     number of Kohn-Sham states=          106
     kinetic-energy cutoff     =      30.0000  Ry
     charge density cutoff     =     240.0000  Ry
     scf convergence threshold =      1.0E-06
     mixing beta               =       0.7000
     number of iterations used =            8  plain     mixing
     Exchange-correlation=  SLA  PW   PBX  PBC
                           (   1   4   3   4   0   0   0)

     celldm(1)=  14.952520  celldm(2)=   0.000000  celldm(3)=   0.000000
     celldm(4)=   0.000000  celldm(5)=   0.000000  celldm(6)=   0.000000

     crystal axes: (cart. coord. in units of alat)
               a(1) = (   1.000000   0.000000   0.000000 )
               a(2) = (   0.000000   0.739081   0.000000 )
               a(3) = (   0.000000   0.639313   2.064924 )

     reciprocal axes: (cart. coord. in units 2 pi/alat)
               b(1) = (  1.000000  0.000000  0.000000 )
               b(2) = (  0.000000  1.353032 -0.418907 )
               b(3) = (  0.000000  0.000000  0.484279 )

     PseudoPot. # 1 for Cs read from file:
     /home/pragov/projects/rrg-bengioy-ad/pragov/crystal_structure_design/SSSP/Cs_pbe_v1.uspp.F.UPF
     MD5 check sum: 3476d69cb178dfad3ffaa59df4e07ca4
     Pseudo is Ultrasoft + core correction, Zval =  9.0
     Generated by new atomic code, or converted to UPF format
     Using radial grid of  905 points,  6 beta functions with:
                l(1) =   0
                l(2) =   0
                l(3) =   1
                l(4) =   1
                l(5) =   2
                l(6) =   2
     Q(r) pseudized with  6 coefficients,  rinner =    1.500   1.500   1.500
                                                       1.500   1.500

     PseudoPot. # 2 for Sn read from file:
     /home/pragov/projects/rrg-bengioy-ad/pragov/crystal_structure_design/SSSP/Sn_pbe_v1.uspp.F.UPF
     MD5 check sum: 4cf58ce39ec5d5d420df3dd08604eb00
     Pseudo is Ultrasoft + core correction, Zval = 14.0
     Generated by new atomic code, or converted to UPF format
     Using radial grid of  891 points,  6 beta functions with:
                l(1) =   0
                l(2) =   0
                l(3) =   1
                l(4) =   1
                l(5) =   2
                l(6) =   2
     Q(r) pseudized with  6 coefficients,  rinner =    1.200   1.200   1.200
                                                       1.200   1.200

     PseudoPot. # 3 for Cl read from file:
     /home/pragov/projects/rrg-bengioy-ad/pragov/crystal_structure_design/SSSP/cl_pbe_v1.4.uspp.F.UPF
     MD5 check sum: fc6f6913ecf08c9257cb748ef0700058
     Pseudo is Ultrasoft + core correction, Zval =  7.0
     Generated by new atomic code, or converted to UPF format
     Using radial grid of  909 points,  6 beta functions with:
                l(1) =   0
                l(2) =   0
                l(3) =   1
                l(4) =   1
                l(5) =   2
                l(6) =   2
     Q(r) pseudized with  8 coefficients,  rinner =    1.300   1.300   1.300
                                                       1.300   1.300

     atomic species   valence    mass     pseudopotential
        Cs             9.00   132.90545     Cs( 1.00)
        Sn            14.00   118.71000     Sn( 1.00)
        Cl             7.00    35.45000     Cl( 1.00)

      4 Sym. Ops., with inversion, found ( 2 have fractional translation)

                                    s                        frac. trans.

      isym =  1     identity

 cryst.   s( 1) = (     1          0          0      )
                  (     0          1          0      )
                  (     0          0          1      )

 cart.    s( 1) = (  1.0000000  0.0000000  0.0000000 )
                  (  0.0000000  1.0000000 -0.0000000 )
                  (  0.0000000  0.0000000  1.0000000 )

      isym =  2     180 deg rotation - cart. axis [1,0,0]

 cryst.   s( 2) = (     1          0          0      )    f =( -0.5000000 )
                  (     0         -1          0      )       ( -0.0000000 )
                  (     0          0         -1      )       (  0.5000000 )

 cart.    s( 2) = (  1.0000000  0.0000000  0.0000000 )    f =( -0.5000000 )
                  (  0.0000000 -1.0000000  0.0000000 )       (  0.3196565 )
                  (  0.0000000  0.0000000 -1.0000000 )       (  1.0324619 )

      isym =  3     inversion

 cryst.   s( 3) = (    -1          0          0      )
                  (     0         -1          0      )
                  (     0          0         -1      )

 cart.    s( 3) = ( -1.0000000  0.0000000  0.0000000 )
                  (  0.0000000 -1.0000000  0.0000000 )
                  (  0.0000000  0.0000000 -1.0000000 )

      isym =  4     inv. 180 deg rotation - cart. axis [1,0,0]

 cryst.   s( 4) = (    -1          0          0      )    f =(  0.5000000 )
                  (     0          1          0      )       ( -0.0000000 )
                  (     0          0          1      )       (  0.5000000 )

 cart.    s( 4) = ( -1.0000000  0.0000000  0.0000000 )    f =(  0.5000000 )
                  (  0.0000000  1.0000000 -0.0000000 )       (  0.3196565 )
                  (  0.0000000  0.0000000  1.0000000 )       (  1.0324619 )

   Cartesian axes

     site n.     atom                  positions (alat units)
         1           Cs  tau(   1) = (   0.0072260   0.8598253   1.3463778  )
         2           Cs  tau(   2) = (   0.5072260   0.8382252   1.7510079  )
         3           Cs  tau(   3) = (   0.9927740   0.5185687   0.7185460  )
         4           Cs  tau(   4) = (   0.4927740   0.5401688   0.3139159  )
         5           Sn  tau(   5) = (   0.9574320   1.2091166   1.8313644  )
         6           Sn  tau(   6) = (   0.4574320   0.4889339   1.2660213  )
         7           Sn  tau(   7) = (   0.0425680   0.1692774   0.2335594  )
         8           Sn  tau(   8) = (   0.5425680   0.8894601   0.7989025  )
         9           Cl  tau(   9) = (   0.9672690   0.8800211   1.8074051  )
        10           Cl  tau(  10) = (   0.4672690   0.8180294   1.2899806  )
        11           Cl  tau(  11) = (   0.0327310   0.4983729   0.2575187  )
        12           Cl  tau(  12) = (   0.5327310   0.5603646   0.7749432  )
        13           Cl  tau(  13) = (   0.6670180   1.2093661   1.9712320  )
        14           Cl  tau(  14) = (   0.1670180   0.4886844   1.1261537  )
        15           Cl  tau(  15) = (   0.3329820   0.1690279   0.0936918  )
        16           Cl  tau(  16) = (   0.8329820   0.8897096   0.9387701  )
        17           Cl  tau(  17) = (   0.6888590   0.1731865   0.5097574  )
        18           Cl  tau(  18) = (   0.1888590   0.8855510   0.5227045  )
        19           Cl  tau(  19) = (   0.3111410   1.2052075   1.5551664  )
        20           Cl  tau(  20) = (   0.8111410   0.4928430   1.5422193  )

   Crystallographic axes

     site n.     atom                  positions (cryst. coord.)
         1           Cs  tau(   1) = (  0.0072260  0.5993640  0.6520230  )
         2           Cs  tau(   2) = (  0.5072260  0.4006360  0.8479770  )
         3           Cs  tau(   3) = (  0.9927740  0.4006360  0.3479770  )
         4           Cs  tau(   4) = (  0.4927740  0.5993640  0.1520230  )
         5           Sn  tau(   5) = (  0.9574320  0.8688020  0.8868920  )
         6           Sn  tau(   6) = (  0.4574320  0.1311980  0.6131080  )
         7           Sn  tau(   7) = (  0.0425680  0.1311980  0.1131080  )
         8           Sn  tau(   8) = (  0.5425680  0.8688020  0.3868920  )
         9           Cl  tau(   9) = (  0.9672690  0.4335620  0.8752890  )
        10           Cl  tau(  10) = (  0.4672690  0.5664380  0.6247110  )
        11           Cl  tau(  11) = (  0.0327310  0.5664380  0.1247110  )
        12           Cl  tau(  12) = (  0.5327310  0.4335620  0.3752890  )
        13           Cl  tau(  13) = (  0.6670180  0.8105480  0.9546270  )
        14           Cl  tau(  14) = (  0.1670180  0.1894520  0.5453730  )
        15           Cl  tau(  15) = (  0.3329820  0.1894520  0.0453730  )
        16           Cl  tau(  16) = (  0.8329820  0.8105480  0.4546270  )
        17           Cl  tau(  17) = (  0.6888590  0.0207860  0.2468650  )
        18           Cl  tau(  18) = (  0.1888590  0.9792140  0.2531350  )
        19           Cl  tau(  19) = (  0.3111410  0.9792140  0.7531350  )
        20           Cl  tau(  20) = (  0.8111410  0.0207860  0.7468650  )

     number of k points=     1  Methfessel-Paxton smearing, width (Ry)=  0.0010
                       cart. coord. in units 2pi/alat
        k(    1) = (   0.0000000   0.0000000   0.0000000), wk =   2.0000000

                       cryst. coord.
        k(    1) = (   0.0000000   0.0000000   0.0000000), wk =   2.0000000

     Initial potential from superposition of free atoms

     starting charge     171.8422, renormalised to     176.0000

     negative rho (up, down):  1.850E-01 0.000E+00
     Starting wfcs are  136 randomized atomic wfcs

     Self-consistent Calculation

     iteration #  1     ecut=    30.00 Ry     beta= 0.70
     Davidson diagonalization with overlap

     ethr =  1.00E-02,  avg # of iterations =  3.0

     Threshold (ethr) on eigenvalues was too large:
     Diagonalizing with lowered threshold

     Davidson diagonalization with overlap

[...]

     negative rho (up, down):  1.827E-01 0.000E+00

     total energy              =   -1306.81263765 Ry
     estimated scf accuracy    <       0.92188575 Ry

[...]

     total energy              =   -1307.13647201 Ry
     estimated scf accuracy    <       0.00000146 Ry

     iteration #  8     ecut=    30.00 Ry     beta= 0.70
     Davidson diagonalization with overlap

     ethr =  8.31E-10,  avg # of iterations =  4.0

[...]

     End of self-consistent calculation

          k = 0.0000 0.0000 0.0000 (  7060 PWs)   bands (ev):

   -18.2853 -18.2852 -18.2837 -18.2836 -18.2677 -18.2668 -18.2666 -18.2657
   -18.2358 -18.2350 -18.2339 -18.2330 -18.2256 -18.2255 -18.2247 -18.2247
   -18.1997 -18.1997 -18.1989 -18.1988 -17.8401 -17.8375 -17.8329 -17.8304
   -12.0168 -11.9898 -11.9763 -11.9391 -11.5260 -11.5235 -11.5106 -11.5086
   -11.3983 -11.3645 -11.3256 -11.3082  -4.7643  -4.7435  -4.7207  -4.7128
    -4.6836  -4.6727  -4.6688  -4.6662  -4.6633  -4.6553  -4.6400  -4.6206
    -3.6593  -3.6218  -3.3906  -3.3175  -1.3873  -1.3708  -1.2961  -1.2775
    -0.9698  -0.8271  -0.6915  -0.4252  -0.2357  -0.1615  -0.1573  -0.1326
     0.1020   0.1416   0.2303   0.2589   0.2742   0.2912   0.4117   0.4171
     0.4525   0.5272   0.5448   0.5601   0.6145   0.6453   0.7023   0.7119
     0.8154   0.8359   0.8531   0.8998   1.0674   1.1265   1.5848   1.5954
     5.7018   6.0733   6.0960   6.2715   6.8710   7.0804   7.1396   7.1733
     7.2970   7.4687   7.5363   7.7695   7.8639   7.9576   8.0444   8.1272
     8.4572   8.4770

     occupation numbers
     1.0000   1.0000   1.0000   1.0000   1.0000   1.0000   1.0000   1.0000
     1.0000   1.0000   1.0000   1.0000   1.0000   1.0000   1.0000   1.0000
     1.0000   1.0000   1.0000   1.0000   1.0000   1.0000   1.0000   1.0000
     1.0000   1.0000   1.0000   1.0000   1.0000   1.0000   1.0000   1.0000
     1.0000   1.0000   1.0000   1.0000   1.0000   1.0000   1.0000   1.0000
     1.0000   1.0000   1.0000   1.0000   1.0000   1.0000   1.0000   1.0000
     1.0000   1.0000   1.0000   1.0000   1.0000   1.0000   1.0000   1.0000
     1.0000   1.0000   1.0000   1.0000   1.0000   1.0000   1.0000   1.0000
     1.0000   1.0000   1.0000   1.0000   1.0000   1.0000   1.0000   1.0000
     1.0000   1.0000   1.0000   1.0000   1.0000   1.0000   1.0000   1.0000
     1.0000   1.0000   1.0000   1.0000   1.0000   1.0000   1.0000   1.0000
    -0.0000  -0.0000  -0.0000  -0.0000  -0.0000  -0.0000  -0.0000  -0.0000
    -0.0000  -0.0000  -0.0000  -0.0000  -0.0000  -0.0000  -0.0000  -0.0000
    -0.0000  -0.0000

     the Fermi energy is     1.8544 ev

!    total energy              =   -1307.13647273 Ry
     estimated scf accuracy    <       0.00000018 Ry
     smearing contrib. (-TS)   =       0.00000000 Ry
     internal energy E=F+TS    =   -1307.13647273 Ry

     The total energy is F=E-TS. E is the sum of the following terms:
     one-electron contribution =    -559.81939494 Ry
     hartree contribution      =     352.34625590 Ry
     xc contribution           =    -424.45877995 Ry
     ewald contribution        =    -675.20455375 Ry

     convergence has been achieved in   8 iterations

     negative rho (up, down):  1.789E-01 0.000E+00

     Forces acting on atoms (cartesian axes, Ry/au):

     atom    1 type  1   force =     0.00037480    0.00132466    0.00081170
     atom    2 type  1   force =     0.00037480   -0.00132466   -0.00081170
     atom    3 type  1   force =    -0.00037480   -0.00132466   -0.00081170
     atom    4 type  1   force =    -0.00037480    0.00132466    0.00081170
     atom    5 type  2   force =    -0.00188705    0.02439250   -0.01344946
     atom    6 type  2   force =    -0.00188705   -0.02439250    0.01344946
     atom    7 type  2   force =     0.00188705   -0.02439250    0.01344946
     atom    8 type  2   force =     0.00188705    0.02439250   -0.01344946
     atom    9 type  3   force =     0.00681562   -0.02147610    0.01777810
     atom   10 type  3   force =     0.00681562    0.02147610   -0.01777810
     atom   11 type  3   force =    -0.00681562    0.02147610   -0.01777810
     atom   12 type  3   force =    -0.00681562   -0.02147610    0.01777810
     atom   13 type  3   force =    -0.00529328   -0.00106830   -0.00153843
     atom   14 type  3   force =    -0.00529328    0.00106830    0.00153843
     atom   15 type  3   force =     0.00529328    0.00106830    0.00153843
     atom   16 type  3   force =     0.00529328   -0.00106830   -0.00153843
     atom   17 type  3   force =     0.00064580   -0.00047680   -0.00542723
     atom   18 type  3   force =     0.00064580    0.00047680    0.00542723
     atom   19 type  3   force =    -0.00064580    0.00047680    0.00542723
     atom   20 type  3   force =    -0.00064580   -0.00047680   -0.00542723
     The non-local contrib.  to forces
     atom    1 type  1   force =    -0.00158558   -0.00164934   -0.00030435
     atom    2 type  1   force =    -0.00158558    0.00164934    0.00030435
     atom    3 type  1   force =     0.00158558    0.00164934    0.00030435
     atom    4 type  1   force =     0.00158558   -0.00164934   -0.00030435
     atom    5 type  2   force =    -0.49833960   -0.19016497   -0.18185639
     atom    6 type  2   force =    -0.49833960    0.19016497    0.18185639
     atom    7 type  2   force =     0.49833960    0.19016497    0.18185639
     atom    8 type  2   force =     0.49833960   -0.19016497   -0.18185639
     atom    9 type  3   force =    -0.05066768    0.03572253   -0.05285129
     atom   10 type  3   force =    -0.05066768   -0.03572253    0.05285129
     atom   11 type  3   force =     0.05066768   -0.03572253    0.05285129
     atom   12 type  3   force =     0.05066768    0.03572253   -0.05285129
     atom   13 type  3   force =     0.09290595   -0.00819147   -0.05233075
     atom   14 type  3   force =     0.09290595    0.00819147    0.05233075
     atom   15 type  3   force =    -0.09290595    0.00819147    0.05233075
     atom   16 type  3   force =    -0.09290595   -0.00819147   -0.05233075
     atom   17 type  3   force =    -0.05367478   -0.01173062    0.08482400
     atom   18 type  3   force =    -0.05367478    0.01173062   -0.08482400
     atom   19 type  3   force =     0.05367478    0.01173062   -0.08482400
     atom   20 type  3   force =     0.05367478   -0.01173062    0.08482400
     The ionic contribution  to forces
     atom    1 type  1   force =    -1.26371120   -0.17857085   -1.46769502
     atom    2 type  1   force =    -1.26371120    0.17857085    1.46769502
     atom    3 type  1   force =     1.26371120    0.17857085    1.46769502
     atom    4 type  1   force =     1.26371120   -0.17857084   -1.46769502
     atom    5 type  2   force =     6.21907878    2.50122918    2.87446169
     atom    6 type  2   force =     6.21907878   -2.50122918   -2.87446169
     atom    7 type  2   force =    -6.21907878   -2.50122918   -2.87446169
     atom    8 type  2   force =    -6.21907878    2.50122918    2.87446169
     atom    9 type  3   force =     1.03132317   -3.06200593   -0.36927349
     atom   10 type  3   force =     1.03132317    3.06200593    0.36927349
     atom   11 type  3   force =    -1.03132317    3.06200593    0.36927350
     atom   12 type  3   force =    -1.03132317   -3.06200593   -0.36927349
     atom   13 type  3   force =    -5.98994003    0.11290487    3.52968741
     atom   14 type  3   force =    -5.98994003   -0.11290487   -3.52968741
     atom   15 type  3   force =     5.98994003   -0.11290487   -3.52968741
     atom   16 type  3   force =     5.98994003    0.11290487    3.52968741
     atom   17 type  3   force =     1.48886928    0.42578719   -5.10669190
     atom   18 type  3   force =     1.48886928   -0.42578719    5.10669190
     atom   19 type  3   force =    -1.48886928   -0.42578719    5.10669189
     atom   20 type  3   force =    -1.48886928    0.42578719   -5.10669190
     The local contribution  to forces
     atom    1 type  1   force =     1.26538026    0.18131447    1.46893087
     atom    2 type  1   force =     1.26548536   -0.18133700   -1.46933219
     atom    3 type  1   force =    -1.26537912   -0.18133726   -1.46894516
     atom    4 type  1   force =    -1.26548145    0.18133341    1.46935345
     atom    5 type  2   force =    -5.73292815   -2.28867601   -2.71038623
     atom    6 type  2   force =    -5.73277952    2.28869165    2.70945372
     atom    7 type  2   force =     5.73288376    2.28866387    2.71044617
     atom    8 type  2   force =     5.73272565   -2.28868926   -2.70953718
     atom    9 type  3   force =    -0.97555984    3.00480576    0.43780461
     atom   10 type  3   force =    -0.97549944   -3.00481904   -0.43825769
     atom   11 type  3   force =     0.97555159   -3.00478705   -0.43777901
     atom   12 type  3   force =     0.97548736    3.00481663    0.43819997
     atom   13 type  3   force =     5.89346730   -0.10603991   -3.48010496
     atom   14 type  3   force =     5.89356441    0.10603565    3.47993454
     atom   15 type  3   force =    -5.89344120    0.10603694    3.48012459
     atom   16 type  3   force =    -5.89351137   -0.10605004   -3.47998790
     atom   17 type  3   force =    -1.43562134   -0.41484122    5.01819220
     atom   18 type  3   force =    -1.43559924    0.41483343   -5.01775763
     atom   19 type  3   force =     1.43564206    0.41486176   -5.01822413
     atom   20 type  3   force =     1.43562278   -0.41486994    5.01780603
     The core correction contribution to forces
     atom    1 type  1   force =     0.00025100    0.00021827   -0.00027243
     atom    2 type  1   force =     0.00025229   -0.00021937    0.00026869
     atom    3 type  1   force =    -0.00025202   -0.00021957    0.00027205
     atom    4 type  1   force =    -0.00025277    0.00021939   -0.00026900
     atom    5 type  2   force =     0.00970609    0.00196015    0.00337845
     atom    6 type  2   force =     0.00970838   -0.00196003   -0.00339364
     atom    7 type  2   force =    -0.00970685   -0.00196051   -0.00337749
     atom    8 type  2   force =    -0.00970973    0.00196004    0.00339210
     atom    9 type  3   force =     0.00164033   -0.00000780    0.00182521
     atom   10 type  3   force =     0.00164043    0.00000800   -0.00182767
     atom   11 type  3   force =    -0.00164039    0.00000831   -0.00182521
     atom   12 type  3   force =    -0.00164047   -0.00000800    0.00182681
     atom   13 type  3   force =    -0.00168900    0.00025036    0.00104831
     atom   14 type  3   force =    -0.00168784   -0.00025044   -0.00104899
     atom   15 type  3   force =     0.00168946   -0.00025031   -0.00104847
     atom   16 type  3   force =     0.00168893    0.00025004    0.00104835
     atom   17 type  3   force =     0.00108917    0.00031418   -0.00151735
     atom   18 type  3   force =     0.00108814   -0.00031434    0.00151694
     atom   19 type  3   force =    -0.00108881   -0.00031372    0.00151658
     atom   20 type  3   force =    -0.00108774    0.00031341   -0.00151591
     The Hubbard contrib.    to forces
     atom    1 type  1   force =     0.00000000    0.00000000    0.00000000
     atom    2 type  1   force =     0.00000000    0.00000000    0.00000000
     atom    3 type  1   force =     0.00000000    0.00000000    0.00000000
     atom    4 type  1   force =     0.00000000    0.00000000    0.00000000
     atom    5 type  2   force =     0.00000000    0.00000000    0.00000000
     atom    6 type  2   force =     0.00000000    0.00000000    0.00000000
     atom    7 type  2   force =     0.00000000    0.00000000    0.00000000
     atom    8 type  2   force =     0.00000000    0.00000000    0.00000000
     atom    9 type  3   force =     0.00000000    0.00000000    0.00000000
     atom   10 type  3   force =     0.00000000    0.00000000    0.00000000
     atom   11 type  3   force =     0.00000000    0.00000000    0.00000000
     atom   12 type  3   force =     0.00000000    0.00000000    0.00000000
     atom   13 type  3   force =     0.00000000    0.00000000    0.00000000
     atom   14 type  3   force =     0.00000000    0.00000000    0.00000000
     atom   15 type  3   force =     0.00000000    0.00000000    0.00000000
     atom   16 type  3   force =     0.00000000    0.00000000    0.00000000
     atom   17 type  3   force =     0.00000000    0.00000000    0.00000000
     atom   18 type  3   force =     0.00000000    0.00000000    0.00000000
     atom   19 type  3   force =     0.00000000    0.00000000    0.00000000
     atom   20 type  3   force =     0.00000000    0.00000000    0.00000000
     The SCF correction term to forces
     atom    1 type  1   force =     0.00003128    0.00000107    0.00013838
     atom    2 type  1   force =    -0.00006127    0.00000733    0.00023581
     atom    3 type  1   force =    -0.00003316    0.00000700   -0.00012352
     atom    4 type  1   force =     0.00005112   -0.00000611   -0.00026129
     atom    5 type  2   force =     0.00060333    0.00004322    0.00096126
     atom    6 type  2   force =     0.00044184   -0.00005999    0.00000980
     atom    7 type  2   force =    -0.00055114   -0.00003106   -0.00102767
     atom    8 type  2   force =    -0.00038482    0.00005898    0.00008347
     atom    9 type  3   force =     0.00008086    0.00001293    0.00026175
     atom   10 type  3   force =     0.00001812    0.00000285    0.00016424
     atom   11 type  3   force =    -0.00007169   -0.00002448   -0.00028936
     atom   12 type  3   force =    -0.00000648   -0.00000172   -0.00012153
     atom   13 type  3   force =    -0.00003818    0.00000868    0.00016292
     atom   14 type  3   force =    -0.00011999   -0.00000634    0.00000611
     atom   15 type  3   force =     0.00002015   -0.00000664   -0.00018339
     atom   16 type  3   force =     0.00008754    0.00001297    0.00003730
     atom   17 type  3   force =    -0.00000292   -0.00000063   -0.00025355
     atom   18 type  3   force =    -0.00003747    0.00000570   -0.00020160
     atom   19 type  3   force =    -0.00000577   -0.00001051    0.00027283
     atom   20 type  3   force =     0.00002859    0.00001306    0.00017426

     Total force =     0.081667     Total SCF correction =     0.001918

     Computing stress (Cartesian axis) and pressure

     negative rho (up, down):  1.789E-01 0.000E+00
          total   stress  (Ry/bohr**3)                   (kbar)     P=      -12.30
   0.00003733   0.00000000   0.00000000            5.49        0.00        0.00
   0.00000000  -0.00027646   0.00001506            0.00      -40.67        2.22
   0.00000000   0.00001506  -0.00001172            0.00        2.22       -1.72

     kinetic stress (kbar)   5105.43      0.00      0.00
                                0.00   5057.42      3.74
                                0.00      3.74   5095.07

     local   stress (kbar)  -3027.92      0.00     -0.00
                                0.00  -6449.08    175.84
                               -0.00    175.84  -5083.57

     nonloc. stress (kbar)   5041.46      0.00      0.00
                                0.00   5021.72      1.54
                                0.00      1.54   5029.32

     hartree stress (kbar)   2566.83     -0.00      0.00
                               -0.00   4087.92    -78.34
                                0.00    -78.34   3504.41

     exc-cor stress (kbar)   5209.44      0.00     -0.00
                                0.00   5211.60     -0.04
                               -0.00     -0.04   5209.98

     corecor stress (kbar)  -7383.61     -0.00      0.00
                               -0.00  -7382.19     -0.08
                                0.00     -0.08  -7383.02

     ewald   stress (kbar)  -7506.13      0.00     -0.00
                                0.00  -5588.06   -100.44
                               -0.00   -100.44  -6373.92

     hubbard stress (kbar)      0.00      0.00      0.00
                                0.00      0.00      0.00
                                0.00      0.00      0.00

     DFT-D   stress (kbar)      0.00      0.00      0.00
                                0.00      0.00      0.00
                                0.00      0.00      0.00

     XDM     stress (kbar)      0.00      0.00      0.00
                                0.00      0.00      0.00
                                0.00      0.00      0.00

     dft-nl  stress (kbar)      0.00      0.00      0.00
                                0.00      0.00      0.00
                                0.00      0.00      0.00

     TS-vdW  stress (kbar)      0.00      0.00      0.00
                                0.00      0.00      0.00
                                0.00      0.00      0.00

[...]

                                0.00      0.00      0.00

     Writing all to output data dir new_calculations/myprefix.save/

     General routines

     Parallel routines

   This run was terminated on:   2:34:35  21May2023

   JOB DONE.