     Program PWSCF v.7.0 starts on 21May2023 at 18:18: 2

     Reading input from espresso_23837.pwi
Warning: card &CELL ignored
Warning: card / ignored

     Current dimensions of program PWSCF are:
     Max number of different atomic species (ntypx) = 10
     Max number of k-points (npk) =  40000
     Max angular momentum in pseudopotentials (lmaxx) =  4
     file O.pbe-n-kjpaw_psl.0.1.UPF: wavefunction(s)  2P renormalized

     gamma-point specific algorithms are used
     Message from routine setup:
     using ibrav=0 with symmetry is DISCOURAGED, use correct ibrav instead

     Subspace diagonalization in iterative solution of the eigenvalue problem:
     a serial algorithm will be used

     Using Slab Decomposition

     bravais-lattice index     =            0
     lattice parameter (alat)  =      10.5906  a.u.
     unit-cell volume          =    1097.7548 (a.u.)^3
     number of atoms/cell      =           12
     number of atomic types    =            3
     number of electrons       =       110.00
     number of Kohn-Sham states=           66
     kinetic-energy cutoff     =      30.0000  Ry
     charge density cutoff     =     240.0000  Ry
     scf convergence threshold =      1.0E-06
     mixing beta               =       0.7000
     number of iterations used =            8  plain     mixing
     Exchange-correlation= SLA  PW   PBX  PBC
                           (   1   4   3   4   0   0   0)

     celldm(1)=  10.590577  celldm(2)=   0.000000  celldm(3)=   0.000000
     celldm(4)=   0.000000  celldm(5)=   0.000000  celldm(6)=   0.000000

     crystal axes: (cart. coord. in units of alat)
               a(1) = (   1.000000   0.000000   0.000000 )
               a(2) = (   0.000000   0.680334   0.000000 )
               a(3) = (   0.000000   0.108068   1.358390 )

     reciprocal axes: (cart. coord. in units 2 pi/alat)
               b(1) = (  1.000000  0.000000  0.000000 )
               b(2) = (  0.000000  1.469867 -0.116936 )
               b(3) = (  0.000000  0.000000  0.736165 )

     PseudoPot. # 1 for Tb read from file:
     /home/pragov/projects/rrg-bengioy-ad/pragov/crystal_structure_design/SSSP/Tb.GGA-PBE-paw-v1.0.UPF
     MD5 check sum: f7bf3d58e9b293961564f5b9598c921e
     Pseudo is Projector augmented-wave + core cor, Zval = 19.0
     Generated using ATOMPAW code
     Shape of augmentation charge: BESSEL
     Using radial grid of 1111 points,  8 beta functions with:
                l(1) =   0
                l(2) =   0
                l(3) =   1
                l(4) =   1
                l(5) =   2
                l(6) =   2
                l(7) =   3
                l(8) =   3
     Q(r) pseudized with 0 coefficients

     PseudoPot. # 2 for Ce read from file:
     /home/pragov/projects/rrg-bengioy-ad/pragov/crystal_structure_design/SSSP/Ce.GGA-PBE-paw-v1.0.UPF
     MD5 check sum: f2b950f613061344c13339c8d844425d
     Pseudo is Projector augmented-wave + core cor, Zval = 12.0
     Generated using ATOMPAW code
     Shape of augmentation charge: BESSEL
     Using radial grid of 1102 points,  8 beta functions with:
                l(1) =   0
                l(2) =   0
                l(3) =   1
                l(4) =   1
                l(5) =   2
                l(6) =   2
                l(7) =   3
                l(8) =   3
     Q(r) pseudized with 0 coefficients

     PseudoPot. # 3 for O  read from file:
     /home/pragov/projects/rrg-bengioy-ad/pragov/crystal_structure_design/SSSP/O.pbe-n-kjpaw_psl.0.1.UPF
     MD5 check sum: 0234752ac141de4415c5fc33072bef88
     Pseudo is Projector augmented-wave + core cor, Zval =  6.0
     Generated using "atomic" code by A. Dal Corso  v.5.0.99 svn rev. 10869
     Shape of augmentation charge: BESSEL
     Using radial grid of 1095 points,  4 beta functions with:
                l(1) =   0
                l(2) =   0
                l(3) =   1
                l(4) =   1
     Q(r) pseudized with 0 coefficients

     atomic species   valence    mass     pseudopotential
        Tb            19.00   158.92535     Tb( 1.00)
        Ce            12.00   140.11600     Ce( 1.00)
        O              6.00    15.99900     O ( 1.00)

      4 Sym. Ops., with inversion, found ( 2 have fractional translation)

                                    s                        frac. trans.

      isym =  1     identity

 cryst.   s( 1) = (     1          0          0      )
                  (     0          1          0      )
                  (     0          0          1      )

 cart.    s( 1) = (  1.0000000  0.0000000  0.0000000 )
                  (  0.0000000  1.0000000  0.0000000 )
                  (  0.0000000  0.0000000  1.0000000 )

      isym =  2     180 deg rotation - cart. axis [1,0,0]

 cryst.   s( 2) = (     1          0          0      )    f =( -0.5000000 )
                  (     0         -1          0      )       ( -0.0000000 )
                  (     0          0         -1      )       ( -0.0000000 )

 cart.    s( 2) = (  1.0000000  0.0000000  0.0000000 )    f =( -0.5000000 )
                  (  0.0000000 -1.0000000 -0.0000000 )       ( -0.0000000 )
                  (  0.0000000  0.0000000 -1.0000000 )       ( -0.0000000 )

      isym =  3     inversion

 cryst.   s( 3) = (    -1          0          0      )
                  (     0         -1          0      )
                  (     0          0         -1      )

 cart.    s( 3) = ( -1.0000000  0.0000000  0.0000000 )
                  (  0.0000000 -1.0000000 -0.0000000 )
                  (  0.0000000  0.0000000 -1.0000000 )

      isym =  4     inv. 180 deg rotation - cart. axis [1,0,0]

 cryst.   s( 4) = (    -1          0          0      )    f =(  0.5000000 )
                  (     0          1          0      )       (  0.0000000 )
                  (     0          0          1      )       (  0.0000000 )

 cart.    s( 4) = ( -1.0000000  0.0000000  0.0000000 )    f =(  0.5000000 )
                  (  0.0000000  1.0000000  0.0000000 )       (  0.0000000 )
                  (  0.0000000  0.0000000  1.0000000 )       (  0.0000000 )

   Cartesian axes

     site n.     atom                  positions (alat units)
         1           Tb  tau(   1) = (   0.2500000   0.2483270   1.1864643  )
         2           Tb  tau(   2) = (   0.7500000   0.5400742   0.1719260  )
         3           Ce  tau(   3) = (   0.7500000   0.5660752   0.8489179  )
         4           Ce  tau(   4) = (   0.2500000   0.2223261   0.5094724  )
         5           O   tau(   5) = (   0.9942770   0.5865720   1.1974713  )
         6           O   tau(   6) = (   0.5057230   0.5865720   1.1974713  )
         7           O   tau(   7) = (   0.4976780   0.2280076   0.8496066  )
         8           O   tau(   8) = (   0.0023220   0.2280076   0.8496066  )
         9           O   tau(   9) = (   0.5023220   0.5603937   0.5087837  )
        10           O   tau(  10) = (   0.9976780   0.5603937   0.5087837  )
        11           O   tau(  11) = (   0.0057230   0.2018293   0.1609190  )
        12           O   tau(  12) = (   0.4942770   0.2018293   0.1609190  )

   Crystallographic axes

     site n.     atom                  positions (cryst. coord.)
         1           Tb  tau(   1) = (  0.2500000  0.2262670  0.8734340  )
         2           Tb  tau(   2) = (  0.7500000  0.7737330  0.1265660  )
         3           Ce  tau(   3) = (  0.7500000  0.7327860  0.6249440  )
         4           Ce  tau(   4) = (  0.2500000  0.2672140  0.3750560  )
         5           O   tau(   5) = (  0.9942770  0.7221550  0.8815370  )
         6           O   tau(   6) = (  0.5057230  0.7221550  0.8815370  )
         7           O   tau(   7) = (  0.4976780  0.2357910  0.6254510  )
         8           O   tau(   8) = (  0.0023220  0.2357910  0.6254510  )
         9           O   tau(   9) = (  0.5023220  0.7642090  0.3745490  )
        10           O   tau(  10) = (  0.9976780  0.7642090  0.3745490  )
        11           O   tau(  11) = (  0.0057230  0.2778450  0.1184630  )
        12           O   tau(  12) = (  0.4942770  0.2778450  0.1184630  )

     number of k points=     1  Methfessel-Paxton smearing, width (Ry)=  0.0010
                       cart. coord. in units 2pi/alat
        k(    1) = (   0.0000000   0.0000000   0.0000000), wk =   2.0000000

                       cryst. coord.
        k(    1) = (   0.0000000   0.0000000   0.0000000), wk =   2.0000000

     Check: negative core charge=   -0.000012

     Initial potential from superposition of free atoms

     starting charge     109.9772, renormalised to     110.0000
     Starting wfcs are  160 randomized atomic wfcs
     Checking if some PAW data can be deallocated...

     Self-consistent Calculation

     iteration #  1     ecut=    30.00 Ry     beta= 0.70
     Davidson diagonalization with overlap

     ethr =  1.00E-02,  avg # of iterations =  1.0

     total energy              =   -2750.95033785 Ry
     estimated scf accuracy    <       6.11254092 Ry

[...]

     total energy              =   -2755.36374955 Ry
     estimated scf accuracy    <       0.00001519 Ry

     iteration # 72     ecut=    30.00 Ry     beta= 0.70
     Davidson diagonalization with overlap

     ethr =  1.38E-08,  avg # of iterations =  1.0

     End of self-consistent calculation

          k = 0.0000 0.0000 0.0000 (  1537 PWs)   bands (ev):

   -31.6120 -31.5885 -22.0170 -21.8970  -9.5992  -9.1927  -9.0905  -8.6980
    -8.4409  -8.3440  -7.4769  -6.5683  -6.3834  -6.3551  -6.0328  -5.6395
    -5.0377  -4.9497  -4.5772  -4.3137  -3.5895  -3.4879  -3.3218  -2.0342
     6.4681   6.7203   6.8441   6.9262   7.6867   7.6880   8.1498   8.1606
     8.3120   8.4155   8.4288   8.8678   8.9321   9.0732   9.0861   9.1044
     9.2955   9.5229   9.5764   9.6422  10.0350  10.0811  10.2350  10.5242
    10.8556  10.8672  10.9144  10.9242  10.9640  10.9785  11.0737  11.0753
    11.1690  11.2915  11.3239  11.3870  11.4375  11.7538  12.4113  12.4159
    12.4818  12.5425

     occupation numbers
     1.0000   1.0000   1.0000   1.0000   1.0000   1.0000   1.0000   1.0000
     1.0000   1.0000   1.0000   1.0000   1.0000   1.0000   1.0000   1.0000
     1.0000   1.0000   1.0000   1.0000   1.0000   1.0000   1.0000   1.0000
     1.0000   1.0000   1.0000   1.0000   1.0000   1.0000   1.0000   1.0000
     1.0000   1.0000   1.0000   1.0000   1.0000   1.0000   1.0000   1.0000
     1.0000   1.0000   1.0000   1.0000   1.0000   1.0000   1.0000   1.0000
     1.0000   1.0000   1.0000   1.0000   1.0000   1.0000   0.5512   0.4488
    -0.0000  -0.0000  -0.0000  -0.0000  -0.0000  -0.0000  -0.0000  -0.0000
    -0.0000  -0.0000

     the Fermi energy is    11.0745 ev

!    total energy              =   -2755.36374878 Ry

     total all-electron energy =     -3626.138888 Ry
     estimated scf accuracy    <       0.00000071 Ry
     smearing contrib. (-TS)   =      -0.00055798 Ry
     internal energy E=F+TS    =   -2755.36319079 Ry

     The total energy is F=E-TS. E is the sum of the following terms:
     one-electron contribution =    -316.59704313 Ry
     hartree contribution      =     239.48112105 Ry
     xc contribution           =    -130.22568963 Ry
     ewald contribution        =    -708.07560489 Ry
     one-center paw contrib.   =   -1839.94597419 Ry
      -> PAW hartree energy AE =     743.42690985 Ry
      -> PAW hartree energy PS =    -716.21959539 Ry
      -> PAW xc energy AE      =   -1990.73131455 Ry
      -> PAW xc energy PS      =     123.57802590 Ry
      -> total E_H with PAW    =     266.68843551 Ry
      -> total E_XC with PAW   =   -1997.37897828 Ry

     convergence has been achieved in  72 iterations

     Forces acting on atoms (cartesian axes, Ry/au):

     atom    1 type  1   force =     0.00000000    0.01056935    0.01546295
     atom    2 type  1   force =     0.00000000   -0.01056935   -0.01546295
     atom    3 type  2   force =     0.00000000    0.00575689    0.00359896
     atom    4 type  2   force =     0.00000000   -0.00575689   -0.00359896
     atom    5 type  3   force =     0.05664955    0.02486426   -0.01205259
     atom    6 type  3   force =    -0.05664955    0.02486426   -0.01205259
     atom    7 type  3   force =     0.04661775    0.00307191    0.00550755
     atom    8 type  3   force =    -0.04661775    0.00307191    0.00550755
     atom    9 type  3   force =    -0.04661775   -0.00307191   -0.00550755
     atom   10 type  3   force =     0.04661775   -0.00307191   -0.00550755
     atom   11 type  3   force =    -0.05664955   -0.02486426    0.01205259
     atom   12 type  3   force =     0.05664955   -0.02486426    0.01205259
     The non-local contrib.  to forces
     atom    1 type  1   force =     0.00000000    0.04296465   -0.04925683
     atom    2 type  1   force =     0.00000000   -0.04296465    0.04925683
     atom    3 type  2   force =     0.00000000    0.00651627    0.01021689
     atom    4 type  2   force =     0.00000000   -0.00651627   -0.01021689
     atom    5 type  3   force =     0.10781312    0.10299735   -0.05416447
     atom    6 type  3   force =    -0.10781312    0.10299735   -0.05416447
     atom    7 type  3   force =     0.07515430    0.03585274    0.01508452
     atom    8 type  3   force =    -0.07515430    0.03585274    0.01508452
     atom    9 type  3   force =    -0.07515430   -0.03585274   -0.01508452
     atom   10 type  3   force =     0.07515430   -0.03585274   -0.01508452
     atom   11 type  3   force =    -0.10781312   -0.10299735    0.05416447
     atom   12 type  3   force =     0.10781312   -0.10299735    0.05416447
     The ionic contribution  to forces
     atom    1 type  1   force =     0.00000000   -0.91666114   -7.09190059
     atom    2 type  1   force =     0.00000000    0.91666114    7.09190059
     atom    3 type  2   force =     0.00000000    0.03653340   -3.79340931
     atom    4 type  2   force =    -0.00000000   -0.03653339    3.79340931
     atom    5 type  3   force =    -1.35925782   -0.06488254   -4.17041615
     atom    6 type  3   force =     1.35925782   -0.06488254   -4.17041615
     atom    7 type  3   force =     1.77254886   -0.22402066   -3.90427488
     atom    8 type  3   force =    -1.77254886   -0.22402066   -3.90427488
     atom    9 type  3   force =    -1.77254886    0.22402066    3.90427488
     atom   10 type  3   force =     1.77254886    0.22402066    3.90427488
     atom   11 type  3   force =     1.35925782    0.06488254    4.17041615
     atom   12 type  3   force =    -1.35925782    0.06488254    4.17041615
     The local contribution  to forces
     atom    1 type  1   force =    -0.00028325    0.88417849    7.15693577
     atom    2 type  1   force =     0.00014306   -0.88427809   -7.15667639
     atom    3 type  2   force =    -0.00012574   -0.03724207    3.78709691
     atom    4 type  2   force =     0.00013844    0.03723705   -3.78673094
     atom    5 type  3   force =     1.30975152   -0.01209920    4.21197335
     atom    6 type  3   force =    -1.30975120   -0.01211328    4.21183517
     atom    7 type  3   force =    -1.79981408    0.19155947    3.89496226
     atom    8 type  3   force =     1.79984979    0.19155602    3.89503131
     atom    9 type  3   force =     1.79990908   -0.19157964   -3.89486825
     atom   10 type  3   force =    -1.79992844   -0.19157939   -3.89489463
     atom   11 type  3   force =    -1.30979124    0.01213383   -4.21203755
     atom   12 type  3   force =     1.30975251    0.01217080   -4.21196598
     The core correction contribution to forces
     atom    1 type  1   force =    -0.00000001   -0.00000177    0.00000216
     atom    2 type  1   force =     0.00000001    0.00000177   -0.00000214
     atom    3 type  2   force =    -0.00000006   -0.00002053   -0.00002633
     atom    4 type  2   force =     0.00000003    0.00002052    0.00002646
     atom    5 type  3   force =    -0.00168837   -0.00118244    0.00042792
     atom    6 type  3   force =     0.00168866   -0.00118207    0.00042697
     atom    7 type  3   force =    -0.00103623   -0.00035447   -0.00041739
     atom    8 type  3   force =     0.00103614   -0.00035448   -0.00041732
     atom    9 type  3   force =     0.00103643    0.00035437    0.00041787
     atom   10 type  3   force =    -0.00103687    0.00035424    0.00041867
     atom   11 type  3   force =     0.00168878    0.00118248   -0.00042722
     atom   12 type  3   force =    -0.00168900    0.00118245   -0.00042769
     The Hubbard contrib.    to forces
     atom    1 type  1   force =     0.00000000    0.00000000    0.00000000
     atom    2 type  1   force =     0.00000000    0.00000000    0.00000000
     atom    3 type  2   force =     0.00000000    0.00000000    0.00000000
     atom    4 type  2   force =     0.00000000    0.00000000    0.00000000
     atom    5 type  3   force =     0.00000000    0.00000000    0.00000000
     atom    6 type  3   force =     0.00000000    0.00000000    0.00000000
     atom    7 type  3   force =     0.00000000    0.00000000    0.00000000
     atom    8 type  3   force =     0.00000000    0.00000000    0.00000000
     atom    9 type  3   force =     0.00000000    0.00000000    0.00000000
     atom   10 type  3   force =     0.00000000    0.00000000    0.00000000
     atom   11 type  3   force =     0.00000000    0.00000000    0.00000000
     atom   12 type  3   force =     0.00000000    0.00000000    0.00000000
     The SCF correction term to forces
     atom    1 type  1   force =     0.00030612    0.00009144   -0.00022142
     atom    2 type  1   force =    -0.00018840    0.00001277    0.00015429
     atom    3 type  2   force =     0.00009712   -0.00003425   -0.00026398
     atom    4 type  2   force =    -0.00010635    0.00003112   -0.00007167
     atom    5 type  3   force =     0.00005402    0.00002673    0.00017814
     atom    6 type  3   force =    -0.00004555    0.00006314    0.00025956
     atom    7 type  3   force =    -0.00024581    0.00003439    0.00015894
     atom    8 type  3   force =     0.00020584    0.00003892    0.00009321
     atom    9 type  3   force =     0.00012201   -0.00001552   -0.00025503
     atom   10 type  3   force =    -0.00012089   -0.00001352   -0.00019926
     atom   11 type  3   force =     0.00000998   -0.00005797   -0.00004621
     atom   12 type  3   force =    -0.00000423   -0.00009651   -0.00010638

     Total force =     0.159801     Total SCF correction =     0.000847

     Computing stress (Cartesian axis) and pressure

          total   stress  (Ry/bohr**3)                   (kbar)     P=     -428.83
  -0.00353983   0.00000000   0.00000000         -520.73        0.00        0.00
   0.00000000  -0.00283056  -0.00046217            0.00     -416.39      -67.99
   0.00000000  -0.00046217  -0.00237508            0.00      -67.99     -349.39

     kinetic stress (kbar)  20055.32      0.00      0.00
                                0.00  20355.29    -46.23
                                0.00    -46.23  20300.00

     local   stress (kbar)  -7978.45     -0.15      0.09
                               -0.15  -6784.35  -1865.47
                                0.09  -1865.47  -1636.12

     nonloc. stress (kbar)  11185.55      0.00      0.00
                                0.00  11242.34    -31.44
                                0.00    -31.44  11148.06

     hartree stress (kbar)  11805.22      0.06     -0.05
                                0.06  11562.68    638.65
                               -0.05    638.65   8723.86

     exc-cor stress (kbar)  -4980.91      0.00     -0.00
                                0.00  -4980.67      2.16
                               -0.00      2.16  -4982.12

     corecor stress (kbar)   -478.03      0.00      0.00
                                0.00   -479.03     -0.02
                                0.00     -0.02   -479.17

     ewald   stress (kbar) -30129.42     -0.00      0.00
                               -0.00 -31332.65   1234.37
                                0.00   1234.37 -33423.89

     hubbard stress (kbar)      0.00      0.00      0.00
                                0.00      0.00      0.00
                                0.00      0.00      0.00

     DFT-D   stress (kbar)      0.00      0.00      0.00
                                0.00      0.00      0.00
                                0.00      0.00      0.00

     XDM     stress (kbar)      0.00      0.00      0.00
                                0.00      0.00      0.00
                                0.00      0.00      0.00

     dft-nl  stress (kbar)      0.00      0.00      0.00
                                0.00      0.00      0.00
                                0.00      0.00      0.00

     TS-vdW  stress (kbar)      0.00      0.00      0.00
                                0.00      0.00      0.00
                                0.00      0.00      0.00

[...]

                                0.00      0.00      0.00

     Writing all to output data dir new_calculations/myprefix.save/

     General routines

     Parallel routines

     PAW routines

   This run was terminated on:  18:21:21  21May2023

   JOB DONE.