     Program PWSCF v.7.0 starts on 20May2023 at 14:23:56

     Reading input from espresso_1473.pwi
Warning: card &CELL ignored
Warning: card / ignored

     Current dimensions of program PWSCF are:
     Max number of different atomic species (ntypx) = 10
     Max number of k-points (npk) =  40000
     Max angular momentum in pseudopotentials (lmaxx) =  4
     file Mg.pbe-n-kjpaw_psl.0.3.0.UPF: wavefunction(s)  3S renormalized

     gamma-point specific algorithms are used
     Message from routine setup:
     using ibrav=0 with symmetry is DISCOURAGED, use correct ibrav instead

     Subspace diagonalization in iterative solution of the eigenvalue problem:
     a serial algorithm will be used

     Using Slab Decomposition

     bravais-lattice index     =            0
     lattice parameter (alat)  =      10.2582  a.u.
     unit-cell volume          =     729.8203 (a.u.)^3
     number of atoms/cell      =            8
     number of atomic types    =            3
     number of electrons       =        57.00
     number of Kohn-Sham states=           35
     kinetic-energy cutoff     =      30.0000  Ry
     charge density cutoff     =     240.0000  Ry
     scf convergence threshold =      1.0E-06
     mixing beta               =       0.7000
     number of iterations used =            8  plain     mixing
     Exchange-correlation=  SLA  PW   PBX  PBC
                           (   1   4   3   4   0   0   0)

     celldm(1)=  10.258199  celldm(2)=   0.000000  celldm(3)=   0.000000
     celldm(4)=   0.000000  celldm(5)=   0.000000  celldm(6)=   0.000000

     crystal axes: (cart. coord. in units of alat)
               a(1) = (   1.000000   0.000000   0.000000 )
               a(2) = (   0.528636   0.848849   0.000000 )
               a(3) = (   0.528636   0.293550   0.796475 )

     reciprocal axes: (cart. coord. in units 2 pi/alat)
               b(1) = (  1.000000 -0.622768 -0.434190 )
               b(2) = (  0.000000  1.178066 -0.434190 )
               b(3) = (  0.000000  0.000000  1.255532 )

     PseudoPot. # 1 for Mg read from file:
     /home/pragov/projects/rrg-bengioy-ad/pragov/crystal_structure_design/SSSP/Mg.pbe-n-kjpaw_psl.0.3.0.UPF
     MD5 check sum: 24ecedc7f3e3cbe212e682f4413594e4
     Pseudo is Projector augmented-wave + core cor, Zval =  2.0
     Generated using "atomic" code by A. Dal Corso  v.5.0.99 svn rev. 10869
     Shape of augmentation charge: PSQ
     Using radial grid of 1129 points,  4 beta functions with:
                l(1) =   0
                l(2) =   0
                l(3) =   1
                l(4) =   1
     Q(r) pseudized with 0 coefficients

     PseudoPot. # 2 for V  read from file:
     /home/pragov/projects/rrg-bengioy-ad/pragov/crystal_structure_design/SSSP/v_pbe_v1.4.uspp.F.UPF
     MD5 check sum: 22b79981416ebb76fdaf5b1b8640f6fb
     Pseudo is Ultrasoft + core correction, Zval = 13.0
     Generated by new atomic code, or converted to UPF format
     Using radial grid of  853 points,  6 beta functions with:
                l(1) =   0
                l(2) =   0
                l(3) =   1
                l(4) =   1
                l(5) =   2
                l(6) =   2
     Q(r) pseudized with  8 coefficients,  rinner =    1.100   1.100   1.100
                                                       1.100   1.100

     PseudoPot. # 3 for F  read from file:
     /home/pragov/projects/rrg-bengioy-ad/pragov/crystal_structure_design/SSSP/f_pbe_v1.4.uspp.F.UPF
     MD5 check sum: 4c38b6a325caf53ec0e86aed9459de46
     Pseudo is Ultrasoft, Zval =  7.0
     Generated by new atomic code, or converted to UPF format
     Using radial grid of  799 points,  4 beta functions with:
                l(1) =   0
                l(2) =   0
                l(3) =   1
                l(4) =   1
     Q(r) pseudized with  8 coefficients,  rinner =    0.950   0.950   0.950

     atomic species   valence    mass     pseudopotential
        Mg             2.00    24.30500     Mg( 1.00)
        V             13.00    50.94150     V ( 1.00)
        F              7.00    18.99840     F ( 1.00)

      2 Sym. Ops., with inversion, found

                                    s                        frac. trans.

      isym =  1     identity

 cryst.   s( 1) = (     1          0          0      )
                  (     0          1          0      )
                  (     0          0          1      )

 cart.    s( 1) = (  1.0000000  0.0000000  0.0000000 )
                  (  0.0000000  1.0000000  0.0000000 )
                  (  0.0000000  0.0000000  1.0000000 )

      isym =  2     inversion

 cryst.   s( 2) = (    -1          0          0      )
                  (     0         -1          0      )
                  (     0          0         -1      )

 cart.    s( 2) = ( -1.0000000 -0.0000000 -0.0000000 )
                  (  0.0000000 -1.0000000 -0.0000000 )
                  (  0.0000000  0.0000000 -1.0000000 )

   Cartesian axes

     site n.     atom                  positions (alat units)
         1           Mg  tau(   1) = (   1.0286356   0.5711997   0.3982375  )
         2           V   tau(   2) = (   0.0000000   0.0000000   0.0000000  )
         3           F   tau(   3) = (   1.2462279   0.7872592   0.1907996  )
         4           F   tau(   4) = (   1.3270645   0.4009363   0.5361113  )
         5           F   tau(   5) = (   1.0154033   0.3231022   0.1237722  )
         6           F   tau(   6) = (   0.7302066   0.7414631   0.2603637  )
         7           F   tau(   7) = (   0.8110432   0.3551401   0.6056754  )
         8           F   tau(   8) = (   1.0418678   0.8192971   0.6727028  )

   Crystallographic axes

     site n.     atom                  positions (cryst. coord.)
         1           Mg  tau(   1) = (  0.5000000  0.5000000  0.5000000  )
         2           V   tau(   2) = (  0.0000000  0.0000000  0.0000000  )
         3           F   tau(   3) = (  0.6731050  0.8446000  0.2395550  )
         4           F   tau(   4) = (  0.8446000  0.2395550  0.6731050  )
         5           F   tau(   5) = (  0.7604450  0.3268950  0.1554000  )
         6           F   tau(   6) = (  0.1554000  0.7604450  0.3268950  )
         7           F   tau(   7) = (  0.3268950  0.1554000  0.7604450  )
         8           F   tau(   8) = (  0.2395550  0.6731050  0.8446000  )

     number of k points=     1  Methfessel-Paxton smearing, width (Ry)=  0.0010
                       cart. coord. in units 2pi/alat
        k(    1) = (   0.0000000   0.0000000   0.0000000), wk =   2.0000000

                       cryst. coord.
        k(    1) = (   0.0000000   0.0000000   0.0000000), wk =   2.0000000

     Check: negative core charge=   -0.000002

     Initial potential from superposition of free atoms

     starting charge      56.9978, renormalised to      57.0000

     negative rho (up, down):  1.040E-03 0.000E+00
     Starting wfcs are   38 randomized atomic wfcs
     Checking if some PAW data can be deallocated...

     Self-consistent Calculation

     iteration #  1     ecut=    30.00 Ry     beta= 0.70
     Davidson diagonalization with overlap

     ethr =  1.00E-02,  avg # of iterations =  3.0
     Minimization algorithm failed to find Fermi energy: reverting to bisection
     Possible cause: smearing is larger than the electronic band-gap.

     negative rho (up, down):  1.607E-03 0.000E+00

     total energy              =    -470.14661550 Ry
     estimated scf accuracy    <       1.67318646 Ry

[...]

     ethr =  2.94E-03,  avg # of iterations =  2.0

[...]

     ethr =  6.03E-05,  avg # of iterations =  1.0

[...]

     total energy              =    -471.06428402 Ry
     estimated scf accuracy    <       0.00000431 Ry

     iteration # 24     ecut=    30.00 Ry     beta= 0.70
     Davidson diagonalization with overlap

     ethr =  7.57E-09,  avg # of iterations =  1.0
     Minimization algorithm failed to find Fermi energy: reverting to bisection
     Possible cause: smearing is larger than the electronic band-gap.

[...]

     End of self-consistent calculation

          k = 0.0000 0.0000 0.0000 (  1010 PWs)   bands (ev):

   -63.4431 -37.2488 -37.2488 -37.2452 -20.7485 -20.1175 -20.1173 -19.9957
   -19.9819 -19.9817  -4.1514  -3.3107  -3.3106  -2.8263  -2.7797  -2.7797
    -2.7517  -2.7516  -2.6362  -0.9979  -0.7382  -0.7382  -0.6165  -0.6164
    -0.6162  -0.4862  -0.2382  -0.2381   3.3019   3.3021   3.3021   5.7645
     5.7645   7.9638  12.9465

     occupation numbers
     1.0000   1.0000   1.0000   1.0000   1.0000   1.0000   1.0000   1.0000
     1.0000   1.0000   1.0000   1.0000   1.0000   1.0000   1.0000   1.0000
     1.0000   1.0000   1.0000   1.0000   1.0000   1.0000   1.0000   1.0000
     1.0000   1.0000   1.0000   1.0000   0.1719   0.1644   0.1637  -0.0000
    -0.0000  -0.0000  -0.0000

     the Fermi energy is     3.2961 ev

!    total energy              =    -471.06428422 Ry
     estimated scf accuracy    <       0.00000006 Ry
     smearing contrib. (-TS)   =      -0.00043266 Ry
     internal energy E=F+TS    =    -471.06385156 Ry

     The total energy is F=E-TS. E is the sum of the following terms:
     one-electron contribution =    -303.70509865 Ry
     hartree contribution      =     176.38742999 Ry
     xc contribution           =     -77.38592577 Ry
     ewald contribution        =    -235.09345249 Ry
     one-center paw contrib.   =     -31.26680464 Ry
      -> PAW hartree energy AE =       0.72118372 Ry
      -> PAW hartree energy PS =      -0.72033548 Ry
      -> PAW xc energy AE      =     -32.54214700 Ry
      -> PAW xc energy PS      =       1.27449412 Ry
      -> total E_H with PAW    =     176.38827824 Ry
      -> total E_XC with PAW   =    -108.65357866 Ry

     convergence has been achieved in  24 iterations

     negative rho (up, down):  1.419E-03 0.000E+00

     Forces acting on atoms (cartesian axes, Ry/au):

     atom    1 type  1   force =     0.00000000    0.00000000    0.00000000
     atom    2 type  2   force =     0.00000000    0.00000000    0.00000000
     atom    3 type  3   force =     0.01067777    0.01350144   -0.01208577
     atom    4 type  3   force =     0.01709842   -0.01065140    0.00598185
     atom    5 type  3   force =     0.00000874   -0.01258102   -0.01686055
     atom    6 type  3   force =    -0.01709842    0.01065140   -0.00598185
     atom    7 type  3   force =    -0.01067777   -0.01350144    0.01208577
     atom    8 type  3   force =    -0.00000874    0.01258102    0.01686055
     The non-local contrib.  to forces
     atom    1 type  1   force =     0.00000000    0.00000000    0.00000000
     atom    2 type  2   force =     0.00000000    0.00000000    0.00000000
     atom    3 type  3   force =     0.55056314   -0.20820488   -0.23880068
     atom    4 type  3   force =     0.11430538   -0.02436068    0.62436743
     atom    5 type  3   force =    -0.03974174   -0.62385159    0.11277381
     atom    6 type  3   force =    -0.11430538    0.02436068   -0.62436743
     atom    7 type  3   force =    -0.55056314    0.20820488    0.23880068
     atom    8 type  3   force =     0.03974174    0.62385159   -0.11277381
     The ionic contribution  to forces
     atom    1 type  1   force =    -0.00000000   -0.00000000   -0.00000000
     atom    2 type  2   force =    -0.00000000   -0.00000000   -0.00000000
     atom    3 type  3   force =    -9.63863533   -1.08766360    6.07141404
     atom    4 type  3   force =    -6.01858828    3.06622486   -9.23706028
     atom    5 type  3   force =     0.57887878   10.99444191    3.12018199
     atom    6 type  3   force =     6.01858828   -3.06622486    9.23706028
     atom    7 type  3   force =     9.63863533    1.08766360   -6.07141404
     atom    8 type  3   force =    -0.57887878  -10.99444191   -3.12018198
     The local contribution  to forces
     atom    1 type  1   force =     0.00000451   -0.00000345    0.00000156
     atom    2 type  2   force =    -0.00003672    0.00003162   -0.00003840
     atom    3 type  3   force =     9.09875296    1.30940507   -5.84466416
     atom    4 type  3   force =     5.92141873   -3.05257451    8.61868887
     atom    5 type  3   force =    -0.53913457  -10.38322104   -3.24976583
     atom    6 type  3   force =    -5.92143095    3.05258354   -8.61869121
     atom    7 type  3   force =    -9.09875235   -1.30940301    5.84465802
     atom    8 type  3   force =     0.53913386   10.38322179    3.24976334
     The core correction contribution to forces
     atom    1 type  1   force =    -0.00000018    0.00000013   -0.00000004
     atom    2 type  2   force =    -0.00000064    0.00000058   -0.00000071
     atom    3 type  3   force =     0.00000000    0.00000000    0.00000000
     atom    4 type  3   force =     0.00000000    0.00000000    0.00000000
     atom    5 type  3   force =     0.00000000    0.00000000    0.00000000
     atom    6 type  3   force =     0.00000000    0.00000000    0.00000000
     atom    7 type  3   force =     0.00000000    0.00000000    0.00000000
     atom    8 type  3   force =     0.00000000    0.00000000    0.00000000
     The Hubbard contrib.    to forces
     atom    1 type  1   force =     0.00000000    0.00000000    0.00000000
     atom    2 type  2   force =     0.00000000    0.00000000    0.00000000
     atom    3 type  3   force =     0.00000000    0.00000000    0.00000000
     atom    4 type  3   force =     0.00000000    0.00000000    0.00000000
     atom    5 type  3   force =     0.00000000    0.00000000    0.00000000
     atom    6 type  3   force =     0.00000000    0.00000000    0.00000000
     atom    7 type  3   force =     0.00000000    0.00000000    0.00000000
     atom    8 type  3   force =     0.00000000    0.00000000    0.00000000
     The SCF correction term to forces
     atom    1 type  1   force =    -0.00000491    0.00000370   -0.00000165
     atom    2 type  2   force =     0.00004179   -0.00003610    0.00004362
     atom    3 type  3   force =    -0.00000397   -0.00003498   -0.00003418
     atom    4 type  3   force =    -0.00003653    0.00005866   -0.00001283
     atom    5 type  3   force =     0.00000563    0.00005050   -0.00004994
     atom    6 type  3   force =     0.00005051   -0.00006822    0.00001786
     atom    7 type  3   force =     0.00000142    0.00003326    0.00004191
     atom    8 type  3   force =    -0.00000621   -0.00004965    0.00005357

     Total force =     0.051508     Total SCF correction =     0.000182

     Computing stress (Cartesian axis) and pressure

     negative rho (up, down):  1.419E-03 0.000E+00
          total   stress  (Ry/bohr**3)                   (kbar)     P=     -148.93
  -0.00099671   0.00001675   0.00001153         -146.62        2.46        1.70
   0.00001675  -0.00101749   0.00000624            2.46     -149.68        0.92
   0.00001153   0.00000624  -0.00102306            1.70        0.92     -150.50

     kinetic stress (kbar)  19467.95     12.05      8.47
                               12.05  19452.90      4.78
                                8.47      4.78  19449.83

     local   stress (kbar) -12244.62   -333.76   -232.88
                             -333.76 -11828.79   -129.44
                             -232.88   -129.44 -11734.29

     nonloc. stress (kbar)   1168.36     -0.37     -0.25
                               -0.37   1168.82     -0.13
                               -0.25     -0.13   1168.98

     hartree stress (kbar)  11975.95    134.96     94.16
                              134.96  11807.80     52.31
                               94.16     52.31  11769.50

     exc-cor stress (kbar)  -4226.48      0.10      0.07
                                0.10  -4226.61      0.04
                                0.07      0.04  -4226.63

     corecor stress (kbar)   -667.79     -0.06     -0.04
                               -0.06   -667.72     -0.03
                               -0.04     -0.03   -667.71

     ewald   stress (kbar) -15619.99    189.55    132.15
                              189.55 -15856.08     73.38
                              132.15     73.38 -15910.17

     hubbard stress (kbar)      0.00      0.00      0.00
                                0.00      0.00      0.00
                                0.00      0.00      0.00

     DFT-D   stress (kbar)      0.00      0.00      0.00
                                0.00      0.00      0.00
                                0.00      0.00      0.00

     XDM     stress (kbar)      0.00      0.00      0.00
                                0.00      0.00      0.00
                                0.00      0.00      0.00

     dft-nl  stress (kbar)      0.00      0.00      0.00
                                0.00      0.00      0.00
                                0.00      0.00      0.00

     TS-vdW  stress (kbar)      0.00      0.00      0.00
                                0.00      0.00      0.00
                                0.00      0.00      0.00

[...]

                                0.00      0.00      0.00

     Writing all to output data dir new_calculations/myprefix.save/

     General routines

     Parallel routines

     PAW routines

   This run was terminated on:  14:24:16  20May2023

   JOB DONE.