     Program PWSCF v.7.0 starts on 21May2023 at  7:32:59

     Reading input from espresso_15559.pwi
Warning: card &CELL ignored
Warning: card / ignored

     Current dimensions of program PWSCF are:
     Max number of different atomic species (ntypx) = 10
     Max number of k-points (npk) =  40000
     Max angular momentum in pseudopotentials (lmaxx) =  4
     file O.pbe-n-kjpaw_psl.0.1.UPF: wavefunction(s)  2P renormalized

     gamma-point specific algorithms are used
     Message from routine setup:
     using ibrav=0 with symmetry is DISCOURAGED, use correct ibrav instead

     Subspace diagonalization in iterative solution of the eigenvalue problem:
     a serial algorithm will be used

     Using Slab Decomposition

     bravais-lattice index     =            0
     lattice parameter (alat)  =      11.7388  a.u.
     unit-cell volume          =    1766.8926 (a.u.)^3
     number of atoms/cell      =           20
     number of atomic types    =            3
     number of electrons       =       138.00
     number of Kohn-Sham states=           83
     kinetic-energy cutoff     =      30.0000  Ry
     charge density cutoff     =     240.0000  Ry
     scf convergence threshold =      1.0E-06
     mixing beta               =       0.7000
     number of iterations used =            8  plain     mixing
     Exchange-correlation= SLA  PW   PBX  PBC
                           (   1   4   3   4   0   0   0)

     celldm(1)=  11.738784  celldm(2)=   0.000000  celldm(3)=   0.000000
     celldm(4)=   0.000000  celldm(5)=   0.000000  celldm(6)=   0.000000

     crystal axes: (cart. coord. in units of alat)
               a(1) = (   1.000000   0.000000   0.000000 )
               a(2) = (  -0.087225   1.062860   0.000000 )
               a(3) = (  -0.443864  -0.013066   1.027696 )

     reciprocal axes: (cart. coord. in units 2 pi/alat)
               b(1) = (  1.000000  0.082066  0.432945 )
               b(2) = (  0.000000  0.940857  0.011962 )
               b(3) = (  0.000000  0.000000  0.973051 )

     PseudoPot. # 1 for Co read from file:
     /home/pragov/projects/rrg-bengioy-ad/pragov/crystal_structure_design/SSSP/Co_pbe_v1.2.uspp.F.UPF
     MD5 check sum: 5f91765df6ddd3222702df6e7b74a16d
     Pseudo is Ultrasoft + core correction, Zval = 17.0
     Generated by new atomic code, or converted to UPF format
     Using radial grid of  863 points,  6 beta functions with:
                l(1) =   0
                l(2) =   0
                l(3) =   1
                l(4) =   1
                l(5) =   2
                l(6) =   2
     Q(r) pseudized with  8 coefficients,  rinner =    1.200   1.200   1.200
                                                       1.200   1.200

     PseudoPot. # 2 for P  read from file:
     /home/pragov/projects/rrg-bengioy-ad/pragov/crystal_structure_design/SSSP/P.pbe-n-rrkjus_psl.1.0.0.UPF
     MD5 check sum: 8b930f418f0a4573dca56cd030ffe088
     Pseudo is Ultrasoft + core correction, Zval =  5.0
     Generated using "atomic" code by A. Dal Corso  v.5.1
     Using radial grid of 1147 points,  6 beta functions with:
                l(1) =   0
                l(2) =   0
                l(3) =   1
                l(4) =   1
                l(5) =   2
                l(6) =   2
     Q(r) pseudized with 0 coefficients

     PseudoPot. # 3 for O  read from file:
     /home/pragov/projects/rrg-bengioy-ad/pragov/crystal_structure_design/SSSP/O.pbe-n-kjpaw_psl.0.1.UPF
     MD5 check sum: 0234752ac141de4415c5fc33072bef88
     Pseudo is Projector augmented-wave + core cor, Zval =  6.0
     Generated using "atomic" code by A. Dal Corso  v.5.0.99 svn rev. 10869
     Shape of augmentation charge: BESSEL
     Using radial grid of 1095 points,  4 beta functions with:
                l(1) =   0
                l(2) =   0
                l(3) =   1
                l(4) =   1
     Q(r) pseudized with 0 coefficients

     atomic species   valence    mass     pseudopotential
        Co            17.00    58.93319     Co( 1.00)
        P              5.00    30.97376     P ( 1.00)
        O              6.00    15.99900     O ( 1.00)

      2 Sym. Ops., with inversion, found

                                    s                        frac. trans.

      isym =  1     identity

 cryst.   s( 1) = (     1          0          0      )
                  (     0          1          0      )
                  (     0          0          1      )

 cart.    s( 1) = (  1.0000000 -0.0000000 -0.0000000 )
                  (  0.0000000  1.0000000  0.0000000 )
                  (  0.0000000  0.0000000  1.0000000 )

      isym =  2     inversion

 cryst.   s( 2) = (    -1          0          0      )
                  (     0         -1          0      )
                  (     0          0         -1      )

 cart.    s( 2) = ( -1.0000000  0.0000000  0.0000000 )
                  (  0.0000000 -1.0000000 -0.0000000 )
                  (  0.0000000  0.0000000 -1.0000000 )

   Cartesian axes

     site n.     atom                  positions (alat units)
         1           Co  tau(   1) = (  -0.0256375   0.3782197   0.2175344  )
         2           Co  tau(   2) = (   0.4945490   0.6715743   0.8101614  )
         3           P   tau(   3) = (  -0.0054618   0.6404519   0.6670229  )
         4           P   tau(   4) = (   0.4743733   0.4093421   0.3606730  )
         5           P   tau(   5) = (   0.0336234   0.9068673   0.2588334  )
         6           P   tau(   6) = (   0.4352881   0.1429267   0.7688625  )
         7           O   tau(   7) = (   0.2768794   0.4051414   0.2124802  )
         8           O   tau(   8) = (   0.2021683   0.0959721   0.8340328  )
         9           O   tau(   9) = (   0.2667432   0.9538219   0.1936631  )
        10           O   tau(  10) = (   0.4744659   0.9993816   0.7941140  )
        11           O   tau(  11) = (   0.0177749   0.8447948   0.5089839  )
        12           O   tau(  12) = (  -0.2041000   0.6824943   0.8066364  )
        13           O   tau(  13) = (  -0.0501765   0.7104195   0.1307054  )
        14           O   tau(  14) = (   0.1920321   0.6446526   0.8152157  )
        15           O   tau(  15) = (   0.4511366   0.2049992   0.5187120  )
        16           O   tau(  16) = (  -0.0237324   0.4360213   0.5345221  )
        17           O   tau(  17) = (  -0.0055544   0.0504123   0.2335819  )
        18           O   tau(  18) = (   0.5190880   0.3393744   0.8969904  )
        19           O   tau(  19) = (   0.6730116   0.3672997   0.2210594  )
        20           O   tau(  20) = (   0.4926439   0.6137726   0.4931738  )

   Crystallographic axes

     site n.     atom                  positions (cryst. coord.)
         1           Co  tau(   1) = (  0.0995820  0.3584530  0.2116720  )
         2           Co  tau(   2) = (  0.9004180  0.6415470  0.7883280  )
         3           P   tau(   3) = (  0.3358820  0.6105530  0.6490470  )
         4           P   tau(   4) = (  0.6641180  0.3894470  0.3509530  )
         5           P   tau(   5) = (  0.2201070  0.8563290  0.2518580  )
         6           P   tau(   6) = (  0.7798930  0.1436710  0.7481420  )
         7           O   tau(   7) = (  0.4021200  0.3837220  0.2067540  )
         8           O   tau(   8) = (  0.5711350  0.1002730  0.8115560  )
         9           O   tau(   9) = (  0.4288650  0.8997270  0.1884440  )
        10           O   tau(  10) = (  0.9002890  0.9497750  0.7727130  )
        11           O   tau(  11) = (  0.3074660  0.8009200  0.4952670  )
        12           O   tau(  12) = (  0.2011390  0.6517790  0.7848980  )
        13           O   tau(  13) = (  0.0647130  0.6699670  0.1271830  )
        14           O   tau(  14) = (  0.5978800  0.6162780  0.7932460  )
        15           O   tau(  15) = (  0.6925340  0.1990800  0.5047330  )
        16           O   tau(  16) = (  0.2434690  0.4166280  0.5201170  )
        17           O   tau(  17) = (  0.0997110  0.0502250  0.2272870  )
        18           O   tau(  18) = (  0.9352870  0.3300330  0.8728170  )
        19           O   tau(  19) = (  0.7988610  0.3482210  0.2151020  )
        20           O   tau(  20) = (  0.7565310  0.5833720  0.4798830  )

     number of k points=     1  Methfessel-Paxton smearing, width (Ry)=  0.0010
                       cart. coord. in units 2pi/alat
        k(    1) = (   0.0000000   0.0000000   0.0000000), wk =   2.0000000

                       cryst. coord.
        k(    1) = (   0.0000000   0.0000000   0.0000000), wk =   2.0000000

     Check: negative core charge=   -0.000016

     Initial potential from superposition of free atoms

     starting charge     135.9993, renormalised to     138.0000
     Starting wfcs are   98 randomized atomic wfcs
     Checking if some PAW data can be deallocated...

     Self-consistent Calculation

     iteration #  1     ecut=    30.00 Ry     beta= 0.70
     Davidson diagonalization with overlap

     ethr =  1.00E-02,  avg # of iterations =  4.0

     total energy              =   -1229.15893087 Ry
     estimated scf accuracy    <       9.83939777 Ry

[...]

     ethr =  8.50E-06,  avg # of iterations =  2.0
     Minimization algorithm failed to find Fermi energy: reverting to bisection
     Possible cause: smearing is larger than the electronic band-gap.

[...]

     total energy              =   -1235.49401815 Ry
     estimated scf accuracy    <       0.00002510 Ry

     iteration # 48     ecut=    30.00 Ry     beta= 0.70
     Davidson diagonalization with overlap

     ethr =  1.06E-08,  avg # of iterations =  1.0

     End of self-consistent calculation

          k = 0.0000 0.0000 0.0000 (  2450 PWs)   bands (ev):

   -92.7976 -92.7971 -56.2118 -56.2109 -56.0061 -56.0044 -55.7444 -55.7443
   -18.7024 -18.4775 -17.3680 -17.3318 -16.3305 -16.1060 -15.6673 -15.5476
   -15.5035 -15.4873 -15.2564 -15.2485 -14.4525 -14.4254  -7.2737  -7.2673
    -5.5674  -4.6561  -3.9741  -3.9423  -3.2690  -3.0366  -2.8553  -2.7583
    -2.6161  -2.5309  -1.6655  -1.5724  -1.5599  -1.2249  -0.9694  -0.7763
    -0.7709  -0.4610  -0.1907  -0.0387  -0.0030   0.2086   0.2518   0.3503
     0.6059   0.6905   0.8313   0.8380   0.8717   1.1459   1.1489   1.3207
     1.3781   1.3988   1.4573   1.6841   2.1159   2.1609   2.4117   2.4473
     2.7045   2.7862   2.9545   2.9648   3.0258   3.0446   3.0708   3.2297
     3.4942   3.7846   8.6114  10.7549  11.0154  11.4844  11.6601  12.0002
    12.2273  12.2823  12.2910

     occupation numbers
     1.0000   1.0000   1.0000   1.0000   1.0000   1.0000   1.0000   1.0000
     1.0000   1.0000   1.0000   1.0000   1.0000   1.0000   1.0000   1.0000
     1.0000   1.0000   1.0000   1.0000   1.0000   1.0000   1.0000   1.0000
     1.0000   1.0000   1.0000   1.0000   1.0000   1.0000   1.0000   1.0000
     1.0000   1.0000   1.0000   1.0000   1.0000   1.0000   1.0000   1.0000
     1.0000   1.0000   1.0000   1.0000   1.0000   1.0000   1.0000   1.0000
     1.0000   1.0000   1.0000   1.0000   1.0000   1.0000   1.0000   1.0000
     1.0000   1.0000   1.0000   1.0000   1.0000   1.0000   1.0000   1.0000
     1.0000   1.0000   1.0000   1.0000   0.9568   0.0438  -0.0007  -0.0000
    -0.0000  -0.0000  -0.0000  -0.0000  -0.0000  -0.0000  -0.0000  -0.0000
    -0.0000  -0.0000  -0.0000

     the Fermi energy is     3.0352 ev

!    total energy              =   -1235.49401878 Ry
     estimated scf accuracy    <       0.00000067 Ry
     smearing contrib. (-TS)   =      -0.00001251 Ry
     internal energy E=F+TS    =   -1235.49400628 Ry

     The total energy is F=E-TS. E is the sum of the following terms:
     one-electron contribution =    -925.92801386 Ry
     hartree contribution      =     521.84239739 Ry
     xc contribution           =    -187.20587292 Ry
     ewald contribution        =    -510.93419722 Ry
     one-center paw contrib.   =    -133.26831968 Ry
      -> PAW hartree energy AE =     431.04594370 Ry
      -> PAW hartree energy PS =    -429.52694186 Ry
      -> PAW xc energy AE      =    -242.87801606 Ry
      -> PAW xc energy PS      =     108.09069454 Ry
      -> total E_H with PAW    =     523.36139923 Ry
      -> total E_XC with PAW   =    -321.99319444 Ry

     convergence has been achieved in  48 iterations

     Forces acting on atoms (cartesian axes, Ry/au):

     atom    1 type  1   force =    -0.00078920   -0.01240253    0.00701739
     atom    2 type  1   force =     0.00078920    0.01240253   -0.00701739
     atom    3 type  2   force =    -0.01111932    0.04655228    0.02376669
     atom    4 type  2   force =     0.01111932   -0.04655228   -0.02376669
     atom    5 type  2   force =     0.07504953    0.04803990   -0.00183978
     atom    6 type  2   force =    -0.07504953   -0.04803990    0.00183978
     atom    7 type  3   force =    -0.01930626    0.03654403   -0.01052134
     atom    8 type  3   force =     0.01956209    0.00682668   -0.00168033
     atom    9 type  3   force =    -0.01956209   -0.00682668    0.00168033
     atom   10 type  3   force =     0.04207978   -0.07160127   -0.00685001
     atom   11 type  3   force =    -0.00772951    0.00114526    0.00018112
     atom   12 type  3   force =    -0.00364782    0.01709729   -0.00150247
     atom   13 type  3   force =    -0.00343204   -0.08395126   -0.05907015
     atom   14 type  3   force =     0.01930626   -0.03654403    0.01052134
     atom   15 type  3   force =     0.00772951   -0.00114526   -0.00018112
     atom   16 type  3   force =     0.00007854   -0.06042124   -0.05972457
     atom   17 type  3   force =    -0.04207978    0.07160127    0.00685001
     atom   18 type  3   force =     0.00343204    0.08395126    0.05907015
     atom   19 type  3   force =     0.00364782   -0.01709729    0.00150247
     atom   20 type  3   force =    -0.00007854    0.06042124    0.05972457
     The non-local contrib.  to forces
     atom    1 type  1   force =    -0.00861362    0.07546406   -0.05852093
     atom    2 type  1   force =     0.00861362   -0.07546406    0.05852093
     atom    3 type  2   force =     0.01730624    0.15914886    0.02198029
     atom    4 type  2   force =    -0.01730624   -0.15914886   -0.02198029
     atom    5 type  2   force =    -0.16147117   -0.10629635    0.16242802
     atom    6 type  2   force =     0.16147117    0.10629635   -0.16242802
     atom    7 type  3   force =     0.57696137   -0.21516208    1.47331502
     atom    8 type  3   force =     1.97110152    0.50194729   -0.67414984
     atom    9 type  3   force =    -1.97110152   -0.50194729    0.67414984
     atom   10 type  3   force =    -1.05048475    0.90390497   -0.27560210
     atom   11 type  3   force =    -0.07332792   -1.14794126   -0.75793540
     atom   12 type  3   force =     0.59861383   -0.68248898   -1.32076949
     atom   13 type  3   force =     0.44896001    0.93737974    0.71792381
     atom   14 type  3   force =    -0.57696137    0.21516208   -1.47331502
     atom   15 type  3   force =     0.07332792    1.14794126    0.75793540
     atom   16 type  3   force =     0.15980185    1.73203020    0.06554188
     atom   17 type  3   force =     1.05048475   -0.90390497    0.27560210
     atom   18 type  3   force =    -0.44896001   -0.93737974   -0.71792381
     atom   19 type  3   force =    -0.59861383    0.68248898    1.32076949
     atom   20 type  3   force =    -0.15980185   -1.73203020   -0.06554188
     The ionic contribution  to forces
     atom    1 type  1   force =    -0.39144425   -9.68841417    3.11697403
     atom    2 type  1   force =     0.39144425    9.68841417   -3.11697403
     atom    3 type  2   force =    -0.53310036    1.23864028    2.06607933
     atom    4 type  2   force =     0.53310036   -1.23864028   -2.06607933
     atom    5 type  2   force =     0.54869138    2.47427145    1.31071242
     atom    6 type  2   force =    -0.54869138   -2.47427145   -1.31071242
     atom    7 type  3   force =     9.26613254   -0.70892008   -6.68283594
     atom    8 type  3   force =   -11.77313296   -3.08642499    3.09123251
     atom    9 type  3   force =    11.77313296    3.08642499   -3.09123251
     atom   10 type  3   force =     5.27795537    4.70103236   -1.63359176
     atom   11 type  3   force =    -1.32257899    7.96780754    3.44069577
     atom   12 type  3   force =     9.06433968    4.44375800    4.41405777
     atom   13 type  3   force =    -4.06249403    6.31725199    2.65840596
     atom   14 type  3   force =    -9.26613254    0.70892008    6.68283594
     atom   15 type  3   force =     1.32257899   -7.96780754   -3.44069577
     atom   16 type  3   force =    -1.28541425   -7.86150793    8.59062958
     atom   17 type  3   force =    -5.27795537   -4.70103236    1.63359176
     atom   18 type  3   force =     4.06249403   -6.31725199   -2.65840596
     atom   19 type  3   force =    -9.06433968   -4.44375800   -4.41405777
     atom   20 type  3   force =     1.28541425    7.86150793   -8.59062958
     The local contribution  to forces
     atom    1 type  1   force =     0.39918166    9.60117185   -3.05038464
     atom    2 type  1   force =    -0.39831346   -9.60145362    3.04987477
     atom    3 type  2   force =     0.50609096   -1.34011084   -2.06458279
     atom    4 type  2   force =    -0.50628518    1.34026176    2.06461050
     atom    5 type  2   force =    -0.32161684   -2.32869089   -1.46347808
     atom    6 type  2   force =     0.32212265    2.32902884    1.46322391
     atom    7 type  3   force =    -9.85851450    0.95785721    5.21300745
     atom    8 type  3   force =     9.83923278    2.59626942   -2.42507244
     atom    9 type  3   force =    -9.83942189   -2.59637247    2.42524156
     atom   10 type  3   force =    -4.19442827   -5.67087655    1.89971319
     atom   11 type  3   force =     1.38744579   -6.82990480   -2.68994646
     atom   12 type  3   force =    -9.66324553   -3.75143470   -3.10709826
     atom   13 type  3   force =     3.61306320   -7.33076284   -3.42951114
     atom   14 type  3   force =     9.85916330   -0.95786515   -5.21279587
     atom   15 type  3   force =    -1.38737254    6.82992257    2.68950525
     atom   16 type  3   force =     1.12704924    6.08460852   -8.71755553
     atom   17 type  3   force =     4.19485982    5.67013266   -1.89934149
     atom   18 type  3   force =    -3.61324371    7.33144062    3.42904890
     atom   19 type  3   force =     9.66244188    3.75167967    3.10715050
     atom   20 type  3   force =    -1.12705233   -6.08463565    8.71783289
     The core correction contribution to forces
     atom    1 type  1   force =     0.00042037   -0.00043888   -0.00115040
     atom    2 type  1   force =    -0.00041692    0.00043835    0.00114638
     atom    3 type  2   force =    -0.00151568   -0.01112290    0.00039326
     atom    4 type  2   force =     0.00151731    0.01112438   -0.00039234
     atom    5 type  2   force =     0.00976618    0.00882805   -0.01162568
     atom    6 type  2   force =    -0.00976157   -0.00882940    0.01163025
     atom    7 type  3   force =    -0.00340354    0.00278361   -0.01395320
     atom    8 type  3   force =    -0.01777532   -0.00496072    0.00642064
     atom    9 type  3   force =     0.01777430    0.00496030   -0.00642010
     atom   10 type  3   force =     0.00928817   -0.00599475    0.00278575
     atom   11 type  3   force =     0.00078027    0.01109280    0.00721252
     atom   12 type  3   force =    -0.00358956    0.00732917    0.01231003
     atom   13 type  3   force =    -0.00309169   -0.00745931   -0.00607525
     atom   14 type  3   force =     0.00340298   -0.00278406    0.01395476
     atom   15 type  3   force =    -0.00078003   -0.01109388   -0.00721222
     atom   16 type  3   force =    -0.00142421   -0.01552061    0.00188389
     atom   17 type  3   force =    -0.00928603    0.00599280   -0.00278205
     atom   18 type  3   force =     0.00308826    0.00746175    0.00607493
     atom   19 type  3   force =     0.00358955   -0.00732670   -0.01231102
     atom   20 type  3   force =     0.00142450    0.01552057   -0.00188234
     The Hubbard contrib.    to forces
     atom    1 type  1   force =     0.00000000    0.00000000    0.00000000
     atom    2 type  1   force =     0.00000000    0.00000000    0.00000000
     atom    3 type  2   force =     0.00000000    0.00000000    0.00000000
     atom    4 type  2   force =     0.00000000    0.00000000    0.00000000
     atom    5 type  2   force =     0.00000000    0.00000000    0.00000000
     atom    6 type  2   force =     0.00000000    0.00000000    0.00000000
     atom    7 type  3   force =     0.00000000    0.00000000    0.00000000
     atom    8 type  3   force =     0.00000000    0.00000000    0.00000000
     atom    9 type  3   force =     0.00000000    0.00000000    0.00000000
     atom   10 type  3   force =     0.00000000    0.00000000    0.00000000
     atom   11 type  3   force =     0.00000000    0.00000000    0.00000000
     atom   12 type  3   force =     0.00000000    0.00000000    0.00000000
     atom   13 type  3   force =     0.00000000    0.00000000    0.00000000
     atom   14 type  3   force =     0.00000000    0.00000000    0.00000000
     atom   15 type  3   force =     0.00000000    0.00000000    0.00000000
     atom   16 type  3   force =     0.00000000    0.00000000    0.00000000
     atom   17 type  3   force =     0.00000000    0.00000000    0.00000000
     atom   18 type  3   force =     0.00000000    0.00000000    0.00000000
     atom   19 type  3   force =     0.00000000    0.00000000    0.00000000
     atom   20 type  3   force =     0.00000000    0.00000000    0.00000000
     The SCF correction term to forces
     atom    1 type  1   force =    -0.00030607   -0.00013403    0.00007695
     atom    2 type  1   force =    -0.00051101    0.00051906    0.00039219
     atom    3 type  2   force =     0.00009132    0.00002089   -0.00010913
     atom    4 type  2   force =     0.00008486   -0.00012525    0.00006905
     atom    5 type  2   force =    -0.00022667   -0.00004032    0.00013413
     atom    6 type  2   force =    -0.00009705   -0.00023218    0.00013665
     atom    7 type  3   force =    -0.00049543   -0.00002132    0.00000203
     atom    8 type  3   force =     0.00009583   -0.00003754   -0.00008724
     atom    9 type  3   force =     0.00001384    0.00007457   -0.00003450
     atom   10 type  3   force =    -0.00019673    0.00026862   -0.00003069
     atom   11 type  3   force =    -0.00004579    0.00004348    0.00015335
     atom   12 type  3   force =     0.00023711    0.00001285   -0.00003961
     atom   13 type  3   force =     0.00000446   -0.00030923    0.00017341
     atom   14 type  3   force =    -0.00017942    0.00001632   -0.00010178
     atom   15 type  3   force =    -0.00002197   -0.00015517    0.00028489
     atom   16 type  3   force =     0.00007830   -0.00004452   -0.00019903
     atom   17 type  3   force =    -0.00012893    0.00034905   -0.00009592
     atom   18 type  3   force =    -0.00007253   -0.00026776    0.00026303
     atom   19 type  3   force =     0.00057327   -0.00010219   -0.00008582
     atom   20 type  3   force =    -0.00005071    0.00004548   -0.00002917

     Total force =     0.276890     Total SCF correction =     0.001562

     Computing stress (Cartesian axis) and pressure

          total   stress  (Ry/bohr**3)                   (kbar)     P=     -472.36
  -0.00317236   0.00011901  -0.00002287         -466.67       17.51       -3.36
   0.00011901  -0.00310635  -0.00000022           17.51     -456.96       -0.03
  -0.00002287  -0.00000022  -0.00335442           -3.36       -0.03     -493.45

     kinetic stress (kbar)  19380.66    -49.24     31.83
                              -49.24  19229.33    -93.16
                               31.83    -93.16  19411.57

     local   stress (kbar) -18133.75    398.81  -5599.13
                              398.81 -17653.74  -2099.77
                            -5599.13  -2099.77 -26138.89

     nonloc. stress (kbar)   5337.39     18.82      7.35
                               18.82   5355.70     -6.84
                                7.35     -6.84   5350.79

     hartree stress (kbar)  13122.49   -211.13   2556.43
                             -211.13  13110.22    743.88
                             2556.43    743.88  17214.00

     exc-cor stress (kbar)  -3610.94      0.16     -0.04
                                0.16  -3615.76      1.68
                               -0.04      1.68  -3615.23

     corecor stress (kbar)  -1209.40      0.37      0.23
                                0.37  -1207.49     -1.64
                                0.23     -1.64  -1205.49

     ewald   stress (kbar) -15353.11   -140.29   2999.97
                             -140.29 -15675.22   1455.81
                             2999.97   1455.81 -11510.20

     hubbard stress (kbar)      0.00      0.00      0.00
                                0.00      0.00      0.00
                                0.00      0.00      0.00

     DFT-D   stress (kbar)      0.00      0.00      0.00
                                0.00      0.00      0.00
                                0.00      0.00      0.00

     XDM     stress (kbar)      0.00      0.00      0.00
                                0.00      0.00      0.00
                                0.00      0.00      0.00

     dft-nl  stress (kbar)      0.00      0.00      0.00
                                0.00      0.00      0.00
                                0.00      0.00      0.00

     TS-vdW  stress (kbar)      0.00      0.00      0.00
                                0.00      0.00      0.00
                                0.00      0.00      0.00

[...]

                                0.00      0.00      0.00

     Writing all to output data dir new_calculations/myprefix.save/

     General routines

     Parallel routines

     PAW routines

   This run was terminated on:   7:35:16  21May2023

   JOB DONE.