     Program PWSCF v.7.0 starts on 20May2023 at 18: 7:28

     Reading input from espresso_23027.pwi
Warning: card &CELL ignored
Warning: card / ignored

     Current dimensions of program PWSCF are:
     Max number of different atomic species (ntypx) = 10
     Max number of k-points (npk) =  40000
     Max angular momentum in pseudopotentials (lmaxx) =  4
     file Mg.pbe-n-kjpaw_psl.0.3.0.UPF: wavefunction(s)  3S renormalized

     gamma-point specific algorithms are used
     Message from routine setup:
     using ibrav=0 with symmetry is DISCOURAGED, use correct ibrav instead

     Subspace diagonalization in iterative solution of the eigenvalue problem:
     a serial algorithm will be used

     Using Slab Decomposition

     bravais-lattice index     =            0
     lattice parameter (alat)  =      11.2314  a.u.
     unit-cell volume          =    1045.2987 (a.u.)^3
     number of atoms/cell      =            6
     number of atomic types    =            2
     number of electrons       =        60.00
     number of Kohn-Sham states=           36
     kinetic-energy cutoff     =      30.0000  Ry
     charge density cutoff     =     240.0000  Ry
     scf convergence threshold =      1.0E-06
     mixing beta               =       0.7000
     number of iterations used =            8  plain     mixing
     Exchange-correlation= SLA  PW   PBE  PBE
                           (   1   4   3   4   0   0   0)

     celldm(1)=  11.231381  celldm(2)=   0.000000  celldm(3)=   0.000000
     celldm(4)=   0.000000  celldm(5)=   0.000000  celldm(6)=   0.000000

     crystal axes: (cart. coord. in units of alat)
               a(1) = (   1.000000   0.000000   0.000000 )
               a(2) = (   0.805853   0.592115   0.000000 )
               a(3) = (   0.496013   0.162636   1.246048 )

     reciprocal axes: (cart. coord. in units 2 pi/alat)
               b(1) = (  1.000000 -1.360974 -0.220432 )
               b(2) = (  0.000000  1.688861 -0.220432 )
               b(3) = (  0.000000  0.000000  0.802537 )

     PseudoPot. # 1 for Mg read from file:
     /home/pragov/projects/rrg-bengioy-ad/pragov/crystal_structure_design/SSSP/Mg.pbe-n-kjpaw_psl.0.3.0.UPF
     MD5 check sum: 24ecedc7f3e3cbe212e682f4413594e4
     Pseudo is Projector augmented-wave + core cor, Zval =  2.0
     Generated using "atomic" code by A. Dal Corso  v.5.0.99 svn rev. 10869
     Shape of augmentation charge: PSQ
     Using radial grid of 1129 points,  4 beta functions with:
                l(1) =   0
                l(2) =   0
                l(3) =   1
                l(4) =   1
     Q(r) pseudized with 0 coefficients

     PseudoPot. # 2 for Sn read from file:
     /home/pragov/projects/rrg-bengioy-ad/pragov/crystal_structure_design/SSSP/Sn_pbe_v1.uspp.F.UPF
     MD5 check sum: 4cf58ce39ec5d5d420df3dd08604eb00
     Pseudo is Ultrasoft + core correction, Zval = 14.0
     Generated by new atomic code, or converted to UPF format
     Using radial grid of  891 points,  6 beta functions with:
                l(1) =   0
                l(2) =   0
                l(3) =   1
                l(4) =   1
                l(5) =   2
                l(6) =   2
     Q(r) pseudized with  6 coefficients,  rinner =    1.200   1.200   1.200
                                                       1.200   1.200

     atomic species   valence    mass     pseudopotential
        Mg             2.00    24.30500     Mg( 1.00)
        Sn            14.00   118.71000     Sn( 1.00)

      2 Sym. Ops., with inversion, found

                                    s                        frac. trans.

      isym =  1     identity

 cryst.   s( 1) = (     1          0          0      )
                  (     0          1          0      )
                  (     0          0          1      )

 cart.    s( 1) = (  1.0000000 -0.0000000  0.0000000 )
                  (  0.0000000  1.0000000  0.0000000 )
                  (  0.0000000  0.0000000  1.0000000 )

      isym =  2     inversion

 cryst.   s( 2) = (    -1          0          0      )
                  (     0         -1          0      )
                  (     0          0         -1      )

 cart.    s( 2) = ( -1.0000000  0.0000000 -0.0000000 )
                  (  0.0000000 -1.0000000 -0.0000000 )
                  (  0.0000000  0.0000000 -1.0000000 )

   Cartesian axes

     site n.     atom                  positions (alat units)
         1           Mg  tau(   1) = (   1.7819988   0.5842935   0.7961461  )
         2           Mg  tau(   2) = (   0.5198671   0.1704575   0.4499018  )
         3           Sn  tau(   3) = (   0.7398197   0.2425770   1.2044586  )
         4           Sn  tau(   4) = (   1.2951789   0.4246718   0.8553122  )
         5           Sn  tau(   5) = (   1.0066871   0.3300792   0.3907357  )
         6           Sn  tau(   6) = (   1.5620463   0.5121741   0.0415893  )

   Crystallographic axes

     site n.     atom                  positions (cryst. coord.)
         1           Mg  tau(   1) = (  0.8112940  0.8112940  0.6389370  )
         2           Mg  tau(   2) = (  0.1887060  0.1887060  0.3610630  )
         3           Sn  tau(   3) = (  0.1441770  0.1441770  0.9666230  )
         4           Sn  tau(   4) = (  0.5286730  0.5286730  0.6864200  )
         5           Sn  tau(   5) = (  0.4713270  0.4713270  0.3135800  )
         6           Sn  tau(   6) = (  0.8558230  0.8558230  0.0333770  )

     number of k points=     1  Methfessel-Paxton smearing, width (Ry)=  0.0010
                       cart. coord. in units 2pi/alat
        k(    1) = (   0.0000000   0.0000000   0.0000000), wk =   2.0000000

                       cryst. coord.
        k(    1) = (   0.0000000   0.0000000   0.0000000), wk =   2.0000000

     Initial potential from superposition of free atoms

     starting charge      55.9980, renormalised to      60.0000
     Starting wfcs are   44 randomized atomic wfcs
     Checking if some PAW data can be deallocated...

     Self-consistent Calculation

     iteration #  1     ecut=    30.00 Ry     beta= 0.70
     Davidson diagonalization with overlap

     ethr =  1.00E-02,  avg # of iterations =  3.0

     total energy              =    -718.17504849 Ry
     estimated scf accuracy    <       4.25374684 Ry

[...]

     total energy              =    -719.82873588 Ry
     estimated scf accuracy    <       0.00026739 Ry

     iteration # 19     ecut=    30.00 Ry     beta= 0.70
     Davidson diagonalization with overlap

     ethr =  3.47E-07,  avg # of iterations =  1.0

     End of self-consistent calculation

          k = 0.0000 0.0000 0.0000 (  1446 PWs)   bands (ev):

   -13.0216 -13.0149 -12.9643 -12.9315 -12.8997 -12.8538 -12.8040 -12.7724
   -12.6955 -12.6630 -12.4450 -12.4340 -12.4044 -12.3955 -12.2278 -12.2268
   -12.2115 -12.1802 -12.1473 -12.1440  -1.8116   1.0993   1.2646   2.7822
     4.5218   5.4887   5.6278   9.2432   9.2812  10.3862  10.3873  10.4622
    10.8135  11.0155  11.3403  12.0702

     occupation numbers
     1.0000   1.0000   1.0000   1.0000   1.0000   1.0000   1.0000   1.0000
     1.0000   1.0000   1.0000   1.0000   1.0000   1.0000   1.0000   1.0000
     1.0000   1.0000   1.0000   1.0000   1.0000   1.0000   1.0000   1.0000
     1.0000   1.0000   1.0000   1.0000   1.0000   0.5346   0.4654  -0.0000
    -0.0000  -0.0000  -0.0000  -0.0000

     the Fermi energy is    10.3867 ev

!    total energy              =    -719.82873918 Ry
     estimated scf accuracy    <       0.00000077 Ry
     smearing contrib. (-TS)   =      -0.00056136 Ry
     internal energy E=F+TS    =    -719.82817782 Ry

     The total energy is F=E-TS. E is the sum of the following terms:
     one-electron contribution =    -304.77528157 Ry
     hartree contribution      =     192.28350468 Ry
     xc contribution           =    -193.55940818 Ry
     ewald contribution        =    -351.20822922 Ry
     one-center paw contrib.   =     -62.56876354 Ry
      -> PAW hartree energy AE =       1.33673897 Ry
      -> PAW hartree energy PS =      -1.33338210 Ry
      -> PAW xc energy AE      =     -65.07498301 Ry
      -> PAW xc energy PS      =       2.50286260 Ry
      -> total E_H with PAW    =     192.28686155 Ry
      -> total E_XC with PAW   =    -256.13152859 Ry

     convergence has been achieved in  19 iterations

     Forces acting on atoms (cartesian axes, Ry/au):

     atom    1 type  1   force =    -0.00099566   -0.00032664   -0.01482042
     atom    2 type  1   force =     0.00099566    0.00032664    0.01482042
     atom    3 type  2   force =    -0.11795256   -0.03867634   -0.03752957
     atom    4 type  2   force =    -0.03430324   -0.01124701   -0.04263188
     atom    5 type  2   force =     0.03430324    0.01124701    0.04263188
     atom    6 type  2   force =     0.11795256    0.03867634    0.03752957
     The non-local contrib.  to forces
     atom    1 type  1   force =    -0.00619698   -0.00203138   -0.00431845
     atom    2 type  1   force =     0.00619698    0.00203138    0.00431845
     atom    3 type  2   force =     0.37822832    0.12401448   -0.30014184
     atom    4 type  2   force =     0.16692594    0.05473286   -0.15184660
     atom    5 type  2   force =    -0.16692594   -0.05473286    0.15184660
     atom    6 type  2   force =    -0.37822832   -0.12401448    0.30014184
     The ionic contribution  to forces
     atom    1 type  1   force =    -0.45917602   -0.15055767   -1.10641833
     atom    2 type  1   force =     0.45917602    0.15055767    1.10641833
     atom    3 type  2   force =     2.87830883    0.94375893   -5.38503369
     atom    4 type  2   force =     1.90561643    0.62482611  -10.63805699
     atom    5 type  2   force =    -1.90561643   -0.62482611   10.63805699
     atom    6 type  2   force =    -2.87830883   -0.94375893    5.38503369
     The local contribution  to forces
     atom    1 type  1   force =     0.46374804    0.15205723    1.09531726
     atom    2 type  1   force =    -0.46374355   -0.15205349   -1.09535257
     atom    3 type  2   force =    -3.36282080   -1.10258782    5.63492768
     atom    4 type  2   force =    -2.10015821   -0.68858818   10.74372900
     atom    5 type  2   force =     2.10017409    0.68864552  -10.74385363
     atom    6 type  2   force =     3.36282850    1.10265760   -5.63467304
     The core correction contribution to forces
     atom    1 type  1   force =     0.00051246    0.00016797    0.00061217
     atom    2 type  1   force =    -0.00051271   -0.00016806   -0.00061312
     atom    3 type  2   force =    -0.01019465   -0.00334103    0.01232432
     atom    4 type  2   force =    -0.00599018   -0.00196306    0.00314445
     atom    5 type  2   force =     0.00599206    0.00196594   -0.00314680
     atom    6 type  2   force =     0.01019241    0.00334358   -0.01232404
     The Hubbard contrib.    to forces
     atom    1 type  1   force =     0.00000000    0.00000000    0.00000000
     atom    2 type  1   force =     0.00000000    0.00000000    0.00000000
     atom    3 type  2   force =     0.00000000    0.00000000    0.00000000
     atom    4 type  2   force =     0.00000000    0.00000000    0.00000000
     atom    5 type  2   force =     0.00000000    0.00000000    0.00000000
     atom    6 type  2   force =     0.00000000    0.00000000    0.00000000
     The SCF correction term to forces
     atom    1 type  1   force =     0.00011731    0.00003824   -0.00001808
     atom    2 type  1   force =    -0.00012059   -0.00003982    0.00004431
     atom    3 type  2   force =    -0.00146665   -0.00050306    0.00036500
     atom    4 type  2   force =    -0.00072317   -0.00024796    0.00042186
     atom    5 type  2   force =     0.00065353    0.00020131   -0.00024769
     atom    6 type  2   force =     0.00147639    0.00046640   -0.00067783

     Total force =     0.200791     Total SCF correction =     0.002592

     Computing stress (Cartesian axis) and pressure

          total   stress  (Ry/bohr**3)                   (kbar)     P=       62.48
   0.00130405   0.00129802   0.00110734          191.83      190.94      162.90
   0.00129802  -0.00222909   0.00036308          190.94     -327.91       53.41
   0.00110734   0.00036308   0.00219932          162.90       53.41      323.53

     kinetic stress (kbar)   8295.12    239.48    189.46
                              239.48   7643.28     62.12
                              189.46     62.12   8347.52

     local   stress (kbar)  -3026.83    664.53  -2591.43
                              664.53  -4835.65   -849.69
                            -2591.43   -849.69   5760.57

     nonloc. stress (kbar)   5068.02     83.03     43.28
                               83.03   4842.02     14.19
                               43.28     14.19   5027.54

     hartree stress (kbar)  10042.45   -369.31   1227.83
                             -369.31  11047.68    402.59
                             1227.83    402.59   5969.96

     exc-cor stress (kbar)  11556.81      3.34      0.66
                                3.34  11547.72      0.22
                                0.66      0.22  11554.07

     corecor stress (kbar) -16413.17     -4.12     -1.24
                               -4.12 -16401.94     -0.41
                               -1.24     -0.41 -16412.10

     ewald   stress (kbar) -15330.56   -425.99   1294.34
                             -425.99 -14171.02    424.40
                             1294.34    424.40 -19924.02

     hubbard stress (kbar)      0.00      0.00      0.00
                                0.00      0.00      0.00
                                0.00      0.00      0.00

     DFT-D   stress (kbar)      0.00      0.00      0.00
                                0.00      0.00      0.00
                                0.00      0.00      0.00

     XDM     stress (kbar)      0.00      0.00      0.00
                                0.00      0.00      0.00
                                0.00      0.00      0.00

     dft-nl  stress (kbar)      0.00      0.00      0.00
                                0.00      0.00      0.00
                                0.00      0.00      0.00

     TS-vdW  stress (kbar)      0.00      0.00      0.00
                                0.00      0.00      0.00
                                0.00      0.00      0.00

[...]

                                0.00      0.00      0.00

     Writing all to output data dir new_calculations/myprefix.save/

     General routines

     Parallel routines

     PAW routines

   This run was terminated on:  18: 7:56  20May2023

   JOB DONE.