     Program PWSCF v.7.0 starts on 20May2023 at 17: 3:24

     Reading input from espresso_3626.pwi
Warning: card &CELL ignored
Warning: card / ignored

     Current dimensions of program PWSCF are:
     Max number of different atomic species (ntypx) = 10
     Max number of k-points (npk) =  40000
     Max angular momentum in pseudopotentials (lmaxx) =  4
     file K.pbe-spn-kjpaw_psl.1.0.0.UPF: wavefunction(s)  3S renormalized
     file Nb.pbe-spn-kjpaw_psl.0.3.0.UPF: wavefunction(s)  4S 4P renormalized
     file O.pbe-n-kjpaw_psl.0.1.UPF: wavefunction(s)  2P renormalized

     gamma-point specific algorithms are used
     Message from routine setup:
     using ibrav=0 with symmetry is DISCOURAGED, use correct ibrav instead

     Subspace diagonalization in iterative solution of the eigenvalue problem:
     a serial algorithm will be used

     Using Slab Decomposition

     bravais-lattice index     =            0
     lattice parameter (alat)  =       7.5636  a.u.
     unit-cell volume          =     900.3478 (a.u.)^3
     number of atoms/cell      =           10
     number of atomic types    =            4
     number of electrons       =        80.00
     number of Kohn-Sham states=           48
     kinetic-energy cutoff     =      30.0000  Ry
     charge density cutoff     =     240.0000  Ry
     scf convergence threshold =      1.0E-06
     mixing beta               =       0.7000
     number of iterations used =            8  plain     mixing
     Exchange-correlation= SLA  PW   PBX  PBC
                           (   1   4   3   4   0   0   0)

     celldm(1)=   7.563638  celldm(2)=   0.000000  celldm(3)=   0.000000
     celldm(4)=   0.000000  celldm(5)=   0.000000  celldm(6)=   0.000000

     crystal axes: (cart. coord. in units of alat)
               a(1) = (   1.000000   0.000000   0.000000 )
               a(2) = (   0.000000   1.020302   0.000000 )
               a(3) = (   0.000000   0.013704   2.039339 )

     reciprocal axes: (cart. coord. in units 2 pi/alat)
               b(1) = (  1.000000  0.000000  0.000000 )
               b(2) = (  0.000000  0.980102 -0.006586 )
               b(3) = (  0.000000  0.000000  0.490355 )

     PseudoPot. # 1 for K  read from file:
     /home/pragov/projects/rrg-bengioy-ad/pragov/crystal_structure_design/SSSP/K.pbe-spn-kjpaw_psl.1.0.0.UPF
     MD5 check sum: 7d58810084cac21f60fbe77ea2b688fd
     Pseudo is Projector augmented-wave + core cor, Zval =  9.0
     Generated using "atomic" code by A. Dal Corso  v.5.1
     Shape of augmentation charge: PSQ
     Using radial grid of 1165 points,  6 beta functions with:
                l(1) =   0
                l(2) =   0
                l(3) =   1
                l(4) =   1
                l(5) =   2
                l(6) =   2
     Q(r) pseudized with 0 coefficients

     PseudoPot. # 2 for Na read from file:
     /home/pragov/projects/rrg-bengioy-ad/pragov/crystal_structure_design/SSSP/na_pbe_v1.5.uspp.F.UPF
     MD5 check sum: 44600605ef58000f06b90626533354dc
     Pseudo is Ultrasoft, Zval =  9.0
     Generated by new atomic code, or converted to UPF format
     Using radial grid of  819 points,  5 beta functions with:
                l(1) =   0
                l(2) =   0
                l(3) =   1
                l(4) =   1
                l(5) =   2
     Q(r) pseudized with  8 coefficients,  rinner =    1.250   1.250   1.250
                                                       1.250   1.250

     PseudoPot. # 3 for Nb read from file:
     /home/pragov/projects/rrg-bengioy-ad/pragov/crystal_structure_design/SSSP/Nb.pbe-spn-kjpaw_psl.0.3.0.UPF
     MD5 check sum: 411d72ad547312f8017e2943ceca08cc
     Pseudo is Projector augmented-wave + core cor, Zval = 13.0
     Generated using "atomic" code by A. Dal Corso  v.5.0.99 svn rev. 10869
     Shape of augmentation charge: PSQ
     Using radial grid of 1227 points,  6 beta functions with:
                l(1) =   0
                l(2) =   0
                l(3) =   1
                l(4) =   1
                l(5) =   2
                l(6) =   2
     Q(r) pseudized with 0 coefficients

     PseudoPot. # 4 for O  read from file:
     /home/pragov/projects/rrg-bengioy-ad/pragov/crystal_structure_design/SSSP/O.pbe-n-kjpaw_psl.0.1.UPF
     MD5 check sum: 0234752ac141de4415c5fc33072bef88
     Pseudo is Projector augmented-wave + core cor, Zval =  6.0
     Generated using "atomic" code by A. Dal Corso  v.5.0.99 svn rev. 10869
     Shape of augmentation charge: BESSEL
     Using radial grid of 1095 points,  4 beta functions with:
                l(1) =   0
                l(2) =   0
                l(3) =   1
                l(4) =   1
     Q(r) pseudized with 0 coefficients

     atomic species   valence    mass     pseudopotential
        K              9.00    39.09830     K ( 1.00)
        Na             9.00    22.98977     Na( 1.00)
        Nb            13.00    92.90637     Nb( 1.00)
        O              6.00    15.99900     O ( 1.00)

      2 Sym. Ops. (no inversion) found

                                    s                        frac. trans.

      isym =  1     identity

 cryst.   s( 1) = (     1          0          0      )
                  (     0          1          0      )
                  (     0          0          1      )

 cart.    s( 1) = (  1.0000000  0.0000000  0.0000000 )
                  (  0.0000000  1.0000000 -0.0000000 )
                  (  0.0000000  0.0000000  1.0000000 )

      isym =  2     inv. 180 deg rotation - cart. axis [1,0,0]

 cryst.   s( 2) = (    -1          0          0      )
                  (     0          1          0      )
                  (     0          0          1      )

 cart.    s( 2) = ( -1.0000000  0.0000000  0.0000000 )
                  (  0.0000000  1.0000000 -0.0000000 )
                  (  0.0000000  0.0000000  1.0000000 )

   Cartesian axes

     site n.     atom                  positions (alat units)
         1           K   tau(   1) = (   0.5000000   0.4994928   0.4969890  )
         2           Na  tau(   2) = (   0.5000000   0.5264661   1.5336791  )
         3           Nb  tau(   3) = (   0.0000000   1.0332795   2.0318611  )
         4           Nb  tau(   4) = (   0.0000000   1.0254718   1.0243540  )
         5           O   tau(   5) = (   0.5000000   0.9865678   0.9886860  )
         6           O   tau(   6) = (   0.5000000   0.9923604   1.9887515  )
         7           O   tau(   7) = (   0.0000000   0.9912576   0.4685607  )
         8           O   tau(   8) = (   0.0000000   0.9879324   1.4949826  )
         9           O   tau(   9) = (   0.0000000   0.4786168   0.9947673  )
        10           O   tau(  10) = (   0.0000000   0.4859883   1.9907990  )

   Crystallographic axes

     site n.     atom                  positions (cryst. coord.)
         1           K   tau(   1) = (  0.5000000  0.4862810  0.2437010  )
         2           Na  tau(   2) = (  0.5000000  0.5058900  0.7520470  )
         3           Nb  tau(   3) = (  0.0000000  0.9993380  0.9963330  )
         4           Nb  tau(   4) = (  0.0000000  0.9983210  0.5022970  )
         5           O   tau(   5) = (  0.5000000  0.9604260  0.4848070  )
         6           O   tau(   6) = (  0.5000000  0.9595170  0.9751940  )
         7           O   tau(   7) = (  0.0000000  0.9684480  0.2297610  )
         8           O   tau(   8) = (  0.0000000  0.9584290  0.7330720  )
         9           O   tau(   9) = (  0.0000000  0.4625420  0.4877890  )
        10           O   tau(  10) = (  0.0000000  0.4632070  0.9761980  )

     number of k points=     1  Methfessel-Paxton smearing, width (Ry)=  0.0010
                       cart. coord. in units 2pi/alat
        k(    1) = (   0.0000000   0.0000000   0.0000000), wk =   2.0000000

                       cryst. coord.
        k(    1) = (   0.0000000   0.0000000   0.0000000), wk =   2.0000000

     Check: negative core charge=   -0.000019

     Initial potential from superposition of free atoms

     starting charge      79.9706, renormalised to      80.0000
     Starting wfcs are   57 randomized atomic wfcs
     Checking if some PAW data can be deallocated...

     Self-consistent Calculation

     iteration #  1     ecut=    30.00 Ry     beta= 0.70
     Davidson diagonalization with overlap

     ethr =  1.00E-02,  avg # of iterations =  2.0

     total energy              =   -1123.07573868 Ry
     estimated scf accuracy    <       5.98894942 Ry

[...]

     total energy              =   -1126.18551852 Ry
     estimated scf accuracy    <       0.00000338 Ry

     iteration # 14     ecut=    30.00 Ry     beta= 0.70
     Davidson diagonalization with overlap

     ethr =  4.22E-09,  avg # of iterations =  2.0

     End of self-consistent calculation

          k = 0.0000 0.0000 0.0000 (  1242 PWs)   bands (ev):

   -48.5245 -48.4939 -42.6647 -24.6721 -24.5716 -24.5501 -24.5365 -24.4762
   -24.4569 -20.1070 -14.5686 -14.5674 -14.5619 -10.2937  -9.3718  -9.2357
    -9.1505  -8.9072  -8.8229  -3.6466  -3.6461  -3.5807   1.7822   4.0285
     4.0520   4.6493   4.9726   4.9891   5.5649   5.6780   5.7626   5.8170
     5.8326   6.3364   6.3651   6.4155   6.4767   6.8064   6.9545   7.0675
     8.7270   9.1372   9.2852   9.2895  10.7885  10.8950  12.0650  12.2137

     occupation numbers
     1.0000   1.0000   1.0000   1.0000   1.0000   1.0000   1.0000   1.0000
     1.0000   1.0000   1.0000   1.0000   1.0000   1.0000   1.0000   1.0000
     1.0000   1.0000   1.0000   1.0000   1.0000   1.0000   1.0000   1.0000
     1.0000   1.0000   1.0000   1.0000   1.0000   1.0000   1.0000   1.0000
     1.0000   1.0000   1.0000   1.0000   1.0000   1.0000   1.0000   1.0000
    -0.0000  -0.0000  -0.0000  -0.0000  -0.0000  -0.0000  -0.0000  -0.0000

     the Fermi energy is     8.5366 ev

!    total energy              =   -1126.18551885 Ry
     estimated scf accuracy    <       0.00000040 Ry
     smearing contrib. (-TS)   =       0.00000000 Ry
     internal energy E=F+TS    =   -1126.18551885 Ry

     The total energy is F=E-TS. E is the sum of the following terms:
     one-electron contribution =    -208.27121006 Ry
     hartree contribution      =     146.23191756 Ry
     xc contribution           =    -128.17310771 Ry
     ewald contribution        =    -406.51994210 Ry
     one-center paw contrib.   =    -529.45317654 Ry
      -> PAW hartree energy AE =     348.03939930 Ry
      -> PAW hartree energy PS =    -346.39702117 Ry
      -> PAW xc energy AE      =    -640.79376678 Ry
      -> PAW xc energy PS      =     109.69821210 Ry
      -> total E_H with PAW    =     147.87429570 Ry
      -> total E_XC with PAW   =    -659.26866238 Ry

     convergence has been achieved in  14 iterations

     Forces acting on atoms (cartesian axes, Ry/au):

     atom    1 type  1   force =     0.00000000    0.00643547    0.02311820
     atom    2 type  2   force =     0.00000000    0.00546506    0.01084806
     atom    3 type  3   force =     0.00000000    0.62171627    0.46553883
     atom    4 type  3   force =     0.00000000    0.64420800    0.43421196
     atom    5 type  4   force =     0.00000000   -0.29156936   -0.18625867
     atom    6 type  4   force =     0.00000000   -0.28453401   -0.17933091
     atom    7 type  4   force =     0.00000000   -0.05132570   -0.13449295
     atom    8 type  4   force =     0.00000000   -0.04932012   -0.14125718
     atom    9 type  4   force =     0.00000000   -0.30878410   -0.13709053
     atom   10 type  4   force =     0.00000000   -0.29229151   -0.15528681
     The non-local contrib.  to forces
     atom    1 type  1   force =     0.00000000   -0.02226062   -0.02587862
     atom    2 type  2   force =     0.00000000   -0.15190110   -0.16035002
     atom    3 type  3   force =     0.00000000   -0.15389980   -0.33067307
     atom    4 type  3   force =     0.00000000   -0.13931906   -0.29847638
     atom    5 type  4   force =     0.00000000    0.53594805    0.52509396
     atom    6 type  4   force =     0.00000000    0.54370330    0.51216249
     atom    7 type  4   force =     0.00000000    0.07921147   -0.46228303
     atom    8 type  4   force =     0.00000000    0.09527467   -0.49674066
     atom    9 type  4   force =     0.00000000   -0.59436118    0.40683475
     atom   10 type  4   force =     0.00000000   -0.59125669    0.43080099
     The ionic contribution  to forces
     atom    1 type  1   force =    -0.00000000   -0.30170062   -0.00474997
     atom    2 type  2   force =     0.00000000   -1.25649619   -1.44277325
     atom    3 type  3   force =     0.00000000   -1.07884559    0.89710024
     atom    4 type  3   force =     0.00000000   -1.07580916   -3.11523598
     atom    5 type  4   force =    -0.00000000   -0.63973195   -1.30505993
     atom    6 type  4   force =    -0.00000000   -0.52369900    0.11005765
     atom    7 type  4   force =     0.00000000   -0.54841634    3.49038549
     atom    8 type  4   force =     0.00000000   -0.41696251    2.36574769
     atom    9 type  4   force =     0.00000000    2.95330504   -1.13358016
     atom   10 type  4   force =     0.00000000    2.88835633    0.13810822
     The local contribution  to forces
     atom    1 type  1   force =    -0.00001218    0.32939020    0.05249012
     atom    2 type  2   force =    -0.00000176    1.41377479    1.61401809
     atom    3 type  3   force =     0.00000078    1.84718928   -0.12331599
     atom    4 type  3   force =    -0.00001460    1.85345754    3.82546017
     atom    5 type  4   force =     0.00001051   -0.18066702    0.59978073
     atom    6 type  4   force =     0.00000712   -0.29723160   -0.79434842
     atom    7 type  4   force =     0.00000038    0.41874460   -3.16605308
     atom    8 type  4   force =     0.00000064    0.27331487   -2.01458713
     atom    9 type  4   force =     0.00000515   -2.67322137    0.59410248
     atom   10 type  4   force =    -0.00000205   -2.59482280   -0.71801111
     The core correction contribution to forces
     atom    1 type  1   force =    -0.00000028    0.00096672    0.00135279
     atom    2 type  2   force =     0.00000000    0.00000000    0.00000000
     atom    3 type  3   force =     0.00000024    0.00717384    0.02450223
     atom    4 type  3   force =    -0.00000103    0.00587743    0.02054698
     atom    5 type  4   force =     0.00000012   -0.00697827   -0.00674581
     atom    6 type  4   force =     0.00000003   -0.00707450   -0.00637375
     atom    7 type  4   force =    -0.00000002   -0.00087374    0.00352721
     atom    8 type  4   force =     0.00000003   -0.00096036    0.00410931
     atom    9 type  4   force =     0.00000005    0.00525278   -0.00521284
     atom   10 type  4   force =     0.00000004    0.00523217   -0.00529172
     The Hubbard contrib.    to forces
     atom    1 type  1   force =     0.00000000    0.00000000    0.00000000
     atom    2 type  2   force =     0.00000000    0.00000000    0.00000000
     atom    3 type  3   force =     0.00000000    0.00000000    0.00000000
     atom    4 type  3   force =     0.00000000    0.00000000    0.00000000
     atom    5 type  4   force =     0.00000000    0.00000000    0.00000000
     atom    6 type  4   force =     0.00000000    0.00000000    0.00000000
     atom    7 type  4   force =     0.00000000    0.00000000    0.00000000
     atom    8 type  4   force =     0.00000000    0.00000000    0.00000000
     atom    9 type  4   force =     0.00000000    0.00000000    0.00000000
     atom   10 type  4   force =     0.00000000    0.00000000    0.00000000
     The SCF correction term to forces
     atom    1 type  1   force =     0.00000675    0.00000014   -0.00009031
     atom    2 type  2   force =    -0.00000446    0.00004791   -0.00004095
     atom    3 type  3   force =     0.00000272    0.00005891   -0.00206878
     atom    4 type  3   force =     0.00000776   -0.00003838    0.00192297
     atom    5 type  4   force =    -0.00000739   -0.00017981    0.00067818
     atom    6 type  4   force =    -0.00000543   -0.00027185   -0.00082308
     atom    7 type  4   force =    -0.00000035   -0.00003133   -0.00006374
     atom    8 type  4   force =     0.00000003   -0.00002642    0.00021940
     atom    9 type  4   force =    -0.00000081    0.00020100    0.00077105
     atom   10 type  4   force =     0.00000967    0.00015985   -0.00088739

     Total force =     1.306579     Total SCF correction =     0.003277

     Computing stress (Cartesian axis) and pressure

          total   stress  (Ry/bohr**3)                   (kbar)     P=     -216.75
  -0.00062653   0.00000000   0.00000000          -92.17        0.00        0.00
   0.00000000  -0.00025910   0.00031842            0.00      -38.11       46.84
   0.00000000   0.00031842  -0.00353469            0.00       46.84     -519.97

     kinetic stress (kbar)  24934.81      0.00      0.00
                                0.00  25436.57    -31.57
                                0.00    -31.57  24867.81

     local   stress (kbar)  -5545.58      0.00     -0.00
                                0.00  -5288.73    626.13
                               -0.00    626.13  -4864.90

     nonloc. stress (kbar)   -283.69      0.00      0.00
                                0.00   -333.22     21.03
                                0.00     21.03   -446.10

     hartree stress (kbar)   8167.24     -0.00      0.00
                               -0.00   7953.69   -190.91
                                0.00   -190.91   7771.45

     exc-cor stress (kbar)    292.80      0.00      0.00
                                0.00    294.69     -1.96
                                0.00     -1.96    301.47

     corecor stress (kbar)  -5830.94      0.00      0.00
                                0.00  -5832.63     -0.37
                                0.00     -0.37  -5824.93

     ewald   stress (kbar) -21826.80     -0.00     -0.00
                               -0.00 -22268.48   -375.53
                               -0.00   -375.53 -22324.77

     hubbard stress (kbar)      0.00      0.00      0.00
                                0.00      0.00      0.00
                                0.00      0.00      0.00

     DFT-D   stress (kbar)      0.00      0.00      0.00
                                0.00      0.00      0.00
                                0.00      0.00      0.00

     XDM     stress (kbar)      0.00      0.00      0.00
                                0.00      0.00      0.00
                                0.00      0.00      0.00

     dft-nl  stress (kbar)      0.00      0.00      0.00
                                0.00      0.00      0.00
                                0.00      0.00      0.00

     TS-vdW  stress (kbar)      0.00      0.00      0.00
                                0.00      0.00      0.00
                                0.00      0.00      0.00

[...]

                                0.00      0.00      0.00

     Writing all to output data dir new_calculations/myprefix.save/

     General routines

     Parallel routines

     PAW routines

   This run was terminated on:  17: 3:47  20May2023

   JOB DONE.