     Program PWSCF v.7.0 starts on 21May2023 at  0:19:39

     Reading input from espresso_22338.pwi
Warning: card &CELL ignored
Warning: card / ignored

     Current dimensions of program PWSCF are:
     Max number of different atomic species (ntypx) = 10
     Max number of k-points (npk) =  40000
     Max angular momentum in pseudopotentials (lmaxx) =  4
     file O.pbe-n-kjpaw_psl.0.1.UPF: wavefunction(s)  2P renormalized

     gamma-point specific algorithms are used
     Message from routine setup:
     using ibrav=0 with symmetry is DISCOURAGED, use correct ibrav instead

     Subspace diagonalization in iterative solution of the eigenvalue problem:
     a serial algorithm will be used

     Using Slab Decomposition

     bravais-lattice index     =            0
     lattice parameter (alat)  =      21.3310  a.u.
     unit-cell volume          =    1129.1121 (a.u.)^3
     number of atoms/cell      =           11
     number of atomic types    =            4
     number of electrons       =        98.00
     number of Kohn-Sham states=           59
     kinetic-energy cutoff     =      30.0000  Ry
     charge density cutoff     =     240.0000  Ry
     scf convergence threshold =      1.0E-06
     mixing beta               =       0.7000
     number of iterations used =            8  plain     mixing
     Exchange-correlation= SLA  PW   PBX  PBC
                           (   1   4   3   4   0   0   0)

     celldm(1)=  21.330999  celldm(2)=   0.000000  celldm(3)=   0.000000
     celldm(4)=   0.000000  celldm(5)=   0.000000  celldm(6)=   0.000000

     crystal axes: (cart. coord. in units of alat)
               a(1) = (   1.000000   0.000000   0.000000 )
               a(2) = (   0.880012   0.474952   0.000000 )
               a(3) = (  -0.940006  -0.237476   0.244937 )

     reciprocal axes: (cart. coord. in units 2 pi/alat)
               b(1) = (  1.000000 -1.852845  2.041343 )
               b(2) = (  0.000000  2.105478  2.041343 )
               b(3) = (  0.000000  0.000000  4.082685 )

     PseudoPot. # 1 for La read from file:
     /home/pragov/projects/rrg-bengioy-ad/pragov/crystal_structure_design/SSSP/La.GGA-PBE-paw-v1.0.UPF
     MD5 check sum: 436541e95c1ad8901025bd0b0ed42ae2
     Pseudo is Projector augmented-wave + core cor, Zval = 11.0
     Generated using ATOMPAW code
     Shape of augmentation charge: BESSEL
     Using radial grid of 1101 points,  8 beta functions with:
                l(1) =   0
                l(2) =   0
                l(3) =   1
                l(4) =   1
                l(5) =   2
                l(6) =   2
                l(7) =   3
                l(8) =   3
     Q(r) pseudized with 0 coefficients

     PseudoPot. # 2 for Ta read from file:
     /home/pragov/projects/rrg-bengioy-ad/pragov/crystal_structure_design/SSSP/Ta_pbe_v1.uspp.F.UPF
     MD5 check sum: f8bbe9446314a3b8ea5d9f3e3836c939
     Pseudo is Ultrasoft + core correction, Zval = 13.0
     Generated by new atomic code, or converted to UPF format
     Using radial grid of  921 points,  7 beta functions with:
                l(1) =   0
                l(2) =   0
                l(3) =   1
                l(4) =   1
                l(5) =   2
                l(6) =   2
                l(7) =   3
     Q(r) pseudized with  6 coefficients,  rinner =    1.300   1.300   1.300
                                                       1.300   1.300   1.300
                                                       1.300

     PseudoPot. # 3 for Ag read from file:
     /home/pragov/projects/rrg-bengioy-ad/pragov/crystal_structure_design/SSSP/Ag_ONCV_PBE-1.0.oncvpsp.upf
     MD5 check sum: 94f47bd0669c641108e45594df92fabc
     Pseudo is Norm-conserving, Zval = 19.0
     Generated using ONCVPSP code by D. R. Hamann
     Using radial grid of 1398 points,  6 beta functions with:
                l(1) =   0
                l(2) =   0
                l(3) =   1
                l(4) =   1
                l(5) =   2
                l(6) =   2

     PseudoPot. # 4 for O  read from file:
     /home/pragov/projects/rrg-bengioy-ad/pragov/crystal_structure_design/SSSP/O.pbe-n-kjpaw_psl.0.1.UPF
     MD5 check sum: 0234752ac141de4415c5fc33072bef88
     Pseudo is Projector augmented-wave + core cor, Zval =  6.0
     Generated using "atomic" code by A. Dal Corso  v.5.0.99 svn rev. 10869
     Shape of augmentation charge: BESSEL
     Using radial grid of 1095 points,  4 beta functions with:
                l(1) =   0
                l(2) =   0
                l(3) =   1
                l(4) =   1
     Q(r) pseudized with 0 coefficients

     atomic species   valence    mass     pseudopotential
        La            11.00   138.90547     La( 1.00)
        Ta            13.00   180.94788     Ta( 1.00)
        Ag            19.00   107.86820     Ag( 1.00)
        O              6.00    15.99900     O ( 1.00)

      2 Sym. Ops. (no inversion) found

                                    s                        frac. trans.

      isym =  1     identity

 cryst.   s( 1) = (     1          0          0      )
                  (     0          1          0      )
                  (     0          0          1      )

 cart.    s( 1) = (  1.0000000 -0.0000000 -0.0000000 )
                  (  0.0000000  1.0000000 -0.0000000 )
                  (  0.0000000  0.0000000  1.0000000 )

      isym =  2     180 deg rotation - cart. axis [0,0,1]

 cryst.   s( 2) = (    -1          0          0      )
                  (     0         -1          0      )
                  (     1          1          1      )

 cart.    s( 2) = ( -1.0000000  0.0000000 -0.0000000 )
                  (  0.0000000 -1.0000000 -0.0000000 )
                  (  0.0000000  0.0000000  1.0000000 )

   Cartesian axes

     site n.     atom                  positions (alat units)
         1           La  tau(   1) = (   0.0000000   0.0000000   0.0000000  )
         2           Ta  tau(   2) = (   1.1359257   0.2869715   0.0000000  )
         3           Ta  tau(   3) = (   0.7440861   0.1879802   0.0000000  )
         4           Ag  tau(   4) = (   0.4400059   0.2374758   0.1224684  )
         5           O   tau(   5) = (   0.7504034   0.3158922   0.1224684  )
         6           O   tau(   6) = (   0.8117831   0.0787665   0.1224684  )
         7           O   tau(   7) = (   0.1882169  -0.0787665   0.1224684  )
         8           O   tau(   8) = (   0.1296085   0.1590594   0.1224684  )
         9           O   tau(   9) = (   1.2917487   0.3263374   0.0000000  )
        10           O   tau(  10) = (   0.5882632   0.1486143   0.0000000  )
        11           O   tau(  11) = (   0.9400059   0.2374758   0.0000000  )

   Crystallographic axes

     site n.     atom                  positions (cryst. coord.)
         1           La  tau(   1) = (  0.0000000  0.0000000  0.0000000  )
         2           Ta  tau(   2) = (  0.6042120  0.6042120  0.0000000  )
         3           Ta  tau(   3) = (  0.3957880  0.3957880  0.0000000  )
         4           Ag  tau(   4) = (  0.2500000  0.7500000  0.5000000  )
         5           O   tau(   5) = (  0.4151040  0.9151040  0.5000000  )
         6           O   tau(   6) = (  0.9158410  0.4158410  0.5000000  )
         7           O   tau(   7) = (  0.5841590  0.0841590  0.5000000  )
         8           O   tau(   8) = (  0.0848960  0.5848960  0.5000000  )
         9           O   tau(   9) = (  0.6870960  0.6870960  0.0000000  )
        10           O   tau(  10) = (  0.3129040  0.3129040  0.0000000  )
        11           O   tau(  11) = (  0.5000000  0.5000000  0.0000000  )

     number of k points=     1  Methfessel-Paxton smearing, width (Ry)=  0.0010
                       cart. coord. in units 2pi/alat
        k(    1) = (   0.0000000   0.0000000   0.0000000), wk =   2.0000000

                       cryst. coord.
        k(    1) = (   0.0000000   0.0000000   0.0000000), wk =   2.0000000

     Check: negative core charge=   -0.000008

     Initial potential from superposition of free atoms

     starting charge      97.9889, renormalised to      98.0000

     negative rho (up, down):  1.903E-01 0.000E+00
     Starting wfcs are   96 randomized atomic wfcs
     Checking if some PAW data can be deallocated...

     Self-consistent Calculation

     iteration #  1     ecut=    30.00 Ry     beta= 0.70
     Davidson diagonalization with overlap

     ethr =  1.00E-02,  avg # of iterations =  2.0

     negative rho (up, down):  1.929E-01 0.000E+00

     total energy              =   -1318.22141251 Ry
     estimated scf accuracy    <       4.17672779 Ry

[...]

     total energy              =   -1320.24854914 Ry
     estimated scf accuracy    <       0.00000155 Ry

     iteration # 15     ecut=    30.00 Ry     beta= 0.70
     Davidson diagonalization with overlap

     ethr =  1.58E-09,  avg # of iterations =  4.0

[...]

     End of self-consistent calculation

          k = 0.0000 0.0000 0.0000 (  1581 PWs)   bands (ev):

   -82.4314 -60.3141 -60.2396 -45.4760 -45.4505 -45.4111 -26.9361 -26.9110
   -26.8745 -26.8290 -26.4928 -26.4240 -21.6133  -9.8744  -9.5678  -9.0385
    -8.9625  -8.3283  -8.2393  -6.3632  -5.1380  -5.1266  -4.9722   4.0333
     4.4655   4.4946   4.5032   4.6089   4.6201   5.2940   5.3367   5.3974
     5.4533   5.6685   6.2255   6.2300   6.2454   6.6887   6.7802   6.9854
     7.0343   7.1681   7.1732   7.3400   7.9976   8.2234   8.5712   8.8531
     8.9198   9.7295   9.8008  10.8965  12.7214  12.7759  13.1878  13.3166
    13.4046  13.5527  13.5824

     occupation numbers
     1.0000   1.0000   1.0000   1.0000   1.0000   1.0000   1.0000   1.0000
     1.0000   1.0000   1.0000   1.0000   1.0000   1.0000   1.0000   1.0000
     1.0000   1.0000   1.0000   1.0000   1.0000   1.0000   1.0000   1.0000
     1.0000   1.0000   1.0000   1.0000   1.0000   1.0000   1.0000   1.0000
     1.0000   1.0000   1.0000   1.0000   1.0000   1.0000   1.0000   1.0000
     1.0000   1.0000   1.0000   1.0000   1.0000   1.0000   1.0000   1.0000
     1.0000  -0.0000  -0.0000  -0.0000  -0.0000  -0.0000  -0.0000  -0.0000
    -0.0000  -0.0000  -0.0000

     the Fermi energy is     9.2051 ev

!    total energy              =   -1320.24854952 Ry
     estimated scf accuracy    <       0.00000009 Ry
     smearing contrib. (-TS)   =       0.00000000 Ry
     internal energy E=F+TS    =   -1320.24854952 Ry

     The total energy is F=E-TS. E is the sum of the following terms:
     one-electron contribution =    -386.73181059 Ry
     hartree contribution      =     240.41642900 Ry
     xc contribution           =    -172.72194800 Ry
     ewald contribution        =    -536.52693592 Ry
     one-center paw contrib.   =    -464.68428402 Ry
      -> PAW hartree energy AE =     249.11023438 Ry
      -> PAW hartree energy PS =    -248.35601705 Ry
      -> PAW xc energy AE      =    -526.57727313 Ry
      -> PAW xc energy PS      =      61.13877178 Ry
      -> total E_H with PAW    =     241.17064633 Ry
      -> total E_XC with PAW   =    -638.16044935 Ry

     convergence has been achieved in  15 iterations

     negative rho (up, down):  1.972E-01 0.000E+00

     Forces acting on atoms (cartesian axes, Ry/au):

     atom    1 type  1   force =     0.00000000    0.00000000   -0.00071754
     atom    2 type  2   force =     0.46883469    0.11677589    0.00122690
     atom    3 type  2   force =    -0.46883469   -0.11677589    0.00122690
     atom    4 type  3   force =     0.00000000    0.00000000   -0.00034339
     atom    5 type  4   force =     0.26002562    0.06943482   -0.00256920
     atom    6 type  4   force =     0.26734668    0.07123807    0.00133461
     atom    7 type  4   force =    -0.26734668   -0.07123807    0.00133461
     atom    8 type  4   force =    -0.26002562   -0.06943482   -0.00256920
     atom    9 type  4   force =    -0.07201429   -0.01908872    0.00085542
     atom   10 type  4   force =     0.07201429    0.01908872    0.00085542
     atom   11 type  4   force =     0.00000000    0.00000000   -0.00063454
     The non-local contrib.  to forces
     atom    1 type  1   force =     0.00000000    0.00000000    0.00005976
     atom    2 type  2   force =     0.36497898    0.09043792    0.00157996
     atom    3 type  2   force =    -0.36497898   -0.09043792    0.00157996
     atom    4 type  3   force =     0.00000000    0.00000000   -0.00079343
     atom    5 type  4   force =    -0.97375401   -0.24215981   -0.00547782
     atom    6 type  4   force =    -0.97942589   -0.24349260    0.00529934
     atom    7 type  4   force =     0.97942589    0.24349260    0.00529934
     atom    8 type  4   force =     0.97375401    0.24215981   -0.00547782
     atom    9 type  4   force =    -0.50783694   -0.12844122    0.00050996
     atom   10 type  4   force =     0.50783694    0.12844122    0.00050996
     atom   11 type  4   force =     0.00000000    0.00000000    0.00219712
     The ionic contribution  to forces
     atom    1 type  1   force =     0.00000000    0.00000000    0.00000000
     atom    2 type  2   force =    11.54811166    2.91742545    0.00000000
     atom    3 type  2   force =   -11.54811166   -2.91742545    0.00000000
     atom    4 type  3   force =    -0.00000000   -0.00000000   -0.00000000
     atom    5 type  4   force =    -3.85345989   -0.97350825   -0.00000000
     atom    6 type  4   force =    -4.39752731   -1.11095722   -0.00000000
     atom    7 type  4   force =     4.39752731    1.11095722    0.00000000
     atom    8 type  4   force =     3.85345989    0.97350825   -0.00000000
     atom    9 type  4   force =     8.11083301    2.04905801   -0.00000000
     atom   10 type  4   force =    -8.11083301   -2.04905800    0.00000000
     atom   11 type  4   force =     0.00000000    0.00000000    0.00000000
     The local contribution  to forces
     atom    1 type  1   force =    -0.00150828   -0.00047192   -0.00029447
     atom    2 type  2   force =   -11.51181617   -2.90865849    0.00419511
     atom    3 type  2   force =    11.50562838    2.90651212   -0.00385882
     atom    4 type  3   force =     0.00744401    0.00361105    0.00092928
     atom    5 type  4   force =     5.06916765    1.27905567    0.00615821
     atom    6 type  4   force =     5.63102379    1.42333474   -0.00100110
     atom    7 type  4   force =    -5.63306405   -1.42189252   -0.00588950
     atom    8 type  4   force =    -5.08089491   -1.28500584    0.00052750
     atom    9 type  4   force =    -7.67471648   -1.93945851    0.00211428
     atom   10 type  4   force =     7.67813762    1.94066225   -0.00047816
     atom   11 type  4   force =    -0.00392271   -0.00079604   -0.00234349
     The core correction contribution to forces
     atom    1 type  1   force =     0.00000216    0.00000053   -0.00000010
     atom    2 type  2   force =     0.06478449    0.01670750   -0.00007336
     atom    3 type  2   force =    -0.06383348   -0.01622884   -0.00000708
     atom    4 type  3   force =     0.00000000    0.00000000    0.00000000
     atom    5 type  4   force =     0.01212171    0.00300883    0.00000325
     atom    6 type  4   force =     0.01219717    0.00309967   -0.00010263
     atom    7 type  4   force =    -0.01230308   -0.00304999    0.00000290
     atom    8 type  4   force =    -0.01219016   -0.00310002    0.00010326
     atom    9 type  4   force =     0.00143151    0.00036163   -0.00000365
     atom   10 type  4   force =    -0.00134582   -0.00032036    0.00000987
     atom   11 type  4   force =    -0.00006166   -0.00001416   -0.00002498
     The Hubbard contrib.    to forces
     atom    1 type  1   force =     0.00000000    0.00000000    0.00000000
     atom    2 type  2   force =     0.00000000    0.00000000    0.00000000
     atom    3 type  2   force =     0.00000000    0.00000000    0.00000000
     atom    4 type  3   force =     0.00000000    0.00000000    0.00000000
     atom    5 type  4   force =     0.00000000    0.00000000    0.00000000
     atom    6 type  4   force =     0.00000000    0.00000000    0.00000000
     atom    7 type  4   force =     0.00000000    0.00000000    0.00000000
     atom    8 type  4   force =     0.00000000    0.00000000    0.00000000
     atom    9 type  4   force =     0.00000000    0.00000000    0.00000000
     atom   10 type  4   force =     0.00000000    0.00000000    0.00000000
     atom   11 type  4   force =     0.00000000    0.00000000    0.00000000
     The SCF correction term to forces
     atom    1 type  1   force =     0.00001030   -0.00003012   -0.00001007
     atom    2 type  2   force =     0.00018142    0.00004981   -0.00000740
     atom    3 type  2   force =    -0.00013326   -0.00000951   -0.00000926
     atom    4 type  3   force =    -0.00024660   -0.00005976   -0.00000658
     atom    5 type  4   force =     0.00000448    0.00000672   -0.00002088
     atom    6 type  4   force =     0.00006159    0.00000032   -0.00000205
     atom    7 type  4   force =     0.00004991    0.00000144    0.00000824
     atom    8 type  4   force =    -0.00010014   -0.00002868   -0.00000878
     atom    9 type  4   force =     0.00003858    0.00001255   -0.00000128
     atom   10 type  4   force =    -0.00001748   -0.00001522   -0.00000483
     atom   11 type  4   force =     0.00001293    0.00000661    0.00000946

     Total force =     0.880895     Total SCF correction =     0.000373

     Computing stress (Cartesian axis) and pressure

     negative rho (up, down):  1.972E-01 0.000E+00
          total   stress  (Ry/bohr**3)                   (kbar)     P=     -397.73
  -0.00392676  -0.00033077  -0.00000000         -577.65      -48.66       -0.00
  -0.00033077  -0.00204691  -0.00000000          -48.66     -301.11       -0.00
  -0.00000000  -0.00000000  -0.00213756           -0.00       -0.00     -314.45

     kinetic stress (kbar)  27428.68      4.27      0.00
                                4.27  27453.06      0.00
                                0.00      0.00  27437.24

     local   stress (kbar)  -6807.63    222.10     -4.19
                              222.10  -7621.09     -1.46
                               -4.19     -1.46  -7669.34

     nonloc. stress (kbar)  -2169.89    -49.65     -0.00
                              -49.65  -1927.65     -0.00
                               -0.00     -0.00  -1935.99

     hartree stress (kbar)  10043.66   -158.38     -0.68
                             -158.38  10618.62      6.20
                               -0.68      6.20  10660.10

     exc-cor stress (kbar)   2323.07      3.76      0.02
                                3.76   2308.65      0.27
                                0.02      0.27   2307.91

     corecor stress (kbar)  -7922.68     -3.20     -0.69
                               -3.20  -7910.20     -0.01
                               -0.69     -0.01  -7908.94

     ewald   stress (kbar) -23472.85    -67.56      0.00
                              -67.56 -23222.51      0.00
                                0.00      0.00 -23205.44

     hubbard stress (kbar)      0.00      0.00      0.00
                                0.00      0.00      0.00
                                0.00      0.00      0.00

     DFT-D   stress (kbar)      0.00      0.00      0.00
                                0.00      0.00      0.00
                                0.00      0.00      0.00

     XDM     stress (kbar)      0.00      0.00      0.00
                                0.00      0.00      0.00
                                0.00      0.00      0.00

     dft-nl  stress (kbar)      0.00      0.00      0.00
                                0.00      0.00      0.00
                                0.00      0.00      0.00

     TS-vdW  stress (kbar)      0.00      0.00      0.00
                                0.00      0.00      0.00
                                0.00      0.00      0.00

[...]

                                0.00      0.00      0.00

     Writing all to output data dir new_calculations/myprefix.save/

     General routines

     Parallel routines

     PAW routines

   This run was terminated on:   0:20:44  21May2023

   JOB DONE.