     Program PWSCF v.7.0 starts on 20May2023 at  3:14:15

     Reading input from espresso_6063.pwi
Warning: card &CELL ignored
Warning: card / ignored

     Current dimensions of program PWSCF are:
     Max number of different atomic species (ntypx) = 10
     Max number of k-points (npk) =  40000
     Max angular momentum in pseudopotentials (lmaxx) =  4

     gamma-point specific algorithms are used
     Message from routine setup:
     using ibrav=0 with symmetry is DISCOURAGED, use correct ibrav instead

     Subspace diagonalization in iterative solution of the eigenvalue problem:
     a serial algorithm will be used

     Using Slab Decomposition

     bravais-lattice index     =            0
     lattice parameter (alat)  =      12.5709  a.u.
     unit-cell volume          =    1141.8444 (a.u.)^3
     number of atoms/cell      =           12
     number of atomic types    =            3
     number of electrons       =       112.00
     number of Kohn-Sham states=           67
     kinetic-energy cutoff     =      30.0000  Ry
     charge density cutoff     =     240.0000  Ry
     scf convergence threshold =      1.0E-06
     mixing beta               =       0.7000
     number of iterations used =            8  plain     mixing
     Exchange-correlation=  SLA  PW   PBX  PBC
                           (   1   4   3   4   0   0   0)

     celldm(1)=  12.570894  celldm(2)=   0.000000  celldm(3)=   0.000000
     celldm(4)=   0.000000  celldm(5)=   0.000000  celldm(6)=   0.000000

     crystal axes: (cart. coord. in units of alat)
               a(1) = (   1.000000   0.000000   0.000000 )
               a(2) = (   0.282103   0.959384   0.000000 )
               a(3) = (  -0.641052  -0.479692   0.599123 )

     reciprocal axes: (cart. coord. in units 2 pi/alat)
               b(1) = (  1.000000 -0.294046  0.834553 )
               b(2) = (  0.000000  1.042335  0.834553 )
               b(3) = (  0.000000  0.000000  1.669106 )

     PseudoPot. # 1 for Ca read from file:
     /home/pragov/projects/rrg-bengioy-ad/pragov/crystal_structure_design/SSSP/Ca_pbe_v1.uspp.F.UPF
     MD5 check sum: 403a4c14b9e4d4dfdc3024c9a3812218
     Pseudo is Ultrasoft + core correction, Zval = 10.0
     Generated by new atomic code, or converted to UPF format
     Using radial grid of  845 points,  6 beta functions with:
                l(1) =   0
                l(2) =   0
                l(3) =   1
                l(4) =   1
                l(5) =   2
                l(6) =   2
     Q(r) pseudized with  8 coefficients,  rinner =    1.500   1.500   1.500
                                                       1.500   1.500

     PseudoPot. # 2 for Pd read from file:
     /home/pragov/projects/rrg-bengioy-ad/pragov/crystal_structure_design/SSSP/Pd_ONCV_PBE-1.0.oncvpsp.upf
     MD5 check sum: eb77f42b51d86fb18e25f68156a31cf1
     Pseudo is Norm-conserving, Zval = 18.0
     Generated using ONCVPSP code by D. R. Hamann
     Using radial grid of 1410 points,  6 beta functions with:
                l(1) =   0
                l(2) =   0
                l(3) =   1
                l(4) =   1
                l(5) =   2
                l(6) =   2

     PseudoPot. # 3 for F  read from file:
     /home/pragov/projects/rrg-bengioy-ad/pragov/crystal_structure_design/SSSP/f_pbe_v1.4.uspp.F.UPF
     MD5 check sum: 4c38b6a325caf53ec0e86aed9459de46
     Pseudo is Ultrasoft, Zval =  7.0
     Generated by new atomic code, or converted to UPF format
     Using radial grid of  799 points,  4 beta functions with:
                l(1) =   0
                l(2) =   0
                l(3) =   1
                l(4) =   1
     Q(r) pseudized with  8 coefficients,  rinner =    0.950   0.950   0.950

     atomic species   valence    mass     pseudopotential
        Ca            10.00    40.07800     Ca( 1.00)
        Pd            18.00   106.42000     Pd( 1.00)
        F              7.00    18.99840     F ( 1.00)

      4 Sym. Ops., with inversion, found ( 2 have fractional translation)

                                    s                        frac. trans.

      isym =  1     identity

 cryst.   s( 1) = (     1          0          0      )
                  (     0          1          0      )
                  (     0          0          1      )

 cart.    s( 1) = (  1.0000000  0.0000000  0.0000000 )
                  (  0.0000000  1.0000000  0.0000000 )
                  (  0.0000000  0.0000000  1.0000000 )

      isym =  2     180 deg rotation - cart. axis [0,0,1]

 cryst.   s( 2) = (    -1          0          0      )    f =( -0.5000000 )
                  (     0         -1          0      )       (  0.5000000 )
                  (     1          1          1      )       (  0.0000000 )

 cart.    s( 2) = ( -1.0000000 -0.0000000  0.0000000 )    f =( -0.3589483 )
                  (  0.0000000 -1.0000000  0.0000000 )       (  0.4796920 )
                  (  0.0000000  0.0000000  1.0000000 )       (  0.0000000 )

      isym =  3     inversion

 cryst.   s( 3) = (    -1          0          0      )
                  (     0         -1          0      )
                  (     0          0         -1      )

 cart.    s( 3) = ( -1.0000000 -0.0000000 -0.0000000 )
                  (  0.0000000 -1.0000000 -0.0000000 )
                  (  0.0000000  0.0000000 -1.0000000 )

      isym =  4     inv. 180 deg rotation - cart. axis [0,0,1]

 cryst.   s( 4) = (     1          0          0      )    f =( -0.5000000 )
                  (     0          1          0      )       ( -0.5000000 )
                  (    -1         -1         -1      )       (  0.0000000 )

 cart.    s( 4) = (  1.0000000  0.0000000 -0.0000000 )    f =( -0.6410517 )
                  (  0.0000000  1.0000000 -0.0000000 )       ( -0.4796920 )
                  (  0.0000000  0.0000000 -1.0000000 )       (  0.0000000 )

   Cartesian axes

     site n.     atom                  positions (alat units)
         1           Ca  tau(   1) = (   0.9615775   0.7195380   0.0000000  )
         2           Ca  tau(   2) = (   0.3205258   0.2398460   0.0000000  )
         3           Pd  tau(   3) = (  -0.1794742   0.2398460   0.2995615  )
         4           Pd  tau(   4) = (   0.1794742  -0.2398460   0.2995615  )
         5           F   tau(   5) = (   0.9950836   0.3704657   0.0884827  )
         6           F   tau(   6) = (   0.6459681   0.1092264   0.0884827  )
         7           F   tau(   7) = (  -0.3540319   0.1092264   0.5106403  )
         8           F   tau(   8) = (   0.4134819   0.4199166   0.2995615  )
         9           F   tau(   9) = (  -0.0049164   0.3704657   0.5106403  )
        10           F   tau(  10) = (   0.7625974   0.6811559   0.2995615  )
        11           F   tau(  11) = (   0.2275697   0.0597754   0.2995615  )
        12           F   tau(  12) = (  -0.1215457  -0.2014639   0.2995615  )

   Crystallographic axes

     site n.     atom                  positions (cryst. coord.)
         1           Ca  tau(   1) = (  0.7500000  0.7500000  0.0000000  )
         2           Ca  tau(   2) = (  0.2500000  0.2500000  0.0000000  )
         3           Pd  tau(   3) = (  0.0000000  0.5000000  0.5000000  )
         4           Pd  tau(   4) = (  0.5000000  0.0000000  0.5000000  )
         5           F   tau(   5) = (  0.9599930  0.4599930  0.1476870  )
         6           F   tau(   6) = (  0.6876940  0.1876940  0.1476870  )
         7           F   tau(   7) = (  0.0400070  0.5400070  0.8523130  )
         8           F   tau(   8) = (  0.5400070  0.6876940  0.5000000  )
         9           F   tau(   9) = (  0.3123060  0.8123060  0.8523130  )
        10           F   tau(  10) = (  0.8123060  0.9599930  0.5000000  )
        11           F   tau(  11) = (  0.4599930  0.3123060  0.5000000  )
        12           F   tau(  12) = (  0.1876940  0.0400070  0.5000000  )

     number of k points=     1  Methfessel-Paxton smearing, width (Ry)=  0.0010
                       cart. coord. in units 2pi/alat
        k(    1) = (   0.0000000   0.0000000   0.0000000), wk =   2.0000000

                       cryst. coord.
        k(    1) = (   0.0000000   0.0000000   0.0000000), wk =   2.0000000

     Initial potential from superposition of free atoms

     starting charge     111.9884, renormalised to     112.0000
     Starting wfcs are   72 randomized atomic wfcs

     Self-consistent Calculation

     iteration #  1     ecut=    30.00 Ry     beta= 0.70
     Davidson diagonalization with overlap

     ethr =  1.00E-02,  avg # of iterations =  2.0

     total energy              =   -1045.15550769 Ry
     estimated scf accuracy    <       1.22263118 Ry

[...]

     total energy              =   -1045.65127103 Ry
     estimated scf accuracy    <       0.00000764 Ry

     iteration #  8     ecut=    30.00 Ry     beta= 0.70
     Davidson diagonalization with overlap

     ethr =  6.82E-09,  avg # of iterations =  2.0

     End of self-consistent calculation

          k = 0.0000 0.0000 0.0000 (  1573 PWs)   bands (ev):

   -78.6685 -78.6564 -44.9624 -44.6764 -44.5183 -44.4946 -43.4533 -43.2540
   -32.7804 -32.7658 -16.6414 -16.5913 -16.5765 -16.4477 -16.3417 -16.1867
   -16.1632 -16.0675 -13.8224 -13.7586 -13.7280 -13.5337 -13.4616 -13.4593
    -0.0281   0.0440   0.0643   0.1814   1.3473   1.5022   1.5201   1.5579
     1.6584   1.7675   1.7754   1.8227   1.8498   2.2425   2.2469   2.4160
     2.5175   2.6959   2.8516   3.1888   3.2087   3.2274   3.3137   3.3207
     5.1896   5.4297   5.5429   5.6098   5.6247   5.6301   6.0765   6.1328
     7.3106   7.3445  10.0856  12.5266  12.7546  12.8640  13.0628  13.0651
    13.1158  13.4558  13.7826

     occupation numbers
     1.0000   1.0000   1.0000   1.0000   1.0000   1.0000   1.0000   1.0000
     1.0000   1.0000   1.0000   1.0000   1.0000   1.0000   1.0000   1.0000
     1.0000   1.0000   1.0000   1.0000   1.0000   1.0000   1.0000   1.0000
     1.0000   1.0000   1.0000   1.0000   1.0000   1.0000   1.0000   1.0000
     1.0000   1.0000   1.0000   1.0000   1.0000   1.0000   1.0000   1.0000
     1.0000   1.0000   1.0000   1.0000   1.0000   1.0000   1.0000   1.0000
     1.0000   1.0000   1.0000   1.0000   1.0000   1.0000   1.0000   1.0000
    -0.0000  -0.0000  -0.0000  -0.0000  -0.0000  -0.0000  -0.0000  -0.0000
    -0.0000  -0.0000  -0.0000

     the Fermi energy is     6.6747 ev

!    total energy              =   -1045.65127191 Ry
     estimated scf accuracy    <       0.00000098 Ry
     smearing contrib. (-TS)   =       0.00000000 Ry
     internal energy E=F+TS    =   -1045.65127191 Ry

     The total energy is F=E-TS. E is the sum of the following terms:
     one-electron contribution =    -538.55649194 Ry
     hartree contribution      =     319.09490325 Ry
     xc contribution           =    -148.20053500 Ry
     ewald contribution        =    -677.98914823 Ry

     convergence has been achieved in   8 iterations

     Forces acting on atoms (cartesian axes, Ry/au):

     atom    1 type  1   force =     0.00000000    0.00000000   -0.00024641
     atom    2 type  1   force =     0.00000000    0.00000000    0.00024641
     atom    3 type  2   force =     0.00000000    0.00000000    0.00000000
     atom    4 type  2   force =     0.00000000    0.00000000    0.00000000
     atom    5 type  3   force =    -0.01452110   -0.00955426    0.01733847
     atom    6 type  3   force =     0.01452110    0.00955426    0.01733847
     atom    7 type  3   force =     0.01452110    0.00955426   -0.01733847
     atom    8 type  3   force =     0.00962146    0.01950213   -0.00000000
     atom    9 type  3   force =    -0.01452110   -0.00955426   -0.01733847
     atom   10 type  3   force =    -0.01840859   -0.00536195    0.00000000
     atom   11 type  3   force =    -0.00962146   -0.01950213    0.00000000
     atom   12 type  3   force =     0.01840859    0.00536195   -0.00000000
     The non-local contrib.  to forces
     atom    1 type  1   force =     0.00000000    0.00000000   -0.00021075
     atom    2 type  1   force =     0.00000000    0.00000000    0.00021075
     atom    3 type  2   force =     0.00000000    0.00000000    0.00000000
     atom    4 type  2   force =     0.00000000    0.00000000    0.00000000
     atom    5 type  3   force =    -0.28420463   -0.21348126    0.50723840
     atom    6 type  3   force =     0.28420463    0.21348126    0.50723840
     atom    7 type  3   force =     0.28420463    0.21348126   -0.50723840
     atom    8 type  3   force =    -0.01249864    0.61720723   -0.00000000
     atom    9 type  3   force =    -0.28420463   -0.21348126   -0.50723840
     atom   10 type  3   force =    -0.58162401    0.19053650    0.00000000
     atom   11 type  3   force =     0.01249864   -0.61720723    0.00000000
     atom   12 type  3   force =     0.58162401   -0.19053650   -0.00000000
     The ionic contribution  to forces
     atom    1 type  1   force =    -0.00000000   -0.00000000    0.00000000
     atom    2 type  1   force =    -0.00000000   -0.00000000    0.00000000
     atom    3 type  2   force =     0.00000000   -0.00000000   -0.00000000
     atom    4 type  2   force =     0.00000000   -0.00000000   -0.00000000
     atom    5 type  3   force =     4.21910690    3.15711202   -4.96677898
     atom    6 type  3   force =    -4.21910690   -3.15711202   -4.96677898
     atom    7 type  3   force =    -4.21910690   -3.15711202    4.96677898
     atom    8 type  3   force =    -1.24339548   -7.13379846   -0.00000000
     atom    9 type  3   force =     4.21910690    3.15711202    4.96677898
     atom   10 type  3   force =     7.19481831   -0.81957441    0.00000000
     atom   11 type  3   force =     1.24339548    7.13379846    0.00000000
     atom   12 type  3   force =    -7.19481831    0.81957441   -0.00000000
     The local contribution  to forces
     atom    1 type  1   force =    -0.00011804    0.00097049    0.00032204
     atom    2 type  1   force =     0.00008751   -0.00102759   -0.00029401
     atom    3 type  2   force =     0.00013774   -0.00000628   -0.00014217
     atom    4 type  2   force =    -0.00013752    0.00022354    0.00005625
     atom    5 type  3   force =    -3.94652754   -2.95266924    4.47602587
     atom    6 type  3   force =     3.95233721    2.95355625    4.47767657
     atom    7 type  3   force =     3.94649292    2.95262049   -4.47599904
     atom    8 type  3   force =     1.26547279    6.53590840   -0.00059988
     atom    9 type  3   force =    -3.95231120   -2.95355523   -4.47769410
     atom   10 type  3   force =    -6.63126069    0.62368355    0.00019951
     atom   11 type  3   force =    -1.26552805   -6.53594678    0.00062576
     atom   12 type  3   force =     6.63131519   -0.62366656   -0.00018955
     The core correction contribution to forces
     atom    1 type  1   force =    -0.00000486    0.00000647    0.00002614
     atom    2 type  1   force =     0.00000464   -0.00000689   -0.00002563
     atom    3 type  2   force =     0.00000000    0.00000000    0.00000000
     atom    4 type  2   force =     0.00000000    0.00000000    0.00000000
     atom    5 type  3   force =     0.00000000    0.00000000    0.00000000
     atom    6 type  3   force =     0.00000000    0.00000000    0.00000000
     atom    7 type  3   force =     0.00000000    0.00000000    0.00000000
     atom    8 type  3   force =     0.00000000    0.00000000    0.00000000
     atom    9 type  3   force =     0.00000000    0.00000000    0.00000000
     atom   10 type  3   force =     0.00000000    0.00000000    0.00000000
     atom   11 type  3   force =     0.00000000    0.00000000    0.00000000
     atom   12 type  3   force =     0.00000000    0.00000000    0.00000000
     The Hubbard contrib.    to forces
     atom    1 type  1   force =     0.00000000    0.00000000    0.00000000
     atom    2 type  1   force =     0.00000000    0.00000000    0.00000000
     atom    3 type  2   force =     0.00000000    0.00000000    0.00000000
     atom    4 type  2   force =     0.00000000    0.00000000    0.00000000
     atom    5 type  3   force =     0.00000000    0.00000000    0.00000000
     atom    6 type  3   force =     0.00000000    0.00000000    0.00000000
     atom    7 type  3   force =     0.00000000    0.00000000    0.00000000
     atom    8 type  3   force =     0.00000000    0.00000000    0.00000000
     atom    9 type  3   force =     0.00000000    0.00000000    0.00000000
     atom   10 type  3   force =     0.00000000    0.00000000    0.00000000
     atom   11 type  3   force =     0.00000000    0.00000000    0.00000000
     atom   12 type  3   force =     0.00000000    0.00000000    0.00000000
     The SCF correction term to forces
     atom    1 type  1   force =     0.00022482   -0.00020116   -0.00038265
     atom    2 type  1   force =    -0.00019040    0.00026163    0.00035648
     atom    3 type  2   force =    -0.00014512    0.00001393    0.00016890
     atom    4 type  2   force =     0.00014180   -0.00023171   -0.00008238
     atom    5 type  3   force =     0.00005448   -0.00003419    0.00000497
     atom    6 type  3   force =     0.00003365    0.00010225    0.00005895
     atom    7 type  3   force =    -0.00001977    0.00009041   -0.00001235
     atom    8 type  3   force =     0.00004524    0.00017723   -0.00006204
     atom    9 type  3   force =    -0.00006518   -0.00011203   -0.00004436
     atom   10 type  3   force =    -0.00033810   -0.00001195    0.00005120
     atom   11 type  3   force =     0.00001493   -0.00015429    0.00003078
     atom   12 type  3   force =     0.00029181   -0.00001376   -0.00006771

     Total force =     0.063971     Total SCF correction =     0.000957

     Computing stress (Cartesian axis) and pressure

          total   stress  (Ry/bohr**3)                   (kbar)     P=     -457.69
  -0.00295801   0.00011537   0.00000000         -435.14       16.97        0.00
   0.00011537  -0.00315412   0.00000000           16.97     -463.99        0.00
   0.00000000   0.00000000  -0.00322179            0.00        0.00     -473.94

     kinetic stress (kbar)  30176.17   -410.60     -0.00
                             -410.60  30408.12     -0.00
                               -0.00     -0.00  30738.75

     local   stress (kbar) -17429.62  -5585.95     -7.70
                            -5585.95 -14105.66     -7.00
                               -7.70     -7.00  -9928.46

     nonloc. stress (kbar)   4419.64     47.27     -0.00
                               47.27   4349.93     -0.00
                               -0.00     -0.00   4297.43

     hartree stress (kbar)  15193.61   2316.26      1.70
                             2316.26  13824.86      1.40
                                1.70      1.40  12090.88

     exc-cor stress (kbar)  -5581.90      2.17     -0.00
                                2.17  -5582.94     -0.03
                               -0.00     -0.03  -5584.57

     corecor stress (kbar)   -437.70      0.02     -0.01
                                0.02   -437.73      0.01
                               -0.01      0.01   -437.80

     ewald   stress (kbar) -26775.33   3647.80     -0.00
                             3647.80 -28920.58     -0.00
                               -0.00     -0.00 -31650.18

     hubbard stress (kbar)      0.00      0.00      0.00
                                0.00      0.00      0.00
                                0.00      0.00      0.00

     DFT-D   stress (kbar)      0.00      0.00      0.00
                                0.00      0.00      0.00
                                0.00      0.00      0.00

     XDM     stress (kbar)      0.00      0.00      0.00
                                0.00      0.00      0.00
                                0.00      0.00      0.00

     dft-nl  stress (kbar)      0.00      0.00      0.00
                                0.00      0.00      0.00
                                0.00      0.00      0.00

     TS-vdW  stress (kbar)      0.00      0.00      0.00
                                0.00      0.00      0.00
                                0.00      0.00      0.00

[...]

                                0.00      0.00      0.00

     Writing all to output data dir new_calculations/myprefix.save/

     General routines

     Parallel routines

   This run was terminated on:   3:15:44  20May2023

   JOB DONE.