     Program PWSCF v.7.0 starts on 21May2023 at  1:49: 6

     Reading input from espresso_3926.pwi
Warning: card &CELL ignored
Warning: card / ignored

     Current dimensions of program PWSCF are:
     Max number of different atomic species (ntypx) = 10
     Max number of k-points (npk) =  40000
     Max angular momentum in pseudopotentials (lmaxx) =  4
     file O.pbe-n-kjpaw_psl.0.1.UPF: wavefunction(s)  2P renormalized

     gamma-point specific algorithms are used
     Message from routine setup:
     using ibrav=0 with symmetry is DISCOURAGED, use correct ibrav instead

     Subspace diagonalization in iterative solution of the eigenvalue problem:
     a serial algorithm will be used

     Using Slab Decomposition

     bravais-lattice index     =            0
     lattice parameter (alat)  =       7.6881  a.u.
     unit-cell volume          =    3173.1363 (a.u.)^3
     number of atoms/cell      =           20
     number of atomic types    =            3
     number of electrons       =       160.00
     number of Kohn-Sham states=           96
     kinetic-energy cutoff     =      30.0000  Ry
     charge density cutoff     =     240.0000  Ry
     scf convergence threshold =      1.0E-06
     mixing beta               =       0.7000
     number of iterations used =            8  plain     mixing
     Exchange-correlation= SLA  PW   PBX  PBC
                           (   1   4   3   4   0   0   0)

     celldm(1)=   7.688082  celldm(2)=   0.000000  celldm(3)=   0.000000
     celldm(4)=   0.000000  celldm(5)=   0.000000  celldm(6)=   0.000000

     crystal axes: (cart. coord. in units of alat)
               a(1) = (   1.000000   0.000000   0.000000 )
               a(2) = (   0.000000   1.755195   0.000000 )
               a(3) = (   0.000000   0.000000   3.978407 )

     reciprocal axes: (cart. coord. in units 2 pi/alat)
               b(1) = (  1.000000  0.000000  0.000000 )
               b(2) = (  0.000000  0.569737  0.000000 )
               b(3) = (  0.000000  0.000000  0.251357 )

     PseudoPot. # 1 for La read from file:
     /home/pragov/projects/rrg-bengioy-ad/pragov/crystal_structure_design/SSSP/La.GGA-PBE-paw-v1.0.UPF
     MD5 check sum: 436541e95c1ad8901025bd0b0ed42ae2
     Pseudo is Projector augmented-wave + core cor, Zval = 11.0
     Generated using ATOMPAW code
     Shape of augmentation charge: BESSEL
     Using radial grid of 1101 points,  8 beta functions with:
                l(1) =   0
                l(2) =   0
                l(3) =   1
                l(4) =   1
                l(5) =   2
                l(6) =   2
                l(7) =   3
                l(8) =   3
     Q(r) pseudized with 0 coefficients

     PseudoPot. # 2 for S  read from file:
     /home/pragov/projects/rrg-bengioy-ad/pragov/crystal_structure_design/SSSP/s_pbe_v1.4.uspp.F.UPF
     MD5 check sum: 88d86576ff6df21479756cfb9bdac1df
     Pseudo is Ultrasoft + core correction, Zval =  6.0
     Generated by new atomic code, or converted to UPF format
     Using radial grid of  907 points,  6 beta functions with:
                l(1) =   0
                l(2) =   0
                l(3) =   1
                l(4) =   1
                l(5) =   2
                l(6) =   2
     Q(r) pseudized with  8 coefficients,  rinner =    1.300   1.300   1.300
                                                       1.300   1.300

     PseudoPot. # 3 for O  read from file:
     /home/pragov/projects/rrg-bengioy-ad/pragov/crystal_structure_design/SSSP/O.pbe-n-kjpaw_psl.0.1.UPF
     MD5 check sum: 0234752ac141de4415c5fc33072bef88
     Pseudo is Projector augmented-wave + core cor, Zval =  6.0
     Generated using "atomic" code by A. Dal Corso  v.5.0.99 svn rev. 10869
     Shape of augmentation charge: BESSEL
     Using radial grid of 1095 points,  4 beta functions with:
                l(1) =   0
                l(2) =   0
                l(3) =   1
                l(4) =   1
     Q(r) pseudized with 0 coefficients

     atomic species   valence    mass     pseudopotential
        La            11.00   138.90547     La( 1.00)
        S              6.00    32.06000     S ( 1.00)
        O              6.00    15.99900     O ( 1.00)

      8 Sym. Ops., with inversion, found ( 6 have fractional translation)

                                    s                        frac. trans.

      isym =  1     identity

 cryst.   s( 1) = (     1          0          0      )
                  (     0          1          0      )
                  (     0          0          1      )

 cart.    s( 1) = (  1.0000000  0.0000000  0.0000000 )
                  (  0.0000000  1.0000000  0.0000000 )
                  (  0.0000000  0.0000000  1.0000000 )

      isym =  2     180 deg rotation - cart. axis [0,0,1]

 cryst.   s( 2) = (    -1          0          0      )    f =(  0.5000000 )
                  (     0         -1          0      )       (  0.5000000 )
                  (     0          0          1      )       ( -0.5000000 )

 cart.    s( 2) = ( -1.0000000  0.0000000  0.0000000 )    f =(  0.5000000 )
                  (  0.0000000 -1.0000000  0.0000000 )       (  0.8775977 )
                  (  0.0000000  0.0000000  1.0000000 )       ( -1.9892034 )

[...]

      isym =  4     180 deg rotation - cart. axis [1,0,0]

[...]

      isym =  5     inversion

 cryst.   s( 5) = (    -1          0          0      )
                  (     0         -1          0      )
                  (     0          0         -1      )

 cart.    s( 5) = ( -1.0000000  0.0000000  0.0000000 )
                  (  0.0000000 -1.0000000  0.0000000 )
                  (  0.0000000  0.0000000 -1.0000000 )

      isym =  6     inv. 180 deg rotation - cart. axis [0,0,1]

[...]

      isym =  8     inv. 180 deg rotation - cart. axis [1,0,0]

 cryst.   s( 8) = (    -1          0          0      )    f =(  0.5000000 )
                  (     0          1          0      )       (  0.0000000 )
                  (     0          0          1      )       (  0.0000000 )

 cart.    s( 8) = ( -1.0000000  0.0000000  0.0000000 )    f =(  0.5000000 )
                  (  0.0000000  1.0000000  0.0000000 )       (  0.0000000 )
                  (  0.0000000  0.0000000  1.0000000 )       (  0.0000000 )

   Cartesian axes

     site n.     atom                  positions (alat units)
         1           La  tau(   1) = (   0.7500000   0.3642048   0.1630550  )
         2           La  tau(   2) = (   0.7500000   1.3271067   0.6711612  )
         3           La  tau(   3) = (   0.2500000   0.4495090   1.3180422  )
         4           La  tau(   4) = (   0.2500000   1.2418025   1.8261484  )
         5           La  tau(   5) = (   0.7500000   0.5133929   2.1522584  )
         6           La  tau(   6) = (   0.7500000   1.3056863   2.6603646  )
         7           La  tau(   7) = (   0.2500000   0.4280886   3.3072456  )
         8           La  tau(   8) = (   0.2500000   1.3909906   3.8153518  )
         9           S   tau(   9) = (   0.2500000   0.9025864   0.4077827  )
        10           S   tau(  10) = (   0.2500000   0.0748012   0.7038438  )
        11           S   tau(  11) = (   0.7500000   0.9523988   1.2853596  )
        12           S   tau(  12) = (   0.7500000   0.0249887   1.5814207  )
        13           S   tau(  13) = (   0.2500000   1.7302066   2.3969861  )
        14           S   tau(  14) = (   0.2500000   0.8027965   2.6930472  )
        15           S   tau(  15) = (   0.7500000   1.6803942   3.2745630  )
        16           S   tau(  16) = (   0.7500000   0.8526090   3.5706241  )
        17           O   tau(  17) = (   0.7500000   1.5222388   0.1265173  )
        18           O   tau(  18) = (   0.2500000   0.6446411   1.8626861  )
        19           O   tau(  19) = (   0.7500000   1.1105542   2.1157207  )
        20           O   tau(  20) = (   0.2500000   0.2329565   3.8518895  )

   Crystallographic axes

     site n.     atom                  positions (cryst. coord.)
         1           La  tau(   1) = (  0.7500000  0.2075010  0.0409850  )
         2           La  tau(   2) = (  0.7500000  0.7561020  0.1687010  )
         3           La  tau(   3) = (  0.2500000  0.2561020  0.3312990  )
         4           La  tau(   4) = (  0.2500000  0.7075010  0.4590150  )
         5           La  tau(   5) = (  0.7500000  0.2924990  0.5409850  )
         6           La  tau(   6) = (  0.7500000  0.7438980  0.6687010  )
         7           La  tau(   7) = (  0.2500000  0.2438980  0.8312990  )
         8           La  tau(   8) = (  0.2500000  0.7924990  0.9590150  )
         9           S   tau(   9) = (  0.2500000  0.5142370  0.1024990  )
        10           S   tau(  10) = (  0.2500000  0.0426170  0.1769160  )
        11           S   tau(  11) = (  0.7500000  0.5426170  0.3230840  )
        12           S   tau(  12) = (  0.7500000  0.0142370  0.3975010  )
        13           S   tau(  13) = (  0.2500000  0.9857630  0.6024990  )
        14           S   tau(  14) = (  0.2500000  0.4573830  0.6769160  )
        15           S   tau(  15) = (  0.7500000  0.9573830  0.8230840  )
        16           S   tau(  16) = (  0.7500000  0.4857630  0.8975010  )
        17           O   tau(  17) = (  0.7500000  0.8672760  0.0318010  )
        18           O   tau(  18) = (  0.2500000  0.3672760  0.4681990  )
        19           O   tau(  19) = (  0.7500000  0.6327240  0.5318010  )
        20           O   tau(  20) = (  0.2500000  0.1327240  0.9681990  )

     number of k points=     1  Methfessel-Paxton smearing, width (Ry)=  0.0010
                       cart. coord. in units 2pi/alat
        k(    1) = (   0.0000000   0.0000000   0.0000000), wk =   2.0000000

                       cryst. coord.
        k(    1) = (   0.0000000   0.0000000   0.0000000), wk =   2.0000000

     Check: negative core charge=   -0.000003

     Initial potential from superposition of free atoms

     starting charge     159.9315, renormalised to     160.0000
     Starting wfcs are  304 randomized atomic wfcs
     Checking if some PAW data can be deallocated...

     Self-consistent Calculation

     iteration #  1     ecut=    30.00 Ry     beta= 0.70
     Davidson diagonalization with overlap

     ethr =  1.00E-02,  avg # of iterations =  2.0

     total energy              =   -4026.46384858 Ry
     estimated scf accuracy    <       3.20833248 Ry

[...]

     c_bands:  2 eigenvalues not converged
     ethr =  6.93E-06,  avg # of iterations = 20.0

[...]

     c_bands:  1 eigenvalues not converged
     ethr =  4.08E-08,  avg # of iterations = 20.0

[...]

     total energy              =   -4028.14296917 Ry
     estimated scf accuracy    <       0.00000400 Ry

     iteration # 14     ecut=    30.00 Ry     beta= 0.70
     Davidson diagonalization with overlap

     ethr =  2.50E-09,  avg # of iterations =  4.0

     End of self-consistent calculation

          k = 0.0000 0.0000 0.0000 (  4412 PWs)   bands (ev):

   -23.0472 -23.0457 -22.9499 -22.9485 -22.7842 -22.7771 -22.7743 -22.7681
   -10.0683 -10.0653  -9.6818  -9.6714  -7.2293  -7.2192  -7.0158  -6.9068
    -6.8673  -6.7148  -6.6910  -6.6867  -6.6590  -6.6301  -6.5998  -6.5896
    -6.5066  -6.5054  -6.4645  -6.4629  -6.3605  -6.3369  -6.3360  -6.3179
    -6.1240  -6.0114  -5.4756  -5.4148  -2.7751  -2.6018  -2.5917  -2.3383
    -1.9600  -1.8862  -1.8610  -1.7708   4.5354   4.8200   4.8919   5.0139
     5.1218   5.1267   5.2008   5.2220   5.3246   5.4619   5.5000   5.7839
     5.9061   5.9821   6.0012   6.1661   6.2000   6.2706   6.5300   6.6779
     6.6874   6.6967   6.7265   6.9004   6.9807   7.2783   7.3776   7.4625
     7.5051   7.7390   7.7401   7.7485   7.7566   7.7988   8.0185   8.1999
    10.3503  10.6533  10.6979  10.8988  11.5072  11.5123  11.5530  11.5683
    11.6198  11.6986  11.7050  11.7176  11.7209  11.7686  11.8307  11.8422

     occupation numbers
     1.0000   1.0000   1.0000   1.0000   1.0000   1.0000   1.0000   1.0000
     1.0000   1.0000   1.0000   1.0000   1.0000   1.0000   1.0000   1.0000
     1.0000   1.0000   1.0000   1.0000   1.0000   1.0000   1.0000   1.0000
     1.0000   1.0000   1.0000   1.0000   1.0000   1.0000   1.0000   1.0000
     1.0000   1.0000   1.0000   1.0000   1.0000   1.0000   1.0000   1.0000
     1.0000   1.0000   1.0000   1.0000   1.0000   1.0000   1.0000   1.0000
     1.0000   1.0000   1.0000   1.0000   1.0000   1.0000   1.0000   1.0000
     1.0000   1.0000   1.0000   1.0000   1.0000   1.0000   1.0000   1.0000
     1.0000   1.0000   1.0000   1.0000   1.0000   1.0000   1.0000   1.0000
     1.0000   1.0000   1.0000   1.0000   1.0000   1.0000   1.0000   1.0000
    -0.0000  -0.0000  -0.0000  -0.0000  -0.0000  -0.0000  -0.0000  -0.0000
    -0.0000  -0.0000  -0.0000  -0.0000  -0.0000  -0.0000  -0.0000  -0.0000

     the Fermi energy is     9.7806 ev

!    total energy              =   -4028.14296999 Ry
     estimated scf accuracy    <       0.00000055 Ry
     smearing contrib. (-TS)   =       0.00000000 Ry
     internal energy E=F+TS    =   -4028.14296999 Ry

     The total energy is F=E-TS. E is the sum of the following terms:
     one-electron contribution =    -155.23384606 Ry
     hartree contribution      =     168.90427153 Ry
     xc contribution           =    -168.43990701 Ry
     ewald contribution        =    -650.42162590 Ry
     one-center paw contrib.   =   -3222.95186255 Ry
      -> PAW hartree energy AE =     397.52378969 Ry
      -> PAW hartree energy PS =    -397.49180372 Ry
      -> PAW xc energy AE      =   -3311.47476301 Ry
      -> PAW xc energy PS      =      88.49091449 Ry
      -> total E_H with PAW    =     168.93625750 Ry
      -> total E_XC with PAW   =   -3391.42375554 Ry

     convergence has been achieved in  14 iterations

     Forces acting on atoms (cartesian axes, Ry/au):

     atom    1 type  1   force =     0.00000000   -0.00428046   -0.03373430
     atom    2 type  1   force =     0.00000000    0.00534671   -0.02767020
     atom    3 type  1   force =     0.00000000    0.00534671    0.02767020
     atom    4 type  1   force =    -0.00000000   -0.00428046    0.03373430
     atom    5 type  1   force =    -0.00000000    0.00428046   -0.03373430
     atom    6 type  1   force =     0.00000000   -0.00534671   -0.02767020
     atom    7 type  1   force =     0.00000000   -0.00534671    0.02767020
     atom    8 type  1   force =     0.00000000    0.00428046    0.03373430
     atom    9 type  2   force =     0.00000000    0.04144003    0.01809244
     atom   10 type  2   force =    -0.00000000   -0.05883555   -0.00293545
     atom   11 type  2   force =     0.00000000   -0.05883555    0.00293545
     atom   12 type  2   force =     0.00000000    0.04144003   -0.01809244
     atom   13 type  2   force =    -0.00000000   -0.04144003    0.01809244
     atom   14 type  2   force =     0.00000000    0.05883555   -0.00293545
     atom   15 type  2   force =    -0.00000000    0.05883555    0.00293545
     atom   16 type  2   force =     0.00000000   -0.04144003   -0.01809244
     atom   17 type  3   force =    -0.00000000   -0.01238210   -0.02649478
     atom   18 type  3   force =     0.00000000   -0.01238210    0.02649478
     atom   19 type  3   force =     0.00000000    0.01238210   -0.02649478
     atom   20 type  3   force =     0.00000000    0.01238210    0.02649478
     The non-local contrib.  to forces
     atom    1 type  1   force =     0.00000000    0.02571993    0.01241195
     atom    2 type  1   force =     0.00000000   -0.00774673    0.04555340
     atom    3 type  1   force =     0.00000000   -0.00774673   -0.04555340
     atom    4 type  1   force =     0.00000000    0.02571993   -0.01241195
     atom    5 type  1   force =     0.00000000   -0.02571993    0.01241195
     atom    6 type  1   force =     0.00000000    0.00774673    0.04555340
     atom    7 type  1   force =     0.00000000    0.00774673   -0.04555340
     atom    8 type  1   force =    -0.00000000   -0.02571993   -0.01241195
     atom    9 type  2   force =     0.00000000   -0.02024925   -0.00783682
     atom   10 type  2   force =     0.00000000    0.04901869   -0.00888043
     atom   11 type  2   force =     0.00000000    0.04901869    0.00888043
     atom   12 type  2   force =     0.00000000   -0.02024925    0.00783682
     atom   13 type  2   force =     0.00000000    0.02024925   -0.00783682
     atom   14 type  2   force =     0.00000000   -0.04901869   -0.00888043
     atom   15 type  2   force =    -0.00000000   -0.04901869    0.00888043
     atom   16 type  2   force =    -0.00000000    0.02024925    0.00783682
     atom   17 type  3   force =     0.00000000   -0.00003980   -0.12870523
     atom   18 type  3   force =     0.00000000   -0.00003980    0.12870523
     atom   19 type  3   force =     0.00000000    0.00003980   -0.12870523
     atom   20 type  3   force =     0.00000000    0.00003980    0.12870523
     The ionic contribution  to forces
     atom    1 type  1   force =     0.00000000    7.80026311    7.24527931
     atom    2 type  1   force =     0.00000000   -2.82198156    9.72059404
     atom    3 type  1   force =    -0.00000000   -2.82198156   -9.72059404
     atom    4 type  1   force =    -0.00000000    7.80026311   -7.24527931
     atom    5 type  1   force =    -0.00000000   -7.80026311    7.24527931
     atom    6 type  1   force =    -0.00000000    2.82198156    9.72059404
     atom    7 type  1   force =     0.00000000    2.82198156   -9.72059404
     atom    8 type  1   force =     0.00000000   -7.80026311   -7.24527931
     atom    9 type  2   force =     0.00000000   -2.18815850    3.06444037
     atom   10 type  2   force =    -0.00000000    1.77707369    4.23663066
     atom   11 type  2   force =    -0.00000000    1.77707369   -4.23663066
     atom   12 type  2   force =     0.00000000   -2.18815850   -3.06444037
     atom   13 type  2   force =    -0.00000000    2.18815850    3.06444037
     atom   14 type  2   force =    -0.00000000   -1.77707369    4.23663066
     atom   15 type  2   force =    -0.00000000   -1.77707369   -4.23663066
     atom   16 type  2   force =    -0.00000000    2.18815850   -3.06444037
     atom   17 type  3   force =    -0.00000000   -2.36906169    0.83308294
     atom   18 type  3   force =    -0.00000000   -2.36906169   -0.83308294
     atom   19 type  3   force =     0.00000000    2.36906169    0.83308294
     atom   20 type  3   force =     0.00000000    2.36906169   -0.83308294
     The local contribution  to forces
     atom    1 type  1   force =    -0.00000015   -7.82996057   -7.29125512
     atom    2 type  1   force =    -0.00000117    2.83485345   -9.79302309
     atom    3 type  1   force =    -0.00001304    2.83505470    9.79409916
     atom    4 type  1   force =    -0.00000784   -7.83041225    7.29164396
     atom    5 type  1   force =     0.00000620    7.83055862   -7.29133218
     atom    6 type  1   force =    -0.00001010   -2.83511531   -9.79420520
     atom    7 type  1   force =    -0.00000875   -2.83489405    9.79304037
     atom    8 type  1   force =     0.00000662    7.83007713    7.29102558
     atom    9 type  2   force =    -0.00002568    2.24843474   -3.03837761
     atom   10 type  2   force =    -0.00000140   -1.88208466   -4.23065917
     atom   11 type  2   force =     0.00002053   -1.88176877    4.23151593
     atom   12 type  2   force =     0.00000691    2.24813368    3.03888911
     atom   13 type  2   force =     0.00000196   -2.24843592   -3.03910642
     atom   14 type  2   force =     0.00000728    1.88183613   -4.23145507
     atom   15 type  2   force =    -0.00000432    1.88229849    4.23069669
     atom   16 type  2   force =     0.00000599   -2.24872379    3.03843249
     atom   17 type  3   force =    -0.00001100    2.35640970   -0.73281863
     atom   18 type  3   force =    -0.00000185    2.35665957    0.73314824
     atom   19 type  3   force =     0.00004239   -2.35657682   -0.73313188
     atom   20 type  3   force =    -0.00004839   -2.35629338    0.73280317
     The core correction contribution to forces
     atom    1 type  1   force =     0.00000000    0.00004149    0.00007623
     atom    2 type  1   force =    -0.00000000    0.00002002    0.00001132
     atom    3 type  1   force =    -0.00000002    0.00002004   -0.00001118
     atom    4 type  1   force =    -0.00000000    0.00004145   -0.00007619
     atom    5 type  1   force =    -0.00000000   -0.00004140    0.00007634
     atom    6 type  1   force =    -0.00000000   -0.00002006    0.00001119
     atom    7 type  1   force =    -0.00000001   -0.00002004   -0.00001131
     atom    8 type  1   force =     0.00000000   -0.00004146   -0.00007638
     atom    9 type  2   force =    -0.00000201    0.00141280    0.00043835
     atom   10 type  2   force =    -0.00000000   -0.00291902    0.00054472
     atom   11 type  2   force =     0.00000068   -0.00291604   -0.00053871
     atom   12 type  2   force =     0.00000008    0.00140756   -0.00043603
     atom   13 type  2   force =     0.00000025   -0.00141254    0.00043227
     atom   14 type  2   force =     0.00000039    0.00291745    0.00054078
     atom   15 type  2   force =     0.00000020    0.00292146   -0.00054442
     atom   16 type  2   force =     0.00000066   -0.00141443   -0.00043838
     atom   17 type  3   force =    -0.00000003    0.00020654    0.00212413
     atom   18 type  3   force =    -0.00000016    0.00020636   -0.00212407
     atom   19 type  3   force =     0.00000056   -0.00020728    0.00212343
     atom   20 type  3   force =    -0.00000058   -0.00020715   -0.00212328
     The Hubbard contrib.    to forces
     atom    1 type  1   force =     0.00000000    0.00000000    0.00000000
     atom    2 type  1   force =     0.00000000    0.00000000    0.00000000
     atom    3 type  1   force =     0.00000000    0.00000000    0.00000000
     atom    4 type  1   force =     0.00000000    0.00000000    0.00000000
     atom    5 type  1   force =     0.00000000    0.00000000    0.00000000
     atom    6 type  1   force =     0.00000000    0.00000000    0.00000000
     atom    7 type  1   force =     0.00000000    0.00000000    0.00000000
     atom    8 type  1   force =     0.00000000    0.00000000    0.00000000
     atom    9 type  2   force =     0.00000000    0.00000000    0.00000000
     atom   10 type  2   force =     0.00000000    0.00000000    0.00000000
     atom   11 type  2   force =     0.00000000    0.00000000    0.00000000
     atom   12 type  2   force =     0.00000000    0.00000000    0.00000000
     atom   13 type  2   force =     0.00000000    0.00000000    0.00000000
     atom   14 type  2   force =     0.00000000    0.00000000    0.00000000
     atom   15 type  2   force =     0.00000000    0.00000000    0.00000000
     atom   16 type  2   force =     0.00000000    0.00000000    0.00000000
     atom   17 type  3   force =     0.00000000    0.00000000    0.00000000
     atom   18 type  3   force =     0.00000000    0.00000000    0.00000000
     atom   19 type  3   force =     0.00000000    0.00000000    0.00000000
     atom   20 type  3   force =     0.00000000    0.00000000    0.00000000
     The SCF correction term to forces
     atom    1 type  1   force =    -0.00001613   -0.00038622   -0.00034771
     atom    2 type  1   force =    -0.00000176    0.00023202   -0.00087535
     atom    3 type  1   force =     0.00000021   -0.00003386   -0.00024517
     atom    4 type  1   force =     0.00000579    0.00016626   -0.00007691
     atom    5 type  1   force =    -0.00000259   -0.00030147   -0.00009381
     atom    6 type  1   force =     0.00000270    0.00007885    0.00049022
     atom    7 type  1   force =    -0.00000113   -0.00018304    0.00080778
     atom    8 type  1   force =     0.00001109    0.00029272    0.00038591
     atom    9 type  2   force =     0.00001275    0.00001044   -0.00053649
     atom   10 type  2   force =     0.00000639    0.00006303   -0.00051787
     atom   11 type  2   force =    -0.00000968   -0.00019876   -0.00019380
     atom   12 type  2   force =    -0.00000427    0.00023692    0.00009364
     atom   13 type  2   force =     0.00000155    0.00000105    0.00009095
     atom   14 type  2   force =    -0.00000142    0.00014246    0.00021060
     atom   15 type  2   force =     0.00000671   -0.00022852    0.00047099
     atom   16 type  2   force =    -0.00000264    0.00023064    0.00044464
     atom   17 type  3   force =    -0.00000466    0.00009446   -0.00021751
     atom   18 type  3   force =     0.00001194   -0.00019369   -0.00016855
     atom   19 type  3   force =    -0.00000846    0.00004065    0.00015843
     atom   20 type  3   force =     0.00002527   -0.00025067    0.00019242

     Total force =     0.182436     Total SCF correction =     0.002001

     Computing stress (Cartesian axis) and pressure

          total   stress  (Ry/bohr**3)                   (kbar)     P=      -50.44
   0.00034992   0.00000000   0.00000000           51.48        0.00        0.00
   0.00000000  -0.00089963   0.00000000            0.00     -132.34        0.00
   0.00000000   0.00000000  -0.00047895            0.00        0.00      -70.46

     kinetic stress (kbar)   8711.73      0.00      0.00
                                0.00   8411.84      0.00
                                0.00      0.00   8442.40

     local   stress (kbar)  -9487.04      0.00      0.00
                                0.00  -5440.13     -0.02
                                0.00     -0.02   -203.25

     nonloc. stress (kbar)   5992.94      0.00      0.00
                                0.00   6018.57      0.00
                                0.00      0.00   6003.62

     hartree stress (kbar)   4526.62     -0.00      0.00
                               -0.00   2803.44      0.00
                                0.00      0.00    500.26

     exc-cor stress (kbar)   -543.37     -0.00      0.00
                               -0.00   -544.79      0.00
                                0.00      0.00   -547.95

     corecor stress (kbar)  -1549.84      0.00      0.00
                                0.00  -1547.25     -0.00
                                0.00     -0.00  -1545.88

     ewald   stress (kbar)  -7599.57      0.00      0.00
                                0.00  -9834.01      0.00
                                0.00      0.00 -12719.65

     hubbard stress (kbar)      0.00      0.00      0.00
                                0.00      0.00      0.00
                                0.00      0.00      0.00

     DFT-D   stress (kbar)      0.00      0.00      0.00
                                0.00      0.00      0.00
                                0.00      0.00      0.00

     XDM     stress (kbar)      0.00      0.00      0.00
                                0.00      0.00      0.00
                                0.00      0.00      0.00

     dft-nl  stress (kbar)      0.00      0.00      0.00
                                0.00      0.00      0.00
                                0.00      0.00      0.00

     TS-vdW  stress (kbar)      0.00      0.00      0.00
                                0.00      0.00      0.00
                                0.00      0.00      0.00

[...]

                                0.00      0.00      0.00

     Writing all to output data dir new_calculations/myprefix.save/

     General routines

     Parallel routines

     PAW routines

   This run was terminated on:   1:50:26  21May2023

   JOB DONE.