     Program PWSCF v.7.0 starts on 20May2023 at 16:28:28

     Reading input from espresso_22076.pwi
Warning: card &CELL ignored
Warning: card / ignored

     Current dimensions of program PWSCF are:
     Max number of different atomic species (ntypx) = 10
     Max number of k-points (npk) =  40000
     Max angular momentum in pseudopotentials (lmaxx) =  4
     file Al.pbe-n-kjpaw_psl.1.0.0.UPF: wavefunction(s)  3S 3P renormalized

     gamma-point specific algorithms are used
     Message from routine setup:
     using ibrav=0 with symmetry is DISCOURAGED, use correct ibrav instead

     Subspace diagonalization in iterative solution of the eigenvalue problem:
     a serial algorithm will be used

     Using Slab Decomposition

     bravais-lattice index     =            0
     lattice parameter (alat)  =       8.7878  a.u.
     unit-cell volume          =    1857.5277 (a.u.)^3
     number of atoms/cell      =           12
     number of atomic types    =            3
     number of electrons       =       140.00
     number of Kohn-Sham states=           84
     kinetic-energy cutoff     =      30.0000  Ry
     charge density cutoff     =     240.0000  Ry
     scf convergence threshold =      1.0E-06
     mixing beta               =       0.7000
     number of iterations used =            8  plain     mixing
     Exchange-correlation= PBE
                           (   1   4   3   4   0   0   0)

     celldm(1)=   8.787795  celldm(2)=   0.000000  celldm(3)=   0.000000
     celldm(4)=   0.000000  celldm(5)=   0.000000  celldm(6)=   0.000000

     crystal axes: (cart. coord. in units of alat)
               a(1) = (   1.000000   0.000000   0.000000 )
               a(2) = (   0.000000   1.634675   0.000000 )
               a(3) = (   0.000000   0.000000   1.674419 )

     reciprocal axes: (cart. coord. in units 2 pi/alat)
               b(1) = (  1.000000  0.000000  0.000000 )
               b(2) = (  0.000000  0.611743  0.000000 )
               b(3) = (  0.000000  0.000000  0.597222 )

     PseudoPot. # 1 for Pr read from file:
     /home/pragov/projects/rrg-bengioy-ad/pragov/crystal_structure_design/SSSP/Pr.GGA-PBE-paw-v1.0.UPF
     MD5 check sum: b5e1e58e76df433569641143f671cc27
     Pseudo is Projector augmented-wave + core cor, Zval = 13.0
     Generated using ATOMPAW code
     Shape of augmentation charge: BESSEL
     Using radial grid of 1103 points,  8 beta functions with:
                l(1) =   0
                l(2) =   0
                l(3) =   1
                l(4) =   1
                l(5) =   2
                l(6) =   2
                l(7) =   3
                l(8) =   3
     Q(r) pseudized with 0 coefficients

     PseudoPot. # 2 for Al read from file:
     /home/pragov/projects/rrg-bengioy-ad/pragov/crystal_structure_design/SSSP/Al.pbe-n-kjpaw_psl.1.0.0.UPF
     MD5 check sum: cfc449ca30b5f3223ec38ddd88ac046d
     Pseudo is Projector augmented-wave + core cor, Zval =  3.0
     Generated using "atomic" code by A. Dal Corso  v.5.1
     Shape of augmentation charge: PSQ
     Using radial grid of 1135 points,  6 beta functions with:
                l(1) =   0
                l(2) =   0
                l(3) =   1
                l(4) =   1
                l(5) =   2
                l(6) =   2
     Q(r) pseudized with 0 coefficients

     PseudoPot. # 3 for Au read from file:
     /home/pragov/projects/rrg-bengioy-ad/pragov/crystal_structure_design/SSSP/Au_ONCV_PBE-1.0.oncvpsp.upf
     MD5 check sum: d14007822ba0e19f0206237467fc06c2
     Pseudo is Norm-conserving, Zval = 19.0
     Generated using ONCVPSP code by D. R. Hamann
     Using radial grid of 1278 points,  8 beta functions with:
                l(1) =   0
                l(2) =   0
                l(3) =   1
                l(4) =   1
                l(5) =   2
                l(6) =   2
                l(7) =   3
                l(8) =   3

     atomic species   valence    mass     pseudopotential
        Pr            13.00   140.90766     Pr( 1.00)
        Al             3.00    26.98154     Al( 1.00)
        Au            19.00   196.96657     Au( 1.00)

      8 Sym. Ops., with inversion, found ( 6 have fractional translation)

                                    s                        frac. trans.

      isym =  1     identity

 cryst.   s( 1) = (     1          0          0      )
                  (     0          1          0      )
                  (     0          0          1      )

 cart.    s( 1) = (  1.0000000  0.0000000  0.0000000 )
                  (  0.0000000  1.0000000  0.0000000 )
                  (  0.0000000  0.0000000  1.0000000 )

      isym =  2     180 deg rotation - cart. axis [0,0,1]

 cryst.   s( 2) = (    -1          0          0      )    f =(  0.0000000 )
                  (     0         -1          0      )       (  0.5000000 )
                  (     0          0          1      )       ( -0.5000000 )

 cart.    s( 2) = ( -1.0000000  0.0000000  0.0000000 )    f =(  0.0000000 )
                  (  0.0000000 -1.0000000  0.0000000 )       (  0.8173373 )
                  (  0.0000000  0.0000000  1.0000000 )       ( -0.8372096 )

[...]

      isym =  4     180 deg rotation - cart. axis [1,0,0]

[...]

      isym =  5     inversion

 cryst.   s( 5) = (    -1          0          0      )
                  (     0         -1          0      )
                  (     0          0         -1      )

 cart.    s( 5) = ( -1.0000000  0.0000000  0.0000000 )
                  (  0.0000000 -1.0000000  0.0000000 )
                  (  0.0000000  0.0000000 -1.0000000 )

      isym =  6     inv. 180 deg rotation - cart. axis [0,0,1]

[...]

      isym =  8     inv. 180 deg rotation - cart. axis [1,0,0]

 cryst.   s( 8) = (    -1          0          0      )    f =(  0.5000000 )
                  (     0          1          0      )       (  0.0000000 )
                  (     0          0          1      )       (  0.0000000 )

 cart.    s( 8) = ( -1.0000000  0.0000000  0.0000000 )    f =(  0.5000000 )
                  (  0.0000000  1.0000000  0.0000000 )       (  0.0000000 )
                  (  0.0000000  0.0000000  1.0000000 )       (  0.0000000 )

   Cartesian axes

     site n.     atom                  positions (alat units)
         1           Pr  tau(   1) = (   0.2500000   0.0193921   0.5112839  )
         2           Pr  tau(   2) = (   0.2500000   0.8367295   0.3259257  )
         3           Pr  tau(   3) = (   0.7500000   1.6152825   1.1631353  )
         4           Pr  tau(   4) = (   0.7500000   0.7979452   1.3484935  )
         5           Al  tau(   5) = (   0.2500000   0.2865323   1.5345114  )
         6           Al  tau(   6) = (   0.2500000   1.1038696   0.9771173  )
         7           Al  tau(   7) = (   0.7500000   1.3481423   0.1399078  )
         8           Al  tau(   8) = (   0.7500000   0.5308050   0.6973018  )
         9           Au  tau(   9) = (   0.2500000   0.4962382   0.9878571  )
        10           Au  tau(  10) = (   0.2500000   1.3135755   1.5237716  )
        11           Au  tau(  11) = (   0.7500000   1.1384364   0.6865621  )
        12           Au  tau(  12) = (   0.7500000   0.3210991   0.1506475  )

   Crystallographic axes

     site n.     atom                  positions (cryst. coord.)
         1           Pr  tau(   1) = (  0.2500000  0.0118630  0.3053500  )
         2           Pr  tau(   2) = (  0.2500000  0.5118630  0.1946500  )
         3           Pr  tau(   3) = (  0.7500000  0.9881370  0.6946500  )
         4           Pr  tau(   4) = (  0.7500000  0.4881370  0.8053500  )
         5           Al  tau(   5) = (  0.2500000  0.1752840  0.9164440  )
         6           Al  tau(   6) = (  0.2500000  0.6752840  0.5835560  )
         7           Al  tau(   7) = (  0.7500000  0.8247160  0.0835560  )
         8           Al  tau(   8) = (  0.7500000  0.3247160  0.4164440  )
         9           Au  tau(   9) = (  0.2500000  0.3035700  0.5899700  )
        10           Au  tau(  10) = (  0.2500000  0.8035700  0.9100300  )
        11           Au  tau(  11) = (  0.7500000  0.6964300  0.4100300  )
        12           Au  tau(  12) = (  0.7500000  0.1964300  0.0899700  )

     number of k points=     1  Methfessel-Paxton smearing, width (Ry)=  0.0010
                       cart. coord. in units 2pi/alat
        k(    1) = (   0.0000000   0.0000000   0.0000000), wk =   2.0000000

                       cryst. coord.
        k(    1) = (   0.0000000   0.0000000   0.0000000), wk =   2.0000000

     Initial potential from superposition of free atoms

     starting charge     139.9608, renormalised to     140.0000
     Starting wfcs are  184 randomized atomic wfcs
     Checking if some PAW data can be deallocated...

     Self-consistent Calculation

     iteration #  1     ecut=    30.00 Ry     beta= 0.70
     Davidson diagonalization with overlap

     ethr =  1.00E-02,  avg # of iterations =  2.0

     total energy              =   -3287.90791742 Ry
     estimated scf accuracy    <       1.82869310 Ry

[...]

     ethr =  1.08E-04,  avg # of iterations =  1.0
     Minimization algorithm failed to find Fermi energy: reverting to bisection
     Possible cause: smearing is larger than the electronic band-gap.

[...]

     c_bands:  3 eigenvalues not converged
     ethr =  3.77E-06,  avg # of iterations = 20.0

[...]

     total energy              =   -3289.86391824 Ry
     estimated scf accuracy    <       0.00001356 Ry

     iteration # 98     ecut=    30.00 Ry     beta= 0.70
     Davidson diagonalization with overlap

     ethr =  7.96E-10,  avg # of iterations =  2.0

     End of self-consistent calculation

          k = 0.0000 0.0000 0.0000 (  2586 PWs)   bands (ev):

   -94.5566 -94.5565 -94.5563 -94.5562 -45.6438 -45.6435 -45.6432 -45.6421
   -45.5530 -45.5496 -45.5472 -45.5469 -45.4256 -45.4234 -45.4226 -45.4214
   -22.9087 -22.8805 -22.8752 -22.8492  -5.3359  -5.2409  -5.2345  -5.1670
    -4.9219  -4.9100  -4.8668  -4.8457  -4.8343  -4.7905  -4.6956  -4.6421
     4.5801   6.0440   6.2245   6.3042   7.1931   7.3181   7.3955   7.4850
     7.6024   7.6350   7.6493   7.7604   7.7651   7.7656   7.8130   7.9211
     7.9379   7.9386   8.0004   8.0833   8.0844   8.1015   8.1042   8.6680
     9.2803  10.1362  10.4495  11.6305  11.6475  11.7259  11.9852  12.1706
    12.8049  12.8161  12.8573  12.9034  13.0324  13.0354  13.0386  13.0548
    13.0909  13.1011  13.1133  13.1373  13.1718  13.1780  13.1829  13.2118
    13.2408  13.2465  13.2678  13.2713

     occupation numbers
     1.0000   1.0000   1.0000   1.0000   1.0000   1.0000   1.0000   1.0000
     1.0000   1.0000   1.0000   1.0000   1.0000   1.0000   1.0000   1.0000
     1.0000   1.0000   1.0000   1.0000   1.0000   1.0000   1.0000   1.0000
     1.0000   1.0000   1.0000   1.0000   1.0000   1.0000   1.0000   1.0000
     1.0000   1.0000   1.0000   1.0000   1.0000   1.0000   1.0000   1.0000
     1.0000   1.0000   1.0000   1.0000   1.0000   1.0000   1.0000   1.0000
     1.0000   1.0000   1.0000   1.0000   1.0000   1.0000   1.0000   1.0000
     1.0000   1.0000   1.0000   1.0000   1.0000   1.0000   1.0000   1.0000
     1.0000   1.0000   1.0000   1.0000   0.8448   0.6934   0.4971  -0.0353
    -0.0000  -0.0000  -0.0000  -0.0000  -0.0000  -0.0000  -0.0000  -0.0000
    -0.0000  -0.0000  -0.0000  -0.0000

     the Fermi energy is    13.0386 ev

!    total energy              =   -3289.86391759 Ry
     estimated scf accuracy    <       0.00000059 Ry
     smearing contrib. (-TS)   =      -0.00052787 Ry
     internal energy E=F+TS    =   -3289.86338972 Ry

     The total energy is F=E-TS. E is the sum of the following terms:
     one-electron contribution =    -682.55205749 Ry
     hartree contribution      =     401.08811959 Ry
     xc contribution           =    -158.97111369 Ry
     ewald contribution        =   -1032.60003350 Ry
     one-center paw contrib.   =   -1816.82830462 Ry
      -> PAW hartree energy AE =     257.07705032 Ry
      -> PAW hartree energy PS =    -257.07716684 Ry
      -> PAW xc energy AE      =   -1866.54214511 Ry
      -> PAW xc energy PS      =      49.71395701 Ry
      -> total E_H with PAW    =     401.08800306 Ry
      -> total E_XC with PAW   =   -1975.79930179 Ry

     convergence has been achieved in  98 iterations

     Forces acting on atoms (cartesian axes, Ry/au):

     atom    1 type  1   force =     0.00000000    0.01411201   -0.02189005
     atom    2 type  1   force =     0.00000000    0.01411201    0.02189005
     atom    3 type  1   force =     0.00000000   -0.01411201    0.02189005
     atom    4 type  1   force =     0.00000000   -0.01411201   -0.02189005
     atom    5 type  2   force =     0.00000000   -0.00869572   -0.04703308
     atom    6 type  2   force =     0.00000000   -0.00869572    0.04703308
     atom    7 type  2   force =     0.00000000    0.00869572    0.04703308
     atom    8 type  2   force =     0.00000000    0.00869572   -0.04703308
     atom    9 type  3   force =    -0.00000000    0.01688665    0.01859514
     atom   10 type  3   force =     0.00000000    0.01688665   -0.01859514
     atom   11 type  3   force =    -0.00000000   -0.01688665   -0.01859514
     atom   12 type  3   force =     0.00000000   -0.01688665    0.01859514
     The non-local contrib.  to forces
     atom    1 type  1   force =     0.00000000   -0.13348750   -0.04108620
     atom    2 type  1   force =    -0.00000000   -0.13348750    0.04108620
     atom    3 type  1   force =    -0.00000000    0.13348750    0.04108620
     atom    4 type  1   force =    -0.00000000    0.13348750   -0.04108620
     atom    5 type  2   force =     0.00000000    0.00008366    0.03446050
     atom    6 type  2   force =    -0.00000000    0.00008366   -0.03446050
     atom    7 type  2   force =     0.00000000   -0.00008366   -0.03446050
     atom    8 type  2   force =     0.00000000   -0.00008366    0.03446050
     atom    9 type  3   force =    -0.00000000   -0.06375792   -0.11272175
     atom   10 type  3   force =     0.00000000   -0.06375792    0.11272175
     atom   11 type  3   force =    -0.00000000    0.06375792    0.11272175
     atom   12 type  3   force =     0.00000000    0.06375792   -0.11272175
     The ionic contribution  to forces
     atom    1 type  1   force =     0.00000000   -1.69928910    2.50930884
     atom    2 type  1   force =    -0.00000000   -1.69928910   -2.50930884
     atom    3 type  1   force =    -0.00000000    1.69928910   -2.50930884
     atom    4 type  1   force =    -0.00000000    1.69928910    2.50930884
     atom    5 type  2   force =     0.00000000    0.73098202   -0.23244564
     atom    6 type  2   force =     0.00000000    0.73098202    0.23244564
     atom    7 type  2   force =     0.00000000   -0.73098202    0.23244564
     atom    8 type  2   force =     0.00000000   -0.73098202   -0.23244564
     atom    9 type  3   force =    -0.00000000   -1.64180477    0.82014164
     atom   10 type  3   force =     0.00000000   -1.64180477   -0.82014164
     atom   11 type  3   force =    -0.00000000    1.64180477   -0.82014164
     atom   12 type  3   force =     0.00000000    1.64180477    0.82014164
     The local contribution  to forces
     atom    1 type  1   force =    -0.00001527    1.84724246   -2.49024158
     atom    2 type  1   force =     0.00001196    1.84670284    2.49013154
     atom    3 type  1   force =    -0.00000972   -1.84653859    2.49018887
     atom    4 type  1   force =    -0.00000809   -1.84696866   -2.49009095
     atom    5 type  2   force =     0.00000088   -0.73965390    0.15440143
     atom    6 type  2   force =    -0.00000016   -0.73969042   -0.15442963
     atom    7 type  2   force =    -0.00000055    0.73963035   -0.15457424
     atom    8 type  2   force =     0.00000170    0.73968930    0.15453172
     atom    9 type  3   force =    -0.00000468    1.72261498   -0.68842437
     atom   10 type  3   force =     0.00001216    1.72256585    0.68843717
     atom   11 type  3   force =     0.00000083   -1.72291052    0.68898093
     atom   12 type  3   force =    -0.00000286   -1.72223716   -0.68911253
     The core correction contribution to forces
     atom    1 type  1   force =    -0.00000000    0.00003020   -0.00001426
     atom    2 type  1   force =     0.00000000    0.00003012    0.00001423
     atom    3 type  1   force =    -0.00000000   -0.00003008    0.00001419
     atom    4 type  1   force =    -0.00000000   -0.00003014   -0.00001420
     atom    5 type  2   force =     0.00000002   -0.00011534   -0.00354339
     atom    6 type  2   force =    -0.00000006   -0.00011639    0.00354370
     atom    7 type  2   force =    -0.00000002    0.00011559    0.00354342
     atom    8 type  2   force =     0.00000014    0.00011535   -0.00354347
     atom    9 type  3   force =     0.00000000    0.00000000    0.00000000
     atom   10 type  3   force =     0.00000000    0.00000000    0.00000000
     atom   11 type  3   force =     0.00000000    0.00000000    0.00000000
     atom   12 type  3   force =     0.00000000    0.00000000    0.00000000
     The Hubbard contrib.    to forces
     atom    1 type  1   force =     0.00000000    0.00000000    0.00000000
     atom    2 type  1   force =     0.00000000    0.00000000    0.00000000
     atom    3 type  1   force =     0.00000000    0.00000000    0.00000000
     atom    4 type  1   force =     0.00000000    0.00000000    0.00000000
     atom    5 type  2   force =     0.00000000    0.00000000    0.00000000
     atom    6 type  2   force =     0.00000000    0.00000000    0.00000000
     atom    7 type  2   force =     0.00000000    0.00000000    0.00000000
     atom    8 type  2   force =     0.00000000    0.00000000    0.00000000
     atom    9 type  3   force =     0.00000000    0.00000000    0.00000000
     atom   10 type  3   force =     0.00000000    0.00000000    0.00000000
     atom   11 type  3   force =     0.00000000    0.00000000    0.00000000
     atom   12 type  3   force =     0.00000000    0.00000000    0.00000000
     The SCF correction term to forces
     atom    1 type  1   force =     0.00000972   -0.00024619    0.00006402
     atom    2 type  1   force =    -0.00000404    0.00013647    0.00000742
     atom    3 type  1   force =     0.00001106   -0.00021469   -0.00017947
     atom    4 type  1   force =     0.00000427    0.00012361    0.00002297
     atom    5 type  2   force =    -0.00000041    0.00001132    0.00008835
     atom    6 type  2   force =    -0.00000010    0.00003875   -0.00006306
     atom    7 type  2   force =     0.00000018    0.00001018    0.00007264
     atom    8 type  2   force =    -0.00000050   -0.00004115   -0.00003357
     atom    9 type  3   force =     0.00000795   -0.00015257   -0.00039273
     atom   10 type  3   force =    -0.00001310   -0.00014221    0.00037462
     atom   11 type  3   force =    -0.00000192    0.00045548   -0.00014035
     atom   12 type  3   force =     0.00000097   -0.00021913    0.00028305

     Total force =     0.119950     Total SCF correction =     0.000945

     Computing stress (Cartesian axis) and pressure

          total   stress  (Ry/bohr**3)                   (kbar)     P=     -311.25
  -0.00172575   0.00000000   0.00000000         -253.87        0.00        0.00
   0.00000000  -0.00222132   0.00000000            0.00     -326.77        0.00
   0.00000000   0.00000000  -0.00240053            0.00        0.00     -353.13

     kinetic stress (kbar)  22093.51      0.00      0.00
                                0.00  22191.84      0.00
                                0.00      0.00  21917.30

     local   stress (kbar)  -8266.57      0.00      0.00
                                0.00  -8172.13      0.01
                                0.00      0.01  -7650.52

     nonloc. stress (kbar)   6245.38      0.00      0.00
                                0.00   6142.82      0.00
                                0.00      0.00   6216.31

     hartree stress (kbar)  10570.57      0.00      0.00
                                0.00  10821.06     -0.00
                                0.00     -0.00  10372.14

     exc-cor stress (kbar)  -3561.19      0.00      0.00
                                0.00  -3563.95     -0.00
                                0.00     -0.00  -3565.34

     corecor stress (kbar)   -318.50     -0.00     -0.00
                               -0.00   -315.57      0.00
                               -0.00      0.00   -315.18

     ewald   stress (kbar) -27017.06     -0.00     -0.00
                               -0.00 -27430.83      0.00
                               -0.00      0.00 -27327.85

     hubbard stress (kbar)      0.00      0.00      0.00
                                0.00      0.00      0.00
                                0.00      0.00      0.00

     DFT-D   stress (kbar)      0.00      0.00      0.00
                                0.00      0.00      0.00
                                0.00      0.00      0.00

     XDM     stress (kbar)      0.00      0.00      0.00
                                0.00      0.00      0.00
                                0.00      0.00      0.00

     dft-nl  stress (kbar)      0.00      0.00      0.00
                                0.00      0.00      0.00
                                0.00      0.00      0.00

     TS-vdW  stress (kbar)      0.00      0.00      0.00
                                0.00      0.00      0.00
                                0.00      0.00      0.00

[...]

                                0.00      0.00      0.00

     Writing all to output data dir new_calculations/myprefix.save/

     General routines

     Parallel routines

     PAW routines

   This run was terminated on:  16:32:59  20May2023

   JOB DONE.