     Program PWSCF v.7.0 starts on 20May2023 at 18:27:58

     Reading input from espresso_7584.pwi
Warning: card &CELL ignored
Warning: card / ignored

     Current dimensions of program PWSCF are:
     Max number of different atomic species (ntypx) = 10
     Max number of k-points (npk) =  40000
     Max angular momentum in pseudopotentials (lmaxx) =  4
     file C.pbe-n-kjpaw_psl.1.0.0.UPF: wavefunction(s)  2S 2P renormalized
     file O.pbe-n-kjpaw_psl.0.1.UPF: wavefunction(s)  2P renormalized

     gamma-point specific algorithms are used
     Message from routine setup:
     using ibrav=0 with symmetry is DISCOURAGED, use correct ibrav instead

     Subspace diagonalization in iterative solution of the eigenvalue problem:
     a serial algorithm will be used

     Using Slab Decomposition

     bravais-lattice index     =            0
     lattice parameter (alat)  =      13.9685  a.u.
     unit-cell volume          =    2154.4270 (a.u.)^3
     number of atoms/cell      =           16
     number of atomic types    =            4
     number of electrons       =       112.00
     number of Kohn-Sham states=           67
     kinetic-energy cutoff     =      30.0000  Ry
     charge density cutoff     =     240.0000  Ry
     scf convergence threshold =      1.0E-06
     mixing beta               =       0.7000
     number of iterations used =            8  plain     mixing
     Exchange-correlation=  SLA  PW   PBX  PBC
                           (   1   4   3   4   0   0   0)

     celldm(1)=  13.968479  celldm(2)=   0.000000  celldm(3)=   0.000000
     celldm(4)=   0.000000  celldm(5)=   0.000000  celldm(6)=   0.000000

     crystal axes: (cart. coord. in units of alat)
               a(1) = (   1.000000   0.000000   0.000000 )
               a(2) = (   0.415983   0.909373   0.000000 )
               a(3) = (   0.415983   0.267152   0.869246 )

     reciprocal axes: (cart. coord. in units 2 pi/alat)
               b(1) = (  1.000000 -0.457439 -0.337967 )
               b(2) = (  0.000000  1.099659 -0.337967 )
               b(3) = (  0.000000  0.000000  1.150423 )

     PseudoPot. # 1 for Rb read from file:
     /home/pragov/projects/rrg-bengioy-ad/pragov/crystal_structure_design/SSSP/Rb_ONCV_PBE-1.0.oncvpsp.upf
     MD5 check sum: 55a5172d6bfbce6759a58e35d43f6aa9
     Pseudo is Norm-conserving, Zval =  9.0
     Generated using ONCVPSP code by D. R. Hamann
     Using radial grid of 2308 points,  6 beta functions with:
                l(1) =   0
                l(2) =   0
                l(3) =   1
                l(4) =   1
                l(5) =   2
                l(6) =   2

     PseudoPot. # 2 for C  read from file:
     /home/pragov/projects/rrg-bengioy-ad/pragov/crystal_structure_design/SSSP/C.pbe-n-kjpaw_psl.1.0.0.UPF
     MD5 check sum: 5d2aebdfa2cae82b50a7e79e9516da0f
     Pseudo is Projector augmented-wave + core cor, Zval =  4.0
     Generated using "atomic" code by A. Dal Corso  v.5.1
     Shape of augmentation charge: PSQ
     Using radial grid of 1073 points,  4 beta functions with:
                l(1) =   0
                l(2) =   0
                l(3) =   1
                l(4) =   1
     Q(r) pseudized with 0 coefficients

     PseudoPot. # 3 for O  read from file:
     /home/pragov/projects/rrg-bengioy-ad/pragov/crystal_structure_design/SSSP/O.pbe-n-kjpaw_psl.0.1.UPF
     MD5 check sum: 0234752ac141de4415c5fc33072bef88
     Pseudo is Projector augmented-wave + core cor, Zval =  6.0
     Generated using "atomic" code by A. Dal Corso  v.5.0.99 svn rev. 10869
     Shape of augmentation charge: BESSEL
     Using radial grid of 1095 points,  4 beta functions with:
                l(1) =   0
                l(2) =   0
                l(3) =   1
                l(4) =   1
     Q(r) pseudized with 0 coefficients

     PseudoPot. # 4 for F  read from file:
     /home/pragov/projects/rrg-bengioy-ad/pragov/crystal_structure_design/SSSP/f_pbe_v1.4.uspp.F.UPF
     MD5 check sum: 4c38b6a325caf53ec0e86aed9459de46
     Pseudo is Ultrasoft, Zval =  7.0
     Generated by new atomic code, or converted to UPF format
     Using radial grid of  799 points,  4 beta functions with:
                l(1) =   0
                l(2) =   0
                l(3) =   1
                l(4) =   1
     Q(r) pseudized with  8 coefficients,  rinner =    0.950   0.950   0.950

     atomic species   valence    mass     pseudopotential
        Rb             9.00    85.46780     Rb( 1.00)
        C              4.00    12.01100     C ( 1.00)
        O              6.00    15.99900     O ( 1.00)
        F              7.00    18.99840     F ( 1.00)

      2 Sym. Ops., with inversion, found

                                    s                        frac. trans.

      isym =  1     identity

 cryst.   s( 1) = (     1          0          0      )
                  (     0          1          0      )
                  (     0          0          1      )

 cart.    s( 1) = (  1.0000000  0.0000000  0.0000000 )
                  (  0.0000000  1.0000000 -0.0000000 )
                  (  0.0000000  0.0000000  1.0000000 )

      isym =  2     inversion

 cryst.   s( 2) = (    -1          0          0      )
                  (     0         -1          0      )
                  (     0          0         -1      )

 cart.    s( 2) = ( -1.0000000 -0.0000000 -0.0000000 )
                  (  0.0000000 -1.0000000  0.0000000 )
                  (  0.0000000  0.0000000 -1.0000000 )

   Cartesian axes

     site n.     atom                  positions (alat units)
         1           Rb  tau(   1) = (   0.7122536   0.7276513   0.1484420  )
         2           Rb  tau(   2) = (   0.6197114   0.4997562   0.6519343  )
         3           Rb  tau(   3) = (   0.9579913   0.2432488   0.2861809  )
         4           Rb  tau(   4) = (   1.1197114   0.4488737   0.7208037  )
         5           Rb  tau(   5) = (   1.2122536   0.6767689   0.2173114  )
         6           Rb  tau(   6) = (   0.8739738   0.9332762   0.5830648  )
         7           C   tau(   7) = (   0.4579913   0.2941313   0.2173114  )
         8           C   tau(   8) = (   1.3739738   0.8823938   0.6519343  )
         9           O   tau(   9) = (   1.4697644   0.8385754   0.5093606  )
        10           O   tau(  10) = (   1.2781833   1.0315491   0.6519343  )
        11           O   tau(  11) = (   1.3739738   0.7770568   0.7945079  )
        12           O   tau(  12) = (   0.3622007   0.3379496   0.3598851  )
        13           O   tau(  13) = (   0.4579913   0.3994682   0.0747377  )
        14           O   tau(  14) = (   0.5537818   0.1449760   0.2173114  )
        15           F   tau(  15) = (   0.0000000   0.0000000   0.0000000  )
        16           F   tau(  16) = (   0.9159825   0.5882625   0.4346228  )

   Crystallographic axes

     site n.     atom                  positions (cryst. coord.)
         1           Rb  tau(   1) = (  0.3292290  0.7500000  0.1707710  )
         2           Rb  tau(   2) = (  0.1707710  0.3292290  0.7500000  )
         3           Rb  tau(   3) = (  0.7500000  0.1707710  0.3292290  )
         4           Rb  tau(   4) = (  0.6707710  0.2500000  0.8292290  )
         5           Rb  tau(   5) = (  0.8292290  0.6707710  0.2500000  )
         6           Rb  tau(   6) = (  0.2500000  0.8292290  0.6707710  )
         7           C   tau(   7) = (  0.2500000  0.2500000  0.2500000  )
         8           C   tau(   8) = (  0.7500000  0.7500000  0.7500000  )
         9           O   tau(   9) = (  0.9140200  0.7500000  0.5859800  )
        10           O   tau(  10) = (  0.5859800  0.9140200  0.7500000  )
        11           O   tau(  11) = (  0.7500000  0.5859800  0.9140200  )
        12           O   tau(  12) = (  0.0859800  0.2500000  0.4140200  )
        13           O   tau(  13) = (  0.2500000  0.4140200  0.0859800  )
        14           O   tau(  14) = (  0.4140200  0.0859800  0.2500000  )
        15           F   tau(  15) = (  0.0000000  0.0000000  0.0000000  )
        16           F   tau(  16) = (  0.5000000  0.5000000  0.5000000  )

     number of k points=     1  Methfessel-Paxton smearing, width (Ry)=  0.0010
                       cart. coord. in units 2pi/alat
        k(    1) = (   0.0000000   0.0000000   0.0000000), wk =   2.0000000

                       cryst. coord.
        k(    1) = (   0.0000000   0.0000000   0.0000000), wk =   2.0000000

     Check: negative core charge=   -0.000011

     Initial potential from superposition of free atoms

     starting charge     111.8513, renormalised to     112.0000
     Starting wfcs are   70 randomized atomic wfcs
     Checking if some PAW data can be deallocated...

     Self-consistent Calculation

     iteration #  1     ecut=    30.00 Ry     beta= 0.70
     Davidson diagonalization with overlap

     ethr =  1.00E-02,  avg # of iterations =  9.0

     total energy              =    -677.27486982 Ry
     estimated scf accuracy    <       2.43235642 Ry

[...]

     total energy              =    -678.34189510 Ry
     estimated scf accuracy    <       0.00000314 Ry

     iteration #  9     ecut=    30.00 Ry     beta= 0.70
     Davidson diagonalization with overlap

     ethr =  2.81E-09,  avg # of iterations =  2.0

     End of self-consistent calculation

          k = 0.0000 0.0000 0.0000 (  2971 PWs)   bands (ev):

   -21.5576 -21.4696 -21.4695 -21.4189 -21.4189 -21.4137 -17.2131 -17.2077
   -17.1300 -17.0564 -14.1902 -14.1901 -14.1763 -14.1762  -6.0559  -6.0559
    -6.0235  -5.8939  -5.8939  -5.8396  -5.7462  -5.6295  -5.5123  -5.5122
    -5.4681  -5.4681  -5.3433  -5.3433  -5.3276  -5.2487  -5.2487  -5.2434
    -3.1752  -3.1657  -1.3844  -1.3844  -1.3624  -1.3623  -1.1433  -1.1105
     1.1009   1.1009   1.1859   1.5778   1.6396   1.6396   2.4909   2.4910
     2.6206   2.6207   2.6332   2.6332   2.7748   2.7749   4.0241   4.1534
     7.5265   9.3851   9.6717   9.7767  10.1329  10.1329  10.3417  10.3725
    10.3725  10.6960  10.6961

     occupation numbers
     1.0000   1.0000   1.0000   1.0000   1.0000   1.0000   1.0000   1.0000
     1.0000   1.0000   1.0000   1.0000   1.0000   1.0000   1.0000   1.0000
     1.0000   1.0000   1.0000   1.0000   1.0000   1.0000   1.0000   1.0000
     1.0000   1.0000   1.0000   1.0000   1.0000   1.0000   1.0000   1.0000
     1.0000   1.0000   1.0000   1.0000   1.0000   1.0000   1.0000   1.0000
     1.0000   1.0000   1.0000   1.0000   1.0000   1.0000   1.0000   1.0000
     1.0000   1.0000   1.0000   1.0000   1.0000   1.0000   1.0000   1.0000
    -0.0000  -0.0000  -0.0000  -0.0000  -0.0000  -0.0000  -0.0000  -0.0000
    -0.0000  -0.0000  -0.0000

     the Fermi energy is     6.7664 ev

!    total energy              =    -678.34189535 Ry
     estimated scf accuracy    <       0.00000032 Ry
     smearing contrib. (-TS)   =       0.00000000 Ry
     internal energy E=F+TS    =    -678.34189535 Ry

     The total energy is F=E-TS. E is the sum of the following terms:
     one-electron contribution =    -256.89298021 Ry
     hartree contribution      =     178.80641378 Ry
     xc contribution           =    -118.08237409 Ry
     ewald contribution        =    -412.73439372 Ry
     one-center paw contrib.   =     -69.43856110 Ry
      -> PAW hartree energy AE =     202.28170697 Ry
      -> PAW hartree energy PS =    -201.61945382 Ry
      -> PAW xc energy AE      =    -125.05258949 Ry
      -> PAW xc energy PS      =      54.95177524 Ry
      -> total E_H with PAW    =     179.46866692 Ry
      -> total E_XC with PAW   =    -188.18318834 Ry

     convergence has been achieved in   9 iterations

     Forces acting on atoms (cartesian axes, Ry/au):

     atom    1 type  1   force =     0.00113377   -0.00053386   -0.00169267
     atom    2 type  1   force =    -0.00113236    0.00177605    0.00001051
     atom    3 type  1   force =     0.00000134   -0.00123108    0.00166576
     atom    4 type  1   force =    -0.00113377    0.00053386    0.00169267
     atom    5 type  1   force =     0.00113236   -0.00177605   -0.00001051
     atom    6 type  1   force =    -0.00000134    0.00123108   -0.00166576
     atom    7 type  2   force =    -0.00000043    0.00000398   -0.00000483
     atom    8 type  2   force =     0.00000043   -0.00000398    0.00000483
     atom    9 type  3   force =    -0.00502900    0.00229679    0.00749022
     atom   10 type  3   force =     0.00502900   -0.00783365    0.00000451
     atom   11 type  3   force =    -0.00000014    0.00553860   -0.00749444
     atom   12 type  3   force =     0.00502900   -0.00229679   -0.00749022
     atom   13 type  3   force =     0.00000014   -0.00553860    0.00749444
     atom   14 type  3   force =    -0.00502900    0.00783365   -0.00000451
     atom   15 type  4   force =     0.00000000    0.00000000    0.00000000
     atom   16 type  4   force =     0.00000000    0.00000000    0.00000000
     The non-local contrib.  to forces
     atom    1 type  1   force =    -0.02416874    0.01105730    0.03597288
     atom    2 type  1   force =     0.02416879   -0.03763468   -0.00000021
     atom    3 type  1   force =    -0.00000075    0.02657315   -0.03596741
     atom    4 type  1   force =     0.02416874   -0.01105730   -0.03597288
     atom    5 type  1   force =    -0.02416879    0.03763468    0.00000021
     atom    6 type  1   force =     0.00000075   -0.02657315    0.03596741
     atom    7 type  2   force =     0.00000195   -0.00001286    0.00001337
     atom    8 type  2   force =    -0.00000195    0.00001286   -0.00001337
     atom    9 type  3   force =    -1.04581832    0.47838759    1.55660335
     atom   10 type  3   force =     1.04581706   -1.62844960    0.00001097
     atom   11 type  3   force =     0.00000488    1.15004386   -1.55659323
     atom   12 type  3   force =     1.04581832   -0.47838759   -1.55660335
     atom   13 type  3   force =    -0.00000488   -1.15004386    1.55659323
     atom   14 type  3   force =    -1.04581706    1.62844960   -0.00001097
     atom   15 type  4   force =     0.00000000    0.00000000    0.00000000
     atom   16 type  4   force =     0.00000000    0.00000000    0.00000000
     The ionic contribution  to forces
     atom    1 type  1   force =    -0.54798771    0.25067109    0.81561938
     atom    2 type  1   force =     0.54798746   -0.85327032    0.00000000
     atom    3 type  1   force =    -0.00000013    0.60259980   -0.81561938
     atom    4 type  1   force =     0.54798771   -0.25067109   -0.81561938
     atom    5 type  1   force =    -0.54798746    0.85327032   -0.00000000
     atom    6 type  1   force =     0.00000013   -0.60259980    0.81561938
     atom    7 type  2   force =     0.00000066   -0.00000102   -0.00000000
     atom    8 type  2   force =    -0.00000066    0.00000102   -0.00000000
     atom    9 type  3   force =     5.18656188   -2.37253633   -7.71962702
     atom   10 type  3   force =    -5.18656161    8.07598604   -0.00000000
     atom   11 type  3   force =     0.00000054   -5.70345095    7.71962702
     atom   12 type  3   force =    -5.18656188    2.37253633    7.71962702
     atom   13 type  3   force =    -0.00000054    5.70345095   -7.71962702
     atom   14 type  3   force =     5.18656161   -8.07598604   -0.00000000
     atom   15 type  4   force =    -0.00000000   -0.00000000   -0.00000000
     atom   16 type  4   force =     0.00000000   -0.00000000    0.00000000
     The local contribution  to forces
     atom    1 type  1   force =     0.57328754   -0.26223293   -0.85327128
     atom    2 type  1   force =    -0.57329574    0.89267736    0.00000517
     atom    3 type  1   force =    -0.00000886   -0.63046520    0.85331653
     atom    4 type  1   force =    -0.57329824    0.26224229    0.85328094
     atom    5 type  1   force =     0.57330129   -0.89267152   -0.00001361
     atom    6 type  1   force =    -0.00000214    0.63045704   -0.85332220
     atom    7 type  2   force =     0.00000556    0.00000472   -0.00002096
     atom    8 type  2   force =     0.00001188   -0.00002319    0.00001494
     atom    9 type  3   force =    -4.15519563    1.90075469    6.18453836
     atom   10 type  3   force =     4.15520799   -6.47004031   -0.00001452
     atom   11 type  3   force =     0.00000234    4.56931118   -6.18457825
     atom   12 type  3   force =     4.15523994   -1.90078246   -6.18458590
     atom   13 type  3   force =     0.00000460   -4.56935779    6.18461414
     atom   14 type  3   force =    -4.15522722    6.47006817    0.00000616
     atom   15 type  4   force =     0.00000096   -0.00000459    0.00000376
     atom   16 type  4   force =    -0.00000709   -0.00000520    0.00000393
     The core correction contribution to forces
     atom    1 type  1   force =     0.00000000    0.00000000    0.00000000
     atom    2 type  1   force =     0.00000000    0.00000000    0.00000000
     atom    3 type  1   force =     0.00000000    0.00000000    0.00000000
     atom    4 type  1   force =     0.00000000    0.00000000    0.00000000
     atom    5 type  1   force =     0.00000000    0.00000000    0.00000000
     atom    6 type  1   force =     0.00000000    0.00000000    0.00000000
     atom    7 type  2   force =    -0.00000015    0.00000045   -0.00000019
     atom    8 type  2   force =    -0.00000008   -0.00000008    0.00000035
     atom    9 type  3   force =     0.00952950   -0.00435900   -0.01418398
     atom   10 type  3   force =    -0.00952956    0.01483861   -0.00000013
     atom   11 type  3   force =    -0.00000011   -0.01047919    0.01418377
     atom   12 type  3   force =    -0.00952948    0.00435898    0.01418389
     atom   13 type  3   force =     0.00000007    0.01047906   -0.01418357
     atom   14 type  3   force =     0.00952942   -0.01483849    0.00000016
     atom   15 type  4   force =     0.00000000    0.00000000    0.00000000
     atom   16 type  4   force =     0.00000000    0.00000000    0.00000000
     The Hubbard contrib.    to forces
     atom    1 type  1   force =     0.00000000    0.00000000    0.00000000
     atom    2 type  1   force =     0.00000000    0.00000000    0.00000000
     atom    3 type  1   force =     0.00000000    0.00000000    0.00000000
     atom    4 type  1   force =     0.00000000    0.00000000    0.00000000
     atom    5 type  1   force =     0.00000000    0.00000000    0.00000000
     atom    6 type  1   force =     0.00000000    0.00000000    0.00000000
     atom    7 type  2   force =     0.00000000    0.00000000    0.00000000
     atom    8 type  2   force =     0.00000000    0.00000000    0.00000000
     atom    9 type  3   force =     0.00000000    0.00000000    0.00000000
     atom   10 type  3   force =     0.00000000    0.00000000    0.00000000
     atom   11 type  3   force =     0.00000000    0.00000000    0.00000000
     atom   12 type  3   force =     0.00000000    0.00000000    0.00000000
     atom   13 type  3   force =     0.00000000    0.00000000    0.00000000
     atom   14 type  3   force =     0.00000000    0.00000000    0.00000000
     atom   15 type  4   force =     0.00000000    0.00000000    0.00000000
     atom   16 type  4   force =     0.00000000    0.00000000    0.00000000
     The SCF correction term to forces
     atom    1 type  1   force =     0.00000484   -0.00002963   -0.00001379
     atom    2 type  1   force =     0.00000480    0.00000293    0.00000720
     atom    3 type  1   force =     0.00001399    0.00006013   -0.00006285
     atom    4 type  1   force =     0.00001020    0.00001967    0.00000384
     atom    5 type  1   force =    -0.00001502   -0.00001027    0.00000452
     atom    6 type  1   force =     0.00000284   -0.00005405    0.00007078
     atom    7 type  2   force =    -0.00001622    0.00002371    0.00000662
     atom    8 type  2   force =    -0.00001654    0.00001642    0.00000659
     atom    9 type  3   force =    -0.00010580    0.00005066    0.00015561
     atom   10 type  3   force =     0.00009375   -0.00016876    0.00000949
     atom   11 type  3   force =    -0.00000957    0.00011118   -0.00012751
     atom   12 type  3   force =     0.00006272   -0.00002123   -0.00011576
     atom   13 type  3   force =    -0.00000089   -0.00006946    0.00010390
     atom   14 type  3   force =    -0.00007710    0.00014003    0.00000145
     atom   15 type  4   force =    -0.00000344    0.00000701   -0.00000507
     atom   16 type  4   force =     0.00001273    0.00000919   -0.00000666

     Total force =     0.023381     Total SCF correction =     0.000427

     Computing stress (Cartesian axis) and pressure

          total   stress  (Ry/bohr**3)                   (kbar)     P=     -151.98
  -0.00105021  -0.00002414  -0.00001784         -154.49       -3.55       -2.62
  -0.00002414  -0.00102814  -0.00001145           -3.55     -151.24       -1.68
  -0.00001784  -0.00001145  -0.00102109           -2.62       -1.68     -150.21

     kinetic stress (kbar)  10894.77     68.21     50.39
                               68.21  10832.37     32.37
                               50.39     32.37  10812.48

     local   stress (kbar)  -1491.48   3759.97   2777.96
                             3759.97  -4931.39   1784.06
                             2777.96   1784.06  -6028.01

     nonloc. stress (kbar)    969.63     -0.22     -0.16
                               -0.22    969.83     -0.10
                               -0.16     -0.10    969.90

     hartree stress (kbar)   3104.07  -1365.49  -1008.85
                            -1365.49   4353.32   -647.91
                            -1008.85   -647.91   4751.58

     exc-cor stress (kbar)  -2174.65     -7.25     -5.36
                               -7.25  -2168.01     -3.44
                               -5.36     -3.44  -2165.90

     corecor stress (kbar)   -323.30      1.36      1.01
                                1.36   -324.55      0.65
                                1.01      0.65   -324.95

     ewald   stress (kbar) -11133.53  -2460.13  -1817.60
                            -2460.13  -8882.82  -1167.30
                            -1817.60  -1167.30  -8165.31

     hubbard stress (kbar)      0.00      0.00      0.00
                                0.00      0.00      0.00
                                0.00      0.00      0.00

     DFT-D   stress (kbar)      0.00      0.00      0.00
                                0.00      0.00      0.00
                                0.00      0.00      0.00

     XDM     stress (kbar)      0.00      0.00      0.00
                                0.00      0.00      0.00
                                0.00      0.00      0.00

     dft-nl  stress (kbar)      0.00      0.00      0.00
                                0.00      0.00      0.00
                                0.00      0.00      0.00

     TS-vdW  stress (kbar)      0.00      0.00      0.00
                                0.00      0.00      0.00
                                0.00      0.00      0.00

[...]

                                0.00      0.00      0.00

     Writing all to output data dir new_calculations/myprefix.save/

     General routines

     Parallel routines

     PAW routines

   This run was terminated on:  18:28:24  20May2023

   JOB DONE.