     Program PWSCF v.7.0 starts on 21May2023 at  3:45: 1

     Reading input from espresso_1019.pwi
Warning: card &CELL ignored
Warning: card / ignored

     Current dimensions of program PWSCF are:
     Max number of different atomic species (ntypx) = 10
     Max number of k-points (npk) =  40000
     Max angular momentum in pseudopotentials (lmaxx) =  4

     gamma-point specific algorithms are used
     Message from routine setup:
     using ibrav=0 with symmetry is DISCOURAGED, use correct ibrav instead

     Subspace diagonalization in iterative solution of the eigenvalue problem:
     a serial algorithm will be used

     Using Slab Decomposition

     bravais-lattice index     =            0
     lattice parameter (alat)  =       6.8957  a.u.
     unit-cell volume          =     911.4443 (a.u.)^3
     number of atoms/cell      =            8
     number of atomic types    =            3
     number of electrons       =        94.00
     number of Kohn-Sham states=           56
     kinetic-energy cutoff     =      30.0000  Ry
     charge density cutoff     =     240.0000  Ry
     scf convergence threshold =      1.0E-06
     mixing beta               =       0.7000
     number of iterations used =            8  plain     mixing
     Exchange-correlation= PBE
                           (   1   4   3   4   0   0   0)

     celldm(1)=   6.895688  celldm(2)=   0.000000  celldm(3)=   0.000000
     celldm(4)=   0.000000  celldm(5)=   0.000000  celldm(6)=   0.000000

     crystal axes: (cart. coord. in units of alat)
               a(1) = (   1.000000   0.000000   0.000000 )
               a(2) = (   0.000000   1.443598   0.000000 )
               a(3) = (   0.000000   0.711407   1.925533 )

     reciprocal axes: (cart. coord. in units 2 pi/alat)
               b(1) = (  1.000000  0.000000  0.000000 )
               b(2) = (  0.000000  0.692714 -0.255930 )
               b(3) = (  0.000000  0.000000  0.519337 )

     PseudoPot. # 1 for Zr read from file:
     /home/pragov/projects/rrg-bengioy-ad/pragov/crystal_structure_design/SSSP/Zr_pbe_v1.uspp.F.UPF
     MD5 check sum: 5db81b1e868ab7776c4564c113de050b
     Pseudo is Ultrasoft + core correction, Zval = 12.0
     Generated by new atomic code, or converted to UPF format
     Using radial grid of  887 points,  6 beta functions with:
                l(1) =   0
                l(2) =   0
                l(3) =   1
                l(4) =   1
                l(5) =   2
                l(6) =   2
     Q(r) pseudized with  6 coefficients,  rinner =    1.200   1.200   1.200
                                                       1.200   1.200

     PseudoPot. # 2 for Ni read from file:
     /home/pragov/projects/rrg-bengioy-ad/pragov/crystal_structure_design/SSSP/ni_pbe_v1.4.uspp.F.UPF
     MD5 check sum: 1ee80287db30b12d2bc1f57a5b5d6409
     Pseudo is Ultrasoft + core correction, Zval = 18.0
     Generated by new atomic code, or converted to UPF format
     Using radial grid of  865 points,  6 beta functions with:
                l(1) =   0
                l(2) =   0
                l(3) =   1
                l(4) =   1
                l(5) =   2
                l(6) =   2
     Q(r) pseudized with 10 coefficients,  rinner =    0.980   0.980   0.980
                                                       0.980   0.980

     PseudoPot. # 3 for P  read from file:
     /home/pragov/projects/rrg-bengioy-ad/pragov/crystal_structure_design/SSSP/P.pbe-n-rrkjus_psl.1.0.0.UPF
     MD5 check sum: 8b930f418f0a4573dca56cd030ffe088
     Pseudo is Ultrasoft + core correction, Zval =  5.0
     Generated using "atomic" code by A. Dal Corso  v.5.1
     Using radial grid of 1147 points,  6 beta functions with:
                l(1) =   0
                l(2) =   0
                l(3) =   1
                l(4) =   1
                l(5) =   2
                l(6) =   2
     Q(r) pseudized with 0 coefficients

     atomic species   valence    mass     pseudopotential
        Zr            12.00    91.22400     Zr( 1.00)
        Ni            18.00    58.69340     Ni( 1.00)
        P              5.00    30.97376     P ( 1.00)

      4 Sym. Ops., with inversion, found ( 2 have fractional translation)

                                    s                        frac. trans.

      isym =  1     identity

 cryst.   s( 1) = (     1          0          0      )
                  (     0          1          0      )
                  (     0          0          1      )

 cart.    s( 1) = (  1.0000000  0.0000000  0.0000000 )
                  (  0.0000000  1.0000000  0.0000000 )
                  (  0.0000000  0.0000000  1.0000000 )

      isym =  2     180 deg rotation - cart. axis [1,0,0]

 cryst.   s( 2) = (     1          0          0      )    f =( -0.5000000 )
                  (     0         -1          0      )       (  0.0000000 )
                  (     0          0         -1      )       ( -0.0000000 )

 cart.    s( 2) = (  1.0000000  0.0000000  0.0000000 )    f =( -0.5000000 )
                  (  0.0000000 -1.0000000 -0.0000000 )       (  0.0000000 )
                  (  0.0000000  0.0000000 -1.0000000 )       ( -0.0000000 )

      isym =  3     inversion

 cryst.   s( 3) = (    -1          0          0      )
                  (     0         -1          0      )
                  (     0          0         -1      )

 cart.    s( 3) = ( -1.0000000  0.0000000  0.0000000 )
                  (  0.0000000 -1.0000000 -0.0000000 )
                  (  0.0000000  0.0000000 -1.0000000 )

      isym =  4     inv. 180 deg rotation - cart. axis [1,0,0]

 cryst.   s( 4) = (    -1          0          0      )    f =(  0.5000000 )
                  (     0          1          0      )       (  0.0000000 )
                  (     0          0          1      )       (  0.0000000 )

 cart.    s( 4) = ( -1.0000000  0.0000000  0.0000000 )    f =(  0.5000000 )
                  (  0.0000000  1.0000000  0.0000000 )       (  0.0000000 )
                  (  0.0000000  0.0000000  1.0000000 )       (  0.0000000 )

   Cartesian axes

     site n.     atom                  positions (alat units)
         1           Zr  tau(   1) = (   0.2500000   1.0890452   0.1435485  )
         2           Zr  tau(   2) = (   0.7500000   1.0659602   1.7819845  )
         3           Zr  tau(   3) = (   0.2500000   0.7241832   1.0980294  )
         4           Zr  tau(   4) = (   0.7500000   1.4308222   0.8275036  )
         5           Ni  tau(   5) = (   0.2500000   1.4392174   1.3675598  )
         6           Ni  tau(   6) = (   0.7500000   0.7157880   0.5579733  )
         7           P   tau(   7) = (   0.2500000   0.3568921   0.4084518  )
         8           P   tau(   8) = (   0.7500000   1.7981133   1.5170813  )

   Crystallographic axes

     site n.     atom                  positions (cryst. coord.)
         1           Zr  tau(   1) = (  0.2500000  0.7176580  0.0745500  )
         2           Zr  tau(   2) = (  0.7500000  0.2823420  0.9254500  )
         3           Zr  tau(   3) = (  0.2500000  0.2206330  0.5702470  )
         4           Zr  tau(   4) = (  0.7500000  0.7793670  0.4297530  )
         5           Ni  tau(   5) = (  0.2500000  0.6469660  0.7102240  )
         6           Ni  tau(   6) = (  0.7500000  0.3530340  0.2897760  )
         7           P   tau(   7) = (  0.2500000  0.1426890  0.2121240  )
         8           P   tau(   8) = (  0.7500000  0.8573110  0.7878760  )

     number of k points=     1  Methfessel-Paxton smearing, width (Ry)=  0.0010
                       cart. coord. in units 2pi/alat
        k(    1) = (   0.0000000   0.0000000   0.0000000), wk =   2.0000000

                       cryst. coord.
        k(    1) = (   0.0000000   0.0000000   0.0000000), wk =   2.0000000

     Check: negative core charge=   -0.000005

     Initial potential from superposition of free atoms

     starting charge      89.9911, renormalised to      94.0000

     negative rho (up, down):  2.491E-01 0.000E+00
     Starting wfcs are   86 randomized atomic wfcs

     Self-consistent Calculation

     iteration #  1     ecut=    30.00 Ry     beta= 0.70
     Davidson diagonalization with overlap

     ethr =  1.00E-02,  avg # of iterations =  3.0

     negative rho (up, down):  2.328E-01 0.000E+00

     total energy              =   -1075.13969720 Ry
     estimated scf accuracy    <      47.50502520 Ry

[...]

     total energy              =   -1111.36237078 Ry
     estimated scf accuracy    <       0.00001901 Ry

     iteration # 16     ecut=    30.00 Ry     beta= 0.70
     Davidson diagonalization with overlap

     ethr =  2.02E-08,  avg # of iterations =  5.0

[...]

     End of self-consistent calculation

          k = 0.0000 0.0000 0.0000 (  1273 PWs)   bands (ev):

   -88.6872 -88.6861 -49.1427 -49.1411 -49.0327 -49.0295 -48.8787 -48.8763
   -33.8331 -33.7766 -33.6397 -33.5877 -12.1743 -12.0329 -12.0087 -11.8688
   -11.7778 -11.7618 -11.7599 -11.7207 -11.6208 -11.5615 -11.4792 -11.3308
     3.2863   4.0150   9.6395   9.6910  10.8272  10.8290  11.2044  11.4660
    11.7491  11.9947  12.4787  12.4815  12.5483  12.7497  12.8879  13.3949
    13.4231  13.4389  13.4958  14.4853  14.6919  14.9413  15.1250  15.6652
    15.8753  15.9037  16.0264  16.9628  17.1270  17.4610  17.8074  17.8740

     occupation numbers
     1.0000   1.0000   1.0000   1.0000   1.0000   1.0000   1.0000   1.0000
     1.0000   1.0000   1.0000   1.0000   1.0000   1.0000   1.0000   1.0000
     1.0000   1.0000   1.0000   1.0000   1.0000   1.0000   1.0000   1.0000
     1.0000   1.0000   1.0000   1.0000   1.0000   1.0000   1.0000   1.0000
     1.0000   1.0000   1.0000   1.0000   1.0000   1.0000   1.0000   1.0000
     1.0000   1.0000   1.0000   1.0000   1.0000   1.0000   1.0000  -0.0000
    -0.0000  -0.0000  -0.0000  -0.0000  -0.0000  -0.0000  -0.0000  -0.0000

     the Fermi energy is    15.5062 ev

!    total energy              =   -1111.36237519 Ry
     estimated scf accuracy    <       0.00000071 Ry
     smearing contrib. (-TS)   =       0.00000000 Ry
     internal energy E=F+TS    =   -1111.36237519 Ry

     The total energy is F=E-TS. E is the sum of the following terms:
     one-electron contribution =    -627.43848470 Ry
     hartree contribution      =     360.65706680 Ry
     xc contribution           =    -151.37180567 Ry
     ewald contribution        =    -693.20915162 Ry

     convergence has been achieved in  16 iterations

     negative rho (up, down):  2.451E-01 0.000E+00

     Forces acting on atoms (cartesian axes, Ry/au):

     atom    1 type  1   force =     0.00000000    0.01243660   -0.13697290
     atom    2 type  1   force =     0.00000000   -0.01243660    0.13697290
     atom    3 type  1   force =     0.00000000   -0.03833205    0.01724248
     atom    4 type  1   force =     0.00000000    0.03833205   -0.01724248
     atom    5 type  2   force =     0.00000000   -0.02104829   -0.01793383
     atom    6 type  2   force =     0.00000000    0.02104829    0.01793383
     atom    7 type  3   force =     0.00000000   -0.04690602    0.00801291
     atom    8 type  3   force =     0.00000000    0.04690602   -0.00801291
     The non-local contrib.  to forces
     atom    1 type  1   force =     0.00000000   -0.09073776   -0.13944550
     atom    2 type  1   force =     0.00000000    0.09073776    0.13944550
     atom    3 type  1   force =     0.00000000   -0.17605877    0.01891952
     atom    4 type  1   force =     0.00000000    0.17605877   -0.01891952
     atom    5 type  2   force =     0.00000000    0.41509049    0.08892105
     atom    6 type  2   force =     0.00000000   -0.41509049   -0.08892105
     atom    7 type  3   force =     0.00000000    0.08716724   -0.06301033
     atom    8 type  3   force =     0.00000000   -0.08716724    0.06301033
     The ionic contribution  to forces
     atom    1 type  1   force =    -0.00000000   10.23834713   -3.25448832
     atom    2 type  1   force =     0.00000000  -10.23834712    3.25448832
     atom    3 type  1   force =    -0.00000000    0.65715691    7.81171174
     atom    4 type  1   force =    -0.00000000   -0.65715690   -7.81171174
     atom    5 type  2   force =    -0.00000000   -1.23607393    4.08422797
     atom    6 type  2   force =     0.00000000    1.23607393   -4.08422797
     atom    7 type  3   force =     0.00000000   -5.73257979   -3.43008024
     atom    8 type  3   force =     0.00000000    5.73257979    3.43008024
     The local contribution  to forces
     atom    1 type  1   force =     0.00003112  -10.14215814    3.25095148
     atom    2 type  1   force =    -0.00000474   10.14219758   -3.25000991
     atom    3 type  1   force =    -0.00002341   -0.52775179   -7.81318175
     atom    4 type  1   force =     0.00004828    0.52771434    7.81164977
     atom    5 type  2   force =    -0.00001642    0.80069515   -4.18906812
     atom    6 type  2   force =     0.00007763   -0.80122494    4.18938100
     atom    7 type  3   force =    -0.00001488    5.60295493    3.49703893
     atom    8 type  3   force =    -0.00001118   -5.60293249   -3.49674107
     The core correction contribution to forces
     atom    1 type  1   force =     0.00000042    0.00552961    0.00583003
     atom    2 type  1   force =     0.00000056   -0.00552869   -0.00582453
     atom    3 type  1   force =     0.00000033    0.00855445   -0.00058143
     atom    4 type  1   force =     0.00000031   -0.00855540    0.00057104
     atom    5 type  2   force =    -0.00000054   -0.00117332    0.00094619
     atom    6 type  2   force =     0.00000056    0.00117080   -0.00094995
     atom    7 type  3   force =    -0.00000024   -0.00412230    0.00363149
     atom    8 type  3   force =    -0.00000042    0.00412032   -0.00362280
     The Hubbard contrib.    to forces
     atom    1 type  1   force =     0.00000000    0.00000000    0.00000000
     atom    2 type  1   force =     0.00000000    0.00000000    0.00000000
     atom    3 type  1   force =     0.00000000    0.00000000    0.00000000
     atom    4 type  1   force =     0.00000000    0.00000000    0.00000000
     atom    5 type  2   force =     0.00000000    0.00000000    0.00000000
     atom    6 type  2   force =     0.00000000    0.00000000    0.00000000
     atom    7 type  3   force =     0.00000000    0.00000000    0.00000000
     atom    8 type  3   force =     0.00000000    0.00000000    0.00000000
     The SCF correction term to forces
     atom    1 type  1   force =    -0.00002265    0.00146404    0.00027461
     atom    2 type  1   force =     0.00000866   -0.00148785   -0.00103127
     atom    3 type  1   force =     0.00003041   -0.00025546    0.00026319
     atom    4 type  1   force =    -0.00003803    0.00024863    0.00105675
     atom    5 type  2   force =    -0.00002009    0.00042647   -0.00322944
     atom    6 type  2   force =    -0.00011560    0.00013214    0.00238329
     atom    7 type  3   force =     0.00000778   -0.00033252    0.00052539
     atom    8 type  3   force =     0.00000062    0.00029921   -0.00064731

     Total force =     0.217770     Total SCF correction =     0.004902

     Computing stress (Cartesian axis) and pressure

     negative rho (up, down):  2.451E-01 0.000E+00
          total   stress  (Ry/bohr**3)                   (kbar)     P=     -314.38
  -0.00111721   0.00000000   0.00000000         -164.35        0.00        0.00
   0.00000000  -0.00221168   0.00056692            0.00     -325.35       83.40
   0.00000000   0.00056692  -0.00308236            0.00       83.40     -453.43

     kinetic stress (kbar)  23911.35      0.00      0.00
                                0.00  23254.67    105.65
                                0.00    105.65  23117.75

     local   stress (kbar) -19598.13      0.01     -0.03
                                0.01  -7230.62    621.24
                               -0.03    621.24 -11830.70

     nonloc. stress (kbar)  14198.85      0.00      0.00
                                0.00  14436.35     11.70
                                0.00     11.70  14269.15

     hartree stress (kbar)  22346.53     -0.01      0.02
                               -0.01  16726.88   -349.31
                                0.02   -349.31  19135.84

     exc-cor stress (kbar)  -2279.60     -0.00      0.00
                               -0.00  -2289.14      0.99
                                0.00      0.99  -2288.99

     corecor stress (kbar)  -4978.84     -0.00     -0.00
                               -0.00  -4983.36      0.00
                               -0.00      0.00  -4978.71

     ewald   stress (kbar) -33764.51     -0.00     -0.00
                               -0.00 -40240.13   -306.88
                               -0.00   -306.88 -37877.77

     hubbard stress (kbar)      0.00      0.00      0.00
                                0.00      0.00      0.00
                                0.00      0.00      0.00

     DFT-D   stress (kbar)      0.00      0.00      0.00
                                0.00      0.00      0.00
                                0.00      0.00      0.00

     XDM     stress (kbar)      0.00      0.00      0.00
                                0.00      0.00      0.00
                                0.00      0.00      0.00

     dft-nl  stress (kbar)      0.00      0.00      0.00
                                0.00      0.00      0.00
                                0.00      0.00      0.00

     TS-vdW  stress (kbar)      0.00      0.00      0.00
                                0.00      0.00      0.00
                                0.00      0.00      0.00

[...]

                                0.00      0.00      0.00

     Writing all to output data dir new_calculations/myprefix.save/

     General routines

     Parallel routines

   This run was terminated on:   3:45:14  21May2023

   JOB DONE.