     Program PWSCF v.7.0 starts on 21May2023 at  4:56:43

     Reading input from espresso_23395.pwi
Warning: card &CELL ignored
Warning: card / ignored

     Current dimensions of program PWSCF are:
     Max number of different atomic species (ntypx) = 10
     Max number of k-points (npk) =  40000
     Max angular momentum in pseudopotentials (lmaxx) =  4
     file O.pbe-n-kjpaw_psl.0.1.UPF: wavefunction(s)  2P renormalized

     gamma-point specific algorithms are used

     Subspace diagonalization in iterative solution of the eigenvalue problem:
     a serial algorithm will be used

     Using Slab Decomposition

     bravais-lattice index     =            0
     lattice parameter (alat)  =      10.5609  a.u.
     unit-cell volume          =    1116.8082 (a.u.)^3
     number of atoms/cell      =           17
     number of atomic types    =            4
     number of electrons       =        88.00
     number of Kohn-Sham states=           53
     kinetic-energy cutoff     =      30.0000  Ry
     charge density cutoff     =     240.0000  Ry
     scf convergence threshold =      1.0E-06
     mixing beta               =       0.7000
     number of iterations used =            8  plain     mixing
     Exchange-correlation= SLA  PW   PBX  PBC
                           (   1   4   3   4   0   0   0)

     celldm(1)=  10.560891  celldm(2)=   0.000000  celldm(3)=   0.000000
     celldm(4)=   0.000000  celldm(5)=   0.000000  celldm(6)=   0.000000

     crystal axes: (cart. coord. in units of alat)
               a(1) = (   1.000000   0.000000   0.000000 )
               a(2) = (  -0.173712   0.984796   0.000000 )
               a(3) = (  -0.173712  -0.207036   0.962788 )

     reciprocal axes: (cart. coord. in units 2 pi/alat)
               b(1) = (  1.000000  0.176394  0.218358 )
               b(2) = (  0.000000  1.015438  0.218358 )
               b(3) = (  0.000000  0.000000  1.038651 )

     PseudoPot. # 1 for Na read from file:
     /home/pragov/projects/rrg-bengioy-ad/pragov/crystal_structure_design/SSSP/na_pbe_v1.5.uspp.F.UPF
     MD5 check sum: 44600605ef58000f06b90626533354dc
     Pseudo is Ultrasoft, Zval =  9.0
     Generated by new atomic code, or converted to UPF format
     Using radial grid of  819 points,  5 beta functions with:
                l(1) =   0
                l(2) =   0
                l(3) =   1
                l(4) =   1
                l(5) =   2
     Q(r) pseudized with  8 coefficients,  rinner =    1.250   1.250   1.250
                                                       1.250   1.250

     PseudoPot. # 2 for V  read from file:
     /home/pragov/projects/rrg-bengioy-ad/pragov/crystal_structure_design/SSSP/v_pbe_v1.4.uspp.F.UPF
     MD5 check sum: 22b79981416ebb76fdaf5b1b8640f6fb
     Pseudo is Ultrasoft + core correction, Zval = 13.0
     Generated by new atomic code, or converted to UPF format
     Using radial grid of  853 points,  6 beta functions with:
                l(1) =   0
                l(2) =   0
                l(3) =   1
                l(4) =   1
                l(5) =   2
                l(6) =   2
     Q(r) pseudized with  8 coefficients,  rinner =    1.100   1.100   1.100
                                                       1.100   1.100

     PseudoPot. # 3 for H  read from file:
     /home/pragov/projects/rrg-bengioy-ad/pragov/crystal_structure_design/SSSP/H.pbe-rrkjus_psl.1.0.0.UPF
     MD5 check sum: f52b6d4d1c606e5624b1dc7b2218f220
     Pseudo is Ultrasoft, Zval =  1.0
     Generated using "atomic" code by A. Dal Corso  v.5.1
     Using radial grid of  929 points,  2 beta functions with:
                l(1) =   0
                l(2) =   0
     Q(r) pseudized with 0 coefficients

     PseudoPot. # 4 for O  read from file:
     /home/pragov/projects/rrg-bengioy-ad/pragov/crystal_structure_design/SSSP/O.pbe-n-kjpaw_psl.0.1.UPF
     MD5 check sum: 0234752ac141de4415c5fc33072bef88
     Pseudo is Projector augmented-wave + core cor, Zval =  6.0
     Generated using "atomic" code by A. Dal Corso  v.5.0.99 svn rev. 10869
     Shape of augmentation charge: BESSEL
     Using radial grid of 1095 points,  4 beta functions with:
                l(1) =   0
                l(2) =   0
                l(3) =   1
                l(4) =   1
     Q(r) pseudized with 0 coefficients

     atomic species   valence    mass     pseudopotential
        Na             9.00    22.98977     Na( 1.00)
        V             13.00    50.94150     V ( 1.00)
        H              1.00     1.00800     H ( 1.00)
        O              6.00    15.99900     O ( 1.00)

     No symmetry found

                                    s                        frac. trans.

      isym =  1     identity

 cryst.   s( 1) = (     1          0          0      )
                  (     0          1          0      )
                  (     0          0          1      )

 cart.    s( 1) = (  1.0000000 -0.0000000 -0.0000000 )
                  (  0.0000000  1.0000000 -0.0000000 )
                  (  0.0000000  0.0000000  1.0000000 )

   Cartesian axes

     site n.     atom                  positions (alat units)
         1           Na  tau(   1) = (   0.2893175   0.5781049   0.1707523  )
         2           Na  tau(   2) = (  -0.0055484   0.2928053   0.6010827  )
         3           Na  tau(   3) = (   0.5190576   0.0859247   0.4126286  )
         4           V   tau(   4) = (   0.6508680   0.7757257   0.9602689  )
         5           H   tau(   5) = (   0.2272021   0.7147290   0.7229495  )
         6           H   tau(   6) = (   0.5086043   0.3204246   0.8507432  )
         7           H   tau(   7) = (   0.6643947   0.6336517   0.4921173  )
         8           H   tau(   8) = (  -0.0098749   0.7835943   0.5851370  )
         9           H   tau(   9) = (   0.4028458   0.0610324   0.8890968  )
        10           H   tau(  10) = (   0.7733962   0.5454877   0.2465853  )
        11           O   tau(  11) = (   0.1424395   0.1697641   0.2101505  )
        12           O   tau(  12) = (   0.5124293   0.9755225   0.0421470  )
        13           O   tau(  13) = (  -0.2504051   0.4761703   0.9625815  )
        14           O   tau(  14) = (   0.8716757  -0.1005124   0.6678944  )
        15           O   tau(  15) = (   0.1500714   0.7062101   0.5605436  )
        16           O   tau(  16) = (   0.3674042   0.2171962   0.8082717  )
        17           O   tau(  17) = (   0.6694039   0.4911553   0.3822671  )

   Crystallographic axes

     site n.     atom                  positions (cryst. coord.)
         1           Na  tau(   1) = (  0.4285770  0.6243150  0.1773520  )
         2           Na  tau(   2) = (  0.1773520  0.4285770  0.6243150  )
         3           Na  tau(   3) = (  0.6243150  0.1773520  0.4285770  )
         4           V   tau(   4) = (  0.9973840  0.9973840  0.9973840  )
         5           H   tau(   5) = (  0.5111380  0.8836250  0.7508920  )
         6           H   tau(   6) = (  0.7508920  0.5111380  0.8836250  )
         7           H   tau(   7) = (  0.8836250  0.7508920  0.5111380  )
         8           H   tau(   8) = (  0.2561160  0.9234610  0.6077530  )
         9           H   tau(   9) = (  0.6077530  0.2561160  0.9234610  )
        10           H   tau(  10) = (  0.9234610  0.6077530  0.2561160  )
        11           O   tau(  11) = (  0.2182730  0.2182730  0.2182730  )
        12           O   tau(  12) = (  0.6937090  0.9997860  0.0437760  )
        13           O   tau(  13) = (  0.0437760  0.6937090  0.9997860  )
        14           O   tau(  14) = (  0.9997860  0.0437760  0.6937090  )
        15           O   tau(  15) = (  0.3970420  0.8395120  0.5822090  )
        16           O   tau(  16) = (  0.5822090  0.3970420  0.8395120  )
        17           O   tau(  17) = (  0.8395120  0.5822090  0.3970420  )

     number of k points=     1  Methfessel-Paxton smearing, width (Ry)=  0.0010
                       cart. coord. in units 2pi/alat
        k(    1) = (   0.0000000   0.0000000   0.0000000), wk =   2.0000000

                       cryst. coord.
        k(    1) = (   0.0000000   0.0000000   0.0000000), wk =   2.0000000

     Check: negative core charge=   -0.000014

     Initial potential from superposition of free atoms

     starting charge      87.9798, renormalised to      88.0000

     negative rho (up, down):  1.403E-03 0.000E+00
     Starting wfcs are   59 randomized atomic wfcs
     Checking if some PAW data can be deallocated...

     Self-consistent Calculation

     iteration #  1     ecut=    30.00 Ry     beta= 0.70
     Davidson diagonalization with overlap

     ethr =  1.00E-02,  avg # of iterations =  4.0

     negative rho (up, down):  2.601E-03 0.000E+00

     total energy              =    -728.36586627 Ry
     estimated scf accuracy    <       3.37583604 Ry

[...]

     total energy              =    -730.21873582 Ry
     estimated scf accuracy    <       0.00004372 Ry

     iteration # 10     ecut=    30.00 Ry     beta= 0.70
     Davidson diagonalization with overlap

     ethr =  4.97E-08,  avg # of iterations =  2.0

[...]

     End of self-consistent calculation

          k = 0.0000 0.0000 0.0000 (  1538 PWs)   bands (ev):

   -60.8348 -46.6086 -46.6004 -46.6003 -34.7551 -34.7551 -34.7358 -18.6045
   -18.6045 -18.5774 -18.5235 -18.5233 -18.5125 -18.4994 -18.4993 -18.4909
   -16.9766 -16.6066 -16.6062 -13.5968 -13.2846 -13.2827 -13.0163  -4.5695
    -4.4342  -4.4340  -1.7006  -1.6205  -1.6201   0.0631   0.0635   0.1577
     0.3075   0.3087   0.5568   0.5571   0.6650   1.1603   1.2671   1.2676
     1.3569   2.0001   2.0009   2.0285   6.3510   6.3511   7.0806   7.5581
     7.5583   7.6418  12.0869  12.0872  12.5012

     occupation numbers
     1.0000   1.0000   1.0000   1.0000   1.0000   1.0000   1.0000   1.0000
     1.0000   1.0000   1.0000   1.0000   1.0000   1.0000   1.0000   1.0000
     1.0000   1.0000   1.0000   1.0000   1.0000   1.0000   1.0000   1.0000
     1.0000   1.0000   1.0000   1.0000   1.0000   1.0000   1.0000   1.0000
     1.0000   1.0000   1.0000   1.0000   1.0000   1.0000   1.0000   1.0000
     1.0000   1.0000   1.0000   1.0000  -0.0000  -0.0000  -0.0000  -0.0000
    -0.0000  -0.0000  -0.0000  -0.0000  -0.0000

     the Fermi energy is     3.4362 ev

!    total energy              =    -730.21874341 Ry
     estimated scf accuracy    <       0.00000058 Ry
     smearing contrib. (-TS)   =       0.00000000 Ry
     internal energy E=F+TS    =    -730.21874341 Ry

     The total energy is F=E-TS. E is the sum of the following terms:
     one-electron contribution =    -408.06040923 Ry
     hartree contribution      =     236.63816337 Ry
     xc contribution           =    -119.11783037 Ry
     ewald contribution        =    -373.04277721 Ry
     one-center paw contrib.   =     -66.63588997 Ry
      -> PAW hartree energy AE =     213.22683883 Ry
      -> PAW hartree energy PS =    -212.48381191 Ry
      -> PAW xc energy AE      =    -121.05154569 Ry
      -> PAW xc energy PS      =      53.67262881 Ry
      -> total E_H with PAW    =     237.38119029 Ry
      -> total E_XC with PAW   =    -186.49674725 Ry

     convergence has been achieved in  10 iterations

     negative rho (up, down):  2.189E-03 0.000E+00

     Forces acting on atoms (cartesian axes, Ry/au):

     atom    1 type  1   force =     0.00157243   -0.00109690    0.00217386
     atom    2 type  1   force =     0.00208308    0.00182958   -0.00065897
     atom    3 type  1   force =    -0.00134153    0.00184232    0.00172322
     atom    4 type  2   force =    -0.00465475   -0.00549349   -0.00683005
     atom    5 type  3   force =     0.00305577    0.00056422    0.01227671
     atom    6 type  3   force =     0.01119042    0.00509305    0.00310888
     atom    7 type  3   force =     0.00000461    0.01136688    0.00560061
     atom    8 type  3   force =    -0.00278758    0.00172131    0.00114877
     atom    9 type  3   force =     0.00124360   -0.00260477    0.00190002
     atom   10 type  3   force =     0.00216966    0.00166371   -0.00217054
     atom   11 type  4   force =    -0.01612140   -0.01918763   -0.02378225
     atom   12 type  4   force =     0.03934875    0.00440403    0.00236320
     atom   13 type  4   force =    -0.00540624    0.03885146    0.00476416
     atom   14 type  4   force =    -0.00256302   -0.00595720    0.03917019
     atom   15 type  4   force =    -0.00456987   -0.01175050   -0.01608801
     atom   16 type  4   force =    -0.01234797   -0.00688043   -0.01496868
     atom   17 type  4   force =    -0.01087598   -0.01436564   -0.00973110
     The non-local contrib.  to forces
     atom    1 type  1   force =     0.10701732    0.09779898    0.01708058
     atom    2 type  1   force =    -0.02240698    0.10482344    0.09919202
     atom    3 type  1   force =     0.07770177   -0.00903536    0.12329896
     atom    4 type  2   force =     0.01840920    0.02200580    0.02728528
     atom    5 type  3   force =    -0.04252873   -0.00346080   -0.08575230
     atom    6 type  3   force =    -0.07445471   -0.05631720   -0.02141110
     atom    7 type  3   force =     0.00397937   -0.07490439   -0.05956251
     atom    8 type  3   force =     0.08865190   -0.04251351   -0.01175285
     atom    9 type  3   force =    -0.01791323    0.08686037   -0.04403400
     atom   10 type  3   force =    -0.05726362   -0.02828946    0.07565788
     atom   11 type  4   force =    -0.31537999   -0.37582005   -0.46527683
     atom   12 type  4   force =     0.63896378    0.07077532   -0.19878337
     atom   13 type  4   force =    -0.31705876    0.59283447    0.02750338
     atom   14 type  4   force =    -0.04134143   -0.32920029    0.58545701
     atom   15 type  4   force =    -0.68041455    0.72621780    1.46917036
     atom   16 type  4   force =     1.38236935   -0.44705407    1.01890694
     atom   17 type  4   force =     0.83339100    1.55070676   -0.22280612
     The ionic contribution  to forces
     atom    1 type  1   force =     0.66357625    0.14607939    0.54874494
     atom    2 type  1   force =     0.38280975    0.74134659    0.25817880
     atom    3 type  1   force =     0.02858667    0.39376263    0.77905561
     atom    4 type  2   force =     0.46784864    0.55759619    0.69025099
     atom    5 type  3   force =     0.87681870   -0.14124379    1.95277236
     atom    6 type  3   force =     1.75703326    1.20028573    0.27244878
     atom    7 type  3   force =    -0.29141076    1.73275569    1.23073852
     atom    8 type  3   force =    -2.01942790    1.12594835    0.10403455
     atom    9 type  3   force =     0.21785110   -2.01217698    1.12265654
     atom   10 type  3   force =     1.45962993    0.47868449   -1.73118903
     atom   11 type  4   force =     4.18652039    4.98963095    6.17665183
     atom   12 type  4   force =    -9.24507349   -0.37069577    0.93472824
     atom   13 type  4   force =     2.58267703   -8.93223210   -0.16590093
     atom   14 type  4   force =     1.24092453    2.84144135   -8.76748971
     atom   15 type  4   force =     1.14134940   -1.43865355   -2.00901207
     atom   16 type  4   force =    -1.83466564    0.83534599   -1.82886106
     atom   17 type  4   force =    -1.61504787   -2.14787517    0.43219163
     The local contribution  to forces
     atom    1 type  1   force =    -0.76945444   -0.24515949   -0.56358936
     atom    2 type  1   force =    -0.35819234   -0.84416594   -0.35808546
     atom    3 type  1   force =    -0.10783592   -0.38262910   -0.90078915
     atom    4 type  2   force =    -0.48904028   -0.58426066   -0.72128598
     atom    5 type  3   force =    -0.83126388    0.14525793   -1.85477016
     atom    6 type  3   force =    -1.67133973   -1.13886781   -0.24786928
     atom    7 type  3   force =     0.28746436   -1.64656773   -1.16561618
     atom    8 type  3   force =     1.92806256   -1.08174005   -0.09114551
     atom    9 type  3   force =    -0.19870490    1.92275781   -1.07668952
     atom   10 type  3   force =    -1.40016517   -0.44874469    1.65337313
     atom   11 type  4   force =    -3.88958182   -4.63568304   -5.73846223
     atom   12 type  4   force =     8.65037388    0.30507246   -0.73496877
     atom   13 type  4   force =    -2.27338377    8.38241180    0.14370573
     atom   14 type  4   force =    -1.20217110   -2.52073518    8.22570414
     atom   15 type  4   force =    -0.47200552    0.70756019    0.53721080
     atom   16 type  4   force =     0.45274146   -0.39946196    0.80471809
     atom   17 type  4   force =     0.77887189    0.59709939   -0.22145754
     The core correction contribution to forces
     atom    1 type  1   force =     0.00000000    0.00000000    0.00000000
     atom    2 type  1   force =     0.00000000    0.00000000    0.00000000
     atom    3 type  1   force =     0.00000000    0.00000000    0.00000000
     atom    4 type  2   force =    -0.00095589   -0.00116860   -0.00141011
     atom    5 type  3   force =     0.00000000    0.00000000    0.00000000
     atom    6 type  3   force =     0.00000000    0.00000000    0.00000000
     atom    7 type  3   force =     0.00000000    0.00000000    0.00000000
     atom    8 type  3   force =     0.00000000    0.00000000    0.00000000
     atom    9 type  3   force =     0.00000000    0.00000000    0.00000000
     atom   10 type  3   force =     0.00000000    0.00000000    0.00000000
     atom   11 type  4   force =     0.00219803    0.00261899    0.00324293
     atom   12 type  4   force =    -0.00473054   -0.00059531    0.00173333
     atom   13 type  4   force =     0.00261480   -0.00434290   -0.00021946
     atom   14 type  4   force =     0.00023588    0.00269547   -0.00429198
     atom   15 type  4   force =     0.00638886   -0.00695476   -0.01381972
     atom   16 type  4   force =    -0.01297579    0.00419774   -0.00970582
     atom   17 type  4   force =    -0.00795928   -0.01458006    0.00206309
     The Hubbard contrib.    to forces
     atom    1 type  1   force =     0.00000000    0.00000000    0.00000000
     atom    2 type  1   force =     0.00000000    0.00000000    0.00000000
     atom    3 type  1   force =     0.00000000    0.00000000    0.00000000
     atom    4 type  2   force =     0.00000000    0.00000000    0.00000000
     atom    5 type  3   force =     0.00000000    0.00000000    0.00000000
     atom    6 type  3   force =     0.00000000    0.00000000    0.00000000
     atom    7 type  3   force =     0.00000000    0.00000000    0.00000000
     atom    8 type  3   force =     0.00000000    0.00000000    0.00000000
     atom    9 type  3   force =     0.00000000    0.00000000    0.00000000
     atom   10 type  3   force =     0.00000000    0.00000000    0.00000000
     atom   11 type  4   force =     0.00000000    0.00000000    0.00000000
     atom   12 type  4   force =     0.00000000    0.00000000    0.00000000
     atom   13 type  4   force =     0.00000000    0.00000000    0.00000000
     atom   14 type  4   force =     0.00000000    0.00000000    0.00000000
     atom   15 type  4   force =     0.00000000    0.00000000    0.00000000
     atom   16 type  4   force =     0.00000000    0.00000000    0.00000000
     atom   17 type  4   force =     0.00000000    0.00000000    0.00000000
     The SCF correction term to forces
     atom    1 type  1   force =     0.00044648    0.00018655   -0.00003469
     atom    2 type  1   force =    -0.00011416   -0.00017217    0.00008329
     atom    3 type  1   force =     0.00021913   -0.00025351    0.00018542
     atom    4 type  2   force =    -0.00090323    0.00033612   -0.00164262
     atom    5 type  3   force =     0.00004286    0.00001322    0.00005442
     atom    6 type  3   force =    -0.00003521   -0.00000534   -0.00003190
     atom    7 type  3   force =    -0.00001517    0.00008564    0.00006840
     atom    8 type  3   force =    -0.00006094    0.00002886    0.00004019
     atom    9 type  3   force =     0.00002382   -0.00004363   -0.00000539
     atom   10 type  3   force =    -0.00001829    0.00001570    0.00001509
     atom   11 type  4   force =     0.00013519    0.00006786    0.00008966
     atom   12 type  4   force =    -0.00017170   -0.00015034   -0.00031862
     atom   13 type  4   force =    -0.00024235    0.00018254   -0.00029694
     atom   14 type  4   force =    -0.00019771   -0.00015621   -0.00018165
     atom   15 type  4   force =     0.00012513    0.00008215    0.00039024
     atom   16 type  4   force =     0.00019583    0.00009420    0.00000079
     atom   17 type  4   force =    -0.00011851    0.00028578    0.00030546

     Total force =     0.088356     Total SCF correction =     0.002227

     Computing stress (Cartesian axis) and pressure

     negative rho (up, down):  2.189E-03 0.000E+00
          total   stress  (Ry/bohr**3)                   (kbar)     P=     -374.82
  -0.00254783  -0.00000035  -0.00000050         -374.80       -0.05       -0.07
  -0.00000035  -0.00254791  -0.00000059           -0.05     -374.81       -0.09
  -0.00000050  -0.00000059  -0.00254820           -0.07       -0.09     -374.85

     kinetic stress (kbar)  18839.14    -15.94    -19.77
                              -15.94  18833.48    -23.55
                              -19.77    -23.55  18823.39

     local   stress (kbar)   6117.04   -425.91   -527.32
                             -425.91   5966.65   -628.52
                             -527.32   -628.52   5696.58

     nonloc. stress (kbar) -14199.82     -5.15     -6.36
                               -5.15 -14201.61     -7.58
                               -6.36     -7.58 -14204.91

     hartree stress (kbar)  10331.15    131.50    162.89
                              131.50  10377.69    194.15
                              162.89    194.15  10460.95

     exc-cor stress (kbar)  -4213.37      1.40      1.74
                                1.40  -4212.88      2.07
                                1.74      2.07  -4211.99

     corecor stress (kbar)   -729.68     -0.02     -0.02
                               -0.02   -729.68     -0.02
                               -0.02     -0.02   -729.69

     ewald   stress (kbar) -16519.26    314.07    388.78
                              314.07 -16408.46    463.37
                              388.78    463.37 -16209.18

     hubbard stress (kbar)      0.00      0.00      0.00
                                0.00      0.00      0.00
                                0.00      0.00      0.00

     DFT-D   stress (kbar)      0.00      0.00      0.00
                                0.00      0.00      0.00
                                0.00      0.00      0.00

     XDM     stress (kbar)      0.00      0.00      0.00
                                0.00      0.00      0.00
                                0.00      0.00      0.00

     dft-nl  stress (kbar)      0.00      0.00      0.00
                                0.00      0.00      0.00
                                0.00      0.00      0.00

     TS-vdW  stress (kbar)      0.00      0.00      0.00
                                0.00      0.00      0.00
                                0.00      0.00      0.00

[...]

                                0.00      0.00      0.00

     Writing all to output data dir new_calculations/myprefix.save/

     General routines

     Parallel routines

     PAW routines

   This run was terminated on:   4:57:17  21May2023

   JOB DONE.