     Program PWSCF v.7.0 starts on 21May2023 at  4:41:45

     Reading input from espresso_7973.pwi
Warning: card &CELL ignored
Warning: card / ignored

     Current dimensions of program PWSCF are:
     Max number of different atomic species (ntypx) = 10
     Max number of k-points (npk) =  40000
     Max angular momentum in pseudopotentials (lmaxx) =  4

     gamma-point specific algorithms are used
     Message from routine setup:
     using ibrav=0 with symmetry is DISCOURAGED, use correct ibrav instead

     Subspace diagonalization in iterative solution of the eigenvalue problem:
     a serial algorithm will be used

     Using Slab Decomposition

     bravais-lattice index     =            0
     lattice parameter (alat)  =      14.2739  a.u.
     unit-cell volume          =    1658.0671 (a.u.)^3
     number of atoms/cell      =           10
     number of atomic types    =            3
     number of electrons       =        86.00
     number of Kohn-Sham states=           52
     kinetic-energy cutoff     =      30.0000  Ry
     charge density cutoff     =     240.0000  Ry
     scf convergence threshold =      1.0E-06
     mixing beta               =       0.7000
     number of iterations used =            8  plain     mixing
     Exchange-correlation= PBE
                           (   1   4   3   4   0   0   0)

     celldm(1)=  14.273940  celldm(2)=   0.000000  celldm(3)=   0.000000
     celldm(4)=   0.000000  celldm(5)=   0.000000  celldm(6)=   0.000000

     crystal axes: (cart. coord. in units of alat)
               a(1) = (   1.000000   0.000000   0.000000 )
               a(2) = (   0.000000   1.000000   0.000000 )
               a(3) = (   0.000000   0.000000   0.570125 )

     reciprocal axes: (cart. coord. in units 2 pi/alat)
               b(1) = (  1.000000  0.000000  0.000000 )
               b(2) = (  0.000000  1.000000  0.000000 )
               b(3) = (  0.000000  0.000000  1.754000 )

     PseudoPot. # 1 for Ce read from file:
     /home/pragov/projects/rrg-bengioy-ad/pragov/crystal_structure_design/SSSP/Ce.GGA-PBE-paw-v1.0.UPF
     MD5 check sum: f2b950f613061344c13339c8d844425d
     Pseudo is Projector augmented-wave + core cor, Zval = 12.0
     Generated using ATOMPAW code
     Shape of augmentation charge: BESSEL
     Using radial grid of 1102 points,  8 beta functions with:
                l(1) =   0
                l(2) =   0
                l(3) =   1
                l(4) =   1
                l(5) =   2
                l(6) =   2
                l(7) =   3
                l(8) =   3
     Q(r) pseudized with 0 coefficients

     PseudoPot. # 2 for Y  read from file:
     /home/pragov/projects/rrg-bengioy-ad/pragov/crystal_structure_design/SSSP/Y_pbe_v1.uspp.F.UPF
     MD5 check sum: 2cf71db95cafeb975fc457bd7f14888e
     Pseudo is Ultrasoft + core correction, Zval = 11.0
     Generated by new atomic code, or converted to UPF format
     Using radial grid of  885 points,  6 beta functions with:
                l(1) =   0
                l(2) =   0
                l(3) =   1
                l(4) =   1
                l(5) =   2
                l(6) =   2
     Q(r) pseudized with  6 coefficients,  rinner =    1.200   1.200   1.200
                                                       1.200   1.200

     PseudoPot. # 3 for Si read from file:
     /home/pragov/projects/rrg-bengioy-ad/pragov/crystal_structure_design/SSSP/Si.pbe-n-rrkjus_psl.1.0.0.UPF
     MD5 check sum: 0b0bb1205258b0d07b9f9672cf965d36
     Pseudo is Ultrasoft + core correction, Zval =  4.0
     Generated using "atomic" code by A. Dal Corso  v.5.1
     Using radial grid of 1141 points,  6 beta functions with:
                l(1) =   0
                l(2) =   0
                l(3) =   1
                l(4) =   1
                l(5) =   2
                l(6) =   2
     Q(r) pseudized with 0 coefficients

     atomic species   valence    mass     pseudopotential
        Ce            12.00   140.11600     Ce( 1.00)
        Y             11.00    88.90584     Y ( 1.00)
        Si             4.00    28.08500     Si( 1.00)

     16 Sym. Ops., with inversion, found ( 8 have fractional translation)

                                    s                        frac. trans.

      isym =  1     identity

 cryst.   s( 1) = (     1          0          0      )
                  (     0          1          0      )
                  (     0          0          1      )

 cart.    s( 1) = (  1.0000000  0.0000000  0.0000000 )
                  (  0.0000000  1.0000000  0.0000000 )
                  (  0.0000000  0.0000000  1.0000000 )

      isym =  2     180 deg rotation - cart. axis [0,0,1]

[...]

 cryst.   s( 3) = (    -1          0          0      )    f =(  0.5000000 )
                  (     0          1          0      )       ( -0.5000000 )
                  (     0          0         -1      )       (  0.0000000 )

 cart.    s( 3) = ( -1.0000000  0.0000000  0.0000000 )    f =(  0.5000000 )
                  (  0.0000000  1.0000000  0.0000000 )       ( -0.5000000 )
                  (  0.0000000  0.0000000 -1.0000000 )       (  0.0000000 )

[...]

 cryst.   s( 6) = (     0         -1          0      )    f =(  0.5000000 )
                  (    -1          0          0      )       (  0.5000000 )
                  (     0          0         -1      )       (  0.0000000 )

 cart.    s( 6) = (  0.0000000 -1.0000000  0.0000000 )    f =(  0.5000000 )
                  ( -1.0000000  0.0000000  0.0000000 )       (  0.5000000 )
                  (  0.0000000  0.0000000 -1.0000000 )       (  0.0000000 )

[...]

      isym =  8      90 deg rotation - cart. axis [0,0,1]

[...]

      isym =  9     inversion

 cryst.   s( 9) = (    -1          0          0      )
                  (     0         -1          0      )
                  (     0          0         -1      )

 cart.    s( 9) = ( -1.0000000  0.0000000  0.0000000 )
                  (  0.0000000 -1.0000000  0.0000000 )
                  (  0.0000000  0.0000000 -1.0000000 )

      isym = 10     inv. 180 deg rotation - cart. axis [0,0,1]

 cryst.   s(10) = (     1          0          0      )
                  (     0          1          0      )
                  (     0          0         -1      )

 cart.    s(10) = (  1.0000000  0.0000000  0.0000000 )
                  (  0.0000000  1.0000000  0.0000000 )
                  (  0.0000000  0.0000000 -1.0000000 )

[...]

 cryst.   s(11) = (     1          0          0      )    f =(  0.5000000 )
                  (     0         -1          0      )       (  0.5000000 )
                  (     0          0          1      )       (  0.0000000 )

 cart.    s(11) = (  1.0000000  0.0000000  0.0000000 )    f =(  0.5000000 )
                  (  0.0000000 -1.0000000  0.0000000 )       (  0.5000000 )
                  (  0.0000000  0.0000000  1.0000000 )       (  0.0000000 )

[...]

 cryst.   s(14) = (     0          1          0      )    f =(  0.5000000 )
                  (     1          0          0      )       ( -0.5000000 )
                  (     0          0          1      )       (  0.0000000 )

 cart.    s(14) = (  0.0000000  1.0000000  0.0000000 )    f =(  0.5000000 )
                  (  1.0000000  0.0000000  0.0000000 )       ( -0.5000000 )
                  (  0.0000000  0.0000000  1.0000000 )       (  0.0000000 )

[...]

      isym = 16     inv.  90 deg rotation - cart. axis [0,0,1]

 cryst.   s(16) = (     0         -1          0      )
                  (     1          0          0      )
                  (     0          0         -1      )

 cart.    s(16) = (  0.0000000  1.0000000  0.0000000 )
                  ( -1.0000000  0.0000000  0.0000000 )
                  (  0.0000000  0.0000000 -1.0000000 )

   Cartesian axes

     site n.     atom                  positions (alat units)
         1           Ce  tau(   1) = (   0.6800180   0.1800180   0.2850627  )
         2           Ce  tau(   2) = (   0.3199820   0.8199820   0.2850627  )
         3           Ce  tau(   3) = (   0.1800180   0.3199820   0.2850627  )
         4           Ce  tau(   4) = (   0.8199820   0.6800180   0.2850627  )
         5           Y   tau(   5) = (   0.0000000   0.0000000   0.0000000  )
         6           Y   tau(   6) = (   0.5000000   0.5000000   0.0000000  )
         7           Si  tau(   7) = (   0.1145160   0.6145160   0.0000000  )
         8           Si  tau(   8) = (   0.8854840   0.3854840   0.0000000  )
         9           Si  tau(   9) = (   0.6145160   0.8854840   0.0000000  )
        10           Si  tau(  10) = (   0.3854840   0.1145160   0.0000000  )

   Crystallographic axes

     site n.     atom                  positions (cryst. coord.)
         1           Ce  tau(   1) = (  0.6800180  0.1800180  0.5000000  )
         2           Ce  tau(   2) = (  0.3199820  0.8199820  0.5000000  )
         3           Ce  tau(   3) = (  0.1800180  0.3199820  0.5000000  )
         4           Ce  tau(   4) = (  0.8199820  0.6800180  0.5000000  )
         5           Y   tau(   5) = (  0.0000000  0.0000000  0.0000000  )
         6           Y   tau(   6) = (  0.5000000  0.5000000  0.0000000  )
         7           Si  tau(   7) = (  0.1145160  0.6145160  0.0000000  )
         8           Si  tau(   8) = (  0.8854840  0.3854840  0.0000000  )
         9           Si  tau(   9) = (  0.6145160  0.8854840  0.0000000  )
        10           Si  tau(  10) = (  0.3854840  0.1145160  0.0000000  )

     number of k points=     1  Methfessel-Paxton smearing, width (Ry)=  0.0010
                       cart. coord. in units 2pi/alat
        k(    1) = (   0.0000000   0.0000000   0.0000000), wk =   2.0000000

                       cryst. coord.
        k(    1) = (   0.0000000   0.0000000   0.0000000), wk =   2.0000000

     Check: negative core charge=   -0.000002

     Initial potential from superposition of free atoms

     starting charge      85.9609, renormalised to      86.0000

     negative rho (up, down):  8.480E-02 0.000E+00
     Starting wfcs are  170 randomized atomic wfcs
     Checking if some PAW data can be deallocated...

     Self-consistent Calculation

     iteration #  1     ecut=    30.00 Ry     beta= 0.70
     Davidson diagonalization with overlap

     ethr =  1.00E-02,  avg # of iterations =  2.0

     negative rho (up, down):  8.458E-02 0.000E+00

     total energy              =   -2148.77173326 Ry
     estimated scf accuracy    <       1.01944791 Ry

[...]

     WARNING: integrated charge=    86.00015500, expected=    86.00000000

[...]

     c_bands:  1 eigenvalues not converged
     ethr =  1.45E-04,  avg # of iterations = 20.0

[...]

     WARNING: integrated charge=    86.00001100, expected=    86.00000000

[...]

     c_bands:  3 eigenvalues not converged
     ethr =  2.25E-06,  avg # of iterations = 20.0

[...]

     total energy              =   -2149.45286863 Ry
     estimated scf accuracy    <       0.00000127 Ry

     iteration #100     ecut=    30.00 Ry     beta= 0.70
     Davidson diagonalization with overlap

     ethr =  1.41E-09,  avg # of iterations =  2.0

[...]

     End of self-consistent calculation

          k = 0.0000 0.0000 0.0000 (  2288 PWs)   bands (ev):

   -30.7605 -30.7600 -23.0414 -22.9937 -22.9937 -22.9815 -10.8483 -10.8483
   -10.8304 -10.8304 -10.7710 -10.7630  -6.1823  -6.1261  -6.0123  -6.0123
    -5.7082  -5.6896  -5.6857  -5.6146  -5.6145  -5.5903  -5.5248  -5.5248
     2.5943   3.7615   5.5898   5.5898   8.2039   8.6952   9.1660   9.2327
     9.2327   9.5811   9.6801   9.8163  10.2775  10.2775  10.6417  10.9467
    10.9873  11.2154  11.2731  11.2731  11.5155  11.5155  11.5202  11.6424
    11.6427  11.6869  11.6976  11.6981

     occupation numbers
     1.0000   1.0000   1.0000   1.0000   1.0000   1.0000   1.0000   1.0000
     1.0000   1.0000   1.0000   1.0000   1.0000   1.0000   1.0000   1.0000
     1.0000   1.0000   1.0000   1.0000   1.0000   1.0000   1.0000   1.0000
     1.0000   1.0000   1.0000   1.0000   1.0000   1.0000   1.0000   1.0000
     1.0000   1.0000   1.0000   1.0000   1.0000   1.0000   1.0000   1.0000
     1.0000   1.0000   0.5004   0.4996  -0.0000  -0.0000  -0.0000  -0.0000
    -0.0000  -0.0000  -0.0000  -0.0000

     the Fermi energy is    11.2731 ev

!    total energy              =   -2149.45286776 Ry
     estimated scf accuracy    <       0.00000100 Ry
     smearing contrib. (-TS)   =      -0.00056419 Ry
     internal energy E=F+TS    =   -2149.45230358 Ry

     The total energy is F=E-TS. E is the sum of the following terms:
     one-electron contribution =     -42.49267456 Ry
     hartree contribution      =      67.77137862 Ry
     xc contribution           =    -109.74820411 Ry
     ewald contribution        =    -431.86161078 Ry
     one-center paw contrib.   =   -1633.12119275 Ry
      -> PAW hartree energy AE =     174.65025092 Ry
      -> PAW hartree energy PS =    -173.60401880 Ry
      -> PAW xc energy AE      =   -1668.26881331 Ry
      -> PAW xc energy PS      =      34.10138844 Ry
      -> total E_H with PAW    =      68.81761074 Ry
      -> total E_XC with PAW   =   -1743.91562898 Ry

     convergence has been achieved in 100 iterations

     negative rho (up, down):  8.547E-02 0.000E+00

     Forces acting on atoms (cartesian axes, Ry/au):

     atom    1 type  1   force =    -0.01634706   -0.01634706   -0.00000000
     atom    2 type  1   force =     0.01634706    0.01634706    0.00000000
     atom    3 type  1   force =    -0.01634706    0.01634706    0.00000000
     atom    4 type  1   force =     0.01634706   -0.01634706   -0.00000000
     atom    5 type  2   force =     0.00000000    0.00000000    0.00000000
     atom    6 type  2   force =     0.00000000    0.00000000    0.00000000
     atom    7 type  3   force =    -0.01801649   -0.01801649    0.00000000
     atom    8 type  3   force =     0.01801649    0.01801649    0.00000000
     atom    9 type  3   force =    -0.01801649    0.01801649    0.00000000
     atom   10 type  3   force =     0.01801649   -0.01801649    0.00000000
     The non-local contrib.  to forces
     atom    1 type  1   force =     0.03361842    0.03361842    0.00000000
     atom    2 type  1   force =    -0.03361842   -0.03361842    0.00000000
     atom    3 type  1   force =     0.03361842   -0.03361842    0.00000000
     atom    4 type  1   force =    -0.03361842    0.03361842    0.00000000
     atom    5 type  2   force =     0.00000000    0.00000000   -0.00000000
     atom    6 type  2   force =     0.00000000    0.00000000    0.00000000
     atom    7 type  3   force =    -0.02405245   -0.02405245    0.00000000
     atom    8 type  3   force =     0.02405245    0.02405245    0.00000000
     atom    9 type  3   force =    -0.02405245    0.02405245    0.00000000
     atom   10 type  3   force =     0.02405245   -0.02405245    0.00000000
     The ionic contribution  to forces
     atom    1 type  1   force =    -0.23010304   -0.23010304    0.00000000
     atom    2 type  1   force =     0.23010304    0.23010304    0.00000000
     atom    3 type  1   force =    -0.23010304    0.23010304    0.00000000
     atom    4 type  1   force =     0.23010304   -0.23010304    0.00000000
     atom    5 type  2   force =    -0.00000000   -0.00000000   -0.00000000
     atom    6 type  2   force =     0.00000000    0.00000000   -0.00000000
     atom    7 type  3   force =    -0.11515525   -0.11515525   -0.00000000
     atom    8 type  3   force =     0.11515525    0.11515525   -0.00000000
     atom    9 type  3   force =    -0.11515525    0.11515525   -0.00000000
     atom   10 type  3   force =     0.11515525   -0.11515525   -0.00000000
     The local contribution  to forces
     atom    1 type  1   force =     0.18101298    0.18059999   -0.00002099
     atom    2 type  1   force =    -0.18037069   -0.18047242    0.00002027
     atom    3 type  1   force =     0.17919539   -0.17998032    0.00000893
     atom    4 type  1   force =    -0.17976721    0.17940978   -0.00001541
     atom    5 type  2   force =    -0.00092747    0.00027755   -0.00000622
     atom    6 type  2   force =     0.00078899   -0.00051380    0.00000640
     atom    7 type  3   force =     0.11855262    0.11877312    0.00000280
     atom    8 type  3   force =    -0.11908195   -0.11896208   -0.00000146
     atom    9 type  3   force =     0.11922667   -0.11870557    0.00000105
     atom   10 type  3   force =    -0.11862886    0.11903794    0.00000140
     The core correction contribution to forces
     atom    1 type  1   force =     0.00001715    0.00001705   -0.00000002
     atom    2 type  1   force =    -0.00001708   -0.00001717    0.00000001
     atom    3 type  1   force =     0.00001671   -0.00001689    0.00000001
     atom    4 type  1   force =    -0.00001675    0.00001664   -0.00000001
     atom    5 type  2   force =    -0.00000213   -0.00000002   -0.00000002
     atom    6 type  2   force =     0.00000092   -0.00000110    0.00000011
     atom    7 type  3   force =     0.00230897    0.00230854    0.00000018
     atom    8 type  3   force =    -0.00230864   -0.00230879   -0.00000002
     atom    9 type  3   force =     0.00230774   -0.00230721   -0.00000002
     atom   10 type  3   force =    -0.00230737    0.00230672    0.00000012
     The Hubbard contrib.    to forces
     atom    1 type  1   force =     0.00000000    0.00000000    0.00000000
     atom    2 type  1   force =     0.00000000    0.00000000    0.00000000
     atom    3 type  1   force =     0.00000000    0.00000000    0.00000000
     atom    4 type  1   force =     0.00000000    0.00000000    0.00000000
     atom    5 type  2   force =     0.00000000    0.00000000    0.00000000
     atom    6 type  2   force =     0.00000000    0.00000000    0.00000000
     atom    7 type  3   force =     0.00000000    0.00000000    0.00000000
     atom    8 type  3   force =     0.00000000    0.00000000    0.00000000
     atom    9 type  3   force =     0.00000000    0.00000000    0.00000000
     atom   10 type  3   force =     0.00000000    0.00000000    0.00000000
     The SCF correction term to forces
     atom    1 type  1   force =    -0.00067257   -0.00035008    0.00000515
     atom    2 type  1   force =     0.00008627    0.00012511   -0.00000963
     atom    3 type  1   force =     0.00071777   -0.00010168    0.00000109
     atom    4 type  1   force =    -0.00016231    0.00040855    0.00001273
     atom    5 type  2   force =     0.00087383   -0.00026285    0.00000296
     atom    6 type  2   force =    -0.00076077    0.00049353   -0.00000362
     atom    7 type  3   force =     0.00032792    0.00011968   -0.00000051
     atom    8 type  3   force =     0.00018013    0.00006275    0.00000009
     atom    9 type  3   force =    -0.00033225   -0.00015310   -0.00000062
     atom   10 type  3   force =    -0.00023727   -0.00016592   -0.00000072

     Total force =     0.068808     Total SCF correction =     0.001830

     Computing stress (Cartesian axis) and pressure

     negative rho (up, down):  8.547E-02 0.000E+00
          total   stress  (Ry/bohr**3)                   (kbar)     P=      -51.23
  -0.00069713   0.00000000   0.00000000         -102.55        0.00        0.00
   0.00000000  -0.00069713   0.00000000            0.00     -102.55        0.00
   0.00000000   0.00000000   0.00034952            0.00        0.00       51.42

     kinetic stress (kbar)   8252.15      0.00      0.00
                                0.00   8252.15      0.00
                                0.00      0.00   8576.39

     local   stress (kbar)  -3213.74      0.01      0.00
                                0.01  -3213.69     -0.00
                                0.00     -0.00  -3273.91

     nonloc. stress (kbar)   7907.16      0.00      0.00
                                0.00   7907.16      0.00
                                0.00      0.00   7836.26

     hartree stress (kbar)   1977.56     -0.02     -0.00
                               -0.02   1977.54     -0.00
                               -0.00     -0.00   2057.64

     exc-cor stress (kbar)   1202.50     -0.00     -0.00
                               -0.00   1202.50      0.00
                               -0.00      0.00   1206.34

     corecor stress (kbar)  -3497.77     -0.00     -0.00
                               -0.00  -3497.77     -0.00
                               -0.00     -0.00  -3497.02

     ewald   stress (kbar) -12730.42     -0.00      0.00
                               -0.00 -12730.42      0.00
                                0.00      0.00 -12854.28

     hubbard stress (kbar)      0.00      0.00      0.00
                                0.00      0.00      0.00
                                0.00      0.00      0.00

     DFT-D   stress (kbar)      0.00      0.00      0.00
                                0.00      0.00      0.00
                                0.00      0.00      0.00

     XDM     stress (kbar)      0.00      0.00      0.00
                                0.00      0.00      0.00
                                0.00      0.00      0.00

     dft-nl  stress (kbar)      0.00      0.00      0.00
                                0.00      0.00      0.00
                                0.00      0.00      0.00

     TS-vdW  stress (kbar)      0.00      0.00      0.00
                                0.00      0.00      0.00
                                0.00      0.00      0.00

[...]

                                0.00      0.00      0.00

     Writing all to output data dir new_calculations/myprefix.save/

     General routines

     Parallel routines

     PAW routines

   This run was terminated on:   4:46:30  21May2023

   JOB DONE.