     Program PWSCF v.7.0 starts on 21May2023 at  4:52:53

     Reading input from espresso_1064.pwi
Warning: card &CELL ignored
Warning: card / ignored

     Current dimensions of program PWSCF are:
     Max number of different atomic species (ntypx) = 10
     Max number of k-points (npk) =  40000
     Max angular momentum in pseudopotentials (lmaxx) =  4

     gamma-point specific algorithms are used
     Message from routine setup:
     using ibrav=0 with symmetry is DISCOURAGED, use correct ibrav instead

     Subspace diagonalization in iterative solution of the eigenvalue problem:
     a serial algorithm will be used

     Using Slab Decomposition

     bravais-lattice index     =            0
     lattice parameter (alat)  =       9.8520  a.u.
     unit-cell volume          =    1324.4978 (a.u.)^3
     number of atoms/cell      =           18
     number of atomic types    =            2
     number of electrons       =        24.00
     number of Kohn-Sham states=           16
     kinetic-energy cutoff     =      30.0000  Ry
     charge density cutoff     =     240.0000  Ry
     scf convergence threshold =      1.0E-06
     mixing beta               =       0.7000
     number of iterations used =            8  plain     mixing
     Exchange-correlation= PBE
                           (   1   4   3   4   0   0   0)

     celldm(1)=   9.852025  celldm(2)=   0.000000  celldm(3)=   0.000000
     celldm(4)=   0.000000  celldm(5)=   0.000000  celldm(6)=   0.000000

     crystal axes: (cart. coord. in units of alat)
               a(1) = (   1.000000   0.000000   0.000000 )
               a(2) = (   0.000000   1.001560   0.000000 )
               a(3) = (   0.000000   0.000000   1.382922 )

     reciprocal axes: (cart. coord. in units 2 pi/alat)
               b(1) = (  1.000000  0.000000  0.000000 )
               b(2) = (  0.000000  0.998442  0.000000 )
               b(3) = (  0.000000  0.000000  0.723107 )

     PseudoPot. # 1 for Si read from file:
     /home/pragov/projects/rrg-bengioy-ad/pragov/crystal_structure_design/SSSP/Si.pbe-n-rrkjus_psl.1.0.0.UPF
     MD5 check sum: 0b0bb1205258b0d07b9f9672cf965d36
     Pseudo is Ultrasoft + core correction, Zval =  4.0
     Generated using "atomic" code by A. Dal Corso  v.5.1
     Using radial grid of 1141 points,  6 beta functions with:
                l(1) =   0
                l(2) =   0
                l(3) =   1
                l(4) =   1
                l(5) =   2
                l(6) =   2
     Q(r) pseudized with 0 coefficients

     PseudoPot. # 2 for H  read from file:
     /home/pragov/projects/rrg-bengioy-ad/pragov/crystal_structure_design/SSSP/H.pbe-rrkjus_psl.1.0.0.UPF
     MD5 check sum: f52b6d4d1c606e5624b1dc7b2218f220
     Pseudo is Ultrasoft, Zval =  1.0
     Generated using "atomic" code by A. Dal Corso  v.5.1
     Using radial grid of  929 points,  2 beta functions with:
                l(1) =   0
                l(2) =   0
     Q(r) pseudized with 0 coefficients

     atomic species   valence    mass     pseudopotential
        Si             4.00    28.08500     Si( 1.00)
        H              1.00     1.00800     H ( 1.00)

      4 Sym. Ops. (no inversion) found ( 2 have fractional translation)

                                    s                        frac. trans.

      isym =  1     identity

 cryst.   s( 1) = (     1          0          0      )
                  (     0          1          0      )
                  (     0          0          1      )

 cart.    s( 1) = (  1.0000000  0.0000000  0.0000000 )
                  (  0.0000000  1.0000000  0.0000000 )
                  (  0.0000000  0.0000000  1.0000000 )

      isym =  2     180 deg rotation - cart. axis [0,0,1]

 cryst.   s( 2) = (    -1          0          0      )    f =(  0.0000000 )
                  (     0         -1          0      )       (  0.5000000 )
                  (     0          0          1      )       (  0.5000000 )

 cart.    s( 2) = ( -1.0000000  0.0000000  0.0000000 )    f =(  0.0000000 )
                  (  0.0000000 -1.0000000  0.0000000 )       (  0.5007802 )
                  (  0.0000000  0.0000000  1.0000000 )       (  0.6914609 )

      isym =  3     inv. 180 deg rotation - cart. axis [0,1,0]

 cryst.   s( 3) = (     1          0          0      )
                  (     0         -1          0      )
                  (     0          0          1      )

 cart.    s( 3) = (  1.0000000  0.0000000  0.0000000 )
                  (  0.0000000 -1.0000000  0.0000000 )
                  (  0.0000000  0.0000000  1.0000000 )

      isym =  4     inv. 180 deg rotation - cart. axis [1,0,0]

 cryst.   s( 4) = (    -1          0          0      )    f =(  0.0000000 )
                  (     0          1          0      )       (  0.5000000 )
                  (     0          0          1      )       (  0.5000000 )

 cart.    s( 4) = ( -1.0000000  0.0000000  0.0000000 )    f =(  0.0000000 )
                  (  0.0000000  1.0000000  0.0000000 )       (  0.5007802 )
                  (  0.0000000  0.0000000  1.0000000 )       (  0.6914609 )

   Cartesian axes

     site n.     atom                  positions (alat units)
         1           Si  tau(   1) = (   0.2472750   0.5007802   1.1870254  )
         2           Si  tau(   2) = (   0.7527250   0.0000000   0.4955645  )
         3           H   tau(   3) = (   0.4812430   0.5007802   1.3521296  )
         4           H   tau(   4) = (   0.5187570   0.0000000   0.6606687  )
         5           H   tau(   5) = (   0.0133000   0.5007802   1.3522942  )
         6           H   tau(   6) = (   0.9867000   0.0000000   0.6608333  )
         7           H   tau(   7) = (   0.2472680   0.7343911   1.0214039  )
         8           H   tau(   8) = (   0.2472680   0.2671692   1.0214039  )
         9           H   tau(   9) = (   0.7527320   0.7679494   0.3299430  )
        10           H   tau(  10) = (   0.7527320   0.2336110   0.3299430  )
        11           H   tau(  11) = (   0.2884540   0.5007802   0.4288427  )
        12           H   tau(  12) = (   0.7115460   0.0000000   1.1203035  )
        13           H   tau(  13) = (   0.2224130   0.5007802   0.5577296  )
        14           H   tau(  14) = (   0.7775870   0.0000000   1.2491905  )
        15           H   tau(  15) = (   0.7610840   0.5007802   0.9061719  )
        16           H   tau(  16) = (   0.2389160   0.0000000   0.2147111  )
        17           H   tau(  17) = (   0.7087480   0.5007802   0.7728361  )
        18           H   tau(  18) = (   0.2912520   0.0000000   0.0813753  )

   Crystallographic axes

     site n.     atom                  positions (cryst. coord.)
         1           Si  tau(   1) = (  0.2472750  0.5000000  0.8583460  )
         2           Si  tau(   2) = (  0.7527250  0.0000000  0.3583460  )
         3           H   tau(   3) = (  0.4812430  0.5000000  0.9777340  )
         4           H   tau(   4) = (  0.5187570  0.0000000  0.4777340  )
         5           H   tau(   5) = (  0.0133000  0.5000000  0.9778530  )
         6           H   tau(   6) = (  0.9867000  0.0000000  0.4778530  )
         7           H   tau(   7) = (  0.2472680  0.7332470  0.7385840  )
         8           H   tau(   8) = (  0.2472680  0.2667530  0.7385840  )
         9           H   tau(   9) = (  0.7527320  0.7667530  0.2385840  )
        10           H   tau(  10) = (  0.7527320  0.2332470  0.2385840  )
        11           H   tau(  11) = (  0.2884540  0.5000000  0.3100990  )
        12           H   tau(  12) = (  0.7115460  0.0000000  0.8100990  )
        13           H   tau(  13) = (  0.2224130  0.5000000  0.4032980  )
        14           H   tau(  14) = (  0.7775870  0.0000000  0.9032980  )
        15           H   tau(  15) = (  0.7610840  0.5000000  0.6552590  )
        16           H   tau(  16) = (  0.2389160  0.0000000  0.1552590  )
        17           H   tau(  17) = (  0.7087480  0.5000000  0.5588430  )
        18           H   tau(  18) = (  0.2912520  0.0000000  0.0588430  )

     number of k points=     1  Methfessel-Paxton smearing, width (Ry)=  0.0010
                       cart. coord. in units 2pi/alat
        k(    1) = (   0.0000000   0.0000000   0.0000000), wk =   2.0000000

                       cryst. coord.
        k(    1) = (   0.0000000   0.0000000   0.0000000), wk =   2.0000000

     Initial potential from superposition of free atoms

     starting charge      23.9987, renormalised to      24.0000
     Starting wfcs are   24 randomized atomic wfcs

     Self-consistent Calculation

     iteration #  1     ecut=    30.00 Ry     beta= 0.70
     Davidson diagonalization with overlap

     ethr =  1.00E-02,  avg # of iterations =  3.0

     total energy              =     -41.34781353 Ry
     estimated scf accuracy    <       0.84915764 Ry

[...]

     total energy              =     -41.37647659 Ry
     estimated scf accuracy    <       0.00000160 Ry

     iteration #  6     ecut=    30.00 Ry     beta= 0.70
     Davidson diagonalization with overlap

     ethr =  6.69E-09,  avg # of iterations =  1.0

     End of self-consistent calculation

          k = 0.0000 0.0000 0.0000 (  1844 PWs)   bands (ev):

   -10.2647  -9.5753  -7.2509  -6.8513  -6.7565  -6.2522  -5.2119  -4.6267
    -4.6219  -4.3718  -4.3716  -4.3585   2.9019   3.0655   3.2644   3.3746

     occupation numbers
     1.0000   1.0000   1.0000   1.0000   1.0000   1.0000   1.0000   1.0000
     1.0000   1.0000   1.0000   1.0000  -0.0000  -0.0000  -0.0000  -0.0000

     the Fermi energy is    -3.4451 ev

!    total energy              =     -41.37647663 Ry
     estimated scf accuracy    <       0.00000017 Ry
     smearing contrib. (-TS)   =       0.00000000 Ry
     internal energy E=F+TS    =     -41.37647663 Ry

     The total energy is F=E-TS. E is the sum of the following terms:
     one-electron contribution =      -6.62251970 Ry
     hartree contribution      =       8.32135221 Ry
     xc contribution           =     -23.43389562 Ry
     ewald contribution        =     -19.64141352 Ry

     convergence has been achieved in   6 iterations

     Forces acting on atoms (cartesian axes, Ry/au):

     atom    1 type  1   force =     0.00160868    0.00000000    0.00002318
     atom    2 type  1   force =    -0.00160868    0.00000000    0.00002318
     atom    3 type  2   force =    -0.00975044    0.00000000   -0.00802625
     atom    4 type  2   force =     0.00975044    0.00000000   -0.00802625
     atom    5 type  2   force =     0.00899785    0.00000000   -0.00868555
     atom    6 type  2   force =    -0.00899785    0.00000000   -0.00868555
     atom    7 type  2   force =     0.00000848   -0.00914276    0.00842535
     atom    8 type  2   force =     0.00000848    0.00914276    0.00842535
     atom    9 type  2   force =    -0.00000848    0.00914276    0.00842535
     atom   10 type  2   force =    -0.00000848   -0.00914276    0.00842535
     atom   11 type  2   force =     0.00035420    0.00000000   -0.00272902
     atom   12 type  2   force =    -0.00035420    0.00000000   -0.00272902
     atom   13 type  2   force =     0.00014281   -0.00000000    0.00253728
     atom   14 type  2   force =    -0.00014281    0.00000000    0.00253728
     atom   15 type  2   force =     0.00146577    0.00000000    0.00438990
     atom   16 type  2   force =    -0.00146577    0.00000000    0.00438990
     atom   17 type  2   force =    -0.00098123    0.00000000   -0.00436025
     atom   18 type  2   force =     0.00098123    0.00000000   -0.00436025
     The non-local contrib.  to forces
     atom    1 type  1   force =     0.00005250    0.00000000    0.00154264
     atom    2 type  1   force =    -0.00005250    0.00000000    0.00154264
     atom    3 type  2   force =    -0.03499147    0.00000000   -0.02455136
     atom    4 type  2   force =     0.03499147    0.00000000   -0.02455136
     atom    5 type  2   force =     0.03478532    0.00000000   -0.02481457
     atom    6 type  2   force =    -0.03478532    0.00000000   -0.02481457
     atom    7 type  2   force =     0.00003037   -0.03481249    0.02478249
     atom    8 type  2   force =     0.00003037    0.03481249    0.02478249
     atom    9 type  2   force =    -0.00003037    0.03481249    0.02478249
     atom   10 type  2   force =    -0.00003037   -0.03481249    0.02478249
     atom   11 type  2   force =    -0.03146022    0.00000000    0.06152243
     atom   12 type  2   force =     0.03146022    0.00000000    0.06152243
     atom   13 type  2   force =     0.03167490    0.00000000   -0.06143275
     atom   14 type  2   force =    -0.03167490    0.00000000   -0.06143275
     atom   15 type  2   force =    -0.02595529    0.00000000   -0.06638642
     atom   16 type  2   force =     0.02595529   -0.00000000   -0.06638642
     atom   17 type  2   force =     0.02638650    0.00000000    0.06635177
     atom   18 type  2   force =    -0.02638650   -0.00000000    0.06635177
     The ionic contribution  to forces
     atom    1 type  1   force =    -0.02774873    0.00000000    0.00523067
     atom    2 type  1   force =     0.02774873   -0.00000000    0.00523067
     atom    3 type  2   force =     0.74113938    0.00000000    0.51287340
     atom    4 type  2   force =    -0.74113938    0.00000000    0.51287340
     atom    5 type  2   force =    -0.73768009   -0.00000000    0.51988126
     atom    6 type  2   force =     0.73768009    0.00000000    0.51988126
     atom    7 type  2   force =    -0.01045721    0.73780685   -0.51898643
     atom    8 type  2   force =    -0.01045721   -0.73780685   -0.51898643
     atom    9 type  2   force =     0.01045721   -0.73780685   -0.51898643
     atom   10 type  2   force =     0.01045721    0.73780685   -0.51898643
     atom   11 type  2   force =     0.39107623   -0.00000000   -0.77442267
     atom   12 type  2   force =    -0.39107623   -0.00000000   -0.77442267
     atom   13 type  2   force =    -0.41864653    0.00000000    0.77464212
     atom   14 type  2   force =     0.41864653   -0.00000000    0.77464212
     atom   15 type  2   force =     0.33790163    0.00000000    0.84447637
     atom   16 type  2   force =    -0.33790163   -0.00000000    0.84447637
     atom   17 type  2   force =    -0.32695201    0.00000000   -0.84470829
     atom   18 type  2   force =     0.32695201   -0.00000000   -0.84470829
     The local contribution  to forces
     atom    1 type  1   force =     0.02923508    0.00003164   -0.00665830
     atom    2 type  1   force =    -0.02919770    0.00002081   -0.00666221
     atom    3 type  2   force =    -0.71590364    0.00000593   -0.49635196
     atom    4 type  2   force =     0.71589686    0.00000715   -0.49634541
     atom    5 type  2   force =     0.71189529    0.00000647   -0.50374250
     atom    6 type  2   force =    -0.71189379    0.00000536   -0.50375755
     atom    7 type  2   force =     0.01044033   -0.71214571    0.50263173
     atom    8 type  2   force =     0.01044129    0.71214421    0.50262360
     atom    9 type  2   force =    -0.01043260    0.71214405    0.50262405
     atom   10 type  2   force =    -0.01043204   -0.71214896    0.50263077
     atom   11 type  2   force =    -0.35926587   -0.00000476    0.71017680
     atom   12 type  2   force =     0.35926301   -0.00000254    0.71017718
     atom   13 type  2   force =     0.38712385   -0.00000488   -0.71068761
     atom   14 type  2   force =    -0.38712462   -0.00000330   -0.71068485
     atom   15 type  2   force =    -0.31048286    0.00000014   -0.77369409
     atom   16 type  2   force =     0.31048000   -0.00000436   -0.77368634
     atom   17 type  2   force =     0.29958203   -0.00000103    0.77400522
     atom   18 type  2   force =    -0.29958102   -0.00000528    0.77400719
     The core correction contribution to forces
     atom    1 type  1   force =     0.00007494    0.00000119   -0.00011590
     atom    2 type  1   force =    -0.00007228    0.00000066   -0.00011636
     atom    3 type  2   force =     0.00000000    0.00000000    0.00000000
     atom    4 type  2   force =     0.00000000    0.00000000    0.00000000
     atom    5 type  2   force =     0.00000000    0.00000000    0.00000000
     atom    6 type  2   force =     0.00000000    0.00000000    0.00000000
     atom    7 type  2   force =     0.00000000    0.00000000    0.00000000
     atom    8 type  2   force =     0.00000000    0.00000000    0.00000000
     atom    9 type  2   force =     0.00000000    0.00000000    0.00000000
     atom   10 type  2   force =     0.00000000    0.00000000    0.00000000
     atom   11 type  2   force =     0.00000000    0.00000000    0.00000000
     atom   12 type  2   force =     0.00000000    0.00000000    0.00000000
     atom   13 type  2   force =     0.00000000    0.00000000    0.00000000
     atom   14 type  2   force =     0.00000000    0.00000000    0.00000000
     atom   15 type  2   force =     0.00000000    0.00000000    0.00000000
     atom   16 type  2   force =     0.00000000    0.00000000    0.00000000
     atom   17 type  2   force =     0.00000000    0.00000000    0.00000000
     atom   18 type  2   force =     0.00000000    0.00000000    0.00000000
     The Hubbard contrib.    to forces
     atom    1 type  1   force =     0.00000000    0.00000000    0.00000000
     atom    2 type  1   force =     0.00000000    0.00000000    0.00000000
     atom    3 type  2   force =     0.00000000    0.00000000    0.00000000
     atom    4 type  2   force =     0.00000000    0.00000000    0.00000000
     atom    5 type  2   force =     0.00000000    0.00000000    0.00000000
     atom    6 type  2   force =     0.00000000    0.00000000    0.00000000
     atom    7 type  2   force =     0.00000000    0.00000000    0.00000000
     atom    8 type  2   force =     0.00000000    0.00000000    0.00000000
     atom    9 type  2   force =     0.00000000    0.00000000    0.00000000
     atom   10 type  2   force =     0.00000000    0.00000000    0.00000000
     atom   11 type  2   force =     0.00000000    0.00000000    0.00000000
     atom   12 type  2   force =     0.00000000    0.00000000    0.00000000
     atom   13 type  2   force =     0.00000000    0.00000000    0.00000000
     atom   14 type  2   force =     0.00000000    0.00000000    0.00000000
     atom   15 type  2   force =     0.00000000    0.00000000    0.00000000
     atom   16 type  2   force =     0.00000000    0.00000000    0.00000000
     atom   17 type  2   force =     0.00000000    0.00000000    0.00000000
     atom   18 type  2   force =     0.00000000    0.00000000    0.00000000
     The SCF correction term to forces
     atom    1 type  1   force =     0.00000692   -0.00002260    0.00002419
     atom    2 type  1   force =    -0.00002291   -0.00001290    0.00003058
     atom    3 type  2   force =     0.00000508   -0.00000381    0.00000343
     atom    4 type  2   force =     0.00000129   -0.00000465   -0.00000040
     atom    5 type  2   force =    -0.00000229   -0.00000472   -0.00000590
     atom    6 type  2   force =     0.00000155   -0.00000287    0.00000374
     atom    7 type  2   force =    -0.00000338    0.00000856   -0.00000152
     atom    8 type  2   force =    -0.00000466   -0.00000903    0.00000456
     atom    9 type  2   force =    -0.00000288   -0.00000877    0.00000720
     atom   10 type  2   force =    -0.00000019    0.00000808    0.00000126
     atom   11 type  2   force =     0.00000365    0.00000189   -0.00000343
     atom   12 type  2   force =    -0.00000163    0.00000277   -0.00000586
     atom   13 type  2   force =    -0.00000974    0.00000184    0.00001755
     atom   14 type  2   force =     0.00000985    0.00000302    0.00001297
     atom   15 type  2   force =     0.00000159   -0.00000138   -0.00000718
     atom   16 type  2   force =    -0.00000013    0.00000312   -0.00001022
     atom   17 type  2   force =     0.00000245    0.00000081   -0.00000831
     atom   18 type  2   force =    -0.00000307    0.00000494   -0.00000933

     Total force =     0.036961     Total SCF correction =     0.000067

     Computing stress (Cartesian axis) and pressure

          total   stress  (Ry/bohr**3)                   (kbar)     P=       10.72
   0.00019472   0.00000000   0.00000000           28.64        0.00        0.00
   0.00000000   0.00018961   0.00000000            0.00       27.89        0.00
   0.00000000   0.00000000  -0.00016580            0.00        0.00      -24.39

     kinetic stress (kbar)   1765.39      0.00      0.00
                                0.00   1805.84      0.00
                                0.00      0.00   1548.17

     local   stress (kbar)   -851.13     -0.00      0.00
                               -0.00   -784.99     -0.00
                                0.00     -0.00  -1162.02

     nonloc. stress (kbar)    255.00      0.00      0.00
                                0.00    257.34      0.00
                                0.00      0.00    240.31

     hartree stress (kbar)    290.42     -0.00     -0.00
                               -0.00    282.74      0.00
                               -0.00      0.00    351.05

     exc-cor stress (kbar)    209.99     -0.00     -0.00
                               -0.00    208.74      0.00
                               -0.00      0.00    215.37

     corecor stress (kbar)   -806.53     -0.00      0.00
                               -0.00   -806.53     -0.00
                                0.00     -0.00   -805.53

     ewald   stress (kbar)   -834.49     -0.00     -0.00
                               -0.00   -935.25      0.00
                               -0.00      0.00   -411.73

     hubbard stress (kbar)      0.00      0.00      0.00
                                0.00      0.00      0.00
                                0.00      0.00      0.00

     DFT-D   stress (kbar)      0.00      0.00      0.00
                                0.00      0.00      0.00
                                0.00      0.00      0.00

     XDM     stress (kbar)      0.00      0.00      0.00
                                0.00      0.00      0.00
                                0.00      0.00      0.00

     dft-nl  stress (kbar)      0.00      0.00      0.00
                                0.00      0.00      0.00
                                0.00      0.00      0.00

     TS-vdW  stress (kbar)      0.00      0.00      0.00
                                0.00      0.00      0.00
                                0.00      0.00      0.00

[...]

                                0.00      0.00      0.00

     Writing all to output data dir new_calculations/myprefix.save/

     General routines

     Parallel routines

   This run was terminated on:   4:52:59  21May2023

   JOB DONE.