     Program PWSCF v.7.0 starts on 20May2023 at  1: 9:20

     Reading input from espresso_6008.pwi
Warning: card &CELL ignored
Warning: card / ignored

     Current dimensions of program PWSCF are:
     Max number of different atomic species (ntypx) = 10
     Max number of k-points (npk) =  40000
     Max angular momentum in pseudopotentials (lmaxx) =  4
     file O.pbe-n-kjpaw_psl.0.1.UPF: wavefunction(s)  2P renormalized

     gamma-point specific algorithms are used
     Message from routine setup:
     using ibrav=0 with symmetry is DISCOURAGED, use correct ibrav instead

     Subspace diagonalization in iterative solution of the eigenvalue problem:
     a serial algorithm will be used

     Using Slab Decomposition

     bravais-lattice index     =            0
     lattice parameter (alat)  =      11.2466  a.u.
     unit-cell volume          =    1073.7052 (a.u.)^3
     number of atoms/cell      =           14
     number of atomic types    =            2
     number of electrons       =       162.00
     number of Kohn-Sham states=           97
     kinetic-energy cutoff     =      30.0000  Ry
     charge density cutoff     =     240.0000  Ry
     scf convergence threshold =      1.0E-06
     mixing beta               =       0.7000
     number of iterations used =            8  plain     mixing
     Exchange-correlation= SLA  PW   PBX  PBC
                           (   1   4   3   4   0   0   0)

     celldm(1)=  11.246615  celldm(2)=   0.000000  celldm(3)=   0.000000
     celldm(4)=   0.000000  celldm(5)=   0.000000  celldm(6)=   0.000000

     crystal axes: (cart. coord. in units of alat)
               a(1) = (   1.000000   0.000000   0.000000 )
               a(2) = (  -0.225664   0.974205   0.000000 )
               a(3) = (  -0.299388  -0.556874   0.774763 )

     reciprocal axes: (cart. coord. in units 2 pi/alat)
               b(1) = (  1.000000  0.231639  0.552919 )
               b(2) = (  0.000000  1.026478  0.737798 )
               b(3) = (  0.000000  0.000000  1.290717 )

     PseudoPot. # 1 for Cu read from file:
     /home/pragov/projects/rrg-bengioy-ad/pragov/crystal_structure_design/SSSP/Cu_pbe_v1.2.uspp.F.UPF
     MD5 check sum: 6e991ff952a84172a2a52a1c1e996048
     Pseudo is Ultrasoft + core correction, Zval = 19.0
     Generated by new atomic code, or converted to UPF format
     Using radial grid of  867 points,  6 beta functions with:
                l(1) =   0
                l(2) =   0
                l(3) =   1
                l(4) =   1
                l(5) =   2
                l(6) =   2
     Q(r) pseudized with  8 coefficients,  rinner =    1.150   1.150   1.150
                                                       1.150   1.150

     PseudoPot. # 2 for O  read from file:
     /home/pragov/projects/rrg-bengioy-ad/pragov/crystal_structure_design/SSSP/O.pbe-n-kjpaw_psl.0.1.UPF
     MD5 check sum: 0234752ac141de4415c5fc33072bef88
     Pseudo is Projector augmented-wave + core cor, Zval =  6.0
     Generated using "atomic" code by A. Dal Corso  v.5.0.99 svn rev. 10869
     Shape of augmentation charge: BESSEL
     Using radial grid of 1095 points,  4 beta functions with:
                l(1) =   0
                l(2) =   0
                l(3) =   1
                l(4) =   1
     Q(r) pseudized with 0 coefficients

     atomic species   valence    mass     pseudopotential
        Cu            19.00    63.54600     Cu( 1.00)
        O              6.00    15.99900     O ( 1.00)

      2 Sym. Ops., with inversion, found

                                    s                        frac. trans.

      isym =  1     identity

 cryst.   s( 1) = (     1          0          0      )
                  (     0          1          0      )
                  (     0          0          1      )

 cart.    s( 1) = (  1.0000000 -0.0000000  0.0000000 )
                  (  0.0000000  1.0000000 -0.0000000 )
                  (  0.0000000  0.0000000  1.0000000 )

      isym =  2     inversion

 cryst.   s( 2) = (    -1          0          0      )
                  (     0         -1          0      )
                  (     0          0         -1      )

 cart.    s( 2) = ( -1.0000000  0.0000000 -0.0000000 )
                  (  0.0000000 -1.0000000  0.0000000 )
                  (  0.0000000  0.0000000 -1.0000000 )

   Cartesian axes

     site n.     atom                  positions (alat units)
         1           Cu  tau(   1) = (  -0.1496939  -0.2784370   0.3873817  )
         2           Cu  tau(   2) = (  -0.2625257   0.2086657   0.3873817  )
         3           Cu  tau(   3) = (  -0.1128318   0.4871027   0.0000000  )
         4           Cu  tau(   4) = (   0.2374743   0.2086657   0.3873817  )
         5           Cu  tau(   5) = (   0.0000000   0.0000000   0.0000000  )
         6           Cu  tau(   6) = (   0.5000000   0.0000000   0.0000000  )
         7           O   tau(   7) = (   0.4751186   0.4171963   0.4361050  )
         8           O   tau(   8) = (   0.4758587   0.0104564   0.3168534  )
         9           O   tau(   9) = (   0.7376442   0.2085306   0.0487233  )
        10           O   tau(  10) = (   0.6402771   0.6746093   0.0705283  )
        11           O   tau(  11) = (  -0.1653284  -0.2572780   0.7042351  )
        12           O   tau(  12) = (  -0.2626955   0.2088007   0.7260401  )
        13           O   tau(  13) = (  -0.0009100   0.4068749   0.4579100  )
        14           O   tau(  14) = (  -0.0001699   0.0001350   0.3386584  )

   Crystallographic axes

     site n.     atom                  positions (cryst. coord.)
         1           Cu  tau(   1) = (  0.0000000  0.0000000  0.5000000  )
         2           Cu  tau(   2) = (  0.0000000  0.5000000  0.5000000  )
         3           Cu  tau(   3) = (  0.0000000  0.5000000  0.0000000  )
         4           Cu  tau(   4) = (  0.5000000  0.5000000  0.5000000  )
         5           Cu  tau(   5) = (  0.0000000  0.0000000  0.0000000  )
         6           Cu  tau(   6) = (  0.5000000  0.0000000  0.0000000  )
         7           O   tau(   7) = (  0.8128880  0.7500000  0.5628880  )
         8           O   tau(   8) = (  0.6534750  0.2445070  0.4089680  )
         9           O   tau(   9) = (  0.8128880  0.2500000  0.0628880  )
        10           O   tau(  10) = (  0.8355390  0.7445070  0.0910320  )
        11           O   tau(  11) = (  0.1644610  0.2554930  0.9089680  )
        12           O   tau(  12) = (  0.1871120  0.7500000  0.9371120  )
        13           O   tau(  13) = (  0.3465250  0.7554930  0.5910320  )
        14           O   tau(  14) = (  0.1871120  0.2500000  0.4371120  )

     number of k points=     1  Methfessel-Paxton smearing, width (Ry)=  0.0010
                       cart. coord. in units 2pi/alat
        k(    1) = (   0.0000000   0.0000000   0.0000000), wk =   2.0000000

                       cryst. coord.
        k(    1) = (   0.0000000   0.0000000   0.0000000), wk =   2.0000000

     Check: negative core charge=   -0.000015

     Initial potential from superposition of free atoms

     starting charge     156.0000, renormalised to     162.0000
     Starting wfcs are  110 randomized atomic wfcs
     Checking if some PAW data can be deallocated...

     Self-consistent Calculation

     iteration #  1     ecut=    30.00 Ry     beta= 0.70
     Davidson diagonalization with overlap

     ethr =  1.00E-02,  avg # of iterations =  3.0

     total energy              =   -2745.96775255 Ry
     estimated scf accuracy    <      12.78700803 Ry

[...]

     total energy              =   -2754.42686066 Ry
     estimated scf accuracy    <       0.00000387 Ry

     iteration # 37     ecut=    30.00 Ry     beta= 0.70
     Davidson diagonalization with overlap

     ethr =  2.39E-09,  avg # of iterations =  1.0

     End of self-consistent calculation

          k = 0.0000 0.0000 0.0000 (  1489 PWs)   bands (ev):

  -104.7794-104.7789-104.6723-104.6718-104.6714-104.6711 -62.2565 -62.2550
   -62.2524 -62.2515 -62.2371 -62.2356 -62.1960 -62.1839 -62.1408 -62.1390
   -62.1320 -62.1294 -61.9580 -61.9568 -61.6754 -61.6731 -61.6705 -61.6674
   -11.2389 -10.1401 -10.1025 -10.0498  -9.6236  -9.3734  -9.2802  -9.2229
     0.9438   1.4180   1.5201   1.7877   2.7155   2.7202   2.8656   2.9865
     3.1774   3.2465   3.2707   3.3369   3.6609   3.7138   4.1481   4.3774
     4.8246   5.0640   5.1905   5.3308   5.3535   5.5434   5.5702   5.6095
     5.6523   5.6542   5.6784   5.7146   5.7207   5.8225   5.8465   5.8642
     5.8701   5.9173   5.9306   6.0031   6.0569   6.2422   6.2838   6.2943
     6.3672   6.5331   6.6716   6.7979   6.9020   6.9817   7.9991   8.3419
     8.9640   8.9655   9.0231   9.0792   9.6600   9.9767  11.6734  13.6808
    14.9915  16.7448  16.7654  16.7706  17.0230  17.3804  17.7823  18.4126
    18.4381

     occupation numbers
     1.0000   1.0000   1.0000   1.0000   1.0000   1.0000   1.0000   1.0000
     1.0000   1.0000   1.0000   1.0000   1.0000   1.0000   1.0000   1.0000
     1.0000   1.0000   1.0000   1.0000   1.0000   1.0000   1.0000   1.0000
     1.0000   1.0000   1.0000   1.0000   1.0000   1.0000   1.0000   1.0000
     1.0000   1.0000   1.0000   1.0000   1.0000   1.0000   1.0000   1.0000
     1.0000   1.0000   1.0000   1.0000   1.0000   1.0000   1.0000   1.0000
     1.0000   1.0000   1.0000   1.0000   1.0000   1.0000   1.0000   1.0000
     1.0000   1.0000   1.0000   1.0000   1.0000   1.0000   1.0000   1.0000
     1.0000   1.0000   1.0000   1.0000   1.0000   1.0000   1.0000   1.0000
     1.0000   1.0000   1.0000   1.0000   1.0000   1.0000   1.0000   1.0000
     0.5482   0.4518  -0.0000  -0.0000  -0.0000  -0.0000  -0.0000  -0.0000
    -0.0000  -0.0000  -0.0000  -0.0000  -0.0000  -0.0000  -0.0000  -0.0000
    -0.0000

     the Fermi energy is     8.9647 ev

!    total energy              =   -2754.42686048 Ry
     estimated scf accuracy    <       0.00000049 Ry
     smearing contrib. (-TS)   =      -0.00055870 Ry
     internal energy E=F+TS    =   -2754.42630178 Ry

     The total energy is F=E-TS. E is the sum of the following terms:
     one-electron contribution =   -2292.40333159 Ry
     hartree contribution      =    1218.28303130 Ry
     xc contribution           =    -291.05834145 Ry
     ewald contribution        =   -1312.99741885 Ry
     one-center paw contrib.   =     -76.25024119 Ry
      -> PAW hartree energy AE =     228.36447291 Ry
      -> PAW hartree energy PS =    -227.58929232 Ry
      -> PAW xc energy AE      =    -136.04216125 Ry
      -> PAW xc energy PS      =      59.01673947 Ry
      -> total E_H with PAW    =    1219.05821189 Ry
      -> total E_XC with PAW   =    -368.08376323 Ry

     convergence has been achieved in  37 iterations

     Forces acting on atoms (cartesian axes, Ry/au):

     atom    1 type  1   force =     0.00000000    0.00000000    0.00000000
     atom    2 type  1   force =     0.00000000    0.00000000    0.00000000
     atom    3 type  1   force =     0.00000000    0.00000000    0.00000000
     atom    4 type  1   force =     0.00000000    0.00000000    0.00000000
     atom    5 type  1   force =     0.00000000    0.00000000    0.00000000
     atom    6 type  1   force =     0.00000000    0.00000000    0.00000000
     atom    7 type  2   force =     0.01061322   -0.00839290    0.01166928
     atom    8 type  2   force =    -0.00460212    0.01332026   -0.01032711
     atom    9 type  2   force =     0.01050085   -0.00836933    0.01163202
     atom   10 type  2   force =     0.01401191   -0.00150025    0.01033081
     atom   11 type  2   force =    -0.01401191    0.00150025   -0.01033081
     atom   12 type  2   force =    -0.01050085    0.00836933   -0.01163202
     atom   13 type  2   force =     0.00460212   -0.01332026    0.01032711
     atom   14 type  2   force =    -0.01061322    0.00839290   -0.01166928
     The non-local contrib.  to forces
     atom    1 type  1   force =     0.00000000    0.00000000    0.00000000
     atom    2 type  1   force =     0.00000000    0.00000000    0.00000000
     atom    3 type  1   force =     0.00000000    0.00000000    0.00000000
     atom    4 type  1   force =     0.00000000    0.00000000    0.00000000
     atom    5 type  1   force =     0.00000000    0.00000000    0.00000000
     atom    6 type  1   force =     0.00000000    0.00000000    0.00000000
     atom    7 type  2   force =     0.05286784   -0.04193103    0.05843492
     atom    8 type  2   force =    -0.01544069    0.73620294   -0.40710386
     atom    9 type  2   force =     0.05272366   -0.04193500    0.05832626
     atom   10 type  2   force =     0.72069836    0.15105364    0.40711835
     atom   11 type  2   force =    -0.72069836   -0.15105364   -0.40711835
     atom   12 type  2   force =    -0.05272366    0.04193500   -0.05832626
     atom   13 type  2   force =     0.01544069   -0.73620294    0.40710386
     atom   14 type  2   force =    -0.05286784    0.04193103   -0.05843492
     The ionic contribution  to forces
     atom    1 type  1   force =     0.00000000    0.00000000   -0.00000000
     atom    2 type  1   force =     0.00000000   -0.00000000   -0.00000000
     atom    3 type  1   force =     0.00000000   -0.00000000   -0.00000000
     atom    4 type  1   force =    -0.00000000   -0.00000000   -0.00000000
     atom    5 type  1   force =    -0.00000000    0.00000000    0.00000000
     atom    6 type  1   force =     0.00000000    0.00000000    0.00000000
     atom    7 type  2   force =    -8.10275316    6.44038522   -8.96033012
     atom    8 type  2   force =    -4.63692599  -16.19043223    5.57867157
     atom    9 type  2   force =    -8.10275316    6.44038521   -8.96033012
     atom   10 type  2   force =   -14.72642003   -8.17090764   -5.57867157
     atom   11 type  2   force =    14.72642003    8.17090764    5.57867157
     atom   12 type  2   force =     8.10275316   -6.44038522    8.96033012
     atom   13 type  2   force =     4.63692599   16.19043224   -5.57867157
     atom   14 type  2   force =     8.10275316   -6.44038521    8.96033012
     The local contribution  to forces
     atom    1 type  1   force =     0.00014707    0.00003972   -0.00031306
     atom    2 type  1   force =     0.00030082    0.00013439    0.00013659
     atom    3 type  1   force =    -0.00015257    0.00028659    0.00013806
     atom    4 type  1   force =    -0.00032181    0.00010296    0.00013841
     atom    5 type  1   force =    -0.00005112   -0.00030743    0.00012404
     atom    6 type  1   force =    -0.00000902   -0.00015579   -0.00032145
     atom    7 type  2   force =     8.06029064   -6.40696324    8.91357225
     atom    8 type  2   force =     4.64734758   15.47513856   -5.18606942
     atom    9 type  2   force =     8.06056253   -6.40680000    8.91353273
     atom   10 type  2   force =    14.02719097    8.01987685    5.18596863
     atom   11 type  2   force =   -14.02713917   -8.01984834   -5.18595097
     atom   12 type  2   force =    -8.06056231    6.40680109   -8.91353389
     atom   13 type  2   force =    -4.64736688  -15.47519506    5.18608625
     atom   14 type  2   force =    -8.06029172    6.40696503   -8.91357100
     The core correction contribution to forces
     atom    1 type  1   force =    -0.00000001    0.00000002   -0.00000002
     atom    2 type  1   force =     0.00000003    0.00000003    0.00000001
     atom    3 type  1   force =    -0.00000002    0.00000003   -0.00000001
     atom    4 type  1   force =    -0.00000003    0.00000001   -0.00000003
     atom    5 type  1   force =    -0.00000002   -0.00000004    0.00000001
     atom    6 type  1   force =    -0.00000002    0.00000001   -0.00000003
     atom    7 type  2   force =    -0.00004969    0.00003839   -0.00005491
     atom    8 type  2   force =     0.00020197   -0.00761671    0.00424068
     atom    9 type  2   force =    -0.00004822    0.00003854   -0.00005346
     atom   10 type  2   force =    -0.00746553   -0.00152145   -0.00424067
     atom   11 type  2   force =     0.00746590    0.00152160    0.00424092
     atom   12 type  2   force =     0.00004818   -0.00003851    0.00005342
     atom   13 type  2   force =    -0.00020200    0.00761627   -0.00424049
     atom   14 type  2   force =     0.00004969   -0.00003840    0.00005490
     The Hubbard contrib.    to forces
     atom    1 type  1   force =     0.00000000    0.00000000    0.00000000
     atom    2 type  1   force =     0.00000000    0.00000000    0.00000000
     atom    3 type  1   force =     0.00000000    0.00000000    0.00000000
     atom    4 type  1   force =     0.00000000    0.00000000    0.00000000
     atom    5 type  1   force =     0.00000000    0.00000000    0.00000000
     atom    6 type  1   force =     0.00000000    0.00000000    0.00000000
     atom    7 type  2   force =     0.00000000    0.00000000    0.00000000
     atom    8 type  2   force =     0.00000000    0.00000000    0.00000000
     atom    9 type  2   force =     0.00000000    0.00000000    0.00000000
     atom   10 type  2   force =     0.00000000    0.00000000    0.00000000
     atom   11 type  2   force =     0.00000000    0.00000000    0.00000000
     atom   12 type  2   force =     0.00000000    0.00000000    0.00000000
     atom   13 type  2   force =     0.00000000    0.00000000    0.00000000
     atom   14 type  2   force =     0.00000000    0.00000000    0.00000000
     The SCF correction term to forces
     atom    1 type  1   force =    -0.00015529   -0.00003906    0.00033118
     atom    2 type  1   force =    -0.00031793   -0.00014071   -0.00014444
     atom    3 type  1   force =     0.00015840   -0.00030039   -0.00014665
     atom    4 type  1   force =     0.00034358   -0.00011129   -0.00015226
     atom    5 type  1   force =     0.00005111    0.00032099   -0.00012935
     atom    6 type  1   force =     0.00001136    0.00016678    0.00032419
     atom    7 type  2   force =     0.00025850    0.00007728    0.00004741
     atom    8 type  2   force =     0.00021430    0.00001851   -0.00005924
     atom    9 type  2   force =     0.00001579   -0.00005753    0.00015645
     atom   10 type  2   force =     0.00001803    0.00000039    0.00016040
     atom   11 type  2   force =    -0.00005040   -0.00002496   -0.00016964
     atom   12 type  2   force =    -0.00001646    0.00005752   -0.00015558
     atom   13 type  2   force =    -0.00019639    0.00002004    0.00005590
     atom   14 type  2   force =    -0.00025561   -0.00008002   -0.00004812

     Total force =     0.049909     Total SCF correction =     0.001085

     Computing stress (Cartesian axis) and pressure

          total   stress  (Ry/bohr**3)                   (kbar)     P=     -845.14
  -0.00573536  -0.00004081   0.00011885         -843.70       -6.00       17.48
  -0.00004081  -0.00575409  -0.00009446           -6.00     -846.46      -13.89
   0.00011885  -0.00009446  -0.00574604           17.48      -13.89     -845.27

     kinetic stress (kbar)  35043.17   -220.77    121.33
                             -220.77  34940.84    -96.52
                              121.33    -96.52  35173.84

     local   stress (kbar) -34255.39   1723.62  29570.46
                             1723.62 -33456.32 -23503.63
                            29570.46 -23503.63 -46559.13

     nonloc. stress (kbar)  19172.34   -112.42     58.48
                             -112.42  19120.16    -46.57
                               58.48    -46.57  19240.15

     hartree stress (kbar)  53858.03  -1391.78 -13193.11
                            -1391.78  53212.87  10486.44
                           -13193.11  10486.44  59842.34

     exc-cor stress (kbar) -11901.45      5.23     -5.22
                                5.23 -11899.02      4.15
                               -5.22      4.15 -11903.67

     corecor stress (kbar)   -758.10      0.23      0.10
                                0.23   -758.00     -0.08
                                0.10     -0.08   -758.32

     ewald   stress (kbar) -62002.30    -10.11 -16534.56
                              -10.11 -62006.99  13142.32
                           -16534.56  13142.32 -55880.48

     hubbard stress (kbar)      0.00      0.00      0.00
                                0.00      0.00      0.00
                                0.00      0.00      0.00

     DFT-D   stress (kbar)      0.00      0.00      0.00
                                0.00      0.00      0.00
                                0.00      0.00      0.00

     XDM     stress (kbar)      0.00      0.00      0.00
                                0.00      0.00      0.00
                                0.00      0.00      0.00

     dft-nl  stress (kbar)      0.00      0.00      0.00
                                0.00      0.00      0.00
                                0.00      0.00      0.00

     TS-vdW  stress (kbar)      0.00      0.00      0.00
                                0.00      0.00      0.00
                                0.00      0.00      0.00

[...]

                                0.00      0.00      0.00

     Writing all to output data dir new_calculations/myprefix.save/

     General routines

     Parallel routines

     PAW routines

   This run was terminated on:   1:10:34  20May2023

   JOB DONE.