     Program PWSCF v.7.0 starts on 20May2023 at  2:49:20

     Reading input from espresso_16004.pwi
Warning: card &CELL ignored
Warning: card / ignored

     Current dimensions of program PWSCF are:
     Max number of different atomic species (ntypx) = 10
     Max number of k-points (npk) =  40000
     Max angular momentum in pseudopotentials (lmaxx) =  4
     file Mg.pbe-n-kjpaw_psl.0.3.0.UPF: wavefunction(s)  3S renormalized

     gamma-point specific algorithms are used
     Message from routine setup:
     using ibrav=0 with symmetry is DISCOURAGED, use correct ibrav instead

     Subspace diagonalization in iterative solution of the eigenvalue problem:
     a serial algorithm will be used

     Using Slab Decomposition

     bravais-lattice index     =            0
     lattice parameter (alat)  =       5.5868  a.u.
     unit-cell volume          =     260.5402 (a.u.)^3
     number of atoms/cell      =            5
     number of atomic types    =            3
     number of electrons       =        20.00
     number of Kohn-Sham states=           14
     kinetic-energy cutoff     =      30.0000  Ry
     charge density cutoff     =     240.0000  Ry
     scf convergence threshold =      1.0E-06
     mixing beta               =       0.7000
     number of iterations used =            8  plain     mixing
     Exchange-correlation= PBE
                           (   1   4   3   4   0   0   0)

     celldm(1)=   5.586844  celldm(2)=   0.000000  celldm(3)=   0.000000
     celldm(4)=   0.000000  celldm(5)=   0.000000  celldm(6)=   0.000000

     crystal axes: (cart. coord. in units of alat)
               a(1) = (   1.000000   0.000000   0.000000 )
               a(2) = (  -0.500000   0.866025   0.000000 )
               a(3) = (   0.000000   0.000000   1.725220 )

     reciprocal axes: (cart. coord. in units 2 pi/alat)
               b(1) = (  1.000000  0.577351  0.000000 )
               b(2) = (  0.000000  1.154701  0.000000 )
               b(3) = (  0.000000  0.000000  0.579636 )

     PseudoPot. # 1 for Mg read from file:
     /home/pragov/projects/rrg-bengioy-ad/pragov/crystal_structure_design/SSSP/Mg.pbe-n-kjpaw_psl.0.3.0.UPF
     MD5 check sum: 24ecedc7f3e3cbe212e682f4413594e4
     Pseudo is Projector augmented-wave + core cor, Zval =  2.0
     Generated using "atomic" code by A. Dal Corso  v.5.0.99 svn rev. 10869
     Shape of augmentation charge: PSQ
     Using radial grid of 1129 points,  4 beta functions with:
                l(1) =   0
                l(2) =   0
                l(3) =   1
                l(4) =   1
     Q(r) pseudized with 0 coefficients

     PseudoPot. # 2 for Be read from file:
     /home/pragov/projects/rrg-bengioy-ad/pragov/crystal_structure_design/SSSP/be_pbe_v1.4.uspp.F.UPF
     MD5 check sum: 5ecff1440924c7c98ad504bef30f5264
     Pseudo is Ultrasoft, Zval =  4.0
     Generated by new atomic code, or converted to UPF format
     Using radial grid of  769 points,  6 beta functions with:
                l(1) =   0
                l(2) =   0
                l(3) =   0
                l(4) =   1
                l(5) =   1
                l(6) =   2
     Q(r) pseudized with 10 coefficients,  rinner =    1.000   1.000   1.000
                                                       1.000   1.000

     PseudoPot. # 3 for N  read from file:
     /home/pragov/projects/rrg-bengioy-ad/pragov/crystal_structure_design/SSSP/N.pbe-n-radius_5.UPF
     MD5 check sum: 16739722b17309cd8fe442a2ace49922
     Pseudo is Ultrasoft + core correction, Zval =  5.0
     Generated using "atomic" code by A. Dal Corso  v.5.1
     Using radial grid of 1085 points,  4 beta functions with:
                l(1) =   0
                l(2) =   0
                l(3) =   1
                l(4) =   1
     Q(r) pseudized with 0 coefficients

     atomic species   valence    mass     pseudopotential
        Mg             2.00    24.30500     Mg( 1.00)
        Be             4.00     9.01218     Be( 1.00)
        N              5.00    14.00700     N ( 1.00)

     12 Sym. Ops., with inversion, found

                                    s                        frac. trans.

      isym =  1     identity

 cryst.   s( 1) = (     1          0          0      )
                  (     0          1          0      )
                  (     0          0          1      )

 cart.    s( 1) = (  1.0000000 -0.0000000  0.0000000 )
                  (  0.0000000  1.0000000  0.0000000 )
                  (  0.0000000  0.0000000  1.0000000 )

      isym =  2     180 deg rotation - cart. axis [1,0,0]

[...]

      isym =  3     120 deg rotation - cryst. axis [0,0,1]

[...]

      isym =  6     180 deg rotation - cryst. axis [1,1,0]

[...]

      isym =  7     inversion

[...]

      isym =  8     inv. 180 deg rotation - cart. axis [1,0,0]

[...]

      isym =  9     inv. 120 deg rotation - cryst. axis [0,0,1]

 cryst.   s( 9) = (     0         -1          0      )
                  (     1          1          0      )
                  (     0          0         -1      )

 cart.    s( 9) = (  0.5000002  0.8660255  0.0000000 )
                  ( -0.8660253  0.4999998  0.0000000 )
                  (  0.0000000  0.0000000 -1.0000000 )

[...]

 cryst.   s(10) = (     1          1          0      )
                  (    -1          0          0      )
                  (     0          0         -1      )

 cart.    s(10) = (  0.4999998 -0.8660255  0.0000000 )
                  (  0.8660253  0.5000002  0.0000000 )
                  (  0.0000000  0.0000000 -1.0000000 )

[...]

      isym = 12     inv. 180 deg rotation - cryst. axis [1,1,0]

 cryst.   s(12) = (     0         -1          0      )
                  (    -1          0          0      )
                  (     0          0          1      )

 cart.    s(12) = (  0.5000002 -0.8660253  0.0000000 )
                  ( -0.8660253 -0.5000002  0.0000000 )
                  (  0.0000000  0.0000000  1.0000000 )

   Cartesian axes

     site n.     atom                  positions (alat units)
         1           Mg  tau(   1) = (   0.0000000   0.0000000   0.0000000  )
         2           Be  tau(   2) = (   0.5000004   0.2886748   0.6418095  )
         3           Be  tau(   3) = (  -0.0000006   0.5773505   1.0834106  )
         4           N   tau(   4) = (   0.5000004   0.2886748   1.2453294  )
         5           N   tau(   5) = (  -0.0000006   0.5773505   0.4798907  )

   Crystallographic axes

     site n.     atom                  positions (cryst. coord.)
         1           Mg  tau(   1) = (  0.0000000  0.0000000  0.0000000  )
         2           Be  tau(   2) = (  0.6666670  0.3333330  0.3720160  )
         3           Be  tau(   3) = (  0.3333330  0.6666670  0.6279840  )
         4           N   tau(   4) = (  0.6666670  0.3333330  0.7218380  )
         5           N   tau(   5) = (  0.3333330  0.6666670  0.2781620  )

     number of k points=     1  Methfessel-Paxton smearing, width (Ry)=  0.0010
                       cart. coord. in units 2pi/alat
        k(    1) = (   0.0000000   0.0000000   0.0000000), wk =   2.0000000

                       cryst. coord.
        k(    1) = (   0.0000000   0.0000000   0.0000000), wk =   2.0000000

     Check: negative core charge=   -0.000002

     Initial potential from superposition of free atoms

     starting charge      19.9988, renormalised to      20.0000
     Starting wfcs are   22 randomized atomic wfcs
     Checking if some PAW data can be deallocated...

     Self-consistent Calculation

     iteration #  1     ecut=    30.00 Ry     beta= 0.70
     Davidson diagonalization with overlap

     ethr =  1.00E-02,  avg # of iterations =  2.0

     total energy              =    -128.94425708 Ry
     estimated scf accuracy    <       1.80413835 Ry

[...]

     total energy              =    -129.63113018 Ry
     estimated scf accuracy    <       0.00000125 Ry

     iteration #  8     ecut=    30.00 Ry     beta= 0.70
     Davidson diagonalization with overlap

     ethr =  6.23E-09,  avg # of iterations =  5.0

     End of self-consistent calculation

          k = 0.0000 0.0000 0.0000 (   357 PWs)   bands (ev):

   -90.3601 -90.3306  -6.4756  -4.1818   1.7078   8.3676   8.3676   9.4497
     9.9157   9.9157  13.8349  16.0458  17.7923  18.4779

     occupation numbers
     1.0000   1.0000   1.0000   1.0000   1.0000   1.0000   1.0000   1.0000
     1.0000   1.0000  -0.0000  -0.0000  -0.0000  -0.0000

     the Fermi energy is    11.7946 ev

!    total energy              =    -129.63113053 Ry
     estimated scf accuracy    <       0.00000053 Ry
     smearing contrib. (-TS)   =       0.00000000 Ry
     internal energy E=F+TS    =    -129.63113053 Ry

     The total energy is F=E-TS. E is the sum of the following terms:
     one-electron contribution =     -42.61087409 Ry
     hartree contribution      =      25.24520304 Ry
     xc contribution           =     -23.57552648 Ry
     ewald contribution        =     -57.39854189 Ry
     one-center paw contrib.   =     -31.29139112 Ry
      -> PAW hartree energy AE =       1.01813758 Ry
      -> PAW hartree energy PS =      -1.01630695 Ry
      -> PAW xc energy AE      =     -32.71920338 Ry
      -> PAW xc energy PS      =       1.42598164 Ry
      -> total E_H with PAW    =      25.24703368 Ry
      -> total E_XC with PAW   =     -54.86874822 Ry

     convergence has been achieved in   8 iterations

     Forces acting on atoms (cartesian axes, Ry/au):

     atom    1 type  1   force =    -0.00000000    0.00000000    0.00000000
     atom    2 type  2   force =     0.00000000   -0.00000000   -0.02213044
     atom    3 type  2   force =     0.00000000    0.00000000    0.02213044
     atom    4 type  3   force =    -0.00000000   -0.00000000   -0.12230139
     atom    5 type  3   force =     0.00000000    0.00000000    0.12230139
     The non-local contrib.  to forces
     atom    1 type  1   force =     0.00000000    0.00000000    0.00000000
     atom    2 type  2   force =     0.00000000    0.00000000   -0.21736847
     atom    3 type  2   force =     0.00000000   -0.00000000    0.21736847
     atom    4 type  3   force =    -0.00000000   -0.00000000    0.71909011
     atom    5 type  3   force =     0.00000000    0.00000000   -0.71909011
     The ionic contribution  to forces
     atom    1 type  1   force =     0.00000000    0.00000000   -0.00000000
     atom    2 type  2   force =    -0.00001560    0.00000901   -2.82397391
     atom    3 type  2   force =     0.00001560   -0.00000901    2.82397391
     atom    4 type  3   force =    -0.00001383    0.00000798    5.72894714
     atom    5 type  3   force =     0.00001383   -0.00000798   -5.72894714
     The local contribution  to forces
     atom    1 type  1   force =    -0.00000280    0.00000167    0.00000580
     atom    2 type  2   force =     0.00001427   -0.00000100    3.01965540
     atom    3 type  2   force =    -0.00002305    0.00001465   -3.01972006
     atom    4 type  3   force =     0.00006563   -0.00009255   -6.56415709
     atom    5 type  3   force =    -0.00008731    0.00003618    6.56419380
     The core correction contribution to forces
     atom    1 type  1   force =    -0.00000035    0.00000018   -0.00000126
     atom    2 type  2   force =     0.00000000    0.00000000    0.00000000
     atom    3 type  2   force =     0.00000000    0.00000000    0.00000000
     atom    4 type  3   force =     0.00000045   -0.00000070   -0.00712140
     atom    5 type  3   force =    -0.00000071    0.00000049    0.00712113
     The Hubbard contrib.    to forces
     atom    1 type  1   force =     0.00000000    0.00000000    0.00000000
     atom    2 type  2   force =     0.00000000    0.00000000    0.00000000
     atom    3 type  2   force =     0.00000000    0.00000000    0.00000000
     atom    4 type  3   force =     0.00000000    0.00000000    0.00000000
     atom    5 type  3   force =     0.00000000    0.00000000    0.00000000
     The SCF correction term to forces
     atom    1 type  1   force =    -0.00000008   -0.00000060   -0.00002407
     atom    2 type  2   force =    -0.00000331   -0.00001548   -0.00041493
     atom    3 type  2   force =    -0.00000836    0.00002053    0.00053665
     atom    4 type  3   force =    -0.00001683    0.00002420    0.00092997
     atom    5 type  3   force =     0.00001836    0.00000636   -0.00098618

     Total force =     0.175769     Total SCF correction =     0.001517

     Computing stress (Cartesian axis) and pressure

          total   stress  (Ry/bohr**3)                   (kbar)     P=      308.93
   0.00289891   0.00000000   0.00000000          426.44        0.00        0.00
   0.00000000   0.00289891   0.00000000            0.00      426.44        0.00
   0.00000000   0.00000000   0.00050237            0.00        0.00       73.90

     kinetic stress (kbar)  13389.28      0.00      0.00
                                0.00  13389.28     -0.00
                                0.00     -0.00  11928.62

     local   stress (kbar)  -8997.63     -0.07      0.01
                               -0.07  -8997.71     -0.00
                                0.01     -0.00   4831.81

     nonloc. stress (kbar)   2046.27      0.00     -0.00
                                0.00   2046.27     -0.00
                               -0.00     -0.00   1741.41

     hartree stress (kbar)   6851.95      0.03     -0.00
                                0.03   6851.98      0.00
                               -0.00      0.00    549.91

     exc-cor stress (kbar)  -3250.79      0.00     -0.00
                                0.00  -3250.79     -0.00
                               -0.00     -0.00  -3238.28

     corecor stress (kbar)   -859.73      0.00     -0.00
                                0.00   -859.73      0.00
                               -0.00      0.00   -837.18

     ewald   stress (kbar)  -8752.89      0.04     -0.01
                                0.04  -8752.84      0.01
                               -0.01      0.01 -14902.39

     hubbard stress (kbar)      0.00      0.00      0.00
                                0.00      0.00      0.00
                                0.00      0.00      0.00

     DFT-D   stress (kbar)      0.00      0.00      0.00
                                0.00      0.00      0.00
                                0.00      0.00      0.00

     XDM     stress (kbar)      0.00      0.00      0.00
                                0.00      0.00      0.00
                                0.00      0.00      0.00

     dft-nl  stress (kbar)      0.00      0.00      0.00
                                0.00      0.00      0.00
                                0.00      0.00      0.00

     TS-vdW  stress (kbar)      0.00      0.00      0.00
                                0.00      0.00      0.00
                                0.00      0.00      0.00

[...]

                                0.00      0.00      0.00

     Writing all to output data dir new_calculations/myprefix.save/

     General routines

     Parallel routines

     PAW routines

   This run was terminated on:   2:49:32  20May2023

   JOB DONE.