     Program PWSCF v.7.0 starts on 21May2023 at  2:41:43

     Reading input from espresso_22399.pwi
Warning: card &CELL ignored
Warning: card / ignored

     Current dimensions of program PWSCF are:
     Max number of different atomic species (ntypx) = 10
     Max number of k-points (npk) =  40000
     Max angular momentum in pseudopotentials (lmaxx) =  4
     file O.pbe-n-kjpaw_psl.0.1.UPF: wavefunction(s)  2P renormalized

     gamma-point specific algorithms are used

     Subspace diagonalization in iterative solution of the eigenvalue problem:
     a serial algorithm will be used

     Using Slab Decomposition

     bravais-lattice index     =            0
     lattice parameter (alat)  =       9.9577  a.u.
     unit-cell volume          =    1821.9691 (a.u.)^3
     number of atoms/cell      =           20
     number of atomic types    =            4
     number of electrons       =       104.00
     number of Kohn-Sham states=           62
     kinetic-energy cutoff     =      30.0000  Ry
     charge density cutoff     =     240.0000  Ry
     scf convergence threshold =      1.0E-06
     mixing beta               =       0.7000
     number of iterations used =            8  plain     mixing
     Exchange-correlation= SLA  PW   PBX  PBC
                           (   1   4   3   4   0   0   0)

     celldm(1)=   9.957674  celldm(2)=   0.000000  celldm(3)=   0.000000
     celldm(4)=   0.000000  celldm(5)=   0.000000  celldm(6)=   0.000000

     crystal axes: (cart. coord. in units of alat)
               a(1) = (   1.000000   0.000000   0.000000 )
               a(2) = (   0.125939   1.370163   0.000000 )
               a(3) = (   0.243374   0.683638   1.346775 )

     reciprocal axes: (cart. coord. in units 2 pi/alat)
               b(1) = (  1.000000 -0.091916 -0.134051 )
               b(2) = (  0.000000  0.729840 -0.370475 )
               b(3) = (  0.000000  0.000000  0.742514 )

     PseudoPot. # 1 for Rb read from file:
     /home/pragov/projects/rrg-bengioy-ad/pragov/crystal_structure_design/SSSP/Rb_ONCV_PBE-1.0.oncvpsp.upf
     MD5 check sum: 55a5172d6bfbce6759a58e35d43f6aa9
     Pseudo is Norm-conserving, Zval =  9.0
     Generated using ONCVPSP code by D. R. Hamann
     Using radial grid of 2308 points,  6 beta functions with:
                l(1) =   0
                l(2) =   0
                l(3) =   1
                l(4) =   1
                l(5) =   2
                l(6) =   2

     PseudoPot. # 2 for As read from file:
     /home/pragov/projects/rrg-bengioy-ad/pragov/crystal_structure_design/SSSP/As.pbe-n-rrkjus_psl.0.2.UPF
     MD5 check sum: 767315de957beeeb34f87d97bf945c8f
     Pseudo is Ultrasoft + core correction, Zval =  5.0
     Generated using "atomic" code by A. Dal Corso  v.5.0.99 svn rev. 10869
     Using radial grid of 1209 points,  4 beta functions with:
                l(1) =   0
                l(2) =   0
                l(3) =   1
                l(4) =   1
     Q(r) pseudized with 0 coefficients

     PseudoPot. # 3 for H  read from file:
     /home/pragov/projects/rrg-bengioy-ad/pragov/crystal_structure_design/SSSP/H.pbe-rrkjus_psl.1.0.0.UPF
     MD5 check sum: f52b6d4d1c606e5624b1dc7b2218f220
     Pseudo is Ultrasoft, Zval =  1.0
     Generated using "atomic" code by A. Dal Corso  v.5.1
     Using radial grid of  929 points,  2 beta functions with:
                l(1) =   0
                l(2) =   0
     Q(r) pseudized with 0 coefficients

     PseudoPot. # 4 for O  read from file:
     /home/pragov/projects/rrg-bengioy-ad/pragov/crystal_structure_design/SSSP/O.pbe-n-kjpaw_psl.0.1.UPF
     MD5 check sum: 0234752ac141de4415c5fc33072bef88
     Pseudo is Projector augmented-wave + core cor, Zval =  6.0
     Generated using "atomic" code by A. Dal Corso  v.5.0.99 svn rev. 10869
     Shape of augmentation charge: BESSEL
     Using radial grid of 1095 points,  4 beta functions with:
                l(1) =   0
                l(2) =   0
                l(3) =   1
                l(4) =   1
     Q(r) pseudized with 0 coefficients

     atomic species   valence    mass     pseudopotential
        Rb             9.00    85.46780     Rb( 1.00)
        As             5.00    74.92159     As( 1.00)
        H              1.00     1.00800     H ( 1.00)
        O              6.00    15.99900     O ( 1.00)

     No symmetry found

                                    s                        frac. trans.

      isym =  1     identity

 cryst.   s( 1) = (     1          0          0      )
                  (     0          1          0      )
                  (     0          0          1      )

 cart.    s( 1) = (  1.0000000 -0.0000000 -0.0000000 )
                  (  0.0000000  1.0000000 -0.0000000 )
                  (  0.0000000  0.0000000  1.0000000 )

   Cartesian axes

     site n.     atom                  positions (alat units)
         1           Rb  tau(   1) = (   0.1286550   1.3635307   0.0017616  )
         2           As  tau(   2) = (   1.0970236   1.4068591   0.9142328  )
         3           As  tau(   3) = (   0.2639611   0.6567728   0.4183798  )
         4           As  tau(   4) = (   0.6164184   1.5029452   0.5843820  )
         5           As  tau(   5) = (   0.7497010   0.5570902   0.7576917  )
         6           H   tau(   6) = (   0.6465360   1.1061723   0.4038710  )
         7           H   tau(   7) = (   0.7225763   0.9498044   0.9461622  )
         8           H   tau(   8) = (   1.2782294   1.3546089   1.3193119  )
         9           O   tau(   9) = (   1.1613086   1.2467832   1.1914961  )
        10           O   tau(  10) = (   0.1854314   0.8073186   0.1481682  )
        11           O   tau(  11) = (   1.0716148   1.7255921   0.9913802  )
        12           O   tau(  12) = (   0.2984366   0.3321327   0.3557022  )
        13           O   tau(  13) = (   0.8111755   1.2785051   0.8131870  )
        14           O   tau(  14) = (   0.5557375   0.7730878   0.5285258  )
        15           O   tau(  15) = (   0.5863708   1.7428257   0.8376256  )
        16           O   tau(  16) = (   0.7870447   0.3076048   0.5122514  )
        17           O   tau(  17) = (   0.3266705   1.3234146   0.6906600  )
        18           O   tau(  18) = (   1.0440193   0.7281788   0.6594431  )
        19           O   tau(  19) = (   0.6576908   1.2792906   0.3307532  )
        20           O   tau(  20) = (   0.7077503   0.7758289   1.0156288  )

   Crystallographic axes

     site n.     atom                  positions (cryst. coord.)
         1           Rb  tau(   1) = (  0.0030890  0.9945070  0.0013080  )
         2           As  tau(   2) = (  0.8451570  0.6880820  0.6788310  )
         3           As  tau(   3) = (  0.1475090  0.3243400  0.3106530  )
         4           As  tau(   4) = (  0.3999370  0.8804110  0.4339120  )
         5           As  tau(   5) = (  0.5969260  0.1258810  0.5625970  )
         6           H   tau(   6) = (  0.4907220  0.6577050  0.2998800  )
         7           H   tau(   7) = (  0.5084400  0.3426760  0.7025390  )
         8           H   tau(   8) = (  0.9768640  0.4998760  0.9796080  )
         9           O   tau(   9) = (  0.8869880  0.4685330  0.8847030  )
        10           O   tau(  10) = (  0.0913640  0.5343210  0.1100170  )
        11           O   tau(  11) = (  0.7801100  0.8921250  0.7361140  )
        12           O   tau(  12) = (  0.2202260  0.1106250  0.2641140  )
        13           O   tau(  13) = (  0.5846520  0.6318390  0.6038030  )
        14           O   tau(  14) = (  0.4138290  0.3684250  0.3924380  )
        15           O   tau(  15) = (  0.3138930  0.9616650  0.6219490  )
        16           O   tau(  16) = (  0.6901030  0.0347260  0.3803540  )
        17           O   tau(  17) = (  0.1124440  0.7100090  0.5128250  )
        18           O   tau(  18) = (  0.8886890  0.2871470  0.4896460  )
        19           O   tau(  19) = (  0.4957660  0.8111420  0.2455890  )
        20           O   tau(  20) = (  0.5002930  0.1899660  0.7541190  )

     number of k points=     1  Methfessel-Paxton smearing, width (Ry)=  0.0010
                       cart. coord. in units 2pi/alat
        k(    1) = (   0.0000000   0.0000000   0.0000000), wk =   2.0000000

                       cryst. coord.
        k(    1) = (   0.0000000   0.0000000   0.0000000), wk =   2.0000000

     Check: negative core charge=   -0.000008

     Initial potential from superposition of free atoms

     starting charge     103.9742, renormalised to     104.0000
     Starting wfcs are   72 randomized atomic wfcs
     Checking if some PAW data can be deallocated...

     Self-consistent Calculation

     iteration #  1     ecut=    30.00 Ry     beta= 0.70
     Davidson diagonalization with overlap

     ethr =  1.00E-02,  avg # of iterations =  3.0

     total energy              =    -622.45874869 Ry
     estimated scf accuracy    <       3.93648423 Ry

[...]

     total energy              =    -624.27359032 Ry
     estimated scf accuracy    <       0.00000181 Ry

     iteration # 11     ecut=    30.00 Ry     beta= 0.70
     Davidson diagonalization with overlap

     ethr =  1.74E-09,  avg # of iterations =  2.0

     End of self-consistent calculation

          k = 0.0000 0.0000 0.0000 (  2526 PWs)   bands (ev):

   -21.2574 -18.4329 -17.3509 -16.9310 -16.6092 -16.1767 -15.7806 -15.7060
   -15.5839 -15.3475 -15.2175 -14.7293 -14.5637  -8.4448  -8.3107  -6.6533
    -5.4122  -5.3796  -5.3731  -5.2850  -4.2830  -3.9253  -3.6090  -3.3052
    -3.2636  -2.8315  -2.4666  -2.1203  -2.0867  -1.6020  -1.4730  -0.8680
    -0.8154  -0.0785   0.0790   0.2226   0.2595   0.3331   0.6828   0.7832
     0.8453   0.9931   1.0433   1.2269   1.3340   1.5075   1.5335   1.5823
     1.7718   1.8783   2.0503   2.1276   4.8567   6.1064   7.0581   7.5205
     8.8938   9.8479   9.9086  10.0633  10.5621  10.7743

     occupation numbers
     1.0000   1.0000   1.0000   1.0000   1.0000   1.0000   1.0000   1.0000
     1.0000   1.0000   1.0000   1.0000   1.0000   1.0000   1.0000   1.0000
     1.0000   1.0000   1.0000   1.0000   1.0000   1.0000   1.0000   1.0000
     1.0000   1.0000   1.0000   1.0000   1.0000   1.0000   1.0000   1.0000
     1.0000   1.0000   1.0000   1.0000   1.0000   1.0000   1.0000   1.0000
     1.0000   1.0000   1.0000   1.0000   1.0000   1.0000   1.0000   1.0000
     1.0000   1.0000   1.0000   1.0000  -0.0000  -0.0000  -0.0000  -0.0000
    -0.0000  -0.0000  -0.0000  -0.0000  -0.0000  -0.0000

     the Fermi energy is     2.8344 ev

!    total energy              =    -624.27359057 Ry
     estimated scf accuracy    <       0.00000010 Ry
     smearing contrib. (-TS)   =       0.00000000 Ry
     internal energy E=F+TS    =    -624.27359057 Ry

     The total energy is F=E-TS. E is the sum of the following terms:
     one-electron contribution =    -276.58470099 Ry
     hartree contribution      =     190.57593069 Ry
     xc contribution           =    -135.85609791 Ry
     ewald contribution        =    -288.08574908 Ry
     one-center paw contrib.   =    -114.32297329 Ry
      -> PAW hartree energy AE =     360.32061007 Ry
      -> PAW hartree energy PS =    -359.08974413 Ry
      -> PAW xc energy AE      =    -206.83347249 Ry
      -> PAW xc energy PS      =      91.27963327 Ry
      -> total E_H with PAW    =     191.80679663 Ry
      -> total E_XC with PAW   =    -251.40993714 Ry

     convergence has been achieved in  11 iterations

     Forces acting on atoms (cartesian axes, Ry/au):

     atom    1 type  1   force =     0.00005224   -0.00060871    0.00006670
     atom    2 type  2   force =    -0.01016940    0.00264479    0.00656740
     atom    3 type  2   force =     0.01108468   -0.00152905   -0.01074353
     atom    4 type  2   force =    -0.00654546   -0.00153481    0.00877354
     atom    5 type  2   force =     0.00700863    0.00019754   -0.00640952
     atom    6 type  3   force =    -0.00168711   -0.00840020    0.00263735
     atom    7 type  3   force =     0.00189617    0.00981851   -0.00425362
     atom    8 type  3   force =     0.00460067    0.00288457    0.00566826
     atom    9 type  4   force =    -0.00005203   -0.01784982    0.01094722
     atom   10 type  4   force =    -0.00050560    0.01018482   -0.01049253
     atom   11 type  4   force =     0.00773642   -0.00646853    0.03108238
     atom   12 type  4   force =    -0.01034726    0.00807516   -0.03072087
     atom   13 type  4   force =     0.01093258   -0.02454798    0.04366476
     atom   14 type  4   force =    -0.00900585    0.02404233   -0.04343787
     atom   15 type  4   force =    -0.01498284    0.00362009    0.00531566
     atom   16 type  4   force =     0.01353052   -0.00203579   -0.00817177
     atom   17 type  4   force =    -0.00687642    0.00389979   -0.04088225
     atom   18 type  4   force =     0.00448756   -0.00108371    0.03974889
     atom   19 type  4   force =     0.00383980   -0.00870032   -0.02147675
     atom   20 type  4   force =    -0.00499730    0.00739132    0.02211657
     The non-local contrib.  to forces
     atom    1 type  1   force =    -0.00169280    0.00730263   -0.00051593
     atom    2 type  2   force =    -0.01699127   -0.04949583   -0.03029515
     atom    3 type  2   force =     0.03577732   -0.00313994    0.07668620
     atom    4 type  2   force =    -0.03421475   -0.03073162   -0.00463686
     atom    5 type  2   force =     0.03770833    0.01794069    0.01094067
     atom    6 type  3   force =     0.00577060    0.09821071   -0.03755967
     atom    7 type  3   force =    -0.00787941   -0.09934200    0.03585084
     atom    8 type  3   force =    -0.03278790   -0.02874111   -0.03755209
     atom    9 type  4   force =     0.46049164    1.56183018   -0.72720807
     atom   10 type  4   force =     0.16330209   -1.12201000    1.27802087
     atom   11 type  4   force =    -0.42191905   -1.11025356   -1.21278706
     atom   12 type  4   force =     0.45737027    1.00290863    1.22336120
     atom   13 type  4   force =     1.14935176    1.25195518   -0.15615922
     atom   14 type  4   force =    -1.05385721   -1.21736472    0.21610210
     atom   15 type  4   force =     1.11220176   -0.22516364   -1.12300976
     atom   16 type  4   force =    -1.15075276    0.24540379    1.05182495
     atom   17 type  4   force =    -0.10115894    1.27519068    1.03047238
     atom   18 type  4   force =    -0.09242788   -1.17135302   -1.10171009
     atom   19 type  4   force =    -0.28383366   -0.68259418    1.81341546
     atom   20 type  4   force =     0.31608397    0.72633735   -1.79581645
     The ionic contribution  to forces
     atom    1 type  1   force =    -0.01219317    0.20880632   -0.01099051
     atom    2 type  2   force =     0.60741620   -2.04484883    3.05095882
     atom    3 type  2   force =    -0.41248479    2.08117670   -3.21505214
     atom    4 type  2   force =    -0.55898319   -2.29627484   -1.43773806
     atom    5 type  2   force =     0.42742449    2.44611844    1.24264513
     atom    6 type  3   force =     0.04877157   -2.91628513    0.08955414
     atom    7 type  3   force =    -0.00666256    2.92011114   -0.02770731
     atom    8 type  3   force =     0.78585706    0.61242793    0.97689849
     atom    9 type  4   force =    -1.33509487   -5.24968453    4.45643070
     atom   10 type  4   force =     0.39447680    4.27122145   -5.08773513
     atom   11 type  4   force =     1.79695794    2.13274275    9.24089289
     atom   12 type  4   force =    -1.77779888   -1.80869864   -9.24870967
     atom   13 type  4   force =    -1.90298702   -6.23831157    3.66126856
     atom   14 type  4   force =     1.70725551    6.02850339   -3.84762136
     atom   15 type  4   force =    -4.16831195    0.94156612    8.86397066
     atom   16 type  4   force =     4.15996993   -0.92886179   -8.85230696
     atom   17 type  4   force =    -1.00229619   -6.37052264   -1.32001940
     atom   18 type  4   force =     1.35457149    6.21513893    1.52817656
     atom   19 type  4   force =     1.22859816   -2.65519602   -9.42176152
     atom   20 type  4   force =    -1.33448653    2.65087081    9.35884612
     The local contribution  to forces
     atom    1 type  1   force =     0.01396103   -0.21666342    0.01152263
     atom    2 type  2   force =    -0.59797712    2.09415019   -3.02876806
     atom    3 type  2   force =     0.39122376   -2.08613298    3.15386657
     atom    4 type  2   force =     0.57626530    2.31370277    1.45881569
     atom    5 type  2   force =    -0.44743464   -2.45700047   -1.26517327
     atom    6 type  3   force =    -0.05623491    2.80963759   -0.04932200
     atom    7 type  3   force =     0.01643872   -2.81093485   -0.01242360
     atom    8 type  3   force =    -0.74845547   -0.58078677   -0.93366524
     atom    9 type  4   force =     0.87895663    3.68563660   -3.72612559
     atom   10 type  4   force =    -0.55656889   -3.15044553    3.81231367
     atom   11 type  4   force =    -1.37162237   -1.04038564   -8.01001429
     atom   12 type  4   force =     1.31484412    0.82430406    8.00781194
     atom   13 type  4   force =     0.77676076    4.97511394   -3.46355470
     atom   14 type  4   force =    -0.67368355   -4.80014867    3.59086084
     atom   15 type  4   force =     3.05256497   -0.71515540   -7.74679291
     atom   16 type  4   force =    -3.00756773    0.68412532    7.80264726
     atom   17 type  4   force =     1.09584342    5.11298858    0.25992111
     atom   18 type  4   force =    -1.25893193   -5.05748642   -0.39877861
     atom   19 type  4   force =    -0.94389429    3.32267218    7.60536293
     atom   20 type  4   force =     1.01665597   -3.36299133   -7.55922614
     The core correction contribution to forces
     atom    1 type  1   force =     0.00000000    0.00000000    0.00000000
     atom    2 type  2   force =    -0.00262726    0.00290716    0.01459309
     atom    3 type  2   force =    -0.00338490    0.00652674   -0.02612574
     atom    4 type  2   force =     0.01036298    0.01189096   -0.00756486
     atom    5 type  2   force =    -0.01074100   -0.00688527    0.00510207
     atom    6 type  3   force =     0.00000000    0.00000000    0.00000000
     atom    7 type  3   force =     0.00000000    0.00000000    0.00000000
     atom    8 type  3   force =     0.00000000    0.00000000    0.00000000
     atom    9 type  4   force =    -0.00443692   -0.01556644    0.00772370
     atom   10 type  4   force =    -0.00166008    0.01135015   -0.01292842
     atom   11 type  4   force =     0.00428942    0.01137784    0.01278496
     atom   12 type  4   force =    -0.00470240   -0.01035940   -0.01296733
     atom   13 type  4   force =    -0.01219433   -0.01313885    0.00204039
     atom   14 type  4   force =     0.01125642    0.01288314   -0.00268780
     atom   15 type  4   force =    -0.01136034    0.00234309    0.01092908
     atom   16 type  4   force =     0.01174290   -0.00260305   -0.01012075
     atom   17 type  4   force =     0.00080637   -0.01360855   -0.01121346
     atom   18 type  4   force =     0.00124426    0.01249030    0.01204101
     atom   19 type  4   force =     0.00293134    0.00650007   -0.01828548
     atom   20 type  4   force =    -0.00324393   -0.00692775    0.01810177
     The Hubbard contrib.    to forces
     atom    1 type  1   force =     0.00000000    0.00000000    0.00000000
     atom    2 type  2   force =     0.00000000    0.00000000    0.00000000
     atom    3 type  2   force =     0.00000000    0.00000000    0.00000000
     atom    4 type  2   force =     0.00000000    0.00000000    0.00000000
     atom    5 type  2   force =     0.00000000    0.00000000    0.00000000
     atom    6 type  3   force =     0.00000000    0.00000000    0.00000000
     atom    7 type  3   force =     0.00000000    0.00000000    0.00000000
     atom    8 type  3   force =     0.00000000    0.00000000    0.00000000
     atom    9 type  4   force =     0.00000000    0.00000000    0.00000000
     atom   10 type  4   force =     0.00000000    0.00000000    0.00000000
     atom   11 type  4   force =     0.00000000    0.00000000    0.00000000
     atom   12 type  4   force =     0.00000000    0.00000000    0.00000000
     atom   13 type  4   force =     0.00000000    0.00000000    0.00000000
     atom   14 type  4   force =     0.00000000    0.00000000    0.00000000
     atom   15 type  4   force =     0.00000000    0.00000000    0.00000000
     atom   16 type  4   force =     0.00000000    0.00000000    0.00000000
     atom   17 type  4   force =     0.00000000    0.00000000    0.00000000
     atom   18 type  4   force =     0.00000000    0.00000000    0.00000000
     atom   19 type  4   force =     0.00000000    0.00000000    0.00000000
     atom   20 type  4   force =     0.00000000    0.00000000    0.00000000
     The SCF correction term to forces
     atom    1 type  1   force =    -0.00002274   -0.00005119    0.00005211
     atom    2 type  2   force =     0.00001013   -0.00006487    0.00008030
     atom    3 type  2   force =    -0.00004662    0.00004347   -0.00011682
     atom    4 type  2   force =     0.00002429   -0.00011903   -0.00010079
     atom    5 type  2   force =     0.00005154    0.00002719    0.00007746
     atom    6 type  3   force =     0.00000570    0.00003968   -0.00003352
     atom    7 type  3   force =    -0.00000050   -0.00001273    0.00002804
     atom    8 type  3   force =    -0.00001294   -0.00001243   -0.00001131
     atom    9 type  4   force =     0.00003157   -0.00006259    0.00012809
     atom   10 type  4   force =    -0.00005545    0.00007179   -0.00016192
     atom   11 type  4   force =     0.00003055    0.00005313    0.00020747
     atom   12 type  4   force =    -0.00006029   -0.00007646   -0.00021542
     atom   13 type  4   force =     0.00000148   -0.00016363    0.00007134
     atom   14 type  4   force =     0.00002306    0.00017223   -0.00009007
     atom   15 type  4   force =    -0.00007722    0.00003296    0.00022019
     atom   16 type  4   force =     0.00013828   -0.00009701   -0.00021468
     atom   17 type  4   force =    -0.00007100   -0.00014525   -0.00004130
     atom   18 type  4   force =     0.00003169    0.00012955    0.00002161
     atom   19 type  4   force =     0.00003833   -0.00007932   -0.00020655
     atom   20 type  4   force =    -0.00000670    0.00010527    0.00021287

     Total force =     0.117701     Total SCF correction =     0.000765

     Computing stress (Cartesian axis) and pressure

          total   stress  (Ry/bohr**3)                   (kbar)     P=     -280.20
  -0.00193015  -0.00000887   0.00002581         -283.94       -1.30        3.80
  -0.00000887  -0.00194190  -0.00000397           -1.30     -285.66       -0.58
   0.00002581  -0.00000397  -0.00184224            3.80       -0.58     -271.00

     kinetic stress (kbar)  13264.01   -126.38    -73.69
                             -126.38  12745.78    -44.72
                              -73.69    -44.72  13035.28

     local   stress (kbar) -13515.38   -715.81  -2734.97
                             -715.81 -13461.70    298.46
                            -2734.97    298.46  -2508.49

     nonloc. stress (kbar)   2166.73     -5.08      6.07
                               -5.08   2148.55     -0.45
                                6.07     -0.45   2150.31

     hartree stress (kbar)   6925.62    217.41   1050.73
                              217.41   6617.83   -156.26
                             1050.73   -156.26   1843.57

     exc-cor stress (kbar)   -643.57      2.49      2.81
                                2.49   -636.69      0.16
                                2.81      0.16   -642.03

     corecor stress (kbar)  -2356.56     -0.36      0.19
                               -0.36  -2357.48     -3.33
                                0.19     -3.33  -2356.47

     ewald   stress (kbar)  -6124.79    626.44   1752.66
                              626.44  -5341.96    -94.45
                             1752.66    -94.45 -11793.18

     hubbard stress (kbar)      0.00      0.00      0.00
                                0.00      0.00      0.00
                                0.00      0.00      0.00

     DFT-D   stress (kbar)      0.00      0.00      0.00
                                0.00      0.00      0.00
                                0.00      0.00      0.00

     XDM     stress (kbar)      0.00      0.00      0.00
                                0.00      0.00      0.00
                                0.00      0.00      0.00

     dft-nl  stress (kbar)      0.00      0.00      0.00
                                0.00      0.00      0.00
                                0.00      0.00      0.00

     TS-vdW  stress (kbar)      0.00      0.00      0.00
                                0.00      0.00      0.00
                                0.00      0.00      0.00

[...]

                                0.00      0.00      0.00

     Writing all to output data dir new_calculations/myprefix.save/

     General routines

     Parallel routines

     PAW routines

   This run was terminated on:   2:42: 4  21May2023

   JOB DONE.