     Program PWSCF v.7.0 starts on 21May2023 at  1:32:29

     Reading input from espresso_19637.pwi
Warning: card &CELL ignored
Warning: card / ignored

     Current dimensions of program PWSCF are:
     Max number of different atomic species (ntypx) = 10
     Max number of k-points (npk) =  40000
     Max angular momentum in pseudopotentials (lmaxx) =  4
     file In.pbe-dn-rrkjus_psl.0.2.2.UPF: wavefunction(s)  5S renormalized

     gamma-point specific algorithms are used
     Message from routine setup:
     using ibrav=0 with symmetry is DISCOURAGED, use correct ibrav instead

     Subspace diagonalization in iterative solution of the eigenvalue problem:
     a serial algorithm will be used

     Using Slab Decomposition

     bravais-lattice index     =            0
     lattice parameter (alat)  =       8.9119  a.u.
     unit-cell volume          =     748.5925 (a.u.)^3
     number of atoms/cell      =            5
     number of atomic types    =            2
     number of electrons       =        83.00
     number of Kohn-Sham states=           50
     kinetic-energy cutoff     =      30.0000  Ry
     charge density cutoff     =     240.0000  Ry
     scf convergence threshold =      1.0E-06
     mixing beta               =       0.7000
     number of iterations used =            8  plain     mixing
     Exchange-correlation= PBE
                           (   1   4   3   4   0   0   0)

     celldm(1)=   8.911862  celldm(2)=   0.000000  celldm(3)=   0.000000
     celldm(4)=   0.000000  celldm(5)=   0.000000  celldm(6)=   0.000000

     crystal axes: (cart. coord. in units of alat)
               a(1) = (   1.000000   0.000000   0.000000 )
               a(2) = (  -0.500000   0.866025   0.000000 )
               a(3) = (   0.000000   0.000000   1.221264 )

     reciprocal axes: (cart. coord. in units 2 pi/alat)
               b(1) = (  1.000000  0.577350  0.000000 )
               b(2) = (  0.000000  1.154701  0.000000 )
               b(3) = (  0.000000  0.000000  0.818824 )

     PseudoPot. # 1 for In read from file:
     /home/pragov/projects/rrg-bengioy-ad/pragov/crystal_structure_design/SSSP/In.pbe-dn-rrkjus_psl.0.2.2.UPF
     MD5 check sum: 25e7c42c3b55b68f4bf926be2e7201a4
     Pseudo is Ultrasoft + core correction, Zval = 13.0
     Generated using "atomic" code by A. Dal Corso  v.5.0.99 svn rev. 10869
     Using radial grid of 1241 points,  6 beta functions with:
                l(1) =   0
                l(2) =   0
                l(3) =   1
                l(4) =   1
                l(5) =   2
                l(6) =   2
     Q(r) pseudized with 0 coefficients

     PseudoPot. # 2 for Au read from file:
     /home/pragov/projects/rrg-bengioy-ad/pragov/crystal_structure_design/SSSP/Au_ONCV_PBE-1.0.oncvpsp.upf
     MD5 check sum: d14007822ba0e19f0206237467fc06c2
     Pseudo is Norm-conserving, Zval = 19.0
     Generated using ONCVPSP code by D. R. Hamann
     Using radial grid of 1278 points,  8 beta functions with:
                l(1) =   0
                l(2) =   0
                l(3) =   1
                l(4) =   1
                l(5) =   2
                l(6) =   2
                l(7) =   3
                l(8) =   3

     atomic species   valence    mass     pseudopotential
        In            13.00   114.81800     In( 1.00)
        Au            19.00   196.96657     Au( 1.00)

     12 Sym. Ops., with inversion, found

                                    s                        frac. trans.

      isym =  1     identity

 cryst.   s( 1) = (     1          0          0      )
                  (     0          1          0      )
                  (     0          0          1      )

 cart.    s( 1) = (  1.0000000 -0.0000000  0.0000000 )
                  (  0.0000000  1.0000000  0.0000000 )
                  (  0.0000000  0.0000000  1.0000000 )

      isym =  2     180 deg rotation - cart. axis [1,0,0]

[...]

      isym =  3     120 deg rotation - cryst. axis [0,0,1]

[...]

      isym =  6     180 deg rotation - cryst. axis [1,1,0]

[...]

      isym =  7     inversion

[...]

      isym =  8     inv. 180 deg rotation - cart. axis [1,0,0]

[...]

      isym =  9     inv. 120 deg rotation - cryst. axis [0,0,1]

 cryst.   s( 9) = (     0         -1          0      )
                  (     1          1          0      )
                  (     0          0         -1      )

 cart.    s( 9) = (  0.5000000  0.8660254  0.0000000 )
                  ( -0.8660254  0.5000000  0.0000000 )
                  (  0.0000000  0.0000000 -1.0000000 )

[...]

 cryst.   s(10) = (     1          1          0      )
                  (    -1          0          0      )
                  (     0          0         -1      )

 cart.    s(10) = (  0.5000000 -0.8660254  0.0000000 )
                  (  0.8660254  0.5000000  0.0000000 )
                  (  0.0000000  0.0000000 -1.0000000 )

[...]

      isym = 12     inv. 180 deg rotation - cryst. axis [1,1,0]

 cryst.   s(12) = (     0         -1          0      )
                  (    -1          0          0      )
                  (     0          0          1      )

 cart.    s(12) = (  0.5000000 -0.8660254  0.0000000 )
                  ( -0.8660254 -0.5000000  0.0000000 )
                  (  0.0000000  0.0000000  1.0000000 )

   Cartesian axes

     site n.     atom                  positions (alat units)
         1           In  tau(   1) = (   0.5000005   0.2886748   0.3982261  )
         2           In  tau(   2) = (  -0.0000005   0.5773506   0.8230379  )
         3           Au  tau(   3) = (   0.5000005   0.2886748   0.9957393  )
         4           Au  tau(   4) = (  -0.0000005   0.5773506   0.2255247  )
         5           Au  tau(   5) = (   0.0000000   0.0000000   0.0000000  )

   Crystallographic axes

     site n.     atom                  positions (cryst. coord.)
         1           In  tau(   1) = (  0.6666670  0.3333330  0.3260770  )
         2           In  tau(   2) = (  0.3333330  0.6666670  0.6739230  )
         3           Au  tau(   3) = (  0.6666670  0.3333330  0.8153350  )
         4           Au  tau(   4) = (  0.3333330  0.6666670  0.1846650  )
         5           Au  tau(   5) = (  0.0000000  0.0000000  0.0000000  )

     number of k points=     1  Methfessel-Paxton smearing, width (Ry)=  0.0010
                       cart. coord. in units 2pi/alat
        k(    1) = (   0.0000000   0.0000000   0.0000000), wk =   2.0000000

                       cryst. coord.
        k(    1) = (   0.0000000   0.0000000   0.0000000), wk =   2.0000000

     Initial potential from superposition of free atoms

     starting charge      82.9923, renormalised to      83.0000
     Starting wfcs are   48 randomized atomic wfcs +    2 random wfcs

     Self-consistent Calculation

     iteration #  1     ecut=    30.00 Ry     beta= 0.70
     Davidson diagonalization with overlap

     ethr =  1.00E-02,  avg # of iterations =  3.0

     Threshold (ethr) on eigenvalues was too large:
     Diagonalizing with lowered threshold

     Davidson diagonalization with overlap

[...]

     total energy              =   -1112.76177057 Ry
     estimated scf accuracy    <       0.11255267 Ry

[...]

     total energy              =   -1112.79677284 Ry
     estimated scf accuracy    <       0.00000547 Ry

     iteration # 12     ecut=    30.00 Ry     beta= 0.70
     Davidson diagonalization with overlap

     ethr =  6.59E-09,  avg # of iterations =  4.0

     End of self-consistent calculation

          k = 0.0000 0.0000 0.0000 (  1063 PWs)   bands (ev):

   -92.7757 -92.2384 -92.2377 -43.9347 -43.9347 -43.5954 -43.4683 -43.4682
   -43.4660 -43.4659 -43.0532 -43.0526  -0.0357  -0.0356  -0.0222  -0.0005
    -0.0005   0.1045   0.1045   0.1112   0.2114   0.2115   4.5375   7.7333
     8.3806   8.3807   8.5683   8.5684   8.9035   9.0693   9.0693   9.7667
    10.4481  10.4481  10.4915  10.4916  10.6787  10.6788  11.9191  11.9601
    15.3485  16.2736  16.2736  16.8729  17.8708  17.8708  18.5368  18.9104
    18.9104  20.0882

     occupation numbers
     1.0000   1.0000   1.0000   1.0000   1.0000   1.0000   1.0000   1.0000
     1.0000   1.0000   1.0000   1.0000   1.0000   1.0000   1.0000   1.0000
     1.0000   1.0000   1.0000   1.0000   1.0000   1.0000   1.0000   1.0000
     1.0000   1.0000   1.0000   1.0000   1.0000   1.0000   1.0000   1.0000
     1.0000   1.0000   1.0000   1.0000   1.0000   1.0000   1.0000   1.0000
     1.0000   0.2518   0.2482  -0.0000  -0.0000  -0.0000  -0.0000  -0.0000
    -0.0000  -0.0000

     the Fermi energy is    16.2694 ev

!    total energy              =   -1112.79677277 Ry
     estimated scf accuracy    <       0.00000053 Ry
     smearing contrib. (-TS)   =      -0.00041261 Ry
     internal energy E=F+TS    =   -1112.79636017 Ry

     The total energy is F=E-TS. E is the sum of the following terms:
     one-electron contribution =    -507.32770607 Ry
     hartree contribution      =     294.07103690 Ry
     xc contribution           =    -171.53875388 Ry
     ewald contribution        =    -728.00093712 Ry

     convergence has been achieved in  12 iterations

     Forces acting on atoms (cartesian axes, Ry/au):

     atom    1 type  1   force =    -0.00000000   -0.00000000    0.04733334
     atom    2 type  1   force =     0.00000000    0.00000000   -0.04733334
     atom    3 type  2   force =    -0.00000000   -0.00000000    0.00643551
     atom    4 type  2   force =     0.00000000    0.00000000   -0.00643551
     atom    5 type  2   force =    -0.00000000    0.00000000    0.00000000
     The non-local contrib.  to forces
     atom    1 type  1   force =     0.00000000    0.00000000   -0.21309578
     atom    2 type  1   force =     0.00000000    0.00000000    0.21309578
     atom    3 type  2   force =     0.00000000    0.00000000    0.03632559
     atom    4 type  2   force =     0.00000000    0.00000000   -0.03632559
     atom    5 type  2   force =     0.00000000   -0.00000000    0.00000000
     The ionic contribution  to forces
     atom    1 type  1   force =    -0.00007801    0.00004504   12.11714214
     atom    2 type  1   force =     0.00007801   -0.00004504  -12.11714214
     atom    3 type  2   force =    -0.00011205    0.00006469  -16.54341453
     atom    4 type  2   force =     0.00011205   -0.00006469   16.54341453
     atom    5 type  2   force =     0.00000000    0.00000000    0.00000000
     The local contribution  to forces
     atom    1 type  1   force =    -0.00223487    0.00013068  -11.85884726
     atom    2 type  1   force =     0.00224025   -0.00010612   11.85840379
     atom    3 type  2   force =    -0.00232705    0.00011655   16.51357953
     atom    4 type  2   force =     0.00235174   -0.00012647  -16.51298029
     atom    5 type  2   force =    -0.00001278   -0.00000380    0.00045859
     The core correction contribution to forces
     atom    1 type  1   force =    -0.00010875    0.00001024    0.00207839
     atom    2 type  1   force =     0.00010953   -0.00000840   -0.00208438
     atom    3 type  2   force =     0.00000000    0.00000000    0.00000000
     atom    4 type  2   force =     0.00000000    0.00000000    0.00000000
     atom    5 type  2   force =     0.00000000    0.00000000    0.00000000
     The Hubbard contrib.    to forces
     atom    1 type  1   force =     0.00000000    0.00000000    0.00000000
     atom    2 type  1   force =     0.00000000    0.00000000    0.00000000
     atom    3 type  2   force =     0.00000000    0.00000000    0.00000000
     atom    4 type  2   force =     0.00000000    0.00000000    0.00000000
     atom    5 type  2   force =     0.00000000    0.00000000    0.00000000
     The SCF correction term to forces
     atom    1 type  1   force =     0.00179225   -0.00014156    0.00006380
     atom    2 type  1   force =    -0.00178584    0.00013562    0.00040156
     atom    3 type  2   force =     0.00162456   -0.00014164   -0.00005860
     atom    4 type  2   force =    -0.00164692    0.00013524   -0.00054766
     atom    5 type  2   force =     0.00002104    0.00000673   -0.00053971

     Total force =     0.067555     Total SCF correction =     0.003548

     Computing stress (Cartesian axis) and pressure

          total   stress  (Ry/bohr**3)                   (kbar)     P=     -204.40
  -0.00163894  -0.00000000   0.00000000         -241.10       -0.00        0.00
  -0.00000000  -0.00163894   0.00000000           -0.00     -241.10        0.00
  -0.00000000  -0.00000000  -0.00089053           -0.00       -0.00     -131.00

     kinetic stress (kbar)  40088.73      0.00      0.00
                                0.00  40088.73      0.00
                                0.00      0.00  41068.52

     local   stress (kbar) -18825.99      2.61     -0.72
                                2.61 -18825.82      0.04
                               -0.72      0.04   7644.22

     nonloc. stress (kbar)   5530.66      0.00     -0.00
                                0.00   5530.66     -0.00
                                0.00      0.00   5518.26

     hartree stress (kbar)  23333.85     -1.45      0.28
                               -1.45  23333.74     -0.02
                                0.28     -0.02  11119.98

     exc-cor stress (kbar)   3783.48     -0.02     -0.00
                               -0.02   3783.48      0.00
                               -0.00      0.00   3788.52

     corecor stress (kbar) -11503.82      0.02      0.00
                                0.02 -11503.82     -0.00
                                0.00     -0.00 -11507.91

     ewald   stress (kbar) -42648.06      0.06      0.00
                                0.06 -42648.00     -0.00
                                0.00     -0.00 -57762.59

     hubbard stress (kbar)      0.00      0.00      0.00
                                0.00      0.00      0.00
                                0.00      0.00      0.00

     DFT-D   stress (kbar)      0.00      0.00      0.00
                                0.00      0.00      0.00
                                0.00      0.00      0.00

     XDM     stress (kbar)      0.00      0.00      0.00
                                0.00      0.00      0.00
                                0.00      0.00      0.00

     dft-nl  stress (kbar)      0.00      0.00      0.00
                                0.00      0.00      0.00
                                0.00      0.00      0.00

     TS-vdW  stress (kbar)      0.00      0.00      0.00
                                0.00      0.00      0.00
                                0.00      0.00      0.00

[...]

                                0.00      0.00      0.00

     Writing all to output data dir new_calculations/myprefix.save/

     General routines

     Parallel routines

   This run was terminated on:   1:32:36  21May2023

   JOB DONE.