     Program PWSCF v.7.0 starts on 21May2023 at 19: 8: 2

     Reading input from espresso_20800.pwi
Warning: card &CELL ignored
Warning: card / ignored

     Current dimensions of program PWSCF are:
     Max number of different atomic species (ntypx) = 10
     Max number of k-points (npk) =  40000
     Max angular momentum in pseudopotentials (lmaxx) =  4

     gamma-point specific algorithms are used
     Message from routine setup:
     using ibrav=0 with symmetry is DISCOURAGED, use correct ibrav instead

     Subspace diagonalization in iterative solution of the eigenvalue problem:
     a serial algorithm will be used

     Using Slab Decomposition

     bravais-lattice index     =            0
     lattice parameter (alat)  =      19.1216  a.u.
     unit-cell volume          =    3982.4353 (a.u.)^3
     number of atoms/cell      =           12
     number of atomic types    =            2
     number of electrons       =        90.00
     number of Kohn-Sham states=           54
     kinetic-energy cutoff     =      30.0000  Ry
     charge density cutoff     =     240.0000  Ry
     scf convergence threshold =      1.0E-06
     mixing beta               =       0.7000
     number of iterations used =            8  plain     mixing
     Exchange-correlation= SLA  PW   PBE  PBE
                           (   1   4   3   4   0   0   0)

     celldm(1)=  19.121603  celldm(2)=   0.000000  celldm(3)=   0.000000
     celldm(4)=   0.000000  celldm(5)=   0.000000  celldm(6)=   0.000000

     crystal axes: (cart. coord. in units of alat)
               a(1) = (   1.000000   0.000000   0.000000 )
               a(2) = (  -0.500000   0.866025   0.000000 )
               a(3) = (   0.000000   0.000000   0.657726 )

     reciprocal axes: (cart. coord. in units 2 pi/alat)
               b(1) = (  1.000000  0.577350  0.000000 )
               b(2) = (  0.000000  1.154701  0.000000 )
               b(3) = (  0.000000  0.000000  1.520389 )

     PseudoPot. # 1 for Rb read from file:
     /home/pragov/projects/rrg-bengioy-ad/pragov/crystal_structure_design/SSSP/Rb_ONCV_PBE-1.0.oncvpsp.upf
     MD5 check sum: 55a5172d6bfbce6759a58e35d43f6aa9
     Pseudo is Norm-conserving, Zval =  9.0
     Generated using ONCVPSP code by D. R. Hamann
     Using radial grid of 2308 points,  6 beta functions with:
                l(1) =   0
                l(2) =   0
                l(3) =   1
                l(4) =   1
                l(5) =   2
                l(6) =   2

     PseudoPot. # 2 for Te read from file:
     /home/pragov/projects/rrg-bengioy-ad/pragov/crystal_structure_design/SSSP/Te_pbe_v1.uspp.F.UPF
     MD5 check sum: c319670d6894cc26e93307826a071b75
     Pseudo is Ultrasoft + core correction, Zval =  6.0
     Generated by new atomic code, or converted to UPF format
     Using radial grid of  891 points,  5 beta functions with:
                l(1) =   0
                l(2) =   0
                l(3) =   1
                l(4) =   1
                l(5) =   2
     Q(r) pseudized with  6 coefficients,  rinner =    1.800   1.800   1.800
                                                       1.800   1.800

     atomic species   valence    mass     pseudopotential
        Rb             9.00    85.46780     Rb( 1.00)
        Te             6.00   127.60000     Te( 1.00)

     12 Sym. Ops. (no inversion) found

                                    s                        frac. trans.

      isym =  1     identity

 cryst.   s( 1) = (     1          0          0      )
                  (     0          1          0      )
                  (     0          0          1      )

 cart.    s( 1) = (  1.0000000  0.0000000  0.0000000 )
                  (  0.0000000  1.0000000  0.0000000 )
                  (  0.0000000  0.0000000  1.0000000 )

      isym =  2     180 deg rotation - cart. axis [1,0,0]

[...]

      isym =  3     120 deg rotation - cryst. axis [0,0,1]

[...]

      isym =  6     180 deg rotation - cryst. axis [1,1,0]

[...]

      isym =  7     inv. 180 deg rotation - cart. axis [0,0,1]

[...]

      isym =  8     inv. 180 deg rotation - cart. axis [0,1,0]

[...]

      isym =  9     inv.  60 deg rotation - cryst. axis [0,0,1]

 cryst.   s( 9) = (    -1         -1          0      )
                  (     1          0          0      )
                  (     0          0         -1      )

 cart.    s( 9) = ( -0.4999999  0.8660254  0.0000000 )
                  ( -0.8660254 -0.5000001  0.0000000 )
                  (  0.0000000  0.0000000 -1.0000000 )

[...]

 cryst.   s(10) = (     0          1          0      )
                  (    -1         -1          0      )
                  (     0          0         -1      )

 cart.    s(10) = ( -0.5000001 -0.8660254  0.0000000 )
                  (  0.8660254 -0.4999999  0.0000000 )
                  (  0.0000000  0.0000000 -1.0000000 )

[...]

      isym = 12     inv. 180 deg rotation - cryst. axis [2,1,0]

 cryst.   s(12) = (    -1         -1          0      )
                  (     0          1          0      )
                  (     0          0          1      )

 cart.    s(12) = ( -0.4999999 -0.8660255  0.0000000 )
                  ( -0.8660254  0.4999999  0.0000000 )
                  (  0.0000000  0.0000000  1.0000000 )

   Cartesian axes

     site n.     atom                  positions (alat units)
         1           Rb  tau(   1) = (   0.6540160   0.0000000   0.0000000  )
         2           Rb  tau(   2) = (   0.1729920   0.2996309   0.0000000  )
         3           Rb  tau(   3) = (   0.6729920   0.5663944   0.0000000  )
         4           Rb  tau(   4) = (   0.3201960   0.0000000   0.3288631  )
         5           Rb  tau(   5) = (   0.3399019   0.5887275   0.3288631  )
         6           Rb  tau(   6) = (   0.8399020   0.2772979   0.3288631  )
         7           Te  tau(   7) = (   0.0000000   0.0000000   0.1395814  )
         8           Te  tau(   8) = (   0.0000000   0.0000000   0.5181449  )
         9           Te  tau(   9) = (  -0.0000006   0.5773505   0.1886629  )
        10           Te  tau(  10) = (  -0.0000006   0.5773505   0.4690634  )
        11           Te  tau(  11) = (   0.5000005   0.2886748   0.4690634  )
        12           Te  tau(  12) = (   0.5000005   0.2886748   0.1886629  )

   Crystallographic axes

     site n.     atom                  positions (cryst. coord.)
         1           Rb  tau(   1) = (  0.6540160  0.0000000  0.0000000  )
         2           Rb  tau(   2) = (  0.3459840  0.3459840  0.0000000  )
         3           Rb  tau(   3) = (  1.0000000  0.6540160  0.0000000  )
         4           Rb  tau(   4) = (  0.3201960  0.0000000  0.5000000  )
         5           Rb  tau(   5) = (  0.6798040  0.6798040  0.5000000  )
         6           Rb  tau(   6) = (  1.0000000  0.3201960  0.5000000  )
         7           Te  tau(   7) = (  0.0000000  0.0000000  0.2122180  )
         8           Te  tau(   8) = (  0.0000000  0.0000000  0.7877820  )
         9           Te  tau(   9) = (  0.3333330  0.6666670  0.2868410  )
        10           Te  tau(  10) = (  0.3333330  0.6666670  0.7131590  )
        11           Te  tau(  11) = (  0.6666670  0.3333330  0.7131590  )
        12           Te  tau(  12) = (  0.6666670  0.3333330  0.2868410  )

     number of k points=     1  Methfessel-Paxton smearing, width (Ry)=  0.0010
                       cart. coord. in units 2pi/alat
        k(    1) = (   0.0000000   0.0000000   0.0000000), wk =   2.0000000

                       cryst. coord.
        k(    1) = (   0.0000000   0.0000000   0.0000000), wk =   2.0000000

     Initial potential from superposition of free atoms

     starting charge      89.8501, renormalised to      90.0000
     Starting wfcs are   54 randomized atomic wfcs

     Self-consistent Calculation

     iteration #  1     ecut=    30.00 Ry     beta= 0.70
     Davidson diagonalization with overlap

     ethr =  1.00E-02,  avg # of iterations =  5.0

     Threshold (ethr) on eigenvalues was too large:
     Diagonalizing with lowered threshold

     Davidson diagonalization with overlap

[...]

     total energy              =    -453.32176407 Ry
     estimated scf accuracy    <       0.33432942 Ry

[...]

     total energy              =    -453.40250236 Ry
     estimated scf accuracy    <       0.00000108 Ry

     iteration #  8     ecut=    30.00 Ry     beta= 0.70
     Davidson diagonalization with overlap

     ethr =  1.20E-09,  avg # of iterations =  3.0

     End of self-consistent calculation

          k = 0.0000 0.0000 0.0000 (  5495 PWs)   bands (ev):

   -24.0122 -24.0115 -24.0114 -23.8861 -23.8857 -23.8857  -8.5741  -8.5618
    -8.1987  -8.1341  -8.1341  -8.1275  -8.1173  -8.1173  -8.1170  -8.1169
    -8.0581  -8.0210  -8.0210  -8.0128  -8.0127  -7.9970  -7.9970  -7.9882
    -7.9489  -7.4939  -7.4577  -5.8192  -5.8162  -5.7210  -0.6610  -0.5518
    -0.5097   0.9282   0.9282   0.9653   0.9653   1.1925   1.1925   2.6916
     2.6916   2.7106   2.7106   2.9195   2.9195   4.7779   6.1824   6.1824
     6.2567   6.2567   6.2848   6.2922   6.3374   7.1211

     occupation numbers
     1.0000   1.0000   1.0000   1.0000   1.0000   1.0000   1.0000   1.0000
     1.0000   1.0000   1.0000   1.0000   1.0000   1.0000   1.0000   1.0000
     1.0000   1.0000   1.0000   1.0000   1.0000   1.0000   1.0000   1.0000
     1.0000   1.0000   1.0000   1.0000   1.0000   1.0000   1.0000   1.0000
     1.0000   1.0000   1.0000   1.0000   1.0000   1.0000   1.0000   1.0000
     1.0000   1.0000   1.0000   1.0000   1.0000  -0.0000  -0.0000  -0.0000
    -0.0000  -0.0000  -0.0000  -0.0000  -0.0000  -0.0000

     the Fermi energy is     3.3315 ev

!    total energy              =    -453.40250275 Ry
     estimated scf accuracy    <       0.00000016 Ry
     smearing contrib. (-TS)   =       0.00000000 Ry
     internal energy E=F+TS    =    -453.40250275 Ry

     The total energy is F=E-TS. E is the sum of the following terms:
     one-electron contribution =    -127.62268170 Ry
     hartree contribution      =      86.39275437 Ry
     xc contribution           =    -131.63268485 Ry
     ewald contribution        =    -280.53989057 Ry

     convergence has been achieved in   8 iterations

     Forces acting on atoms (cartesian axes, Ry/au):

     atom    1 type  1   force =    -0.00070023   -0.00000000    0.00000000
     atom    2 type  1   force =     0.00035011    0.00060642    0.00000000
     atom    3 type  1   force =     0.00035011   -0.00060642    0.00000000
     atom    4 type  1   force =    -0.00076668   -0.00000000    0.00000000
     atom    5 type  1   force =     0.00038334    0.00066396    0.00000000
     atom    6 type  1   force =     0.00038334   -0.00066396    0.00000000
     atom    7 type  2   force =     0.00000000    0.00000000    0.04503257
     atom    8 type  2   force =     0.00000000    0.00000000   -0.04503257
     atom    9 type  2   force =     0.00000000    0.00000000   -0.04538496
     atom   10 type  2   force =     0.00000000   -0.00000000    0.04538496
     atom   11 type  2   force =    -0.00000000   -0.00000000    0.04538496
     atom   12 type  2   force =     0.00000000    0.00000000   -0.04538496
     The non-local contrib.  to forces
     atom    1 type  1   force =    -0.00667401   -0.00000000    0.00000000
     atom    2 type  1   force =     0.00333701    0.00577987   -0.00000000
     atom    3 type  1   force =     0.00333701   -0.00577986    0.00000000
     atom    4 type  1   force =    -0.00748720   -0.00000000    0.00000000
     atom    5 type  1   force =     0.00374360    0.00648410    0.00000000
     atom    6 type  1   force =     0.00374360   -0.00648410    0.00000000
     atom    7 type  2   force =    -0.00000000   -0.00000000    0.08384098
     atom    8 type  2   force =     0.00000000   -0.00000000   -0.08384098
     atom    9 type  2   force =     0.00000000   -0.00000000   -0.07621039
     atom   10 type  2   force =    -0.00000000   -0.00000000    0.07621039
     atom   11 type  2   force =     0.00000000   -0.00000000    0.07621039
     atom   12 type  2   force =     0.00000000   -0.00000000   -0.07621039
     The ionic contribution  to forces
     atom    1 type  1   force =    -0.26272847   -0.00001198    0.00000000
     atom    2 type  1   force =     0.13137512    0.22754841    0.00000000
     atom    3 type  1   force =     0.13135388   -0.22753551    0.00000000
     atom    4 type  1   force =    -0.23788746    0.00001511   -0.00000000
     atom    5 type  1   force =     0.11893001    0.20599285   -0.00000000
     atom    6 type  1   force =     0.11895683   -0.20600902   -0.00000000
     atom    7 type  2   force =    -0.00000002   -0.00000004    0.84141994
     atom    8 type  2   force =    -0.00000002   -0.00000004   -0.84141994
     atom    9 type  2   force =     0.00001551   -0.00000888   -1.06197456
     atom   10 type  2   force =     0.00001551   -0.00000888    1.06197456
     atom   11 type  2   force =    -0.00001544    0.00000899    1.06197456
     atom   12 type  2   force =    -0.00001544    0.00000899   -1.06197456
     The local contribution  to forces
     atom    1 type  1   force =     0.26846446    0.00000273   -0.00000160
     atom    2 type  1   force =    -0.13423458   -0.23251585    0.00000054
     atom    3 type  1   force =    -0.13425160    0.23249328   -0.00000132
     atom    4 type  1   force =     0.24411663   -0.00001342    0.00000035
     atom    5 type  1   force =    -0.12206058   -0.21139692   -0.00000790
     atom    6 type  1   force =    -0.12206835    0.21140174    0.00001605
     atom    7 type  2   force =    -0.00000080    0.00000046   -0.89309364
     atom    8 type  2   force =    -0.00000119   -0.00000097    0.89309184
     atom    9 type  2   force =    -0.00000916    0.00000898    1.10487720
     atom   10 type  2   force =    -0.00000669    0.00000686   -1.10488156
     atom   11 type  2   force =     0.00000729    0.00000288   -1.10487916
     atom   12 type  2   force =     0.00001123   -0.00000359    1.10488264
     The core correction contribution to forces
     atom    1 type  1   force =     0.00000000    0.00000000    0.00000000
     atom    2 type  1   force =     0.00000000    0.00000000    0.00000000
     atom    3 type  1   force =     0.00000000    0.00000000    0.00000000
     atom    4 type  1   force =     0.00000000    0.00000000    0.00000000
     atom    5 type  1   force =     0.00000000    0.00000000    0.00000000
     atom    6 type  1   force =     0.00000000    0.00000000    0.00000000
     atom    7 type  2   force =    -0.00000028   -0.00000074    0.01309602
     atom    8 type  2   force =     0.00000003   -0.00000019   -0.01309584
     atom    9 type  2   force =     0.00000076   -0.00000011   -0.01228469
     atom   10 type  2   force =     0.00000019   -0.00000017    0.01228514
     atom   11 type  2   force =     0.00000038    0.00000010    0.01228603
     atom   12 type  2   force =    -0.00000039    0.00000091   -0.01228626
     The Hubbard contrib.    to forces
     atom    1 type  1   force =     0.00000000    0.00000000    0.00000000
     atom    2 type  1   force =     0.00000000    0.00000000    0.00000000
     atom    3 type  1   force =     0.00000000    0.00000000    0.00000000
     atom    4 type  1   force =     0.00000000    0.00000000    0.00000000
     atom    5 type  1   force =     0.00000000    0.00000000    0.00000000
     atom    6 type  1   force =     0.00000000    0.00000000    0.00000000
     atom    7 type  2   force =     0.00000000    0.00000000    0.00000000
     atom    8 type  2   force =     0.00000000    0.00000000    0.00000000
     atom    9 type  2   force =     0.00000000    0.00000000    0.00000000
     atom   10 type  2   force =     0.00000000    0.00000000    0.00000000
     atom   11 type  2   force =     0.00000000    0.00000000    0.00000000
     atom   12 type  2   force =     0.00000000    0.00000000    0.00000000
     The SCF correction term to forces
     atom    1 type  1   force =     0.00023483    0.00000884    0.00000299
     atom    2 type  1   force =    -0.00012990   -0.00020393   -0.00000041
     atom    3 type  1   force =    -0.00008780    0.00022056    0.00000386
     atom    4 type  1   force =     0.00050116   -0.00000138   -0.00000651
     atom    5 type  1   force =    -0.00022454   -0.00040751    0.00001064
     atom    6 type  1   force =    -0.00024734    0.00042844   -0.00001758
     atom    7 type  2   force =     0.00000317    0.00000592   -0.00023122
     atom    8 type  2   force =    -0.00000001    0.00000409    0.00023184
     atom    9 type  2   force =    -0.00001513    0.00000148    0.00019971
     atom   10 type  2   force =    -0.00001208    0.00000383   -0.00019943
     atom   11 type  2   force =     0.00000466   -0.00001429   -0.00021226
     atom   12 type  2   force =     0.00000843   -0.00001631    0.00021012

     Total force =     0.110898     Total SCF correction =     0.001077

     Computing stress (Cartesian axis) and pressure

          total   stress  (Ry/bohr**3)                   (kbar)     P=       -2.43
  -0.00002373  -0.00000000   0.00000000           -3.49       -0.00        0.00
  -0.00000000  -0.00002373   0.00000000           -0.00       -3.49        0.00
  -0.00000000  -0.00000000  -0.00000199           -0.00       -0.00       -0.29

     kinetic stress (kbar)   2826.05      0.00      0.00
                                0.00   2826.05     -0.00
                                0.00     -0.00   2684.45

     local   stress (kbar)   2473.13      0.00      0.00
                                0.00   2473.13     -0.00
                                0.00     -0.00   2302.31

     nonloc. stress (kbar)  -1891.95     -0.00      0.00
                               -0.00  -1891.95      0.00
                                0.00      0.00  -1728.75

     hartree stress (kbar)   1085.81     -0.00     -0.00
                               -0.00   1085.81     -0.00
                               -0.00     -0.00   1019.61

     exc-cor stress (kbar)   1460.33     -0.00     -0.00
                               -0.00   1460.33      0.00
                               -0.00      0.00   1459.63

     corecor stress (kbar)  -2436.03     -0.00     -0.00
                               -0.00  -2436.03      0.00
                               -0.00      0.00  -2416.48

     ewald   stress (kbar)  -3520.83      0.00     -0.00
                                0.00  -3520.83      0.00
                               -0.00      0.00  -3321.06

     hubbard stress (kbar)      0.00      0.00      0.00
                                0.00      0.00      0.00
                                0.00      0.00      0.00

     DFT-D   stress (kbar)      0.00      0.00      0.00
                                0.00      0.00      0.00
                                0.00      0.00      0.00

     XDM     stress (kbar)      0.00      0.00      0.00
                                0.00      0.00      0.00
                                0.00      0.00      0.00

     dft-nl  stress (kbar)      0.00      0.00      0.00
                                0.00      0.00      0.00
                                0.00      0.00      0.00

     TS-vdW  stress (kbar)      0.00      0.00      0.00
                                0.00      0.00      0.00
                                0.00      0.00      0.00

[...]

                                0.00      0.00      0.00

     Writing all to output data dir new_calculations/myprefix.save/

     General routines

     Parallel routines

   This run was terminated on:  19: 8:39  21May2023

   JOB DONE.