     Program PWSCF v.7.0 starts on 20May2023 at 11:54: 6

     Reading input from espresso_17324.pwi
Warning: card &CELL ignored
Warning: card / ignored

     Current dimensions of program PWSCF are:
     Max number of different atomic species (ntypx) = 10
     Max number of k-points (npk) =  40000
     Max angular momentum in pseudopotentials (lmaxx) =  4

     gamma-point specific algorithms are used
     Message from routine setup:
     using ibrav=0 with symmetry is DISCOURAGED, use correct ibrav instead

     Subspace diagonalization in iterative solution of the eigenvalue problem:
     a serial algorithm will be used

     Using Slab Decomposition

     bravais-lattice index     =            0
     lattice parameter (alat)  =      10.6286  a.u.
     unit-cell volume          =    1047.9956 (a.u.)^3
     number of atoms/cell      =            4
     number of atomic types    =            3
     number of electrons       =        30.00
     number of Kohn-Sham states=           19
     kinetic-energy cutoff     =      30.0000  Ry
     charge density cutoff     =     240.0000  Ry
     scf convergence threshold =      1.0E-06
     mixing beta               =       0.7000
     number of iterations used =            8  plain     mixing
     Exchange-correlation=  SLA  PW   PBX  PBC
                           (   1   4   3   4   0   0   0)

     celldm(1)=  10.628610  celldm(2)=   0.000000  celldm(3)=   0.000000
     celldm(4)=   0.000000  celldm(5)=   0.000000  celldm(6)=   0.000000

     crystal axes: (cart. coord. in units of alat)
               a(1) = (   1.000000   0.000000   0.000000 )
               a(2) = (   0.317315   0.948320   0.000000 )
               a(3) = (   0.317315   0.228432   0.920397 )

     reciprocal axes: (cart. coord. in units 2 pi/alat)
               b(1) = (  1.000000 -0.334608 -0.261714 )
               b(2) = (  0.000000  1.054496 -0.261714 )
               b(3) = (  0.000000  0.000000  1.086488 )

     PseudoPot. # 1 for Cs read from file:
     /home/pragov/projects/rrg-bengioy-ad/pragov/crystal_structure_design/SSSP/Cs_pbe_v1.uspp.F.UPF
     MD5 check sum: 3476d69cb178dfad3ffaa59df4e07ca4
     Pseudo is Ultrasoft + core correction, Zval =  9.0
     Generated by new atomic code, or converted to UPF format
     Using radial grid of  905 points,  6 beta functions with:
                l(1) =   0
                l(2) =   0
                l(3) =   1
                l(4) =   1
                l(5) =   2
                l(6) =   2
     Q(r) pseudized with  6 coefficients,  rinner =    1.500   1.500   1.500
                                                       1.500   1.500

     PseudoPot. # 2 for I  read from file:
     /home/pragov/projects/rrg-bengioy-ad/pragov/crystal_structure_design/SSSP/I.pbe-n-kjpaw_psl.0.2.UPF
     MD5 check sum: d4ef18d9c8f18dc85e5843bca1e50dc0
     Pseudo is Projector augmented-wave + core cor, Zval =  7.0
     Generated using "atomic" code by A. Dal Corso  v.5.0.99 svn rev. 10869
     Shape of augmentation charge: PSQ
     Using radial grid of 1247 points,  4 beta functions with:
                l(1) =   0
                l(2) =   0
                l(3) =   1
                l(4) =   1
     Q(r) pseudized with 0 coefficients

     PseudoPot. # 3 for Cl read from file:
     /home/pragov/projects/rrg-bengioy-ad/pragov/crystal_structure_design/SSSP/cl_pbe_v1.4.uspp.F.UPF
     MD5 check sum: fc6f6913ecf08c9257cb748ef0700058
     Pseudo is Ultrasoft + core correction, Zval =  7.0
     Generated by new atomic code, or converted to UPF format
     Using radial grid of  909 points,  6 beta functions with:
                l(1) =   0
                l(2) =   0
                l(3) =   1
                l(4) =   1
                l(5) =   2
                l(6) =   2
     Q(r) pseudized with  8 coefficients,  rinner =    1.300   1.300   1.300
                                                       1.300   1.300

     atomic species   valence    mass     pseudopotential
        Cs             9.00   132.90545     Cs( 1.00)
        I              7.00   126.90447     I ( 1.00)
        Cl             7.00    35.45000     Cl( 1.00)

      2 Sym. Ops., with inversion, found

                                    s                        frac. trans.

      isym =  1     identity

 cryst.   s( 1) = (     1          0          0      )
                  (     0          1          0      )
                  (     0          0          1      )

 cart.    s( 1) = (  1.0000000 -0.0000000 -0.0000000 )
                  (  0.0000000  1.0000000  0.0000000 )
                  (  0.0000000  0.0000000  1.0000000 )

      isym =  2     inversion

 cryst.   s( 2) = (    -1          0          0      )
                  (     0         -1          0      )
                  (     0          0         -1      )

 cart.    s( 2) = ( -1.0000000  0.0000000  0.0000000 )
                  (  0.0000000 -1.0000000 -0.0000000 )
                  (  0.0000000  0.0000000 -1.0000000 )

   Cartesian axes

     site n.     atom                  positions (alat units)
         1           Cs  tau(   1) = (   0.0000000   0.0000000   0.0000000  )
         2           I   tau(   2) = (   0.8173153   0.5883759   0.4601983  )
         3           Cl  tau(   3) = (   1.1548551   0.8313669   0.6502538  )
         4           Cl  tau(   4) = (   0.4797755   0.3453849   0.2701429  )

   Crystallographic axes

     site n.     atom                  positions (cryst. coord.)
         1           Cs  tau(   1) = (  0.0000000  0.0000000  0.0000000  )
         2           I   tau(   2) = (  0.5000000  0.5000000  0.5000000  )
         3           Cl  tau(   3) = (  0.7064930  0.7064930  0.7064930  )
         4           Cl  tau(   4) = (  0.2935070  0.2935070  0.2935070  )

     number of k points=     1  Methfessel-Paxton smearing, width (Ry)=  0.0010
                       cart. coord. in units 2pi/alat
        k(    1) = (   0.0000000   0.0000000   0.0000000), wk =   2.0000000

                       cryst. coord.
        k(    1) = (   0.0000000   0.0000000   0.0000000), wk =   2.0000000

     Initial potential from superposition of free atoms

     starting charge      29.9605, renormalised to      30.0000

     negative rho (up, down):  2.973E-02 0.000E+00
     Starting wfcs are   25 randomized atomic wfcs
     Checking if some PAW data can be deallocated...

     Self-consistent Calculation

     iteration #  1     ecut=    30.00 Ry     beta= 0.70
     Davidson diagonalization with overlap

     ethr =  1.00E-02,  avg # of iterations =  4.0

     Threshold (ethr) on eigenvalues was too large:
     Diagonalizing with lowered threshold

     Davidson diagonalization with overlap

[...]

     negative rho (up, down):  3.061E-02 0.000E+00

     total energy              =    -508.92867601 Ry
     estimated scf accuracy    <       0.10360215 Ry

[...]

     total energy              =    -508.96369383 Ry
     estimated scf accuracy    <       0.00000167 Ry

     iteration #  6     ecut=    30.00 Ry     beta= 0.70
     Davidson diagonalization with overlap

     ethr =  5.55E-09,  avg # of iterations =  6.0

[...]

     End of self-consistent calculation

          k = 0.0000 0.0000 0.0000 (  1453 PWs)   bands (ev):

   -17.9279 -12.2859 -11.7479  -8.9735  -4.7367  -4.7302  -4.7302  -2.3097
    -0.0882  -0.0882   0.0319   0.3752   0.3752   1.4010   1.4010   4.7662
     6.8623   7.7699   7.7699

     occupation numbers
     1.0000   1.0000   1.0000   1.0000   1.0000   1.0000   1.0000   1.0000
     1.0000   1.0000   1.0000   1.0000   1.0000   1.0000   1.0000  -0.0000
    -0.0000  -0.0000  -0.0000

     the Fermi energy is     4.6597 ev

!    total energy              =    -508.96369536 Ry
     estimated scf accuracy    <       0.00000037 Ry
     smearing contrib. (-TS)   =       0.00000000 Ry
     internal energy E=F+TS    =    -508.96369536 Ry

     The total energy is F=E-TS. E is the sum of the following terms:
     one-electron contribution =     -20.12309297 Ry
     hartree contribution      =      21.74856497 Ry
     xc contribution           =     -90.73865127 Ry
     ewald contribution        =     -99.33534497 Ry
     one-center paw contrib.   =    -320.51517112 Ry
      -> PAW hartree energy AE =       8.70287174 Ry
      -> PAW hartree energy PS =      -8.75496934 Ry
      -> PAW xc energy AE      =    -360.66975023 Ry
      -> PAW xc energy PS      =      40.20667671 Ry
      -> total E_H with PAW    =      21.69646737 Ry
      -> total E_XC with PAW   =    -411.20172479 Ry

     convergence has been achieved in   6 iterations

     negative rho (up, down):  2.998E-02 0.000E+00

     Forces acting on atoms (cartesian axes, Ry/au):

     atom    1 type  1   force =     0.00000000    0.00000000    0.00000000
     atom    2 type  2   force =     0.00000000    0.00000000    0.00000000
     atom    3 type  3   force =    -0.00756247   -0.00545105   -0.00425952
     atom    4 type  3   force =     0.00756247    0.00545105    0.00425952
     The non-local contrib.  to forces
     atom    1 type  1   force =     0.00000000    0.00000000    0.00000000
     atom    2 type  2   force =     0.00000000    0.00000000    0.00000000
     atom    3 type  3   force =    -0.10598196   -0.07628590   -0.05965975
     atom    4 type  3   force =     0.10598196    0.07628590    0.05965975
     The ionic contribution  to forces
     atom    1 type  1   force =    -0.00000000    0.00000000    0.00000000
     atom    2 type  2   force =    -0.00000000   -0.00000000   -0.00000000
     atom    3 type  3   force =     1.49464767    1.07597966    0.84157772
     atom    4 type  3   force =    -1.49464767   -1.07597966   -0.84157772
     The local contribution  to forces
     atom    1 type  1   force =    -0.00001985   -0.00023619    0.00004579
     atom    2 type  2   force =    -0.00002686   -0.00001708   -0.00001335
     atom    3 type  3   force =    -1.39969323   -1.00754961   -0.78815131
     atom    4 type  3   force =     1.39962108    1.00769221    0.78811877
     The core correction contribution to forces
     atom    1 type  1   force =    -0.00000477   -0.00001183    0.00000213
     atom    2 type  2   force =    -0.00000049   -0.00000241   -0.00000025
     atom    3 type  3   force =     0.00274764    0.00197964    0.00154622
     atom    4 type  3   force =    -0.00274823   -0.00197589   -0.00154639
     The Hubbard contrib.    to forces
     atom    1 type  1   force =     0.00000000    0.00000000    0.00000000
     atom    2 type  2   force =     0.00000000    0.00000000    0.00000000
     atom    3 type  3   force =     0.00000000    0.00000000    0.00000000
     atom    4 type  3   force =     0.00000000    0.00000000    0.00000000
     The SCF correction term to forces
     atom    1 type  1   force =    -0.00000351    0.00009490   -0.00001948
     atom    2 type  2   force =     0.00003206    0.00002234    0.00001685
     atom    3 type  3   force =     0.00071044    0.00045714    0.00042352
     atom    4 type  3   force =    -0.00065165   -0.00053955   -0.00039899

     Total force =     0.014495     Total SCF correction =     0.001334

     Computing stress (Cartesian axis) and pressure

     negative rho (up, down):  2.998E-02 0.000E+00
          total   stress  (Ry/bohr**3)                   (kbar)     P=      -33.38
  -0.00024152  -0.00002710  -0.00002119          -35.53       -3.99       -3.12
  -0.00002710  -0.00022340  -0.00001527           -3.99      -32.86       -2.25
  -0.00002119  -0.00001527  -0.00021583           -3.12       -2.25      -31.75

     kinetic stress (kbar)   3661.32   -150.72   -117.88
                             -150.72   3762.18    -84.86
                             -117.88    -84.86   3804.31

     local   stress (kbar)  -2882.18   -888.65   -695.06
                             -888.65  -2287.48   -500.37
                             -695.06   -500.37  -2039.12

     nonloc. stress (kbar)   3730.87    -10.79     -8.44
                              -10.79   3738.09     -6.07
                               -8.44     -6.07   3741.11

     hartree stress (kbar)   1136.94    221.29    173.08
                              221.29    988.85    124.60
                              173.08    124.60    927.00

     exc-cor stress (kbar)   8063.51      2.03      1.59
                                2.03   8062.15      1.14
                                1.59      1.14   8061.59

     corecor stress (kbar)  -9536.15     10.73      8.39
                               10.73  -9543.33      6.04
                                8.39      6.04  -9546.33

     ewald   stress (kbar)  -4209.85    812.12    635.20
                              812.12  -4753.34    457.28
                              635.20    457.28  -4980.32

     hubbard stress (kbar)      0.00      0.00      0.00
                                0.00      0.00      0.00
                                0.00      0.00      0.00

     DFT-D   stress (kbar)      0.00      0.00      0.00
                                0.00      0.00      0.00
                                0.00      0.00      0.00

     XDM     stress (kbar)      0.00      0.00      0.00
                                0.00      0.00      0.00
                                0.00      0.00      0.00

     dft-nl  stress (kbar)      0.00      0.00      0.00
                                0.00      0.00      0.00
                                0.00      0.00      0.00

     TS-vdW  stress (kbar)      0.00      0.00      0.00
                                0.00      0.00      0.00
                                0.00      0.00      0.00

[...]

                                0.00      0.00      0.00

     Writing all to output data dir new_calculations/myprefix.save/

     General routines

     Parallel routines

     PAW routines

   This run was terminated on:  11:54:15  20May2023

   JOB DONE.