     Program PWSCF v.7.0 starts on 21May2023 at 10:32: 4

     Reading input from espresso_22713.pwi
Warning: card &CELL ignored
Warning: card / ignored

     Current dimensions of program PWSCF are:
     Max number of different atomic species (ntypx) = 10
     Max number of k-points (npk) =  40000
     Max angular momentum in pseudopotentials (lmaxx) =  4
     file Cd.pbe-dn-rrkjus_psl.0.3.1.UPF: wavefunction(s)  4D renormalized

     gamma-point specific algorithms are used
     Message from routine setup:
     using ibrav=0 with symmetry is DISCOURAGED, use correct ibrav instead

     Subspace diagonalization in iterative solution of the eigenvalue problem:
     a serial algorithm will be used

     Using Slab Decomposition

     bravais-lattice index     =            0
     lattice parameter (alat)  =       9.6030  a.u.
     unit-cell volume          =     885.5580 (a.u.)^3
     number of atoms/cell      =            4
     number of atomic types    =            2
     number of electrons       =        45.00
     number of Kohn-Sham states=           28
     kinetic-energy cutoff     =      30.0000  Ry
     charge density cutoff     =     240.0000  Ry
     scf convergence threshold =      1.0E-06
     mixing beta               =       0.7000
     number of iterations used =            8  plain     mixing
     Exchange-correlation= PBE
                           (   1   4   3   4   0   0   0)

     celldm(1)=   9.602972  celldm(2)=   0.000000  celldm(3)=   0.000000
     celldm(4)=   0.000000  celldm(5)=   0.000000  celldm(6)=   0.000000

     crystal axes: (cart. coord. in units of alat)
               a(1) = (   1.000000   0.000000   0.000000 )
               a(2) = (   0.000000   1.000000   0.000000 )
               a(3) = (   0.000000   0.000000   1.000000 )

     reciprocal axes: (cart. coord. in units 2 pi/alat)
               b(1) = (  1.000000  0.000000  0.000000 )
               b(2) = (  0.000000  1.000000  0.000000 )
               b(3) = (  0.000000  0.000000  1.000000 )

     PseudoPot. # 1 for La read from file:
     /home/pragov/projects/rrg-bengioy-ad/pragov/crystal_structure_design/SSSP/La.GGA-PBE-paw-v1.0.UPF
     MD5 check sum: 436541e95c1ad8901025bd0b0ed42ae2
     Pseudo is Projector augmented-wave + core cor, Zval = 11.0
     Generated using ATOMPAW code
     Shape of augmentation charge: BESSEL
     Using radial grid of 1101 points,  8 beta functions with:
                l(1) =   0
                l(2) =   0
                l(3) =   1
                l(4) =   1
                l(5) =   2
                l(6) =   2
                l(7) =   3
                l(8) =   3
     Q(r) pseudized with 0 coefficients

     PseudoPot. # 2 for Cd read from file:
     /home/pragov/projects/rrg-bengioy-ad/pragov/crystal_structure_design/SSSP/Cd.pbe-dn-rrkjus_psl.0.3.1.UPF
     MD5 check sum: 558e9f355611b531a870a69ef6ace9e2
     Pseudo is Ultrasoft + core correction, Zval = 12.0
     Generated using "atomic" code by A. Dal Corso  v.5.0.99 svn rev. 10869
     Using radial grid of 1239 points,  6 beta functions with:
                l(1) =   0
                l(2) =   0
                l(3) =   1
                l(4) =   1
                l(5) =   2
                l(6) =   2
     Q(r) pseudized with 0 coefficients

     atomic species   valence    mass     pseudopotential
        La            11.00   138.90547     La( 1.00)
        Cd            12.00   112.41400     Cd( 1.00)

     48 Sym. Ops., with inversion, found

                                    s                        frac. trans.

      isym =  1     identity

 cryst.   s( 1) = (     1          0          0      )
                  (     0          1          0      )
                  (     0          0          1      )

 cart.    s( 1) = (  1.0000000  0.0000000  0.0000000 )
                  (  0.0000000  1.0000000  0.0000000 )
                  (  0.0000000  0.0000000  1.0000000 )

      isym =  2     180 deg rotation - cart. axis [0,0,1]

[...]

 cryst.   s( 9) = (     0          0          1      )
                  (     0         -1          0      )
                  (     1          0          0      )

 cart.    s( 9) = (  0.0000000  0.0000000  1.0000000 )
                  (  0.0000000 -1.0000000  0.0000000 )
                  (  1.0000000  0.0000000  0.0000000 )

[...]

 cryst.   s(10) = (     0          0         -1      )
                  (     0         -1          0      )
                  (    -1          0          0      )

 cart.    s(10) = (  0.0000000  0.0000000 -1.0000000 )
                  (  0.0000000 -1.0000000  0.0000000 )
                  ( -1.0000000  0.0000000  0.0000000 )

[...]

      isym = 24     120 deg rotation - cart. axis [-1,-1,1]

[...]

      isym = 25     inversion

[...]

      isym = 26     inv. 180 deg rotation - cart. axis [0,0,1]

[...]

      isym = 48     inv. 120 deg rotation - cart. axis [-1,-1,1]

 cryst.   s(48) = (     0         -1          0      )
                  (     0          0          1      )
                  (     1          0          0      )

 cart.    s(48) = (  0.0000000  0.0000000  1.0000000 )
                  ( -1.0000000  0.0000000  0.0000000 )
                  (  0.0000000  1.0000000  0.0000000 )

   Cartesian axes

     site n.     atom                  positions (alat units)
         1           La  tau(   1) = (   0.0000000   0.5000000   0.5000000  )
         2           La  tau(   2) = (   0.5000000   0.0000000   0.5000000  )
         3           La  tau(   3) = (   0.5000000   0.5000000   0.0000000  )
         4           Cd  tau(   4) = (   0.0000000   0.0000000   0.0000000  )

   Crystallographic axes

     site n.     atom                  positions (cryst. coord.)
         1           La  tau(   1) = (  0.0000000  0.5000000  0.5000000  )
         2           La  tau(   2) = (  0.5000000  0.0000000  0.5000000  )
         3           La  tau(   3) = (  0.5000000  0.5000000  0.0000000  )
         4           Cd  tau(   4) = (  0.0000000  0.0000000  0.0000000  )

     number of k points=     1  Methfessel-Paxton smearing, width (Ry)=  0.0010
                       cart. coord. in units 2pi/alat
        k(    1) = (   0.0000000   0.0000000   0.0000000), wk =   2.0000000

                       cryst. coord.
        k(    1) = (   0.0000000   0.0000000   0.0000000), wk =   2.0000000

     Initial potential from superposition of free atoms

     starting charge      44.9695, renormalised to      45.0000
     Starting wfcs are  105 randomized atomic wfcs
     Checking if some PAW data can be deallocated...

     Self-consistent Calculation

     iteration #  1     ecut=    30.00 Ry     beta= 0.70
     Davidson diagonalization with overlap

     ethr =  1.00E-02,  avg # of iterations =  1.0

     total energy              =   -1496.88905918 Ry
     estimated scf accuracy    <       0.63752869 Ry

[...]

     total energy              =   -1497.21531955 Ry
     estimated scf accuracy    <       0.00001566 Ry

     iteration # 27     ecut=    30.00 Ry     beta= 0.70
     Davidson diagonalization with overlap

     ethr =  1.42E-08,  avg # of iterations =  1.0

     End of self-consistent calculation

          k = 0.0000 0.0000 0.0000 (  1259 PWs)   bands (ev):

   -21.2820 -20.9756 -20.9754  -5.4697  -5.4697  -5.4696  -4.6875  -4.6874
    -4.6873  -4.1929  -4.1928  -4.1928   0.9569   0.9569   0.9569   1.0022
     1.0022   5.5295   9.4267  10.6094  10.6094  10.8064  10.8064  10.8064
    12.1299  12.1299  12.1299  12.8259

     occupation numbers
     1.0000   1.0000   1.0000   1.0000   1.0000   1.0000   1.0000   1.0000
     1.0000   1.0000   1.0000   1.0000   1.0000   1.0000   1.0000   1.0000
     1.0000   1.0000   1.0000   1.0000   1.0000   0.5014   0.5005   0.4981
    -0.0000  -0.0000  -0.0000  -0.0000

     the Fermi energy is    10.8064 ev

!    total energy              =   -1497.21531947 Ry
     estimated scf accuracy    <       0.00000073 Ry
     smearing contrib. (-TS)   =      -0.00084628 Ry
     internal energy E=F+TS    =   -1497.21447319 Ry

     The total energy is F=E-TS. E is the sum of the following terms:
     one-electron contribution =     -44.64657866 Ry
     hartree contribution      =      52.45419009 Ry
     xc contribution           =     -69.16043051 Ry
     ewald contribution        =    -241.88110509 Ry
     one-center paw contrib.   =   -1193.98054902 Ry
      -> PAW hartree energy AE =     105.91136604 Ry
      -> PAW hartree energy PS =    -106.01631961 Ry
      -> PAW xc energy AE      =   -1215.88250622 Ry
      -> PAW xc energy PS      =      22.00691076 Ry
      -> total E_H with PAW    =      52.34923652 Ry
      -> total E_XC with PAW   =   -1263.03602597 Ry

     convergence has been achieved in  27 iterations

     Forces acting on atoms (cartesian axes, Ry/au):

     atom    1 type  1   force =     0.00000000    0.00000000    0.00000000
     atom    2 type  1   force =     0.00000000    0.00000000    0.00000000
     atom    3 type  1   force =     0.00000000    0.00000000    0.00000000
     atom    4 type  2   force =     0.00000000    0.00000000    0.00000000
     The non-local contrib.  to forces
     atom    1 type  1   force =     0.00000000    0.00000000    0.00000000
     atom    2 type  1   force =     0.00000000    0.00000000    0.00000000
     atom    3 type  1   force =     0.00000000    0.00000000    0.00000000
     atom    4 type  2   force =     0.00000000    0.00000000    0.00000000
     The ionic contribution  to forces
     atom    1 type  1   force =    -0.00000000    0.00000000    0.00000000
     atom    2 type  1   force =     0.00000000   -0.00000000    0.00000000
     atom    3 type  1   force =     0.00000000    0.00000000   -0.00000000
     atom    4 type  2   force =    -0.00000000   -0.00000000   -0.00000000
     The local contribution  to forces
     atom    1 type  1   force =     0.00001704    0.00020686   -0.00026040
     atom    2 type  1   force =    -0.00019404    0.00004131    0.00006001
     atom    3 type  1   force =     0.00020714    0.00008102    0.00014660
     atom    4 type  2   force =    -0.00002762   -0.00015887    0.00015844
     The core correction contribution to forces
     atom    1 type  1   force =     0.00000004    0.00000008   -0.00000012
     atom    2 type  1   force =    -0.00000011    0.00000005    0.00000006
     atom    3 type  1   force =     0.00000011    0.00000003    0.00000003
     atom    4 type  2   force =    -0.00000066   -0.00000298    0.00000360
     The Hubbard contrib.    to forces
     atom    1 type  1   force =     0.00000000    0.00000000    0.00000000
     atom    2 type  1   force =     0.00000000    0.00000000    0.00000000
     atom    3 type  1   force =     0.00000000    0.00000000    0.00000000
     atom    4 type  2   force =     0.00000000    0.00000000    0.00000000
     The SCF correction term to forces
     atom    1 type  1   force =     0.00012286   -0.00015791    0.00015849
     atom    2 type  1   force =     0.00006788    0.00005648    0.00002754
     atom    3 type  1   force =    -0.00007403   -0.00010944   -0.00015448
     atom    4 type  2   force =    -0.00002320    0.00015684   -0.00015973

     Total force =     0.000000     Total SCF correction =     0.000407

     Computing stress (Cartesian axis) and pressure

          total   stress  (Ry/bohr**3)                   (kbar)     P=     -136.36
  -0.00092695   0.00000000   0.00000000         -136.36        0.00        0.00
   0.00000000  -0.00092695   0.00000000            0.00     -136.36        0.00
   0.00000000   0.00000000  -0.00092695            0.00        0.00     -136.36

     kinetic stress (kbar)  10473.51      0.00      0.00
                                0.00  10473.51      0.00
                                0.00      0.00  10473.51

     local   stress (kbar)  -1927.31     -0.10      0.03
                               -0.10  -1927.91     -0.03
                                0.03     -0.03  -1926.78

     nonloc. stress (kbar)   4248.82      0.00      0.00
                                0.00   4248.82      0.00
                                0.00      0.00   4248.82

     hartree stress (kbar)   2904.49     -0.03      0.01
                               -0.03   2904.58     -0.01
                                0.01     -0.01   2904.39

     exc-cor stress (kbar)   1868.17      0.00     -0.00
                                0.00   1868.17      0.00
                               -0.00      0.00   1868.16

     corecor stress (kbar)  -4310.59      0.00     -0.00
                                0.00  -4310.59      0.00
                               -0.00      0.00  -4310.59

     ewald   stress (kbar) -13393.42     -0.00      0.00
                               -0.00 -13393.42     -0.00
                                0.00     -0.00 -13393.42

     hubbard stress (kbar)      0.00      0.00      0.00
                                0.00      0.00      0.00
                                0.00      0.00      0.00

     DFT-D   stress (kbar)      0.00      0.00      0.00
                                0.00      0.00      0.00
                                0.00      0.00      0.00

     XDM     stress (kbar)      0.00      0.00      0.00
                                0.00      0.00      0.00
                                0.00      0.00      0.00

     dft-nl  stress (kbar)      0.00      0.00      0.00
                                0.00      0.00      0.00
                                0.00      0.00      0.00

     TS-vdW  stress (kbar)      0.00      0.00      0.00
                                0.00      0.00      0.00
                                0.00      0.00      0.00

[...]

                                0.00      0.00      0.00

     Writing all to output data dir new_calculations/myprefix.save/

     General routines

     Parallel routines

     PAW routines

   This run was terminated on:  10:32:43  21May2023

   JOB DONE.