     Program PWSCF v.7.0 starts on 20May2023 at 18:43:47

     Reading input from espresso_5614.pwi
Warning: card &CELL ignored
Warning: card / ignored

     Current dimensions of program PWSCF are:
     Max number of different atomic species (ntypx) = 10
     Max number of k-points (npk) =  40000
     Max angular momentum in pseudopotentials (lmaxx) =  4
     file K.pbe-spn-kjpaw_psl.1.0.0.UPF: wavefunction(s)  3S renormalized

     gamma-point specific algorithms are used
     Message from routine setup:
     using ibrav=0 with symmetry is DISCOURAGED, use correct ibrav instead

     Subspace diagonalization in iterative solution of the eigenvalue problem:
     a serial algorithm will be used

     Using Slab Decomposition

     bravais-lattice index     =            0
     lattice parameter (alat)  =      13.6605  a.u.
     unit-cell volume          =    3636.0459 (a.u.)^3
     number of atoms/cell      =           18
     number of atomic types    =            3
     number of electrons       =       148.00
     number of Kohn-Sham states=           89
     kinetic-energy cutoff     =      30.0000  Ry
     charge density cutoff     =     240.0000  Ry
     scf convergence threshold =      1.0E-06
     mixing beta               =       0.7000
     number of iterations used =            8  plain     mixing
     Exchange-correlation=  SLA  PW   PBX  PBC
                           (   1   4   3   4   0   0   0)

     celldm(1)=  13.660515  celldm(2)=   0.000000  celldm(3)=   0.000000
     celldm(4)=   0.000000  celldm(5)=   0.000000  celldm(6)=   0.000000

     crystal axes: (cart. coord. in units of alat)
               a(1) = (   1.000000   0.000000   0.000000 )
               a(2) = (   0.000000   1.001292   0.000000 )
               a(3) = (   0.000000   0.990135   1.424516 )

     reciprocal axes: (cart. coord. in units 2 pi/alat)
               b(1) = (  1.000000  0.000000  0.000000 )
               b(2) = (  0.000000  0.998709 -0.694171 )
               b(3) = (  0.000000  0.000000  0.701993 )

     PseudoPot. # 1 for K  read from file:
     /home/pragov/projects/rrg-bengioy-ad/pragov/crystal_structure_design/SSSP/K.pbe-spn-kjpaw_psl.1.0.0.UPF
     MD5 check sum: 7d58810084cac21f60fbe77ea2b688fd
     Pseudo is Projector augmented-wave + core cor, Zval =  9.0
     Generated using "atomic" code by A. Dal Corso  v.5.1
     Shape of augmentation charge: PSQ
     Using radial grid of 1165 points,  6 beta functions with:
                l(1) =   0
                l(2) =   0
                l(3) =   1
                l(4) =   1
                l(5) =   2
                l(6) =   2
     Q(r) pseudized with 0 coefficients

     PseudoPot. # 2 for Sn read from file:
     /home/pragov/projects/rrg-bengioy-ad/pragov/crystal_structure_design/SSSP/Sn_pbe_v1.uspp.F.UPF
     MD5 check sum: 4cf58ce39ec5d5d420df3dd08604eb00
     Pseudo is Ultrasoft + core correction, Zval = 14.0
     Generated by new atomic code, or converted to UPF format
     Using radial grid of  891 points,  6 beta functions with:
                l(1) =   0
                l(2) =   0
                l(3) =   1
                l(4) =   1
                l(5) =   2
                l(6) =   2
     Q(r) pseudized with  6 coefficients,  rinner =    1.200   1.200   1.200
                                                       1.200   1.200

     PseudoPot. # 3 for Cl read from file:
     /home/pragov/projects/rrg-bengioy-ad/pragov/crystal_structure_design/SSSP/cl_pbe_v1.4.uspp.F.UPF
     MD5 check sum: fc6f6913ecf08c9257cb748ef0700058
     Pseudo is Ultrasoft + core correction, Zval =  7.0
     Generated by new atomic code, or converted to UPF format
     Using radial grid of  909 points,  6 beta functions with:
                l(1) =   0
                l(2) =   0
                l(3) =   1
                l(4) =   1
                l(5) =   2
                l(6) =   2
     Q(r) pseudized with  8 coefficients,  rinner =    1.300   1.300   1.300
                                                       1.300   1.300

     atomic species   valence    mass     pseudopotential
        K              9.00    39.09830     K ( 1.00)
        Sn            14.00   118.71000     Sn( 1.00)
        Cl             7.00    35.45000     Cl( 1.00)

      4 Sym. Ops., with inversion, found ( 2 have fractional translation)

                                    s                        frac. trans.

      isym =  1     identity

 cryst.   s( 1) = (     1          0          0      )
                  (     0          1          0      )
                  (     0          0          1      )

 cart.    s( 1) = (  1.0000000  0.0000000  0.0000000 )
                  (  0.0000000  1.0000000 -0.0000000 )
                  (  0.0000000  0.0000000  1.0000000 )

      isym =  2     180 deg rotation - cart. axis [1,0,0]

 cryst.   s( 2) = (     1          0          0      )    f =(  0.5000000 )
                  (     0         -1          0      )       ( -0.0000000 )
                  (     0          0         -1      )       ( -0.5000000 )

 cart.    s( 2) = (  1.0000000  0.0000000  0.0000000 )    f =(  0.5000000 )
                  (  0.0000000 -1.0000000  0.0000000 )       ( -0.4950675 )
                  (  0.0000000  0.0000000 -1.0000000 )       ( -0.7122578 )

      isym =  3     inversion

 cryst.   s( 3) = (    -1          0          0      )
                  (     0         -1          0      )
                  (     0          0         -1      )

 cart.    s( 3) = ( -1.0000000  0.0000000  0.0000000 )
                  (  0.0000000 -1.0000000  0.0000000 )
                  (  0.0000000  0.0000000 -1.0000000 )

      isym =  4     inv. 180 deg rotation - cart. axis [1,0,0]

 cryst.   s( 4) = (    -1          0          0      )    f =(  0.5000000 )
                  (     0          1          0      )       ( -0.0000000 )
                  (     0          0          1      )       (  0.5000000 )

 cart.    s( 4) = ( -1.0000000  0.0000000  0.0000000 )    f =(  0.5000000 )
                  (  0.0000000  1.0000000 -0.0000000 )       (  0.4950675 )
                  (  0.0000000  0.0000000  1.0000000 )       (  0.7122578 )

   Cartesian axes

     site n.     atom                  positions (alat units)
         1           K   tau(   1) = (   0.5274280   0.9918496   0.3632786  )
         2           K   tau(   2) = (   0.4725720   0.9995778   1.0612371  )
         3           K   tau(   3) = (   0.9725720   1.4869170   1.0755364  )
         4           K   tau(   4) = (   0.0274280   0.5045104   0.3489793  )
         5           Sn  tau(   5) = (   0.5000000   0.4950675   0.7122578  )
         6           Sn  tau(   6) = (   0.0000000   0.0000000   0.0000000  )
         7           Cl  tau(   7) = (   0.2698870   0.7932055   0.0262510  )
         8           Cl  tau(   8) = (   0.7906200   0.7324591   0.0320103  )
         9           Cl  tau(   9) = (   0.2301130   1.2882730   0.7385088  )
        10           Cl  tau(  10) = (   0.7698870   0.7031544   0.6860069  )
        11           Cl  tau(  11) = (   0.7093800   1.2275265   0.7442681  )
        12           Cl  tau(  12) = (   0.2906200   0.7639009   0.6802476  )
        13           Cl  tau(  13) = (   0.9987140   1.0418577   0.3391686  )
        14           Cl  tau(  14) = (   0.2093800   1.2589683   1.3925054  )
        15           Cl  tau(  15) = (   0.0012860   0.9495697   1.0853470  )
        16           Cl  tau(  16) = (   0.7301130   1.1982219   1.3982647  )
        17           Cl  tau(  17) = (   0.4987140   0.4545022   0.3730892  )
        18           Cl  tau(  18) = (   0.5012860   1.5369252   1.0514265  )

   Crystallographic axes

     site n.     atom                  positions (cryst. coord.)
         1           K   tau(   1) = (  0.5274280  0.7383920  0.2550190  )
         2           K   tau(   2) = (  0.4725720  0.2616080  0.7449810  )
         3           K   tau(   3) = (  0.9725720  0.7383920  0.7550190  )
         4           K   tau(   4) = (  0.0274280  0.2616080  0.2449810  )
         5           Sn  tau(   5) = (  0.5000000  0.0000000  0.5000000  )
         6           Sn  tau(   6) = (  0.0000000  0.0000000  0.0000000  )
         7           Cl  tau(   7) = (  0.2698870  0.7739590  0.0184280  )
         8           Cl  tau(   8) = (  0.7906200  0.7092930  0.0224710  )
         9           Cl  tau(   9) = (  0.2301130  0.7739590  0.5184280  )
        10           Cl  tau(  10) = (  0.7698870  0.2260410  0.4815720  )
        11           Cl  tau(  11) = (  0.7093800  0.7092930  0.5224710  )
        12           Cl  tau(  12) = (  0.2906200  0.2907070  0.4775290  )
        13           Cl  tau(  13) = (  0.9987140  0.8050720  0.2380940  )
        14           Cl  tau(  14) = (  0.2093800  0.2907070  0.9775290  )
        15           Cl  tau(  15) = (  0.0012860  0.1949280  0.7619060  )
        16           Cl  tau(  16) = (  0.7301130  0.2260410  0.9815720  )
        17           Cl  tau(  17) = (  0.4987140  0.1949280  0.2619060  )
        18           Cl  tau(  18) = (  0.5012860  0.8050720  0.7380940  )

     number of k points=     1  Methfessel-Paxton smearing, width (Ry)=  0.0010
                       cart. coord. in units 2pi/alat
        k(    1) = (   0.0000000   0.0000000   0.0000000), wk =   2.0000000

                       cryst. coord.
        k(    1) = (   0.0000000   0.0000000   0.0000000), wk =   2.0000000

     Check: negative core charge=   -0.000002

     Initial potential from superposition of free atoms

     starting charge     145.9245, renormalised to     148.0000

     negative rho (up, down):  1.838E-01 0.000E+00
     Starting wfcs are   98 randomized atomic wfcs
     Checking if some PAW data can be deallocated...

     Self-consistent Calculation

     iteration #  1     ecut=    30.00 Ry     beta= 0.70
     Davidson diagonalization with overlap

     ethr =  1.00E-02,  avg # of iterations =  4.0

     Threshold (ethr) on eigenvalues was too large:
     Diagonalizing with lowered threshold

     Davidson diagonalization with overlap

[...]

     negative rho (up, down):  1.843E-01 0.000E+00

     total energy              =   -1179.59285723 Ry
     estimated scf accuracy    <       0.68929561 Ry

[...]

     total energy              =   -1179.80644751 Ry
     estimated scf accuracy    <       0.00000167 Ry

     iteration #  8     ecut=    30.00 Ry     beta= 0.70
     Davidson diagonalization with overlap

     ethr =  1.13E-09,  avg # of iterations =  2.0

[...]

     End of self-consistent calculation

          k = 0.0000 0.0000 0.0000 (  5034 PWs)   bands (ev):

   -26.4338 -26.4333 -26.4328 -26.4324 -19.0276 -19.0274 -19.0203 -19.0202
   -18.8936 -18.8935 -18.8908 -18.8908 -18.8896 -18.8896 -12.3362 -12.2500
   -11.6552 -11.6334 -11.5567 -11.5498 -11.5198 -11.5085 -11.3142 -11.1711
   -11.0936 -11.0924  -9.9224  -9.9189  -9.9142  -9.9124  -9.9038  -9.9033
    -9.9027  -9.9019  -9.8942  -9.8772  -9.8691  -9.8629  -4.6289  -4.3674
    -1.5809  -1.5260  -1.5030  -1.3993  -1.3763  -1.3053  -0.4694  -0.3593
    -0.3552  -0.3160  -0.0544   0.1903   0.2382   0.2401   0.4048   0.4485
     0.6396   0.7554   0.7663   0.7744   0.7757   0.8299   0.8419   0.8750
     0.9362   0.9499   0.9532   0.9887   1.0292   1.0483   1.3400   1.3916
     1.3969   1.4177   4.0206   4.8146   7.0494   7.9816   7.9867   8.0005
     8.3611   8.4395   8.6423   8.8837   8.9169   8.9561   8.9984   9.2099
     9.6937

     occupation numbers
     1.0000   1.0000   1.0000   1.0000   1.0000   1.0000   1.0000   1.0000
     1.0000   1.0000   1.0000   1.0000   1.0000   1.0000   1.0000   1.0000
     1.0000   1.0000   1.0000   1.0000   1.0000   1.0000   1.0000   1.0000
     1.0000   1.0000   1.0000   1.0000   1.0000   1.0000   1.0000   1.0000
     1.0000   1.0000   1.0000   1.0000   1.0000   1.0000   1.0000   1.0000
     1.0000   1.0000   1.0000   1.0000   1.0000   1.0000   1.0000   1.0000
     1.0000   1.0000   1.0000   1.0000   1.0000   1.0000   1.0000   1.0000
     1.0000   1.0000   1.0000   1.0000   1.0000   1.0000   1.0000   1.0000
     1.0000   1.0000   1.0000   1.0000   1.0000   1.0000   1.0000   1.0000
     1.0000   1.0000  -0.0000  -0.0000  -0.0000  -0.0000  -0.0000  -0.0000
    -0.0000  -0.0000  -0.0000  -0.0000  -0.0000  -0.0000  -0.0000  -0.0000
    -0.0000

     the Fermi energy is     3.0048 ev

!    total energy              =   -1179.80644801 Ry
     estimated scf accuracy    <       0.00000011 Ry
     smearing contrib. (-TS)   =       0.00000000 Ry
     internal energy E=F+TS    =   -1179.80644801 Ry

     The total energy is F=E-TS. E is the sum of the following terms:
     one-electron contribution =    -412.13804331 Ry
     hartree contribution      =     265.25191087 Ry
     xc contribution           =    -254.00141436 Ry
     ewald contribution        =    -557.25180180 Ry
     one-center paw contrib.   =    -221.66709941 Ry
      -> PAW hartree energy AE =     150.40301197 Ry
      -> PAW hartree energy PS =    -149.56283773 Ry
      -> PAW xc energy AE      =    -264.82417368 Ry
      -> PAW xc energy PS      =      42.31690003 Ry
      -> total E_H with PAW    =     266.09208511 Ry
      -> total E_XC with PAW   =    -476.50868801 Ry

     convergence has been achieved in   8 iterations

     negative rho (up, down):  1.791E-01 0.000E+00

     Forces acting on atoms (cartesian axes, Ry/au):

     atom    1 type  1   force =     0.00175152   -0.00109993   -0.00043289
     atom    2 type  1   force =    -0.00175152    0.00109993    0.00043289
     atom    3 type  1   force =    -0.00175152   -0.00109993   -0.00043289
     atom    4 type  1   force =     0.00175152    0.00109993    0.00043289
     atom    5 type  2   force =     0.00000000    0.00000000    0.00000000
     atom    6 type  2   force =     0.00000000   -0.00000000    0.00000000
     atom    7 type  3   force =     0.00077146    0.01073759    0.00604725
     atom    8 type  3   force =     0.01034015   -0.00234689    0.00697103
     atom    9 type  3   force =    -0.00077146    0.01073759    0.00604725
     atom   10 type  3   force =     0.00077146   -0.01073759   -0.00604725
     atom   11 type  3   force =    -0.01034015   -0.00234689    0.00697103
     atom   12 type  3   force =     0.01034015    0.00234689   -0.00697103
     atom   13 type  3   force =    -0.00164968    0.00294572   -0.00302317
     atom   14 type  3   force =    -0.01034015    0.00234689   -0.00697103
     atom   15 type  3   force =     0.00164968   -0.00294572    0.00302317
     atom   16 type  3   force =    -0.00077146   -0.01073759   -0.00604725
     atom   17 type  3   force =    -0.00164968   -0.00294572    0.00302317
     atom   18 type  3   force =     0.00164968    0.00294572   -0.00302317
     The non-local contrib.  to forces
     atom    1 type  1   force =    -0.00380143   -0.00004935   -0.00336616
     atom    2 type  1   force =     0.00380143    0.00004935    0.00336616
     atom    3 type  1   force =     0.00380143   -0.00004935   -0.00336616
     atom    4 type  1   force =    -0.00380143    0.00004935    0.00336616
     atom    5 type  2   force =     0.00000000    0.00000000    0.00000000
     atom    6 type  2   force =    -0.00000000    0.00000000    0.00000000
     atom    7 type  3   force =    -0.16172707    0.12514789   -0.00508799
     atom    8 type  3   force =     0.13066376    0.15593507   -0.01285867
     atom    9 type  3   force =     0.16172707    0.12514789   -0.00508799
     atom   10 type  3   force =    -0.16172707   -0.12514789    0.00508799
     atom   11 type  3   force =    -0.13066376    0.15593507   -0.01285867
     atom   12 type  3   force =     0.13066376   -0.15593507    0.01285867
     atom   13 type  3   force =    -0.00671126   -0.01257677   -0.17482178
     atom   14 type  3   force =    -0.13066376   -0.15593507    0.01285867
     atom   15 type  3   force =     0.00671126    0.01257677    0.17482178
     atom   16 type  3   force =     0.16172707   -0.12514789    0.00508799
     atom   17 type  3   force =    -0.00671126    0.01257677    0.17482178
     atom   18 type  3   force =     0.00671126   -0.01257677   -0.17482178
     The ionic contribution  to forces
     atom    1 type  1   force =    -0.51035484    0.06595512   -0.17343057
     atom    2 type  1   force =     0.51035484   -0.06595512    0.17343057
     atom    3 type  1   force =     0.51035484    0.06595512   -0.17343057
     atom    4 type  1   force =    -0.51035484   -0.06595512    0.17343057
     atom    5 type  2   force =     0.00000000   -0.00000000    0.00000000
     atom    6 type  2   force =     0.00000000    0.00000000   -0.00000000
     atom    7 type  3   force =     6.16284763   -5.15903485    0.33313101
     atom    8 type  3   force =    -5.39820959   -5.96169774    0.33925820
     atom    9 type  3   force =    -6.16284763   -5.15903485    0.33313101
     atom   10 type  3   force =     6.16284763    5.15903485   -0.33313101
     atom   11 type  3   force =     5.39820959   -5.96169774    0.33925820
     atom   12 type  3   force =    -5.39820960    5.96169774   -0.33925820
     atom   13 type  3   force =     0.33226714    0.55344977    8.08221025
     atom   14 type  3   force =     5.39820959    5.96169774   -0.33925820
     atom   15 type  3   force =    -0.33226714   -0.55344977   -8.08221025
     atom   16 type  3   force =    -6.16284763    5.15903485   -0.33313101
     atom   17 type  3   force =     0.33226714   -0.55344977   -8.08221025
     atom   18 type  3   force =    -0.33226714    0.55344977    8.08221025
     The local contribution  to forces
     atom    1 type  1   force =     0.51563514   -0.06708638    0.17619471
     atom    2 type  1   force =    -0.51564517    0.06708344   -0.17618901
     atom    3 type  1   force =    -0.51565134   -0.06709893    0.17627311
     atom    4 type  1   force =     0.51564292    0.06709041   -0.17627175
     atom    5 type  2   force =     0.00000243    0.00000355    0.00001457
     atom    6 type  2   force =     0.00000418   -0.00000765   -0.00001387
     atom    7 type  3   force =    -6.00411811    5.04734708   -0.32213741
     atom    8 type  3   force =     5.28073313    5.80705499   -0.31981888
     atom    9 type  3   force =     6.00418261    5.04741225   -0.32208801
     atom   10 type  3   force =    -6.00418419   -5.04741665    0.32211636
     atom   11 type  3   force =    -5.28079522    5.80711404   -0.31977804
     atom   12 type  3   force =     5.28080136   -5.80712051    0.31980053
     atom   13 type  3   force =    -0.32731845   -0.53826445   -7.91417126
     atom   14 type  3   force =    -5.28072797   -5.80705315    0.31979947
     atom   15 type  3   force =     0.32731901    0.53825696    7.91417567
     atom   16 type  3   force =     6.00410252   -5.04734394    0.32211408
     atom   17 type  3   force =    -0.32731243    0.53826602    7.91405262
     atom   18 type  3   force =     0.32732232   -0.53826531   -7.91405727
     The core correction contribution to forces
     atom    1 type  1   force =     0.00019065    0.00003472    0.00013040
     atom    2 type  1   force =    -0.00019091   -0.00003481   -0.00013033
     atom    3 type  1   force =    -0.00019073    0.00003457    0.00012979
     atom    4 type  1   force =     0.00019064   -0.00003469   -0.00012975
     atom    5 type  2   force =    -0.00000010    0.00000008   -0.00000023
     atom    6 type  2   force =     0.00000008   -0.00000020    0.00000017
     atom    7 type  3   force =     0.00375977   -0.00271321    0.00014104
     atom    8 type  3   force =    -0.00283683   -0.00364255    0.00038630
     atom    9 type  3   force =    -0.00375975   -0.00271301    0.00014142
     atom   10 type  3   force =     0.00375976    0.00271295   -0.00014127
     atom   11 type  3   force =     0.00283691   -0.00364283    0.00038657
     atom   12 type  3   force =    -0.00283678    0.00364264   -0.00038659
     atom   13 type  3   force =     0.00011183    0.00032691    0.00361855
     atom   14 type  3   force =     0.00283701    0.00364269   -0.00038639
     atom   15 type  3   force =    -0.00011183   -0.00032724   -0.00361835
     atom   16 type  3   force =    -0.00376015    0.00271317   -0.00014124
     atom   17 type  3   force =     0.00011189   -0.00032715   -0.00361850
     atom   18 type  3   force =    -0.00011173    0.00032724    0.00361833
     The Hubbard contrib.    to forces
     atom    1 type  1   force =     0.00000000    0.00000000    0.00000000
     atom    2 type  1   force =     0.00000000    0.00000000    0.00000000
     atom    3 type  1   force =     0.00000000    0.00000000    0.00000000
     atom    4 type  1   force =     0.00000000    0.00000000    0.00000000
     atom    5 type  2   force =     0.00000000    0.00000000    0.00000000
     atom    6 type  2   force =     0.00000000    0.00000000    0.00000000
     atom    7 type  3   force =     0.00000000    0.00000000    0.00000000
     atom    8 type  3   force =     0.00000000    0.00000000    0.00000000
     atom    9 type  3   force =     0.00000000    0.00000000    0.00000000
     atom   10 type  3   force =     0.00000000    0.00000000    0.00000000
     atom   11 type  3   force =     0.00000000    0.00000000    0.00000000
     atom   12 type  3   force =     0.00000000    0.00000000    0.00000000
     atom   13 type  3   force =     0.00000000    0.00000000    0.00000000
     atom   14 type  3   force =     0.00000000    0.00000000    0.00000000
     atom   15 type  3   force =     0.00000000    0.00000000    0.00000000
     atom   16 type  3   force =     0.00000000    0.00000000    0.00000000
     atom   17 type  3   force =     0.00000000    0.00000000    0.00000000
     atom   18 type  3   force =     0.00000000    0.00000000    0.00000000
     The SCF correction term to forces
     atom    1 type  1   force =     0.00008144    0.00004001    0.00005382
     atom    2 type  1   force =    -0.00007317   -0.00004693   -0.00005882
     atom    3 type  1   force =    -0.00006464    0.00006295   -0.00005441
     atom    4 type  1   force =     0.00007440   -0.00004773    0.00005173
     atom    5 type  2   force =    -0.00000308   -0.00000428   -0.00002372
     atom    6 type  2   force =    -0.00000405    0.00000899    0.00002014
     atom    7 type  3   force =     0.00000731   -0.00001236   -0.00000197
     atom    8 type  3   force =    -0.00001100    0.00000352    0.00000310
     atom    9 type  3   force =    -0.00007277   -0.00007232   -0.00004555
     atom   10 type  3   force =     0.00007299    0.00007588    0.00001910
     atom   11 type  3   force =     0.00007198   -0.00005703   -0.00003501
     atom   12 type  3   force =    -0.00007587    0.00006003    0.00001298
     atom   13 type  3   force =     0.00000110    0.00000630    0.00014084
     atom   14 type  3   force =     0.00000736   -0.00000469    0.00001805
     atom   15 type  3   force =    -0.00000236   -0.00000320   -0.00014207
     atom   16 type  3   force =     0.00000149    0.00000880    0.00002552
     atom   17 type  3   force =    -0.00000441   -0.00001229   -0.00002624
     atom   18 type  3   force =    -0.00000363    0.00001333    0.00002737

     Total force =     0.036796     Total SCF correction =     0.000363

     Computing stress (Cartesian axis) and pressure

     negative rho (up, down):  1.791E-01 0.000E+00
          total   stress  (Ry/bohr**3)                   (kbar)     P=        7.24
   0.00010854   0.00000000   0.00000000           15.97        0.00        0.00
   0.00000000   0.00009476   0.00000271            0.00       13.94        0.40
   0.00000000   0.00000271  -0.00005572            0.00        0.40       -8.20

     kinetic stress (kbar)   7238.21      0.00      0.00
                                0.00   7232.44      0.88
                                0.00      0.88   7195.25

     local   stress (kbar)  -5499.87      0.00      0.00
                                0.00  -5898.32    142.55
                                0.00    142.55  -5860.15

     nonloc. stress (kbar)   4809.67      0.00      0.00
                                0.00   4808.14      0.17
                                0.00      0.17   4798.47

     hartree stress (kbar)   3468.60     -0.00     -0.00
                               -0.00   3639.21    -60.82
                               -0.00    -60.82   3623.60

     exc-cor stress (kbar)   2260.08     -0.00     -0.00
                               -0.00   2260.18     -0.04
                               -0.00     -0.04   2260.49

     corecor stress (kbar)  -4590.10     -0.00     -0.00
                               -0.00  -4589.99     -0.01
                               -0.00     -0.01  -4589.24

     ewald   stress (kbar)  -7670.63     -0.00      0.00
                               -0.00  -7437.73    -82.33
                                0.00    -82.33  -7436.62

     hubbard stress (kbar)      0.00      0.00      0.00
                                0.00      0.00      0.00
                                0.00      0.00      0.00

     DFT-D   stress (kbar)      0.00      0.00      0.00
                                0.00      0.00      0.00
                                0.00      0.00      0.00

     XDM     stress (kbar)      0.00      0.00      0.00
                                0.00      0.00      0.00
                                0.00      0.00      0.00

     dft-nl  stress (kbar)      0.00      0.00      0.00
                                0.00      0.00      0.00
                                0.00      0.00      0.00

     TS-vdW  stress (kbar)      0.00      0.00      0.00
                                0.00      0.00      0.00
                                0.00      0.00      0.00

[...]

                                0.00      0.00      0.00

     Writing all to output data dir new_calculations/myprefix.save/

     General routines

     Parallel routines

     PAW routines

   This run was terminated on:  18:44:41  20May2023

   JOB DONE.