     Program PWSCF v.7.0 starts on 20May2023 at 21: 6:48

     Reading input from espresso_10729.pwi
Warning: card &CELL ignored
Warning: card / ignored

     Current dimensions of program PWSCF are:
     Max number of different atomic species (ntypx) = 10
     Max number of k-points (npk) =  40000
     Max angular momentum in pseudopotentials (lmaxx) =  4

     gamma-point specific algorithms are used
     Message from routine setup:
     using ibrav=0 with symmetry is DISCOURAGED, use correct ibrav instead

     Subspace diagonalization in iterative solution of the eigenvalue problem:
     a serial algorithm will be used

     Using Slab Decomposition

     bravais-lattice index     =            0
     lattice parameter (alat)  =      14.1303  a.u.
     unit-cell volume          =    1994.9914 (a.u.)^3
     number of atoms/cell      =           10
     number of atomic types    =            4
     number of electrons       =        86.00
     number of Kohn-Sham states=           52
     kinetic-energy cutoff     =      30.0000  Ry
     charge density cutoff     =     240.0000  Ry
     scf convergence threshold =      1.0E-06
     mixing beta               =       0.7000
     number of iterations used =            8  plain     mixing
     Exchange-correlation=  SLA  PW   PBX  PBC
                           (   1   4   3   4   0   0   0)

     celldm(1)=  14.130320  celldm(2)=   0.000000  celldm(3)=   0.000000
     celldm(4)=   0.000000  celldm(5)=   0.000000  celldm(6)=   0.000000

     crystal axes: (cart. coord. in units of alat)
               a(1) = (   1.000000   0.000000   0.000000 )
               a(2) = (   0.500000   0.866025   0.000000 )
               a(3) = (   0.500000   0.288675   0.816497 )

     reciprocal axes: (cart. coord. in units 2 pi/alat)
               b(1) = (  1.000000 -0.577350 -0.408248 )
               b(2) = (  0.000000  1.154701 -0.408248 )
               b(3) = (  0.000000  0.000000  1.224745 )

     PseudoPot. # 1 for Cs read from file:
     /home/pragov/projects/rrg-bengioy-ad/pragov/crystal_structure_design/SSSP/Cs_pbe_v1.uspp.F.UPF
     MD5 check sum: 3476d69cb178dfad3ffaa59df4e07ca4
     Pseudo is Ultrasoft + core correction, Zval =  9.0
     Generated by new atomic code, or converted to UPF format
     Using radial grid of  905 points,  6 beta functions with:
                l(1) =   0
                l(2) =   0
                l(3) =   1
                l(4) =   1
                l(5) =   2
                l(6) =   2
     Q(r) pseudized with  6 coefficients,  rinner =    1.500   1.500   1.500
                                                       1.500   1.500

     PseudoPot. # 2 for Li read from file:
     /home/pragov/projects/rrg-bengioy-ad/pragov/crystal_structure_design/SSSP/li_pbe_v1.4.uspp.F.UPF
     MD5 check sum: e912e257baa3777c20ea3d68f190483c
     Pseudo is Ultrasoft, Zval =  3.0
     Generated by new atomic code, or converted to UPF format
     Using radial grid of  751 points,  5 beta functions with:
                l(1) =   0
                l(2) =   0
                l(3) =   0
                l(4) =   1
                l(5) =   1
     Q(r) pseudized with 10 coefficients,  rinner =    1.150   1.150   1.150

     PseudoPot. # 3 for Tm read from file:
     /home/pragov/projects/rrg-bengioy-ad/pragov/crystal_structure_design/SSSP/Tm.GGA-PBE-paw-v1.0.UPF
     MD5 check sum: e502ddec747d736c64e0ed72ddfd7d4c
     Pseudo is Projector augmented-wave + core cor, Zval = 23.0
     Generated using ATOMPAW code
     Shape of augmentation charge: BESSEL
     Using radial grid of 1116 points,  8 beta functions with:
                l(1) =   0
                l(2) =   0
                l(3) =   1
                l(4) =   1
                l(5) =   2
                l(6) =   2
                l(7) =   3
                l(8) =   3
     Q(r) pseudized with 0 coefficients

     PseudoPot. # 4 for Cl read from file:
     /home/pragov/projects/rrg-bengioy-ad/pragov/crystal_structure_design/SSSP/cl_pbe_v1.4.uspp.F.UPF
     MD5 check sum: fc6f6913ecf08c9257cb748ef0700058
     Pseudo is Ultrasoft + core correction, Zval =  7.0
     Generated by new atomic code, or converted to UPF format
     Using radial grid of  909 points,  6 beta functions with:
                l(1) =   0
                l(2) =   0
                l(3) =   1
                l(4) =   1
                l(5) =   2
                l(6) =   2
     Q(r) pseudized with  8 coefficients,  rinner =    1.300   1.300   1.300
                                                       1.300   1.300

     atomic species   valence    mass     pseudopotential
        Cs             9.00   132.90545     Cs( 1.00)
        Li             3.00     6.94000     Li( 1.00)
        Tm            23.00   168.93422     Tm( 1.00)
        Cl             7.00    35.45000     Cl( 1.00)

     12 Sym. Ops., with inversion, found

                                    s                        frac. trans.

      isym =  1     identity

 cryst.   s( 1) = (     1          0          0      )
                  (     0          1          0      )
                  (     0          0          1      )

 cart.    s( 1) = (  1.0000000  0.0000000  0.0000000 )
                  (  0.0000000  1.0000000 -0.0000000 )
                  (  0.0000000  0.0000000  1.0000000 )

      isym =  2     180 deg rotation - cart. axis [1,0,0]

[...]

      isym =  3     120 deg rotation - cryst. axis [0,0,1]

[...]

      isym =  6     180 deg rotation - cryst. axis [1,1,0]

[...]

      isym =  7     inversion

[...]

      isym =  8     inv. 180 deg rotation - cart. axis [1,0,0]

[...]

      isym =  9     inv. 120 deg rotation - cryst. axis [0,0,1]

 cryst.   s( 9) = (     1         -1          0      )
                  (     1          0          0      )
                  (     1          0         -1      )

 cart.    s( 9) = (  0.5000000  0.8660254 -0.0000000 )
                  ( -0.8660254  0.5000000 -0.0000000 )
                  (  0.0000000  0.0000000 -1.0000000 )

[...]

 cryst.   s(10) = (     0          1          0      )
                  (    -1          1          0      )
                  (     0          1         -1      )

 cart.    s(10) = (  0.5000000 -0.8660254  0.0000000 )
                  (  0.8660254  0.5000000 -0.0000000 )
                  (  0.0000000  0.0000000 -1.0000000 )

[...]

      isym = 12     inv. 180 deg rotation - cryst. axis [1,1,0]

 cryst.   s(12) = (     1         -1          0      )
                  (     0         -1          0      )
                  (     0         -1          1      )

 cart.    s(12) = (  0.5000000 -0.8660254  0.0000000 )
                  ( -0.8660254 -0.5000000  0.0000000 )
                  (  0.0000000  0.0000000  1.0000000 )

   Cartesian axes

     site n.     atom                  positions (alat units)
         1           Cs  tau(   1) = (   1.5000000   0.8660254   0.6123724  )
         2           Cs  tau(   2) = (   0.5000000   0.2886751   0.2041241  )
         3           Li  tau(   3) = (   1.0000000   0.5773503   0.4082483  )
         4           Tm  tau(   4) = (   0.0000000   0.0000000   0.0000000  )
         5           Cl  tau(   5) = (   1.0000000   0.2856706   0.2019996  )
         6           Cl  tau(   6) = (   0.7473980   0.4315104   0.6144970  )
         7           Cl  tau(   7) = (   1.0000000   0.8690299   0.6144970  )
         8           Cl  tau(   8) = (   0.7473980   0.7231901   0.2019996  )
         9           Cl  tau(   9) = (   1.2526020   0.4315104   0.6144970  )
        10           Cl  tau(  10) = (   1.2526020   0.7231901   0.2019996  )

   Crystallographic axes

     site n.     atom                  positions (cryst. coord.)
         1           Cs  tau(   1) = (  0.7500000  0.7500000  0.7500000  )
         2           Cs  tau(   2) = (  0.2500000  0.2500000  0.2500000  )
         3           Li  tau(   3) = (  0.5000000  0.5000000  0.5000000  )
         4           Tm  tau(   4) = (  0.0000000  0.0000000  0.0000000  )
         5           Cl  tau(   5) = (  0.7526020  0.2473980  0.2473980  )
         6           Cl  tau(   6) = (  0.2473980  0.2473980  0.7526020  )
         7           Cl  tau(   7) = (  0.2473980  0.7526020  0.7526020  )
         8           Cl  tau(   8) = (  0.2473980  0.7526020  0.2473980  )
         9           Cl  tau(   9) = (  0.7526020  0.2473980  0.7526020  )
        10           Cl  tau(  10) = (  0.7526020  0.7526020  0.2473980  )

     number of k points=     1  Methfessel-Paxton smearing, width (Ry)=  0.0010
                       cart. coord. in units 2pi/alat
        k(    1) = (   0.0000000   0.0000000   0.0000000), wk =   2.0000000

                       cryst. coord.
        k(    1) = (   0.0000000   0.0000000   0.0000000), wk =   2.0000000

     Initial potential from superposition of free atoms

     starting charge      85.4661, renormalised to      86.0000

     negative rho (up, down):  8.939E-02 0.000E+00
     Starting wfcs are   87 randomized atomic wfcs
     Checking if some PAW data can be deallocated...

     Self-consistent Calculation

     iteration #  1     ecut=    30.00 Ry     beta= 0.70
     Davidson diagonalization with overlap

     ethr =  1.00E-02,  avg # of iterations =  4.0

     Threshold (ethr) on eigenvalues was too large:
     Diagonalizing with lowered threshold

     Davidson diagonalization with overlap

[...]

     negative rho (up, down):  9.202E-02 0.000E+00

     total energy              =   -1287.61220660 Ry
     estimated scf accuracy    <       0.56335342 Ry

[...]

     ethr =  2.99E-06,  avg # of iterations =  1.0
     Minimization algorithm failed to find Fermi energy: reverting to bisection
     Possible cause: smearing is larger than the electronic band-gap.

[...]

     ethr =  2.99E-06,  avg # of iterations =  1.0
     Minimization algorithm failed to find Fermi energy: reverting to bisection
     Possible cause: smearing is larger than the electronic band-gap.

[...]

     total energy              =   -1287.89926599 Ry
     estimated scf accuracy    <       0.00002442 Ry

     iteration # 53     ecut=    30.00 Ry     beta= 0.70
     Davidson diagonalization with overlap

     ethr =  1.51E-09,  avg # of iterations =  1.0

[...]

     End of self-consistent calculation

          k = 0.0000 0.0000 0.0000 (  2789 PWs)   bands (ev):

   -45.8650 -41.5437 -19.0385 -19.0385 -19.0383 -16.3212 -16.3059 -10.1868
    -9.7531  -9.7531  -9.7332  -9.7332  -9.7332  -3.3170  -3.3170  -3.3170
    -3.1907  -3.1907  -3.1907  -0.1722   1.0940   1.0940   1.0941   1.3486
     1.3486   1.3486   1.4457   1.4457   2.1440   2.1441   2.1441   2.3695
     2.3696   2.3696   2.7839   2.7839   2.7839   3.3546   3.3548   3.3548
     3.4528   3.4560   3.4560   3.4560   8.3124   8.4976   8.4976   8.4977
     9.0606   9.0606   9.5711   9.5712

     occupation numbers
     1.0000   1.0000   1.0000   1.0000   1.0000   1.0000   1.0000   1.0000
     1.0000   1.0000   1.0000   1.0000   1.0000   1.0000   1.0000   1.0000
     1.0000   1.0000   1.0000   1.0000   1.0000   1.0000   1.0000   1.0000
     1.0000   1.0000   1.0000   1.0000   1.0000   1.0000   1.0000   1.0000
     1.0000   1.0000   1.0000   1.0000   1.0000   1.0000   1.0000   1.0000
     0.8651   0.7119   0.7119   0.7111  -0.0000  -0.0000  -0.0000  -0.0000
    -0.0000  -0.0000  -0.0000  -0.0000

     the Fermi energy is     3.4595 ev

!    total energy              =   -1287.89926639 Ry
     estimated scf accuracy    <       0.00000003 Ry
     smearing contrib. (-TS)   =      -0.00079940 Ry
     internal energy E=F+TS    =   -1287.89846699 Ry

     The total energy is F=E-TS. E is the sum of the following terms:
     one-electron contribution =    -537.19669708 Ry
     hartree contribution      =     277.67707037 Ry
     xc contribution           =    -156.65449572 Ry
     ewald contribution        =    -384.05456731 Ry
     one-center paw contrib.   =    -487.66977725 Ry
      -> PAW hartree energy AE =     389.74830198 Ry
      -> PAW hartree energy PS =    -342.60252958 Ry
      -> PAW xc energy AE      =    -569.13227108 Ry
      -> PAW xc energy PS      =      34.31672143 Ry
      -> total E_H with PAW    =     324.82284277 Ry
      -> total E_XC with PAW   =    -691.47004538 Ry

     convergence has been achieved in  53 iterations

     negative rho (up, down):  8.786E-02 0.000E+00

     Forces acting on atoms (cartesian axes, Ry/au):

     atom    1 type  1   force =     0.00000000    0.00000000    0.00000265
     atom    2 type  1   force =    -0.00000000   -0.00000000   -0.00000265
     atom    3 type  2   force =     0.00000000    0.00000000    0.00000000
     atom    4 type  3   force =     0.00000000    0.00000000    0.00000000
     atom    5 type  4   force =    -0.00000000    0.00154567    0.00108973
     atom    6 type  4   force =     0.00133859    0.00077284   -0.00108973
     atom    7 type  4   force =     0.00000000   -0.00154567   -0.00108973
     atom    8 type  4   force =     0.00133859   -0.00077284    0.00108973
     atom    9 type  4   force =    -0.00133859    0.00077284   -0.00108973
     atom   10 type  4   force =    -0.00133859   -0.00077284    0.00108973
     The non-local contrib.  to forces
     atom    1 type  1   force =    -0.00000000   -0.00000000   -0.00000119
     atom    2 type  1   force =    -0.00000000    0.00000000    0.00000119
     atom    3 type  2   force =     0.00000000    0.00000000   -0.00000000
     atom    4 type  3   force =    -0.00000000   -0.00000000    0.00000000
     atom    5 type  4   force =     0.00000000   -0.01479628   -0.01047934
     atom    6 type  4   force =    -0.01281396   -0.00739814    0.01047934
     atom    7 type  4   force =     0.00000000    0.01479628    0.01047934
     atom    8 type  4   force =    -0.01281396    0.00739814   -0.01047934
     atom    9 type  4   force =     0.01281396   -0.00739814    0.01047934
     atom   10 type  4   force =     0.01281396    0.00739814   -0.01047934
     The ionic contribution  to forces
     atom    1 type  1   force =     0.00000000    0.00000000    0.00000000
     atom    2 type  1   force =    -0.00000000   -0.00000000   -0.00000000
     atom    3 type  2   force =     0.00000000    0.00000000    0.00000000
     atom    4 type  3   force =     0.00000000   -0.00000000    0.00000000
     atom    5 type  4   force =    -0.00000000    7.55198175    5.34005751
     atom    6 type  4   force =     6.54020805    3.77599088   -5.34005751
     atom    7 type  4   force =     0.00000000   -7.55198175   -5.34005751
     atom    8 type  4   force =     6.54020805   -3.77599088    5.34005751
     atom    9 type  4   force =    -6.54020805    3.77599088   -5.34005751
     atom   10 type  4   force =    -6.54020805   -3.77599088    5.34005751
     The local contribution  to forces
     atom    1 type  1   force =     0.00000535   -0.00000242    0.00001378
     atom    2 type  1   force =     0.00001659    0.00001109   -0.00000826
     atom    3 type  2   force =    -0.00000063   -0.00000003   -0.00000070
     atom    4 type  3   force =    -0.00002669    0.00001011    0.00000928
     atom    5 type  4   force =    -0.00000294   -7.53514126   -5.32815828
     atom    6 type  4   force =    -6.52563189   -3.76756932    5.32814976
     atom    7 type  4   force =     0.00000169    7.53514682    5.32815509
     atom    8 type  4   force =    -6.52563024    3.76756668   -5.32814932
     atom    9 type  4   force =     6.52563564   -3.76757276    5.32816090
     atom   10 type  4   force =     6.52562876    3.76757647   -5.32815415
     The core correction contribution to forces
     atom    1 type  1   force =     0.00000040    0.00000056    0.00000082
     atom    2 type  1   force =     0.00000133    0.00000090   -0.00000038
     atom    3 type  2   force =     0.00000000    0.00000000    0.00000000
     atom    4 type  3   force =    -0.00000000    0.00000000    0.00000000
     atom    5 type  4   force =     0.00000004   -0.00055068   -0.00038881
     atom    6 type  4   force =    -0.00047689   -0.00027540    0.00038881
     atom    7 type  4   force =     0.00000006    0.00055083    0.00038886
     atom    8 type  4   force =    -0.00047680    0.00027521   -0.00038876
     atom    9 type  4   force =     0.00047691   -0.00027533    0.00038890
     atom   10 type  4   force =     0.00047685    0.00027541   -0.00038879
     The Hubbard contrib.    to forces
     atom    1 type  1   force =     0.00000000    0.00000000    0.00000000
     atom    2 type  1   force =     0.00000000    0.00000000    0.00000000
     atom    3 type  2   force =     0.00000000    0.00000000    0.00000000
     atom    4 type  3   force =     0.00000000    0.00000000    0.00000000
     atom    5 type  4   force =     0.00000000    0.00000000    0.00000000
     atom    6 type  4   force =     0.00000000    0.00000000    0.00000000
     atom    7 type  4   force =     0.00000000    0.00000000    0.00000000
     atom    8 type  4   force =     0.00000000    0.00000000    0.00000000
     atom    9 type  4   force =     0.00000000    0.00000000    0.00000000
     atom   10 type  4   force =     0.00000000    0.00000000    0.00000000
     The SCF correction term to forces
     atom    1 type  1   force =    -0.00000294    0.00000496   -0.00000940
     atom    2 type  1   force =    -0.00000780   -0.00000570    0.00000616
     atom    3 type  2   force =     0.00000063    0.00000099    0.00000001
     atom    4 type  3   force =     0.00003258   -0.00001122   -0.00001364
     atom    5 type  4   force =     0.00000335    0.00005255    0.00005860
     atom    6 type  4   force =     0.00005367    0.00002309   -0.00005011
     atom    7 type  4   force =     0.00000062   -0.00005574   -0.00005476
     atom    8 type  4   force =     0.00005330   -0.00002312    0.00005092
     atom    9 type  4   force =    -0.00005748    0.00002842   -0.00006022
     atom   10 type  4   force =    -0.00005076   -0.00003020    0.00005522

     Total force =     0.004632     Total SCF correction =     0.000200

     Computing stress (Cartesian axis) and pressure

     negative rho (up, down):  8.786E-02 0.000E+00
          total   stress  (Ry/bohr**3)                   (kbar)     P=       41.25
   0.00028076   0.00000000   0.00000000           41.30        0.00        0.00
   0.00000000   0.00028076  -0.00000000            0.00       41.30       -0.00
   0.00000000  -0.00000000   0.00027963            0.00       -0.00       41.14

     kinetic stress (kbar)   5738.49     -0.00     -0.00
                                0.00   5738.49     -0.00
                                0.00     -0.00   5738.39

     local   stress (kbar)  -7513.67      0.01     -0.04
                                0.01  -7513.65      0.03
                               -0.04      0.03  -7513.46

     nonloc. stress (kbar)   6886.94     -0.00      0.00
                                0.00   6886.94     -0.00
                               -0.00     -0.00   6886.74

     hartree stress (kbar)   6825.07     -0.00      0.02
                               -0.00   6825.06     -0.01
                                0.02     -0.01   6825.00

     exc-cor stress (kbar)   2741.10     -0.00      0.00
                               -0.00   2741.10     -0.00
                                0.00     -0.00   2741.10

     corecor stress (kbar)  -5196.93      0.00     -0.00
                                0.00  -5196.93      0.00
                               -0.00      0.00  -5196.93

     ewald   stress (kbar)  -9439.70      0.00      0.00
                                0.00  -9439.70     -0.00
                                0.00     -0.00  -9439.70

     hubbard stress (kbar)      0.00      0.00      0.00
                                0.00      0.00      0.00
                                0.00      0.00      0.00

     DFT-D   stress (kbar)      0.00      0.00      0.00
                                0.00      0.00      0.00
                                0.00      0.00      0.00

     XDM     stress (kbar)      0.00      0.00      0.00
                                0.00      0.00      0.00
                                0.00      0.00      0.00

     dft-nl  stress (kbar)      0.00      0.00      0.00
                                0.00      0.00      0.00
                                0.00      0.00      0.00

     TS-vdW  stress (kbar)      0.00      0.00      0.00
                                0.00      0.00      0.00
                                0.00      0.00      0.00

[...]

                                0.00      0.00      0.00

     Writing all to output data dir new_calculations/myprefix.save/

     General routines

     Parallel routines

     PAW routines

   This run was terminated on:  21: 9:12  20May2023

   JOB DONE.