     Program PWSCF v.7.0 starts on 21May2023 at  6:41:51

     Reading input from espresso_6884.pwi
Warning: card &CELL ignored
Warning: card / ignored

     Current dimensions of program PWSCF are:
     Max number of different atomic species (ntypx) = 10
     Max number of k-points (npk) =  40000
     Max angular momentum in pseudopotentials (lmaxx) =  4

     gamma-point specific algorithms are used
     Message from routine setup:
     using ibrav=0 with symmetry is DISCOURAGED, use correct ibrav instead

     Subspace diagonalization in iterative solution of the eigenvalue problem:
     a serial algorithm will be used

     Using Slab Decomposition

     bravais-lattice index     =            0
     lattice parameter (alat)  =      10.7212  a.u.
     unit-cell volume          =     758.2279 (a.u.)^3
     number of atoms/cell      =            8
     number of atomic types    =            3
     number of electrons       =        76.00
     number of Kohn-Sham states=           46
     kinetic-energy cutoff     =      30.0000  Ry
     charge density cutoff     =     240.0000  Ry
     scf convergence threshold =      1.0E-06
     mixing beta               =       0.7000
     number of iterations used =            8  plain     mixing
     Exchange-correlation=  SLA  PW   PBX  PBC
                           (   1   4   3   4   0   0   0)

     celldm(1)=  10.721197  celldm(2)=   0.000000  celldm(3)=   0.000000
     celldm(4)=   0.000000  celldm(5)=   0.000000  celldm(6)=   0.000000

     crystal axes: (cart. coord. in units of alat)
               a(1) = (   1.000000   0.000000   0.000000 )
               a(2) = (   0.581684   0.813415   0.000000 )
               a(3) = (   0.581684   0.299143   0.756411 )

     reciprocal axes: (cart. coord. in units 2 pi/alat)
               b(1) = (  1.000000 -0.715113 -0.486194 )
               b(2) = (  0.000000  1.229385 -0.486194 )
               b(3) = (  0.000000  0.000000  1.322033 )

     PseudoPot. # 1 for Pd read from file:
     /home/pragov/projects/rrg-bengioy-ad/pragov/crystal_structure_design/SSSP/Pd_ONCV_PBE-1.0.oncvpsp.upf
     MD5 check sum: eb77f42b51d86fb18e25f68156a31cf1
     Pseudo is Norm-conserving, Zval = 18.0
     Generated using ONCVPSP code by D. R. Hamann
     Using radial grid of 1410 points,  6 beta functions with:
                l(1) =   0
                l(2) =   0
                l(3) =   1
                l(4) =   1
                l(5) =   2
                l(6) =   2

     PseudoPot. # 2 for Pt read from file:
     /home/pragov/projects/rrg-bengioy-ad/pragov/crystal_structure_design/SSSP/pt_pbe_v1.4.uspp.F.UPF
     MD5 check sum: f09d6de1a584b5a045c4fc126da2d0c4
     Pseudo is Ultrasoft + core correction, Zval = 16.0
     Generated by new atomic code, or converted to UPF format
     Using radial grid of  985 points,  6 beta functions with:
                l(1) =   0
                l(2) =   0
                l(3) =   1
                l(4) =   1
                l(5) =   2
                l(6) =   2
     Q(r) pseudized with  8 coefficients,  rinner =    1.300   1.300   1.300
                                                       1.300   1.300

     PseudoPot. # 3 for F  read from file:
     /home/pragov/projects/rrg-bengioy-ad/pragov/crystal_structure_design/SSSP/f_pbe_v1.4.uspp.F.UPF
     MD5 check sum: 4c38b6a325caf53ec0e86aed9459de46
     Pseudo is Ultrasoft, Zval =  7.0
     Generated by new atomic code, or converted to UPF format
     Using radial grid of  799 points,  4 beta functions with:
                l(1) =   0
                l(2) =   0
                l(3) =   1
                l(4) =   1
     Q(r) pseudized with  8 coefficients,  rinner =    0.950   0.950   0.950

     atomic species   valence    mass     pseudopotential
        Pd            18.00   106.42000     Pd( 1.00)
        Pt            16.00   195.08400     Pt( 1.00)
        F              7.00    18.99840     F ( 1.00)

      2 Sym. Ops., with inversion, found

                                    s                        frac. trans.

      isym =  1     identity

 cryst.   s( 1) = (     1          0          0      )
                  (     0          1          0      )
                  (     0          0          1      )

 cart.    s( 1) = (  1.0000000 -0.0000000  0.0000000 )
                  (  0.0000000  1.0000000 -0.0000000 )
                  (  0.0000000  0.0000000  1.0000000 )

      isym =  2     inversion

 cryst.   s( 2) = (    -1          0          0      )
                  (     0         -1          0      )
                  (     0          0         -1      )

 cart.    s( 2) = ( -1.0000000  0.0000000 -0.0000000 )
                  (  0.0000000 -1.0000000  0.0000000 )
                  (  0.0000000  0.0000000 -1.0000000 )

   Cartesian axes

     site n.     atom                  positions (alat units)
         1           Pd  tau(   1) = (   0.0000000   0.0000000   0.0000000  )
         2           Pt  tau(   2) = (   1.0816836   0.5562792   0.3782054  )
         3           F   tau(   3) = (   0.9088386   0.3081323   0.5536889  )
         4           F   tau(   4) = (   1.0396487   0.3738460   0.0829125  )
         5           F   tau(   5) = (   1.3840712   0.3917151   0.4392561  )
         6           F   tau(   6) = (   1.1237186   0.7387124   0.6734983  )
         7           F   tau(   7) = (   1.2545287   0.8044261   0.2027219  )
         8           F   tau(   8) = (   0.7792961   0.7208433   0.3171547  )

   Crystallographic axes

     site n.     atom                  positions (cryst. coord.)
         1           Pd  tau(   1) = (  0.0000000  0.0000000  0.0000000  )
         2           Pt  tau(   2) = (  0.5000000  0.5000000  0.5000000  )
         3           F   tau(   3) = (  0.4192890  0.1096130  0.7319950  )
         4           F   tau(   4) = (  0.7319950  0.4192890  0.1096130  )
         5           F   tau(   5) = (  0.8903870  0.2680050  0.5807110  )
         6           F   tau(   6) = (  0.2680050  0.5807110  0.8903870  )
         7           F   tau(   7) = (  0.5807110  0.8903870  0.2680050  )
         8           F   tau(   8) = (  0.1096130  0.7319950  0.4192890  )

     number of k points=     1  Methfessel-Paxton smearing, width (Ry)=  0.0010
                       cart. coord. in units 2pi/alat
        k(    1) = (   0.0000000   0.0000000   0.0000000), wk =   2.0000000

                       cryst. coord.
        k(    1) = (   0.0000000   0.0000000   0.0000000), wk =   2.0000000

     Initial potential from superposition of free atoms

     starting charge      75.4996, renormalised to      76.0000

     negative rho (up, down):  1.855E-01 0.000E+00
     Starting wfcs are   46 randomized atomic wfcs

     Self-consistent Calculation

     iteration #  1     ecut=    30.00 Ry     beta= 0.70
     Davidson diagonalization with overlap

     ethr =  1.00E-02,  avg # of iterations =  5.0

     negative rho (up, down):  1.660E-01 0.000E+00

     total energy              =    -750.91221090 Ry
     estimated scf accuracy    <       5.97984161 Ry

[...]

     total energy              =    -755.11884081 Ry
     estimated scf accuracy    <       0.00000667 Ry

     iteration # 20     ecut=    30.00 Ry     beta= 0.70
     Davidson diagonalization with overlap

     ethr =  8.78E-09,  avg # of iterations =  1.0

[...]

     End of self-consistent calculation

          k = 0.0000 0.0000 0.0000 (  1070 PWs)   bands (ev):

   -79.7585 -48.5692 -48.5692 -48.4542 -45.1467 -45.1467 -45.1091 -18.0459
   -17.5918 -17.5918 -17.4015 -17.3401 -17.3400  -2.0389  -2.0389  -1.6729
    -0.6796  -0.6796  -0.5874  -0.0435  -0.0435   0.3131   1.1528   1.3340
     1.8135   1.8135   1.8527   1.8527   2.1464   2.1867   2.1868   3.2414
     3.2414   3.4517   4.0109   4.0109   4.7312   5.3828   5.3829   7.6025
     7.6025   9.0415  15.1937  15.2587  16.8537  16.8537

     occupation numbers
     1.0000   1.0000   1.0000   1.0000   1.0000   1.0000   1.0000   1.0000
     1.0000   1.0000   1.0000   1.0000   1.0000   1.0000   1.0000   1.0000
     1.0000   1.0000   1.0000   1.0000   1.0000   1.0000   1.0000   1.0000
     1.0000   1.0000   1.0000   1.0000   1.0000   1.0000   1.0000   1.0000
     1.0000   1.0000   1.0000   1.0000   1.0000   0.5014   0.4986  -0.0000
    -0.0000  -0.0000  -0.0000  -0.0000  -0.0000  -0.0000

     the Fermi energy is     5.3829 ev

!    total energy              =    -755.11884045 Ry
     estimated scf accuracy    <       0.00000052 Ry
     smearing contrib. (-TS)   =      -0.00056419 Ry
     internal energy E=F+TS    =    -755.11827627 Ry

     The total energy is F=E-TS. E is the sum of the following terms:
     one-electron contribution =    -394.56614009 Ry
     hartree contribution      =     232.14462141 Ry
     xc contribution           =    -137.08783687 Ry
     ewald contribution        =    -455.60892072 Ry

     convergence has been achieved in  20 iterations

     negative rho (up, down):  1.790E-01 0.000E+00

     Forces acting on atoms (cartesian axes, Ry/au):

     atom    1 type  1   force =     0.00000000    0.00000000    0.00000000
     atom    2 type  2   force =     0.00000000    0.00000000    0.00000000
     atom    3 type  3   force =    -0.02039737    0.00720465    0.01178072
     atom    4 type  3   force =    -0.00079805   -0.02476979    0.00265643
     atom    5 type  3   force =     0.00595635   -0.00326367    0.02381346
     atom    6 type  3   force =     0.00079805    0.02476979   -0.00265643
     atom    7 type  3   force =     0.02039737   -0.00720465   -0.01178072
     atom    8 type  3   force =    -0.00595635    0.00326367   -0.02381346
     The non-local contrib.  to forces
     atom    1 type  1   force =     0.00000000    0.00000000    0.00000000
     atom    2 type  2   force =     0.00000000    0.00000000    0.00000000
     atom    3 type  3   force =     0.03613126    0.93232171   -0.28501341
     atom    4 type  3   force =     0.08433005   -0.01669536    0.97261238
     atom    5 type  3   force =    -0.77944887    0.45392820    0.37260706
     atom    6 type  3   force =    -0.08433005    0.01669536   -0.97261238
     atom    7 type  3   force =    -0.03613126   -0.93232171    0.28501341
     atom    8 type  3   force =     0.77944887   -0.45392820   -0.37260706
     The ionic contribution  to forces
     atom    1 type  1   force =    -0.00000000   -0.00000000    0.00000000
     atom    2 type  2   force =     0.00000000    0.00000000    0.00000000
     atom    3 type  3   force =     1.28935631   -8.04766979    1.56948466
     atom    4 type  3   force =    -0.47023256    1.92138840   -8.06088900
     atom    5 type  3   force =     5.79610108   -3.56676585   -4.75122858
     atom    6 type  3   force =     0.47023256   -1.92138840    8.06088899
     atom    7 type  3   force =    -1.28935631    8.04766979   -1.56948466
     atom    8 type  3   force =    -5.79610108    3.56676585    4.75122858
     The local contribution  to forces
     atom    1 type  1   force =    -0.00000280    0.00000832    0.00000563
     atom    2 type  2   force =    -0.00000004   -0.00000181   -0.00000822
     atom    3 type  3   force =    -1.34614623    7.12282510   -1.27263008
     atom    4 type  3   force =     0.38511715   -1.92911174    7.09071945
     atom    5 type  3   force =    -5.01073264    3.10957503    4.40244452
     atom    6 type  3   force =    -0.38511684    1.92911078   -7.09071758
     atom    7 type  3   force =     1.34614720   -7.12282703    1.27262910
     atom    8 type  3   force =     5.01073198   -3.10957464   -4.40244499
     The core correction contribution to forces
     atom    1 type  1   force =     0.00000000    0.00000000    0.00000000
     atom    2 type  2   force =    -0.00000002    0.00000003   -0.00000022
     atom    3 type  3   force =     0.00000000    0.00000000    0.00000000
     atom    4 type  3   force =     0.00000000    0.00000000    0.00000000
     atom    5 type  3   force =     0.00000000    0.00000000    0.00000000
     atom    6 type  3   force =     0.00000000    0.00000000    0.00000000
     atom    7 type  3   force =     0.00000000    0.00000000    0.00000000
     atom    8 type  3   force =     0.00000000    0.00000000    0.00000000
     The Hubbard contrib.    to forces
     atom    1 type  1   force =     0.00000000    0.00000000    0.00000000
     atom    2 type  2   force =     0.00000000    0.00000000    0.00000000
     atom    3 type  3   force =     0.00000000    0.00000000    0.00000000
     atom    4 type  3   force =     0.00000000    0.00000000    0.00000000
     atom    5 type  3   force =     0.00000000    0.00000000    0.00000000
     atom    6 type  3   force =     0.00000000    0.00000000    0.00000000
     atom    7 type  3   force =     0.00000000    0.00000000    0.00000000
     atom    8 type  3   force =     0.00000000    0.00000000    0.00000000
     The SCF correction term to forces
     atom    1 type  1   force =     0.00000392   -0.00000811   -0.00000616
     atom    2 type  2   force =    -0.00000101    0.00000094    0.00000926
     atom    3 type  3   force =     0.00026104   -0.00027270   -0.00006048
     atom    4 type  3   force =    -0.00001266   -0.00035099    0.00021385
     atom    5 type  3   force =     0.00003675   -0.00000119   -0.00000940
     atom    6 type  3   force =     0.00001242    0.00035215   -0.00021521
     atom    7 type  3   force =    -0.00026249    0.00027399    0.00006140
     atom    8 type  3   force =    -0.00003615    0.00000052    0.00001014

     Total force =     0.060683     Total SCF correction =     0.000798

     Computing stress (Cartesian axis) and pressure

     negative rho (up, down):  1.790E-01 0.000E+00
          total   stress  (Ry/bohr**3)                   (kbar)     P=     -352.14
  -0.00237939   0.00001545   0.00001300         -350.02        2.27        1.91
   0.00001545  -0.00239726   0.00000832            2.27     -352.65        1.22
   0.00001300   0.00000832  -0.00240469            1.91        1.22     -353.74

     kinetic stress (kbar)  32221.47     69.31     46.27
                               69.31  32120.49     23.33
                               46.27     23.33  32102.52

     local   stress (kbar) -14848.87   -926.82   -628.24
                             -926.82 -13519.33   -321.90
                             -628.24   -321.90 -13265.44

     nonloc. stress (kbar)   2818.26      0.48      0.38
                                0.48   2817.61      0.24
                                0.38      0.24   2817.39

     hartree stress (kbar)  15408.05    377.16    255.68
                              377.16  14867.08    130.95
                              255.68    130.95  14763.64

     exc-cor stress (kbar)    484.57      0.54      0.36
                                0.54    483.78      0.18
                                0.36      0.18    483.63

     corecor stress (kbar)  -7474.34     -1.65     -1.11
                               -1.65  -7471.95     -0.56
                               -1.11     -0.56  -7471.51

     ewald   stress (kbar) -28959.16    483.25    328.56
                              483.25 -29650.32    168.97
                              328.56    168.97 -29783.97

     hubbard stress (kbar)      0.00      0.00      0.00
                                0.00      0.00      0.00
                                0.00      0.00      0.00

     DFT-D   stress (kbar)      0.00      0.00      0.00
                                0.00      0.00      0.00
                                0.00      0.00      0.00

     XDM     stress (kbar)      0.00      0.00      0.00
                                0.00      0.00      0.00
                                0.00      0.00      0.00

     dft-nl  stress (kbar)      0.00      0.00      0.00
                                0.00      0.00      0.00
                                0.00      0.00      0.00

     TS-vdW  stress (kbar)      0.00      0.00      0.00
                                0.00      0.00      0.00
                                0.00      0.00      0.00

[...]

                                0.00      0.00      0.00

     Writing all to output data dir new_calculations/myprefix.save/

     General routines

     Parallel routines

   This run was terminated on:   6:42: 5  21May2023

   JOB DONE.