     Program PWSCF v.7.0 starts on 21May2023 at 10:46:48

     Reading input from espresso_26633.pwi
Warning: card &CELL ignored
Warning: card / ignored

     Current dimensions of program PWSCF are:
     Max number of different atomic species (ntypx) = 10
     Max number of k-points (npk) =  40000
     Max angular momentum in pseudopotentials (lmaxx) =  4

     gamma-point specific algorithms are used
     Message from routine setup:
     using ibrav=0 with symmetry is DISCOURAGED, use correct ibrav instead

     Subspace diagonalization in iterative solution of the eigenvalue problem:
     a serial algorithm will be used

     Using Slab Decomposition

     bravais-lattice index     =            0
     lattice parameter (alat)  =      16.5737  a.u.
     unit-cell volume          =    3219.1578 (a.u.)^3
     number of atoms/cell      =           10
     number of atomic types    =            4
     number of electrons       =        80.00
     number of Kohn-Sham states=           48
     kinetic-energy cutoff     =      30.0000  Ry
     charge density cutoff     =     240.0000  Ry
     scf convergence threshold =      1.0E-06
     mixing beta               =       0.7000
     number of iterations used =            8  plain     mixing
     Exchange-correlation=  SLA  PW   PBX  PBC
                           (   1   4   3   4   0   0   0)

     celldm(1)=  16.573685  celldm(2)=   0.000000  celldm(3)=   0.000000
     celldm(4)=   0.000000  celldm(5)=   0.000000  celldm(6)=   0.000000

     crystal axes: (cart. coord. in units of alat)
               a(1) = (   1.000000   0.000000   0.000000 )
               a(2) = (   0.500000   0.866025   0.000000 )
               a(3) = (   0.500000   0.288675   0.816497 )

     reciprocal axes: (cart. coord. in units 2 pi/alat)
               b(1) = (  1.000000 -0.577350 -0.408248 )
               b(2) = (  0.000000  1.154701 -0.408248 )
               b(3) = (  0.000000  0.000000  1.224745 )

     PseudoPot. # 1 for Cs read from file:
     /home/pragov/projects/rrg-bengioy-ad/pragov/crystal_structure_design/SSSP/Cs_pbe_v1.uspp.F.UPF
     MD5 check sum: 3476d69cb178dfad3ffaa59df4e07ca4
     Pseudo is Ultrasoft + core correction, Zval =  9.0
     Generated by new atomic code, or converted to UPF format
     Using radial grid of  905 points,  6 beta functions with:
                l(1) =   0
                l(2) =   0
                l(3) =   1
                l(4) =   1
                l(5) =   2
                l(6) =   2
     Q(r) pseudized with  6 coefficients,  rinner =    1.500   1.500   1.500
                                                       1.500   1.500

     PseudoPot. # 2 for Rb read from file:
     /home/pragov/projects/rrg-bengioy-ad/pragov/crystal_structure_design/SSSP/Rb_ONCV_PBE-1.0.oncvpsp.upf
     MD5 check sum: 55a5172d6bfbce6759a58e35d43f6aa9
     Pseudo is Norm-conserving, Zval =  9.0
     Generated using ONCVPSP code by D. R. Hamann
     Using radial grid of 2308 points,  6 beta functions with:
                l(1) =   0
                l(2) =   0
                l(3) =   1
                l(4) =   1
                l(5) =   2
                l(6) =   2

     PseudoPot. # 3 for Y  read from file:
     /home/pragov/projects/rrg-bengioy-ad/pragov/crystal_structure_design/SSSP/Y_pbe_v1.uspp.F.UPF
     MD5 check sum: 2cf71db95cafeb975fc457bd7f14888e
     Pseudo is Ultrasoft + core correction, Zval = 11.0
     Generated by new atomic code, or converted to UPF format
     Using radial grid of  885 points,  6 beta functions with:
                l(1) =   0
                l(2) =   0
                l(3) =   1
                l(4) =   1
                l(5) =   2
                l(6) =   2
     Q(r) pseudized with  6 coefficients,  rinner =    1.200   1.200   1.200
                                                       1.200   1.200

     PseudoPot. # 4 for Br read from file:
     /home/pragov/projects/rrg-bengioy-ad/pragov/crystal_structure_design/SSSP/br_pbe_v1.4.uspp.F.UPF
     MD5 check sum: d3ffb7b29f6225aa16fe06858fb2a80b
     Pseudo is Ultrasoft + core correction, Zval =  7.0
     Generated by new atomic code, or converted to UPF format
     Using radial grid of  879 points,  6 beta functions with:
                l(1) =   0
                l(2) =   0
                l(3) =   1
                l(4) =   1
                l(5) =   2
                l(6) =   2
     Q(r) pseudized with  8 coefficients,  rinner =    1.100   1.100   1.100
                                                       1.100   1.100

     atomic species   valence    mass     pseudopotential
        Cs             9.00   132.90545     Cs( 1.00)
        Rb             9.00    85.46780     Rb( 1.00)
        Y             11.00    88.90584     Y ( 1.00)
        Br             7.00    79.90400     Br( 1.00)

     12 Sym. Ops., with inversion, found

                                    s                        frac. trans.

      isym =  1     identity

 cryst.   s( 1) = (     1          0          0      )
                  (     0          1          0      )
                  (     0          0          1      )

 cart.    s( 1) = (  1.0000000  0.0000000  0.0000000 )
                  (  0.0000000  1.0000000 -0.0000000 )
                  (  0.0000000  0.0000000  1.0000000 )

      isym =  2     180 deg rotation - cart. axis [1,0,0]

[...]

      isym =  3     120 deg rotation - cryst. axis [0,0,1]

[...]

      isym =  6     180 deg rotation - cryst. axis [1,1,0]

[...]

      isym =  7     inversion

[...]

      isym =  8     inv. 180 deg rotation - cart. axis [1,0,0]

[...]

      isym =  9     inv. 120 deg rotation - cryst. axis [0,0,1]

 cryst.   s( 9) = (     1         -1          0      )
                  (     1          0          0      )
                  (     1          0         -1      )

 cart.    s( 9) = (  0.5000000  0.8660254  0.0000000 )
                  ( -0.8660254  0.5000000  0.0000000 )
                  (  0.0000000  0.0000000 -1.0000000 )

[...]

 cryst.   s(10) = (     0          1          0      )
                  (    -1          1          0      )
                  (     0          1         -1      )

 cart.    s(10) = (  0.5000000 -0.8660254  0.0000000 )
                  (  0.8660254  0.5000000  0.0000000 )
                  (  0.0000000  0.0000000 -1.0000000 )

[...]

      isym = 12     inv. 180 deg rotation - cryst. axis [1,1,0]

 cryst.   s(12) = (     1         -1          0      )
                  (     0         -1          0      )
                  (     0         -1          1      )

 cart.    s(12) = (  0.5000000 -0.8660254  0.0000000 )
                  ( -0.8660254 -0.5000000 -0.0000000 )
                  (  0.0000000  0.0000000  1.0000000 )

   Cartesian axes

     site n.     atom                  positions (alat units)
         1           Cs  tau(   1) = (   1.0000000   0.5773503   0.4082483  )
         2           Rb  tau(   2) = (   1.5000000   0.8660254   0.6123724  )
         3           Rb  tau(   3) = (   0.5000000   0.2886751   0.2041241  )
         4           Y   tau(   4) = (   0.0000000   0.0000000   0.0000000  )
         5           Br  tau(   5) = (   1.0000000   0.2603422   0.1840898  )
         6           Br  tau(   6) = (   0.7254630   0.4188463   0.6324068  )
         7           Br  tau(   7) = (   1.0000000   0.8943583   0.6324068  )
         8           Br  tau(   8) = (   0.7254630   0.7358543   0.1840898  )
         9           Br  tau(   9) = (   1.2745370   0.4188463   0.6324068  )
        10           Br  tau(  10) = (   1.2745370   0.7358543   0.1840898  )

   Crystallographic axes

     site n.     atom                  positions (cryst. coord.)
         1           Cs  tau(   1) = (  0.5000000  0.5000000  0.5000000  )
         2           Rb  tau(   2) = (  0.7500000  0.7500000  0.7500000  )
         3           Rb  tau(   3) = (  0.2500000  0.2500000  0.2500000  )
         4           Y   tau(   4) = (  0.0000000  0.0000000  0.0000000  )
         5           Br  tau(   5) = (  0.7745370  0.2254630  0.2254630  )
         6           Br  tau(   6) = (  0.2254630  0.2254630  0.7745370  )
         7           Br  tau(   7) = (  0.2254630  0.7745370  0.7745370  )
         8           Br  tau(   8) = (  0.2254630  0.7745370  0.2254630  )
         9           Br  tau(   9) = (  0.7745370  0.2254630  0.7745370  )
        10           Br  tau(  10) = (  0.7745370  0.7745370  0.2254630  )

     number of k points=     1  Methfessel-Paxton smearing, width (Ry)=  0.0010
                       cart. coord. in units 2pi/alat
        k(    1) = (   0.0000000   0.0000000   0.0000000), wk =   2.0000000

                       cryst. coord.
        k(    1) = (   0.0000000   0.0000000   0.0000000), wk =   2.0000000

     Check: negative core charge=   -0.000002

     Initial potential from superposition of free atoms

     starting charge      79.9065, renormalised to      80.0000

     negative rho (up, down):  4.386E-02 0.000E+00
     Starting wfcs are   60 randomized atomic wfcs

     Self-consistent Calculation

     iteration #  1     ecut=    30.00 Ry     beta= 0.70
     Davidson diagonalization with overlap

     ethr =  1.00E-02,  avg # of iterations =  3.0

     Threshold (ethr) on eigenvalues was too large:
     Diagonalizing with lowered threshold

     Davidson diagonalization with overlap

[...]

     negative rho (up, down):  4.438E-02 0.000E+00

     total energy              =    -530.61510220 Ry
     estimated scf accuracy    <       0.37662141 Ry

[...]

     total energy              =    -530.72573769 Ry
     estimated scf accuracy    <       0.00000341 Ry

     iteration #  7     ecut=    30.00 Ry     beta= 0.70
     Davidson diagonalization with overlap

     ethr =  4.26E-09,  avg # of iterations =  2.0

[...]

     End of self-consistent calculation

          k = 0.0000 0.0000 0.0000 (  4437 PWs)   bands (ev):

   -40.5035 -25.4589 -25.4588 -20.5032 -20.5032 -20.5032 -18.7300 -11.9489
   -11.7456 -11.7456 -11.7185 -11.7184 -11.7184  -9.4940  -9.4940  -9.4940
    -9.4905  -9.4905  -9.4905  -5.6625  -5.6625  -5.6624  -1.4787  -0.7467
    -0.7467  -0.6362  -0.6362  -0.6362  -0.3799  -0.3798  -0.3798   0.3280
     0.3280   0.3280   0.5171   0.5171   0.5171   0.7746   0.7746   0.7746
     4.3888   5.0827   5.0827   5.0828   5.7504   6.5546   6.5546   6.9542

     occupation numbers
     1.0000   1.0000   1.0000   1.0000   1.0000   1.0000   1.0000   1.0000
     1.0000   1.0000   1.0000   1.0000   1.0000   1.0000   1.0000   1.0000
     1.0000   1.0000   1.0000   1.0000   1.0000   1.0000   1.0000   1.0000
     1.0000   1.0000   1.0000   1.0000   1.0000   1.0000   1.0000   1.0000
     1.0000   1.0000   1.0000   1.0000   1.0000   1.0000   1.0000   1.0000
    -0.0000  -0.0000  -0.0000  -0.0000  -0.0000  -0.0000  -0.0000  -0.0000

     the Fermi energy is     1.1240 ev

!    total energy              =    -530.72573854 Ry
     estimated scf accuracy    <       0.00000015 Ry
     smearing contrib. (-TS)   =       0.00000000 Ry
     internal energy E=F+TS    =    -530.72573854 Ry

     The total energy is F=E-TS. E is the sum of the following terms:
     one-electron contribution =    -157.16024653 Ry
     hartree contribution      =     100.30515285 Ry
     xc contribution           =    -224.35175211 Ry
     ewald contribution        =    -249.51889274 Ry

     convergence has been achieved in   7 iterations

     negative rho (up, down):  4.491E-02 0.000E+00

     Forces acting on atoms (cartesian axes, Ry/au):

     atom    1 type  1   force =     0.00000000    0.00000000    0.00000000
     atom    2 type  2   force =     0.00000000    0.00000000    0.00001810
     atom    3 type  2   force =     0.00000000    0.00000000   -0.00001810
     atom    4 type  3   force =     0.00000000    0.00000000    0.00000000
     atom    5 type  4   force =     0.00000000   -0.00248337   -0.00175145
     atom    6 type  4   force =    -0.00215067   -0.00124169    0.00175145
     atom    7 type  4   force =    -0.00000000    0.00248337    0.00175145
     atom    8 type  4   force =    -0.00215067    0.00124169   -0.00175145
     atom    9 type  4   force =     0.00215067   -0.00124169    0.00175145
     atom   10 type  4   force =     0.00215067    0.00124169   -0.00175145
     The non-local contrib.  to forces
     atom    1 type  1   force =    -0.00000000    0.00000000   -0.00000000
     atom    2 type  2   force =     0.00000000    0.00000000   -0.00000468
     atom    3 type  2   force =     0.00000000    0.00000000    0.00000468
     atom    4 type  3   force =     0.00000000    0.00000000    0.00000000
     atom    5 type  4   force =     0.00000000   -0.00295910   -0.00207332
     atom    6 type  4   force =    -0.00256266   -0.00147955    0.00207332
     atom    7 type  4   force =     0.00000000    0.00295910    0.00207332
     atom    8 type  4   force =    -0.00256266    0.00147955   -0.00207332
     atom    9 type  4   force =     0.00256266   -0.00147955    0.00207332
     atom   10 type  4   force =     0.00256266    0.00147955   -0.00207332
     The ionic contribution  to forces
     atom    1 type  1   force =    -0.00000000    0.00000000    0.00000000
     atom    2 type  2   force =    -0.00000000   -0.00000000    0.00000000
     atom    3 type  2   force =    -0.00000000   -0.00000000   -0.00000000
     atom    4 type  3   force =     0.00000000    0.00000000    0.00000000
     atom    5 type  4   force =    -0.00000000    3.26715137    2.31022489
     atom    6 type  4   force =     2.82943609    1.63357569   -2.31022489
     atom    7 type  4   force =    -0.00000000   -3.26715137   -2.31022489
     atom    8 type  4   force =     2.82943609   -1.63357569    2.31022489
     atom    9 type  4   force =    -2.82943609    1.63357569   -2.31022489
     atom   10 type  4   force =    -2.82943609   -1.63357569    2.31022489
     The local contribution  to forces
     atom    1 type  1   force =    -0.00007426   -0.00010172    0.00000549
     atom    2 type  2   force =     0.00004982    0.00002797   -0.00003539
     atom    3 type  2   force =    -0.00000335    0.00003435    0.00005436
     atom    4 type  3   force =    -0.00008599   -0.00018034   -0.00003932
     atom    5 type  4   force =    -0.00000391   -3.27359241   -2.31472061
     atom    6 type  4   force =    -2.83506337   -1.63682041    2.31474636
     atom    7 type  4   force =    -0.00004367    3.27366851    2.31481812
     atom    8 type  4   force =    -2.83507043    1.63677570   -2.31474602
     atom    9 type  4   force =     2.83503310   -1.63685429    2.31473820
     atom   10 type  4   force =     2.83512425    1.63680845   -2.31484767
     The core correction contribution to forces
     atom    1 type  1   force =    -0.00000077   -0.00000109    0.00000028
     atom    2 type  2   force =     0.00000000    0.00000000    0.00000000
     atom    3 type  2   force =     0.00000000    0.00000000    0.00000000
     atom    4 type  3   force =    -0.00000040   -0.00000354   -0.00000066
     atom    5 type  4   force =     0.00000048    0.00664058    0.00469845
     atom    6 type  4   force =     0.00574560    0.00331815   -0.00469426
     atom    7 type  4   force =    -0.00000112   -0.00663770   -0.00469334
     atom    8 type  4   force =     0.00574974   -0.00332177    0.00469890
     atom    9 type  4   force =    -0.00575040    0.00331977   -0.00469826
     atom   10 type  4   force =    -0.00574196   -0.00331818    0.00469046
     The Hubbard contrib.    to forces
     atom    1 type  1   force =     0.00000000    0.00000000    0.00000000
     atom    2 type  2   force =     0.00000000    0.00000000    0.00000000
     atom    3 type  2   force =     0.00000000    0.00000000    0.00000000
     atom    4 type  3   force =     0.00000000    0.00000000    0.00000000
     atom    5 type  4   force =     0.00000000    0.00000000    0.00000000
     atom    6 type  4   force =     0.00000000    0.00000000    0.00000000
     atom    7 type  4   force =     0.00000000    0.00000000    0.00000000
     atom    8 type  4   force =     0.00000000    0.00000000    0.00000000
     atom    9 type  4   force =     0.00000000    0.00000000    0.00000000
     atom   10 type  4   force =     0.00000000    0.00000000    0.00000000
     The SCF correction term to forces
     atom    1 type  1   force =     0.00006238    0.00008789    0.00000219
     atom    2 type  2   force =    -0.00008601   -0.00006993    0.00003632
     atom    3 type  2   force =    -0.00000248   -0.00002412   -0.00009900
     atom    4 type  3   force =     0.00007675    0.00015554    0.00003202
     atom    5 type  4   force =     0.00000026    0.00026212    0.00010448
     atom    6 type  4   force =     0.00030557    0.00016640   -0.00015276
     atom    7 type  4   force =     0.00005405   -0.00035491   -0.00023683
     atom    8 type  4   force =     0.00029222   -0.00009859    0.00012642
     atom    9 type  4   force =    -0.00024810    0.00019491   -0.00012368
     atom   10 type  4   force =    -0.00038854   -0.00015102    0.00028102

     Total force =     0.007444     Total SCF correction =     0.000977
     SCF correction compared to forces is large: reduce conv_thr to get better values

     Computing stress (Cartesian axis) and pressure

     negative rho (up, down):  4.491E-02 0.000E+00
          total   stress  (Ry/bohr**3)                   (kbar)     P=        9.95
   0.00006764   0.00000000   0.00000000            9.95        0.00        0.00
   0.00000000   0.00006764   0.00000000            0.00        9.95        0.00
   0.00000000  -0.00000000   0.00006763            0.00       -0.00        9.95

     kinetic stress (kbar)   3502.11     -0.00     -0.00
                               -0.00   3502.11      0.00
                               -0.00      0.00   3502.11

     local   stress (kbar)   -199.98     -0.00     -0.00
                               -0.00   -199.98      0.00
                               -0.00      0.00   -199.99

     nonloc. stress (kbar)    275.75      0.00     -0.00
                                0.00    275.75     -0.00
                               -0.00     -0.00    275.75

     hartree stress (kbar)   1527.87      0.00      0.00
                                0.00   1527.87     -0.00
                                0.00     -0.00   1527.88

     exc-cor stress (kbar)   5996.18      0.00     -0.00
                                0.00   5996.18     -0.00
                               -0.00     -0.00   5996.18

     corecor stress (kbar)  -7291.24      0.00     -0.00
                                0.00  -7291.24     -0.00
                               -0.00     -0.00  -7291.24

     ewald   stress (kbar)  -3800.73     -0.00     -0.00
                               -0.00  -3800.73      0.00
                               -0.00      0.00  -3800.73

     hubbard stress (kbar)      0.00      0.00      0.00
                                0.00      0.00      0.00
                                0.00      0.00      0.00

     DFT-D   stress (kbar)      0.00      0.00      0.00
                                0.00      0.00      0.00
                                0.00      0.00      0.00

     XDM     stress (kbar)      0.00      0.00      0.00
                                0.00      0.00      0.00
                                0.00      0.00      0.00

     dft-nl  stress (kbar)      0.00      0.00      0.00
                                0.00      0.00      0.00
                                0.00      0.00      0.00

     TS-vdW  stress (kbar)      0.00      0.00      0.00
                                0.00      0.00      0.00
                                0.00      0.00      0.00

[...]

                                0.00      0.00      0.00

     Writing all to output data dir new_calculations/myprefix.save/

     General routines

     Parallel routines

   This run was terminated on:  10:47:15  21May2023

   JOB DONE.