     Program PWSCF v.7.0 starts on 20May2023 at 15: 5:29

     Reading input from espresso_2516.pwi
Warning: card &CELL ignored
Warning: card / ignored

     Current dimensions of program PWSCF are:
     Max number of different atomic species (ntypx) = 10
     Max number of k-points (npk) =  40000
     Max angular momentum in pseudopotentials (lmaxx) =  4
     file Ba.pbe-spn-kjpaw_psl.1.0.0.UPF: wavefunction(s)  5S 6S renormalized

     gamma-point specific algorithms are used
     Message from routine setup:
     using ibrav=0 with symmetry is DISCOURAGED, use correct ibrav instead

     Subspace diagonalization in iterative solution of the eigenvalue problem:
     a serial algorithm will be used

     Using Slab Decomposition

     bravais-lattice index     =            0
     lattice parameter (alat)  =      25.1831  a.u.
     unit-cell volume          =    1238.8171 (a.u.)^3
     number of atoms/cell      =            4
     number of atomic types    =            2
     number of electrons       =        40.00
     number of Kohn-Sham states=           24
     kinetic-energy cutoff     =      30.0000  Ry
     charge density cutoff     =     240.0000  Ry
     scf convergence threshold =      1.0E-06
     mixing beta               =       0.7000
     number of iterations used =            8  plain     mixing
     Exchange-correlation= SLA  PW   PBE  PBE
                           (   1   4   3   4   0   0   0)

     celldm(1)=  25.183088  celldm(2)=   0.000000  celldm(3)=   0.000000
     celldm(4)=   0.000000  celldm(5)=   0.000000  celldm(6)=   0.000000

     crystal axes: (cart. coord. in units of alat)
               a(1) = (   1.000000   0.000000   0.000000 )
               a(2) = (   0.954522   0.298142   0.000000 )
               a(3) = (   0.954522   0.145602   0.260170 )

     reciprocal axes: (cart. coord. in units 2 pi/alat)
               b(1) = (  1.000000 -3.201569 -1.877102 )
               b(2) = (  0.000000  3.354109 -1.877102 )
               b(3) = (  0.000000  0.000000  3.843639 )

     PseudoPot. # 1 for Ba read from file:
     /home/pragov/projects/rrg-bengioy-ad/pragov/crystal_structure_design/SSSP/Ba.pbe-spn-kjpaw_psl.1.0.0.UPF
     MD5 check sum: c432291d3e53af55f19d5e8866385beb
     Pseudo is Projector augmented-wave + core cor, Zval = 10.0
     Generated using "atomic" code by A. Dal Corso  v.5.1
     Shape of augmentation charge: PSQ
     Using radial grid of 1251 points,  7 beta functions with:
                l(1) =   0
                l(2) =   0
                l(3) =   0
                l(4) =   1
                l(5) =   1
                l(6) =   2
                l(7) =   2
     Q(r) pseudized with 0 coefficients

     PseudoPot. # 2 for Ca read from file:
     /home/pragov/projects/rrg-bengioy-ad/pragov/crystal_structure_design/SSSP/Ca_pbe_v1.uspp.F.UPF
     MD5 check sum: 403a4c14b9e4d4dfdc3024c9a3812218
     Pseudo is Ultrasoft + core correction, Zval = 10.0
     Generated by new atomic code, or converted to UPF format
     Using radial grid of  845 points,  6 beta functions with:
                l(1) =   0
                l(2) =   0
                l(3) =   1
                l(4) =   1
                l(5) =   2
                l(6) =   2
     Q(r) pseudized with  8 coefficients,  rinner =    1.500   1.500   1.500
                                                       1.500   1.500

     atomic species   valence    mass     pseudopotential
        Ba            10.00   137.32700     Ba( 1.00)
        Ca            10.00    40.07800     Ca( 1.00)

      2 Sym. Ops., with inversion, found

                                    s                        frac. trans.

      isym =  1     identity

 cryst.   s( 1) = (     1          0          0      )
                  (     0          1          0      )
                  (     0          0          1      )

 cart.    s( 1) = (  1.0000000 -0.0000000  0.0000000 )
                  (  0.0000000  1.0000000 -0.0000000 )
                  (  0.0000000  0.0000000  1.0000000 )

      isym =  2     inversion

 cryst.   s( 2) = (    -1          0          0      )
                  (     0         -1          0      )
                  (     0          0         -1      )

 cart.    s( 2) = ( -1.0000000  0.0000000 -0.0000000 )
                  (  0.0000000 -1.0000000  0.0000000 )
                  (  0.0000000  0.0000000 -1.0000000 )

   Cartesian axes

     site n.     atom                  positions (alat units)
         1           Ba  tau(   1) = (   0.0000000   0.0000000   0.0000000  )
         2           Ca  tau(   2) = (   0.7148799   0.1090474   0.0639352  )
         3           Ca  tau(   3) = (   1.4545216   0.2218720   0.1300850  )
         4           Ca  tau(   4) = (   2.1941633   0.3346966   0.1962349  )

   Crystallographic axes

     site n.     atom                  positions (cryst. coord.)
         1           Ba  tau(   1) = (  0.0000000  0.0000000  0.0000000  )
         2           Ca  tau(   2) = (  0.2457440  0.2457440  0.2457440  )
         3           Ca  tau(   3) = (  0.5000000  0.5000000  0.5000000  )
         4           Ca  tau(   4) = (  0.7542560  0.7542560  0.7542560  )

     number of k points=     1  Methfessel-Paxton smearing, width (Ry)=  0.0010
                       cart. coord. in units 2pi/alat
        k(    1) = (   0.0000000   0.0000000   0.0000000), wk =   2.0000000

                       cryst. coord.
        k(    1) = (   0.0000000   0.0000000   0.0000000), wk =   2.0000000

     Initial potential from superposition of free atoms

     starting charge      39.9666, renormalised to      40.0000
     Starting wfcs are   35 randomized atomic wfcs
     Checking if some PAW data can be deallocated...

     Self-consistent Calculation

     iteration #  1     ecut=    30.00 Ry     beta= 0.70
     Davidson diagonalization with overlap

     ethr =  1.00E-02,  avg # of iterations =  2.0

     Threshold (ethr) on eigenvalues was too large:
     Diagonalizing with lowered threshold

     Davidson diagonalization with overlap

[...]

     total energy              =    -661.49330202 Ry
     estimated scf accuracy    <       0.15047771 Ry

[...]

     total energy              =    -661.57900468 Ry
     estimated scf accuracy    <       0.00001835 Ry

     iteration # 15     ecut=    30.00 Ry     beta= 0.70
     Davidson diagonalization with overlap

     ethr =  4.37E-09,  avg # of iterations =  4.0

     End of self-consistent calculation

          k = 0.0000 0.0000 0.0000 (  1726 PWs)   bands (ev):

   -36.8841 -36.8690 -36.8673 -22.5485 -17.9110 -17.8602 -17.8139 -17.8023
   -17.8023 -17.7806 -17.7806 -17.7776 -17.7776  -7.9809  -7.3108  -7.3108
     1.6752   2.7125   3.1242   4.6745   5.7667   6.5511   6.9082   7.5277

     occupation numbers
     1.0000   1.0000   1.0000   1.0000   1.0000   1.0000   1.0000   1.0000
     1.0000   1.0000   1.0000   1.0000   1.0000   1.0000   1.0000   1.0000
     1.0000   1.0000   1.0000   1.0000  -0.0000  -0.0000  -0.0000  -0.0000

     the Fermi energy is     4.8710 ev

!    total energy              =    -661.57900465 Ry
     estimated scf accuracy    <       0.00000083 Ry
     smearing contrib. (-TS)   =       0.00000000 Ry
     internal energy E=F+TS    =    -661.57900465 Ry

     The total energy is F=E-TS. E is the sum of the following terms:
     one-electron contribution =    -130.37911524 Ry
     hartree contribution      =      69.30670255 Ry
     xc contribution           =     -55.55211376 Ry
     ewald contribution        =    -169.98321474 Ry
     one-center paw contrib.   =    -374.97126345 Ry
      -> PAW hartree energy AE =      29.06955019 Ry
      -> PAW hartree energy PS =     -28.97402280 Ry
      -> PAW xc energy AE      =    -394.31604484 Ry
      -> PAW xc energy PS      =      19.24925399 Ry
      -> total E_H with PAW    =      69.40222994 Ry
      -> total E_XC with PAW   =    -430.61890461 Ry

     convergence has been achieved in  15 iterations

     Forces acting on atoms (cartesian axes, Ry/au):

     atom    1 type  1   force =     0.00000000    0.00000000    0.00000000
     atom    2 type  2   force =     0.00139839    0.00021282    0.00012465
     atom    3 type  2   force =     0.00000000    0.00000000    0.00000000
     atom    4 type  2   force =    -0.00139839   -0.00021282   -0.00012465
     The non-local contrib.  to forces
     atom    1 type  1   force =     0.00000000    0.00000000    0.00000000
     atom    2 type  2   force =     0.00507081    0.00077395    0.00045363
     atom    3 type  2   force =     0.00000000    0.00000000    0.00000000
     atom    4 type  2   force =    -0.00507081   -0.00077395   -0.00045363
     The ionic contribution  to forces
     atom    1 type  1   force =    -0.00000000   -0.00000000   -0.00000000
     atom    2 type  2   force =     2.41222269    0.36795930    0.21573634
     atom    3 type  2   force =     0.00000000   -0.00000000    0.00000000
     atom    4 type  2   force =    -2.41222269   -0.36795930   -0.21573634
     The local contribution  to forces
     atom    1 type  1   force =    -0.00089937   -0.00068821    0.00113257
     atom    2 type  2   force =    -2.41575329   -0.36849178   -0.21605339
     atom    3 type  2   force =    -0.00013087   -0.00002556   -0.00001593
     atom    4 type  2   force =     2.41596669    0.36853013    0.21607533
     The core correction contribution to forces
     atom    1 type  1   force =    -0.00000652   -0.00000931    0.00001586
     atom    2 type  2   force =    -0.00000235   -0.00000025   -0.00000020
     atom    3 type  2   force =    -0.00000245   -0.00000048   -0.00000022
     atom    4 type  2   force =     0.00000426    0.00000064    0.00000044
     The Hubbard contrib.    to forces
     atom    1 type  1   force =     0.00000000    0.00000000    0.00000000
     atom    2 type  2   force =     0.00000000    0.00000000    0.00000000
     atom    3 type  2   force =     0.00000000    0.00000000    0.00000000
     atom    4 type  2   force =     0.00000000    0.00000000    0.00000000
     The SCF correction term to forces
     atom    1 type  1   force =     0.00019750    0.00010450   -0.00014823
     atom    2 type  2   force =    -0.00013663   -0.00002854   -0.00001020
     atom    3 type  2   force =     0.00011585    0.00002081    0.00001210
     atom    4 type  2   force =    -0.00007299   -0.00001047   -0.00000892

     Total force =     0.002008     Total SCF correction =     0.000333
     SCF correction compared to forces is large: reduce conv_thr to get better values

     Computing stress (Cartesian axis) and pressure

          total   stress  (Ry/bohr**3)                   (kbar)     P=       12.00
   0.00038377   0.00007025   0.00004119           56.46       10.33        6.06
   0.00007025  -0.00006606   0.00000628           10.33       -9.72        0.92
   0.00004119   0.00000628  -0.00007309            6.06        0.92      -10.75

     kinetic stress (kbar)   6218.04    -14.17     -8.31
                              -14.17   6308.75     -1.27
                               -8.31     -1.27   6310.17

     local   stress (kbar)  -2589.29    103.61     60.75
                              103.61  -3252.73      9.27
                               60.75      9.27  -3263.10

     nonloc. stress (kbar)   2556.60     17.72     10.39
                               17.72   2443.13      1.58
                               10.39      1.58   2441.35

     hartree stress (kbar)   2468.13    -63.96    -37.50
                              -63.96   2877.69     -5.72
                              -37.50     -5.72   2884.09

     exc-cor stress (kbar)    409.62     -0.63     -0.37
                               -0.63    413.67     -0.06
                               -0.37     -0.06    413.73

     corecor stress (kbar)  -2142.16     -0.58     -0.34
                               -0.58  -2138.43     -0.05
                               -0.34     -0.05  -2138.37

     ewald   stress (kbar)  -6864.48    -31.65    -18.56
                              -31.65  -6661.79     -2.83
                              -18.56     -2.83  -6658.62

     hubbard stress (kbar)      0.00      0.00      0.00
                                0.00      0.00      0.00
                                0.00      0.00      0.00

     DFT-D   stress (kbar)      0.00      0.00      0.00
                                0.00      0.00      0.00
                                0.00      0.00      0.00

     XDM     stress (kbar)      0.00      0.00      0.00
                                0.00      0.00      0.00
                                0.00      0.00      0.00

     dft-nl  stress (kbar)      0.00      0.00      0.00
                                0.00      0.00      0.00
                                0.00      0.00      0.00

     TS-vdW  stress (kbar)      0.00      0.00      0.00
                                0.00      0.00      0.00
                                0.00      0.00      0.00

[...]

                                0.00      0.00      0.00

     Writing all to output data dir new_calculations/myprefix.save/

     General routines

     Parallel routines

     PAW routines

   This run was terminated on:  15: 6:29  20May2023

   JOB DONE.