     Program PWSCF v.7.0 starts on 20May2023 at 14:59:46

     Reading input from espresso_7457.pwi
Warning: card &CELL ignored
Warning: card / ignored

     Current dimensions of program PWSCF are:
     Max number of different atomic species (ntypx) = 10
     Max number of k-points (npk) =  40000
     Max angular momentum in pseudopotentials (lmaxx) =  4

     gamma-point specific algorithms are used
     Message from routine setup:
     using ibrav=0 with symmetry is DISCOURAGED, use correct ibrav instead

     Subspace diagonalization in iterative solution of the eigenvalue problem:
     a serial algorithm will be used

     Using Slab Decomposition

     bravais-lattice index     =            0
     lattice parameter (alat)  =       9.2184  a.u.
     unit-cell volume          =    1087.7210 (a.u.)^3
     number of atoms/cell      =            6
     number of atomic types    =            3
     number of electrons       =       116.00
     number of Kohn-Sham states=           70
     kinetic-energy cutoff     =      30.0000  Ry
     charge density cutoff     =     240.0000  Ry
     scf convergence threshold =      1.0E-06
     mixing beta               =       0.7000
     number of iterations used =            8  plain     mixing
     Exchange-correlation= SLA  PW   PBE  PBE
                           (   1   4   3   4   0   0   0)

     celldm(1)=   9.218357  celldm(2)=   0.000000  celldm(3)=   0.000000
     celldm(4)=   0.000000  celldm(5)=   0.000000  celldm(6)=   0.000000

     crystal axes: (cart. coord. in units of alat)
               a(1) = (   1.000000   0.000000   0.000000 )
               a(2) = (  -0.500000   0.866025   0.000000 )
               a(3) = (   0.000000   0.000000   1.603343 )

     reciprocal axes: (cart. coord. in units 2 pi/alat)
               b(1) = (  1.000000  0.577350  0.000000 )
               b(2) = (  0.000000  1.154701  0.000000 )
               b(3) = (  0.000000  0.000000  0.623697 )

     PseudoPot. # 1 for Yb read from file:
     /home/pragov/projects/rrg-bengioy-ad/pragov/crystal_structure_design/SSSP/Yb.GGA-PBE-paw-v1.0.UPF
     MD5 check sum: 43b6465ad8021f06e3edb42ae292e187
     Pseudo is Projector augmented-wave + core cor, Zval = 24.0
     Generated using ATOMPAW code
     Shape of augmentation charge: BESSEL
     Using radial grid of 1117 points,  8 beta functions with:
                l(1) =   0
                l(2) =   0
                l(3) =   1
                l(4) =   1
                l(5) =   2
                l(6) =   2
                l(7) =   3
                l(8) =   3
     Q(r) pseudized with 0 coefficients

     PseudoPot. # 2 for Ag read from file:
     /home/pragov/projects/rrg-bengioy-ad/pragov/crystal_structure_design/SSSP/Ag_ONCV_PBE-1.0.oncvpsp.upf
     MD5 check sum: 94f47bd0669c641108e45594df92fabc
     Pseudo is Norm-conserving, Zval = 19.0
     Generated using ONCVPSP code by D. R. Hamann
     Using radial grid of 1398 points,  6 beta functions with:
                l(1) =   0
                l(2) =   0
                l(3) =   1
                l(4) =   1
                l(5) =   2
                l(6) =   2

     PseudoPot. # 3 for Bi read from file:
     /home/pragov/projects/rrg-bengioy-ad/pragov/crystal_structure_design/SSSP/Bi_pbe_v1.uspp.F.UPF
     MD5 check sum: cceb9f28ec65b6d7ff33140f5b0b1758
     Pseudo is Ultrasoft + core correction, Zval = 15.0
     Generated by new atomic code, or converted to UPF format
     Using radial grid of  899 points,  6 beta functions with:
                l(1) =   0
                l(2) =   0
                l(3) =   1
                l(4) =   1
                l(5) =   2
                l(6) =   2
     Q(r) pseudized with  6 coefficients,  rinner =    1.000   1.000   1.000
                                                       1.000   1.000

     atomic species   valence    mass     pseudopotential
        Yb            24.00   173.05400     Yb( 1.00)
        Ag            19.00   107.86820     Ag( 1.00)
        Bi            15.00   208.98040     Bi( 1.00)

     12 Sym. Ops. (no inversion) found ( 6 have fractional translation)

                                    s                        frac. trans.

      isym =  1     identity

 cryst.   s( 1) = (     1          0          0      )
                  (     0          1          0      )
                  (     0          0          1      )

 cart.    s( 1) = (  1.0000000  0.0000000  0.0000000 )
                  (  0.0000000  1.0000000  0.0000000 )
                  (  0.0000000  0.0000000  1.0000000 )

      isym =  2     180 deg rotation - cart. axis [0,0,1]

 cryst.   s( 2) = (    -1          0          0      )    f =(  0.0000000 )
                  (     0         -1          0      )       (  0.0000000 )
                  (     0          0          1      )       ( -0.5000000 )

 cart.    s( 2) = ( -1.0000000 -0.0000000  0.0000000 )    f =(  0.0000000 )
                  (  0.0000000 -1.0000000  0.0000000 )       (  0.0000000 )
                  (  0.0000000  0.0000000  1.0000000 )       ( -0.8016713 )

      isym =  3      60 deg rotation - cryst. axis [0,0,1]

[...]

      isym =  6     120 deg rotation - cryst. axis [0,0,-1]

[...]

      isym =  7     inv. 180 deg rotation - cart. axis [0,1,0]

[...]

      isym =  8     inv. 180 deg rotation - cart. axis [1,0,0]

 cryst.   s( 8) = (    -1          0          0      )
                  (     1          1          0      )
                  (     0          0          1      )

 cart.    s( 8) = ( -1.0000000 -0.0000002  0.0000000 )
                  (  0.0000000  1.0000000  0.0000000 )
                  (  0.0000000  0.0000000  1.0000000 )

      isym =  9     inv. 180 deg rotation - cryst. axis [1,-1,0]

 cryst.   s( 9) = (     0          1          0      )    f =(  0.0000000 )
                  (     1          0          0      )       (  0.0000000 )
                  (     0          0          1      )       ( -0.5000000 )

 cart.    s( 9) = ( -0.5000001  0.8660254  0.0000000 )    f =(  0.0000000 )
                  (  0.8660254  0.5000001  0.0000000 )       (  0.0000000 )
                  (  0.0000000  0.0000000  1.0000000 )       ( -0.8016713 )

[...]

 cryst.   s(10) = (    -1         -1          0      )    f =(  0.0000000 )
                  (     0          1          0      )       (  0.0000000 )
                  (     0          0          1      )       ( -0.5000000 )

 cart.    s(10) = ( -0.4999999 -0.8660255  0.0000000 )    f =(  0.0000000 )
                  ( -0.8660254  0.4999999  0.0000000 )       (  0.0000000 )
                  (  0.0000000  0.0000000  1.0000000 )       ( -0.8016713 )

[...]

 cryst.   s(11) = (     1          1          0      )
                  (     0         -1          0      )
                  (     0          0          1      )

 cart.    s(11) = (  0.4999999  0.8660255  0.0000000 )
                  (  0.8660254 -0.4999999  0.0000000 )
                  (  0.0000000  0.0000000  1.0000000 )

      isym = 12     inv. 180 deg rotation - cryst. axis [1,1,0]

 cryst.   s(12) = (     0         -1          0      )
                  (    -1          0          0      )
                  (     0          0          1      )

 cart.    s(12) = (  0.5000001 -0.8660254  0.0000000 )
                  ( -0.8660254 -0.5000001  0.0000000 )
                  (  0.0000000  0.0000000  1.0000000 )

   Cartesian axes

     site n.     atom                  positions (alat units)
         1           Yb  tau(   1) = (   0.0000000   0.0000000   0.4021392  )
         2           Yb  tau(   2) = (   0.0000000   0.0000000   1.2038105  )
         3           Ag  tau(   3) = (  -0.0000005   0.5773505   0.6912748  )
         4           Ag  tau(   4) = (   0.5000005   0.2886748   1.4929461  )
         5           Bi  tau(   5) = (  -0.0000005   0.5773505   0.0545794  )
         6           Bi  tau(   6) = (   0.5000005   0.2886748   0.8562507  )

   Crystallographic axes

     site n.     atom                  positions (cryst. coord.)
         1           Yb  tau(   1) = (  0.0000000  0.0000000  0.2508130  )
         2           Yb  tau(   2) = (  0.0000000  0.0000000  0.7508130  )
         3           Ag  tau(   3) = (  0.3333330  0.6666670  0.4311460  )
         4           Ag  tau(   4) = (  0.6666670  0.3333330  0.9311460  )
         5           Bi  tau(   5) = (  0.3333330  0.6666670  0.0340410  )
         6           Bi  tau(   6) = (  0.6666670  0.3333330  0.5340410  )

     number of k points=     1  Methfessel-Paxton smearing, width (Ry)=  0.0010
                       cart. coord. in units 2pi/alat
        k(    1) = (   0.0000000   0.0000000   0.0000000), wk =   2.0000000

                       cryst. coord.
        k(    1) = (   0.0000000   0.0000000   0.0000000), wk =   2.0000000

     Check: negative core charge=   -0.000004

     Initial potential from superposition of free atoms

     starting charge     113.9913, renormalised to     116.0000

     negative rho (up, down):  8.669E-02 0.000E+00
     Starting wfcs are  102 randomized atomic wfcs
     Checking if some PAW data can be deallocated...

     Self-consistent Calculation

     iteration #  1     ecut=    30.00 Ry     beta= 0.70
     Davidson diagonalization with overlap

     ethr =  1.00E-02,  avg # of iterations =  3.0

     negative rho (up, down):  9.006E-02 0.000E+00

     total energy              =   -2964.40912805 Ry
     estimated scf accuracy    <       2.26023765 Ry

[...]

     total energy              =   -2966.27457694 Ry
     estimated scf accuracy    <       0.00000395 Ry

     iteration # 31     ecut=    30.00 Ry     beta= 0.70
     Davidson diagonalization with overlap

     ethr =  1.14E-09,  avg # of iterations =  2.0

[...]

     End of self-consistent calculation

          k = 0.0000 0.0000 0.0000 (  1495 PWs)   bands (ev):

   -80.5831 -80.5825 -43.6664 -43.6664 -43.6613 -43.6613 -43.4462 -43.4424
   -38.6564 -38.6539 -11.0234 -10.9120 -10.8823 -10.8823 -10.8711 -10.8711
    -8.8896  -8.8896  -8.8833  -8.8833  -8.8286  -8.8286  -8.8176  -8.8176
    -8.8046  -8.8025   1.9274   2.5708   7.8314   7.8314   7.8425   7.8425
     8.2305   8.3531   8.3531   8.4212   8.4212   8.4735   8.9849  12.0892
    12.0892  12.3916  12.5704  12.5705  12.7271  12.7550  12.7550  12.7626
    12.7793  12.7793  12.8234  12.8259  12.8259  12.8725  12.8742  12.8887
    13.8856  13.8955  13.9050  13.9050  14.4885  14.8452  14.8453  15.7046
    15.7046  17.3570  17.3570  17.7723  17.7724  18.2502

     occupation numbers
     1.0000   1.0000   1.0000   1.0000   1.0000   1.0000   1.0000   1.0000
     1.0000   1.0000   1.0000   1.0000   1.0000   1.0000   1.0000   1.0000
     1.0000   1.0000   1.0000   1.0000   1.0000   1.0000   1.0000   1.0000
     1.0000   1.0000   1.0000   1.0000   1.0000   1.0000   1.0000   1.0000
     1.0000   1.0000   1.0000   1.0000   1.0000   1.0000   1.0000   1.0000
     1.0000   1.0000   1.0000   1.0000   1.0000   1.0000   1.0000   1.0000
     1.0000   1.0000   1.0000   1.0000   1.0000   1.0000   1.0000   1.0000
     1.0195   0.6860   0.1480   0.1465  -0.0000  -0.0000  -0.0000  -0.0000
    -0.0000  -0.0000  -0.0000  -0.0000  -0.0000  -0.0000

     the Fermi energy is    13.8986 ev

!    total energy              =   -2966.27457684 Ry
     estimated scf accuracy    <       0.00000041 Ry
     smearing contrib. (-TS)   =      -0.00040107 Ry
     internal energy E=F+TS    =   -2966.27417577 Ry

     The total energy is F=E-TS. E is the sum of the following terms:
     one-electron contribution =   -1148.54199625 Ry
     hartree contribution      =     563.65824961 Ry
     xc contribution           =    -259.69043034 Ry
     ewald contribution        =   -1153.02792321 Ry
     one-center paw contrib.   =    -968.67207558 Ry
      -> PAW hartree energy AE =     899.35735880 Ry
      -> PAW hartree energy PS =    -772.77051073 Ry
      -> PAW xc energy AE      =   -1169.57771955 Ry
      -> PAW xc energy PS      =      74.31879591 Ry
      -> total E_H with PAW    =     690.24509768 Ry
      -> total E_XC with PAW   =   -1354.94935398 Ry

     convergence has been achieved in  31 iterations

     negative rho (up, down):  8.772E-02 0.000E+00

     Forces acting on atoms (cartesian axes, Ry/au):

     atom    1 type  1   force =     0.00000000   -0.00000000   -0.04940742
     atom    2 type  1   force =     0.00000000    0.00000000   -0.04940742
     atom    3 type  2   force =    -0.00000000   -0.00000000   -0.01275674
     atom    4 type  2   force =     0.00000000    0.00000000   -0.01275674
     atom    5 type  3   force =     0.00000000    0.00000000    0.06216416
     atom    6 type  3   force =     0.00000000    0.00000000    0.06216416
     The non-local contrib.  to forces
     atom    1 type  1   force =    -0.00000000   -0.00000000   -0.05067796
     atom    2 type  1   force =     0.00000000    0.00000000   -0.05067796
     atom    3 type  2   force =     0.00000000    0.00000000   -0.04340960
     atom    4 type  2   force =     0.00000000    0.00000000   -0.04340960
     atom    5 type  3   force =     0.00000000    0.00000000    0.14244884
     atom    6 type  3   force =     0.00000000    0.00000000    0.14244884
     The ionic contribution  to forces
     atom    1 type  1   force =    -0.00002690    0.00001553   -3.48987961
     atom    2 type  1   force =     0.00002690   -0.00001553   -3.48987961
     atom    3 type  2   force =     0.00010193   -0.00005885    5.13094049
     atom    4 type  2   force =    -0.00010193    0.00005885    5.13094049
     atom    5 type  3   force =     0.00009016   -0.00005206   -1.64106088
     atom    6 type  3   force =    -0.00009016    0.00005205   -1.64106088
     The local contribution  to forces
     atom    1 type  1   force =     0.00035397   -0.00005352    3.49223414
     atom    2 type  1   force =    -0.00009344    0.00003196    3.49029528
     atom    3 type  2   force =    -0.00012704   -0.00066167   -5.09984547
     atom    4 type  2   force =     0.00039337    0.00030479   -5.10202632
     atom    5 type  3   force =    -0.00018177    0.00055645    1.56440492
     atom    6 type  3   force =    -0.00054316    0.00032024    1.56528881
     The core correction contribution to forces
     atom    1 type  1   force =     0.00000000    0.00000000   -0.00000039
     atom    2 type  1   force =    -0.00000000    0.00000000   -0.00000039
     atom    3 type  2   force =     0.00000000    0.00000000    0.00000000
     atom    4 type  2   force =     0.00000000    0.00000000    0.00000000
     atom    5 type  3   force =     0.00000150    0.00002391   -0.00410272
     atom    6 type  3   force =    -0.00003568    0.00001770   -0.00408962
     The Hubbard contrib.    to forces
     atom    1 type  1   force =     0.00000000    0.00000000    0.00000000
     atom    2 type  1   force =     0.00000000    0.00000000    0.00000000
     atom    3 type  2   force =     0.00000000    0.00000000    0.00000000
     atom    4 type  2   force =     0.00000000    0.00000000    0.00000000
     atom    5 type  3   force =     0.00000000    0.00000000    0.00000000
     atom    6 type  3   force =     0.00000000    0.00000000    0.00000000
     The SCF correction term to forces
     atom    1 type  1   force =    -0.00030643    0.00007664   -0.00112855
     atom    2 type  1   force =     0.00008331   -0.00005840    0.00088502
     atom    3 type  2   force =     0.00002341    0.00057639   -0.00045569
     atom    4 type  2   force =    -0.00022087   -0.00029537    0.00173700
     atom    5 type  3   force =     0.00014577   -0.00030912    0.00038123
     atom    6 type  3   force =     0.00029392   -0.00022344   -0.00034542

     Total force =     0.113738     Total SCF correction =     0.002526

     Computing stress (Cartesian axis) and pressure

     negative rho (up, down):  8.772E-02 0.000E+00
          total   stress  (Ry/bohr**3)                   (kbar)     P=     -251.13
  -0.00115241  -0.00000000   0.00000000         -169.53       -0.00        0.00
  -0.00000000  -0.00115241   0.00000000           -0.00     -169.53        0.00
   0.00000000   0.00000000  -0.00281663            0.00        0.00     -414.34

     kinetic stress (kbar)  23371.59      0.00     -0.00
                                0.00  23371.59     -0.00
                               -0.00     -0.00  23365.14

     local   stress (kbar)  -3934.85      0.36     -0.44
                                0.36  -3933.67      0.54
                               -0.44      0.54   3941.01

     nonloc. stress (kbar)  12514.28      0.00      0.00
                                0.00  12514.28      0.00
                                0.00      0.00  12485.25

     hartree stress (kbar)  26377.49     -0.16      0.19
                               -0.16  26377.04     -0.23
                                0.19     -0.23  23475.49

     exc-cor stress (kbar)   4680.72     -0.00      0.00
                               -0.00   4680.71     -0.01
                                0.00     -0.01   4677.66

     corecor stress (kbar) -12926.39      0.00     -0.01
                                0.00 -12926.37      0.01
                               -0.01      0.01 -12927.05

     ewald   stress (kbar) -50252.72     -0.01      0.00
                               -0.01 -50252.73     -0.00
                                0.00     -0.00 -55431.84

     hubbard stress (kbar)      0.00      0.00      0.00
                                0.00      0.00      0.00
                                0.00      0.00      0.00

     DFT-D   stress (kbar)      0.00      0.00      0.00
                                0.00      0.00      0.00
                                0.00      0.00      0.00

     XDM     stress (kbar)      0.00      0.00      0.00
                                0.00      0.00      0.00
                                0.00      0.00      0.00

     dft-nl  stress (kbar)      0.00      0.00      0.00
                                0.00      0.00      0.00
                                0.00      0.00      0.00

     TS-vdW  stress (kbar)      0.00      0.00      0.00
                                0.00      0.00      0.00
                                0.00      0.00      0.00

[...]

                                0.00      0.00      0.00

     Writing all to output data dir new_calculations/myprefix.save/

     General routines

     Parallel routines

     PAW routines

   This run was terminated on:  15: 0:38  20May2023

   JOB DONE.