     Program PWSCF v.7.0 starts on 21May2023 at  0:49:36

     Reading input from espresso_2810.pwi
Warning: card &CELL ignored
Warning: card / ignored

     Current dimensions of program PWSCF are:
     Max number of different atomic species (ntypx) = 10
     Max number of k-points (npk) =  40000
     Max angular momentum in pseudopotentials (lmaxx) =  4
     file Cd.pbe-dn-rrkjus_psl.0.3.1.UPF: wavefunction(s)  4D renormalized
     file O.pbe-n-kjpaw_psl.0.1.UPF: wavefunction(s)  2P renormalized

     gamma-point specific algorithms are used
     Message from routine setup:
     using ibrav=0 with symmetry is DISCOURAGED, use correct ibrav instead

     Subspace diagonalization in iterative solution of the eigenvalue problem:
     a serial algorithm will be used

     Using Slab Decomposition

     bravais-lattice index     =            0
     lattice parameter (alat)  =      11.0150  a.u.
     unit-cell volume          =    1988.1171 (a.u.)^3
     number of atoms/cell      =           20
     number of atomic types    =            4
     number of electrons       =       164.00
     number of Kohn-Sham states=           98
     kinetic-energy cutoff     =      30.0000  Ry
     charge density cutoff     =     240.0000  Ry
     scf convergence threshold =      1.0E-06
     mixing beta               =       0.7000
     number of iterations used =            8  plain     mixing
     Exchange-correlation= SLA  PW   PBX  PBC
                           (   1   4   3   4   0   0   0)

     celldm(1)=  11.014981  celldm(2)=   0.000000  celldm(3)=   0.000000
     celldm(4)=   0.000000  celldm(5)=   0.000000  celldm(6)=   0.000000

     crystal axes: (cart. coord. in units of alat)
               a(1) = (   1.000000   0.000000   0.000000 )
               a(2) = (   0.000000   1.040307   0.000000 )
               a(3) = (   0.000000   0.000000   1.429977 )

     reciprocal axes: (cart. coord. in units 2 pi/alat)
               b(1) = (  1.000000  0.000000  0.000000 )
               b(2) = (  0.000000  0.961254  0.000000 )
               b(3) = (  0.000000  0.000000  0.699312 )

     PseudoPot. # 1 for Sr read from file:
     /home/pragov/projects/rrg-bengioy-ad/pragov/crystal_structure_design/SSSP/Sr_pbe_v1.uspp.F.UPF
     MD5 check sum: 6b418c05fbe9db5448babca5e47b7a5b
     Pseudo is Ultrasoft + core correction, Zval = 10.0
     Generated by new atomic code, or converted to UPF format
     Using radial grid of  883 points,  6 beta functions with:
                l(1) =   0
                l(2) =   0
                l(3) =   1
                l(4) =   1
                l(5) =   2
                l(6) =   2
     Q(r) pseudized with  6 coefficients,  rinner =    1.400   1.400   1.400
                                                       1.400   1.400

     PseudoPot. # 2 for Cd read from file:
     /home/pragov/projects/rrg-bengioy-ad/pragov/crystal_structure_design/SSSP/Cd.pbe-dn-rrkjus_psl.0.3.1.UPF
     MD5 check sum: 558e9f355611b531a870a69ef6ace9e2
     Pseudo is Ultrasoft + core correction, Zval = 12.0
     Generated using "atomic" code by A. Dal Corso  v.5.0.99 svn rev. 10869
     Using radial grid of 1239 points,  6 beta functions with:
                l(1) =   0
                l(2) =   0
                l(3) =   1
                l(4) =   1
                l(5) =   2
                l(6) =   2
     Q(r) pseudized with 0 coefficients

     PseudoPot. # 3 for W  read from file:
     /home/pragov/projects/rrg-bengioy-ad/pragov/crystal_structure_design/SSSP/W_pbe_v1.2.uspp.F.UPF
     MD5 check sum: 9c083fa34c2a2ea0f02f1f893e16e1c8
     Pseudo is Ultrasoft + core correction, Zval = 14.0
     Generated by new atomic code, or converted to UPF format
     Using radial grid of  923 points,  8 beta functions with:
                l(1) =   0
                l(2) =   0
                l(3) =   0
                l(4) =   1
                l(5) =   1
                l(6) =   2
                l(7) =   2
                l(8) =   3
     Q(r) pseudized with  6 coefficients,  rinner =    1.350   1.350   1.350
                                                       1.350   1.350   1.350
                                                       1.350

     PseudoPot. # 4 for O  read from file:
     /home/pragov/projects/rrg-bengioy-ad/pragov/crystal_structure_design/SSSP/O.pbe-n-kjpaw_psl.0.1.UPF
     MD5 check sum: 0234752ac141de4415c5fc33072bef88
     Pseudo is Projector augmented-wave + core cor, Zval =  6.0
     Generated using "atomic" code by A. Dal Corso  v.5.0.99 svn rev. 10869
     Shape of augmentation charge: BESSEL
     Using radial grid of 1095 points,  4 beta functions with:
                l(1) =   0
                l(2) =   0
                l(3) =   1
                l(4) =   1
     Q(r) pseudized with 0 coefficients

     atomic species   valence    mass     pseudopotential
        Sr            10.00    87.62000     Sr( 1.00)
        Cd            12.00   112.41400     Cd( 1.00)
        W             14.00   183.84000     W ( 1.00)
        O              6.00    15.99900     O ( 1.00)

      8 Sym. Ops., with inversion, found ( 4 have fractional translation)

                                    s                        frac. trans.

      isym =  1     identity

 cryst.   s( 1) = (     1          0          0      )
                  (     0          1          0      )
                  (     0          0          1      )

 cart.    s( 1) = (  1.0000000  0.0000000  0.0000000 )
                  (  0.0000000  1.0000000  0.0000000 )
                  (  0.0000000  0.0000000  1.0000000 )

      isym =  2     180 deg rotation - cart. axis [0,0,1]

 cryst.   s( 2) = (    -1          0          0      )    f =(  0.5000000 )
                  (     0         -1          0      )       (  0.0000000 )
                  (     0          0          1      )       (  0.5000000 )

 cart.    s( 2) = ( -1.0000000  0.0000000  0.0000000 )    f =(  0.5000000 )
                  (  0.0000000 -1.0000000  0.0000000 )       (  0.0000000 )
                  (  0.0000000  0.0000000  1.0000000 )       (  0.7149884 )

[...]

      isym =  4     180 deg rotation - cart. axis [1,0,0]

[...]

      isym =  5     inversion

[...]

      isym =  6     inv. 180 deg rotation - cart. axis [0,0,1]

[...]

 cryst.   s( 7) = (     1          0          0      )    f =(  0.5000000 )
                  (     0         -1          0      )       (  0.0000000 )
                  (     0          0          1      )       (  0.5000000 )

 cart.    s( 7) = (  1.0000000  0.0000000  0.0000000 )    f =(  0.5000000 )
                  (  0.0000000 -1.0000000  0.0000000 )       (  0.0000000 )
                  (  0.0000000  0.0000000  1.0000000 )       (  0.7149884 )

      isym =  8     inv. 180 deg rotation - cart. axis [1,0,0]

 cryst.   s( 8) = (    -1          0          0      )
                  (     0          1          0      )
                  (     0          0          1      )

 cart.    s( 8) = ( -1.0000000  0.0000000  0.0000000 )
                  (  0.0000000  1.0000000  0.0000000 )
                  (  0.0000000  0.0000000  1.0000000 )

   Cartesian axes

     site n.     atom                  positions (alat units)
         1           Sr  tau(   1) = (   0.5000000   0.8220551   1.0924508  )
         2           Sr  tau(   2) = (   0.5000000   0.8220551   0.3375260  )
         3           Sr  tau(   3) = (   0.0000000   0.2182523   1.0525144  )
         4           Sr  tau(   4) = (   0.0000000   0.2182523   0.3774624  )
         5           Cd  tau(   5) = (   0.0000000   0.7553214   0.7149884  )
         6           Cd  tau(   6) = (   0.5000000   0.2849860   0.0000000  )
         7           W   tau(   7) = (   0.5000000   0.2468473   0.7149884  )
         8           W   tau(   8) = (   0.0000000   0.7934602   0.0000000  )
         9           O   tau(   9) = (   0.5000000   0.2279168   1.0482273  )
        10           O   tau(  10) = (   0.5000000   0.2279168   0.3817495  )
        11           O   tau(  11) = (   0.0000000   0.8123906   1.0967379  )
        12           O   tau(  12) = (   0.0000000   0.8123906   0.3332389  )
        13           O   tau(  13) = (   0.7337470   0.0018174   0.7149884  )
        14           O   tau(  14) = (   0.2662530   0.0018174   0.7149884  )
        15           O   tau(  15) = (   0.7427670   0.4691963   0.7149884  )
        16           O   tau(  16) = (   0.2572330   0.4691963   0.7149884  )
        17           O   tau(  17) = (   0.2427670   0.5711111   0.0000000  )
        18           O   tau(  18) = (   0.7572330   0.5711111   0.0000000  )
        19           O   tau(  19) = (   0.7662530   1.0384900   0.0000000  )
        20           O   tau(  20) = (   0.2337470   1.0384900   0.0000000  )

   Crystallographic axes

     site n.     atom                  positions (cryst. coord.)
         1           Sr  tau(   1) = (  0.5000000  0.7902040  0.7639640  )
         2           Sr  tau(   2) = (  0.5000000  0.7902040  0.2360360  )
         3           Sr  tau(   3) = (  0.0000000  0.2097960  0.7360360  )
         4           Sr  tau(   4) = (  0.0000000  0.2097960  0.2639640  )
         5           Cd  tau(   5) = (  0.0000000  0.7260560  0.5000000  )
         6           Cd  tau(   6) = (  0.5000000  0.2739440  0.0000000  )
         7           W   tau(   7) = (  0.5000000  0.2372830  0.5000000  )
         8           W   tau(   8) = (  0.0000000  0.7627170  0.0000000  )
         9           O   tau(   9) = (  0.5000000  0.2190860  0.7330380  )
        10           O   tau(  10) = (  0.5000000  0.2190860  0.2669620  )
        11           O   tau(  11) = (  0.0000000  0.7809140  0.7669620  )
        12           O   tau(  12) = (  0.0000000  0.7809140  0.2330380  )
        13           O   tau(  13) = (  0.7337470  0.0017470  0.5000000  )
        14           O   tau(  14) = (  0.2662530  0.0017470  0.5000000  )
        15           O   tau(  15) = (  0.7427670  0.4510170  0.5000000  )
        16           O   tau(  16) = (  0.2572330  0.4510170  0.5000000  )
        17           O   tau(  17) = (  0.2427670  0.5489830  0.0000000  )
        18           O   tau(  18) = (  0.7572330  0.5489830  0.0000000  )
        19           O   tau(  19) = (  0.7662530  0.9982530  0.0000000  )
        20           O   tau(  20) = (  0.2337470  0.9982530  0.0000000  )

     number of k points=     1  Methfessel-Paxton smearing, width (Ry)=  0.0010
                       cart. coord. in units 2pi/alat
        k(    1) = (   0.0000000   0.0000000   0.0000000), wk =   2.0000000

                       cryst. coord.
        k(    1) = (   0.0000000   0.0000000   0.0000000), wk =   2.0000000

     Check: negative core charge=   -0.000009

     Initial potential from superposition of free atoms

     starting charge     163.6549, renormalised to     164.0000

     negative rho (up, down):  3.819E-01 0.000E+00
     Starting wfcs are  144 randomized atomic wfcs
     Checking if some PAW data can be deallocated...

     Self-consistent Calculation

     iteration #  1     ecut=    30.00 Ry     beta= 0.70
     Davidson diagonalization with overlap

[...]

[...]

     End of self-consistent calculation

          k = 0.0000 0.0000 0.0000 (  2754 PWs)   bands (ev):

   -65.9385 -65.9375 -30.1658 -30.1649 -30.1526 -30.1517 -30.1486 -30.1477
   -25.2892 -25.2782 -25.2678 -25.2587  -9.1138  -8.9794  -8.4363  -8.4111
    -8.2157  -8.2106  -8.1138  -7.8905  -7.8360  -7.8352  -7.7709  -7.6460
    -7.3738  -7.3437  -7.2488  -7.1998  -7.1947  -7.1229  -7.0539  -7.0246
    -6.9076  -6.7771  -6.7698  -6.7519   1.6698   1.6738   1.7133   1.7260
     2.0925   2.1710   2.2035   2.2251   2.2485   2.2592   2.9133   3.0389
     4.3714   4.7254   4.7342   4.7496   4.7649   4.8025   5.4937   5.5196
     5.6556   5.7356   5.7393   5.7824   5.8274   5.8919   6.1162   6.3113
     6.6290   6.7899   7.0064   7.1475   7.3427   7.3631   7.4395   7.4890
     7.6550   7.7101   7.7706   7.7721   7.8816   7.9246   8.3334   8.3997
     8.4005   8.4784  11.4840  11.7177  11.7300  11.7698  12.1678  12.2704
    12.4222  12.7152  13.3891  13.4431  14.1767  14.3107  14.4549  14.5378
    14.7584  15.4657

     occupation numbers
     1.0000   1.0000   1.0000   1.0000   1.0000   1.0000   1.0000   1.0000
     1.0000   1.0000   1.0000   1.0000   1.0000   1.0000   1.0000   1.0000
     1.0000   1.0000   1.0000   1.0000   1.0000   1.0000   1.0000   1.0000
     1.0000   1.0000   1.0000   1.0000   1.0000   1.0000   1.0000   1.0000
     1.0000   1.0000   1.0000   1.0000   1.0000   1.0000   1.0000   1.0000
     1.0000   1.0000   1.0000   1.0000   1.0000   1.0000   1.0000   1.0000
     1.0000   1.0000   1.0000   1.0000   1.0000   1.0000   1.0000   1.0000
     1.0000   1.0000   1.0000   1.0000   1.0000   1.0000   1.0000   1.0000
     1.0000   1.0000   1.0000   1.0000   1.0000   1.0000   1.0000   1.0000
     1.0000   1.0000   1.0000   1.0000   1.0000   1.0000   1.0000   1.0000
     1.0000   1.0000  -0.0000  -0.0000  -0.0000  -0.0000  -0.0000  -0.0000
    -0.0000  -0.0000  -0.0000  -0.0000  -0.0000  -0.0000  -0.0000  -0.0000
    -0.0000  -0.0000

     the Fermi energy is    10.4970 ev

!    total energy              =   -1343.92110511 Ry
     estimated scf accuracy    <       0.00000034 Ry
     smearing contrib. (-TS)   =       0.00000000 Ry
     internal energy E=F+TS    =   -1343.92110511 Ry

     The total energy is F=E-TS. E is the sum of the following terms:
     one-electron contribution =    -363.98599518 Ry
     hartree contribution      =     283.77132793 Ry
     xc contribution           =    -331.03521171 Ry
     ewald contribution        =    -818.43520942 Ry
     one-center paw contrib.   =    -114.23601672 Ry
      -> PAW hartree energy AE =     356.86289885 Ry
      -> PAW hartree energy PS =    -355.59016623 Ry
      -> PAW xc energy AE      =    -206.21168993 Ry
      -> PAW xc energy PS      =      90.70294059 Ry
      -> total E_H with PAW    =     285.04406055 Ry
      -> total E_XC with PAW   =    -446.54396105 Ry

     convergence has been achieved in  12 iterations

     negative rho (up, down):  3.908E-01 0.000E+00

     Forces acting on atoms (cartesian axes, Ry/au):

     atom    1 type  1   force =    -0.00000000    0.01037077    0.01317767
     atom    2 type  1   force =     0.00000000    0.01037077   -0.01317767
     atom    3 type  1   force =     0.00000000   -0.01037077   -0.01317767
     atom    4 type  1   force =     0.00000000   -0.01037077    0.01317767
     atom    5 type  2   force =    -0.00000000    0.00669761    0.00000000
     atom    6 type  2   force =     0.00000000   -0.00669761    0.00000000
     atom    7 type  3   force =    -0.00000000    0.00110569    0.00000000
     atom    8 type  3   force =     0.00000000   -0.00110569    0.00000000
     atom    9 type  4   force =     0.00000000    0.00935835   -0.02565053
     atom   10 type  4   force =     0.00000000    0.00935835    0.02565053
     atom   11 type  4   force =     0.00000000   -0.00935835    0.02565053
     atom   12 type  4   force =     0.00000000   -0.00935835   -0.02565053
     atom   13 type  4   force =     0.00090774    0.00020462    0.00000000
     atom   14 type  4   force =    -0.00090774    0.00020462    0.00000000
     atom   15 type  4   force =    -0.01169539   -0.00694779    0.00000000
     atom   16 type  4   force =     0.01169539   -0.00694779    0.00000000
     atom   17 type  4   force =    -0.01169539    0.00694779    0.00000000
     atom   18 type  4   force =     0.01169539    0.00694779    0.00000000
     atom   19 type  4   force =    -0.00090774   -0.00020462    0.00000000
     atom   20 type  4   force =     0.00090774   -0.00020462    0.00000000
     The non-local contrib.  to forces
     atom    1 type  1   force =     0.00000000   -0.02870871   -0.01810495
     atom    2 type  1   force =    -0.00000000   -0.02870871    0.01810495
     atom    3 type  1   force =     0.00000000    0.02870871    0.01810495
     atom    4 type  1   force =     0.00000000    0.02870871   -0.01810495
     atom    5 type  2   force =    -0.00000000   -0.02551158    0.00000000
     atom    6 type  2   force =     0.00000000    0.02551158    0.00000000
     atom    7 type  3   force =     0.00000000    0.01913755    0.00000000
     atom    8 type  3   force =     0.00000000   -0.01913755    0.00000000
     atom    9 type  4   force =     0.00000000    0.02125000   -0.40192536
     atom   10 type  4   force =     0.00000000    0.02125000    0.40192536
     atom   11 type  4   force =    -0.00000000   -0.02125000    0.40192536
     atom   12 type  4   force =     0.00000000   -0.02125000   -0.40192536
     atom   13 type  4   force =    -0.22917117    0.28330137    0.00000000
     atom   14 type  4   force =     0.22917117    0.28330137    0.00000000
     atom   15 type  4   force =    -0.26237451   -0.27790609    0.00000000
     atom   16 type  4   force =     0.26237451   -0.27790609    0.00000000
     atom   17 type  4   force =    -0.26237451    0.27790609    0.00000000
     atom   18 type  4   force =     0.26237451    0.27790609    0.00000000
     atom   19 type  4   force =     0.22917117   -0.28330137    0.00000000
     atom   20 type  4   force =    -0.22917117   -0.28330137    0.00000000
     The ionic contribution  to forces
     atom    1 type  1   force =    -0.00000000   -4.77820630   -2.11189916
     atom    2 type  1   force =    -0.00000000   -4.77820630    2.11189916
     atom    3 type  1   force =    -0.00000000    4.77820630    2.11189916
     atom    4 type  1   force =    -0.00000000    4.77820630   -2.11189916
     atom    5 type  2   force =     0.00000000   -3.27779515    0.00000000
     atom    6 type  2   force =    -0.00000000    3.27779515    0.00000000
     atom    7 type  3   force =    -0.00000000    4.20716884    0.00000000
     atom    8 type  3   force =     0.00000000   -4.20716884   -0.00000000
     atom    9 type  4   force =    -0.00000000    1.86216260    6.10960857
     atom   10 type  4   force =    -0.00000000    1.86216260   -6.10960857
     atom   11 type  4   force =    -0.00000000   -1.86216260   -6.10960857
     atom   12 type  4   force =    -0.00000000   -1.86216260    6.10960857
     atom   13 type  4   force =     3.50726821   -5.00343692    0.00000000
     atom   14 type  4   force =    -3.50726821   -5.00343692    0.00000000
     atom   15 type  4   force =     3.85919424    5.67816687    0.00000000
     atom   16 type  4   force =    -3.85919424    5.67816687    0.00000000
     atom   17 type  4   force =     3.85919424   -5.67816687   -0.00000000
     atom   18 type  4   force =    -3.85919424   -5.67816687   -0.00000000
     atom   19 type  4   force =    -3.50726821    5.00343692   -0.00000000
     atom   20 type  4   force =     3.50726821    5.00343692   -0.00000000
     The local contribution  to forces
     atom    1 type  1   force =     0.00003824    4.81641945    2.14190043
     atom    2 type  1   force =     0.00004880    4.81630583   -2.14194790
     atom    3 type  1   force =    -0.00002035   -4.81654380   -2.14193429
     atom    4 type  1   force =    -0.00004146   -4.81634480    2.14201393
     atom    5 type  2   force =    -0.00007966    3.31014997    0.00065005
     atom    6 type  2   force =     0.00005891   -3.31014277   -0.00051188
     atom    7 type  3   force =     0.00005485   -4.22851061    0.00058850
     atom    8 type  3   force =    -0.00012911    4.22864894   -0.00086469
     atom    9 type  4   force =     0.00000982   -1.87383241   -5.73562822
     atom   10 type  4   force =     0.00001338   -1.87381431    5.73590050
     atom   11 type  4   force =    -0.00001366    1.87382690    5.73574492
     atom   12 type  4   force =    -0.00001338    1.87381406   -5.73589842
     atom   13 type  4   force =    -3.27838419    4.72191839    0.00020822
     atom   14 type  4   force =     3.27839629    4.72191159    0.00020303
     atom   15 type  4   force =    -3.60963787   -5.40848469    0.00016356
     atom   16 type  4   force =     3.60962605   -5.40846328    0.00017317
     atom   17 type  4   force =    -3.60995329    5.40877360   -0.00019365
     atom   18 type  4   force =     3.60989726    5.40873522   -0.00018668
     atom   19 type  4   force =     3.27860608   -4.72214788   -0.00022209
     atom   20 type  4   force =    -3.27862773   -4.72214777   -0.00024467
     The core correction contribution to forces
     atom    1 type  1   force =    -0.00000036    0.00119087    0.00119212
     atom    2 type  1   force =    -0.00000058    0.00118965   -0.00119221
     atom    3 type  1   force =     0.00000000   -0.00119168   -0.00119137
     atom    4 type  1   force =    -0.00000052   -0.00119051    0.00119111
     atom    5 type  2   force =    -0.00000184    0.00053921    0.00000063
     atom    6 type  2   force =    -0.00000165   -0.00053703    0.00000043
     atom    7 type  3   force =     0.00000170    0.00277256    0.00000466
     atom    8 type  3   force =    -0.00000257   -0.00276895   -0.00001714
     atom    9 type  4   force =    -0.00000015   -0.00043762    0.00246115
     atom   10 type  4   force =    -0.00000013   -0.00043804   -0.00246000
     atom   11 type  4   force =     0.00000019    0.00043757   -0.00246083
     atom   12 type  4   force =     0.00000028    0.00043826    0.00246137
     atom   13 type  4   force =     0.00131239   -0.00173848   -0.00000125
     atom   14 type  4   force =    -0.00131260   -0.00173885   -0.00000130
     atom   15 type  4   force =     0.00125145    0.00137544   -0.00000119
     atom   16 type  4   force =    -0.00125172    0.00137573   -0.00000114
     atom   17 type  4   force =     0.00125175   -0.00137569    0.00000127
     atom   18 type  4   force =    -0.00125215   -0.00137613    0.00000126
     atom   19 type  4   force =    -0.00131368    0.00173975    0.00000135
     atom   20 type  4   force =     0.00131362    0.00173964    0.00000126
     The Hubbard contrib.    to forces
     atom    1 type  1   force =     0.00000000    0.00000000    0.00000000
     atom    2 type  1   force =     0.00000000    0.00000000    0.00000000
     atom    3 type  1   force =     0.00000000    0.00000000    0.00000000
     atom    4 type  1   force =     0.00000000    0.00000000    0.00000000
     atom    5 type  2   force =     0.00000000    0.00000000    0.00000000
     atom    6 type  2   force =     0.00000000    0.00000000    0.00000000
     atom    7 type  3   force =     0.00000000    0.00000000    0.00000000
     atom    8 type  3   force =     0.00000000    0.00000000    0.00000000
     atom    9 type  4   force =     0.00000000    0.00000000    0.00000000
     atom   10 type  4   force =     0.00000000    0.00000000    0.00000000
     atom   11 type  4   force =     0.00000000    0.00000000    0.00000000
     atom   12 type  4   force =     0.00000000    0.00000000    0.00000000
     atom   13 type  4   force =     0.00000000    0.00000000    0.00000000
     atom   14 type  4   force =     0.00000000    0.00000000    0.00000000
     atom   15 type  4   force =     0.00000000    0.00000000    0.00000000
     atom   16 type  4   force =     0.00000000    0.00000000    0.00000000
     atom   17 type  4   force =     0.00000000    0.00000000    0.00000000
     atom   18 type  4   force =     0.00000000    0.00000000    0.00000000
     atom   19 type  4   force =     0.00000000    0.00000000    0.00000000
     atom   20 type  4   force =     0.00000000    0.00000000    0.00000000
     The SCF correction term to forces
     atom    1 type  1   force =    -0.00003743   -0.00032729    0.00010364
     atom    2 type  1   force =    -0.00004872   -0.00021868   -0.00004769
     atom    3 type  1   force =     0.00002564    0.00043234   -0.00004484
     atom    4 type  1   force =     0.00004029    0.00025516   -0.00003245
     atom    5 type  2   force =     0.00009187   -0.00067786   -0.00079518
     atom    6 type  2   force =    -0.00008805    0.00068242    0.00062644
     atom    7 type  3   force =    -0.00006019    0.00051021   -0.00072072
     atom    8 type  3   force =     0.00016926   -0.00070644    0.00105618
     atom    9 type  4   force =    -0.00001615    0.00022380   -0.00014342
     atom   10 type  4   force =    -0.00002320    0.00018830   -0.00003934
     atom   11 type  4   force =     0.00002642   -0.00022968   -0.00000253
     atom   12 type  4   force =     0.00002985   -0.00018041    0.00009528
     atom   13 type  4   force =    -0.00016234    0.00020442   -0.00029879
     atom   14 type  4   force =     0.00014039    0.00019384   -0.00029681
     atom   15 type  4   force =    -0.00014380   -0.00012084   -0.00025134
     atom   16 type  4   force =     0.00014576   -0.00012365   -0.00025962
     atom   17 type  4   force =     0.00017928   -0.00018368    0.00028153
     atom   18 type  4   force =    -0.00015718   -0.00018033    0.00027639
     atom   19 type  4   force =    -0.00014933    0.00010836    0.00031782
     atom   20 type  4   force =     0.00015822    0.00009814    0.00033183

     Total force =     0.070305     Total SCF correction =     0.002468

     Computing stress (Cartesian axis) and pressure

     negative rho (up, down):  3.908E-01 0.000E+00
          total   stress  (Ry/bohr**3)                   (kbar)     P=     -339.96
  -0.00196620   0.00000000   0.00000000         -289.24        0.00        0.00
   0.00000000  -0.00227464   0.00000000            0.00     -334.61        0.00
   0.00000000   0.00000000  -0.00269211            0.00        0.00     -396.02

     kinetic stress (kbar)  22828.15      0.00      0.00
                                0.00  22787.11      0.00
                                0.00      0.00  22662.55

     local   stress (kbar)  -8108.83     -0.00     -0.00
                               -0.00  -4733.43      0.01
                               -0.00      0.01  -7076.39

     nonloc. stress (kbar)   2202.60      0.00      0.00
                                0.00   2195.40      0.00
                                0.00      0.00   2193.54

     hartree stress (kbar)   7594.55      0.00     -0.00
                                0.00   6151.20     -0.01
                               -0.00     -0.01   7251.10

     exc-cor stress (kbar)   5544.03     -0.00      0.00
                               -0.00   5544.73      0.00
                                0.00      0.00   5545.00

     corecor stress (kbar) -11015.00      0.00      0.00
                                0.00 -11014.76      0.00
                                0.00      0.00 -11013.64

     ewald   stress (kbar) -19334.75      0.00     -0.00
                                0.00 -21264.86      0.00
                               -0.00      0.00 -19958.18

     hubbard stress (kbar)      0.00      0.00      0.00
                                0.00      0.00      0.00
                                0.00      0.00      0.00

     DFT-D   stress (kbar)      0.00      0.00      0.00
                                0.00      0.00      0.00
                                0.00      0.00      0.00

     XDM     stress (kbar)      0.00      0.00      0.00
                                0.00      0.00      0.00
                                0.00      0.00      0.00

     dft-nl  stress (kbar)      0.00      0.00      0.00
                                0.00      0.00      0.00
                                0.00      0.00      0.00

     TS-vdW  stress (kbar)      0.00      0.00      0.00
                                0.00      0.00      0.00
                                0.00      0.00      0.00

[...]

                                0.00      0.00      0.00

     Writing all to output data dir new_calculations/myprefix.save/

     General routines

     Parallel routines

     PAW routines

   This run was terminated on:   0:50:14  21May2023

   JOB DONE.