     Program PWSCF v.7.0 starts on 20May2023 at 21:43:49

     Reading input from espresso_12562.pwi
Warning: card &CELL ignored
Warning: card / ignored

     Current dimensions of program PWSCF are:
     Max number of different atomic species (ntypx) = 10
     Max number of k-points (npk) =  40000
     Max angular momentum in pseudopotentials (lmaxx) =  4
     file O.pbe-n-kjpaw_psl.0.1.UPF: wavefunction(s)  2P renormalized

     gamma-point specific algorithms are used
     Message from routine setup:
     using ibrav=0 with symmetry is DISCOURAGED, use correct ibrav instead

     Subspace diagonalization in iterative solution of the eigenvalue problem:
     a serial algorithm will be used

     Using Slab Decomposition

     bravais-lattice index     =            0
     lattice parameter (alat)  =       9.9196  a.u.
     unit-cell volume          =     981.1633 (a.u.)^3
     number of atoms/cell      =           16
     number of atomic types    =            4
     number of electrons       =       118.00
     number of Kohn-Sham states=           71
     kinetic-energy cutoff     =      30.0000  Ry
     charge density cutoff     =     240.0000  Ry
     scf convergence threshold =      1.0E-06
     mixing beta               =       0.7000
     number of iterations used =            8  plain     mixing
     Exchange-correlation= SLA  PW   PBX  PBC
                           (   1   4   3   4   0   0   0)

     celldm(1)=   9.919645  celldm(2)=   0.000000  celldm(3)=   0.000000
     celldm(4)=   0.000000  celldm(5)=   0.000000  celldm(6)=   0.000000

     crystal axes: (cart. coord. in units of alat)
               a(1) = (   1.000000   0.000000   0.000000 )
               a(2) = (  -0.399104   0.916919   0.000000 )
               a(3) = (   0.000001  -0.000000   1.096281 )

     reciprocal axes: (cart. coord. in units 2 pi/alat)
               b(1) = (  1.000000  0.435267 -0.000000 )
               b(2) = (  0.000000  1.090608  0.000000 )
               b(3) = (  0.000000  0.000000  0.912175 )

     PseudoPot. # 1 for Li read from file:
     /home/pragov/projects/rrg-bengioy-ad/pragov/crystal_structure_design/SSSP/li_pbe_v1.4.uspp.F.UPF
     MD5 check sum: e912e257baa3777c20ea3d68f190483c
     Pseudo is Ultrasoft, Zval =  3.0
     Generated by new atomic code, or converted to UPF format
     Using radial grid of  751 points,  5 beta functions with:
                l(1) =   0
                l(2) =   0
                l(3) =   0
                l(4) =   1
                l(5) =   1
     Q(r) pseudized with 10 coefficients,  rinner =    1.150   1.150   1.150

     PseudoPot. # 2 for Ti read from file:
     /home/pragov/projects/rrg-bengioy-ad/pragov/crystal_structure_design/SSSP/ti_pbe_v1.4.uspp.F.UPF
     MD5 check sum: 88a00a6731bd790ddea75d31a80cb452
     Pseudo is Ultrasoft + core correction, Zval = 12.0
     Generated by new atomic code, or converted to UPF format
     Using radial grid of  851 points,  6 beta functions with:
                l(1) =   0
                l(2) =   0
                l(3) =   1
                l(4) =   1
                l(5) =   2
                l(6) =   2
     Q(r) pseudized with  6 coefficients,  rinner =    1.000   1.000   1.000
                                                       1.000   1.000

     PseudoPot. # 3 for Co read from file:
     /home/pragov/projects/rrg-bengioy-ad/pragov/crystal_structure_design/SSSP/Co_pbe_v1.2.uspp.F.UPF
     MD5 check sum: 5f91765df6ddd3222702df6e7b74a16d
     Pseudo is Ultrasoft + core correction, Zval = 17.0
     Generated by new atomic code, or converted to UPF format
     Using radial grid of  863 points,  6 beta functions with:
                l(1) =   0
                l(2) =   0
                l(3) =   1
                l(4) =   1
                l(5) =   2
                l(6) =   2
     Q(r) pseudized with  8 coefficients,  rinner =    1.200   1.200   1.200
                                                       1.200   1.200

     PseudoPot. # 4 for O  read from file:
     /home/pragov/projects/rrg-bengioy-ad/pragov/crystal_structure_design/SSSP/O.pbe-n-kjpaw_psl.0.1.UPF
     MD5 check sum: 0234752ac141de4415c5fc33072bef88
     Pseudo is Projector augmented-wave + core cor, Zval =  6.0
     Generated using "atomic" code by A. Dal Corso  v.5.0.99 svn rev. 10869
     Shape of augmentation charge: BESSEL
     Using radial grid of 1095 points,  4 beta functions with:
                l(1) =   0
                l(2) =   0
                l(3) =   1
                l(4) =   1
     Q(r) pseudized with 0 coefficients

     atomic species   valence    mass     pseudopotential
        Li             3.00     6.94000     Li( 1.00)
        Ti            12.00    47.86700     Ti( 1.00)
        Co            17.00    58.93319     Co( 1.00)
        O              6.00    15.99900     O ( 1.00)

      2 Sym. Ops. (no inversion) found

                                    s                        frac. trans.

      isym =  1     identity

 cryst.   s( 1) = (     1          0          0      )
                  (     0          1          0      )
                  (     0          0          1      )

 cart.    s( 1) = (  1.0000000  0.0000000  0.0000000 )
                  (  0.0000000  1.0000000  0.0000000 )
                  (  0.0000000  0.0000000  1.0000000 )

      isym =  2     180 deg rotation - cart. axis [0,0,1]

 cryst.   s( 2) = (    -1          0          0      )
                  (     0         -1          0      )
                  (     0          0          1      )

 cart.    s( 2) = ( -1.0000000 -0.0000000  0.0000011 )
                  (  0.0000000 -1.0000000 -0.0000006 )
                  (  0.0000000  0.0000000  1.0000000 )

   Cartesian axes

     site n.     atom                  positions (alat units)
         1           Li  tau(   1) = (   0.8004479   0.4584603   0.8222073  )
         2           Li  tau(   2) = (   0.5000011  -0.0000001   0.2740724  )
         3           Li  tau(   3) = (   0.3004473   0.4584588   0.0000000  )
         4           Li  tau(   4) = (  -0.3991040   0.9169192   0.5481404  )
         5           Ti  tau(   5) = (  -0.1995494   0.4584559   0.2740691  )
         6           Ti  tau(   6) = (   0.4999960   0.0000007   0.8222128  )
         7           Co  tau(   7) = (   0.3004481   0.4584595   0.5481459  )
         8           Co  tau(   8) = (   0.6008933   0.9169157   0.0000055  )
         9           O   tau(   9) = (   0.1124631   0.2539939   0.2740790  )
        10           O   tau(  10) = (   0.4129034   0.7124323   0.8221931  )
        11           O   tau(  11) = (   0.4884323   0.6629335   0.2740812  )
        12           O   tau(  12) = (   0.1880010   0.2044893   0.8221953  )
        13           O   tau(  13) = (  -0.0479429   0.6867790   0.0000000  )
        14           O   tau(  14) = (   0.6515973   0.2283311   0.5481404  )
        15           O   tau(  15) = (   0.6488356   0.2301358   0.0000000  )
        16           O   tau(  16) = (  -0.0507005   0.6885888   0.5481415  )

   Crystallographic axes

     site n.     atom                  positions (cryst. coord.)
         1           Li  tau(   1) = (  1.0000000  0.5000010  0.7499970  )
         2           Li  tau(   2) = (  0.5000010 -0.0000000  0.2500020  )
         3           Li  tau(   3) = (  0.4999990  0.4999990  0.0000000  )
         4           Li  tau(   4) = (  0.0000000  1.0000000  0.5000000  )
         5           Ti  tau(   5) = (  0.0000010  0.4999960  0.2499990  )
         6           Ti  tau(   6) = (  0.4999960  0.0000010  0.7500020  )
         7           Co  tau(   7) = (  0.5000000  0.5000000  0.5000050  )
         8           Co  tau(   8) = (  0.9999960  0.9999960  0.0000050  )
         9           O   tau(   9) = (  0.2230180  0.2770080  0.2500080  )
        10           O   tau(  10) = (  0.7230010  0.7769850  0.7499840  )
        11           O   tau(  11) = (  0.7769850  0.7230010  0.2500100  )
        12           O   tau(  12) = (  0.2770080  0.2230180  0.7499860  )
        13           O   tau(  13) = (  0.2509890  0.7490070  0.0000000  )
        14           O   tau(  14) = (  0.7509820  0.2490200  0.5000000  )
        15           O   tau(  15) = (  0.7490060  0.2509880  0.0000000  )
        16           O   tau(  16) = (  0.2490190  0.7509810  0.5000010  )

     number of k points=     1  Methfessel-Paxton smearing, width (Ry)=  0.0010
                       cart. coord. in units 2pi/alat
        k(    1) = (   0.0000000   0.0000000   0.0000000), wk =   2.0000000

                       cryst. coord.
        k(    1) = (   0.0000000   0.0000000   0.0000000), wk =   2.0000000

     Check: negative core charge=   -0.000021

     Initial potential from superposition of free atoms

     starting charge     112.1969, renormalised to     118.0000

     negative rho (up, down):  3.874E-03 0.000E+00
     Starting wfcs are   98 randomized atomic wfcs
     Checking if some PAW data can be deallocated...

     Self-consistent Calculation

     iteration #  1     ecut=    30.00 Ry     beta= 0.70
     Davidson diagonalization with overlap

     ethr =  1.00E-02,  avg # of iterations =  3.0

     total energy              =   -1154.01939172 Ry
     estimated scf accuracy    <      93.62137445 Ry

[...]

     negative rho (up, down):  5.048E-04 0.000E+00

[...]

     total energy              =   -1227.20560592 Ry
     estimated scf accuracy    <       0.00002713 Ry

     iteration # 80     ecut=    30.00 Ry     beta= 0.70
     Davidson diagonalization with overlap

     ethr =  2.30E-08,  avg # of iterations =  1.0

[...]

     End of self-consistent calculation

          k = 0.0000 0.0000 0.0000 (  1371 PWs)   bands (ev):

   -84.6731 -84.6727 -48.4023 -48.4011 -48.2140 -48.2109 -47.8815 -47.8803
   -47.7646 -47.7606 -34.9729 -34.9719 -34.6529 -34.6525 -24.6912 -24.6852
   -24.6829 -24.6493 -24.6435 -24.6009  -9.4036  -8.4528  -8.4031  -8.3909
    -8.2824  -8.2482  -8.0846  -7.8404   3.0440   3.7053   4.0221   4.2308
     4.3202   4.5087   4.6163   4.6736   4.6880   5.1032   5.1127   5.3716
     5.5902   5.6850   5.9015   6.0854   6.2439   6.7607   6.7659   7.6519
     7.6608   7.7691   7.8041   7.8938   8.9969   9.3371   9.3942   9.5483
     9.7577  10.0969  10.1940  10.2000  10.2286  10.7915  11.0870  11.1134
    11.6079  11.7792  11.9177  12.1354  12.7752  13.4452  14.0880

     occupation numbers
     1.0000   1.0000   1.0000   1.0000   1.0000   1.0000   1.0000   1.0000
     1.0000   1.0000   1.0000   1.0000   1.0000   1.0000   1.0000   1.0000
     1.0000   1.0000   1.0000   1.0000   1.0000   1.0000   1.0000   1.0000
     1.0000   1.0000   1.0000   1.0000   1.0000   1.0000   1.0000   1.0000
     1.0000   1.0000   1.0000   1.0000   1.0000   1.0000   1.0000   1.0000
     1.0000   1.0000   1.0000   1.0000   1.0000   1.0000   1.0000   1.0000
     1.0000   1.0000   1.0000   1.0000   1.0000   1.0000   1.0000   1.0000
     1.0000   1.0000   0.6826   0.3198  -0.0024  -0.0000  -0.0000  -0.0000
    -0.0000  -0.0000  -0.0000  -0.0000  -0.0000  -0.0000  -0.0000

     the Fermi energy is    10.1970 ev

!    total energy              =   -1227.20560586 Ry
     estimated scf accuracy    <       0.00000043 Ry
     smearing contrib. (-TS)   =      -0.00047305 Ry
     internal energy E=F+TS    =   -1227.20513281 Ry

     The total energy is F=E-TS. E is the sum of the following terms:
     one-electron contribution =    -624.77607652 Ry
     hartree contribution      =     366.93611265 Ry
     xc contribution           =    -174.83926396 Ry
     ewald contribution        =    -718.39208577 Ry
     one-center paw contrib.   =     -76.13381921 Ry
      -> PAW hartree energy AE =     237.20063350 Ry
      -> PAW hartree energy PS =    -236.33262982 Ry
      -> PAW xc energy AE      =    -137.36602486 Ry
      -> PAW xc energy PS      =      60.36420197 Ry
      -> total E_H with PAW    =     367.80411633 Ry
      -> total E_XC with PAW   =    -251.84108685 Ry

     convergence has been achieved in  80 iterations

     negative rho (up, down):  3.369E-03 0.000E+00

     Forces acting on atoms (cartesian axes, Ry/au):

     atom    1 type  1   force =     0.00000000    0.00000000   -0.00000834
     atom    2 type  1   force =     0.00000000    0.00000000    0.00001091
     atom    3 type  1   force =     0.00000000    0.00000000   -0.00000504
     atom    4 type  1   force =     0.00000000    0.00000000    0.00000160
     atom    5 type  2   force =     0.00000000    0.00000000   -0.00004521
     atom    6 type  2   force =     0.00000000    0.00000000    0.00004573
     atom    7 type  3   force =     0.00000000    0.00000000   -0.00008706
     atom    8 type  3   force =     0.00000000    0.00000000    0.00003642
     atom    9 type  4   force =     0.00726134   -0.00478142   -0.00002039
     atom   10 type  4   force =     0.00729218   -0.00474269    0.00004510
     atom   11 type  4   force =    -0.00726134    0.00478142   -0.00002038
     atom   12 type  4   force =    -0.00729218    0.00474269    0.00004511
     atom   13 type  4   force =    -0.04453165    0.02918599   -0.00000332
     atom   14 type  4   force =    -0.04449977    0.02915761    0.00000415
     atom   15 type  4   force =     0.04453165   -0.02918599   -0.00000338
     atom   16 type  4   force =     0.04449977   -0.02915761    0.00000409
     The non-local contrib.  to forces
     atom    1 type  1   force =     0.00000000    0.00000000    0.00000632
     atom    2 type  1   force =     0.00000000    0.00000000   -0.00000155
     atom    3 type  1   force =     0.00000000    0.00000000   -0.00000800
     atom    4 type  1   force =     0.00000000    0.00000000   -0.00000740
     atom    5 type  2   force =     0.00000000    0.00000000   -0.00002261
     atom    6 type  2   force =     0.00000000    0.00000000    0.00002774
     atom    7 type  3   force =     0.00000000    0.00000000   -0.00006070
     atom    8 type  3   force =     0.00000000    0.00000000    0.00003546
     atom    9 type  4   force =    -0.26752196    0.17532226   -0.00003800
     atom   10 type  4   force =    -0.26753920    0.17528819   -0.00000287
     atom   11 type  4   force =     0.26752196   -0.17532226   -0.00003839
     atom   12 type  4   force =     0.26753920   -0.17528819   -0.00000327
     atom   13 type  4   force =    -0.34855864    0.22842941    0.00000629
     atom   14 type  4   force =    -0.34841135    0.22834557    0.00000170
     atom   15 type  4   force =     0.34855864   -0.22842941    0.00000578
     atom   16 type  4   force =     0.34841135   -0.22834557    0.00000119
     The ionic contribution  to forces
     atom    1 type  1   force =     0.00002238   -0.00011127    0.00039768
     atom    2 type  1   force =    -0.00011120   -0.00002373   -0.00015219
     atom    3 type  1   force =     0.00003887    0.00005903   -0.00001163
     atom    4 type  1   force =     0.00004612    0.00007010   -0.00002118
     atom    5 type  2   force =    -0.00063200    0.00036101   -0.00109698
     atom    6 type  2   force =     0.00058418   -0.00043604    0.00081982
     atom    7 type  3   force =     0.00009509    0.00014670   -0.00066117
     atom    8 type  3   force =     0.00028571    0.00043755   -0.00060727
     atom    9 type  4   force =     3.60180833   -2.36253084   -0.00205975
     atom   10 type  4   force =     3.60361661   -2.35837570    0.00205124
     atom   11 type  4   force =    -3.60134290    2.36183866   -0.00131424
     atom   12 type  4   force =    -3.60443649    2.35852594    0.00279667
     atom   13 type  4   force =     4.08088629   -2.67446361   -0.00005674
     atom   14 type  4   force =     4.08214627   -2.67548451    0.00010918
     atom   15 type  4   force =    -4.08076682    2.67464588    0.00003517
     atom   16 type  4   force =    -4.08224042    2.67534083   -0.00022859
     The local contribution  to forces
     atom    1 type  1   force =    -0.00003504    0.00009729   -0.00048030
     atom    2 type  1   force =     0.00010792    0.00005217    0.00023254
     atom    3 type  1   force =    -0.00004960   -0.00009628   -0.00000616
     atom    4 type  1   force =    -0.00005001   -0.00004523    0.00005182
     atom    5 type  2   force =     0.00071741   -0.00053493    0.00140563
     atom    6 type  2   force =    -0.00059360    0.00055576   -0.00112173
     atom    7 type  3   force =    -0.00014409   -0.00030810    0.00078429
     atom    8 type  3   force =    -0.00028837   -0.00024323    0.00045714
     atom    9 type  4   force =    -3.32852156    2.18347934    0.00230827
     atom   10 type  4   force =    -3.33037524    2.17928576   -0.00227002
     atom   11 type  4   force =     3.32823664   -2.18292611    0.00160152
     atom   12 type  4   force =     3.33118748   -2.17946530   -0.00298174
     atom   13 type  4   force =    -3.78121023    2.47801017    0.00007399
     atom   14 type  4   force =    -3.78269123    2.47927884   -0.00011895
     atom   15 type  4   force =     3.78108482   -2.47819512   -0.00002896
     atom   16 type  4   force =     3.78273772   -2.47911446    0.00020044
     The core correction contribution to forces
     atom    1 type  1   force =     0.00000000    0.00000000    0.00000000
     atom    2 type  1   force =     0.00000000    0.00000000    0.00000000
     atom    3 type  1   force =     0.00000000    0.00000000    0.00000000
     atom    4 type  1   force =     0.00000000    0.00000000    0.00000000
     atom    5 type  2   force =     0.00000007   -0.00000079   -0.00000227
     atom    6 type  2   force =     0.00000010    0.00000007    0.00000207
     atom    7 type  3   force =     0.00000010   -0.00000014   -0.00000019
     atom    8 type  3   force =    -0.00000028    0.00000037   -0.00000087
     atom    9 type  4   force =     0.00181340   -0.00118835    0.00000044
     atom   10 type  4   force =     0.00181285   -0.00118776   -0.00000039
     atom   11 type  4   force =    -0.00181194    0.00118763    0.00000080
     atom   12 type  4   force =    -0.00181282    0.00118758   -0.00000001
     atom   13 type  4   force =     0.00432306   -0.00283341    0.00000011
     atom   14 type  4   force =     0.00432086   -0.00283186    0.00000008
     atom   15 type  4   force =    -0.00432324    0.00283295   -0.00000031
     atom   16 type  4   force =    -0.00432176    0.00283241   -0.00000006
     The Hubbard contrib.    to forces
     atom    1 type  1   force =     0.00000000    0.00000000    0.00000000
     atom    2 type  1   force =     0.00000000    0.00000000    0.00000000
     atom    3 type  1   force =     0.00000000    0.00000000    0.00000000
     atom    4 type  1   force =     0.00000000    0.00000000    0.00000000
     atom    5 type  2   force =     0.00000000    0.00000000    0.00000000
     atom    6 type  2   force =     0.00000000    0.00000000    0.00000000
     atom    7 type  3   force =     0.00000000    0.00000000    0.00000000
     atom    8 type  3   force =     0.00000000    0.00000000    0.00000000
     atom    9 type  4   force =     0.00000000    0.00000000    0.00000000
     atom   10 type  4   force =     0.00000000    0.00000000    0.00000000
     atom   11 type  4   force =     0.00000000    0.00000000    0.00000000
     atom   12 type  4   force =     0.00000000    0.00000000    0.00000000
     atom   13 type  4   force =     0.00000000    0.00000000    0.00000000
     atom   14 type  4   force =     0.00000000    0.00000000    0.00000000
     atom   15 type  4   force =     0.00000000    0.00000000    0.00000000
     atom   16 type  4   force =     0.00000000    0.00000000    0.00000000
     The SCF correction term to forces
     atom    1 type  1   force =     0.00000685    0.00002333    0.00006867
     atom    2 type  1   force =     0.00000831   -0.00003185   -0.00006717
     atom    3 type  1   force =     0.00000713    0.00003666    0.00002146
     atom    4 type  1   force =    -0.00000557   -0.00003739   -0.00002093
     atom    5 type  2   force =    -0.00009316    0.00019571   -0.00032828
     atom    6 type  2   force =     0.00001229   -0.00014510    0.00031855
     atom    7 type  3   force =     0.00006012    0.00021914   -0.00014858
     atom    8 type  3   force =    -0.00003139   -0.00026660    0.00015267
     atom    9 type  4   force =    -0.00024762    0.00008839   -0.00024958
     atom   10 type  4   force =    -0.00024219    0.00023819    0.00025237
     atom   11 type  4   force =     0.00020415   -0.00004426   -0.00025043
     atom   12 type  4   force =     0.00021111   -0.00022596    0.00024967
     atom   13 type  4   force =     0.00002570    0.00003916   -0.00001976
     atom   14 type  4   force =     0.00011181   -0.00013950    0.00001906
     atom   15 type  4   force =    -0.00002391   -0.00004456   -0.00002086
     atom   16 type  4   force =    -0.00011099    0.00014013    0.00002561

     Total force =     0.107857     Total SCF correction =     0.001052

     Computing stress (Cartesian axis) and pressure

     negative rho (up, down):  3.369E-03 0.000E+00
          total   stress  (Ry/bohr**3)                   (kbar)     P=     -519.37
  -0.00402909   0.00060337   0.00000000         -592.70       88.76        0.00
   0.00060337  -0.00350426  -0.00000000           88.76     -515.49       -0.00
   0.00000000  -0.00000000  -0.00305843            0.00       -0.00     -449.91

     kinetic stress (kbar)  28367.05    161.39     -0.02
                              161.39  28507.50      0.01
                               -0.02      0.01  28674.01

     local   stress (kbar) -12672.40   1236.72     -0.33
                             1236.72 -11597.42     -0.35
                               -0.33     -0.35 -10753.92

     nonloc. stress (kbar)   8277.63    107.25     -0.00
                              107.25   8370.98      0.00
                               -0.00      0.00   8370.10

     hartree stress (kbar)  18836.18   -617.30      0.15
                             -617.30  18299.41      0.16
                                0.15      0.16  17878.86

     exc-cor stress (kbar)  -5860.65      3.65      0.00
                                3.65  -5857.47      0.00
                                0.00      0.00  -5854.41

     corecor stress (kbar)  -2276.79     -2.25     -0.00
                               -2.25  -2278.75     -0.00
                               -0.00     -0.00  -2280.03

     ewald   stress (kbar) -35263.72   -800.70      0.04
                             -800.70 -35959.74     -0.03
                                0.04     -0.03 -36484.52

     hubbard stress (kbar)      0.00      0.00      0.00
                                0.00      0.00      0.00
                                0.00      0.00      0.00

     DFT-D   stress (kbar)      0.00      0.00      0.00
                                0.00      0.00      0.00
                                0.00      0.00      0.00

     XDM     stress (kbar)      0.00      0.00      0.00
                                0.00      0.00      0.00
                                0.00      0.00      0.00

     dft-nl  stress (kbar)      0.00      0.00      0.00
                                0.00      0.00      0.00
                                0.00      0.00      0.00

     TS-vdW  stress (kbar)      0.00      0.00      0.00
                                0.00      0.00      0.00
                                0.00      0.00      0.00

[...]

                                0.00      0.00      0.00

     Writing all to output data dir new_calculations/myprefix.save/

     General routines

     Parallel routines

     PAW routines

   This run was terminated on:  21:45: 7  20May2023

   JOB DONE.