     Program PWSCF v.7.0 starts on 20May2023 at 10:48:30

     Reading input from espresso_12233.pwi
Warning: card &CELL ignored
Warning: card / ignored

     Current dimensions of program PWSCF are:
     Max number of different atomic species (ntypx) = 10
     Max number of k-points (npk) =  40000
     Max angular momentum in pseudopotentials (lmaxx) =  4

     gamma-point specific algorithms are used
     Message from routine setup:
     using ibrav=0 with symmetry is DISCOURAGED, use correct ibrav instead

     Subspace diagonalization in iterative solution of the eigenvalue problem:
     a serial algorithm will be used

     Using Slab Decomposition

     bravais-lattice index     =            0
     lattice parameter (alat)  =       9.4815  a.u.
     unit-cell volume          =     579.9138 (a.u.)^3
     number of atoms/cell      =            6
     number of atomic types    =            2
     number of electrons       =        99.00
     number of Kohn-Sham states=           60
     kinetic-energy cutoff     =      30.0000  Ry
     charge density cutoff     =     240.0000  Ry
     scf convergence threshold =      1.0E-06
     mixing beta               =       0.7000
     number of iterations used =            8  plain     mixing
     Exchange-correlation= SLA  PW   PBE  PBE
                           (   1   4   3   4   0   0   0)

     celldm(1)=   9.481497  celldm(2)=   0.000000  celldm(3)=   0.000000
     celldm(4)=   0.000000  celldm(5)=   0.000000  celldm(6)=   0.000000

     crystal axes: (cart. coord. in units of alat)
               a(1) = (   1.000000   0.000000   0.000000 )
               a(2) = (  -0.500000   0.866025   0.000000 )
               a(3) = (   0.000000   0.000000   0.785601 )

     reciprocal axes: (cart. coord. in units 2 pi/alat)
               b(1) = (  1.000000  0.577350  0.000000 )
               b(2) = (  0.000000  1.154701  0.000000 )
               b(3) = (  0.000000  0.000000  1.272911 )

     PseudoPot. # 1 for Nd read from file:
     /home/pragov/projects/rrg-bengioy-ad/pragov/crystal_structure_design/SSSP/Nd.GGA-PBE-paw-v1.0.UPF
     MD5 check sum: 1d1e94942b6eb1cde76049b71bb7dcb0
     Pseudo is Projector augmented-wave + core cor, Zval = 14.0
     Generated using ATOMPAW code
     Shape of augmentation charge: BESSEL
     Using radial grid of 1105 points,  8 beta functions with:
                l(1) =   0
                l(2) =   0
                l(3) =   1
                l(4) =   1
                l(5) =   2
                l(6) =   2
                l(7) =   3
                l(8) =   3
     Q(r) pseudized with 0 coefficients

     PseudoPot. # 2 for Co read from file:
     /home/pragov/projects/rrg-bengioy-ad/pragov/crystal_structure_design/SSSP/Co_pbe_v1.2.uspp.F.UPF
     MD5 check sum: 5f91765df6ddd3222702df6e7b74a16d
     Pseudo is Ultrasoft + core correction, Zval = 17.0
     Generated by new atomic code, or converted to UPF format
     Using radial grid of  863 points,  6 beta functions with:
                l(1) =   0
                l(2) =   0
                l(3) =   1
                l(4) =   1
                l(5) =   2
                l(6) =   2
     Q(r) pseudized with  8 coefficients,  rinner =    1.200   1.200   1.200
                                                       1.200   1.200

     atomic species   valence    mass     pseudopotential
        Nd            14.00   144.24200     Nd( 1.00)
        Co            17.00    58.93319     Co( 1.00)

     24 Sym. Ops., with inversion, found

                                    s                        frac. trans.

      isym =  1     identity

 cryst.   s( 1) = (     1          0          0      )
                  (     0          1          0      )
                  (     0          0          1      )

 cart.    s( 1) = (  1.0000000  0.0000000  0.0000000 )
                  (  0.0000000  1.0000000  0.0000000 )
                  (  0.0000000  0.0000000  1.0000000 )

      isym =  2     180 deg rotation - cart. axis [0,0,1]

[...]

      isym =  4     180 deg rotation - cart. axis [1,0,0]

[...]

      isym =  5      60 deg rotation - cryst. axis [0,0,1]

[...]

 cryst.   s( 9) = (     0         -1          0      )
                  (    -1          0          0      )
                  (     0          0         -1      )

 cart.    s( 9) = (  0.5000000 -0.8660254  0.0000000 )
                  ( -0.8660254 -0.5000000  0.0000000 )
                  (  0.0000000  0.0000000 -1.0000000 )

[...]

 cryst.   s(10) = (     1          1          0      )
                  (     0         -1          0      )
                  (     0          0         -1      )

 cart.    s(10) = (  0.5000000  0.8660254  0.0000000 )
                  (  0.8660254 -0.5000000  0.0000000 )
                  (  0.0000000  0.0000000 -1.0000000 )

[...]

      isym = 12     180 deg rotation - cryst. axis [1,1,0]

[...]

      isym = 13     inversion

[...]

      isym = 14     inv. 180 deg rotation - cart. axis [0,0,1]

[...]

      isym = 16     inv. 180 deg rotation - cart. axis [1,0,0]

[...]

      isym = 17     inv.  60 deg rotation - cryst. axis [0,0,1]

[...]

      isym = 24     inv. 180 deg rotation - cryst. axis [1,1,0]

 cryst.   s(24) = (     0         -1          0      )
                  (    -1          0          0      )
                  (     0          0          1      )

 cart.    s(24) = (  0.5000000 -0.8660254  0.0000000 )
                  ( -0.8660254 -0.5000000  0.0000000 )
                  (  0.0000000  0.0000000  1.0000000 )

   Cartesian axes

     site n.     atom                  positions (alat units)
         1           Nd  tau(   1) = (   0.0000000   0.0000000   0.0000000  )
         2           Co  tau(   2) = (  -0.0000005   0.5773506   0.0000000  )
         3           Co  tau(   3) = (   0.5000005   0.2886748   0.0000000  )
         4           Co  tau(   4) = (   0.5000000   0.0000000   0.3928006  )
         5           Co  tau(   5) = (   0.2500000   0.4330127   0.3928006  )
         6           Co  tau(   6) = (  -0.2500000   0.4330127   0.3928006  )

   Crystallographic axes

     site n.     atom                  positions (cryst. coord.)
         1           Nd  tau(   1) = (  0.0000000  0.0000000  0.0000000  )
         2           Co  tau(   2) = (  0.3333330  0.6666670  0.0000000  )
         3           Co  tau(   3) = (  0.6666670  0.3333330  0.0000000  )
         4           Co  tau(   4) = (  0.5000000  0.0000000  0.5000000  )
         5           Co  tau(   5) = (  0.5000000  0.5000000  0.5000000  )
         6           Co  tau(   6) = ( -0.0000000  0.5000000  0.5000000  )

     number of k points=     1  Methfessel-Paxton smearing, width (Ry)=  0.0010
                       cart. coord. in units 2pi/alat
        k(    1) = (   0.0000000   0.0000000   0.0000000), wk =   2.0000000

                       cryst. coord.
        k(    1) = (   0.0000000   0.0000000   0.0000000), wk =   2.0000000

     Check: negative core charge=   -0.000025

     Initial potential from superposition of free atoms

     starting charge      93.9938, renormalised to      99.0000
     Starting wfcs are   97 randomized atomic wfcs
     Checking if some PAW data can be deallocated...

     Self-consistent Calculation

     iteration #  1     ecut=    30.00 Ry     beta= 0.70
     Davidson diagonalization with overlap

     ethr =  1.00E-02,  avg # of iterations =  2.0

     total energy              =   -1884.93873983 Ry
     estimated scf accuracy    <     168.98607716 Ry

[...]

     ethr =  1.01E-03,  avg # of iterations =  2.0
     Minimization algorithm failed to find Fermi energy: reverting to bisection
     Possible cause: smearing is larger than the electronic band-gap.

[...]

     total energy              =   -2029.42846510 Ry
     estimated scf accuracy    <       0.00003746 Ry

     iteration # 80     ecut=    30.00 Ry     beta= 0.70
     Davidson diagonalization with overlap

     ethr =  1.16E-09,  avg # of iterations =  1.0

     End of self-consistent calculation

          k = 0.0000 0.0000 0.0000 (   820 PWs)   bands (ev):

   -78.5683 -78.5426 -78.5424 -78.1215 -78.1204 -42.3009 -42.1875 -42.1114
   -42.1113 -42.1054 -41.8801 -41.8799 -41.8131 -41.4454 -41.4451 -41.3763
   -41.0601 -41.0600 -41.0352 -41.0352 -20.0488  -1.4128  -1.4128  -1.3263
     8.5648  12.0059  12.9008  12.9008  13.1792  13.2082  13.2473  13.2473
    13.4872  13.7364  13.7364  14.5587  14.5587  15.3201  15.3202  15.3754
    15.6284  15.6284  15.7699  15.7701  15.8681  16.4077  16.4078  16.4849
    16.7638  16.7638  16.7652  16.8656  16.8657  16.9390  17.1108  17.1108
    17.3380  17.9441  17.9442  18.2153

     occupation numbers
     1.0000   1.0000   1.0000   1.0000   1.0000   1.0000   1.0000   1.0000
     1.0000   1.0000   1.0000   1.0000   1.0000   1.0000   1.0000   1.0000
     1.0000   1.0000   1.0000   1.0000   1.0000   1.0000   1.0000   1.0000
     1.0000   1.0000   1.0000   1.0000   1.0000   1.0000   1.0000   1.0000
     1.0000   1.0000   1.0000   1.0000   1.0000   1.0000   1.0000   1.0000
     1.0000   1.0000   1.0000   1.0000   1.0000   1.0000   1.0000   1.0000
     0.5313   0.5300   0.4387  -0.0000  -0.0000  -0.0000  -0.0000  -0.0000
    -0.0000  -0.0000  -0.0000  -0.0000

     the Fermi energy is    16.7643 ev

!    total energy              =   -2029.42846488 Ry
     estimated scf accuracy    <       0.00000038 Ry
     smearing contrib. (-TS)   =      -0.00083962 Ry
     internal energy E=F+TS    =   -2029.42762525 Ry

     The total energy is F=E-TS. E is the sum of the following terms:
     one-electron contribution =    -992.94954343 Ry
     hartree contribution      =     559.85327331 Ry
     xc contribution           =    -177.14016314 Ry
     ewald contribution        =    -989.11166705 Ry
     one-center paw contrib.   =    -430.07952495 Ry
      -> PAW hartree energy AE =      81.88084378 Ry
      -> PAW hartree energy PS =     -81.53000276 Ry
      -> PAW xc energy AE      =    -443.02983155 Ry
      -> PAW xc energy PS      =      12.59946558 Ry
      -> total E_H with PAW    =     560.20411433 Ry
      -> total E_XC with PAW   =    -607.57052912 Ry

     convergence has been achieved in  80 iterations

     Forces acting on atoms (cartesian axes, Ry/au):

     atom    1 type  1   force =     0.00000000    0.00000000    0.00000000
     atom    2 type  2   force =    -0.00000000    0.00000000    0.00000000
     atom    3 type  2   force =     0.00000000   -0.00000000    0.00000000
     atom    4 type  2   force =     0.00000000    0.00000000    0.00000000
     atom    5 type  2   force =     0.00000000    0.00000000   -0.00000000
     atom    6 type  2   force =    -0.00000000   -0.00000000    0.00000000
     The non-local contrib.  to forces
     atom    1 type  1   force =     0.00000000   -0.00000000    0.00000000
     atom    2 type  2   force =    -0.00000000   -0.00000000    0.00000000
     atom    3 type  2   force =     0.00000000    0.00000000    0.00000000
     atom    4 type  2   force =    -0.00000000    0.00000000    0.00000000
     atom    5 type  2   force =     0.00000000    0.00000000   -0.00000000
     atom    6 type  2   force =    -0.00000000   -0.00000000    0.00000000
     The ionic contribution  to forces
     atom    1 type  1   force =    -0.00000000    0.00000000   -0.00000000
     atom    2 type  2   force =     0.00010216   -0.00005898   -0.00000000
     atom    3 type  2   force =    -0.00010216    0.00005898   -0.00000000
     atom    4 type  2   force =     0.00000000    0.00000000    0.00000000
     atom    5 type  2   force =     0.00000000   -0.00000000    0.00000000
     atom    6 type  2   force =    -0.00000000   -0.00000000    0.00000000
     The local contribution  to forces
     atom    1 type  1   force =    -0.00003802    0.00005727   -0.00000248
     atom    2 type  2   force =    -0.00016641    0.00006238    0.00001993
     atom    3 type  2   force =     0.00020222   -0.00010417   -0.00000603
     atom    4 type  2   force =     0.00002151   -0.00040443   -0.00000644
     atom    5 type  2   force =    -0.00039354    0.00019729    0.00000241
     atom    6 type  2   force =     0.00038754    0.00016061    0.00000237
     The core correction contribution to forces
     atom    1 type  1   force =    -0.00000000    0.00000001   -0.00000000
     atom    2 type  2   force =     0.00000028    0.00000036    0.00000006
     atom    3 type  2   force =    -0.00000037   -0.00000037    0.00000005
     atom    4 type  2   force =    -0.00000006   -0.00000009   -0.00000009
     atom    5 type  2   force =     0.00000010    0.00000030    0.00000005
     atom    6 type  2   force =     0.00000001    0.00000007    0.00000015
     The Hubbard contrib.    to forces
     atom    1 type  1   force =     0.00000000    0.00000000    0.00000000
     atom    2 type  2   force =     0.00000000    0.00000000    0.00000000
     atom    3 type  2   force =     0.00000000    0.00000000    0.00000000
     atom    4 type  2   force =     0.00000000    0.00000000    0.00000000
     atom    5 type  2   force =     0.00000000    0.00000000    0.00000000
     atom    6 type  2   force =     0.00000000    0.00000000    0.00000000
     The SCF correction term to forces
     atom    1 type  1   force =     0.00002668   -0.00003686    0.00000140
     atom    2 type  2   force =     0.00006253   -0.00000029   -0.00001472
     atom    3 type  2   force =    -0.00009642    0.00004108    0.00000339
     atom    4 type  2   force =    -0.00002280    0.00038937    0.00000326
     atom    5 type  2   force =     0.00037966   -0.00018949   -0.00000213
     atom    6 type  2   force =    -0.00036923   -0.00015435    0.00000382

     Total force =     0.000000     Total SCF correction =     0.000714

     Computing stress (Cartesian axis) and pressure

          total   stress  (Ry/bohr**3)                   (kbar)     P=     -572.28
  -0.00318363  -0.00000000   0.00000000         -468.33       -0.00        0.00
  -0.00000000  -0.00318363   0.00000000           -0.00     -468.33        0.00
  -0.00000000  -0.00000000  -0.00530350           -0.00       -0.00     -780.17

     kinetic stress (kbar)  40127.84      0.00      0.00
                                0.00  40127.84      0.00
                                0.00      0.00  39236.03

     local   stress (kbar)   2662.40     -0.42      0.01
                               -0.42   2664.14      0.00
                                0.01      0.00 -43415.30

     nonloc. stress (kbar)  22937.10      0.00     -0.00
                                0.00  22937.10     -0.00
                                0.00      0.00  21989.52

     hartree stress (kbar)  40051.31      0.27     -0.01
                                0.27  40050.65     -0.00
                               -0.01     -0.00  61914.42

     exc-cor stress (kbar) -11172.42     -0.00     -0.00
                               -0.00 -11172.42     -0.00
                               -0.00     -0.00 -11174.93

     corecor stress (kbar)  -2862.48      0.00      0.00
                                0.00  -2862.48      0.00
                                0.00      0.00  -2850.02

     ewald   stress (kbar) -92212.68      0.10     -0.00
                                0.10 -92212.56      0.00
                               -0.00      0.00 -66479.89

     hubbard stress (kbar)      0.00      0.00      0.00
                                0.00      0.00      0.00
                                0.00      0.00      0.00

     DFT-D   stress (kbar)      0.00      0.00      0.00
                                0.00      0.00      0.00
                                0.00      0.00      0.00

     XDM     stress (kbar)      0.00      0.00      0.00
                                0.00      0.00      0.00
                                0.00      0.00      0.00

     dft-nl  stress (kbar)      0.00      0.00      0.00
                                0.00      0.00      0.00
                                0.00      0.00      0.00

     TS-vdW  stress (kbar)      0.00      0.00      0.00
                                0.00      0.00      0.00
                                0.00      0.00      0.00

[...]

                                0.00      0.00      0.00

     Writing all to output data dir new_calculations/myprefix.save/

     General routines

     Parallel routines

     PAW routines

   This run was terminated on:  10:49:27  20May2023

   JOB DONE.