     Program PWSCF v.7.0 starts on 20May2023 at 18:18:45

     Reading input from espresso_10572.pwi
Warning: card &CELL ignored
Warning: card / ignored

     Current dimensions of program PWSCF are:
     Max number of different atomic species (ntypx) = 10
     Max number of k-points (npk) =  40000
     Max angular momentum in pseudopotentials (lmaxx) =  4

     gamma-point specific algorithms are used
     Message from routine setup:
     using ibrav=0 with symmetry is DISCOURAGED, use correct ibrav instead

     Subspace diagonalization in iterative solution of the eigenvalue problem:
     a serial algorithm will be used

     Using Slab Decomposition

     bravais-lattice index     =            0
     lattice parameter (alat)  =      10.9754  a.u.
     unit-cell volume          =     723.6515 (a.u.)^3
     number of atoms/cell      =           10
     number of atomic types    =            3
     number of electrons       =        98.00
     number of Kohn-Sham states=           59
     kinetic-energy cutoff     =      30.0000  Ry
     charge density cutoff     =     240.0000  Ry
     scf convergence threshold =      1.0E-06
     mixing beta               =       0.7000
     number of iterations used =            8  plain     mixing
     Exchange-correlation= SLA  PW   PBE  PBE
                           (   1   4   3   4   0   0   0)

     celldm(1)=  10.975355  celldm(2)=   0.000000  celldm(3)=   0.000000
     celldm(4)=   0.000000  celldm(5)=   0.000000  celldm(6)=   0.000000

     crystal axes: (cart. coord. in units of alat)
               a(1) = (   1.000000   0.000000   0.000000 )
               a(2) = (   0.000000   1.000000   0.000000 )
               a(3) = (   0.000000   0.000000   0.547361 )

     reciprocal axes: (cart. coord. in units 2 pi/alat)
               b(1) = (  1.000000  0.000000  0.000000 )
               b(2) = (  0.000000  1.000000  0.000000 )
               b(3) = (  0.000000  0.000000  1.826949 )

     PseudoPot. # 1 for Mn read from file:
     /home/pragov/projects/rrg-bengioy-ad/pragov/crystal_structure_design/SSSP/mn_pbe_v1.5.uspp.F.UPF
     MD5 check sum: 82ef2b46521d7a7d9e736dc3972e4928
     Pseudo is Ultrasoft + core correction, Zval = 15.0
     Generated by new atomic code, or converted to UPF format
     Using radial grid of  859 points,  6 beta functions with:
                l(1) =   0
                l(2) =   0
                l(3) =   1
                l(4) =   1
                l(5) =   2
                l(6) =   2
     Q(r) pseudized with  8 coefficients,  rinner =    0.950   0.950   0.950
                                                       0.950   0.950

     PseudoPot. # 2 for B  read from file:
     /home/pragov/projects/rrg-bengioy-ad/pragov/crystal_structure_design/SSSP/b_pbe_v1.4.uspp.F.UPF
     MD5 check sum: cc6de2960df11db49a60e589f9ebb39b
     Pseudo is Ultrasoft + core correction, Zval =  3.0
     Generated by new atomic code, or converted to UPF format
     Using radial grid of  781 points,  4 beta functions with:
                l(1) =   0
                l(2) =   0
                l(3) =   1
                l(4) =   1
     Q(r) pseudized with  8 coefficients,  rinner =    1.100   1.100   1.100

     PseudoPot. # 3 for W  read from file:
     /home/pragov/projects/rrg-bengioy-ad/pragov/crystal_structure_design/SSSP/W_pbe_v1.2.uspp.F.UPF
     MD5 check sum: 9c083fa34c2a2ea0f02f1f893e16e1c8
     Pseudo is Ultrasoft + core correction, Zval = 14.0
     Generated by new atomic code, or converted to UPF format
     Using radial grid of  923 points,  8 beta functions with:
                l(1) =   0
                l(2) =   0
                l(3) =   0
                l(4) =   1
                l(5) =   1
                l(6) =   2
                l(7) =   2
                l(8) =   3
     Q(r) pseudized with  6 coefficients,  rinner =    1.350   1.350   1.350
                                                       1.350   1.350   1.350
                                                       1.350

     atomic species   valence    mass     pseudopotential
        Mn            15.00    54.93804     Mn( 1.00)
        B              3.00    10.81000     B ( 1.00)
        W             14.00   183.84000     W ( 1.00)

     16 Sym. Ops., with inversion, found ( 8 have fractional translation)

                                    s                        frac. trans.

      isym =  1     identity

 cryst.   s( 1) = (     1          0          0      )
                  (     0          1          0      )
                  (     0          0          1      )

 cart.    s( 1) = (  1.0000000  0.0000000  0.0000000 )
                  (  0.0000000  1.0000000  0.0000000 )
                  (  0.0000000  0.0000000  1.0000000 )

      isym =  2     180 deg rotation - cart. axis [0,0,1]

[...]

 cryst.   s( 3) = (    -1          0          0      )    f =(  0.5000000 )
                  (     0          1          0      )       (  0.5000000 )
                  (     0          0         -1      )       (  0.0000000 )

 cart.    s( 3) = ( -1.0000000  0.0000000  0.0000000 )    f =(  0.5000000 )
                  (  0.0000000  1.0000000  0.0000000 )       (  0.5000000 )
                  (  0.0000000  0.0000000 -1.0000000 )       (  0.0000000 )

[...]

 cryst.   s( 6) = (     0         -1          0      )    f =(  0.5000000 )
                  (    -1          0          0      )       (  0.5000000 )
                  (     0          0         -1      )       (  0.0000000 )

 cart.    s( 6) = (  0.0000000 -1.0000000  0.0000000 )    f =(  0.5000000 )
                  ( -1.0000000  0.0000000  0.0000000 )       (  0.5000000 )
                  (  0.0000000  0.0000000 -1.0000000 )       (  0.0000000 )

[...]

      isym =  8      90 deg rotation - cart. axis [0,0,1]

[...]

      isym =  9     inversion

 cryst.   s( 9) = (    -1          0          0      )
                  (     0         -1          0      )
                  (     0          0         -1      )

 cart.    s( 9) = ( -1.0000000  0.0000000  0.0000000 )
                  (  0.0000000 -1.0000000  0.0000000 )
                  (  0.0000000  0.0000000 -1.0000000 )

      isym = 10     inv. 180 deg rotation - cart. axis [0,0,1]

 cryst.   s(10) = (     1          0          0      )
                  (     0          1          0      )
                  (     0          0         -1      )

 cart.    s(10) = (  1.0000000  0.0000000  0.0000000 )
                  (  0.0000000  1.0000000  0.0000000 )
                  (  0.0000000  0.0000000 -1.0000000 )

[...]

 cryst.   s(11) = (     1          0          0      )    f =(  0.5000000 )
                  (     0         -1          0      )       (  0.5000000 )
                  (     0          0          1      )       (  0.0000000 )

 cart.    s(11) = (  1.0000000  0.0000000  0.0000000 )    f =(  0.5000000 )
                  (  0.0000000 -1.0000000  0.0000000 )       (  0.5000000 )
                  (  0.0000000  0.0000000  1.0000000 )       (  0.0000000 )

[...]

 cryst.   s(14) = (     0          1          0      )    f =(  0.5000000 )
                  (     1          0          0      )       (  0.5000000 )
                  (     0          0          1      )       (  0.0000000 )

 cart.    s(14) = (  0.0000000  1.0000000  0.0000000 )    f =(  0.5000000 )
                  (  1.0000000  0.0000000  0.0000000 )       (  0.5000000 )
                  (  0.0000000  0.0000000  1.0000000 )       (  0.0000000 )

[...]

      isym = 16     inv.  90 deg rotation - cart. axis [0,0,1]

 cryst.   s(16) = (     0         -1          0      )
                  (     1          0          0      )
                  (     0          0         -1      )

 cart.    s(16) = (  0.0000000  1.0000000  0.0000000 )
                  ( -1.0000000  0.0000000  0.0000000 )
                  (  0.0000000  0.0000000 -1.0000000 )

   Cartesian axes

     site n.     atom                  positions (alat units)
         1           Mn  tau(   1) = (   0.5000000   0.5000000   0.0000000  )
         2           Mn  tau(   2) = (   0.0000000   0.0000000   0.0000000  )
         3           B   tau(   3) = (   0.1138260   0.6138260   0.0000000  )
         4           B   tau(   4) = (   0.8861740   0.3861740   0.0000000  )
         5           B   tau(   5) = (   0.6138260   0.8861740   0.0000000  )
         6           B   tau(   6) = (   0.3861740   0.1138260   0.0000000  )
         7           W   tau(   7) = (   0.8221610   0.6778390   0.2736804  )
         8           W   tau(   8) = (   0.1778390   0.3221610   0.2736804  )
         9           W   tau(   9) = (   0.6778390   0.1778390   0.2736804  )
        10           W   tau(  10) = (   0.3221610   0.8221610   0.2736804  )

   Crystallographic axes

     site n.     atom                  positions (cryst. coord.)
         1           Mn  tau(   1) = (  0.5000000  0.5000000  0.0000000  )
         2           Mn  tau(   2) = (  0.0000000  0.0000000  0.0000000  )
         3           B   tau(   3) = (  0.1138260  0.6138260  0.0000000  )
         4           B   tau(   4) = (  0.8861740  0.3861740  0.0000000  )
         5           B   tau(   5) = (  0.6138260  0.8861740  0.0000000  )
         6           B   tau(   6) = (  0.3861740  0.1138260  0.0000000  )
         7           W   tau(   7) = (  0.8221610  0.6778390  0.5000000  )
         8           W   tau(   8) = (  0.1778390  0.3221610  0.5000000  )
         9           W   tau(   9) = (  0.6778390  0.1778390  0.5000000  )
        10           W   tau(  10) = (  0.3221610  0.8221610  0.5000000  )

     number of k points=     1  Methfessel-Paxton smearing, width (Ry)=  0.0010
                       cart. coord. in units 2pi/alat
        k(    1) = (   0.0000000   0.0000000   0.0000000), wk =   2.0000000

                       cryst. coord.
        k(    1) = (   0.0000000   0.0000000   0.0000000), wk =   2.0000000

     Check: negative core charge=   -0.000010

     Initial potential from superposition of free atoms

     starting charge      96.5973, renormalised to      98.0000

     negative rho (up, down):  2.561E-01 0.000E+00
     Starting wfcs are   94 randomized atomic wfcs

     Self-consistent Calculation

     iteration #  1     ecut=    30.00 Ry     beta= 0.70
     Davidson diagonalization with overlap

     ethr =  1.00E-02,  avg # of iterations =  2.0

     negative rho (up, down):  2.494E-01 0.000E+00

     total energy              =   -1081.95511219 Ry
     estimated scf accuracy    <       4.01114543 Ry

[...]

     total energy              =   -1084.58964287 Ry
     estimated scf accuracy    <       0.00000108 Ry

     iteration # 19     ecut=    30.00 Ry     beta= 0.70
     Davidson diagonalization with overlap

     ethr =  1.10E-09,  avg # of iterations =  2.0

[...]

     End of self-consistent calculation

          k = 0.0000 0.0000 0.0000 (  1004 PWs)   bands (ev):

   -58.4073 -58.4065 -53.7807 -53.7509 -53.7509 -53.7473 -27.2350 -27.2305
   -27.1488 -27.1488 -27.1429 -27.1429 -18.5188 -18.2373 -18.2373 -18.2294
   -18.1590 -17.9025 -17.9025 -17.8891 -17.7565 -17.6920 -17.6920 -17.6815
     7.8320  10.7497  11.9225  11.9225  14.4109  14.4339  15.5380  15.7449
    15.7450  15.7836  15.8030  16.0502  16.9703  16.9704  17.5583  17.7657
    17.7657  18.3793  18.8292  19.0835  19.4560  19.5750  19.5750  19.6321
    21.1429  21.3087  21.3087  21.4506  21.7024  21.7209  21.7209  21.7605
    22.0815  22.3293  23.1377

     occupation numbers
     1.0000   1.0000   1.0000   1.0000   1.0000   1.0000   1.0000   1.0000
     1.0000   1.0000   1.0000   1.0000   1.0000   1.0000   1.0000   1.0000
     1.0000   1.0000   1.0000   1.0000   1.0000   1.0000   1.0000   1.0000
     1.0000   1.0000   1.0000   1.0000   1.0000   1.0000   1.0000   1.0000
     1.0000   1.0000   1.0000   1.0000   1.0000   1.0000   1.0000   1.0000
     1.0000   1.0000   1.0000   1.0000   1.0000   1.0000   1.0000   1.0000
     1.0000  -0.0000  -0.0000  -0.0000  -0.0000  -0.0000  -0.0000  -0.0000
    -0.0000  -0.0000  -0.0000

     the Fermi energy is    21.2363 ev

!    total energy              =   -1084.58964280 Ry
     estimated scf accuracy    <       0.00000013 Ry
     smearing contrib. (-TS)   =       0.00000000 Ry
     internal energy E=F+TS    =   -1084.58964280 Ry

     The total energy is F=E-TS. E is the sum of the following terms:
     one-electron contribution =    -254.37883659 Ry
     hartree contribution      =     187.84088978 Ry
     xc contribution           =    -230.31576294 Ry
     ewald contribution        =    -787.73593305 Ry

     convergence has been achieved in  19 iterations

     negative rho (up, down):  2.503E-01 0.000E+00

     Forces acting on atoms (cartesian axes, Ry/au):

     atom    1 type  1   force =     0.00000000    0.00000000    0.00000000
     atom    2 type  1   force =     0.00000000    0.00000000    0.00000000
     atom    3 type  2   force =    -0.07288808   -0.07288808    0.00000000
     atom    4 type  2   force =     0.07288808    0.07288808    0.00000000
     atom    5 type  2   force =    -0.07288808    0.07288808    0.00000000
     atom    6 type  2   force =     0.07288808   -0.07288808    0.00000000
     atom    7 type  3   force =     0.08228572   -0.08228572   -0.00000000
     atom    8 type  3   force =    -0.08228572    0.08228572    0.00000000
     atom    9 type  3   force =    -0.08228572   -0.08228572   -0.00000000
     atom   10 type  3   force =     0.08228572    0.08228572    0.00000000
     The non-local contrib.  to forces
     atom    1 type  1   force =     0.00000000    0.00000000    0.00000000
     atom    2 type  1   force =     0.00000000    0.00000000    0.00000000
     atom    3 type  2   force =    -0.04532755   -0.04532755   -0.00000000
     atom    4 type  2   force =     0.04532755    0.04532755    0.00000000
     atom    5 type  2   force =    -0.04532755    0.04532755    0.00000000
     atom    6 type  2   force =     0.04532755   -0.04532755   -0.00000000
     atom    7 type  3   force =     0.00870584   -0.00870584    0.00000000
     atom    8 type  3   force =    -0.00870584    0.00870584    0.00000000
     atom    9 type  3   force =    -0.00870584   -0.00870584    0.00000000
     atom   10 type  3   force =     0.00870584    0.00870584   -0.00000000
     The ionic contribution  to forces
     atom    1 type  1   force =     0.00000000   -0.00000000   -0.00000000
     atom    2 type  1   force =    -0.00000000   -0.00000000   -0.00000000
     atom    3 type  2   force =    -0.68481998   -0.68481998   -0.00000000
     atom    4 type  2   force =     0.68481998    0.68481998   -0.00000000
     atom    5 type  2   force =    -0.68481998    0.68481998   -0.00000000
     atom    6 type  2   force =     0.68481998   -0.68481998   -0.00000000
     atom    7 type  3   force =     1.87802272   -1.87802272    0.00000000
     atom    8 type  3   force =    -1.87802272    1.87802272    0.00000000
     atom    9 type  3   force =    -1.87802272   -1.87802272   -0.00000000
     atom   10 type  3   force =     1.87802272    1.87802272    0.00000000
     The local contribution  to forces
     atom    1 type  1   force =     0.00024508   -0.00010619    0.00000306
     atom    2 type  1   force =    -0.00027058    0.00008120   -0.00000046
     atom    3 type  2   force =     0.65768743    0.65766268    0.00000589
     atom    4 type  2   force =    -0.65777533   -0.65768218   -0.00000536
     atom    5 type  2   force =     0.65761913   -0.65761223    0.00000409
     atom    6 type  2   force =    -0.65752755    0.65765427   -0.00000398
     atom    7 type  3   force =    -1.80824143    1.80786844   -0.00000678
     atom    8 type  3   force =     1.80807366   -1.80790228    0.00000419
     atom    9 type  3   force =     1.80748638    1.80773180    0.00000502
     atom   10 type  3   force =    -1.80731689   -1.80767887   -0.00000667
     The core correction contribution to forces
     atom    1 type  1   force =    -0.00000058    0.00000029   -0.00000000
     atom    2 type  1   force =     0.00000040    0.00000082   -0.00000000
     atom    3 type  2   force =    -0.00042047   -0.00042031    0.00000006
     atom    4 type  2   force =     0.00042053    0.00042055   -0.00000007
     atom    5 type  2   force =    -0.00042058    0.00042063    0.00000010
     atom    6 type  2   force =     0.00042037   -0.00042065   -0.00000007
     atom    7 type  3   force =     0.00344682   -0.00344230    0.00000019
     atom    8 type  3   force =    -0.00344844    0.00344397   -0.00000023
     atom    9 type  3   force =    -0.00344630   -0.00345043   -0.00000066
     atom   10 type  3   force =     0.00344634    0.00345036    0.00000024
     The Hubbard contrib.    to forces
     atom    1 type  1   force =     0.00000000    0.00000000    0.00000000
     atom    2 type  1   force =     0.00000000    0.00000000    0.00000000
     atom    3 type  2   force =     0.00000000    0.00000000    0.00000000
     atom    4 type  2   force =     0.00000000    0.00000000    0.00000000
     atom    5 type  2   force =     0.00000000    0.00000000    0.00000000
     atom    6 type  2   force =     0.00000000    0.00000000    0.00000000
     atom    7 type  3   force =     0.00000000    0.00000000    0.00000000
     atom    8 type  3   force =     0.00000000    0.00000000    0.00000000
     atom    9 type  3   force =     0.00000000    0.00000000    0.00000000
     atom   10 type  3   force =     0.00000000    0.00000000    0.00000000
     The SCF correction term to forces
     atom    1 type  1   force =    -0.00025844    0.00011038   -0.00000383
     atom    2 type  1   force =     0.00027935   -0.00007195   -0.00000190
     atom    3 type  2   force =    -0.00000487    0.00002099   -0.00000201
     atom    4 type  2   force =     0.00008681    0.00000124    0.00000156
     atom    5 type  2   force =     0.00005717   -0.00006263   -0.00000138
     atom    6 type  2   force =    -0.00014647    0.00002456    0.00000113
     atom    7 type  3   force =     0.00035411    0.00001636    0.00000649
     atom    8 type  3   force =    -0.00018530    0.00001949   -0.00000509
     atom    9 type  3   force =     0.00040797    0.00016942   -0.00000446
     atom   10 type  3   force =    -0.00056800   -0.00021510    0.00000746

     Total force =     0.310916     Total SCF correction =     0.000961

     Computing stress (Cartesian axis) and pressure

     negative rho (up, down):  2.503E-01 0.000E+00
          total   stress  (Ry/bohr**3)                   (kbar)     P=     -173.29
  -0.00272353   0.00000000   0.00000000         -400.65        0.00        0.00
   0.00000000  -0.00272353   0.00000000            0.00     -400.65        0.00
   0.00000000   0.00000000   0.00191314            0.00        0.00      281.43

     kinetic stress (kbar)  38566.68      0.00      0.00
                                0.00  38566.68      0.00
                                0.00      0.00  40156.98

     local   stress (kbar)  18041.29      0.09     -0.02
                                0.09  18041.30     -0.00
                               -0.02     -0.00  14252.78

     nonloc. stress (kbar)  -4633.49      0.00      0.00
                                0.00  -4633.49      0.00
                                0.00      0.00  -4957.41

     hartree stress (kbar)  12056.55     -0.06      0.01
                               -0.06  12056.55      0.00
                                0.01      0.00  14071.51

     exc-cor stress (kbar)  12686.21     -0.00      0.00
                               -0.00  12686.21      0.00
                                0.00      0.00  12703.67

     corecor stress (kbar) -23348.78      0.00     -0.00
                                0.00 -23348.78     -0.00
                               -0.00     -0.00 -23352.03

     ewald   stress (kbar) -53769.11      0.00      0.00
                                0.00 -53769.11      0.00
                                0.00      0.00 -52594.06

     hubbard stress (kbar)      0.00      0.00      0.00
                                0.00      0.00      0.00
                                0.00      0.00      0.00

     DFT-D   stress (kbar)      0.00      0.00      0.00
                                0.00      0.00      0.00
                                0.00      0.00      0.00

     XDM     stress (kbar)      0.00      0.00      0.00
                                0.00      0.00      0.00
                                0.00      0.00      0.00

     dft-nl  stress (kbar)      0.00      0.00      0.00
                                0.00      0.00      0.00
                                0.00      0.00      0.00

     TS-vdW  stress (kbar)      0.00      0.00      0.00
                                0.00      0.00      0.00
                                0.00      0.00      0.00

[...]

                                0.00      0.00      0.00

     Writing all to output data dir new_calculations/myprefix.save/

     General routines

     Parallel routines

   This run was terminated on:  18:19: 8  20May2023

   JOB DONE.