     Program PWSCF v.7.0 starts on 20May2023 at  7:33:58

     Reading input from espresso_3250.pwi
Warning: card &CELL ignored
Warning: card / ignored

     Current dimensions of program PWSCF are:
     Max number of different atomic species (ntypx) = 10
     Max number of k-points (npk) =  40000
     Max angular momentum in pseudopotentials (lmaxx) =  4
     file O.pbe-n-kjpaw_psl.0.1.UPF: wavefunction(s)  2P renormalized

     gamma-point specific algorithms are used
     Message from routine setup:
     using ibrav=0 with symmetry is DISCOURAGED, use correct ibrav instead

     Subspace diagonalization in iterative solution of the eigenvalue problem:
     a serial algorithm will be used

     Using Slab Decomposition

     bravais-lattice index     =            0
     lattice parameter (alat)  =      10.5738  a.u.
     unit-cell volume          =     846.2022 (a.u.)^3
     number of atoms/cell      =           10
     number of atomic types    =            4
     number of electrons       =        89.00
     number of Kohn-Sham states=           54
     kinetic-energy cutoff     =      30.0000  Ry
     charge density cutoff     =     240.0000  Ry
     scf convergence threshold =      1.0E-06
     mixing beta               =       0.7000
     number of iterations used =            8  plain     mixing
     Exchange-correlation= SLA  PW   PBX  PBC
                           (   1   4   3   4   0   0   0)

     celldm(1)=  10.573796  celldm(2)=   0.000000  celldm(3)=   0.000000
     celldm(4)=   0.000000  celldm(5)=   0.000000  celldm(6)=   0.000000

     crystal axes: (cart. coord. in units of alat)
               a(1) = (   1.000000   0.000000   0.000000 )
               a(2) = (   0.491769   0.870726   0.000000 )
               a(3) = (   0.491769   0.287039   0.822053 )

     reciprocal axes: (cart. coord. in units 2 pi/alat)
               b(1) = (  1.000000 -0.564780 -0.401014 )
               b(2) = (  0.000000  1.148467 -0.401014 )
               b(3) = (  0.000000  0.000000  1.216466 )

     PseudoPot. # 1 for Sr read from file:
     /home/pragov/projects/rrg-bengioy-ad/pragov/crystal_structure_design/SSSP/Sr_pbe_v1.uspp.F.UPF
     MD5 check sum: 6b418c05fbe9db5448babca5e47b7a5b
     Pseudo is Ultrasoft + core correction, Zval = 10.0
     Generated by new atomic code, or converted to UPF format
     Using radial grid of  883 points,  6 beta functions with:
                l(1) =   0
                l(2) =   0
                l(3) =   1
                l(4) =   1
                l(5) =   2
                l(6) =   2
     Q(r) pseudized with  6 coefficients,  rinner =    1.400   1.400   1.400
                                                       1.400   1.400

     PseudoPot. # 2 for Co read from file:
     /home/pragov/projects/rrg-bengioy-ad/pragov/crystal_structure_design/SSSP/Co_pbe_v1.2.uspp.F.UPF
     MD5 check sum: 5f91765df6ddd3222702df6e7b74a16d
     Pseudo is Ultrasoft + core correction, Zval = 17.0
     Generated by new atomic code, or converted to UPF format
     Using radial grid of  863 points,  6 beta functions with:
                l(1) =   0
                l(2) =   0
                l(3) =   1
                l(4) =   1
                l(5) =   2
                l(6) =   2
     Q(r) pseudized with  8 coefficients,  rinner =    1.200   1.200   1.200
                                                       1.200   1.200

     PseudoPot. # 3 for Ru read from file:
     /home/pragov/projects/rrg-bengioy-ad/pragov/crystal_structure_design/SSSP/Ru_ONCV_PBE-1.0.oncvpsp.upf
     MD5 check sum: be037bb81c227cfb9b1461a9f099f4bd
     Pseudo is Norm-conserving, Zval = 16.0
     Generated using ONCVPSP code by D. R. Hamann
     Using radial grid of 1458 points,  6 beta functions with:
                l(1) =   0
                l(2) =   0
                l(3) =   1
                l(4) =   1
                l(5) =   2
                l(6) =   2

     PseudoPot. # 4 for O  read from file:
     /home/pragov/projects/rrg-bengioy-ad/pragov/crystal_structure_design/SSSP/O.pbe-n-kjpaw_psl.0.1.UPF
     MD5 check sum: 0234752ac141de4415c5fc33072bef88
     Pseudo is Projector augmented-wave + core cor, Zval =  6.0
     Generated using "atomic" code by A. Dal Corso  v.5.0.99 svn rev. 10869
     Shape of augmentation charge: BESSEL
     Using radial grid of 1095 points,  4 beta functions with:
                l(1) =   0
                l(2) =   0
                l(3) =   1
                l(4) =   1
     Q(r) pseudized with 0 coefficients

     atomic species   valence    mass     pseudopotential
        Sr            10.00    87.62000     Sr( 1.00)
        Co            17.00    58.93319     Co( 1.00)
        Ru            16.00   101.07000     Ru( 1.00)
        O              6.00    15.99900     O ( 1.00)

      2 Sym. Ops., with inversion, found

                                    s                        frac. trans.

      isym =  1     identity

 cryst.   s( 1) = (     1          0          0      )
                  (     0          1          0      )
                  (     0          0          1      )

 cart.    s( 1) = (  1.0000000  0.0000000 -0.0000000 )
                  (  0.0000000  1.0000000 -0.0000000 )
                  (  0.0000000  0.0000000  1.0000000 )

      isym =  2     inversion

 cryst.   s( 2) = (    -1          0          0      )
                  (     0         -1          0      )
                  (     0          0         -1      )

 cart.    s( 2) = ( -1.0000000 -0.0000000  0.0000000 )
                  (  0.0000000 -1.0000000  0.0000000 )
                  (  0.0000000  0.0000000 -1.0000000 )

   Cartesian axes

     site n.     atom                  positions (alat units)
         1           Sr  tau(   1) = (   0.4967692   0.2899576   0.2058800  )
         2           Sr  tau(   2) = (   1.4867688   0.8678073   0.6161734  )
         3           Co  tau(   3) = (   0.9917690   0.5788824   0.4110267  )
         4           Ru  tau(   4) = (   0.0000000   0.0000000   0.0000000  )
         5           O   tau(   5) = (   1.2285371   0.4391537   0.6542180  )
         6           O   tau(   6) = (   0.7550009   0.7186111   0.1678353  )
         7           O   tau(   7) = (   0.9969992   0.2586714   0.2316867  )
         8           O   tau(   8) = (   1.2680128   0.6947856   0.1989394  )
         9           O   tau(   9) = (   0.9865388   0.8990935   0.5903667  )
        10           O   tau(  10) = (   0.7155252   0.4629793   0.6231140  )

   Crystallographic axes

     site n.     atom                  positions (cryst. coord.)
         1           Sr  tau(   1) = (  0.2504460  0.2504460  0.2504460  )
         2           Sr  tau(   2) = (  0.7495540  0.7495540  0.7495540  )
         3           Co  tau(   3) = (  0.5000000  0.5000000  0.5000000  )
         4           Ru  tau(   4) = (  0.0000000  0.0000000  0.0000000  )
         5           O   tau(   5) = (  0.7181610  0.2420030  0.7958340  )
         6           O   tau(   6) = (  0.2818390  0.7579970  0.2041660  )
         7           O   tau(   7) = (  0.7579970  0.2041660  0.2818390  )
         8           O   tau(   8) = (  0.7958340  0.7181610  0.2420030  )
         9           O   tau(   9) = (  0.2420030  0.7958340  0.7181610  )
        10           O   tau(  10) = (  0.2041660  0.2818390  0.7579970  )

     number of k points=     1  Methfessel-Paxton smearing, width (Ry)=  0.0010
                       cart. coord. in units 2pi/alat
        k(    1) = (   0.0000000   0.0000000   0.0000000), wk =   2.0000000

                       cryst. coord.
        k(    1) = (   0.0000000   0.0000000   0.0000000), wk =   2.0000000

     Check: negative core charge=   -0.000017

     Initial potential from superposition of free atoms

     starting charge      87.9321, renormalised to      89.0000

     negative rho (up, down):  1.267E-01 0.000E+00
     Starting wfcs are   73 randomized atomic wfcs
     Checking if some PAW data can be deallocated...

     Self-consistent Calculation

     iteration #  1     ecut=    30.00 Ry     beta= 0.70
     Davidson diagonalization with overlap

     ethr =  1.00E-02,  avg # of iterations =  2.0

     negative rho (up, down):  1.281E-01 0.000E+00

     total energy              =    -873.42126599 Ry
     estimated scf accuracy    <       5.51006975 Ry

[...]

     total energy              =    -876.92222397 Ry
     estimated scf accuracy    <       0.00000290 Ry

     iteration # 19     ecut=    30.00 Ry     beta= 0.70
     Davidson diagonalization with overlap

     ethr =  3.26E-09,  avg # of iterations =  1.0

[...]

     End of self-consistent calculation

          k = 0.0000 0.0000 0.0000 (  1178 PWs)   bands (ev):

   -84.4486 -63.5772 -47.6901 -47.6575 -47.6574 -33.5233 -33.5011 -33.5010
   -23.4516 -23.4052  -7.4500  -6.6289  -6.6288  -6.3546  -6.3545  -6.1972
    -5.6258  -5.4238  -5.4225  -5.4225  -5.2872  -5.2872   4.7328   5.0242
     5.0243   5.6455   5.6455   5.6577   6.9552   6.9553   7.0032   8.9420
     9.0786   9.0787   9.1326   9.2219   9.2219   9.5994   9.5994   9.7231
     9.8645   9.8646  10.0189  10.5826  10.5826  11.4475  11.5460  11.5460
    15.4381  15.4381  15.5871  16.0148  16.0149  16.3638

     occupation numbers
     1.0000   1.0000   1.0000   1.0000   1.0000   1.0000   1.0000   1.0000
     1.0000   1.0000   1.0000   1.0000   1.0000   1.0000   1.0000   1.0000
     1.0000   1.0000   1.0000   1.0000   1.0000   1.0000   1.0000   1.0000
     1.0000   1.0000   1.0000   1.0000   1.0000   1.0000   1.0000   1.0000
     1.0000   1.0000   1.0000   1.0000   1.0000   1.0000   1.0000   1.0000
     1.0000   1.0000   1.0000   0.7512   0.7488  -0.0000  -0.0000  -0.0000
    -0.0000  -0.0000  -0.0000  -0.0000  -0.0000  -0.0000

     the Fermi energy is    10.5869 ev

!    total energy              =    -876.92222375 Ry
     estimated scf accuracy    <       0.00000044 Ry
     smearing contrib. (-TS)   =      -0.00041261 Ry
     internal energy E=F+TS    =    -876.92181114 Ry

     The total energy is F=E-TS. E is the sum of the following terms:
     one-electron contribution =    -391.46473531 Ry
     hartree contribution      =     244.97234779 Ry
     xc contribution           =    -133.59591621 Ry
     ewald contribution        =    -539.73452264 Ry
     one-center paw contrib.   =     -57.09898479 Ry
      -> PAW hartree energy AE =     177.61117468 Ry
      -> PAW hartree energy PS =    -176.95831229 Ry
      -> PAW xc energy AE      =    -102.98070305 Ry
      -> PAW xc energy PS      =      45.22885587 Ry
      -> total E_H with PAW    =     245.62521019 Ry
      -> total E_XC with PAW   =    -191.34776339 Ry

     convergence has been achieved in  19 iterations

     negative rho (up, down):  1.334E-01 0.000E+00

     Forces acting on atoms (cartesian axes, Ry/au):

     atom    1 type  1   force =    -0.00076944   -0.00045075   -0.00030607
     atom    2 type  1   force =     0.00076944    0.00045075    0.00030607
     atom    3 type  2   force =     0.00000000    0.00000000    0.00000000
     atom    4 type  3   force =     0.00000000    0.00000000    0.00000000
     atom    5 type  4   force =    -0.03747845    0.01764825    0.03322737
     atom    6 type  4   force =     0.03747845   -0.01764825   -0.03322737
     atom    7 type  4   force =     0.00305668   -0.01771797    0.05005198
     atom    8 type  4   force =     0.01396764   -0.05094011    0.00578685
     atom    9 type  4   force =    -0.00305668    0.01771797   -0.05005198
     atom   10 type  4   force =    -0.01396764    0.05094011   -0.00578685
     The non-local contrib.  to forces
     atom    1 type  1   force =     0.00198353    0.00115582    0.00083705
     atom    2 type  1   force =    -0.00198353   -0.00115582   -0.00083705
     atom    3 type  2   force =     0.00000000    0.00000000    0.00000000
     atom    4 type  3   force =     0.00000000    0.00000000    0.00000000
     atom    5 type  4   force =     0.26640886   -0.12050171   -0.00907992
     atom    6 type  4   force =    -0.26640886    0.12050171    0.00907992
     atom    7 type  4   force =    -0.02597897   -0.08709932   -0.27800338
     atom    8 type  4   force =     0.08837392    0.25551565   -0.11145037
     atom    9 type  4   force =     0.02597897    0.08709932    0.27800338
     atom   10 type  4   force =    -0.08837392   -0.25551565    0.11145037
     The ionic contribution  to forces
     atom    1 type  1   force =     0.00295434    0.00172511    0.00122436
     atom    2 type  1   force =    -0.00295434   -0.00172511   -0.00122436
     atom    3 type  2   force =    -0.00000000   -0.00000000    0.00000000
     atom    4 type  3   force =    -0.00000000   -0.00000000   -0.00000000
     atom    5 type  4   force =    -1.96289211    1.08488926    0.20553962
     atom    6 type  4   force =     1.96289211   -1.08488926   -0.20553962
     atom    7 type  4   force =     0.02064875    0.54525369    2.18505236
     atom    8 type  4   force =    -0.48491898   -1.98044680    0.95648919
     atom    9 type  4   force =    -0.02064875   -0.54525369   -2.18505236
     atom   10 type  4   force =     0.48491898    1.98044680   -0.95648919
     The local contribution  to forces
     atom    1 type  1   force =    -0.00561176   -0.00327491   -0.00226731
     atom    2 type  1   force =     0.00561188    0.00327921    0.00226690
     atom    3 type  2   force =    -0.00001081   -0.00001505   -0.00002024
     atom    4 type  3   force =     0.00000868    0.00000629    0.00000557
     atom    5 type  4   force =     1.66132054   -0.94780900   -0.16436927
     atom    6 type  4   force =    -1.66131977    0.94780593    0.16437389
     atom    7 type  4   force =     0.00814110   -0.47580872   -1.85974784
     atom    8 type  4   force =     0.41061432    1.67676788   -0.83964521
     atom    9 type  4   force =    -0.00814620    0.47581893    1.85974790
     atom   10 type  4   force =    -0.41061621   -1.67677010    0.83964707
     The core correction contribution to forces
     atom    1 type  1   force =    -0.00012219   -0.00007101   -0.00005135
     atom    2 type  1   force =     0.00012216    0.00007108    0.00005138
     atom    3 type  2   force =    -0.00000003   -0.00000008   -0.00000008
     atom    4 type  3   force =     0.00000000    0.00000000    0.00000000
     atom    5 type  4   force =    -0.00234291    0.00093499    0.00109357
     atom    6 type  4   force =     0.00234290   -0.00093499   -0.00109357
     atom    7 type  4   force =     0.00033634   -0.00021299    0.00272200
     atom    8 type  4   force =     0.00002390   -0.00269639    0.00053267
     atom    9 type  4   force =    -0.00033640    0.00021308   -0.00272199
     atom   10 type  4   force =    -0.00002392    0.00269639   -0.00053264
     The Hubbard contrib.    to forces
     atom    1 type  1   force =     0.00000000    0.00000000    0.00000000
     atom    2 type  1   force =     0.00000000    0.00000000    0.00000000
     atom    3 type  2   force =     0.00000000    0.00000000    0.00000000
     atom    4 type  3   force =     0.00000000    0.00000000    0.00000000
     atom    5 type  4   force =     0.00000000    0.00000000    0.00000000
     atom    6 type  4   force =     0.00000000    0.00000000    0.00000000
     atom    7 type  4   force =     0.00000000    0.00000000    0.00000000
     atom    8 type  4   force =     0.00000000    0.00000000    0.00000000
     atom    9 type  4   force =     0.00000000    0.00000000    0.00000000
     atom   10 type  4   force =     0.00000000    0.00000000    0.00000000
     The SCF correction term to forces
     atom    1 type  1   force =     0.00002677    0.00001490   -0.00004901
     atom    2 type  1   force =    -0.00002662   -0.00001796    0.00004903
     atom    3 type  2   force =     0.00001147    0.00002184    0.00002718
     atom    4 type  3   force =    -0.00001044   -0.00000745   -0.00001126
     atom    5 type  4   force =     0.00002719    0.00013441    0.00004427
     atom    6 type  4   force =    -0.00002793   -0.00013193   -0.00004710
     atom    7 type  4   force =    -0.00009217    0.00015165    0.00002879
     atom    8 type  4   force =    -0.00012568   -0.00008039   -0.00013911
     atom    9 type  4   force =     0.00009407   -0.00015739   -0.00002895
     atom   10 type  4   force =     0.00012725    0.00008270    0.00013785

     Total force =     0.130177     Total SCF correction =     0.000447

     Computing stress (Cartesian axis) and pressure

     negative rho (up, down):  1.334E-01 0.000E+00
          total   stress  (Ry/bohr**3)                   (kbar)     P=     -378.06
  -0.00259800  -0.00003150  -0.00002282         -382.18       -4.63       -3.36
  -0.00003150  -0.00256028  -0.00001278           -4.63     -376.63       -1.88
  -0.00002282  -0.00001278  -0.00255174           -3.36       -1.88     -375.37

     kinetic stress (kbar)  28581.34    -11.45     -7.78
                              -11.45  28592.96     -5.09
                               -7.78     -5.09  28596.86

     local   stress (kbar) -15051.43    536.25    379.78
                              536.25 -15653.36    223.24
                              379.78    223.24 -15810.80

     nonloc. stress (kbar)  10314.40     -5.93     -3.95
                               -5.93  10320.16     -2.73
                               -3.95     -2.73  10322.61

     hartree stress (kbar)  14022.01   -204.81   -145.12
                             -204.81  14252.13    -85.22
                             -145.12    -85.22  14312.23

     exc-cor stress (kbar)  -2389.53     -1.21     -0.85
                               -1.21  -2388.18     -0.51
                               -0.85     -0.51  -2387.82

     corecor stress (kbar)  -4313.21     -0.05     -0.04
                               -0.05  -4313.14     -0.02
                               -0.04     -0.02  -4313.14

     ewald   stress (kbar) -31545.75   -317.43   -225.39
                             -317.43 -31187.20   -131.56
                             -225.39   -131.56 -31095.32

     hubbard stress (kbar)      0.00      0.00      0.00
                                0.00      0.00      0.00
                                0.00      0.00      0.00

     DFT-D   stress (kbar)      0.00      0.00      0.00
                                0.00      0.00      0.00
                                0.00      0.00      0.00

     XDM     stress (kbar)      0.00      0.00      0.00
                                0.00      0.00      0.00
                                0.00      0.00      0.00

     dft-nl  stress (kbar)      0.00      0.00      0.00
                                0.00      0.00      0.00
                                0.00      0.00      0.00

     TS-vdW  stress (kbar)      0.00      0.00      0.00
                                0.00      0.00      0.00
                                0.00      0.00      0.00

[...]

                                0.00      0.00      0.00

     Writing all to output data dir new_calculations/myprefix.save/

     General routines

     Parallel routines

     PAW routines

   This run was terminated on:   7:34:18  20May2023

   JOB DONE.