     Program PWSCF v.7.0 starts on 21May2023 at  0:50:15

     Reading input from espresso_18701.pwi
Warning: card &CELL ignored
Warning: card / ignored

     Current dimensions of program PWSCF are:
     Max number of different atomic species (ntypx) = 10
     Max number of k-points (npk) =  40000
     Max angular momentum in pseudopotentials (lmaxx) =  4
     file Cd.pbe-dn-rrkjus_psl.0.3.1.UPF: wavefunction(s)  4D renormalized

     gamma-point specific algorithms are used

     Subspace diagonalization in iterative solution of the eigenvalue problem:
     a serial algorithm will be used

     Using Slab Decomposition

     bravais-lattice index     =            0
     lattice parameter (alat)  =      12.9776  a.u.
     unit-cell volume          =    1106.0283 (a.u.)^3
     number of atoms/cell      =           11
     number of atomic types    =            3
     number of electrons       =        99.00
     number of Kohn-Sham states=           60
     kinetic-energy cutoff     =      30.0000  Ry
     charge density cutoff     =     240.0000  Ry
     scf convergence threshold =      1.0E-06
     mixing beta               =       0.7000
     number of iterations used =            8  plain     mixing
     Exchange-correlation=  SLA  PW   PBX  PBC
                           (   1   4   3   4   0   0   0)

     celldm(1)=  12.977614  celldm(2)=   0.000000  celldm(3)=   0.000000
     celldm(4)=   0.000000  celldm(5)=   0.000000  celldm(6)=   0.000000

     crystal axes: (cart. coord. in units of alat)
               a(1) = (   1.000000   0.000000   0.000000 )
               a(2) = (   0.393835   0.919181   0.000000 )
               a(3) = (  -0.696917  -0.459591   0.550529 )

     reciprocal axes: (cart. coord. in units 2 pi/alat)
               b(1) = (  1.000000 -0.428463  0.908217 )
               b(2) = (  0.000000  1.087925  0.908217 )
               b(3) = (  0.000000  0.000000  1.816433 )

     PseudoPot. # 1 for Tb read from file:
     /home/pragov/projects/rrg-bengioy-ad/pragov/crystal_structure_design/SSSP/Tb.GGA-PBE-paw-v1.0.UPF
     MD5 check sum: f7bf3d58e9b293961564f5b9598c921e
     Pseudo is Projector augmented-wave + core cor, Zval = 19.0
     Generated using ATOMPAW code
     Shape of augmentation charge: BESSEL
     Using radial grid of 1111 points,  8 beta functions with:
                l(1) =   0
                l(2) =   0
                l(3) =   1
                l(4) =   1
                l(5) =   2
                l(6) =   2
                l(7) =   3
                l(8) =   3
     Q(r) pseudized with 0 coefficients

     PseudoPot. # 2 for Cd read from file:
     /home/pragov/projects/rrg-bengioy-ad/pragov/crystal_structure_design/SSSP/Cd.pbe-dn-rrkjus_psl.0.3.1.UPF
     MD5 check sum: 558e9f355611b531a870a69ef6ace9e2
     Pseudo is Ultrasoft + core correction, Zval = 12.0
     Generated using "atomic" code by A. Dal Corso  v.5.0.99 svn rev. 10869
     Using radial grid of 1239 points,  6 beta functions with:
                l(1) =   0
                l(2) =   0
                l(3) =   1
                l(4) =   1
                l(5) =   2
                l(6) =   2
     Q(r) pseudized with 0 coefficients

     PseudoPot. # 3 for F  read from file:
     /home/pragov/projects/rrg-bengioy-ad/pragov/crystal_structure_design/SSSP/f_pbe_v1.4.uspp.F.UPF
     MD5 check sum: 4c38b6a325caf53ec0e86aed9459de46
     Pseudo is Ultrasoft, Zval =  7.0
     Generated by new atomic code, or converted to UPF format
     Using radial grid of  799 points,  4 beta functions with:
                l(1) =   0
                l(2) =   0
                l(3) =   1
                l(4) =   1
     Q(r) pseudized with  8 coefficients,  rinner =    0.950   0.950   0.950

     atomic species   valence    mass     pseudopotential
        Tb            19.00   158.92535     Tb( 1.00)
        Cd            12.00   112.41400     Cd( 1.00)
        F              7.00    18.99840     F ( 1.00)

     No symmetry found

                                    s                        frac. trans.

      isym =  1     identity

 cryst.   s( 1) = (     1          0          0      )
                  (     0          1          0      )
                  (     0          0          1      )

 cart.    s( 1) = (  1.0000000  0.0000000 -0.0000000 )
                  (  0.0000000  1.0000000 -0.0000000 )
                  (  0.0000000  0.0000000  1.0000000 )

   Cartesian axes

     site n.     atom                  positions (alat units)
         1           Tb  tau(   1) = (   0.6969174   0.4595906   0.0000000  )
         2           Cd  tau(   2) = (   0.2464746   0.1625407   0.0000000  )
         3           Cd  tau(   3) = (   1.1473602   0.7566406   0.0000000  )
         4           F   tau(   4) = (  -0.0852417   0.3090696   0.5276202  )
         5           F   tau(   5) = (   0.6016661   0.4242182   0.3049443  )
         6           F   tau(   6) = (  -0.0700269  -0.0736223   0.2455851  )
         7           F   tau(   7) = (   0.9297463   0.6249012   0.2027264  )
         8           F   tau(   8) = (   0.5702865   0.1332427   0.0098247  )
         9           F   tau(   9) = (  -0.3498450   0.0121295   0.5407046  )
        10           F   tau(  10) = (   0.2436475   0.1489069   0.3478030  )
        11           F   tau(  11) = (   0.9474372   0.2595157   0.0229092  )

   Crystallographic axes

     site n.     atom                  positions (cryst. coord.)
         1           Tb  tau(   1) = (  0.5000000  0.5000000  0.0000000  )
         2           Cd  tau(   2) = (  0.1768320  0.1768320  0.0000000  )
         3           Cd  tau(   3) = (  0.8231680  0.8231680  0.0000000  )
         4           F   tau(   4) = (  0.2615270  0.8154380  0.9583870  )
         5           F   tau(   5) = (  0.6968600  0.7384730  0.5539110  )
         6           F   tau(   6) = (  0.1845620  0.1429490  0.4460890  )
         7           F   tau(   7) = (  0.8461190  0.8639650  0.3682390  )
         8           F   tau(   8) = (  0.5221200  0.1538810  0.0178460  )
         9           F   tau(   9) = (  0.1360350  0.5042730  0.9821540  )
        10           F   tau(  10) = (  0.4957270  0.4778800  0.6317610  )
        11           F   tau(  11) = (  0.8570510  0.3031400  0.0416130  )

     number of k points=     1  Methfessel-Paxton smearing, width (Ry)=  0.0010
                       cart. coord. in units 2pi/alat
        k(    1) = (   0.0000000   0.0000000   0.0000000), wk =   2.0000000

                       cryst. coord.
        k(    1) = (   0.0000000   0.0000000   0.0000000), wk =   2.0000000

     Check: negative core charge=   -0.000002

     Initial potential from superposition of free atoms

     starting charge      98.9858, renormalised to      99.0000
     Starting wfcs are   82 randomized atomic wfcs
     Checking if some PAW data can be deallocated...

     Self-consistent Calculation

     iteration #  1     ecut=    30.00 Ry     beta= 0.70
     Davidson diagonalization with overlap

     ethr =  1.00E-02,  avg # of iterations =  2.0

     total energy              =   -1359.36401112 Ry
     estimated scf accuracy    <       1.89963515 Ry

[...]

     total energy              =   -1361.22079824 Ry
     estimated scf accuracy    <       0.00000365 Ry

     iteration # 89     ecut=    30.00 Ry     beta= 0.70
     Davidson diagonalization with overlap

     ethr =  1.67E-09,  avg # of iterations =  1.0

     End of self-consistent calculation

          k = 0.0000 0.0000 0.0000 (  1530 PWs)   bands (ev):

   -39.0303 -18.6439 -18.5473 -18.2817 -18.0049 -17.7572 -17.6132 -17.4679
   -17.3596 -15.4966 -15.2164 -15.1546  -2.8469  -2.6793  -2.3820  -2.2101
    -2.1206  -2.0408  -1.8681  -1.5980  -1.4645  -1.1375  -0.8825  -0.5598
     0.5214   0.5802   0.6320   0.7262   0.8062   1.0276   1.1050   1.3300
     1.4590   1.5414   1.6230   1.7199   1.8859   2.1399   2.1761   2.2063
     2.2970   2.3582   2.4595   2.4762   2.5657   2.7633   3.1507   3.1892
     3.2656   3.2790   3.4330   3.5684   3.6326   7.2355  10.2259  11.1519
    11.8863  11.9923  12.1728  13.9920

     occupation numbers
     1.0000   1.0000   1.0000   1.0000   1.0000   1.0000   1.0000   1.0000
     1.0000   1.0000   1.0000   1.0000   1.0000   1.0000   1.0000   1.0000
     1.0000   1.0000   1.0000   1.0000   1.0000   1.0000   1.0000   1.0000
     1.0000   1.0000   1.0000   1.0000   1.0000   1.0000   1.0000   1.0000
     1.0000   1.0000   1.0000   1.0000   1.0000   1.0000   1.0000   1.0000
     1.0000   1.0000   1.0000   1.0000   1.0000   1.0000   1.0000   1.0000
     1.0206   0.4794  -0.0000  -0.0000  -0.0000  -0.0000  -0.0000  -0.0000
    -0.0000  -0.0000  -0.0000  -0.0000

     the Fermi energy is     3.2787 ev

!    total energy              =   -1361.22079764 Ry
     estimated scf accuracy    <       0.00000030 Ry
     smearing contrib. (-TS)   =      -0.00018667 Ry
     internal energy E=F+TS    =   -1361.22061096 Ry

     The total energy is F=E-TS. E is the sum of the following terms:
     one-electron contribution =    -432.54837730 Ry
     hartree contribution      =     284.10356835 Ry
     xc contribution           =    -185.22157300 Ry
     ewald contribution        =    -553.85959078 Ry
     one-center paw contrib.   =    -473.69463823 Ry
      -> PAW hartree energy AE =     209.73515462 Ry
      -> PAW hartree energy PS =    -196.72083747 Ry
      -> PAW xc energy AE      =    -510.11220374 Ry
      -> PAW xc energy PS      =      23.40324836 Ry
      -> total E_H with PAW    =     297.11788550 Ry
      -> total E_XC with PAW   =    -671.93052839 Ry

     convergence has been achieved in  89 iterations

     Forces acting on atoms (cartesian axes, Ry/au):

     atom    1 type  1   force =    -0.00031077    0.00518175   -0.02573411
     atom    2 type  2   force =     0.00801967    0.00267303   -0.00364149
     atom    3 type  2   force =    -0.00497359   -0.01138133    0.00071993
     atom    4 type  3   force =    -0.01444469    0.00004555    0.07158997
     atom    5 type  3   force =    -0.01498228    0.02777920    0.02478435
     atom    6 type  3   force =     0.01443476   -0.02507040    0.01738271
     atom    7 type  3   force =    -0.00315829    0.00481950   -0.01796799
     atom    8 type  3   force =    -0.00348783    0.00623116   -0.01785066
     atom    9 type  3   force =     0.00540767    0.00475810    0.01376204
     atom   10 type  3   force =     0.00038402    0.00304029    0.00923464
     atom   11 type  3   force =     0.01311133   -0.01807685   -0.07227939
     The non-local contrib.  to forces
     atom    1 type  1   force =    -0.25124365   -0.18372205   -0.06878055
     atom    2 type  2   force =    -0.01266624   -0.00062336   -0.00563685
     atom    3 type  2   force =     0.05183807    0.03177769   -0.00437932
     atom    4 type  3   force =     0.26394263    0.00812636    0.18610800
     atom    5 type  3   force =    -0.12251920   -0.20520895   -0.12032603
     atom    6 type  3   force =    -0.24962039   -0.05105939    0.15130244
     atom    7 type  3   force =     0.08543146   -0.00999583   -0.22190083
     atom    8 type  3   force =    -0.19861335    0.16407258   -0.08501271
     atom    9 type  3   force =     0.08681630   -0.23705585    0.05443509
     atom   10 type  3   force =     0.04080049    0.08776499    0.24602440
     atom   11 type  3   force =     0.13139273    0.22628155   -0.17488700
     The ionic contribution  to forces
     atom    1 type  1   force =    -0.00000160    0.00005573   -0.00004451
     atom    2 type  2   force =     0.17466849    0.11514116    0.00000232
     atom    3 type  2   force =    -0.17465839   -0.11519789    0.00003224
     atom    4 type  3   force =    -1.44479043    4.43574155   -1.07319012
     atom    5 type  3   force =    -1.62254935    0.21552297    4.49844165
     atom    6 type  3   force =    -0.44090725   -1.57629486   -4.49844065
     atom    7 type  3   force =     2.54354847    2.37039856    4.55240414
     atom    8 type  3   force =    -0.35581349   -5.68785205    0.57854499
     atom    9 type  3   force =    -5.36825442    1.91308480   -0.57854720
     atom   10 type  3   force =     3.18050469    1.40438298   -4.55239519
     atom   11 type  3   force =     3.50825327   -3.07498294    1.07319232
     The local contribution  to forces
     atom    1 type  1   force =     0.24963707    0.19105089    0.04427941
     atom    2 type  2   force =    -0.15569502   -0.10989982    0.00316100
     atom    3 type  2   force =     0.11680756    0.07513761    0.00664679
     atom    4 type  3   force =     1.16513027   -4.44213909    0.95970920
     atom    5 type  3   force =     1.72885954    0.01943962   -4.35258907
     atom    6 type  3   force =     0.70372888    1.60423835    4.36581182
     atom    7 type  3   force =    -2.63359833   -2.35384865   -4.34756468
     atom    8 type  3   force =     0.54963406    5.53197736   -0.51031801
     atom    9 type  3   force =     5.28564020   -1.66937905    0.53887740
     atom   10 type  3   force =    -3.22235573   -1.48730061    4.31674244
     atom   11 type  3   force =    -3.62802660    2.83275241   -0.96963713
     The core correction contribution to forces
     atom    1 type  1   force =     0.00000975    0.00000730    0.00000071
     atom    2 type  2   force =     0.00033334   -0.00001663   -0.00019122
     atom    3 type  2   force =    -0.00043755   -0.00135660   -0.00064581
     atom    4 type  3   force =     0.00000000    0.00000000    0.00000000
     atom    5 type  3   force =     0.00000000    0.00000000    0.00000000
     atom    6 type  3   force =     0.00000000    0.00000000    0.00000000
     atom    7 type  3   force =     0.00000000    0.00000000    0.00000000
     atom    8 type  3   force =     0.00000000    0.00000000    0.00000000
     atom    9 type  3   force =     0.00000000    0.00000000    0.00000000
     atom   10 type  3   force =     0.00000000    0.00000000    0.00000000
     atom   11 type  3   force =     0.00000000    0.00000000    0.00000000
     The Hubbard contrib.    to forces
     atom    1 type  1   force =     0.00000000    0.00000000    0.00000000
     atom    2 type  2   force =     0.00000000    0.00000000    0.00000000
     atom    3 type  2   force =     0.00000000    0.00000000    0.00000000
     atom    4 type  3   force =     0.00000000    0.00000000    0.00000000
     atom    5 type  3   force =     0.00000000    0.00000000    0.00000000
     atom    6 type  3   force =     0.00000000    0.00000000    0.00000000
     atom    7 type  3   force =     0.00000000    0.00000000    0.00000000
     atom    8 type  3   force =     0.00000000    0.00000000    0.00000000
     atom    9 type  3   force =     0.00000000    0.00000000    0.00000000
     atom   10 type  3   force =     0.00000000    0.00000000    0.00000000
     atom   11 type  3   force =     0.00000000    0.00000000    0.00000000
     The SCF correction term to forces
     atom    1 type  1   force =    -0.00005420   -0.00032630   -0.00017393
     atom    2 type  2   force =     0.00003724   -0.00004450    0.00003850
     atom    3 type  2   force =     0.00013486    0.00014168    0.00008125
     atom    4 type  3   force =    -0.00006902    0.00020054   -0.00002187
     atom    5 type  3   force =    -0.00011513   -0.00009061    0.00027304
     atom    6 type  3   force =    -0.00010833   -0.00007068   -0.00027566
     atom    7 type  3   force =     0.00011825    0.00014924    0.00010863
     atom    8 type  3   force =    -0.00003691   -0.00008291   -0.00004968
     atom    9 type  3   force =    -0.00013627   -0.00000799    0.00001199
     atom   10 type  3   force =     0.00009271    0.00007675   -0.00012177
     atom   11 type  3   force =     0.00015008   -0.00024405    0.00006767

     Total force =     0.125684     Total SCF correction =     0.000786

     Computing stress (Cartesian axis) and pressure

          total   stress  (Ry/bohr**3)                   (kbar)     P=     -337.93
  -0.00208760   0.00056647   0.00121117         -307.10       83.33      178.17
   0.00056647  -0.00158169  -0.00072266           83.33     -232.67     -106.31
   0.00121117  -0.00072266  -0.00322231          178.17     -106.31     -474.02

     kinetic stress (kbar)  22002.07     17.83     95.80
                               17.83  22100.23    -58.18
                               95.80    -58.18  22027.08

     local   stress (kbar) -10055.11  -5184.54    -36.69
                            -5184.54  -5693.45     11.14
                              -36.69     11.14  -2230.74

     nonloc. stress (kbar)   1540.79     55.72    120.35
                               55.72   1604.79    -59.70
                              120.35    -59.70   1396.93

     hartree stress (kbar)  14266.55   2116.16     -2.34
                             2116.16  12457.60      1.00
                               -2.34      1.00  11062.47

     exc-cor stress (kbar)    907.89      1.24     -1.29
                                1.24    905.05      0.75
                               -1.29      0.75    905.90

     corecor stress (kbar)  -6848.17      0.32      2.33
                                0.32  -6849.41     -1.32
                                2.33     -1.32  -6849.28

     ewald   stress (kbar) -22121.12   3076.60      0.02
                             3076.60 -24757.48      0.01
                                0.02      0.01 -26786.38

     hubbard stress (kbar)      0.00      0.00      0.00
                                0.00      0.00      0.00
                                0.00      0.00      0.00

     DFT-D   stress (kbar)      0.00      0.00      0.00
                                0.00      0.00      0.00
                                0.00      0.00      0.00

     XDM     stress (kbar)      0.00      0.00      0.00
                                0.00      0.00      0.00
                                0.00      0.00      0.00

     dft-nl  stress (kbar)      0.00      0.00      0.00
                                0.00      0.00      0.00
                                0.00      0.00      0.00

     TS-vdW  stress (kbar)      0.00      0.00      0.00
                                0.00      0.00      0.00
                                0.00      0.00      0.00

[...]

                                0.00      0.00      0.00

     Writing all to output data dir new_calculations/myprefix.save/

     General routines

     Parallel routines

     PAW routines

   This run was terminated on:   0:52:10  21May2023

   JOB DONE.