     Program PWSCF v.7.0 starts on 20May2023 at 22:27:17

     Reading input from espresso_3795.pwi
Warning: card &CELL ignored
Warning: card / ignored

     Current dimensions of program PWSCF are:
     Max number of different atomic species (ntypx) = 10
     Max number of k-points (npk) =  40000
     Max angular momentum in pseudopotentials (lmaxx) =  4
     file K.pbe-spn-kjpaw_psl.1.0.0.UPF: wavefunction(s)  3S renormalized
     file O.pbe-n-kjpaw_psl.0.1.UPF: wavefunction(s)  2P renormalized

     gamma-point specific algorithms are used
     Message from routine setup:
     using ibrav=0 with symmetry is DISCOURAGED, use correct ibrav instead

     Subspace diagonalization in iterative solution of the eigenvalue problem:
     a serial algorithm will be used

     Using Slab Decomposition

     bravais-lattice index     =            0
     lattice parameter (alat)  =      14.4929  a.u.
     unit-cell volume          =    1494.3682 (a.u.)^3
     number of atoms/cell      =           12
     number of atomic types    =            3
     number of electrons       =        80.00
     number of Kohn-Sham states=           48
     kinetic-energy cutoff     =      30.0000  Ry
     charge density cutoff     =     240.0000  Ry
     scf convergence threshold =      1.0E-06
     mixing beta               =       0.7000
     number of iterations used =            8  plain     mixing
     Exchange-correlation= SLA  PW   PBX  PBC
                           (   1   4   3   4   0   0   0)

     celldm(1)=  14.492887  celldm(2)=   0.000000  celldm(3)=   0.000000
     celldm(4)=   0.000000  celldm(5)=   0.000000  celldm(6)=   0.000000

     crystal axes: (cart. coord. in units of alat)
               a(1) = (   1.000000   0.000000   0.000000 )
               a(2) = (   0.416739   0.909026   0.000000 )
               a(3) = (  -0.708369  -0.454513   0.540028 )

     reciprocal axes: (cart. coord. in units 2 pi/alat)
               b(1) = (  1.000000 -0.458445  0.925877 )
               b(2) = (  0.000000  1.100078  0.925877 )
               b(3) = (  0.000000  0.000000  1.851755 )

     PseudoPot. # 1 for K  read from file:
     /home/pragov/projects/rrg-bengioy-ad/pragov/crystal_structure_design/SSSP/K.pbe-spn-kjpaw_psl.1.0.0.UPF
     MD5 check sum: 7d58810084cac21f60fbe77ea2b688fd
     Pseudo is Projector augmented-wave + core cor, Zval =  9.0
     Generated using "atomic" code by A. Dal Corso  v.5.1
     Shape of augmentation charge: PSQ
     Using radial grid of 1165 points,  6 beta functions with:
                l(1) =   0
                l(2) =   0
                l(3) =   1
                l(4) =   1
                l(5) =   2
                l(6) =   2
     Q(r) pseudized with 0 coefficients

     PseudoPot. # 2 for I  read from file:
     /home/pragov/projects/rrg-bengioy-ad/pragov/crystal_structure_design/SSSP/I.pbe-n-kjpaw_psl.0.2.UPF
     MD5 check sum: d4ef18d9c8f18dc85e5843bca1e50dc0
     Pseudo is Projector augmented-wave + core cor, Zval =  7.0
     Generated using "atomic" code by A. Dal Corso  v.5.0.99 svn rev. 10869
     Shape of augmentation charge: PSQ
     Using radial grid of 1247 points,  4 beta functions with:
                l(1) =   0
                l(2) =   0
                l(3) =   1
                l(4) =   1
     Q(r) pseudized with 0 coefficients

     PseudoPot. # 3 for O  read from file:
     /home/pragov/projects/rrg-bengioy-ad/pragov/crystal_structure_design/SSSP/O.pbe-n-kjpaw_psl.0.1.UPF
     MD5 check sum: 0234752ac141de4415c5fc33072bef88
     Pseudo is Projector augmented-wave + core cor, Zval =  6.0
     Generated using "atomic" code by A. Dal Corso  v.5.0.99 svn rev. 10869
     Shape of augmentation charge: BESSEL
     Using radial grid of 1095 points,  4 beta functions with:
                l(1) =   0
                l(2) =   0
                l(3) =   1
                l(4) =   1
     Q(r) pseudized with 0 coefficients

     atomic species   valence    mass     pseudopotential
        K              9.00    39.09830     K ( 1.00)
        I              7.00   126.90447     I ( 1.00)
        O              6.00    15.99900     O ( 1.00)

      2 Sym. Ops., with inversion, found ( 1 have fractional translation)

                                    s                        frac. trans.

      isym =  1     identity

 cryst.   s( 1) = (     1          0          0      )
                  (     0          1          0      )
                  (     0          0          1      )

 cart.    s( 1) = (  1.0000000  0.0000000  0.0000000 )
                  (  0.0000000  1.0000000  0.0000000 )
                  (  0.0000000  0.0000000  1.0000000 )

      isym =  2     inversion

 cryst.   s( 2) = (    -1          0          0      )    f =(  0.2500000 )
                  (     0         -1          0      )       ( -0.2500000 )
                  (     0          0         -1      )       ( -0.5000000 )

 cart.    s( 2) = ( -1.0000000 -0.0000000 -0.0000000 )    f =(  0.5000000 )
                  (  0.0000000 -1.0000000 -0.0000000 )       (  0.0000000 )
                  (  0.0000000  0.0000000 -1.0000000 )       ( -0.2700141 )

   Cartesian axes

     site n.     atom                  positions (alat units)
         1           K   tau(   1) = (   0.2083695   0.4545131   0.2700141  )
         2           K   tau(   2) = (   0.7083695   0.4545131   0.0000000  )
         3           I   tau(   3) = (   0.0000000   0.0000000   0.0000000  )
         4           I   tau(   4) = (   0.5000000  -0.0000000   0.2700141  )
         5           O   tau(   5) = (   0.8452049   0.4839156   0.3519937  )
         6           O   tau(   6) = (  -0.2881622  -0.0874906   0.3191626  )
         7           O   tau(   7) = (   0.5087498   0.2290269   0.2208656  )
         8           O   tau(   8) = (   0.0837522   0.1121338   0.1880346  )
         9           O   tau(   9) = (   0.8329867   0.7968924   0.0819795  )
        10           O   tau(  10) = (   0.4079891   0.6799993   0.0491485  )
        11           O   tau(  11) = (   0.0797927  -0.3670225   0.4908798  )
        12           O   tau(  12) = (   0.3631646  -0.0294025   0.4580487  )

   Crystallographic axes

     site n.     atom                  positions (cryst. coord.)
         1           K   tau(   1) = (  0.2500000  0.7500000  0.5000000  )
         2           K   tau(   2) = (  0.5000000  0.5000000  0.0000000  )
         3           I   tau(   3) = (  0.0000000  0.0000000  0.0000000  )
         4           I   tau(   4) = (  0.7500000  0.2500000  0.5000000  )
         5           O   tau(   5) = (  0.9492590  0.8582480  0.6518060  )
         6           O   tau(   6) = (  0.0474530  0.1992590  0.5910110  )
         7           O   tau(   7) = (  0.6082480  0.4564420  0.4089890  )
         8           O   tau(   8) = (  0.2064420  0.2974530  0.3481940  )
         9           O   tau(   9) = (  0.5435580  0.9525470  0.1518060  )
        10           O   tau(  10) = (  0.1417520  0.7935580  0.0910110  )
        11           O   tau(  11) = (  0.7025470  0.0507410  0.9089890  )
        12           O   tau(  12) = (  0.8007410  0.3917520  0.8481940  )

     number of k points=     1  Methfessel-Paxton smearing, width (Ry)=  0.0010
                       cart. coord. in units 2pi/alat
        k(    1) = (   0.0000000   0.0000000   0.0000000), wk =   2.0000000

                       cryst. coord.
        k(    1) = (   0.0000000   0.0000000   0.0000000), wk =   2.0000000

     Check: negative core charge=   -0.000009

     Initial potential from superposition of free atoms

     starting charge      79.9622, renormalised to      80.0000
     Starting wfcs are   56 randomized atomic wfcs
     Checking if some PAW data can be deallocated...

     Self-consistent Calculation

     iteration #  1     ecut=    30.00 Ry     beta= 0.70
     Davidson diagonalization with overlap

     ethr =  1.00E-02,  avg # of iterations =  3.0

     total energy              =   -1314.45142491 Ry
     estimated scf accuracy    <       3.81192218 Ry

[...]

     total energy              =   -1316.32274606 Ry
     estimated scf accuracy    <       0.00000460 Ry

     iteration # 10     ecut=    30.00 Ry     beta= 0.70
     Davidson diagonalization with overlap

     ethr =  5.75E-09,  avg # of iterations =  2.0

     End of self-consistent calculation

          k = 0.0000 0.0000 0.0000 (  2091 PWs)   bands (ev):

   -24.8488 -24.6940 -18.5411 -18.2979 -15.8833 -15.8360 -15.5954 -15.5473
   -15.4877 -15.2488  -8.4452  -8.3771  -8.2814  -8.2653  -8.2189  -8.1747
    -7.7990  -7.4466  -3.0586  -2.9756  -2.9145  -2.8799  -2.7516  -2.6832
     0.0395   0.1812   0.3028   0.3876   0.4820   0.7242   0.7618   1.1252
     1.1481   1.3084   1.4755   1.4817   1.6134   1.8241   1.8957   1.9311
     4.5551   5.6841   7.8549   8.1814   8.3145   8.3643   8.7515   8.8174

     occupation numbers
     1.0000   1.0000   1.0000   1.0000   1.0000   1.0000   1.0000   1.0000
     1.0000   1.0000   1.0000   1.0000   1.0000   1.0000   1.0000   1.0000
     1.0000   1.0000   1.0000   1.0000   1.0000   1.0000   1.0000   1.0000
     1.0000   1.0000   1.0000   1.0000   1.0000   1.0000   1.0000   1.0000
     1.0000   1.0000   1.0000   1.0000   1.0000   1.0000   1.0000   1.0000
    -0.0000  -0.0000  -0.0000  -0.0000  -0.0000  -0.0000  -0.0000  -0.0000

     the Fermi energy is     2.5900 ev

!    total energy              =   -1316.32274689 Ry

     total all-electron energy =    -32077.570201 Ry
     estimated scf accuracy    <       0.00000002 Ry
     smearing contrib. (-TS)   =       0.00000000 Ry
     internal energy E=F+TS    =   -1316.32274689 Ry

     The total energy is F=E-TS. E is the sum of the following terms:
     one-electron contribution =    -164.82476941 Ry
     hartree contribution      =     122.57654791 Ry
     xc contribution           =    -165.13808009 Ry
     ewald contribution        =    -280.84753937 Ry
     one-center paw contrib.   =    -828.08890593 Ry
      -> PAW hartree energy AE =     320.47635548 Ry
      -> PAW hartree energy PS =    -319.43964649 Ry
      -> PAW xc energy AE      =    -988.97143158 Ry
      -> PAW xc energy PS      =     159.84581667 Ry
      -> total E_H with PAW    =     123.61325689 Ry
      -> total E_XC with PAW   =    -994.26369501 Ry

     convergence has been achieved in  10 iterations

     Forces acting on atoms (cartesian axes, Ry/au):

     atom    1 type  1   force =     0.00010473    0.00052781    0.00124750
     atom    2 type  1   force =    -0.00010473   -0.00052781   -0.00124750
     atom    3 type  2   force =     0.00842715   -0.00082916   -0.00634692
     atom    4 type  2   force =    -0.00842715    0.00082916    0.00634692
     atom    5 type  3   force =     0.04055470   -0.00698918   -0.06661803
     atom    6 type  3   force =     0.06951025   -0.02944140    0.07397174
     atom    7 type  3   force =    -0.00592463    0.06741051   -0.08650927
     atom    8 type  3   force =     0.02016076    0.03715304    0.07821391
     atom    9 type  3   force =    -0.02016076   -0.03715304   -0.07821391
     atom   10 type  3   force =     0.00592463   -0.06741051    0.08650927
     atom   11 type  3   force =    -0.06951025    0.02944140   -0.07397174
     atom   12 type  3   force =    -0.04055470    0.00698918    0.06661803
     The non-local contrib.  to forces
     atom    1 type  1   force =     0.00221863    0.00320252    0.00025623
     atom    2 type  1   force =    -0.00221863   -0.00320252   -0.00025623
     atom    3 type  2   force =     0.00829520    0.00127501   -0.00626938
     atom    4 type  2   force =    -0.00829520   -0.00127501    0.00626938
     atom    5 type  3   force =    -0.96739343   -0.23680327    1.38309457
     atom    6 type  3   force =    -1.60215161    0.66545228   -0.29057364
     atom    7 type  3   force =    -0.01017724   -1.69835048    0.30640319
     atom    8 type  3   force =    -0.61928498   -0.77875285   -1.38933974
     atom    9 type  3   force =     0.61928498    0.77875285    1.38933974
     atom   10 type  3   force =     0.01017724    1.69835048   -0.30640319
     atom   11 type  3   force =     1.60215161   -0.66545228    0.29057364
     atom   12 type  3   force =     0.96739343    0.23680327   -1.38309457
     The ionic contribution  to forces
     atom    1 type  1   force =    -0.00000000    0.00000000    0.00000000
     atom    2 type  1   force =     0.00000000    0.00000000   -0.00000000
     atom    3 type  2   force =    -0.00000000   -0.00000000   -0.00000000
     atom    4 type  2   force =     0.00000000    0.00000000    0.00000000
     atom    5 type  3   force =     3.36631419    0.13460076   -4.69747529
     atom    6 type  3   force =     4.98254145   -2.38432778    1.70461853
     atom    7 type  3   force =    -0.09099749    5.52290302   -1.70461853
     atom    8 type  3   force =     1.52522978    3.00397448    4.69747529
     atom    9 type  3   force =    -1.52522978   -3.00397448   -4.69747529
     atom   10 type  3   force =     0.09099749   -5.52290302    1.70461853
     atom   11 type  3   force =    -4.98254145    2.38432778   -1.70461853
     atom   12 type  3   force =    -3.36631419   -0.13460076    4.69747528
     The local contribution  to forces
     atom    1 type  1   force =    -0.00258789   -0.00198564    0.00298993
     atom    2 type  1   force =     0.00177140    0.00344675    0.00127240
     atom    3 type  2   force =    -0.00454827    0.00066286   -0.00160043
     atom    4 type  2   force =    -0.00459411    0.00630321   -0.00216337
     atom    5 type  3   force =    -2.32429184    0.08890529    3.22448272
     atom    6 type  3   force =    -3.32708843    1.69256992   -1.33778849
     atom    7 type  3   force =     0.09704420   -3.77531369    1.30024375
     atom    8 type  3   force =    -0.92679840   -2.20173816   -3.22877149
     atom    9 type  3   force =     0.85672065    2.19004019    3.26028472
     atom   10 type  3   force =    -0.09435530    3.77295822   -1.33121008
     atom   11 type  3   force =     3.32742251   -1.69948105    1.34969189
     atom   12 type  3   force =     2.41279700   -0.09725480   -3.30028331
     The core correction contribution to forces
     atom    1 type  1   force =    -0.00002769    0.00007765    0.00025911
     atom    2 type  1   force =    -0.00021496   -0.00002712   -0.00003745
     atom    3 type  2   force =    -0.00136169    0.00103059   -0.00056377
     atom    4 type  2   force =    -0.00149028   -0.00043835    0.00021222
     atom    5 type  3   force =     0.01094658    0.00200985   -0.01501746
     atom    6 type  3   force =     0.01619337   -0.00653943    0.00399352
     atom    7 type  3   force =    -0.00029877    0.01706992   -0.00461453
     atom    8 type  3   force =     0.00515599    0.00785363    0.01508032
     atom    9 type  3   force =    -0.00679809   -0.00781625   -0.01413040
     atom   10 type  3   force =     0.00050592   -0.01688235    0.00335146
     atom   11 type  3   force =    -0.01658116    0.00658022   -0.00332774
     atom   12 type  3   force =    -0.00942268   -0.00230547    0.01425514
     The Hubbard contrib.    to forces
     atom    1 type  1   force =     0.00000000    0.00000000    0.00000000
     atom    2 type  1   force =     0.00000000    0.00000000    0.00000000
     atom    3 type  2   force =     0.00000000    0.00000000    0.00000000
     atom    4 type  2   force =     0.00000000    0.00000000    0.00000000
     atom    5 type  3   force =     0.00000000    0.00000000    0.00000000
     atom    6 type  3   force =     0.00000000    0.00000000    0.00000000
     atom    7 type  3   force =     0.00000000    0.00000000    0.00000000
     atom    8 type  3   force =     0.00000000    0.00000000    0.00000000
     atom    9 type  3   force =     0.00000000    0.00000000    0.00000000
     atom   10 type  3   force =     0.00000000    0.00000000    0.00000000
     atom   11 type  3   force =     0.00000000    0.00000000    0.00000000
     atom   12 type  3   force =     0.00000000    0.00000000    0.00000000
     The SCF correction term to forces
     atom    1 type  1   force =     0.00001375   -0.00002841    0.00001877
     atom    2 type  1   force =     0.00006952   -0.00000662    0.00005031
     atom    3 type  2   force =     0.00003316   -0.00000339    0.00000846
     atom    4 type  2   force =    -0.00005630    0.00003353   -0.00004951
     atom    5 type  3   force =    -0.00002885   -0.00000990   -0.00000942
     atom    6 type  3   force =     0.00001650   -0.00004298    0.00000319
     atom    7 type  3   force =    -0.00007200    0.00001487   -0.00002629
     atom    8 type  3   force =    -0.00001770   -0.00001964   -0.00002737
     atom    9 type  3   force =    -0.00001458    0.00000906   -0.00002958
     atom   10 type  3   force =     0.00002262   -0.00002070    0.00004940
     atom   11 type  3   force =     0.00003926    0.00002012   -0.00000964
     atom   12 type  3   force =    -0.00001633    0.00003884   -0.00004136

     Total force =     0.273434     Total SCF correction =     0.000194

     Computing stress (Cartesian axis) and pressure

          total   stress  (Ry/bohr**3)                   (kbar)     P=     -143.59
  -0.00094143  -0.00002036  -0.00016063         -138.49       -3.00      -23.63
  -0.00002036  -0.00129337   0.00015826           -3.00     -190.26       23.28
  -0.00016063   0.00015826  -0.00069349          -23.63       23.28     -102.02

     kinetic stress (kbar)  12842.63     28.79     -9.73
                               28.79  12803.80      6.50
                               -9.73      6.50  12819.79

     local   stress (kbar)  -7238.23   -347.12    -11.11
                             -347.12  -6958.83     17.57
                              -11.11     17.57  -6689.56

     nonloc. stress (kbar)   2154.44     11.26     -3.32
                               11.26   2138.33      0.69
                               -3.32      0.69   2142.53

     hartree stress (kbar)   4157.64    164.94      0.83
                              164.94   4010.38     -1.75
                                0.83     -1.75   3898.37

     exc-cor stress (kbar)   5095.04     -0.35      0.04
                               -0.35   5095.36     -0.04
                                0.04     -0.04   5095.52

     corecor stress (kbar)  -8049.16      0.54     -0.33
                                0.54  -8051.05      0.31
                               -0.33      0.31  -8051.24

     ewald   stress (kbar)  -9100.85    138.96      0.00
                              138.96  -9228.26      0.00
                                0.00      0.00  -9317.42

     hubbard stress (kbar)      0.00      0.00      0.00
                                0.00      0.00      0.00
                                0.00      0.00      0.00

     DFT-D   stress (kbar)      0.00      0.00      0.00
                                0.00      0.00      0.00
                                0.00      0.00      0.00

     XDM     stress (kbar)      0.00      0.00      0.00
                                0.00      0.00      0.00
                                0.00      0.00      0.00

     dft-nl  stress (kbar)      0.00      0.00      0.00
                                0.00      0.00      0.00
                                0.00      0.00      0.00

     TS-vdW  stress (kbar)      0.00      0.00      0.00
                                0.00      0.00      0.00
                                0.00      0.00      0.00

[...]

                                0.00      0.00      0.00

     Writing all to output data dir new_calculations/myprefix.save/

     General routines

     Parallel routines

     PAW routines

   This run was terminated on:  22:27:37  20May2023

   JOB DONE.