     Program PWSCF v.7.0 starts on 20May2023 at  3:29:35

     Reading input from espresso_5107.pwi
Warning: card &CELL ignored
Warning: card / ignored

     Current dimensions of program PWSCF are:
     Max number of different atomic species (ntypx) = 10
     Max number of k-points (npk) =  40000
     Max angular momentum in pseudopotentials (lmaxx) =  4
     file O.pbe-n-kjpaw_psl.0.1.UPF: wavefunction(s)  2P renormalized

     gamma-point specific algorithms are used
     Message from routine setup:
     using ibrav=0 with symmetry is DISCOURAGED, use correct ibrav instead

     Subspace diagonalization in iterative solution of the eigenvalue problem:
     a serial algorithm will be used

     Using Slab Decomposition

     bravais-lattice index     =            0
     lattice parameter (alat)  =      11.0268  a.u.
     unit-cell volume          =    1340.7533 (a.u.)^3
     number of atoms/cell      =           16
     number of atomic types    =            4
     number of electrons       =       184.00
     number of Kohn-Sham states=          110
     kinetic-energy cutoff     =      30.0000  Ry
     charge density cutoff     =     240.0000  Ry
     scf convergence threshold =      1.0E-06
     mixing beta               =       0.7000
     number of iterations used =            8  plain     mixing
     Exchange-correlation= SLA  PW   PBX  PBC
                           (   1   4   3   4   0   0   0)

     celldm(1)=  11.026803  celldm(2)=   0.000000  celldm(3)=   0.000000
     celldm(4)=   0.000000  celldm(5)=   0.000000  celldm(6)=   0.000000

     crystal axes: (cart. coord. in units of alat)
               a(1) = (   1.000000   0.000000   0.000000 )
               a(2) = (   0.000000   1.000000   0.000000 )
               a(3) = (   0.000000   0.000000   1.000000 )

     reciprocal axes: (cart. coord. in units 2 pi/alat)
               b(1) = (  1.000000  0.000000  0.000000 )
               b(2) = (  0.000000  1.000000  0.000000 )
               b(3) = (  0.000000  0.000000  1.000000 )

     PseudoPot. # 1 for Na read from file:
     /home/pragov/projects/rrg-bengioy-ad/pragov/crystal_structure_design/SSSP/na_pbe_v1.5.uspp.F.UPF
     MD5 check sum: 44600605ef58000f06b90626533354dc
     Pseudo is Ultrasoft, Zval =  9.0
     Generated by new atomic code, or converted to UPF format
     Using radial grid of  819 points,  5 beta functions with:
                l(1) =   0
                l(2) =   0
                l(3) =   1
                l(4) =   1
                l(5) =   2
     Q(r) pseudized with  8 coefficients,  rinner =    1.250   1.250   1.250
                                                       1.250   1.250

     PseudoPot. # 2 for Tb read from file:
     /home/pragov/projects/rrg-bengioy-ad/pragov/crystal_structure_design/SSSP/Tb.GGA-PBE-paw-v1.0.UPF
     MD5 check sum: f7bf3d58e9b293961564f5b9598c921e
     Pseudo is Projector augmented-wave + core cor, Zval = 19.0
     Generated using ATOMPAW code
     Shape of augmentation charge: BESSEL
     Using radial grid of 1111 points,  8 beta functions with:
                l(1) =   0
                l(2) =   0
                l(3) =   1
                l(4) =   1
                l(5) =   2
                l(6) =   2
                l(7) =   3
                l(8) =   3
     Q(r) pseudized with 0 coefficients

     PseudoPot. # 3 for Pd read from file:
     /home/pragov/projects/rrg-bengioy-ad/pragov/crystal_structure_design/SSSP/Pd_ONCV_PBE-1.0.oncvpsp.upf
     MD5 check sum: eb77f42b51d86fb18e25f68156a31cf1
     Pseudo is Norm-conserving, Zval = 18.0
     Generated using ONCVPSP code by D. R. Hamann
     Using radial grid of 1410 points,  6 beta functions with:
                l(1) =   0
                l(2) =   0
                l(3) =   1
                l(4) =   1
                l(5) =   2
                l(6) =   2

     PseudoPot. # 4 for O  read from file:
     /home/pragov/projects/rrg-bengioy-ad/pragov/crystal_structure_design/SSSP/O.pbe-n-kjpaw_psl.0.1.UPF
     MD5 check sum: 0234752ac141de4415c5fc33072bef88
     Pseudo is Projector augmented-wave + core cor, Zval =  6.0
     Generated using "atomic" code by A. Dal Corso  v.5.0.99 svn rev. 10869
     Shape of augmentation charge: BESSEL
     Using radial grid of 1095 points,  4 beta functions with:
                l(1) =   0
                l(2) =   0
                l(3) =   1
                l(4) =   1
     Q(r) pseudized with 0 coefficients

     atomic species   valence    mass     pseudopotential
        Na             9.00    22.98977     Na( 1.00)
        Tb            19.00   158.92535     Tb( 1.00)
        Pd            18.00   106.42000     Pd( 1.00)
        O              6.00    15.99900     O ( 1.00)

     24 Sym. Ops., with inversion, found

                                    s                        frac. trans.

      isym =  1     identity

 cryst.   s( 1) = (     1          0          0      )
                  (     0          1          0      )
                  (     0          0          1      )

 cart.    s( 1) = (  1.0000000  0.0000000  0.0000000 )
                  (  0.0000000  1.0000000  0.0000000 )
                  (  0.0000000  0.0000000  1.0000000 )

      isym =  2     180 deg rotation - cart. axis [0,0,1]

[...]

 cryst.   s( 9) = (     0          1          0      )
                  (     0          0          1      )
                  (     1          0          0      )

 cart.    s( 9) = (  0.0000000  0.0000000  1.0000000 )
                  (  1.0000000  0.0000000  0.0000000 )
                  (  0.0000000  1.0000000  0.0000000 )

[...]

 cryst.   s(10) = (     0         -1          0      )
                  (     0          0         -1      )
                  (     1          0          0      )

 cart.    s(10) = (  0.0000000  0.0000000  1.0000000 )
                  ( -1.0000000  0.0000000  0.0000000 )
                  (  0.0000000 -1.0000000  0.0000000 )

[...]

      isym = 12     120 deg rotation - cart. axis [-1,-1,1]

[...]

      isym = 13     inversion

[...]

      isym = 14     inv. 180 deg rotation - cart. axis [0,0,1]

[...]

      isym = 24     inv. 120 deg rotation - cart. axis [-1,-1,1]

 cryst.   s(24) = (     0         -1          0      )
                  (     0          0          1      )
                  (     1          0          0      )

 cart.    s(24) = (  0.0000000  0.0000000  1.0000000 )
                  ( -1.0000000  0.0000000  0.0000000 )
                  (  0.0000000  1.0000000  0.0000000 )

   Cartesian axes

     site n.     atom                  positions (alat units)
         1           Na  tau(   1) = (   0.5000000   0.5000000   0.5000000  )
         2           Tb  tau(   2) = (   0.0000000   0.0000000   0.0000000  )
         3           Pd  tau(   3) = (   0.2514030   0.0000000   0.5000000  )
         4           Pd  tau(   4) = (   0.7485970   0.0000000   0.5000000  )
         5           Pd  tau(   5) = (   0.5000000   0.2514030   0.0000000  )
         6           Pd  tau(   6) = (   0.5000000   0.7485970   0.0000000  )
         7           Pd  tau(   7) = (   0.0000000   0.5000000   0.2514030  )
         8           Pd  tau(   8) = (   0.0000000   0.5000000   0.7485970  )
         9           O   tau(   9) = (   0.2410360   0.2410360   0.2410360  )
        10           O   tau(  10) = (   0.7589640   0.7589640   0.7589640  )
        11           O   tau(  11) = (   0.7589640   0.7589640   0.2410360  )
        12           O   tau(  12) = (   0.7589640   0.2410360   0.7589640  )
        13           O   tau(  13) = (   0.2410360   0.2410360   0.7589640  )
        14           O   tau(  14) = (   0.2410360   0.7589640   0.2410360  )
        15           O   tau(  15) = (   0.2410360   0.7589640   0.7589640  )
        16           O   tau(  16) = (   0.7589640   0.2410360   0.2410360  )

   Crystallographic axes

     site n.     atom                  positions (cryst. coord.)
         1           Na  tau(   1) = (  0.5000000  0.5000000  0.5000000  )
         2           Tb  tau(   2) = (  0.0000000  0.0000000  0.0000000  )
         3           Pd  tau(   3) = (  0.2514030  0.0000000  0.5000000  )
         4           Pd  tau(   4) = (  0.7485970  0.0000000  0.5000000  )
         5           Pd  tau(   5) = (  0.5000000  0.2514030  0.0000000  )
         6           Pd  tau(   6) = (  0.5000000  0.7485970  0.0000000  )
         7           Pd  tau(   7) = (  0.0000000  0.5000000  0.2514030  )
         8           Pd  tau(   8) = (  0.0000000  0.5000000  0.7485970  )
         9           O   tau(   9) = (  0.2410360  0.2410360  0.2410360  )
        10           O   tau(  10) = (  0.7589640  0.7589640  0.7589640  )
        11           O   tau(  11) = (  0.7589640  0.7589640  0.2410360  )
        12           O   tau(  12) = (  0.7589640  0.2410360  0.7589640  )
        13           O   tau(  13) = (  0.2410360  0.2410360  0.7589640  )
        14           O   tau(  14) = (  0.2410360  0.7589640  0.2410360  )
        15           O   tau(  15) = (  0.2410360  0.7589640  0.7589640  )
        16           O   tau(  16) = (  0.7589640  0.2410360  0.2410360  )

     number of k points=     1  Methfessel-Paxton smearing, width (Ry)=  0.0010
                       cart. coord. in units 2pi/alat
        k(    1) = (   0.0000000   0.0000000   0.0000000), wk =   2.0000000

                       cryst. coord.
        k(    1) = (   0.0000000   0.0000000   0.0000000), wk =   2.0000000

     Check: negative core charge=   -0.000013

     Initial potential from superposition of free atoms

     starting charge     183.9872, renormalised to     184.0000
     Starting wfcs are  129 randomized atomic wfcs
     Checking if some PAW data can be deallocated...

     Self-consistent Calculation

     iteration #  1     ecut=    30.00 Ry     beta= 0.70
     Davidson diagonalization with overlap

     ethr =  1.00E-02,  avg # of iterations =  4.0

     total energy              =   -2646.55926968 Ry
     estimated scf accuracy    <      25.21162891 Ry

[...]

     total energy              =   -2674.52265201 Ry
     estimated scf accuracy    <       0.00000286 Ry

     iteration # 51     ecut=    30.00 Ry     beta= 0.70
     Davidson diagonalization with overlap

     ethr =  1.56E-09,  avg # of iterations =  1.0

     End of self-consistent calculation

          k = 0.0000 0.0000 0.0000 (  1872 PWs)   bands (ev):

   -71.9867 -71.9856 -71.9855 -71.9785 -71.9785 -71.9783 -37.7117 -37.5807
   -37.5807 -37.5805 -37.5706 -37.5706 -37.5704 -37.4693 -37.4693 -37.4692
   -37.4607 -37.4607 -37.4605 -37.2677 -37.2676 -37.2635 -37.1598 -37.1598
   -37.1596 -29.6712  -9.6320  -9.6320  -9.6320  -7.2416  -7.2416  -7.2415
    -5.7633  -4.8636  -4.8473  -4.8471  -4.8471  -4.4822  -4.4821  -4.4821
     6.4605   6.4605   7.1582   7.2577   7.2577   7.2577   7.4408   7.4408
     7.9217   7.9217   7.9218   8.0053   8.0054   8.0054   9.0079   9.0079
     9.0079   9.4321   9.5627   9.5627  10.1724  10.1724  10.1725  10.4872
    10.4872  10.4873  10.7807  10.7807  10.7807  11.0693  11.1704  11.1705
    11.1705  11.2335  11.2336  11.7038  11.7038  11.7038  12.5725  12.5726
    12.5726  12.7214  12.7214  12.7214  12.9622  13.0199  13.3537  13.3537
    13.3537  13.6544  13.6544  13.6545  13.7748  13.7748  13.7748  13.8245
    15.5841  15.5841  15.5842  15.6896  16.1297  16.1297  16.2288  16.2288
    19.4488  19.9788  19.9788  20.0096  20.0097  20.0097

     occupation numbers
     1.0000   1.0000   1.0000   1.0000   1.0000   1.0000   1.0000   1.0000
     1.0000   1.0000   1.0000   1.0000   1.0000   1.0000   1.0000   1.0000
     1.0000   1.0000   1.0000   1.0000   1.0000   1.0000   1.0000   1.0000
     1.0000   1.0000   1.0000   1.0000   1.0000   1.0000   1.0000   1.0000
     1.0000   1.0000   1.0000   1.0000   1.0000   1.0000   1.0000   1.0000
     1.0000   1.0000   1.0000   1.0000   1.0000   1.0000   1.0000   1.0000
     1.0000   1.0000   1.0000   1.0000   1.0000   1.0000   1.0000   1.0000
     1.0000   1.0000   1.0000   1.0000   1.0000   1.0000   1.0000   1.0000
     1.0000   1.0000   1.0000   1.0000   1.0000   1.0000   1.0000   1.0000
     1.0000   1.0000   1.0000   1.0000   1.0000   1.0000   1.0000   1.0000
     1.0000   1.0000   1.0000   1.0000   1.0000   1.0000   1.0000   1.0000
     1.0000   1.0000   1.0000   1.0000  -0.0000  -0.0000  -0.0000  -0.0000
    -0.0000  -0.0000  -0.0000  -0.0000  -0.0000  -0.0000  -0.0000  -0.0000
    -0.0000  -0.0000  -0.0000  -0.0000  -0.0000  -0.0000

     the Fermi energy is    13.7146 ev

!    total energy              =   -2674.52265139 Ry
     estimated scf accuracy    <       0.00000054 Ry
     smearing contrib. (-TS)   =       0.00000000 Ry
     internal energy E=F+TS    =   -2674.52265139 Ry

     The total energy is F=E-TS. E is the sum of the following terms:
     one-electron contribution =    -853.19714372 Ry
     hartree contribution      =     528.20942414 Ry
     xc contribution           =    -247.33429238 Ry
     ewald contribution        =   -1552.49206516 Ry
     one-center paw contrib.   =    -549.70857428 Ry
      -> PAW hartree energy AE =     443.99164491 Ry
      -> PAW hartree energy PS =    -429.84658348 Ry
      -> PAW xc energy AE      =    -646.64160988 Ry
      -> PAW xc energy PS      =      82.78797417 Ry
      -> total E_H with PAW    =     542.35448557 Ry
      -> total E_XC with PAW   =    -811.18792808 Ry

     convergence has been achieved in  51 iterations

     Forces acting on atoms (cartesian axes, Ry/au):

     atom    1 type  1   force =     0.00000000    0.00000000    0.00000000
     atom    2 type  2   force =     0.00000000    0.00000000    0.00000000
     atom    3 type  3   force =    -0.01980890    0.00000000    0.00000000
     atom    4 type  3   force =     0.01980890    0.00000000    0.00000000
     atom    5 type  3   force =     0.00000000   -0.01980890    0.00000000
     atom    6 type  3   force =     0.00000000    0.01980890    0.00000000
     atom    7 type  3   force =     0.00000000    0.00000000   -0.01980890
     atom    8 type  3   force =     0.00000000    0.00000000    0.01980890
     atom    9 type  4   force =    -0.00064802   -0.00064802   -0.00064802
     atom   10 type  4   force =     0.00064802    0.00064802    0.00064802
     atom   11 type  4   force =     0.00064802    0.00064802   -0.00064802
     atom   12 type  4   force =     0.00064802   -0.00064802    0.00064802
     atom   13 type  4   force =    -0.00064802   -0.00064802    0.00064802
     atom   14 type  4   force =    -0.00064802    0.00064802   -0.00064802
     atom   15 type  4   force =    -0.00064802    0.00064802    0.00064802
     atom   16 type  4   force =     0.00064802   -0.00064802   -0.00064802
     The non-local contrib.  to forces
     atom    1 type  1   force =     0.00000000    0.00000000    0.00000000
     atom    2 type  2   force =     0.00000000    0.00000000    0.00000000
     atom    3 type  3   force =     0.05410436    0.00000000   -0.00000000
     atom    4 type  3   force =    -0.05410436    0.00000000    0.00000000
     atom    5 type  3   force =     0.00000000    0.05410436    0.00000000
     atom    6 type  3   force =     0.00000000   -0.05410436    0.00000000
     atom    7 type  3   force =     0.00000000    0.00000000    0.05410436
     atom    8 type  3   force =     0.00000000    0.00000000   -0.05410436
     atom    9 type  4   force =    -0.06088561   -0.06088561   -0.06088561
     atom   10 type  4   force =     0.06088561    0.06088561    0.06088561
     atom   11 type  4   force =     0.06088561    0.06088561   -0.06088561
     atom   12 type  4   force =     0.06088561   -0.06088561    0.06088561
     atom   13 type  4   force =    -0.06088561   -0.06088561    0.06088561
     atom   14 type  4   force =    -0.06088561    0.06088561   -0.06088561
     atom   15 type  4   force =    -0.06088561    0.06088561    0.06088561
     atom   16 type  4   force =     0.06088561   -0.06088561   -0.06088561
     The ionic contribution  to forces
     atom    1 type  1   force =     0.00000000    0.00000000    0.00000000
     atom    2 type  2   force =     0.00000000    0.00000000    0.00000000
     atom    3 type  3   force =     6.16338836    0.00000000    0.00000000
     atom    4 type  3   force =    -6.16338836    0.00000000    0.00000000
     atom    5 type  3   force =     0.00000000    6.16338836    0.00000000
     atom    6 type  3   force =     0.00000000   -6.16338836    0.00000000
     atom    7 type  3   force =     0.00000000    0.00000000    6.16338836
     atom    8 type  3   force =     0.00000000    0.00000000   -6.16338836
     atom    9 type  4   force =     2.80008177    2.80008177    2.80008177
     atom   10 type  4   force =    -2.80008177   -2.80008177   -2.80008177
     atom   11 type  4   force =    -2.80008177   -2.80008177    2.80008177
     atom   12 type  4   force =    -2.80008177    2.80008177   -2.80008177
     atom   13 type  4   force =     2.80008177    2.80008177   -2.80008177
     atom   14 type  4   force =     2.80008177   -2.80008177    2.80008177
     atom   15 type  4   force =     2.80008177   -2.80008177   -2.80008177
     atom   16 type  4   force =    -2.80008177    2.80008177    2.80008177
     The local contribution  to forces
     atom    1 type  1   force =    -0.00004126    0.00019067    0.00009144
     atom    2 type  2   force =     0.00020190   -0.00050397   -0.00030953
     atom    3 type  3   force =    -6.23720768   -0.00053427    0.00052850
     atom    4 type  3   force =     6.23720254   -0.00043040    0.00023121
     atom    5 type  3   force =    -0.00011111   -6.23705347   -0.00026262
     atom    6 type  3   force =    -0.00021811    6.23705823   -0.00048518
     atom    7 type  3   force =     0.00001640    0.00039870   -6.23690425
     atom    8 type  3   force =     0.00027286    0.00062684    6.23691541
     atom    9 type  4   force =    -2.74041720   -2.74011140   -2.73990713
     atom   10 type  4   force =     2.74017490    2.74008089    2.74009884
     atom   11 type  4   force =     2.74019713    2.74005609   -2.74009131
     atom   12 type  4   force =     2.74040062   -2.74014275    2.73989033
     atom   13 type  4   force =    -2.74039909   -2.74016033    2.73988679
     atom   14 type  4   force =    -2.74018319    2.74006794   -2.74011333
     atom   15 type  4   force =    -2.74016357    2.74009567    2.74008208
     atom   16 type  4   force =     2.74042510   -2.74011376   -2.73990071
     The core correction contribution to forces
     atom    1 type  1   force =     0.00000000    0.00000000    0.00000000
     atom    2 type  2   force =     0.00000000   -0.00000000   -0.00000000
     atom    3 type  3   force =     0.00000000    0.00000000    0.00000000
     atom    4 type  3   force =     0.00000000    0.00000000    0.00000000
     atom    5 type  3   force =     0.00000000    0.00000000    0.00000000
     atom    6 type  3   force =     0.00000000    0.00000000    0.00000000
     atom    7 type  3   force =     0.00000000    0.00000000    0.00000000
     atom    8 type  3   force =     0.00000000    0.00000000    0.00000000
     atom    9 type  4   force =     0.00046024    0.00046088    0.00046131
     atom   10 type  4   force =    -0.00046098   -0.00046106   -0.00046088
     atom   11 type  4   force =    -0.00046093   -0.00046116    0.00046103
     atom   12 type  4   force =    -0.00046033    0.00046072   -0.00046142
     atom   13 type  4   force =     0.00046020    0.00046070   -0.00046141
     atom   14 type  4   force =     0.00046103   -0.00046113    0.00046094
     atom   15 type  4   force =     0.00046098   -0.00046104   -0.00046101
     atom   16 type  4   force =    -0.00046015    0.00046083    0.00046136
     The Hubbard contrib.    to forces
     atom    1 type  1   force =     0.00000000    0.00000000    0.00000000
     atom    2 type  2   force =     0.00000000    0.00000000    0.00000000
     atom    3 type  3   force =     0.00000000    0.00000000    0.00000000
     atom    4 type  3   force =     0.00000000    0.00000000    0.00000000
     atom    5 type  3   force =     0.00000000    0.00000000    0.00000000
     atom    6 type  3   force =     0.00000000    0.00000000    0.00000000
     atom    7 type  3   force =     0.00000000    0.00000000    0.00000000
     atom    8 type  3   force =     0.00000000    0.00000000    0.00000000
     atom    9 type  4   force =     0.00000000    0.00000000    0.00000000
     atom   10 type  4   force =     0.00000000    0.00000000    0.00000000
     atom   11 type  4   force =     0.00000000    0.00000000    0.00000000
     atom   12 type  4   force =     0.00000000    0.00000000    0.00000000
     atom   13 type  4   force =     0.00000000    0.00000000    0.00000000
     atom   14 type  4   force =     0.00000000    0.00000000    0.00000000
     atom   15 type  4   force =     0.00000000    0.00000000    0.00000000
     atom   16 type  4   force =     0.00000000    0.00000000    0.00000000
     The SCF correction term to forces
     atom    1 type  1   force =     0.00005330   -0.00023888   -0.00011768
     atom    2 type  2   force =    -0.00020594    0.00057498    0.00033341
     atom    3 type  3   force =    -0.00009544    0.00057841   -0.00053369
     atom    4 type  3   force =     0.00010627    0.00047418   -0.00025590
     atom    5 type  3   force =     0.00011812   -0.00025941    0.00027462
     atom    6 type  3   force =     0.00023037    0.00023927    0.00050137
     atom    7 type  3   force =    -0.00003263   -0.00044000   -0.00039145
     atom    8 type  3   force =    -0.00027322   -0.00066494    0.00037632
     atom    9 type  4   force =     0.00008122   -0.00019825   -0.00038655
     atom   10 type  4   force =     0.00013038    0.00021385    0.00020312
     atom   11 type  4   force =     0.00011097    0.00023520   -0.00020277
     atom   12 type  4   force =    -0.00006691   -0.00017094    0.00039487
     atom   13 type  4   force =     0.00006066   -0.00015363    0.00039860
     atom   14 type  4   force =    -0.00011524    0.00022708   -0.00018822
     atom   15 type  4   force =    -0.00013789    0.00019621    0.00020788
     atom   16 type  4   force =    -0.00008685   -0.00019890   -0.00038689

     Total force =     0.048625     Total SCF correction =     0.002048

     Computing stress (Cartesian axis) and pressure

          total   stress  (Ry/bohr**3)                   (kbar)     P=     -970.84
  -0.00659961   0.00000000   0.00000000         -970.84        0.00        0.00
   0.00000000  -0.00659961   0.00000000            0.00     -970.84        0.00
   0.00000000   0.00000000  -0.00659961            0.00        0.00     -970.84

     kinetic stress (kbar)  50151.87      0.00      0.00
                                0.00  50151.87      0.00
                                0.00      0.00  50151.87

     local   stress (kbar) -10430.33      0.03      0.01
                                0.03 -10430.31      0.02
                                0.01      0.02 -10430.58

     nonloc. stress (kbar)   5319.57      0.00      0.00
                                0.00   5319.57      0.00
                                0.00      0.00   5319.57

     hartree stress (kbar)  19317.96     -0.00      0.01
                               -0.00  19318.06     -0.02
                                0.01     -0.02  19318.18

     exc-cor stress (kbar)  -8180.43     -0.00     -0.00
                               -0.00  -8180.43      0.00
                               -0.00      0.00  -8180.43

     corecor stress (kbar)   -370.60      0.00      0.00
                                0.00   -370.60     -0.00
                                0.00     -0.00   -370.60

     ewald   stress (kbar) -56778.89      0.00      0.00
                                0.00 -56778.89      0.00
                                0.00      0.00 -56778.89

     hubbard stress (kbar)      0.00      0.00      0.00
                                0.00      0.00      0.00
                                0.00      0.00      0.00

     DFT-D   stress (kbar)      0.00      0.00      0.00
                                0.00      0.00      0.00
                                0.00      0.00      0.00

     XDM     stress (kbar)      0.00      0.00      0.00
                                0.00      0.00      0.00
                                0.00      0.00      0.00

     dft-nl  stress (kbar)      0.00      0.00      0.00
                                0.00      0.00      0.00
                                0.00      0.00      0.00

     TS-vdW  stress (kbar)      0.00      0.00      0.00
                                0.00      0.00      0.00
                                0.00      0.00      0.00

[...]

                                0.00      0.00      0.00

     Writing all to output data dir new_calculations/myprefix.save/

     General routines

     Parallel routines

     PAW routines

   This run was terminated on:   3:31:11  20May2023

   JOB DONE.