     Program PWSCF v.7.0 starts on 20May2023 at 19:43:16

     Reading input from espresso_12481.pwi
Warning: card &CELL ignored
Warning: card / ignored

     Current dimensions of program PWSCF are:
     Max number of different atomic species (ntypx) = 10
     Max number of k-points (npk) =  40000
     Max angular momentum in pseudopotentials (lmaxx) =  4

     gamma-point specific algorithms are used
     Message from routine setup:
     using ibrav=0 with symmetry is DISCOURAGED, use correct ibrav instead

     Subspace diagonalization in iterative solution of the eigenvalue problem:
     a serial algorithm will be used

     Using Slab Decomposition

     bravais-lattice index     =            0
     lattice parameter (alat)  =       7.9106  a.u.
     unit-cell volume          =     432.2627 (a.u.)^3
     number of atoms/cell      =            3
     number of atomic types    =            3
     number of electrons       =        34.00
     number of Kohn-Sham states=           21
     kinetic-energy cutoff     =      30.0000  Ry
     charge density cutoff     =     240.0000  Ry
     scf convergence threshold =      1.0E-06
     mixing beta               =       0.7000
     number of iterations used =            8  plain     mixing
     Exchange-correlation= PBE
                           (   1   4   3   4   0   0   0)

     celldm(1)=   7.910609  celldm(2)=   0.000000  celldm(3)=   0.000000
     celldm(4)=   0.000000  celldm(5)=   0.000000  celldm(6)=   0.000000

     crystal axes: (cart. coord. in units of alat)
               a(1) = (   1.000000   0.000000   0.000000 )
               a(2) = (  -0.500000   0.866025   0.000000 )
               a(3) = (   0.000000   0.000000   1.008295 )

     reciprocal axes: (cart. coord. in units 2 pi/alat)
               b(1) = (  1.000000  0.577350  0.000000 )
               b(2) = (  0.000000  1.154701  0.000000 )
               b(3) = (  0.000000  0.000000  0.991774 )

     PseudoPot. # 1 for La read from file:
     /home/pragov/projects/rrg-bengioy-ad/pragov/crystal_structure_design/SSSP/La.GGA-PBE-paw-v1.0.UPF
     MD5 check sum: 436541e95c1ad8901025bd0b0ed42ae2
     Pseudo is Projector augmented-wave + core cor, Zval = 11.0
     Generated using ATOMPAW code
     Shape of augmentation charge: BESSEL
     Using radial grid of 1101 points,  8 beta functions with:
                l(1) =   0
                l(2) =   0
                l(3) =   1
                l(4) =   1
                l(5) =   2
                l(6) =   2
                l(7) =   3
                l(8) =   3
     Q(r) pseudized with 0 coefficients

     PseudoPot. # 2 for Cu read from file:
     /home/pragov/projects/rrg-bengioy-ad/pragov/crystal_structure_design/SSSP/Cu_pbe_v1.2.uspp.F.UPF
     MD5 check sum: 6e991ff952a84172a2a52a1c1e996048
     Pseudo is Ultrasoft + core correction, Zval = 19.0
     Generated by new atomic code, or converted to UPF format
     Using radial grid of  867 points,  6 beta functions with:
                l(1) =   0
                l(2) =   0
                l(3) =   1
                l(4) =   1
                l(5) =   2
                l(6) =   2
     Q(r) pseudized with  8 coefficients,  rinner =    1.150   1.150   1.150
                                                       1.150   1.150

     PseudoPot. # 3 for Si read from file:
     /home/pragov/projects/rrg-bengioy-ad/pragov/crystal_structure_design/SSSP/Si.pbe-n-rrkjus_psl.1.0.0.UPF
     MD5 check sum: 0b0bb1205258b0d07b9f9672cf965d36
     Pseudo is Ultrasoft + core correction, Zval =  4.0
     Generated using "atomic" code by A. Dal Corso  v.5.1
     Using radial grid of 1141 points,  6 beta functions with:
                l(1) =   0
                l(2) =   0
                l(3) =   1
                l(4) =   1
                l(5) =   2
                l(6) =   2
     Q(r) pseudized with 0 coefficients

     atomic species   valence    mass     pseudopotential
        La            11.00   138.90547     La( 1.00)
        Cu            19.00    63.54600     Cu( 1.00)
        Si             4.00    28.08500     Si( 1.00)

     12 Sym. Ops. (no inversion) found

                                    s                        frac. trans.

      isym =  1     identity

 cryst.   s( 1) = (     1          0          0      )
                  (     0          1          0      )
                  (     0          0          1      )

 cart.    s( 1) = (  1.0000000  0.0000000  0.0000000 )
                  (  0.0000000  1.0000000  0.0000000 )
                  (  0.0000000  0.0000000  1.0000000 )

      isym =  2     180 deg rotation - cart. axis [0,1,0]

[...]

      isym =  3     120 deg rotation - cryst. axis [0,0,1]

[...]

      isym =  6     180 deg rotation - cryst. axis [2,1,0]

[...]

      isym =  7     inv. 180 deg rotation - cart. axis [0,0,1]

[...]

      isym =  8     inv. 180 deg rotation - cart. axis [1,0,0]

[...]

      isym =  9     inv.  60 deg rotation - cryst. axis [0,0,1]

 cryst.   s( 9) = (    -1         -1          0      )
                  (     1          0          0      )
                  (     0          0         -1      )

 cart.    s( 9) = ( -0.5000000  0.8660254  0.0000000 )
                  ( -0.8660254 -0.5000000  0.0000000 )
                  (  0.0000000  0.0000000 -1.0000000 )

[...]

 cryst.   s(10) = (     0          1          0      )
                  (    -1         -1          0      )
                  (     0          0         -1      )

 cart.    s(10) = ( -0.5000000 -0.8660254  0.0000000 )
                  (  0.8660254 -0.5000000  0.0000000 )
                  (  0.0000000  0.0000000 -1.0000000 )

[...]

      isym = 12     inv. 180 deg rotation - cryst. axis [1,1,0]

 cryst.   s(12) = (     0         -1          0      )
                  (    -1          0          0      )
                  (     0          0          1      )

 cart.    s(12) = (  0.5000000 -0.8660254  0.0000000 )
                  ( -0.8660254 -0.5000000  0.0000000 )
                  (  0.0000000  0.0000000  1.0000000 )

   Cartesian axes

     site n.     atom                  positions (alat units)
         1           La  tau(   1) = (  -0.0000005   0.5773506   0.0000000  )
         2           Cu  tau(   2) = (   0.5000005   0.2886748   0.5041473  )
         3           Si  tau(   3) = (   0.0000000   0.0000000   0.5041473  )

   Crystallographic axes

     site n.     atom                  positions (cryst. coord.)
         1           La  tau(   1) = (  0.3333330  0.6666670  0.0000000  )
         2           Cu  tau(   2) = (  0.6666670  0.3333330  0.5000000  )
         3           Si  tau(   3) = (  0.0000000  0.0000000  0.5000000  )

     number of k points=     1  Methfessel-Paxton smearing, width (Ry)=  0.0010
                       cart. coord. in units 2pi/alat
        k(    1) = (   0.0000000   0.0000000   0.0000000), wk =   2.0000000

                       cryst. coord.
        k(    1) = (   0.0000000   0.0000000   0.0000000), wk =   2.0000000

     Initial potential from superposition of free atoms

     starting charge      32.9909, renormalised to      34.0000
     Starting wfcs are   49 randomized atomic wfcs
     Checking if some PAW data can be deallocated...

     Self-consistent Calculation

     iteration #  1     ecut=    30.00 Ry     beta= 0.70
     Davidson diagonalization with overlap

     ethr =  1.00E-02,  avg # of iterations =  2.0

     total energy              =    -872.13350362 Ry
     estimated scf accuracy    <       1.22368536 Ry

[...]

     total energy              =    -872.98864945 Ry
     estimated scf accuracy    <       0.00000115 Ry

     iteration # 21     ecut=    30.00 Ry     beta= 0.70
     Davidson diagonalization with overlap

     ethr =  3.37E-09,  avg # of iterations =  9.0

     End of self-consistent calculation

          k = 0.0000 0.0000 0.0000 (   595 PWs)   bands (ev):

  -102.3863 -59.8251 -59.7054 -59.7050 -20.2667  -4.2236  -3.8008  -3.8007
     2.1540   7.0491   7.0491   7.4312   7.6019   7.6021  11.0065  11.0066
    11.3888  11.3951  13.0609  14.0343  14.0343

     occupation numbers
     1.0000   1.0000   1.0000   1.0000   1.0000   1.0000   1.0000   1.0000
     1.0000   1.0000   1.0000   1.0000   1.0000   1.0000   1.0000   1.0000
     0.6912   0.3088  -0.0000  -0.0000  -0.0000

     the Fermi energy is    11.3919 ev

!    total energy              =    -872.98865190 Ry
     estimated scf accuracy    <       0.00000082 Ry
     smearing contrib. (-TS)   =      -0.00047655 Ry
     internal energy E=F+TS    =    -872.98817534 Ry

     The total energy is F=E-TS. E is the sum of the following terms:
     one-electron contribution =    -390.31837527 Ry
     hartree contribution      =     211.64050959 Ry
     xc contribution           =     -53.71422353 Ry
     ewald contribution        =    -242.52762301 Ry
     one-center paw contrib.   =    -398.06846313 Ry
      -> PAW hartree energy AE =      35.89962293 Ry
      -> PAW hartree energy PS =     -35.92691739 Ry
      -> PAW xc energy AE      =    -405.46250245 Ry
      -> PAW xc energy PS      =       7.42133378 Ry
      -> total E_H with PAW    =     211.61321513 Ry
      -> total E_XC with PAW   =    -451.75539220 Ry

     convergence has been achieved in  21 iterations

     Forces acting on atoms (cartesian axes, Ry/au):

     atom    1 type  1   force =     0.00000000    0.00000000    0.00000000
     atom    2 type  2   force =     0.00000000   -0.00000000    0.00000000
     atom    3 type  3   force =     0.00000000    0.00000000    0.00000000
     The non-local contrib.  to forces
     atom    1 type  1   force =     0.00000000    0.00000000    0.00000000
     atom    2 type  2   force =    -0.00000000    0.00000000    0.00000000
     atom    3 type  3   force =     0.00000000    0.00000000    0.00000000
     The ionic contribution  to forces
     atom    1 type  1   force =     0.00002456   -0.00001418   -0.00000000
     atom    2 type  2   force =    -0.00003657    0.00002111    0.00000000
     atom    3 type  3   force =     0.00001201   -0.00000693    0.00000000
     The local contribution  to forces
     atom    1 type  1   force =     0.00001310   -0.00002158    0.00327922
     atom    2 type  2   force =    -0.00001395    0.00019944   -0.00179279
     atom    3 type  3   force =    -0.00013093    0.00004826   -0.00126715
     The core correction contribution to forces
     atom    1 type  1   force =    -0.00000001   -0.00000003    0.00000171
     atom    2 type  2   force =     0.00000055    0.00000169   -0.00000134
     atom    3 type  3   force =    -0.00000800    0.00000102   -0.00005699
     The Hubbard contrib.    to forces
     atom    1 type  1   force =     0.00000000    0.00000000    0.00000000
     atom    2 type  2   force =     0.00000000    0.00000000    0.00000000
     atom    3 type  3   force =     0.00000000    0.00000000    0.00000000
     The SCF correction term to forces
     atom    1 type  1   force =    -0.00003583    0.00004570   -0.00126342
     atom    2 type  2   force =    -0.00008085   -0.00080216    0.00191570
     atom    3 type  3   force =     0.00004462   -0.00003296    0.00039455

     Total force =     0.000000     Total SCF correction =     0.002465

     Computing stress (Cartesian axis) and pressure

          total   stress  (Ry/bohr**3)                   (kbar)     P=     -173.24
  -0.00033199   0.00000000  -0.00000000          -48.84        0.00       -0.00
   0.00000000  -0.00033199  -0.00000000            0.00      -48.84       -0.00
   0.00000000   0.00000000  -0.00286896            0.00        0.00     -422.04

     kinetic stress (kbar)  14546.71     -0.00      0.00
                               -0.00  14546.71     -0.00
                                0.00     -0.00  14035.68

     local   stress (kbar) -19339.59      0.26     -0.02
                                0.26 -19339.81      0.08
                               -0.02      0.08 -11675.63

     nonloc. stress (kbar)  11163.49     -0.00      0.00
                               -0.00  11163.49     -0.00
                                0.00     -0.00  11216.25

     hartree stress (kbar)  24905.60     -0.17      0.02
                               -0.17  24905.63     -0.02
                                0.02     -0.02  22213.02

     exc-cor stress (kbar)  -4063.33     -0.00      0.00
                               -0.00  -4063.33      0.00
                                0.00      0.00  -4073.51

     corecor stress (kbar)  -1376.81      0.00      0.00
                                0.00  -1376.81      0.00
                                0.00      0.00  -1371.93

     ewald   stress (kbar) -25884.82      0.02     -0.00
                                0.02 -25884.81     -0.00
                               -0.00     -0.00 -30765.92

     hubbard stress (kbar)      0.00      0.00      0.00
                                0.00      0.00      0.00
                                0.00      0.00      0.00

     DFT-D   stress (kbar)      0.00      0.00      0.00
                                0.00      0.00      0.00
                                0.00      0.00      0.00

     XDM     stress (kbar)      0.00      0.00      0.00
                                0.00      0.00      0.00
                                0.00      0.00      0.00

     dft-nl  stress (kbar)      0.00      0.00      0.00
                                0.00      0.00      0.00
                                0.00      0.00      0.00

     TS-vdW  stress (kbar)      0.00      0.00      0.00
                                0.00      0.00      0.00
                                0.00      0.00      0.00

[...]

                                0.00      0.00      0.00

     Writing all to output data dir new_calculations/myprefix.save/

     General routines

     Parallel routines

     PAW routines

   This run was terminated on:  19:43:36  20May2023

   JOB DONE.