     Program PWSCF v.7.0 starts on 21May2023 at  7: 8:45

     Reading input from espresso_18975.pwi
Warning: card &CELL ignored
Warning: card / ignored

     Current dimensions of program PWSCF are:
     Max number of different atomic species (ntypx) = 10
     Max number of k-points (npk) =  40000
     Max angular momentum in pseudopotentials (lmaxx) =  4
     file Ga.pbe-dn-kjpaw_psl.1.0.0.UPF: wavefunction(s)  4S renormalized
     file O.pbe-n-kjpaw_psl.0.1.UPF: wavefunction(s)  2P renormalized

     gamma-point specific algorithms are used
     Message from routine setup:
     using ibrav=0 with symmetry is DISCOURAGED, use correct ibrav instead

     Subspace diagonalization in iterative solution of the eigenvalue problem:
     a serial algorithm will be used

     Using Slab Decomposition

     bravais-lattice index     =            0
     lattice parameter (alat)  =      12.9586  a.u.
     unit-cell volume          =    1809.1684 (a.u.)^3
     number of atoms/cell      =           18
     number of atomic types    =            4
     number of electrons       =       152.00
     number of Kohn-Sham states=           91
     kinetic-energy cutoff     =      30.0000  Ry
     charge density cutoff     =     240.0000  Ry
     scf convergence threshold =      1.0E-06
     mixing beta               =       0.7000
     number of iterations used =            8  plain     mixing
     Exchange-correlation= SLA  PW   PBX  PBC
                           (   1   4   3   4   0   0   0)

     celldm(1)=  12.958599  celldm(2)=   0.000000  celldm(3)=   0.000000
     celldm(4)=   0.000000  celldm(5)=   0.000000  celldm(6)=   0.000000

     crystal axes: (cart. coord. in units of alat)
               a(1) = (   1.000000   0.000000   0.000000 )
               a(2) = (   0.003273   0.999995   0.000000 )
               a(3) = (   0.501636   0.499997   0.831395 )

     reciprocal axes: (cart. coord. in units 2 pi/alat)
               b(1) = (  1.000000 -0.003273 -0.601399 )
               b(2) = (  0.000000  1.000005 -0.601399 )
               b(3) = (  0.000000  0.000000  1.202798 )

     PseudoPot. # 1 for Sr read from file:
     /home/pragov/projects/rrg-bengioy-ad/pragov/crystal_structure_design/SSSP/Sr_pbe_v1.uspp.F.UPF
     MD5 check sum: 6b418c05fbe9db5448babca5e47b7a5b
     Pseudo is Ultrasoft + core correction, Zval = 10.0
     Generated by new atomic code, or converted to UPF format
     Using radial grid of  883 points,  6 beta functions with:
                l(1) =   0
                l(2) =   0
                l(3) =   1
                l(4) =   1
                l(5) =   2
                l(6) =   2
     Q(r) pseudized with  6 coefficients,  rinner =    1.400   1.400   1.400
                                                       1.400   1.400

     PseudoPot. # 2 for Pr read from file:
     /home/pragov/projects/rrg-bengioy-ad/pragov/crystal_structure_design/SSSP/Pr.GGA-PBE-paw-v1.0.UPF
     MD5 check sum: b5e1e58e76df433569641143f671cc27
     Pseudo is Projector augmented-wave + core cor, Zval = 13.0
     Generated using ATOMPAW code
     Shape of augmentation charge: BESSEL
     Using radial grid of 1103 points,  8 beta functions with:
                l(1) =   0
                l(2) =   0
                l(3) =   1
                l(4) =   1
                l(5) =   2
                l(6) =   2
                l(7) =   3
                l(8) =   3
     Q(r) pseudized with 0 coefficients

     PseudoPot. # 3 for Ga read from file:
     /home/pragov/projects/rrg-bengioy-ad/pragov/crystal_structure_design/SSSP/Ga.pbe-dn-kjpaw_psl.1.0.0.UPF
     MD5 check sum: a27b4342b1af7e5f338de752e9ed7044
     Pseudo is Projector augmented-wave + core cor, Zval = 13.0
     Generated using "atomic" code by A. Dal Corso  v.5.1
     Shape of augmentation charge: PSQ
     Using radial grid of 1205 points,  6 beta functions with:
                l(1) =   0
                l(2) =   0
                l(3) =   1
                l(4) =   1
                l(5) =   2
                l(6) =   2
     Q(r) pseudized with 0 coefficients

     PseudoPot. # 4 for O  read from file:
     /home/pragov/projects/rrg-bengioy-ad/pragov/crystal_structure_design/SSSP/O.pbe-n-kjpaw_psl.0.1.UPF
     MD5 check sum: 0234752ac141de4415c5fc33072bef88
     Pseudo is Projector augmented-wave + core cor, Zval =  6.0
     Generated using "atomic" code by A. Dal Corso  v.5.0.99 svn rev. 10869
     Shape of augmentation charge: BESSEL
     Using radial grid of 1095 points,  4 beta functions with:
                l(1) =   0
                l(2) =   0
                l(3) =   1
                l(4) =   1
     Q(r) pseudized with 0 coefficients

     atomic species   valence    mass     pseudopotential
        Sr            10.00    87.62000     Sr( 1.00)
        Pr            13.00   140.90766     Pr( 1.00)
        Ga            13.00    69.72300     Ga( 1.00)
        O              6.00    15.99900     O ( 1.00)

      4 Sym. Ops., with inversion, found

                                    s                        frac. trans.

      isym =  1     identity

 cryst.   s( 1) = (     1          0          0      )
                  (     0          1          0      )
                  (     0          0          1      )

 cart.    s( 1) = (  1.0000000 -0.0000000 -0.0000000 )
                  (  0.0000000  1.0000000 -0.0000000 )
                  (  0.0000000  0.0000000  1.0000000 )

      isym =  2     180 deg rotation - cart. axis [0,0,1]

[...]

      isym =  3     inversion

[...]

      isym =  4     inv. 180 deg rotation - cart. axis [0,0,1]

 cryst.   s( 4) = (     1          0          0      )
                  (     0          1          0      )
                  (     1          1         -1      )

 cart.    s( 4) = (  1.0000000 -0.0000000  0.0000002 )
                  (  0.0000000  1.0000000  0.0000002 )
                  (  0.0000000  0.0000000 -1.0000000 )

   Cartesian axes

     site n.     atom                  positions (alat units)
         1           Sr  tau(   1) = (   0.5016363   0.4999973   0.4156973  )
         2           Sr  tau(   2) = (   1.0032726   0.9999946   0.4156973  )
         3           Sr  tau(   3) = (   0.8277563   0.6744474   0.0000000  )
         4           Sr  tau(   4) = (   0.1755164   0.3255473   0.0000000  )
         5           Pr  tau(   5) = (   0.6794754   0.1788890   0.0000000  )
         6           Pr  tau(   6) = (   0.3237972   0.8211056   0.0000000  )
         7           Ga  tau(   7) = (   1.0016363   0.4999973   0.4118778  )
         8           Ga  tau(   8) = (   0.5032726   0.9999946   0.4195167  )
         9           O   tau(   9) = (   0.5016363   0.4999973   0.0000000  )
        10           O   tau(  10) = (   0.0000000   0.0000000   0.0000000  )
        11           O   tau(  11) = (   0.3630301   1.1406969   0.2363472  )
        12           O   tau(  12) = (   0.6435152   0.8592924   0.2363472  )
        13           O   tau(  13) = (   0.1509047   0.6487780   0.2408741  )
        14           O   tau(  14) = (   0.8523669   0.3512156   0.2408741  )
        15           O   tau(  15) = (   1.1418788   0.3592950   0.5950474  )
        16           O   tau(  16) = (   0.8613938   0.6406995   0.5950474  )
        17           O   tau(  17) = (   1.3540042   0.8512139   0.5905204  )
        18           O   tau(  18) = (   0.6525420   1.1487763   0.5905204  )

   Crystallographic axes

     site n.     atom                  positions (cryst. coord.)
         1           Sr  tau(   1) = (  0.2500000  0.2500000  0.5000000  )
         2           Sr  tau(   2) = (  0.7500000  0.7500000  0.5000000  )
         3           Sr  tau(   3) = (  0.8255490  0.6744510  0.0000000  )
         4           Sr  tau(   4) = (  0.1744510  0.3255490  0.0000000  )
         5           Pr  tau(   5) = (  0.6788900  0.1788900  0.0000000  )
         6           Pr  tau(   6) = (  0.3211100  0.8211100  0.0000000  )
         7           Ga  tau(   7) = (  0.7522970  0.2522970  0.4954060  )
         8           Ga  tau(   8) = (  0.2477030  0.7477030  0.5045940  )
         9           O   tau(   9) = (  0.5000000  0.5000000  0.0000000  )
        10           O   tau(  10) = (  0.0000000  0.0000000  0.0000000  )
        11           O   tau(  11) = (  0.2171580  0.9985640  0.2842780  )
        12           O   tau(  12) = (  0.4985640  0.7171580  0.2842780  )
        13           O   tau(  13) = (  0.0039200  0.5039200  0.2897230  )
        14           O   tau(  14) = (  0.7063560  0.2063560  0.2897230  )
        15           O   tau(  15) = (  0.7828420  0.0014360  0.7157220  )
        16           O   tau(  16) = (  0.5014360  0.2828420  0.7157220  )
        17           O   tau(  17) = (  0.9960800  0.4960800  0.7102770  )
        18           O   tau(  18) = (  0.2936440  0.7936440  0.7102770  )

     number of k points=     1  Methfessel-Paxton smearing, width (Ry)=  0.0010
                       cart. coord. in units 2pi/alat
        k(    1) = (   0.0000000   0.0000000   0.0000000), wk =   2.0000000

                       cryst. coord.
        k(    1) = (   0.0000000   0.0000000   0.0000000), wk =   2.0000000

     Check: negative core charge=   -0.000010

     Initial potential from superposition of free atoms

     starting charge     151.8446, renormalised to     152.0000

     negative rho (up, down):  2.538E-01 0.000E+00
     Starting wfcs are  174 randomized atomic wfcs
     Checking if some PAW data can be deallocated...

     Self-consistent Calculation

     iteration #  1     ecut=    30.00 Ry     beta= 0.70
     Davidson diagonalization with overlap

     ethr =  1.00E-02,  avg # of iterations =  2.0

     negative rho (up, down):  2.587E-01 0.000E+00

     total energy              =   -2267.96229771 Ry
     estimated scf accuracy    <       5.18082286 Ry

[...]

     total energy              =   -2270.76978479 Ry
     estimated scf accuracy    <       0.00000205 Ry

     iteration # 44     ecut=    30.00 Ry     beta= 0.70
     Davidson diagonalization with overlap

     ethr =  1.35E-09,  avg # of iterations =  1.0

[...]

     End of self-consistent calculation

          k = 0.0000 0.0000 0.0000 (  2515 PWs)   bands (ev):

   -24.4445 -24.3969 -24.3756 -24.3616 -23.2143 -23.1674  -8.7906  -8.6575
    -8.5005  -8.3428  -8.2403  -8.1272  -7.9750  -7.9037  -7.8937  -6.5330
    -6.4296  -6.4108  -6.3184  -6.2819  -6.2652  -6.2586  -6.2039  -6.1528
    -6.1305  -5.9434  -5.7330  -5.3474  -5.3463  -5.2661  -5.2068  -5.1929
    -5.1251  -4.3447  -4.3417  -4.2737  -4.2651  -3.9895  -3.8905  -3.8480
    -3.8355  -3.8166  -3.7530  -3.7282   3.7164   3.7913   5.1318   5.5826
     5.6528   5.6676   5.6839   6.0707   6.0771   6.5003   7.2081   7.2791
     7.6147   7.6193   7.6624   7.7290   7.7352   7.7909   7.8426   7.8713
     7.9526   8.0617   8.1480   8.2531   8.3864   8.4965   8.7185   8.7931
     9.1492   9.1812  11.8089  11.8184  11.8242  11.9275  11.9381  11.9442
    11.9581  11.9696  11.9875  12.1298  12.1374  12.1659  12.2110  12.3494
    12.4580  13.6889  13.7293

     occupation numbers
     1.0000   1.0000   1.0000   1.0000   1.0000   1.0000   1.0000   1.0000
     1.0000   1.0000   1.0000   1.0000   1.0000   1.0000   1.0000   1.0000
     1.0000   1.0000   1.0000   1.0000   1.0000   1.0000   1.0000   1.0000
     1.0000   1.0000   1.0000   1.0000   1.0000   1.0000   1.0000   1.0000
     1.0000   1.0000   1.0000   1.0000   1.0000   1.0000   1.0000   1.0000
     1.0000   1.0000   1.0000   1.0000   1.0000   1.0000   1.0000   1.0000
     1.0000   1.0000   1.0000   1.0000   1.0000   1.0000   1.0000   1.0000
     1.0000   1.0000   1.0000   1.0000   1.0000   1.0000   1.0000   1.0000
     1.0000   1.0000   1.0000   1.0000   1.0000   1.0000   1.0000   1.0000
     1.0000   1.0000   1.0117   0.6692   0.3191  -0.0000  -0.0000  -0.0000
    -0.0000  -0.0000  -0.0000  -0.0000  -0.0000  -0.0000  -0.0000  -0.0000
    -0.0000  -0.0000  -0.0000

     the Fermi energy is    11.8212 ev

!    total energy              =   -2270.76978432 Ry
     estimated scf accuracy    <       0.00000064 Ry
     smearing contrib. (-TS)   =      -0.00041241 Ry
     internal energy E=F+TS    =   -2270.76937191 Ry

     The total energy is F=E-TS. E is the sum of the following terms:
     one-electron contribution =    -349.52914451 Ry
     hartree contribution      =     289.43656205 Ry
     xc contribution           =    -248.71881144 Ry
     ewald contribution        =    -805.49702846 Ry
     one-center paw contrib.   =   -1156.46094956 Ry
      -> PAW hartree energy AE =     706.04235575 Ry
      -> PAW hartree energy PS =    -700.86777196 Ry
      -> PAW xc energy AE      =   -1333.58709786 Ry
      -> PAW xc energy PS      =     171.95156451 Ry
      -> total E_H with PAW    =     294.61114584 Ry
      -> total E_XC with PAW   =   -1410.35434479 Ry

     convergence has been achieved in  44 iterations

     negative rho (up, down):  2.680E-01 0.000E+00

     Forces acting on atoms (cartesian axes, Ry/au):

     atom    1 type  1   force =     0.00000000    0.00000000    0.00000360
     atom    2 type  1   force =     0.00000000    0.00000000   -0.00000360
     atom    3 type  1   force =    -0.00484612    0.00486908    0.00000000
     atom    4 type  1   force =     0.00484612   -0.00486908   -0.00000000
     atom    5 type  2   force =    -0.00056441   -0.00052721   -0.00000000
     atom    6 type  2   force =     0.00056441    0.00052721    0.00000000
     atom    7 type  3   force =     0.00000000    0.00000000    0.00130535
     atom    8 type  3   force =     0.00000000    0.00000000   -0.00130535
     atom    9 type  4   force =     0.00000000    0.00000000   -0.00000000
     atom   10 type  4   force =     0.00000000    0.00000000   -0.00000000
     atom   11 type  4   force =    -0.04691994    0.04707663   -0.04592254
     atom   12 type  4   force =     0.04691994   -0.04707663   -0.04592254
     atom   13 type  4   force =     0.04906375    0.04890867   -0.04868211
     atom   14 type  4   force =    -0.04906375   -0.04890867   -0.04868212
     atom   15 type  4   force =     0.04691994   -0.04707663    0.04592254
     atom   16 type  4   force =    -0.04691994    0.04707663    0.04592254
     atom   17 type  4   force =    -0.04906375   -0.04890867    0.04868211
     atom   18 type  4   force =     0.04906375    0.04890867    0.04868212
     The non-local contrib.  to forces
     atom    1 type  1   force =     0.00000000    0.00000000    0.00000149
     atom    2 type  1   force =     0.00000000    0.00000000   -0.00000149
     atom    3 type  1   force =     0.03338411   -0.03347788    0.00000000
     atom    4 type  1   force =    -0.03338411    0.03347788   -0.00000000
     atom    5 type  2   force =     0.13775623    0.13736129    0.00000002
     atom    6 type  2   force =    -0.13775623   -0.13736129   -0.00000002
     atom    7 type  3   force =     0.00000000    0.00000000   -0.19827044
     atom    8 type  3   force =     0.00000000    0.00000000    0.19827044
     atom    9 type  4   force =     0.00000000    0.00000000    0.00000000
     atom   10 type  4   force =     0.00000000    0.00000000    0.00000000
     atom   11 type  4   force =     0.46046483   -0.46192817    0.47316163
     atom   12 type  4   force =    -0.46046483    0.46192817    0.47316163
     atom   13 type  4   force =    -0.41672284   -0.41538312    0.32363821
     atom   14 type  4   force =     0.41672284    0.41538312    0.32363836
     atom   15 type  4   force =    -0.46046483    0.46192817   -0.47316163
     atom   16 type  4   force =     0.46046483   -0.46192817   -0.47316163
     atom   17 type  4   force =     0.41672284    0.41538312   -0.32363821
     atom   18 type  4   force =    -0.41672284   -0.41538312   -0.32363836
     The ionic contribution  to forces
     atom    1 type  1   force =    -0.00001874    0.00001881    0.00000000
     atom    2 type  1   force =     0.00001874   -0.00001881    0.00000000
     atom    3 type  1   force =     0.03092656   -0.03102793   -0.00000000
     atom    4 type  1   force =    -0.03092655    0.03102793   -0.00000000
     atom    5 type  2   force =     0.58653872    0.58462230   -0.00005135
     atom    6 type  2   force =    -0.58653872   -0.58462230    0.00005134
     atom    7 type  3   force =    -0.00002876   -0.00002867   -2.07336786
     atom    8 type  3   force =     0.00002876    0.00002867    2.07336786
     atom    9 type  4   force =    -0.00000000   -0.00000000   -0.00000000
     atom   10 type  4   force =    -0.00000000   -0.00000000   -0.00000000
     atom   11 type  4   force =    -5.14638479    5.16324785   -2.77573770
     atom   12 type  4   force =     5.14637779   -5.16325482   -2.77573770
     atom   13 type  4   force =     3.55641631    3.54479633   -2.55343499
     atom   14 type  4   force =    -3.55633153   -3.54471182   -2.55334003
     atom   15 type  4   force =     5.14638479   -5.16324785    2.77573770
     atom   16 type  4   force =    -5.14637780    5.16325482    2.77573770
     atom   17 type  4   force =    -3.55641632   -3.54479633    2.55343499
     atom   18 type  4   force =     3.55633153    3.54471183    2.55334003
     The local contribution  to forces
     atom    1 type  1   force =    -0.00002817   -0.00005582    0.00002543
     atom    2 type  1   force =    -0.00005737   -0.00002932   -0.00003604
     atom    3 type  1   force =    -0.06771478    0.06782804    0.00000190
     atom    4 type  1   force =     0.06752812   -0.06794058    0.00000175
     atom    5 type  2   force =    -0.72458028   -0.72235513   -0.00002741
     atom    6 type  2   force =     0.72481774    0.72248213    0.00005754
     atom    7 type  3   force =     0.00011891    0.00010529    2.27090674
     atom    8 type  3   force =     0.00005297    0.00004152   -2.27090024
     atom    9 type  4   force =     0.00027396   -0.00044282   -0.00000127
     atom   10 type  4   force =    -0.00045606    0.00024826    0.00000316
     atom   11 type  4   force =     4.64406129   -4.65897963    2.26200140
     atom   12 type  4   force =    -4.64373768    4.65930537    2.26197547
     atom   13 type  4   force =    -3.09542773   -3.08524348    2.18516195
     atom   14 type  4   force =     3.09503735    3.08486457    2.18462451
     atom   15 type  4   force =    -4.64372307    4.65931337   -2.26198114
     atom   16 type  4   force =     4.64407739   -4.65896907   -2.26199868
     atom   17 type  4   force =     3.09512658    3.08496145   -2.18471265
     atom   18 type  4   force =    -3.09534538   -3.08515842   -2.18508449
     The core correction contribution to forces
     atom    1 type  1   force =    -0.00000023    0.00000012    0.00000000
     atom    2 type  1   force =     0.00000015   -0.00000028   -0.00000032
     atom    3 type  1   force =    -0.00148333    0.00148762    0.00000012
     atom    4 type  1   force =     0.00148291   -0.00148699    0.00000011
     atom    5 type  2   force =    -0.00004383   -0.00004370   -0.00000001
     atom    6 type  2   force =     0.00004382    0.00004367    0.00000002
     atom    7 type  3   force =     0.00000125    0.00000141    0.00197055
     atom    8 type  3   force =    -0.00000159   -0.00000128   -0.00197069
     atom    9 type  4   force =    -0.00000004   -0.00000001   -0.00000004
     atom   10 type  4   force =     0.00000009    0.00000008   -0.00000000
     atom   11 type  4   force =    -0.00490073    0.00491693   -0.00531091
     atom   12 type  4   force =     0.00490137   -0.00491604   -0.00531085
     atom   13 type  4   force =     0.00461729    0.00460245   -0.00384283
     atom   14 type  4   force =    -0.00462272   -0.00460789   -0.00384129
     atom   15 type  4   force =     0.00490054   -0.00491691    0.00531089
     atom   16 type  4   force =    -0.00490157    0.00491606    0.00531091
     atom   17 type  4   force =    -0.00461727   -0.00460246    0.00384275
     atom   18 type  4   force =     0.00462272    0.00460787    0.00384133
     The Hubbard contrib.    to forces
     atom    1 type  1   force =     0.00000000    0.00000000    0.00000000
     atom    2 type  1   force =     0.00000000    0.00000000    0.00000000
     atom    3 type  1   force =     0.00000000    0.00000000    0.00000000
     atom    4 type  1   force =     0.00000000    0.00000000    0.00000000
     atom    5 type  2   force =     0.00000000    0.00000000    0.00000000
     atom    6 type  2   force =     0.00000000    0.00000000    0.00000000
     atom    7 type  3   force =     0.00000000    0.00000000    0.00000000
     atom    8 type  3   force =     0.00000000    0.00000000    0.00000000
     atom    9 type  4   force =     0.00000000    0.00000000    0.00000000
     atom   10 type  4   force =     0.00000000    0.00000000    0.00000000
     atom   11 type  4   force =     0.00000000    0.00000000    0.00000000
     atom   12 type  4   force =     0.00000000    0.00000000    0.00000000
     atom   13 type  4   force =     0.00000000    0.00000000    0.00000000
     atom   14 type  4   force =     0.00000000    0.00000000    0.00000000
     atom   15 type  4   force =     0.00000000    0.00000000    0.00000000
     atom   16 type  4   force =     0.00000000    0.00000000    0.00000000
     atom   17 type  4   force =     0.00000000    0.00000000    0.00000000
     atom   18 type  4   force =     0.00000000    0.00000000    0.00000000
     The SCF correction term to forces
     atom    1 type  1   force =     0.00004117    0.00003600   -0.00002608
     atom    2 type  1   force =     0.00003741    0.00004215    0.00003147
     atom    3 type  1   force =     0.00003333    0.00006368   -0.00000012
     atom    4 type  1   force =     0.00013776    0.00005712    0.00000003
     atom    5 type  2   force =    -0.00023799   -0.00013504    0.00003101
     atom    6 type  2   force =    -0.00000493   -0.00003805   -0.00005482
     atom    7 type  3   force =    -0.00008968   -0.00007524    0.00006780
     atom    8 type  3   force =    -0.00008259   -0.00006636   -0.00007127
     atom    9 type  4   force =    -0.00027628    0.00044930   -0.00000092
     atom   10 type  4   force =     0.00046435   -0.00024551   -0.00000267
     atom   11 type  4   force =    -0.00016589   -0.00017946   -0.00003761
     atom   12 type  4   force =    -0.00016192   -0.00013971   -0.00001046
     atom   13 type  4   force =     0.00017898    0.00013326   -0.00021641
     atom   14 type  4   force =     0.00012792    0.00015966    0.00024695
     atom   15 type  4   force =    -0.00018096   -0.00015251    0.00001534
     atom   16 type  4   force =    -0.00018609   -0.00019742    0.00003561
     atom   17 type  4   force =     0.00012094    0.00014467   -0.00023413
     atom   18 type  4   force =     0.00017758    0.00012916    0.00021163

     Total force =     0.234270     Total SCF correction =     0.001151

     Computing stress (Cartesian axis) and pressure

     negative rho (up, down):  2.680E-01 0.000E+00
          total   stress  (Ry/bohr**3)                   (kbar)     P=     -254.05
  -0.00176892  -0.00002029  -0.00000000         -260.22       -2.98       -0.00
  -0.00002029  -0.00176812  -0.00000000           -2.98     -260.10       -0.00
  -0.00000000  -0.00000000  -0.00164401           -0.00       -0.00     -241.84

     kinetic stress (kbar)  17687.66     -9.18      0.00
                               -9.18  17687.60      0.00
                                0.00      0.00  17562.67

     local   stress (kbar)  -4898.04  -1503.56     -0.07
                            -1503.56  -4887.55     -0.04
                               -0.07     -0.04 -10279.23

     nonloc. stress (kbar)   7881.53     -6.03      0.00
                               -6.03   7881.24      0.00
                                0.00      0.00   7935.07

     hartree stress (kbar)   7060.95    634.86      0.01
                              634.86   7056.69      0.01
                                0.01      0.01   9416.71

     exc-cor stress (kbar)    839.30      0.52      0.00
                                0.52    839.30      0.00
                                0.00      0.00    840.66

     corecor stress (kbar)  -5963.66      0.08     -0.00
                                0.08  -5963.66     -0.00
                               -0.00     -0.00  -5963.72

     ewald   stress (kbar) -22867.96    880.33     -0.01
                              880.33 -22873.72     -0.01
                               -0.01     -0.01 -19754.00

     hubbard stress (kbar)      0.00      0.00      0.00
                                0.00      0.00      0.00
                                0.00      0.00      0.00

     DFT-D   stress (kbar)      0.00      0.00      0.00
                                0.00      0.00      0.00
                                0.00      0.00      0.00

     XDM     stress (kbar)      0.00      0.00      0.00
                                0.00      0.00      0.00
                                0.00      0.00      0.00

     dft-nl  stress (kbar)      0.00      0.00      0.00
                                0.00      0.00      0.00
                                0.00      0.00      0.00

     TS-vdW  stress (kbar)      0.00      0.00      0.00
                                0.00      0.00      0.00
                                0.00      0.00      0.00

[...]

                                0.00      0.00      0.00

     Writing all to output data dir new_calculations/myprefix.save/

     General routines

     Parallel routines

     PAW routines

   This run was terminated on:   7:11:16  21May2023

   JOB DONE.