     Program PWSCF v.7.0 starts on 20May2023 at  6:51:20

     Reading input from espresso_7120.pwi
Warning: card &CELL ignored
Warning: card / ignored

     Current dimensions of program PWSCF are:
     Max number of different atomic species (ntypx) = 10
     Max number of k-points (npk) =  40000
     Max angular momentum in pseudopotentials (lmaxx) =  4
     file O.pbe-n-kjpaw_psl.0.1.UPF: wavefunction(s)  2P renormalized

     gamma-point specific algorithms are used
     Message from routine setup:
     using ibrav=0 with symmetry is DISCOURAGED, use correct ibrav instead

     Subspace diagonalization in iterative solution of the eigenvalue problem:
     a serial algorithm will be used

     Using Slab Decomposition

     bravais-lattice index     =            0
     lattice parameter (alat)  =       9.7095  a.u.
     unit-cell volume          =    1141.2446 (a.u.)^3
     number of atoms/cell      =           13
     number of atomic types    =            3
     number of electrons       =       131.00
     number of Kohn-Sham states=           79
     kinetic-energy cutoff     =      30.0000  Ry
     charge density cutoff     =     240.0000  Ry
     scf convergence threshold =      1.0E-06
     mixing beta               =       0.7000
     number of iterations used =            8  plain     mixing
     Exchange-correlation= SLA  PW   PBX  PBC
                           (   1   4   3   4   0   0   0)

     celldm(1)=   9.709507  celldm(2)=   0.000000  celldm(3)=   0.000000
     celldm(4)=   0.000000  celldm(5)=   0.000000  celldm(6)=   0.000000

     crystal axes: (cart. coord. in units of alat)
               a(1) = (   1.000000   0.000000   0.000000 )
               a(2) = (  -0.429053   1.040291   0.000000 )
               a(3) = (   0.058833  -0.449072   1.198484 )

     reciprocal axes: (cart. coord. in units 2 pi/alat)
               b(1) = (  1.000000  0.412436  0.105450 )
               b(2) = (  0.000000  0.961269  0.360187 )
               b(3) = (  0.000000  0.000000  0.834387 )

     PseudoPot. # 1 for V  read from file:
     /home/pragov/projects/rrg-bengioy-ad/pragov/crystal_structure_design/SSSP/v_pbe_v1.4.uspp.F.UPF
     MD5 check sum: 22b79981416ebb76fdaf5b1b8640f6fb
     Pseudo is Ultrasoft + core correction, Zval = 13.0
     Generated by new atomic code, or converted to UPF format
     Using radial grid of  853 points,  6 beta functions with:
                l(1) =   0
                l(2) =   0
                l(3) =   1
                l(4) =   1
                l(5) =   2
                l(6) =   2
     Q(r) pseudized with  8 coefficients,  rinner =    1.100   1.100   1.100
                                                       1.100   1.100

     PseudoPot. # 2 for Cu read from file:
     /home/pragov/projects/rrg-bengioy-ad/pragov/crystal_structure_design/SSSP/Cu_pbe_v1.2.uspp.F.UPF
     MD5 check sum: 6e991ff952a84172a2a52a1c1e996048
     Pseudo is Ultrasoft + core correction, Zval = 19.0
     Generated by new atomic code, or converted to UPF format
     Using radial grid of  867 points,  6 beta functions with:
                l(1) =   0
                l(2) =   0
                l(3) =   1
                l(4) =   1
                l(5) =   2
                l(6) =   2
     Q(r) pseudized with  8 coefficients,  rinner =    1.150   1.150   1.150
                                                       1.150   1.150

     PseudoPot. # 3 for O  read from file:
     /home/pragov/projects/rrg-bengioy-ad/pragov/crystal_structure_design/SSSP/O.pbe-n-kjpaw_psl.0.1.UPF
     MD5 check sum: 0234752ac141de4415c5fc33072bef88
     Pseudo is Projector augmented-wave + core cor, Zval =  6.0
     Generated using "atomic" code by A. Dal Corso  v.5.0.99 svn rev. 10869
     Shape of augmentation charge: BESSEL
     Using radial grid of 1095 points,  4 beta functions with:
                l(1) =   0
                l(2) =   0
                l(3) =   1
                l(4) =   1
     Q(r) pseudized with 0 coefficients

     atomic species   valence    mass     pseudopotential
        V             13.00    50.94150     V ( 1.00)
        Cu            19.00    63.54600     Cu( 1.00)
        O              6.00    15.99900     O ( 1.00)

      2 Sym. Ops., with inversion, found

                                    s                        frac. trans.

      isym =  1     identity

 cryst.   s( 1) = (     1          0          0      )
                  (     0          1          0      )
                  (     0          0          1      )

 cart.    s( 1) = (  1.0000000  0.0000000  0.0000000 )
                  (  0.0000000  1.0000000 -0.0000000 )
                  (  0.0000000  0.0000000  1.0000000 )

      isym =  2     inversion

 cryst.   s( 2) = (    -1          0          0      )
                  (     0         -1          0      )
                  (     0          0         -1      )

 cart.    s( 2) = ( -1.0000000 -0.0000000 -0.0000000 )
                  (  0.0000000 -1.0000000  0.0000000 )
                  (  0.0000000  0.0000000 -1.0000000 )

   Cartesian axes

     site n.     atom                  positions (alat units)
         1           V   tau(   1) = (   0.1182093   0.3442647   0.9462020  )
         2           V   tau(   2) = (   0.5115709   0.2469549   0.2522821  )
         3           Cu  tau(   3) = (  -0.0736581   0.7085029   0.4015964  )
         4           Cu  tau(   4) = (   0.7034383  -0.1172832   0.7968876  )
         5           Cu  tau(   5) = (   0.0000000   0.0000000   0.0000000  )
         6           O   tau(   6) = (   0.0413922   0.6247267   0.7518294  )
         7           O   tau(   7) = (   0.5883879  -0.0335071   0.4466546  )
         8           O   tau(   8) = (  -0.1273892   0.8216930   0.0445872  )
         9           O   tau(   9) = (   0.7571694  -0.2304733   1.1538969  )
        10           O   tau(  10) = (   0.1822557   0.2755468   0.1858513  )
        11           O   tau(  11) = (   0.0219335   0.0734300   0.7814380  )
        12           O   tau(  12) = (   0.4475245   0.3156728   1.0126327  )
        13           O   tau(  13) = (   0.6078467   0.5177896   0.4170461  )

   Crystallographic axes

     site n.     atom                  positions (cryst. coord.)
         1           V   tau(   1) = (  0.3599730  0.6717410  0.7894990  )
         2           V   tau(   2) = (  0.6400270  0.3282590  0.2105010  )
         3           Cu  tau(   3) = (  0.2609020  0.8257120  0.3350870  )
         4           Cu  tau(   4) = (  0.7390980  0.1742880  0.6649130  )
         5           Cu  tau(   5) = (  0.0000000  0.0000000  0.0000000  )
         6           O   tau(   6) = (  0.3783320  0.8713300  0.6273170  )
         7           O   tau(   7) = (  0.6216680  0.1286700  0.3726830  )
         8           O   tau(   8) = (  0.2162080  0.8059280  0.0372030  )
         9           O   tau(   9) = (  0.7837920  0.1940720  0.9627970  )
        10           O   tau(  10) = (  0.3154990  0.3318160  0.1550720  )
        11           O   tau(  11) = (  0.1346210  0.3520500  0.6520220  )
        12           O   tau(  12) = (  0.6845010  0.6681840  0.8449280  )
        13           O   tau(  13) = (  0.8653790  0.6479500  0.3479780  )

     number of k points=     1  Methfessel-Paxton smearing, width (Ry)=  0.0010
                       cart. coord. in units 2pi/alat
        k(    1) = (   0.0000000   0.0000000   0.0000000), wk =   2.0000000

                       cryst. coord.
        k(    1) = (   0.0000000   0.0000000   0.0000000), wk =   2.0000000

     Check: negative core charge=   -0.000015

     Initial potential from superposition of free atoms

     starting charge     127.9975, renormalised to     131.0000

     negative rho (up, down):  6.718E-04 0.000E+00
     Starting wfcs are   91 randomized atomic wfcs
     Checking if some PAW data can be deallocated...

     Self-consistent Calculation

     iteration #  1     ecut=    30.00 Ry     beta= 0.70
     Davidson diagonalization with overlap

     ethr =  1.00E-02,  avg # of iterations =  2.0

     negative rho (up, down):  6.236E-03 0.000E+00

     total energy              =   -1829.77229549 Ry
     estimated scf accuracy    <       7.17507016 Ry

[...]

     total energy              =   -1834.36741774 Ry
     estimated scf accuracy    <       0.00001520 Ry

     iteration # 25     ecut=    30.00 Ry     beta= 0.70
     Davidson diagonalization with overlap

     ethr =  1.16E-08,  avg # of iterations =  1.0

[...]

     End of self-consistent calculation

          k = 0.0000 0.0000 0.0000 (  1585 PWs)   bands (ev):

  -106.0459-105.7434-105.7427 -63.6626 -63.4925 -63.3000 -63.2995 -63.2784
   -63.2725 -63.0617 -62.7615 -62.7593 -58.4249 -58.4243 -32.4258 -32.4136
   -32.3441 -32.3438 -32.2644 -32.2638 -12.4044 -11.6875 -11.6581 -11.5005
   -11.1956 -11.1281 -10.9039 -10.8924   0.4587   0.6103   0.8875   1.1340
     1.1809   1.4274   1.4795   1.6241   1.6254   1.8629   2.0100   2.1776
     2.5358   2.7162   2.7252   2.9113   3.0761   3.1960   3.3335   3.4202
     3.7443   4.1745   4.1754   4.4885   4.4963   4.5623   4.6745   4.7891
     4.9481   5.0460   5.1546   5.1627   5.2737   5.2784   5.3369   5.4425
     6.4478   6.4570   6.8856   8.4927   8.6992   8.8936   9.0967   9.6981
     9.9294   9.9635  10.0835  10.2599  10.3264  10.5520  13.3401

     occupation numbers
     1.0000   1.0000   1.0000   1.0000   1.0000   1.0000   1.0000   1.0000
     1.0000   1.0000   1.0000   1.0000   1.0000   1.0000   1.0000   1.0000
     1.0000   1.0000   1.0000   1.0000   1.0000   1.0000   1.0000   1.0000
     1.0000   1.0000   1.0000   1.0000   1.0000   1.0000   1.0000   1.0000
     1.0000   1.0000   1.0000   1.0000   1.0000   1.0000   1.0000   1.0000
     1.0000   1.0000   1.0000   1.0000   1.0000   1.0000   1.0000   1.0000
     1.0000   1.0000   1.0000   1.0000   1.0000   1.0000   1.0000   1.0000
     1.0000   1.0000   1.0000   1.0000   1.0000   1.0000   1.0000   1.0000
     0.9647   0.5353  -0.0000  -0.0000  -0.0000  -0.0000  -0.0000  -0.0000
    -0.0000  -0.0000  -0.0000  -0.0000  -0.0000  -0.0000  -0.0000

     the Fermi energy is     6.4576 ev

!    total energy              =   -1834.36741744 Ry
     estimated scf accuracy    <       0.00000070 Ry
     smearing contrib. (-TS)   =      -0.00027722 Ry
     internal energy E=F+TS    =   -1834.36714022 Ry

     The total energy is F=E-TS. E is the sum of the following terms:
     one-electron contribution =   -1433.17992842 Ry
     hartree contribution      =     766.64447859 Ry
     xc contribution           =    -214.13300270 Ry
     ewald contribution        =    -877.46661972 Ry
     one-center paw contrib.   =     -76.23206796 Ry
      -> PAW hartree energy AE =     232.89433233 Ry
      -> PAW hartree energy PS =    -232.09725261 Ry
      -> PAW xc energy AE      =    -136.74665840 Ry
      -> PAW xc energy PS      =      59.71751071 Ry
      -> total E_H with PAW    =     767.44155831 Ry
      -> total E_XC with PAW   =    -291.16215039 Ry

     convergence has been achieved in  25 iterations

     negative rho (up, down):  3.096E-03 0.000E+00

     Forces acting on atoms (cartesian axes, Ry/au):

     atom    1 type  1   force =     0.00783580   -0.04102809   -0.00097029
     atom    2 type  1   force =    -0.00783580    0.04102809    0.00097029
     atom    3 type  2   force =    -0.01727633   -0.03226354   -0.02114361
     atom    4 type  2   force =     0.01727633    0.03226354    0.02114361
     atom    5 type  2   force =     0.00000000    0.00000000    0.00000000
     atom    6 type  3   force =    -0.00852189   -0.00088970    0.01230699
     atom    7 type  3   force =     0.00852189    0.00088970   -0.01230699
     atom    8 type  3   force =     0.00635714    0.01871025   -0.03278754
     atom    9 type  3   force =    -0.00635714   -0.01871025    0.03278754
     atom   10 type  3   force =     0.02899093   -0.00148636    0.02041984
     atom   11 type  3   force =     0.01980454    0.03715594    0.02540588
     atom   12 type  3   force =    -0.02899093    0.00148636   -0.02041984
     atom   13 type  3   force =    -0.01980454   -0.03715594   -0.02540588
     The non-local contrib.  to forces
     atom    1 type  1   force =     0.03244780   -0.04318839   -0.02020312
     atom    2 type  1   force =    -0.03244780    0.04318839    0.02020312
     atom    3 type  2   force =     0.18775209   -0.06947353   -0.08486674
     atom    4 type  2   force =    -0.18775209    0.06947353    0.08486674
     atom    5 type  2   force =     0.00000000    0.00000000    0.00000000
     atom    6 type  3   force =     0.33827865   -0.35680648    0.02605997
     atom    7 type  3   force =    -0.33827865    0.35680648   -0.02605997
     atom    8 type  3   force =     0.04206801    0.19608496   -0.21437290
     atom    9 type  3   force =    -0.04206801   -0.19608496    0.21437290
     atom   10 type  3   force =     0.60928526   -0.53441834   -0.17535397
     atom   11 type  3   force =    -0.42735870    0.56826565    0.49480023
     atom   12 type  3   force =    -0.60928526    0.53441834    0.17535397
     atom   13 type  3   force =     0.42735870   -0.56826565   -0.49480023
     The ionic contribution  to forces
     atom    1 type  1   force =     2.25951893   -7.06749637   -5.81743716
     atom    2 type  1   force =    -2.25951893    7.06749638    5.81743716
     atom    3 type  2   force =    -2.85821446  -10.05662344    1.57385899
     atom    4 type  2   force =     2.85821447   10.05662344   -1.57385899
     atom    5 type  2   force =     0.00000000   -0.00000000   -0.00000000
     atom    6 type  3   force =    -5.51720256   -3.91572784    0.80585320
     atom    7 type  3   force =     5.51720256    3.91572783   -0.80585320
     atom    8 type  3   force =     1.23591855   -5.09484676   -1.35169474
     atom    9 type  3   force =    -1.23591855    5.09484676    1.35169474
     atom   10 type  3   force =    -4.38617924    9.28196754    3.98511804
     atom   11 type  3   force =     6.92627916   -2.63993460   -7.32763868
     atom   12 type  3   force =     4.38617924   -9.28196754   -3.98511804
     atom   13 type  3   force =    -6.92627917    2.63993460    7.32763868
     The local contribution  to forces
     atom    1 type  1   force =    -2.27998973    7.06350199    5.83383628
     atom    2 type  1   force =     2.27949909   -7.06277914   -5.83321296
     atom    3 type  2   force =     2.65331010   10.09326129   -1.51037342
     atom    4 type  2   force =    -2.65412047  -10.09409599    1.50960034
     atom    5 type  2   force =     0.00063015   -0.00040673    0.00053013
     atom    6 type  3   force =     5.17308710    4.26824038   -0.82102227
     atom    7 type  3   force =    -5.17394409   -4.26896622    0.81957751
     atom    8 type  3   force =    -1.27205831    4.91941298    1.53303472
     atom    9 type  3   force =     1.27203733   -4.91956060   -1.53166953
     atom   10 type  3   force =     3.80988376   -8.75428167   -3.79168365
     atom   11 type  3   force =    -6.48433640    2.11308364    6.86190883
     atom   12 type  3   force =    -3.80994322    8.75445111    3.79191975
     atom   13 type  3   force =     6.48523581   -2.11259143   -6.86199378
     The core correction contribution to forces
     atom    1 type  1   force =    -0.00397738    0.00655724    0.00308500
     atom    2 type  1   force =     0.00397239   -0.00655330   -0.00308287
     atom    3 type  2   force =    -0.00026471    0.00012622    0.00003379
     atom    4 type  2   force =     0.00026449   -0.00012644   -0.00003357
     atom    5 type  2   force =    -0.00000009   -0.00000005   -0.00000004
     atom    6 type  3   force =    -0.00310205    0.00310915    0.00063117
     atom    7 type  3   force =     0.00310003   -0.00311354   -0.00063830
     atom    8 type  3   force =     0.00056171   -0.00207121    0.00094582
     atom    9 type  3   force =    -0.00056209    0.00207107   -0.00094032
     atom   10 type  3   force =    -0.00398991    0.00545920    0.00254814
     atom   11 type  3   force =     0.00568693   -0.00396318   -0.00369391
     atom   12 type  3   force =     0.00398969   -0.00545871   -0.00254840
     atom   13 type  3   force =    -0.00568324    0.00396447    0.00369503
     The Hubbard contrib.    to forces
     atom    1 type  1   force =     0.00000000    0.00000000    0.00000000
     atom    2 type  1   force =     0.00000000    0.00000000    0.00000000
     atom    3 type  2   force =     0.00000000    0.00000000    0.00000000
     atom    4 type  2   force =     0.00000000    0.00000000    0.00000000
     atom    5 type  2   force =     0.00000000    0.00000000    0.00000000
     atom    6 type  3   force =     0.00000000    0.00000000    0.00000000
     atom    7 type  3   force =     0.00000000    0.00000000    0.00000000
     atom    8 type  3   force =     0.00000000    0.00000000    0.00000000
     atom    9 type  3   force =     0.00000000    0.00000000    0.00000000
     atom   10 type  3   force =     0.00000000    0.00000000    0.00000000
     atom   11 type  3   force =     0.00000000    0.00000000    0.00000000
     atom   12 type  3   force =     0.00000000    0.00000000    0.00000000
     atom   13 type  3   force =     0.00000000    0.00000000    0.00000000
     The SCF correction term to forces
     atom    1 type  1   force =    -0.00017305   -0.00037797   -0.00021078
     atom    2 type  1   force =     0.00065021   -0.00029966   -0.00033362
     atom    3 type  2   force =     0.00011816    0.00043428    0.00020149
     atom    4 type  2   force =     0.00064742    0.00037735    0.00056682
     atom    5 type  2   force =    -0.00075199    0.00044061   -0.00049562
     atom    6 type  3   force =     0.00039437    0.00017260    0.00055480
     atom    7 type  3   force =     0.00041944    0.00031265    0.00043685
     atom    8 type  3   force =    -0.00016358    0.00014284   -0.00050943
     atom    9 type  3   force =     0.00012341    0.00003002   -0.00047924
     atom   10 type  3   force =    -0.00002569   -0.00019281   -0.00022083
     atom   11 type  3   force =    -0.00037550   -0.00025814    0.00007049
     atom   12 type  3   force =     0.00005187    0.00006344   -0.00003922
     atom   13 type  3   force =    -0.00034568   -0.00016052    0.00009549

     Total force =     0.133420     Total SCF correction =     0.002224

     Computing stress (Cartesian axis) and pressure

     negative rho (up, down):  3.096E-03 0.000E+00
          total   stress  (Ry/bohr**3)                   (kbar)     P=     -613.43
  -0.00411984   0.00000666   0.00008962         -606.05        0.98       13.18
   0.00000666  -0.00421151  -0.00005236            0.98     -619.53       -7.70
   0.00008962  -0.00005236  -0.00417872           13.18       -7.70     -614.71

     kinetic stress (kbar)  28666.95   -145.75   -236.81
                             -145.75  28722.39     51.31
                             -236.81     51.31  28634.78

     local   stress (kbar) -28256.70 -14837.40 -21524.88
                           -14837.40 -24852.40   2277.11
                           -21524.88   2277.11 -23858.70

     nonloc. stress (kbar)   9846.02    -33.31    -58.45
                              -33.31   9840.27     -7.49
                              -58.45     -7.49   9853.84

     hartree stress (kbar)  33957.83   6173.99   9194.25
                             6173.99  32492.93  -1174.05
                             9194.25  -1174.05  32368.80

     exc-cor stress (kbar)  -7472.73      6.44      8.38
                                6.44  -7475.19      2.10
                                8.38      2.10  -7479.00

     corecor stress (kbar)  -1241.99     -0.10      0.66
                               -0.10  -1241.78      0.11
                                0.66      0.11  -1241.21

     ewald   stress (kbar) -36105.43   8837.10  12630.02
                             8837.10 -38105.76  -1156.79
                            12630.02  -1156.79 -38893.22

     hubbard stress (kbar)      0.00      0.00      0.00
                                0.00      0.00      0.00
                                0.00      0.00      0.00

     DFT-D   stress (kbar)      0.00      0.00      0.00
                                0.00      0.00      0.00
                                0.00      0.00      0.00

     XDM     stress (kbar)      0.00      0.00      0.00
                                0.00      0.00      0.00
                                0.00      0.00      0.00

     dft-nl  stress (kbar)      0.00      0.00      0.00
                                0.00      0.00      0.00
                                0.00      0.00      0.00

     TS-vdW  stress (kbar)      0.00      0.00      0.00
                                0.00      0.00      0.00
                                0.00      0.00      0.00

[...]

                                0.00      0.00      0.00

     Writing all to output data dir new_calculations/myprefix.save/

     General routines

     Parallel routines

     PAW routines

   This run was terminated on:   6:51:52  20May2023

   JOB DONE.