     Program PWSCF v.7.0 starts on 20May2023 at 15: 4:10

     Reading input from espresso_6382.pwi
Warning: card &CELL ignored
Warning: card / ignored

     Current dimensions of program PWSCF are:
     Max number of different atomic species (ntypx) = 10
     Max number of k-points (npk) =  40000
     Max angular momentum in pseudopotentials (lmaxx) =  4
     file Nb.pbe-spn-kjpaw_psl.0.3.0.UPF: wavefunction(s)  4S 4P renormalized

     gamma-point specific algorithms are used
     Message from routine setup:
     using ibrav=0 with symmetry is DISCOURAGED, use correct ibrav instead

     Subspace diagonalization in iterative solution of the eigenvalue problem:
     a serial algorithm will be used

     Using Slab Decomposition

     bravais-lattice index     =            0
     lattice parameter (alat)  =       5.3669  a.u.
     unit-cell volume          =     435.5278 (a.u.)^3
     number of atoms/cell      =            4
     number of atomic types    =            2
     number of electrons       =        60.00
     number of Kohn-Sham states=           36
     kinetic-energy cutoff     =      30.0000  Ry
     charge density cutoff     =     240.0000  Ry
     scf convergence threshold =      1.0E-06
     mixing beta               =       0.7000
     number of iterations used =            8  plain     mixing
     Exchange-correlation= PBE
                           (   1   4   3   4   0   0   0)

     celldm(1)=   5.366854  celldm(2)=   0.000000  celldm(3)=   0.000000
     celldm(4)=   0.000000  celldm(5)=   0.000000  celldm(6)=   0.000000

     crystal axes: (cart. coord. in units of alat)
               a(1) = (   1.000000   0.000000   0.000000 )
               a(2) = (   0.000000   1.620047   0.000000 )
               a(3) = (   0.000000   0.000000   1.739117 )

     reciprocal axes: (cart. coord. in units 2 pi/alat)
               b(1) = (  1.000000  0.000000  0.000000 )
               b(2) = (  0.000000  0.617266  0.000000 )
               b(3) = (  0.000000  0.000000  0.575004 )

     PseudoPot. # 1 for Nb read from file:
     /home/pragov/projects/rrg-bengioy-ad/pragov/crystal_structure_design/SSSP/Nb.pbe-spn-kjpaw_psl.0.3.0.UPF
     MD5 check sum: 411d72ad547312f8017e2943ceca08cc
     Pseudo is Projector augmented-wave + core cor, Zval = 13.0
     Generated using "atomic" code by A. Dal Corso  v.5.0.99 svn rev. 10869
     Shape of augmentation charge: PSQ
     Using radial grid of 1227 points,  6 beta functions with:
                l(1) =   0
                l(2) =   0
                l(3) =   1
                l(4) =   1
                l(5) =   2
                l(6) =   2
     Q(r) pseudized with 0 coefficients

     PseudoPot. # 2 for Rh read from file:
     /home/pragov/projects/rrg-bengioy-ad/pragov/crystal_structure_design/SSSP/Rh_ONCV_PBE-1.0.oncvpsp.upf
     MD5 check sum: ba07c69523b14cacd10683cd4c4284c1
     Pseudo is Norm-conserving, Zval = 17.0
     Generated using ONCVPSP code by D. R. Hamann
     Using radial grid of 1442 points,  6 beta functions with:
                l(1) =   0
                l(2) =   0
                l(3) =   1
                l(4) =   1
                l(5) =   2
                l(6) =   2

     atomic species   valence    mass     pseudopotential
        Nb            13.00    92.90637     Nb( 1.00)
        Rh            17.00   102.90550     Rh( 1.00)

      8 Sym. Ops., with inversion, found ( 4 have fractional translation)

                                    s                        frac. trans.

      isym =  1     identity

 cryst.   s( 1) = (     1          0          0      )
                  (     0          1          0      )
                  (     0          0          1      )

 cart.    s( 1) = (  1.0000000  0.0000000  0.0000000 )
                  (  0.0000000  1.0000000  0.0000000 )
                  (  0.0000000  0.0000000  1.0000000 )

      isym =  2     180 deg rotation - cart. axis [0,0,1]

 cryst.   s( 2) = (    -1          0          0      )    f =(  0.0000000 )
                  (     0         -1          0      )       (  0.5000000 )
                  (     0          0          1      )       (  0.0000000 )

 cart.    s( 2) = ( -1.0000000  0.0000000  0.0000000 )    f =(  0.0000000 )
                  (  0.0000000 -1.0000000  0.0000000 )       (  0.8100233 )
                  (  0.0000000  0.0000000  1.0000000 )       (  0.0000000 )

[...]

      isym =  4     180 deg rotation - cart. axis [1,0,0]

[...]

      isym =  5     inversion

[...]

      isym =  6     inv. 180 deg rotation - cart. axis [0,0,1]

[...]

 cryst.   s( 7) = (     1          0          0      )    f =(  0.0000000 )
                  (     0         -1          0      )       (  0.5000000 )
                  (     0          0          1      )       (  0.0000000 )

 cart.    s( 7) = (  1.0000000  0.0000000  0.0000000 )    f =(  0.0000000 )
                  (  0.0000000 -1.0000000  0.0000000 )       (  0.8100233 )
                  (  0.0000000  0.0000000  1.0000000 )       (  0.0000000 )

      isym =  8     inv. 180 deg rotation - cart. axis [1,0,0]

 cryst.   s( 8) = (    -1          0          0      )
                  (     0          1          0      )
                  (     0          0          1      )

 cart.    s( 8) = ( -1.0000000  0.0000000  0.0000000 )
                  (  0.0000000  1.0000000  0.0000000 )
                  (  0.0000000  0.0000000  1.0000000 )

   Cartesian axes

     site n.     atom                  positions (alat units)
         1           Nb  tau(   1) = (   0.0000000   1.2150350   0.3392392  )
         2           Nb  tau(   2) = (   0.0000000   0.4050117   1.3998782  )
         3           Rh  tau(   3) = (   0.5000000   1.2150350   1.1944432  )
         4           Rh  tau(   4) = (   0.5000000   0.4050117   0.5446742  )

   Crystallographic axes

     site n.     atom                  positions (cryst. coord.)
         1           Nb  tau(   1) = (  0.0000000  0.7500000  0.1950640  )
         2           Nb  tau(   2) = (  0.0000000  0.2500000  0.8049360  )
         3           Rh  tau(   3) = (  0.5000000  0.7500000  0.6868100  )
         4           Rh  tau(   4) = (  0.5000000  0.2500000  0.3131900  )

     number of k points=     1  Methfessel-Paxton smearing, width (Ry)=  0.0010
                       cart. coord. in units 2pi/alat
        k(    1) = (   0.0000000   0.0000000   0.0000000), wk =   2.0000000

                       cryst. coord.
        k(    1) = (   0.0000000   0.0000000   0.0000000), wk =   2.0000000

     Check: negative core charge=   -0.000019

     Initial potential from superposition of free atoms

     starting charge      59.9949, renormalised to      60.0000
     Starting wfcs are   40 randomized atomic wfcs
     Checking if some PAW data can be deallocated...

     Self-consistent Calculation

     iteration #  1     ecut=    30.00 Ry     beta= 0.70
     Davidson diagonalization with overlap

     ethr =  1.00E-02,  avg # of iterations =  4.0

     total energy              =   -1100.80027132 Ry
     estimated scf accuracy    <       2.73479972 Ry

[...]

     total energy              =   -1102.52608598 Ry
     estimated scf accuracy    <       0.00000152 Ry

     iteration # 23     ecut=    30.00 Ry     beta= 0.70
     Davidson diagonalization with overlap

     ethr =  2.00E-09,  avg # of iterations =  1.0

     End of self-consistent calculation

          k = 0.0000 0.0000 0.0000 (   604 PWs)   bands (ev):

   -57.5871 -57.5749 -34.8870 -34.8235 -25.9762 -25.8815 -25.5952 -25.5352
   -24.9272 -24.9117 -11.3009 -11.0237 -10.9581 -10.7761 -10.2895 -10.2379
    13.1857  15.3340  15.3802  15.7752  15.8373  17.8478  18.1517  18.6549
    19.0207  19.0290  19.1590  19.4174  19.7999  20.0091  20.0248  20.7173
    21.2750  22.6342  23.7063  23.8331

     occupation numbers
     1.0000   1.0000   1.0000   1.0000   1.0000   1.0000   1.0000   1.0000
     1.0000   1.0000   1.0000   1.0000   1.0000   1.0000   1.0000   1.0000
     1.0000   1.0000   1.0000   1.0000   1.0000   1.0000   1.0000   1.0000
     1.0000   1.0000   1.0000   1.0000   1.0000   0.9098   0.0902  -0.0000
    -0.0000  -0.0000  -0.0000  -0.0000

     the Fermi energy is    20.0170 ev

!    total energy              =   -1102.52608598 Ry
     estimated scf accuracy    <          7.0E-09 Ry
     smearing contrib. (-TS)   =      -0.00013423 Ry
     internal energy E=F+TS    =   -1102.52595175 Ry

     The total energy is F=E-TS. E is the sum of the following terms:
     one-electron contribution =    -147.55055404 Ry
     hartree contribution      =     112.63637940 Ry
     xc contribution           =    -102.02758789 Ry
     ewald contribution        =    -548.60952489 Ry
     one-center paw contrib.   =    -416.97466433 Ry
      -> PAW hartree energy AE =     137.55625727 Ry
      -> PAW hartree energy PS =    -136.81650647 Ry
      -> PAW xc energy AE      =    -471.80856011 Ry
      -> PAW xc energy PS      =      54.09414497 Ry
      -> total E_H with PAW    =     113.37613020 Ry
      -> total E_XC with PAW   =    -519.74200303 Ry

     convergence has been achieved in  23 iterations

     Forces acting on atoms (cartesian axes, Ry/au):

     atom    1 type  1   force =     0.00000000    0.00000000    0.04375644
     atom    2 type  1   force =     0.00000000    0.00000000   -0.04375644
     atom    3 type  2   force =     0.00000000    0.00000000    0.03695032
     atom    4 type  2   force =     0.00000000    0.00000000   -0.03695032
     The non-local contrib.  to forces
     atom    1 type  1   force =     0.00000000    0.00000000    0.20719442
     atom    2 type  1   force =     0.00000000    0.00000000   -0.20719442
     atom    3 type  2   force =     0.00000000    0.00000000    0.16448626
     atom    4 type  2   force =     0.00000000    0.00000000   -0.16448626
     The ionic contribution  to forces
     atom    1 type  1   force =    -0.00000000   -0.00000000   -3.87779293
     atom    2 type  1   force =    -0.00000000    0.00000000    3.87779293
     atom    3 type  2   force =    -0.00000000   -0.00000000    3.86387729
     atom    4 type  2   force =    -0.00000000    0.00000000   -3.86387729
     The local contribution  to forces
     atom    1 type  1   force =    -0.00000087   -0.00005702    3.73053183
     atom    2 type  1   force =     0.00000017    0.00008145   -3.73044070
     atom    3 type  2   force =    -0.00000126   -0.00012105   -3.99132552
     atom    4 type  2   force =     0.00000083    0.00010156    3.99116090
     The core correction contribution to forces
     atom    1 type  1   force =    -0.00000003   -0.00000087   -0.01624133
     atom    2 type  1   force =    -0.00000003    0.00000127    0.01624310
     atom    3 type  2   force =     0.00000000    0.00000000    0.00000000
     atom    4 type  2   force =     0.00000000    0.00000000    0.00000000
     The Hubbard contrib.    to forces
     atom    1 type  1   force =     0.00000000    0.00000000    0.00000000
     atom    2 type  1   force =     0.00000000    0.00000000    0.00000000
     atom    3 type  2   force =     0.00000000    0.00000000    0.00000000
     atom    4 type  2   force =     0.00000000    0.00000000    0.00000000
     The SCF correction term to forces
     atom    1 type  1   force =     0.00000039    0.00004324    0.00008364
     atom    2 type  1   force =    -0.00000030   -0.00006073   -0.00013816
     atom    3 type  2   force =     0.00000099    0.00012407   -0.00011107
     atom    4 type  2   force =    -0.00000040   -0.00010074    0.00022896

     Total force =     0.080993     Total SCF correction =     0.000349

     Computing stress (Cartesian axis) and pressure

          total   stress  (Ry/bohr**3)                   (kbar)     P=        7.51
   0.00268256   0.00000000   0.00000000          394.62        0.00        0.00
   0.00000000  -0.00195216   0.00000000            0.00     -287.17        0.00
   0.00000000   0.00000000  -0.00057728            0.00        0.00      -84.92

     kinetic stress (kbar)  53087.09      0.00      0.00
                                0.00  49357.30      0.00
                                0.00      0.00  50503.30

     local   stress (kbar) -10808.48      0.00     -0.00
                                0.00  -5067.76     -0.01
                               -0.00     -0.01    526.34

     nonloc. stress (kbar)  11532.43      0.00      0.00
                                0.00  12052.89      0.00
                                0.00      0.00  12364.96

     hartree stress (kbar)  14942.65     -0.00     -0.00
                               -0.00  12701.83      0.01
                               -0.00      0.01  10399.89

     exc-cor stress (kbar)   1531.53     -0.00     -0.00
                               -0.00   1507.81      0.00
                               -0.00      0.00   1509.66

     corecor stress (kbar) -10261.99      0.00     -0.00
                                0.00 -10266.52      0.00
                               -0.00      0.00 -10290.50

     ewald   stress (kbar) -59628.61      0.00     -0.00
                                0.00 -60572.72     -0.00
                               -0.00     -0.00 -65098.56

     hubbard stress (kbar)      0.00      0.00      0.00
                                0.00      0.00      0.00
                                0.00      0.00      0.00

     DFT-D   stress (kbar)      0.00      0.00      0.00
                                0.00      0.00      0.00
                                0.00      0.00      0.00

     XDM     stress (kbar)      0.00      0.00      0.00
                                0.00      0.00      0.00
                                0.00      0.00      0.00

     dft-nl  stress (kbar)      0.00      0.00      0.00
                                0.00      0.00      0.00
                                0.00      0.00      0.00

     TS-vdW  stress (kbar)      0.00      0.00      0.00
                                0.00      0.00      0.00
                                0.00      0.00      0.00

[...]

                                0.00      0.00      0.00

     Writing all to output data dir new_calculations/myprefix.save/

     General routines

     Parallel routines

     PAW routines

   This run was terminated on:  15: 4:53  20May2023

   JOB DONE.