     Program PWSCF v.7.0 starts on 21May2023 at  8:15:48

     Reading input from espresso_13049.pwi
Warning: card &CELL ignored
Warning: card / ignored

     Current dimensions of program PWSCF are:
     Max number of different atomic species (ntypx) = 10
     Max number of k-points (npk) =  40000
     Max angular momentum in pseudopotentials (lmaxx) =  4
     file Ba.pbe-spn-kjpaw_psl.1.0.0.UPF: wavefunction(s)  5S 6S renormalized
     file O.pbe-n-kjpaw_psl.0.1.UPF: wavefunction(s)  2P renormalized

     gamma-point specific algorithms are used
     Message from routine setup:
     using ibrav=0 with symmetry is DISCOURAGED, use correct ibrav instead

     Subspace diagonalization in iterative solution of the eigenvalue problem:
     a serial algorithm will be used

     Using Slab Decomposition

     bravais-lattice index     =            0
     lattice parameter (alat)  =      10.7664  a.u.
     unit-cell volume          =    1387.3356 (a.u.)^3
     number of atoms/cell      =           14
     number of atomic types    =            4
     number of electrons       =        96.00
     number of Kohn-Sham states=           58
     kinetic-energy cutoff     =      30.0000  Ry
     charge density cutoff     =     240.0000  Ry
     scf convergence threshold =      1.0E-06
     mixing beta               =       0.7000
     number of iterations used =            8  plain     mixing
     Exchange-correlation= SLA  PW   PBX  PBC
                           (   1   4   3   4   0   0   0)

     celldm(1)=  10.766357  celldm(2)=   0.000000  celldm(3)=   0.000000
     celldm(4)=   0.000000  celldm(5)=   0.000000  celldm(6)=   0.000000

     crystal axes: (cart. coord. in units of alat)
               a(1) = (   1.000000   0.000000   0.000000 )
               a(2) = (  -0.500000   0.866025   0.000000 )
               a(3) = (   0.000000   0.000000   1.283644 )

     reciprocal axes: (cart. coord. in units 2 pi/alat)
               b(1) = (  1.000000  0.577350  0.000000 )
               b(2) = (  0.000000  1.154701  0.000000 )
               b(3) = (  0.000000  0.000000  0.779032 )

     PseudoPot. # 1 for Ba read from file:
     /home/pragov/projects/rrg-bengioy-ad/pragov/crystal_structure_design/SSSP/Ba.pbe-spn-kjpaw_psl.1.0.0.UPF
     MD5 check sum: c432291d3e53af55f19d5e8866385beb
     Pseudo is Projector augmented-wave + core cor, Zval = 10.0
     Generated using "atomic" code by A. Dal Corso  v.5.1
     Shape of augmentation charge: PSQ
     Using radial grid of 1251 points,  7 beta functions with:
                l(1) =   0
                l(2) =   0
                l(3) =   0
                l(4) =   1
                l(5) =   1
                l(6) =   2
                l(7) =   2
     Q(r) pseudized with 0 coefficients

     PseudoPot. # 2 for Na read from file:
     /home/pragov/projects/rrg-bengioy-ad/pragov/crystal_structure_design/SSSP/na_pbe_v1.5.uspp.F.UPF
     MD5 check sum: 44600605ef58000f06b90626533354dc
     Pseudo is Ultrasoft, Zval =  9.0
     Generated by new atomic code, or converted to UPF format
     Using radial grid of  819 points,  5 beta functions with:
                l(1) =   0
                l(2) =   0
                l(3) =   1
                l(4) =   1
                l(5) =   2
     Q(r) pseudized with  8 coefficients,  rinner =    1.250   1.250   1.250
                                                       1.250   1.250

     PseudoPot. # 3 for P  read from file:
     /home/pragov/projects/rrg-bengioy-ad/pragov/crystal_structure_design/SSSP/P.pbe-n-rrkjus_psl.1.0.0.UPF
     MD5 check sum: 8b930f418f0a4573dca56cd030ffe088
     Pseudo is Ultrasoft + core correction, Zval =  5.0
     Generated using "atomic" code by A. Dal Corso  v.5.1
     Using radial grid of 1147 points,  6 beta functions with:
                l(1) =   0
                l(2) =   0
                l(3) =   1
                l(4) =   1
                l(5) =   2
                l(6) =   2
     Q(r) pseudized with 0 coefficients

     PseudoPot. # 4 for O  read from file:
     /home/pragov/projects/rrg-bengioy-ad/pragov/crystal_structure_design/SSSP/O.pbe-n-kjpaw_psl.0.1.UPF
     MD5 check sum: 0234752ac141de4415c5fc33072bef88
     Pseudo is Projector augmented-wave + core cor, Zval =  6.0
     Generated using "atomic" code by A. Dal Corso  v.5.0.99 svn rev. 10869
     Shape of augmentation charge: BESSEL
     Using radial grid of 1095 points,  4 beta functions with:
                l(1) =   0
                l(2) =   0
                l(3) =   1
                l(4) =   1
     Q(r) pseudized with 0 coefficients

     atomic species   valence    mass     pseudopotential
        Ba            10.00   137.32700     Ba( 1.00)
        Na             9.00    22.98977     Na( 1.00)
        P              5.00    30.97376     P ( 1.00)
        O              6.00    15.99900     O ( 1.00)

      6 Sym. Ops. (no inversion) found

                                    s                        frac. trans.

      isym =  1     identity

 cryst.   s( 1) = (     1          0          0      )
                  (     0          1          0      )
                  (     0          0          1      )

 cart.    s( 1) = (  1.0000000  0.0000000  0.0000000 )
                  (  0.0000000  1.0000000  0.0000000 )
                  (  0.0000000  0.0000000  1.0000000 )

      isym =  2     120 deg rotation - cryst. axis [0,0,1]

[...]

      isym =  3     120 deg rotation - cryst. axis [0,0,-1]

[...]

      isym =  4     inv. 180 deg rotation - cart. axis [1,0,0]

[...]

      isym =  5     inv. 180 deg rotation - cryst. axis [0,1,0]

[...]

      isym =  6     inv. 180 deg rotation - cryst. axis [1,1,0]

 cryst.   s( 6) = (     0         -1          0      )
                  (    -1          0          0      )
                  (     0          0          1      )

 cart.    s( 6) = (  0.5000001 -0.8660253  0.0000000 )
                  ( -0.8660253 -0.5000001  0.0000000 )
                  (  0.0000000  0.0000000  1.0000000 )

   Cartesian axes

     site n.     atom                  positions (alat units)
         1           Ba  tau(   1) = (   0.5000005   0.2886748   0.6578701  )
         2           Ba  tau(   2) = (  -0.0000006   0.5773505   0.1963423  )
         3           Na  tau(   3) = (   0.5000005   0.2886748   1.2745969  )
         4           Na  tau(   4) = (   0.0000000   0.0000000   1.0405655  )
         5           P   tau(   5) = (   0.0000000   0.0000000   0.3660439  )
         6           P   tau(   6) = (  -0.0000006   0.5773505   0.9249836  )
         7           O   tau(   7) = (   0.7774690   0.1284783   0.2664614  )
         8           O   tau(   8) = (   0.5000004   0.6090678   0.2664614  )
         9           O   tau(   9) = (   0.2225320   0.1284783   0.2664614  )
        10           O   tau(  10) = (   0.2211234   0.4496845   1.0258293  )
        11           O   tau(  11) = (  -0.0000001   0.8326816   1.0258293  )
        12           O   tau(  12) = (  -0.2211236   0.4496845   1.0258293  )
        13           O   tau(  13) = (   0.0000000   0.0000000   0.6357453  )
        14           O   tau(  14) = (  -0.0000006   0.5773505   0.6542759  )

   Crystallographic axes

     site n.     atom                  positions (cryst. coord.)
         1           Ba  tau(   1) = (  0.6666670  0.3333330  0.5125020  )
         2           Ba  tau(   2) = (  0.3333330  0.6666670  0.1529570  )
         3           Na  tau(   3) = (  0.6666670  0.3333330  0.9929520  )
         4           Na  tau(   4) = (  0.0000000  0.0000000  0.8106340  )
         5           P   tau(   5) = (  0.0000000  0.0000000  0.2851600  )
         6           P   tau(   6) = (  0.3333330  0.6666670  0.7205920  )
         7           O   tau(   7) = (  0.8516460  0.1483540  0.2075820  )
         8           O   tau(   8) = (  0.8516460  0.7032910  0.2075820  )
         9           O   tau(   9) = (  0.2967090  0.1483540  0.2075820  )
        10           O   tau(  10) = (  0.4807490  0.5192510  0.7991540  )
        11           O   tau(  11) = (  0.4807490  0.9614980  0.7991540  )
        12           O   tau(  12) = (  0.0385020  0.5192510  0.7991540  )
        13           O   tau(  13) = (  0.0000000  0.0000000  0.4952660  )
        14           O   tau(  14) = (  0.3333330  0.6666670  0.5097020  )

     number of k points=     1  Methfessel-Paxton smearing, width (Ry)=  0.0010
                       cart. coord. in units 2pi/alat
        k(    1) = (   0.0000000   0.0000000   0.0000000), wk =   2.0000000

                       cryst. coord.
        k(    1) = (   0.0000000   0.0000000   0.0000000), wk =   2.0000000

     Check: negative core charge=   -0.000011

     Initial potential from superposition of free atoms

     starting charge      95.9531, renormalised to      96.0000
     Starting wfcs are   60 randomized atomic wfcs
     Checking if some PAW data can be deallocated...

     Self-consistent Calculation

     iteration #  1     ecut=    30.00 Ry     beta= 0.70
     Davidson diagonalization with overlap

     ethr =  1.00E-02,  avg # of iterations = 11.0

     total energy              =   -1424.00362895 Ry
     estimated scf accuracy    <       2.81818329 Ry

[...]

     total energy              =   -1425.24272045 Ry
     estimated scf accuracy    <       0.00002168 Ry

     iteration # 15     ecut=    30.00 Ry     beta= 0.70
     Davidson diagonalization with overlap

     ethr =  2.26E-08,  avg # of iterations =  4.0

     End of self-consistent calculation

          k = 0.0000 0.0000 0.0000 (  1933 PWs)   bands (ev):

   -44.5204 -43.7382 -19.7657 -19.5473 -16.4251 -16.4251 -16.4210 -15.6873
   -15.6769 -15.6769 -14.0319 -13.9859 -11.7763 -11.5104 -11.5009 -11.5009
   -11.3953 -11.3952  -5.1496  -5.1496  -4.9981  -4.8592  -4.7150  -4.7150
    -1.4276  -0.9809   1.0698   1.2916   1.2916   1.3445   1.4258   1.4258
     3.3196   3.3196   3.5211   3.7192   3.7192   4.0033   4.0033   4.3497
     4.6066   4.6066   5.4055   5.4055   5.4296   5.5674   5.5674   5.9290
    10.2722  11.5832  11.5832  11.9665  12.1776  12.1776  12.9929  13.3807
    13.3807  13.7052

     occupation numbers
     1.0000   1.0000   1.0000   1.0000   1.0000   1.0000   1.0000   1.0000
     1.0000   1.0000   1.0000   1.0000   1.0000   1.0000   1.0000   1.0000
     1.0000   1.0000   1.0000   1.0000   1.0000   1.0000   1.0000   1.0000
     1.0000   1.0000   1.0000   1.0000   1.0000   1.0000   1.0000   1.0000
     1.0000   1.0000   1.0000   1.0000   1.0000   1.0000   1.0000   1.0000
     1.0000   1.0000   1.0000   1.0000   1.0000   1.0000   1.0000   1.0000
    -0.0000  -0.0000  -0.0000  -0.0000  -0.0000  -0.0000  -0.0000  -0.0000
    -0.0000  -0.0000

     the Fermi energy is     6.5290 ev

!    total energy              =   -1425.24272086 Ry
     estimated scf accuracy    <       0.00000097 Ry
     smearing contrib. (-TS)   =       0.00000000 Ry
     internal energy E=F+TS    =   -1425.24272086 Ry

     The total energy is F=E-TS. E is the sum of the following terms:
     one-electron contribution =    -243.99020590 Ry
     hartree contribution      =     176.21381884 Ry
     xc contribution           =    -139.10023064 Ry
     ewald contribution        =    -392.34851442 Ry
     one-center paw contrib.   =    -826.01758874 Ry
      -> PAW hartree energy AE =     307.25055455 Ry
      -> PAW hartree energy PS =    -306.11517940 Ry
      -> PAW xc energy AE      =    -927.75774751 Ry
      -> PAW xc energy PS      =     100.60478362 Ry
      -> total E_H with PAW    =     177.34919399 Ry
      -> total E_XC with PAW   =    -966.25319453 Ry

     convergence has been achieved in  15 iterations

     Forces acting on atoms (cartesian axes, Ry/au):

     atom    1 type  1   force =     0.00000000   -0.00000000    0.00425172
     atom    2 type  1   force =     0.00000000    0.00000000   -0.06711573
     atom    3 type  2   force =     0.00000000   -0.00000000   -0.00185989
     atom    4 type  2   force =     0.00000000   -0.00000000   -0.00334333
     atom    5 type  3   force =     0.00000000    0.00000000   -0.04034964
     atom    6 type  3   force =     0.00000000    0.00000000    0.02700337
     atom    7 type  4   force =     0.02751957   -0.01588843    0.03058668
     atom    8 type  4   force =     0.00000000    0.03177687    0.03058668
     atom    9 type  4   force =    -0.02751957   -0.01588844    0.03058668
     atom   10 type  4   force =    -0.00376844    0.00217571   -0.00666452
     atom   11 type  4   force =     0.00000000   -0.00435142   -0.00666452
     atom   12 type  4   force =     0.00376844    0.00217571   -0.00666452
     atom   13 type  4   force =     0.00000000   -0.00000000    0.01952203
     atom   14 type  4   force =     0.00000000    0.00000000   -0.00987499
     The non-local contrib.  to forces
     atom    1 type  1   force =     0.00000000   -0.00000000   -0.01366380
     atom    2 type  1   force =     0.00000000    0.00000000    0.06006351
     atom    3 type  2   force =     0.00000000   -0.00000000    0.11817227
     atom    4 type  2   force =     0.00000000    0.00000000    0.34731870
     atom    5 type  3   force =     0.00000000    0.00000000   -0.07845762
     atom    6 type  3   force =     0.00000000    0.00000000    0.01814767
     atom    7 type  4   force =     1.19151419   -0.68792093    0.48730378
     atom    8 type  4   force =    -0.00000000    1.37584219    0.48730378
     atom    9 type  4   force =    -1.19151419   -0.68792126    0.48730378
     atom   10 type  4   force =    -1.26619687    0.73103898   -0.53788824
     atom   11 type  4   force =     0.00000000   -1.46207833   -0.53788824
     atom   12 type  4   force =     1.26619687    0.73103934   -0.53788824
     atom   13 type  4   force =     0.00000000    0.00000000   -1.59081048
     atom   14 type  4   force =     0.00000000    0.00000000    1.54255927
     The ionic contribution  to forces
     atom    1 type  1   force =    -0.00003398    0.00001962   -1.46109031
     atom    2 type  1   force =     0.00005885   -0.00003398    2.08896599
     atom    3 type  2   force =    -0.00002998    0.00001731    1.05193155
     atom    4 type  2   force =    -0.00000114    0.00000066    0.63166360
     atom    5 type  3   force =     0.00001244   -0.00000718    1.00197028
     atom    6 type  3   force =     0.00003328   -0.00001922   -1.73504136
     atom    7 type  4   force =    -4.20525803    2.42790646   -0.50171308
     atom    8 type  4   force =    -0.00002478   -4.85579054   -0.50168732
     atom    9 type  4   force =     4.20522523    2.42791733   -0.50168732
     atom   10 type  4   force =     4.09003493   -2.36138238    0.51202097
     atom   11 type  4   force =     0.00000931    4.72278687    0.51203633
     atom   12 type  4   force =    -4.09004842   -2.36140208    0.51203633
     atom   13 type  4   force =    -0.00000161    0.00000093    5.27832712
     atom   14 type  4   force =     0.00002389   -0.00001379   -6.88773276
     The local contribution  to forces
     atom    1 type  1   force =     0.00021250    0.00139575    1.47831722
     atom    2 type  1   force =    -0.00036305   -0.00050371   -2.20865989
     atom    3 type  2   force =     0.00001899   -0.00001286   -1.17191107
     atom    4 type  2   force =     0.00000446   -0.00000214   -0.98235125
     atom    5 type  3   force =    -0.00000679    0.00000923   -0.96857513
     atom    6 type  3   force =    -0.00003610    0.00002415    1.74409394
     atom    7 type  4   force =     3.05159792   -1.76184040    0.04883017
     atom    8 type  4   force =     0.00002772    3.52365450    0.04881687
     atom    9 type  4   force =    -3.05156756   -1.76184115    0.04880902
     atom   10 type  4   force =    -2.83907180    1.63914578    0.01459432
     atom   11 type  4   force =     0.00000045   -3.27830794    0.01457613
     atom   12 type  4   force =     2.83908755    1.63915328    0.01455425
     atom   13 type  4   force =    -0.00000699    0.00000210   -3.68137439
     atom   14 type  4   force =    -0.00002646    0.00001202    5.34879849
     The core correction contribution to forces
     atom    1 type  1   force =     0.00001250    0.00002375    0.00062739
     atom    2 type  1   force =    -0.00001715   -0.00001083   -0.00760638
     atom    3 type  2   force =     0.00000000    0.00000000    0.00000000
     atom    4 type  2   force =     0.00000000    0.00000000    0.00000000
     atom    5 type  3   force =    -0.00000027    0.00000042    0.00463767
     atom    6 type  3   force =    -0.00000057    0.00000036   -0.00020857
     atom    7 type  4   force =    -0.01047070    0.00604530   -0.00394366
     atom    8 type  4   force =     0.00000006   -0.01209048   -0.00394368
     atom    9 type  4   force =     0.01047063    0.00604534   -0.00394374
     atom   10 type  4   force =     0.01136209   -0.00655991    0.00462619
     atom   11 type  4   force =     0.00000006    0.01311992    0.00462647
     atom   12 type  4   force =    -0.01136219   -0.00656007    0.00462624
     atom   13 type  4   force =    -0.00000014    0.00000000    0.01357475
     atom   14 type  4   force =    -0.00000002   -0.00000011   -0.01341218
     The Hubbard contrib.    to forces
     atom    1 type  1   force =     0.00000000    0.00000000    0.00000000
     atom    2 type  1   force =     0.00000000    0.00000000    0.00000000
     atom    3 type  2   force =     0.00000000    0.00000000    0.00000000
     atom    4 type  2   force =     0.00000000    0.00000000    0.00000000
     atom    5 type  3   force =     0.00000000    0.00000000    0.00000000
     atom    6 type  3   force =     0.00000000    0.00000000    0.00000000
     atom    7 type  4   force =     0.00000000    0.00000000    0.00000000
     atom    8 type  4   force =     0.00000000    0.00000000    0.00000000
     atom    9 type  4   force =     0.00000000    0.00000000    0.00000000
     atom   10 type  4   force =     0.00000000    0.00000000    0.00000000
     atom   11 type  4   force =     0.00000000    0.00000000    0.00000000
     atom   12 type  4   force =     0.00000000    0.00000000    0.00000000
     atom   13 type  4   force =     0.00000000    0.00000000    0.00000000
     atom   14 type  4   force =     0.00000000    0.00000000    0.00000000
     The SCF correction term to forces
     atom    1 type  1   force =    -0.00000197   -0.00017716    0.00004650
     atom    2 type  1   force =     0.00002441    0.00005910    0.00010631
     atom    3 type  2   force =     0.00000734   -0.00000106   -0.00006738
     atom    4 type  2   force =     0.00000281    0.00000392    0.00001088
     atom    5 type  3   force =    -0.00000422    0.00000050    0.00006043
     atom    6 type  3   force =     0.00000023   -0.00000261   -0.00000304
     atom    7 type  4   force =     0.00013253   -0.00007767    0.00009604
     atom    8 type  4   force =     0.00000099    0.00016308    0.00008349
     atom    9 type  4   force =    -0.00013598   -0.00008848    0.00008770
     atom   10 type  4   force =     0.00010524   -0.00006926   -0.00003395
     atom   11 type  4   force =    -0.00000844    0.00012615   -0.00002363
     atom   12 type  4   force =    -0.00010134   -0.00005955   -0.00001270
     atom   13 type  4   force =     0.00000562   -0.00000217   -0.00020970
     atom   14 type  4   force =    -0.00000041   -0.00000530   -0.00010254

     Total force =     0.115755     Total SCF correction =     0.000510

     Computing stress (Cartesian axis) and pressure

          total   stress  (Ry/bohr**3)                   (kbar)     P=     -260.93
  -0.00162400  -0.00000000   0.00000000         -238.90       -0.00        0.00
  -0.00000000  -0.00162400   0.00000000           -0.00     -238.90        0.00
   0.00000000   0.00000000  -0.00207325            0.00        0.00     -304.99

     kinetic stress (kbar)  15681.35      0.00      0.00
                                0.00  15681.36      0.00
                                0.00      0.00  15472.15

     local   stress (kbar)   1034.22     -0.00      0.00
                               -0.00   1034.21     -0.00
                                0.00     -0.00    503.57

     nonloc. stress (kbar)  -5042.91     -0.00      0.00
                               -0.00  -5042.91      0.00
                                0.00      0.00  -5048.58

     hartree stress (kbar)   6272.71      0.00     -0.00
                                0.00   6272.71      0.00
                               -0.00      0.00   6139.28

     exc-cor stress (kbar)   -733.79      0.00     -0.00
                                0.00   -733.79     -0.00
                               -0.00     -0.00   -727.78

     corecor stress (kbar)  -3314.15     -0.00     -0.00
                               -0.00  -3314.15     -0.00
                               -0.00     -0.00  -3313.91

     ewald   stress (kbar) -14136.33      0.00     -0.00
                                0.00 -14136.32      0.00
                               -0.00      0.00 -13329.73

     hubbard stress (kbar)      0.00      0.00      0.00
                                0.00      0.00      0.00
                                0.00      0.00      0.00

     DFT-D   stress (kbar)      0.00      0.00      0.00
                                0.00      0.00      0.00
                                0.00      0.00      0.00

     XDM     stress (kbar)      0.00      0.00      0.00
                                0.00      0.00      0.00
                                0.00      0.00      0.00

     dft-nl  stress (kbar)      0.00      0.00      0.00
                                0.00      0.00      0.00
                                0.00      0.00      0.00

     TS-vdW  stress (kbar)      0.00      0.00      0.00
                                0.00      0.00      0.00
                                0.00      0.00      0.00

[...]

                                0.00      0.00      0.00

     Writing all to output data dir new_calculations/myprefix.save/

     General routines

     Parallel routines

     PAW routines

   This run was terminated on:   8:16:16  21May2023

   JOB DONE.