     Program PWSCF v.7.0 starts on 20May2023 at 11: 7:11

     Reading input from espresso_10335.pwi
Warning: card &CELL ignored
Warning: card / ignored

     Current dimensions of program PWSCF are:
     Max number of different atomic species (ntypx) = 10
     Max number of k-points (npk) =  40000
     Max angular momentum in pseudopotentials (lmaxx) =  4
     file In.pbe-dn-rrkjus_psl.0.2.2.UPF: wavefunction(s)  5S renormalized

     gamma-point specific algorithms are used
     Message from routine setup:
     using ibrav=0 with symmetry is DISCOURAGED, use correct ibrav instead

     Subspace diagonalization in iterative solution of the eigenvalue problem:
     a serial algorithm will be used

     Using Slab Decomposition

     bravais-lattice index     =            0
     lattice parameter (alat)  =       9.6357  a.u.
     unit-cell volume          =     632.6043 (a.u.)^3
     number of atoms/cell      =            6
     number of atomic types    =            3
     number of electrons       =       111.00
     number of Kohn-Sham states=           67
     kinetic-energy cutoff     =      30.0000  Ry
     charge density cutoff     =     240.0000  Ry
     scf convergence threshold =      1.0E-06
     mixing beta               =       0.7000
     number of iterations used =            8  plain     mixing
     Exchange-correlation= SLA  PW   PBE  PBE
                           (   1   4   3   4   0   0   0)

     celldm(1)=   9.635680  celldm(2)=   0.000000  celldm(3)=   0.000000
     celldm(4)=   0.000000  celldm(5)=   0.000000  celldm(6)=   0.000000

     crystal axes: (cart. coord. in units of alat)
               a(1) = (   1.000000   0.000000   0.000000 )
               a(2) = (   0.500000   0.866025   0.000000 )
               a(3) = (   0.500000   0.288675   0.816497 )

     reciprocal axes: (cart. coord. in units 2 pi/alat)
               b(1) = (  1.000000 -0.577350 -0.408248 )
               b(2) = (  0.000000  1.154701 -0.408248 )
               b(3) = (  0.000000  0.000000  1.224745 )

     PseudoPot. # 1 for Er read from file:
     /home/pragov/projects/rrg-bengioy-ad/pragov/crystal_structure_design/SSSP/Er.GGA-PBE-paw-v1.0.UPF
     MD5 check sum: 5952a841f12bc97f67d25f9d1b2e7e35
     Pseudo is Projector augmented-wave + core cor, Zval = 22.0
     Generated using ATOMPAW code
     Shape of augmentation charge: BESSEL
     Using radial grid of 1114 points,  8 beta functions with:
                l(1) =   0
                l(2) =   0
                l(3) =   1
                l(4) =   1
                l(5) =   2
                l(6) =   2
                l(7) =   3
                l(8) =   3
     Q(r) pseudized with 0 coefficients

     PseudoPot. # 2 for In read from file:
     /home/pragov/projects/rrg-bengioy-ad/pragov/crystal_structure_design/SSSP/In.pbe-dn-rrkjus_psl.0.2.2.UPF
     MD5 check sum: 25e7c42c3b55b68f4bf926be2e7201a4
     Pseudo is Ultrasoft + core correction, Zval = 13.0
     Generated using "atomic" code by A. Dal Corso  v.5.0.99 svn rev. 10869
     Using radial grid of 1241 points,  6 beta functions with:
                l(1) =   0
                l(2) =   0
                l(3) =   1
                l(4) =   1
                l(5) =   2
                l(6) =   2
     Q(r) pseudized with 0 coefficients

     PseudoPot. # 3 for Cu read from file:
     /home/pragov/projects/rrg-bengioy-ad/pragov/crystal_structure_design/SSSP/Cu_pbe_v1.2.uspp.F.UPF
     MD5 check sum: 6e991ff952a84172a2a52a1c1e996048
     Pseudo is Ultrasoft + core correction, Zval = 19.0
     Generated by new atomic code, or converted to UPF format
     Using radial grid of  867 points,  6 beta functions with:
                l(1) =   0
                l(2) =   0
                l(3) =   1
                l(4) =   1
                l(5) =   2
                l(6) =   2
     Q(r) pseudized with  8 coefficients,  rinner =    1.150   1.150   1.150
                                                       1.150   1.150

     atomic species   valence    mass     pseudopotential
        Er            22.00   167.25900     Er( 1.00)
        In            13.00   114.81800     In( 1.00)
        Cu            19.00    63.54600     Cu( 1.00)

      6 Sym. Ops. (no inversion) found

                                    s                        frac. trans.

      isym =  1     identity

 cryst.   s( 1) = (     1          0          0      )
                  (     0          1          0      )
                  (     0          0          1      )

 cart.    s( 1) = (  1.0000000  0.0000000  0.0000000 )
                  (  0.0000000  1.0000000 -0.0000000 )
                  (  0.0000000  0.0000000  1.0000000 )

      isym =  2     120 deg rotation - cryst. axis [0,0,1]

[...]

      isym =  3     120 deg rotation - cryst. axis [0,0,-1]

[...]

      isym =  4     inv. 180 deg rotation - cart. axis [1,0,0]

[...]

      isym =  5     inv. 180 deg rotation - cryst. axis [0,1,0]

[...]

      isym =  6     inv. 180 deg rotation - cryst. axis [1,1,0]

 cryst.   s( 6) = (     1         -1          0      )
                  (     0         -1          0      )
                  (     0         -1          1      )

 cart.    s( 6) = (  0.5000000 -0.8660254  0.0000000 )
                  ( -0.8660254 -0.5000000  0.0000000 )
                  (  0.0000000  0.0000000  1.0000000 )

   Cartesian axes

     site n.     atom                  positions (alat units)
         1           Er  tau(   1) = (   0.5000000   0.2886751   0.2041241  )
         2           In  tau(   2) = (   0.0000000   0.0000000   0.0000000  )
         3           Cu  tau(   3) = (   1.2503100   0.7218668   0.5104369  )
         4           Cu  tau(   4) = (   0.9999995   0.5773500   0.1016816  )
         5           Cu  tau(   5) = (   0.9999995   0.2883163   0.5104369  )
         6           Cu  tau(   6) = (   0.7496890   0.7218668   0.5104369  )

   Crystallographic axes

     site n.     atom                  positions (cryst. coord.)
         1           Er  tau(   1) = (  0.2500000  0.2500000  0.2500000  )
         2           In  tau(   2) = (  0.0000000  0.0000000  0.0000000  )
         3           Cu  tau(   3) = (  0.6251550  0.6251550  0.6251550  )
         4           Cu  tau(   4) = (  0.6251550  0.6251550  0.1245340  )
         5           Cu  tau(   5) = (  0.6251550  0.1245340  0.6251550  )
         6           Cu  tau(   6) = (  0.1245340  0.6251550  0.6251550  )

     number of k points=     1  Methfessel-Paxton smearing, width (Ry)=  0.0010
                       cart. coord. in units 2pi/alat
        k(    1) = (   0.0000000   0.0000000   0.0000000), wk =   2.0000000

                       cryst. coord.
        k(    1) = (   0.0000000   0.0000000   0.0000000), wk =   2.0000000

     Check: negative core charge=   -0.000001

     Initial potential from superposition of free atoms

     starting charge     106.9921, renormalised to     111.0000
     Starting wfcs are   93 randomized atomic wfcs
     Checking if some PAW data can be deallocated...

     Self-consistent Calculation

     iteration #  1     ecut=    30.00 Ry     beta= 0.70
     Davidson diagonalization with overlap

     ethr =  1.00E-02,  avg # of iterations =  3.0

     total energy              =   -2538.32513956 Ry
     estimated scf accuracy    <      90.51318976 Ry

[...]

     ethr =  1.64E-04,  avg # of iterations =  2.0
     Minimization algorithm failed to find Fermi energy: reverting to bisection
     Possible cause: smearing is larger than the electronic band-gap.

[...]

     ethr =  7.32E-06,  avg # of iterations =  1.0
     Minimization algorithm failed to find Fermi energy: reverting to bisection
     Possible cause: smearing is larger than the electronic band-gap.

[...]

     total energy              =   -2644.99873408 Ry
     estimated scf accuracy    <       0.00000718 Ry

     iteration # 82     ecut=    30.00 Ry     beta= 0.70
     Davidson diagonalization with overlap

     ethr =  4.40E-09,  avg # of iterations =  1.0

     End of self-consistent calculation

          k = 0.0000 0.0000 0.0000 (   904 PWs)   bands (ev):

   -97.3189 -97.3117 -97.3115 -97.3113 -54.8141 -54.7396 -54.7395 -54.7394
   -54.6794 -54.6794 -54.6627 -54.6626 -54.6626 -54.6464 -54.6463 -54.6462
   -32.5124  -6.8306  -6.8305  -6.8305   1.0266   1.0266   1.0268   1.0268
     1.0268   6.3224  10.4158  11.2245  11.2245  11.2246  11.5976  11.5977
    11.5977  11.8417  11.8417  13.0186  13.0187  13.0188  13.0266  13.0267
    13.0268  13.0780  13.0780  13.7223  13.7223  13.7224  14.4007  14.4083
    14.4083  14.4083  15.1292  15.1295  15.1295  15.3396  15.3396  15.3396
    15.3507  16.4482  16.4482  16.6043  18.3575  18.3575  18.3575  21.4491
    21.4491  21.4492  24.1529

     occupation numbers
     1.0000   1.0000   1.0000   1.0000   1.0000   1.0000   1.0000   1.0000
     1.0000   1.0000   1.0000   1.0000   1.0000   1.0000   1.0000   1.0000
     1.0000   1.0000   1.0000   1.0000   1.0000   1.0000   1.0000   1.0000
     1.0000   1.0000   1.0000   1.0000   1.0000   1.0000   1.0000   1.0000
     1.0000   1.0000   1.0000   1.0000   1.0000   1.0000   1.0000   1.0000
     1.0000   1.0000   1.0000   1.0000   1.0000   1.0000   1.0000   1.0000
     1.0000   1.0000   1.0000   1.0000   1.0000   0.7826   0.7823   0.7820
     0.1531  -0.0000  -0.0000  -0.0000  -0.0000  -0.0000  -0.0000  -0.0000
    -0.0000  -0.0000  -0.0000

     the Fermi energy is    15.3444 ev

!    total energy              =   -2644.99873304 Ry
     estimated scf accuracy    <       0.00000069 Ry
     smearing contrib. (-TS)   =      -0.00068619 Ry
     internal energy E=F+TS    =   -2644.99804685 Ry

     The total energy is F=E-TS. E is the sum of the following terms:
     one-electron contribution =   -1462.78742708 Ry
     hartree contribution      =     789.71204130 Ry
     xc contribution           =    -235.87876836 Ry
     ewald contribution        =   -1249.97463465 Ry
     one-center paw contrib.   =    -486.06925805 Ry
      -> PAW hartree energy AE =     345.73468739 Ry
      -> PAW hartree energy PS =    -309.22210993 Ry
      -> PAW xc energy AE      =    -554.39104672 Ry
      -> PAW xc energy PS      =      31.80921122 Ry
      -> total E_H with PAW    =     826.22461875 Ry
      -> total E_XC with PAW   =    -758.46060386 Ry

     convergence has been achieved in  82 iterations

     Forces acting on atoms (cartesian axes, Ry/au):

     atom    1 type  1   force =     0.00000000    0.00000000    0.00021675
     atom    2 type  2   force =     0.00000000    0.00000000   -0.00001670
     atom    3 type  3   force =    -0.00660859   -0.00381547   -0.00280026
     atom    4 type  3   force =     0.00000000    0.00000000    0.00820071
     atom    5 type  3   force =     0.00000000    0.00763094   -0.00280026
     atom    6 type  3   force =     0.00660859   -0.00381547   -0.00280026
     The non-local contrib.  to forces
     atom    1 type  1   force =     0.00000000    0.00000000    0.00013777
     atom    2 type  2   force =     0.00000000    0.00000000   -0.00006910
     atom    3 type  3   force =     0.74872083    0.43227417    0.30543810
     atom    4 type  3   force =     0.00000000    0.00000000   -0.91680797
     atom    5 type  3   force =     0.00000000   -0.86454835    0.30543810
     atom    6 type  3   force =    -0.74872083    0.43227417    0.30543810
     The ionic contribution  to forces
     atom    1 type  1   force =    -0.00010668   -0.00006159   -0.00004355
     atom    2 type  2   force =    -0.00006304   -0.00003639   -0.00002574
     atom    3 type  3   force =     1.64440656    0.94939857    0.67132617
     atom    4 type  3   force =     0.00007659    0.00004422   -2.01402079
     atom    5 type  3   force =     0.00007659   -1.89882227    0.67138195
     atom    6 type  3   force =    -1.64439003    0.94947746    0.67138195
     The local contribution  to forces
     atom    1 type  1   force =    -0.00054558   -0.00032367   -0.00024846
     atom    2 type  2   force =     0.00014603    0.00009427    0.00016580
     atom    3 type  3   force =    -2.39879124   -1.38497291   -0.97907751
     atom    4 type  3   force =     0.00005779    0.00002002    2.93760442
     atom    5 type  3   force =     0.00007084    2.76984399   -0.97903131
     atom    6 type  3   force =     2.39877696   -1.38487873   -0.97902502
     The core correction contribution to forces
     atom    1 type  1   force =    -0.00000001   -0.00000000   -0.00000000
     atom    2 type  2   force =     0.00000162    0.00000113    0.00000071
     atom    3 type  3   force =    -0.00104610   -0.00060404   -0.00042648
     atom    4 type  3   force =     0.00000014    0.00000002    0.00128224
     atom    5 type  3   force =     0.00000018    0.00120812   -0.00042652
     atom    6 type  3   force =     0.00104648   -0.00060404   -0.00042653
     The Hubbard contrib.    to forces
     atom    1 type  1   force =     0.00000000    0.00000000    0.00000000
     atom    2 type  2   force =     0.00000000    0.00000000    0.00000000
     atom    3 type  3   force =     0.00000000    0.00000000    0.00000000
     atom    4 type  3   force =     0.00000000    0.00000000    0.00000000
     atom    5 type  3   force =     0.00000000    0.00000000    0.00000000
     atom    6 type  3   force =     0.00000000    0.00000000    0.00000000
     The SCF correction term to forces
     atom    1 type  1   force =     0.00062032    0.00035349    0.00035445
     atom    2 type  2   force =    -0.00007544   -0.00005111   -0.00010490
     atom    3 type  3   force =     0.00010253    0.00008344   -0.00007959
     atom    4 type  3   force =    -0.00012470   -0.00006765    0.00012626
     atom    5 type  3   force =    -0.00013293   -0.00005514   -0.00018260
     atom    6 type  3   force =    -0.00009637   -0.00007703   -0.00017921

     Total force =     0.016295     Total SCF correction =     0.000903

     Computing stress (Cartesian axis) and pressure

          total   stress  (Ry/bohr**3)                   (kbar)     P=     -444.68
  -0.00301974  -0.00000000  -0.00000000         -444.22       -0.00       -0.00
   0.00000000  -0.00301974   0.00000000            0.00     -444.22        0.00
   0.00000000   0.00000000  -0.00302918            0.00        0.00     -445.61

     kinetic stress (kbar)  33804.00     -0.00     -0.00
                                0.00  33804.00     -0.00
                               -0.00     -0.00  33803.70

     local   stress (kbar)  -8228.88     -0.41     -0.42
                               -0.41  -8228.73     -0.12
                               -0.42     -0.12  -8226.09

     nonloc. stress (kbar)  25360.71     -0.00     -0.00
                                0.00  25360.71     -0.00
                               -0.00     -0.00  25358.10

     hartree stress (kbar)  61213.30      0.17      0.17
                                0.17  61213.30      0.02
                                0.17      0.02  61212.14

     exc-cor stress (kbar)  -8568.79      0.00      0.00
                                0.00  -8568.79      0.00
                                0.00      0.00  -8568.80

     corecor stress (kbar)  -7135.42      0.00     -0.00
                                0.00  -7135.42     -0.00
                               -0.00     -0.00  -7135.42

     ewald   stress (kbar) -96889.20      0.03      0.02
                                0.03 -96889.23      0.01
                                0.02      0.01 -96889.24

     hubbard stress (kbar)      0.00      0.00      0.00
                                0.00      0.00      0.00
                                0.00      0.00      0.00

     DFT-D   stress (kbar)      0.00      0.00      0.00
                                0.00      0.00      0.00
                                0.00      0.00      0.00

     XDM     stress (kbar)      0.00      0.00      0.00
                                0.00      0.00      0.00
                                0.00      0.00      0.00

     dft-nl  stress (kbar)      0.00      0.00      0.00
                                0.00      0.00      0.00
                                0.00      0.00      0.00

     TS-vdW  stress (kbar)      0.00      0.00      0.00
                                0.00      0.00      0.00
                                0.00      0.00      0.00

[...]

                                0.00      0.00      0.00

     Writing all to output data dir new_calculations/myprefix.save/

     General routines

     Parallel routines

     PAW routines

   This run was terminated on:  11: 8:41  20May2023

   JOB DONE.