     Program PWSCF v.7.0 starts on 21May2023 at 10:13:48

     Reading input from espresso_23567.pwi
Warning: card &CELL ignored
Warning: card / ignored

     Current dimensions of program PWSCF are:
     Max number of different atomic species (ntypx) = 10
     Max number of k-points (npk) =  40000
     Max angular momentum in pseudopotentials (lmaxx) =  4
     file Mg.pbe-n-kjpaw_psl.0.3.0.UPF: wavefunction(s)  3S renormalized

     gamma-point specific algorithms are used
     Message from routine setup:
     using ibrav=0 with symmetry is DISCOURAGED, use correct ibrav instead

     Subspace diagonalization in iterative solution of the eigenvalue problem:
     a serial algorithm will be used

     Using Slab Decomposition

     bravais-lattice index     =            0
     lattice parameter (alat)  =       6.1635  a.u.
     unit-cell volume          =     660.4473 (a.u.)^3
     number of atoms/cell      =            4
     number of atomic types    =            2
     number of electrons       =        35.00
     number of Kohn-Sham states=           22
     kinetic-energy cutoff     =      30.0000  Ry
     charge density cutoff     =     240.0000  Ry
     scf convergence threshold =      1.0E-06
     mixing beta               =       0.7000
     number of iterations used =            8  plain     mixing
     Exchange-correlation= PBE
                           (   1   4   3   4   0   0   0)

     celldm(1)=   6.163501  celldm(2)=   0.000000  celldm(3)=   0.000000
     celldm(4)=   0.000000  celldm(5)=   0.000000  celldm(6)=   0.000000

     crystal axes: (cart. coord. in units of alat)
               a(1) = (   1.000000   0.000000   0.000000 )
               a(2) = (  -0.500000   0.866025   0.000000 )
               a(3) = (   0.000000   0.000000   3.257055 )

     reciprocal axes: (cart. coord. in units 2 pi/alat)
               b(1) = (  1.000000  0.577350  0.000000 )
               b(2) = (  0.000000  1.154701  0.000000 )
               b(3) = (  0.000000  0.000000  0.307026 )

     PseudoPot. # 1 for Mg read from file:
     /home/pragov/projects/rrg-bengioy-ad/pragov/crystal_structure_design/SSSP/Mg.pbe-n-kjpaw_psl.0.3.0.UPF
     MD5 check sum: 24ecedc7f3e3cbe212e682f4413594e4
     Pseudo is Projector augmented-wave + core cor, Zval =  2.0
     Generated using "atomic" code by A. Dal Corso  v.5.0.99 svn rev. 10869
     Shape of augmentation charge: PSQ
     Using radial grid of 1129 points,  4 beta functions with:
                l(1) =   0
                l(2) =   0
                l(3) =   1
                l(4) =   1
     Q(r) pseudized with 0 coefficients

     PseudoPot. # 2 for Sc read from file:
     /home/pragov/projects/rrg-bengioy-ad/pragov/crystal_structure_design/SSSP/Sc_ONCV_PBE-1.0.oncvpsp.upf
     MD5 check sum: e21af8023abb52e52cb7cd3133e4a229
     Pseudo is Norm-conserving, Zval = 11.0
     Generated using ONCVPSP code by D. R. Hamann
     Using radial grid of 1662 points,  6 beta functions with:
                l(1) =   0
                l(2) =   0
                l(3) =   1
                l(4) =   1
                l(5) =   2
                l(6) =   2

     atomic species   valence    mass     pseudopotential
        Mg             2.00    24.30500     Mg( 1.00)
        Sc            11.00    44.95591     Sc( 1.00)

     12 Sym. Ops. (no inversion) found

                                    s                        frac. trans.

      isym =  1     identity

 cryst.   s( 1) = (     1          0          0      )
                  (     0          1          0      )
                  (     0          0          1      )

 cart.    s( 1) = (  1.0000000 -0.0000000  0.0000000 )
                  (  0.0000000  1.0000000  0.0000000 )
                  (  0.0000000  0.0000000  1.0000000 )

      isym =  2     180 deg rotation - cart. axis [0,1,0]

[...]

      isym =  3     120 deg rotation - cryst. axis [0,0,1]

[...]

      isym =  6     180 deg rotation - cryst. axis [2,1,0]

[...]

      isym =  7     inv. 180 deg rotation - cart. axis [0,0,1]

[...]

      isym =  8     inv. 180 deg rotation - cart. axis [1,0,0]

[...]

      isym =  9     inv.  60 deg rotation - cryst. axis [0,0,1]

 cryst.   s( 9) = (    -1         -1          0      )
                  (     1          0          0      )
                  (     0          0         -1      )

 cart.    s( 9) = ( -0.4999999  0.8660255  0.0000000 )
                  ( -0.8660253 -0.5000001  0.0000000 )
                  (  0.0000000  0.0000000 -1.0000000 )

[...]

 cryst.   s(10) = (     0          1          0      )
                  (    -1         -1          0      )
                  (     0          0         -1      )

 cart.    s(10) = ( -0.5000001 -0.8660255  0.0000000 )
                  (  0.8660253 -0.4999999  0.0000000 )
                  (  0.0000000  0.0000000 -1.0000000 )

[...]

      isym = 12     inv. 180 deg rotation - cryst. axis [1,1,0]

 cryst.   s(12) = (     0         -1          0      )
                  (    -1          0          0      )
                  (     0          0          1      )

 cart.    s(12) = (  0.5000001 -0.8660253  0.0000000 )
                  ( -0.8660253 -0.5000001  0.0000000 )
                  (  0.0000000  0.0000000  1.0000000 )

   Cartesian axes

     site n.     atom                  positions (alat units)
         1           Mg  tau(   1) = (  -0.0000006   0.5773505   1.6285276  )
         2           Sc  tau(   2) = (   0.5000005   0.2886748   2.4667600  )
         3           Sc  tau(   3) = (  -0.0000006   0.5773505   0.0000000  )
         4           Sc  tau(   4) = (   0.5000005   0.2886748   0.7902951  )

   Crystallographic axes

     site n.     atom                  positions (cryst. coord.)
         1           Mg  tau(   1) = (  0.3333330  0.6666670  0.5000000  )
         2           Sc  tau(   2) = (  0.6666670  0.3333330  0.7573590  )
         3           Sc  tau(   3) = (  0.3333330  0.6666670  0.0000000  )
         4           Sc  tau(   4) = (  0.6666670  0.3333330  0.2426410  )

     number of k points=     1  Methfessel-Paxton smearing, width (Ry)=  0.0010
                       cart. coord. in units 2pi/alat
        k(    1) = (   0.0000000   0.0000000   0.0000000), wk =   2.0000000

                       cryst. coord.
        k(    1) = (   0.0000000   0.0000000   0.0000000), wk =   2.0000000

     Initial potential from superposition of free atoms

     starting charge      34.9912, renormalised to      35.0000
     Starting wfcs are   34 randomized atomic wfcs
     Checking if some PAW data can be deallocated...

     Self-consistent Calculation

     iteration #  1     ecut=    30.00 Ry     beta= 0.70
     Davidson diagonalization with overlap

     ethr =  1.00E-02,  avg # of iterations =  2.0

     Threshold (ethr) on eigenvalues was too large:
     Diagonalizing with lowered threshold

     Davidson diagonalization with overlap

[...]

     total energy              =    -309.92806836 Ry
     estimated scf accuracy    <       0.23039029 Ry

[...]

     ethr =  2.94E-05,  avg # of iterations =  1.0
     Minimization algorithm failed to find Fermi energy: reverting to bisection
     Possible cause: smearing is larger than the electronic band-gap.

[...]

     ethr =  8.87E-08,  avg # of iterations =  1.0
     Minimization algorithm failed to find Fermi energy: reverting to bisection
     Possible cause: smearing is larger than the electronic band-gap.

[...]

     total energy              =    -310.00145400 Ry
     estimated scf accuracy    <       0.00000142 Ry

     iteration # 47     ecut=    30.00 Ry     beta= 0.70
     Davidson diagonalization with overlap

     ethr =  4.07E-09,  avg # of iterations = 10.0

     End of self-consistent calculation

          k = 0.0000 0.0000 0.0000 (   948 PWs)   bands (ev):

   -43.4235 -42.9329 -42.9314 -21.9268 -21.9268 -21.8430 -21.5135 -21.5130
   -21.5121 -21.5116 -21.1493 -21.1099   2.2293   3.7039   3.9346   5.7017
     7.7788   8.0664   8.0752   8.0752   8.2439   8.3936

     occupation numbers
     1.0000   1.0000   1.0000   1.0000   1.0000   1.0000   1.0000   1.0000
     1.0000   1.0000   1.0000   1.0000   1.0000   1.0000   1.0000   1.0000
     1.0000   0.4357   0.0323   0.0320  -0.0000  -0.0000

     the Fermi energy is     8.0653 ev

!    total energy              =    -310.00145396 Ry
     estimated scf accuracy    <       0.00000026 Ry
     smearing contrib. (-TS)   =      -0.00026139 Ry
     internal energy E=F+TS    =    -310.00119256 Ry

     The total energy is F=E-TS. E is the sum of the following terms:
     one-electron contribution =    -190.57519368 Ry
     hartree contribution      =      97.13460842 Ry
     xc contribution           =     -36.89197723 Ry
     ewald contribution        =    -148.37437978 Ry
     one-center paw contrib.   =     -31.29425029 Ry
      -> PAW hartree energy AE =       0.86499948 Ry
      -> PAW hartree energy PS =      -0.86309262 Ry
      -> PAW xc energy AE      =     -32.65100321 Ry
      -> PAW xc energy PS      =       1.35484605 Ry
      -> total E_H with PAW    =      97.13651528 Ry
      -> total E_XC with PAW   =     -68.18813439 Ry

     convergence has been achieved in  47 iterations

     Forces acting on atoms (cartesian axes, Ry/au):

     atom    1 type  1   force =     0.00000000    0.00000000    0.00000000
     atom    2 type  2   force =     0.00000000    0.00000000   -0.08568863
     atom    3 type  2   force =    -0.00000000    0.00000000    0.00000000
     atom    4 type  2   force =     0.00000000   -0.00000000    0.08568863
     The non-local contrib.  to forces
     atom    1 type  1   force =     0.00000000    0.00000000    0.00000000
     atom    2 type  2   force =     0.00000000    0.00000000   -0.03068339
     atom    3 type  2   force =     0.00000000   -0.00000000    0.00000000
     atom    4 type  2   force =     0.00000000   -0.00000000    0.03068339
     The ionic contribution  to forces
     atom    1 type  1   force =     0.00000045   -0.00000026   -0.00000000
     atom    2 type  2   force =    -0.00000194    0.00000112  -20.69296619
     atom    3 type  2   force =     0.00000343   -0.00000198    0.00000000
     atom    4 type  2   force =    -0.00000194    0.00000112   20.69296619
     The local contribution  to forces
     atom    1 type  1   force =     0.00000208   -0.00000024    0.00000208
     atom    2 type  2   force =     0.00006808   -0.00007036   20.63913337
     atom    3 type  2   force =    -0.00000810    0.00000827   -0.00001325
     atom    4 type  2   force =    -0.00010116    0.00005778  -20.63922565
     The core correction contribution to forces
     atom    1 type  1   force =     0.00000033    0.00000002    0.00000009
     atom    2 type  2   force =     0.00000000    0.00000000    0.00000000
     atom    3 type  2   force =     0.00000000    0.00000000    0.00000000
     atom    4 type  2   force =     0.00000000    0.00000000    0.00000000
     The Hubbard contrib.    to forces
     atom    1 type  1   force =     0.00000000    0.00000000    0.00000000
     atom    2 type  2   force =     0.00000000    0.00000000    0.00000000
     atom    3 type  2   force =     0.00000000    0.00000000    0.00000000
     atom    4 type  2   force =     0.00000000    0.00000000    0.00000000
     The SCF correction term to forces
     atom    1 type  1   force =     0.00000031    0.00000060   -0.00000210
     atom    2 type  2   force =    -0.00002298    0.00007347   -0.00117875
     atom    3 type  2   force =     0.00000166   -0.00001382    0.00000590
     atom    4 type  2   force =     0.00007621   -0.00006270    0.00125838

     Total force =     0.121182     Total SCF correction =     0.001729

     Computing stress (Cartesian axis) and pressure

          total   stress  (Ry/bohr**3)                   (kbar)     P=       10.37
  -0.00120025  -0.00000000   0.00000000         -176.56       -0.00        0.00
  -0.00000000  -0.00120025   0.00000000           -0.00     -176.56        0.00
   0.00000000   0.00000000   0.00261191            0.00        0.00      384.23

     kinetic stress (kbar)  13460.86      0.00     -0.00
                                0.00  13460.86     -0.00
                               -0.00     -0.00  14663.73

     local   stress (kbar) -15827.31     -0.20     -0.18
                               -0.20 -15827.04      0.06
                               -0.18      0.06  20919.74

     nonloc. stress (kbar)  -3861.85     -0.00      0.00
                               -0.00  -3861.86      0.00
                                0.00      0.00  -4046.49

     hartree stress (kbar)  13076.64      0.07      0.08
                                0.07  13076.53     -0.02
                                0.08     -0.02  -4517.84

     exc-cor stress (kbar)  -2380.77      0.00      0.00
                                0.00  -2380.77     -0.00
                                0.00     -0.00  -2383.91

     corecor stress (kbar)   -163.11     -0.00     -0.00
                               -0.00   -163.11      0.00
                               -0.00      0.00   -164.95

     ewald   stress (kbar)  -4481.10      0.00      0.00
                                0.00  -4481.09      0.00
                                0.00      0.00 -24086.05

     hubbard stress (kbar)      0.00      0.00      0.00
                                0.00      0.00      0.00
                                0.00      0.00      0.00

     DFT-D   stress (kbar)      0.00      0.00      0.00
                                0.00      0.00      0.00
                                0.00      0.00      0.00

     XDM     stress (kbar)      0.00      0.00      0.00
                                0.00      0.00      0.00
                                0.00      0.00      0.00

     dft-nl  stress (kbar)      0.00      0.00      0.00
                                0.00      0.00      0.00
                                0.00      0.00      0.00

     TS-vdW  stress (kbar)      0.00      0.00      0.00
                                0.00      0.00      0.00
                                0.00      0.00      0.00

[...]

                                0.00      0.00      0.00

     Writing all to output data dir new_calculations/myprefix.save/

     General routines

     Parallel routines

     PAW routines

   This run was terminated on:  10:14:18  21May2023

   JOB DONE.