     Program PWSCF v.7.0 starts on 21May2023 at 17:20: 0

     Reading input from espresso_26907.pwi
Warning: card &CELL ignored
Warning: card / ignored

     Current dimensions of program PWSCF are:
     Max number of different atomic species (ntypx) = 10
     Max number of k-points (npk) =  40000
     Max angular momentum in pseudopotentials (lmaxx) =  4
     file Pb.pbe-dn-kjpaw_psl.0.2.2.UPF: wavefunction(s)  6S renormalized

     gamma-point specific algorithms are used

     Subspace diagonalization in iterative solution of the eigenvalue problem:
     a serial algorithm will be used

     Using Slab Decomposition

     bravais-lattice index     =            0
     lattice parameter (alat)  =      10.9288  a.u.
     unit-cell volume          =    2450.9437 (a.u.)^3
     number of atoms/cell      =            8
     number of atomic types    =            3
     number of electrons       =        72.00
     number of Kohn-Sham states=           43
     kinetic-energy cutoff     =      30.0000  Ry
     charge density cutoff     =     240.0000  Ry
     scf convergence threshold =      1.0E-06
     mixing beta               =       0.7000
     number of iterations used =            8  plain     mixing
     Exchange-correlation=  SLA  PW   PBX  PBC
                           (   1   4   3   4   0   0   0)

     celldm(1)=  10.928825  celldm(2)=   0.000000  celldm(3)=   0.000000
     celldm(4)=   0.000000  celldm(5)=   0.000000  celldm(6)=   0.000000

     crystal axes: (cart. coord. in units of alat)
               a(1) = (   1.000000   0.000000   0.000000 )
               a(2) = (  -0.459117   1.301422   0.000000 )
               a(3) = (  -0.230281  -0.523800   1.442762 )

     reciprocal axes: (cart. coord. in units 2 pi/alat)
               b(1) = (  1.000000  0.352781  0.287690 )
               b(2) = (  0.000000  0.768390  0.278967 )
               b(3) = (  0.000000  0.000000  0.693115 )

     PseudoPot. # 1 for Cs read from file:
     /home/pragov/projects/rrg-bengioy-ad/pragov/crystal_structure_design/SSSP/Cs_pbe_v1.uspp.F.UPF
     MD5 check sum: 3476d69cb178dfad3ffaa59df4e07ca4
     Pseudo is Ultrasoft + core correction, Zval =  9.0
     Generated by new atomic code, or converted to UPF format
     Using radial grid of  905 points,  6 beta functions with:
                l(1) =   0
                l(2) =   0
                l(3) =   1
                l(4) =   1
                l(5) =   2
                l(6) =   2
     Q(r) pseudized with  6 coefficients,  rinner =    1.500   1.500   1.500
                                                       1.500   1.500

     PseudoPot. # 2 for Pb read from file:
     /home/pragov/projects/rrg-bengioy-ad/pragov/crystal_structure_design/SSSP/Pb.pbe-dn-kjpaw_psl.0.2.2.UPF
     MD5 check sum: 9d431e6316058b74ade52399a6cf67da
     Pseudo is Projector augmented-wave + core cor, Zval = 14.0
     Generated using "atomic" code by A. Dal Corso  v.5.0.99 svn rev. 10869
     Shape of augmentation charge: PSQ
     Using radial grid of 1281 points,  6 beta functions with:
                l(1) =   0
                l(2) =   0
                l(3) =   1
                l(4) =   1
                l(5) =   2
                l(6) =   2
     Q(r) pseudized with 0 coefficients

     PseudoPot. # 3 for Cl read from file:
     /home/pragov/projects/rrg-bengioy-ad/pragov/crystal_structure_design/SSSP/cl_pbe_v1.4.uspp.F.UPF
     MD5 check sum: fc6f6913ecf08c9257cb748ef0700058
     Pseudo is Ultrasoft + core correction, Zval =  7.0
     Generated by new atomic code, or converted to UPF format
     Using radial grid of  909 points,  6 beta functions with:
                l(1) =   0
                l(2) =   0
                l(3) =   1
                l(4) =   1
                l(5) =   2
                l(6) =   2
     Q(r) pseudized with  8 coefficients,  rinner =    1.300   1.300   1.300
                                                       1.300   1.300

     atomic species   valence    mass     pseudopotential
        Cs             9.00   132.90545     Cs( 1.00)
        Pb            14.00   207.20000     Pb( 1.00)
        Cl             7.00    35.45000     Cl( 1.00)

     No symmetry found

                                    s                        frac. trans.

      isym =  1     identity

 cryst.   s( 1) = (     1          0          0      )
                  (     0          1          0      )
                  (     0          0          1      )

 cart.    s( 1) = (  1.0000000  0.0000000 -0.0000000 )
                  (  0.0000000  1.0000000  0.0000000 )
                  (  0.0000000  0.0000000  1.0000000 )

   Cartesian axes

     site n.     atom                  positions (alat units)
         1           Cs  tau(   1) = (   0.3967946   0.2048212   0.6697301  )
         2           Pb  tau(   2) = (  -0.1492430   0.8533810   0.0642029  )
         3           Pb  tau(   3) = (   0.9316565   0.1152104   0.0318692  )
         4           Cl  tau(   4) = (  -0.4679513   1.0304349   0.3714925  )
         5           Cl  tau(   5) = (   0.4534657   0.0489250   0.0783016  )
         6           Cl  tau(   6) = (  -0.0953608   0.4648785   0.3929463  )
         7           Cl  tau(   7) = (   0.2876629   0.4781306   1.1911891  )
         8           Cl  tau(   8) = (   0.6359562  -0.0438220   1.1589029  )

   Crystallographic axes

     site n.     atom                  positions (cryst. coord.)
         1           Cs  tau(   1) = (  0.6617260  0.3442150  0.4642000  )
         2           Pb  tau(   2) = (  0.1702840  0.6736400  0.0445000  )
         3           Pb  tau(   3) = (  0.9814690  0.0974170  0.0220890  )
         4           Cl  tau(   4) = (  0.0024410  0.8954100  0.2574870  )
         5           Cl  tau(   5) = (  0.4932520  0.0594370  0.0542720  )
         6           Cl  tau(   6) = (  0.1816860  0.4668270  0.2723570  )
         7           Cl  tau(   7) = (  0.7990310  0.6996930  0.8256310  )
         8           Cl  tau(   8) = (  0.9539010  0.2896230  0.8032530  )

     number of k points=     1  Methfessel-Paxton smearing, width (Ry)=  0.0010
                       cart. coord. in units 2pi/alat
        k(    1) = (   0.0000000   0.0000000   0.0000000), wk =   2.0000000

                       cryst. coord.
        k(    1) = (   0.0000000   0.0000000   0.0000000), wk =   2.0000000

     Initial potential from superposition of free atoms

     starting charge      71.9559, renormalised to      72.0000

     negative rho (up, down):  7.565E-02 0.000E+00
     Starting wfcs are   51 randomized atomic wfcs
     Checking if some PAW data can be deallocated...

     Self-consistent Calculation

     iteration #  1     ecut=    30.00 Ry     beta= 0.70
     Davidson diagonalization with overlap

     ethr =  1.00E-02,  avg # of iterations =  2.0

     Threshold (ethr) on eigenvalues was too large:
     Diagonalizing with lowered threshold

     Davidson diagonalization with overlap

[...]

     negative rho (up, down):  7.853E-02 0.000E+00

     total energy              =   -1971.25868307 Ry
     estimated scf accuracy    <       0.48791885 Ry

[...]

     total energy              =   -1971.47072556 Ry
     estimated scf accuracy    <       0.00000332 Ry

     iteration #  8     ecut=    30.00 Ry     beta= 0.70
     Davidson diagonalization with overlap

     ethr =  4.61E-09,  avg # of iterations =  4.0

[...]

     End of self-consistent calculation

          k = 0.0000 0.0000 0.0000 (  3407 PWs)   bands (ev):

   -19.2529 -15.2875 -15.2524 -15.2439 -15.2225 -15.1619 -15.0468 -14.9665
   -14.9299 -14.9142 -14.8919 -13.4530 -12.6890 -12.5880 -12.4719 -12.2602
    -6.3453  -6.1261  -6.0783  -6.0645  -5.7391  -2.8793  -2.2143  -1.9994
    -1.5549  -1.4656  -1.0611  -0.8304  -0.7062  -0.6510  -0.5964  -0.5060
    -0.3071  -0.2790  -0.1638   0.0220   4.2660   4.4307   5.2207   5.5329
     5.7176   5.8161   6.1572

     occupation numbers
     1.0000   1.0000   1.0000   1.0000   1.0000   1.0000   1.0000   1.0000
     1.0000   1.0000   1.0000   1.0000   1.0000   1.0000   1.0000   1.0000
     1.0000   1.0000   1.0000   1.0000   1.0000   1.0000   1.0000   1.0000
     1.0000   1.0000   1.0000   1.0000   1.0000   1.0000   1.0000   1.0000
     1.0000   1.0000   1.0000   1.0000  -0.0000  -0.0000  -0.0000  -0.0000
    -0.0000  -0.0000  -0.0000

     the Fermi energy is     3.0830 ev

!    total energy              =   -1971.47072683 Ry
     estimated scf accuracy    <       0.00000026 Ry
     smearing contrib. (-TS)   =       0.00000000 Ry
     internal energy E=F+TS    =   -1971.47072683 Ry

     The total energy is F=E-TS. E is the sum of the following terms:
     one-electron contribution =    -299.36081487 Ry
     hartree contribution      =     180.62755743 Ry
     xc contribution           =    -166.16434042 Ry
     ewald contribution        =    -229.62347036 Ry
     one-center paw contrib.   =   -1456.94965861 Ry
      -> PAW hartree energy AE =     192.21073087 Ry
      -> PAW hartree energy PS =    -191.78414147 Ry
      -> PAW xc energy AE      =   -1544.61908911 Ry
      -> PAW xc energy PS      =      87.24284110 Ry
      -> total E_H with PAW    =     181.05414683 Ry
      -> total E_XC with PAW   =   -1623.54058843 Ry

     convergence has been achieved in   8 iterations

     negative rho (up, down):  7.522E-02 0.000E+00

     Forces acting on atoms (cartesian axes, Ry/au):

     atom    1 type  1   force =    -0.00059666    0.00336453   -0.00272668
     atom    2 type  2   force =    -0.00130223   -0.00229726   -0.00123573
     atom    3 type  2   force =     0.01193429   -0.02244979    0.01564583
     atom    4 type  3   force =    -0.00172102   -0.00573845    0.00070373
     atom    5 type  3   force =    -0.00963593    0.02968765   -0.02175178
     atom    6 type  3   force =    -0.00003239   -0.00115240    0.00185411
     atom    7 type  3   force =    -0.00257799   -0.00614542    0.00436195
     atom    8 type  3   force =     0.00393194    0.00473113    0.00314858
     The non-local contrib.  to forces
     atom    1 type  1   force =    -0.00253519    0.00285922   -0.01044472
     atom    2 type  2   force =    -0.23408124   -0.00290456    0.00560428
     atom    3 type  2   force =    -0.07513053    0.04283909   -0.01877806
     atom    4 type  3   force =     0.06801153    0.01436750   -0.06743487
     atom    5 type  3   force =     0.00660970   -0.09058434    0.04085276
     atom    6 type  3   force =     0.00010348   -0.02987777   -0.05438027
     atom    7 type  3   force =     0.06735984    0.02657047    0.04893179
     atom    8 type  3   force =     0.01149272   -0.01669625    0.06453743
     The ionic contribution  to forces
     atom    1 type  1   force =    -0.11997001    0.23288175    3.07966976
     atom    2 type  2   force =     4.87104521   -3.03215739    0.30679860
     atom    3 type  2   force =     0.29665423    2.43508603   -3.68256868
     atom    4 type  3   force =    -2.90417232   -2.29903927    9.84933658
     atom    5 type  3   force =    -0.05495549    2.62511836   -0.78245038
     atom    6 type  3   force =     0.49249129    1.59358586    8.12583178
     atom    7 type  3   force =    -3.06116895   -1.09658626   -8.69597323
     atom    8 type  3   force =     0.48007604   -0.45888908   -8.20064443
     The local contribution  to forces
     atom    1 type  1   force =     0.12165457   -0.23239390   -3.07379435
     atom    2 type  2   force =    -4.64797135    3.02986580   -0.31248559
     atom    3 type  2   force =    -0.21191065   -2.49710754    3.71557083
     atom    4 type  3   force =     2.83602670    2.27917009   -9.78249221
     atom    5 type  3   force =     0.03868883   -2.50753845    0.72136840
     atom    6 type  3   force =    -0.49259404   -1.56570954   -8.07073365
     atom    7 type  3   force =     2.99274500    1.06465456    8.65245717
     atom    8 type  3   force =    -0.48719949    0.47948330    8.14065610
     The core correction contribution to forces
     atom    1 type  1   force =     0.00024448   -0.00006322    0.00144115
     atom    2 type  2   force =     0.00914890    0.00261245   -0.00001539
     atom    3 type  2   force =     0.00229362   -0.00332609    0.00219551
     atom    4 type  3   force =    -0.00160980   -0.00020629    0.00106175
     atom    5 type  3   force =     0.00001819    0.00268090   -0.00130868
     atom    6 type  3   force =    -0.00000129    0.00079900    0.00077934
     atom    7 type  3   force =    -0.00163622   -0.00064009   -0.00068725
     atom    8 type  3   force =    -0.00037967    0.00059524   -0.00113267
     The Hubbard contrib.    to forces
     atom    1 type  1   force =     0.00000000    0.00000000    0.00000000
     atom    2 type  2   force =     0.00000000    0.00000000    0.00000000
     atom    3 type  2   force =     0.00000000    0.00000000    0.00000000
     atom    4 type  3   force =     0.00000000    0.00000000    0.00000000
     atom    5 type  3   force =     0.00000000    0.00000000    0.00000000
     atom    6 type  3   force =     0.00000000    0.00000000    0.00000000
     atom    7 type  3   force =     0.00000000    0.00000000    0.00000000
     atom    8 type  3   force =     0.00000000    0.00000000    0.00000000
     The SCF correction term to forces
     atom    1 type  1   force =     0.00002013    0.00007630    0.00036026
     atom    2 type  2   force =     0.00056689    0.00028205   -0.00117885
     atom    3 type  2   force =     0.00003825    0.00005433   -0.00081498
     atom    4 type  3   force =     0.00003351   -0.00003485    0.00019126
     atom    5 type  3   force =     0.00001349    0.00000680   -0.00025510
     atom    6 type  3   force =    -0.00002119    0.00004567    0.00031569
     atom    7 type  3   force =     0.00013297   -0.00014849   -0.00040774
     atom    8 type  3   force =    -0.00004702    0.00023354   -0.00030908

     Total force =     0.050185     Total SCF correction =     0.001778

     Computing stress (Cartesian axis) and pressure

     negative rho (up, down):  7.522E-02 0.000E+00
          total   stress  (Ry/bohr**3)                   (kbar)     P=       -8.62
  -0.00011079   0.00000226  -0.00000658          -16.30        0.33       -0.97
   0.00000226  -0.00002148   0.00001128            0.33       -3.16        1.66
  -0.00000658   0.00001128  -0.00004351           -0.97        1.66       -6.40

     kinetic stress (kbar)   5227.02     10.07     -2.61
                               10.07   5237.38     -1.05
                               -2.61     -1.05   5245.74

     local   stress (kbar)  -7100.61   2426.40   -580.17
                             2426.40 -10856.17   -817.76
                             -580.17   -817.76   1519.14

     nonloc. stress (kbar)   3077.32     -1.88     -0.40
                               -1.88   3083.05      0.44
                               -0.40      0.44   3078.73

     hartree stress (kbar)   4494.89  -1003.69    236.03
                            -1003.69   6061.55    351.19
                              236.03    351.19    284.79

     exc-cor stress (kbar)   4138.98     -1.47      0.28
                               -1.47   4140.74      0.14
                                0.28      0.14   4140.00

     corecor stress (kbar)  -6004.99      0.09      0.03
                                0.09  -6005.85     -0.01
                                0.03     -0.01  -6005.61

     ewald   stress (kbar)  -3848.90  -1429.18    345.87
                            -1429.18  -1663.86    468.71
                              345.87    468.71  -8269.19

     hubbard stress (kbar)      0.00      0.00      0.00
                                0.00      0.00      0.00
                                0.00      0.00      0.00

     DFT-D   stress (kbar)      0.00      0.00      0.00
                                0.00      0.00      0.00
                                0.00      0.00      0.00

     XDM     stress (kbar)      0.00      0.00      0.00
                                0.00      0.00      0.00
                                0.00      0.00      0.00

     dft-nl  stress (kbar)      0.00      0.00      0.00
                                0.00      0.00      0.00
                                0.00      0.00      0.00

     TS-vdW  stress (kbar)      0.00      0.00      0.00
                                0.00      0.00      0.00
                                0.00      0.00      0.00

[...]

                                0.00      0.00      0.00

     Writing all to output data dir new_calculations/myprefix.save/

     General routines

     Parallel routines

     PAW routines

   This run was terminated on:  17:20:24  21May2023

   JOB DONE.