     Program PWSCF v.7.0 starts on 20May2023 at 12:31:39

     Reading input from espresso_5416.pwi
Warning: card &CELL ignored
Warning: card / ignored

     Current dimensions of program PWSCF are:
     Max number of different atomic species (ntypx) = 10
     Max number of k-points (npk) =  40000
     Max angular momentum in pseudopotentials (lmaxx) =  4
     file Ba.pbe-spn-kjpaw_psl.1.0.0.UPF: wavefunction(s)  5S 6S renormalized

     gamma-point specific algorithms are used
     Message from routine setup:
     using ibrav=0 with symmetry is DISCOURAGED, use correct ibrav instead

     Subspace diagonalization in iterative solution of the eigenvalue problem:
     a serial algorithm will be used

     Using Slab Decomposition

     bravais-lattice index     =            0
     lattice parameter (alat)  =      12.8509  a.u.
     unit-cell volume          =     674.4998 (a.u.)^3
     number of atoms/cell      =            5
     number of atomic types    =            3
     number of electrons       =        72.00
     number of Kohn-Sham states=           43
     kinetic-energy cutoff     =      30.0000  Ry
     charge density cutoff     =     240.0000  Ry
     scf convergence threshold =      1.0E-06
     mixing beta               =       0.7000
     number of iterations used =            8  plain     mixing
     Exchange-correlation=  SLA  PW   PBX  PBC
                           (   1   4   3   4   0   0   0)

     celldm(1)=  12.850877  celldm(2)=   0.000000  celldm(3)=   0.000000
     celldm(4)=   0.000000  celldm(5)=   0.000000  celldm(6)=   0.000000

     crystal axes: (cart. coord. in units of alat)
               a(1) = (   1.000000   0.000000   0.000000 )
               a(2) = (   0.650100   0.759848   0.000000 )
               a(3) = (  -0.825050  -0.379924   0.418270 )

     reciprocal axes: (cart. coord. in units 2 pi/alat)
               b(1) = (  1.000000 -0.855566  1.195400 )
               b(2) = (  0.000000  1.316052  1.195400 )
               b(3) = (  0.000000  0.000000  2.390800 )

     PseudoPot. # 1 for Ba read from file:
     /home/pragov/projects/rrg-bengioy-ad/pragov/crystal_structure_design/SSSP/Ba.pbe-spn-kjpaw_psl.1.0.0.UPF
     MD5 check sum: c432291d3e53af55f19d5e8866385beb
     Pseudo is Projector augmented-wave + core cor, Zval = 10.0
     Generated using "atomic" code by A. Dal Corso  v.5.1
     Shape of augmentation charge: PSQ
     Using radial grid of 1251 points,  7 beta functions with:
                l(1) =   0
                l(2) =   0
                l(3) =   0
                l(4) =   1
                l(5) =   1
                l(6) =   2
                l(7) =   2
     Q(r) pseudized with 0 coefficients

     PseudoPot. # 2 for Co read from file:
     /home/pragov/projects/rrg-bengioy-ad/pragov/crystal_structure_design/SSSP/Co_pbe_v1.2.uspp.F.UPF
     MD5 check sum: 5f91765df6ddd3222702df6e7b74a16d
     Pseudo is Ultrasoft + core correction, Zval = 17.0
     Generated by new atomic code, or converted to UPF format
     Using radial grid of  863 points,  6 beta functions with:
                l(1) =   0
                l(2) =   0
                l(3) =   1
                l(4) =   1
                l(5) =   2
                l(6) =   2
     Q(r) pseudized with  8 coefficients,  rinner =    1.200   1.200   1.200
                                                       1.200   1.200

     PseudoPot. # 3 for Ge read from file:
     /home/pragov/projects/rrg-bengioy-ad/pragov/crystal_structure_design/SSSP/ge_pbe_v1.4.uspp.F.UPF
     MD5 check sum: 9c9eaa91e581c3f09632fb3098b2c6b2
     Pseudo is Ultrasoft + core correction, Zval = 14.0
     Generated by new atomic code, or converted to UPF format
     Using radial grid of  873 points,  6 beta functions with:
                l(1) =   0
                l(2) =   0
                l(3) =   1
                l(4) =   1
                l(5) =   2
                l(6) =   2
     Q(r) pseudized with  8 coefficients,  rinner =    1.400   1.400   1.400
                                                       1.400   1.400

     atomic species   valence    mass     pseudopotential
        Ba            10.00   137.32700     Ba( 1.00)
        Co            17.00    58.93319     Co( 1.00)
        Ge            14.00    72.63000     Ge( 1.00)

      4 Sym. Ops., with inversion, found

                                    s                        frac. trans.

      isym =  1     identity

 cryst.   s( 1) = (     1          0          0      )
                  (     0          1          0      )
                  (     0          0          1      )

 cart.    s( 1) = (  1.0000000  0.0000000  0.0000000 )
                  (  0.0000000  1.0000000 -0.0000000 )
                  (  0.0000000  0.0000000  1.0000000 )

      isym =  2     180 deg rotation - cart. axis [0,0,1]

[...]

      isym =  3     inversion

[...]

      isym =  4     inv. 180 deg rotation - cart. axis [0,0,1]

 cryst.   s( 4) = (     1          0          0      )
                  (     0          1          0      )
                  (    -1         -1         -1      )

 cart.    s( 4) = (  1.0000000  0.0000000  0.0000000 )
                  (  0.0000000  1.0000000  0.0000000 )
                  (  0.0000000  0.0000000 -1.0000000 )

   Cartesian axes

     site n.     atom                  positions (alat units)
         1           Ba  tau(   1) = (   0.0000000   0.0000000   0.0000000  )
         2           Co  tau(   2) = (   0.5000000   0.0000000   0.2091350  )
         3           Co  tau(   3) = (   0.3250502   0.3799241   0.2091350  )
         4           Ge  tau(   4) = (   1.0787812   0.4967637   0.0000000  )
         5           Ge  tau(   5) = (   0.5713192   0.2630845   0.0000000  )

   Crystallographic axes

     site n.     atom                  positions (cryst. coord.)
         1           Ba  tau(   1) = (  0.0000000  0.0000000  0.0000000  )
         2           Co  tau(   2) = (  0.7500000  0.2500000  0.5000000  )
         3           Co  tau(   3) = (  0.2500000  0.7500000  0.5000000  )
         4           Ge  tau(   4) = (  0.6537670  0.6537670  0.0000000  )
         5           Ge  tau(   5) = (  0.3462330  0.3462330  0.0000000  )

     number of k points=     1  Methfessel-Paxton smearing, width (Ry)=  0.0010
                       cart. coord. in units 2pi/alat
        k(    1) = (   0.0000000   0.0000000   0.0000000), wk =   2.0000000

                       cryst. coord.
        k(    1) = (   0.0000000   0.0000000   0.0000000), wk =   2.0000000

     Check: negative core charge=   -0.000010

     Initial potential from superposition of free atoms

     starting charge      69.9812, renormalised to      72.0000
     Starting wfcs are   49 randomized atomic wfcs
     Checking if some PAW data can be deallocated...

     Self-consistent Calculation

     iteration #  1     ecut=    30.00 Ry     beta= 0.70
     Davidson diagonalization with overlap

     ethr =  1.00E-02,  avg # of iterations =  4.0

     total energy              =   -1452.02853558 Ry
     estimated scf accuracy    <      10.84682017 Ry

[...]

     total energy              =   -1459.90147632 Ry
     estimated scf accuracy    <       0.00000156 Ry

     iteration # 18     ecut=    30.00 Ry     beta= 0.70
     Davidson diagonalization with overlap

     ethr =  2.17E-09,  avg # of iterations =  4.0

     End of self-consistent calculation

          k = 0.0000 0.0000 0.0000 (   953 PWs)   bands (ev):

   -83.2554 -83.1858 -46.7621 -46.7282 -46.6105 -46.1717 -45.7765 -45.7745
   -15.6978 -12.5525 -12.5512 -12.5318 -12.5316 -12.4755 -12.4679 -12.4613
   -12.4035 -12.3164 -11.9957  -1.0978  -1.0892  -0.9030   1.2642   3.8664
     7.5509   8.7400   8.9913   9.2565   9.4055   9.8937   9.9454  10.5835
    10.9463  11.0189  11.4504  11.5248  11.8304  12.3982  15.2366  15.4212
    16.0461  16.0946  16.3201

     occupation numbers
     1.0000   1.0000   1.0000   1.0000   1.0000   1.0000   1.0000   1.0000
     1.0000   1.0000   1.0000   1.0000   1.0000   1.0000   1.0000   1.0000
     1.0000   1.0000   1.0000   1.0000   1.0000   1.0000   1.0000   1.0000
     1.0000   1.0000   1.0000   1.0000   1.0000   1.0000   1.0000   1.0000
     1.0000   1.0000   1.0000   1.0000  -0.0000  -0.0000  -0.0000  -0.0000
    -0.0000  -0.0000  -0.0000

     the Fermi energy is    11.6783 ev

!    total energy              =   -1459.90147595 Ry
     estimated scf accuracy    <       0.00000057 Ry
     smearing contrib. (-TS)   =       0.00000000 Ry
     internal energy E=F+TS    =   -1459.90147595 Ry

     The total energy is F=E-TS. E is the sum of the following terms:
     one-electron contribution =    -883.49864538 Ry
     hartree contribution      =     491.29477651 Ry
     xc contribution           =    -202.32858961 Ry
     ewald contribution        =    -490.39638530 Ry
     one-center paw contrib.   =    -374.97263217 Ry
      -> PAW hartree energy AE =      29.47906647 Ry
      -> PAW hartree energy PS =     -29.36360016 Ry
      -> PAW xc energy AE      =    -394.35764917 Ry
      -> PAW xc energy PS      =      19.26955070 Ry
      -> total E_H with PAW    =     491.41024281 Ry
      -> total E_XC with PAW   =    -577.41668808 Ry

     convergence has been achieved in  18 iterations

     Forces acting on atoms (cartesian axes, Ry/au):

     atom    1 type  1   force =     0.00000000    0.00000000    0.00000000
     atom    2 type  2   force =     0.00000000    0.00000000   -0.01713729
     atom    3 type  2   force =     0.00000000    0.00000000    0.01713729
     atom    4 type  3   force =     0.01394430    0.01521027    0.00000000
     atom    5 type  3   force =    -0.01394430   -0.01521027   -0.00000000
     The non-local contrib.  to forces
     atom    1 type  1   force =     0.00000000    0.00000000   -0.00000000
     atom    2 type  2   force =     0.00000000    0.00000000    0.01331330
     atom    3 type  2   force =     0.00000000    0.00000000   -0.01331330
     atom    4 type  3   force =    -0.02485367   -0.02934209   -0.00000000
     atom    5 type  3   force =     0.02485367    0.02934209    0.00000000
     The ionic contribution  to forces
     atom    1 type  1   force =    -0.00000000   -0.00000000    0.00000000
     atom    2 type  2   force =    -0.00000000    0.00000000   -0.00000000
     atom    3 type  2   force =     0.00000000   -0.00000000    0.00000000
     atom    4 type  3   force =   -38.87983440  -17.90362103   -0.00000000
     atom    5 type  3   force =    38.87983440   17.90362103    0.00000000
     The local contribution  to forces
     atom    1 type  1   force =    -0.00025283    0.00010362   -0.00044425
     atom    2 type  2   force =    -0.00608950    0.00493394   -0.02995873
     atom    3 type  2   force =     0.00624369   -0.00504567    0.03007729
     atom    4 type  3   force =    38.90773635   17.94165760    0.00404182
     atom    5 type  3   force =   -38.90764714  -17.94179971   -0.00387875
     The core correction contribution to forces
     atom    1 type  1   force =    -0.00000169    0.00000086   -0.00000977
     atom    2 type  2   force =    -0.00014745   -0.00002141   -0.00042461
     atom    3 type  2   force =     0.00014995    0.00001511    0.00043032
     atom    4 type  3   force =     0.01107872    0.00651330   -0.00032398
     atom    5 type  3   force =    -0.01107796   -0.00651344    0.00032468
     The Hubbard contrib.    to forces
     atom    1 type  1   force =     0.00000000    0.00000000    0.00000000
     atom    2 type  2   force =     0.00000000    0.00000000    0.00000000
     atom    3 type  2   force =     0.00000000    0.00000000    0.00000000
     atom    4 type  3   force =     0.00000000    0.00000000    0.00000000
     atom    5 type  3   force =     0.00000000    0.00000000    0.00000000
     The SCF correction term to forces
     atom    1 type  1   force =     0.00004643   -0.00001937    0.00006555
     atom    2 type  2   force =    -0.00008361    0.00001726   -0.00003743
     atom    3 type  2   force =    -0.00006488    0.00002889   -0.00002721
     atom    4 type  3   force =    -0.00018302    0.00001403   -0.00009553
     atom    5 type  3   force =     0.00009242    0.00015131   -0.00006595

     Total force =     0.037934     Total SCF correction =     0.000316

     Computing stress (Cartesian axis) and pressure

          total   stress  (Ry/bohr**3)                   (kbar)     P=     -264.67
  -0.00246310  -0.00031050  -0.00000000         -362.33      -45.68       -0.00
  -0.00031050  -0.00109294  -0.00000000          -45.68     -160.78       -0.00
  -0.00000000  -0.00000000  -0.00184146           -0.00       -0.00     -270.89

     kinetic stress (kbar)  20092.92    286.90      0.00
                              286.90  19696.71      0.00
                                0.00      0.00  19548.00

     local   stress (kbar)  42855.68  48132.92     23.50
                            48132.92 -39882.31     -9.25
                               23.50     -9.25 -61974.61

     nonloc. stress (kbar)   9394.37    178.88      0.00
                              178.88   9362.47      0.00
                                0.00      0.00   9120.42

     hartree stress (kbar)   5742.43 -23097.91     -9.82
                           -23097.91  45398.51      8.95
                               -9.82      8.95  56008.03

     exc-cor stress (kbar)   7468.12      1.88     -0.17
                                1.88   7466.53      0.23
                               -0.17      0.23   7465.36

     corecor stress (kbar) -17201.53     -2.03      0.86
                               -2.03 -17201.48      0.33
                                0.86      0.33 -17200.60

     ewald   stress (kbar) -68714.33 -25546.31     -0.00
                           -25546.31 -25001.21     -0.00
                               -0.00     -0.00 -13237.49

     hubbard stress (kbar)      0.00      0.00      0.00
                                0.00      0.00      0.00
                                0.00      0.00      0.00

     DFT-D   stress (kbar)      0.00      0.00      0.00
                                0.00      0.00      0.00
                                0.00      0.00      0.00

     XDM     stress (kbar)      0.00      0.00      0.00
                                0.00      0.00      0.00
                                0.00      0.00      0.00

     dft-nl  stress (kbar)      0.00      0.00      0.00
                                0.00      0.00      0.00
                                0.00      0.00      0.00

     TS-vdW  stress (kbar)      0.00      0.00      0.00
                                0.00      0.00      0.00
                                0.00      0.00      0.00

[...]

                                0.00      0.00      0.00

     Writing all to output data dir new_calculations/myprefix.save/

     General routines

     Parallel routines

     PAW routines

   This run was terminated on:  12:32:24  20May2023

   JOB DONE.