     Program PWSCF v.7.0 starts on 20May2023 at 11:34:58

     Reading input from espresso_4395.pwi
Warning: card &CELL ignored
Warning: card / ignored

     Current dimensions of program PWSCF are:
     Max number of different atomic species (ntypx) = 10
     Max number of k-points (npk) =  40000
     Max angular momentum in pseudopotentials (lmaxx) =  4
     file Cd.pbe-dn-rrkjus_psl.0.3.1.UPF: wavefunction(s)  4D renormalized

     gamma-point specific algorithms are used
     Message from routine setup:
     using ibrav=0 with symmetry is DISCOURAGED, use correct ibrav instead

     Subspace diagonalization in iterative solution of the eigenvalue problem:
     a serial algorithm will be used

     Using Slab Decomposition

     bravais-lattice index     =            0
     lattice parameter (alat)  =       8.7748  a.u.
     unit-cell volume          =    1892.7354 (a.u.)^3
     number of atoms/cell      =            8
     number of atomic types    =            3
     number of electrons       =        75.00
     number of Kohn-Sham states=           46
     kinetic-energy cutoff     =      30.0000  Ry
     charge density cutoff     =     240.0000  Ry
     scf convergence threshold =      1.0E-06
     mixing beta               =       0.7000
     number of iterations used =            8  plain     mixing
     Exchange-correlation= SLA  PW   PBE  PBE
                           (   1   4   3   4   0   0   0)

     celldm(1)=   8.774830  celldm(2)=   0.000000  celldm(3)=   0.000000
     celldm(4)=   0.000000  celldm(5)=   0.000000  celldm(6)=   0.000000

     crystal axes: (cart. coord. in units of alat)
               a(1) = (   1.000000   0.000000   0.000000 )
               a(2) = (   0.000000   1.399916   0.000000 )
               a(3) = (   0.000000   0.000000   2.001114 )

     reciprocal axes: (cart. coord. in units 2 pi/alat)
               b(1) = (  1.000000  0.000000  0.000000 )
               b(2) = (  0.000000  0.714328  0.000000 )
               b(3) = (  0.000000  0.000000  0.499722 )

     PseudoPot. # 1 for Mn read from file:
     /home/pragov/projects/rrg-bengioy-ad/pragov/crystal_structure_design/SSSP/mn_pbe_v1.5.uspp.F.UPF
     MD5 check sum: 82ef2b46521d7a7d9e736dc3972e4928
     Pseudo is Ultrasoft + core correction, Zval = 15.0
     Generated by new atomic code, or converted to UPF format
     Using radial grid of  859 points,  6 beta functions with:
                l(1) =   0
                l(2) =   0
                l(3) =   1
                l(4) =   1
                l(5) =   2
                l(6) =   2
     Q(r) pseudized with  8 coefficients,  rinner =    0.950   0.950   0.950
                                                       0.950   0.950

     PseudoPot. # 2 for Cd read from file:
     /home/pragov/projects/rrg-bengioy-ad/pragov/crystal_structure_design/SSSP/Cd.pbe-dn-rrkjus_psl.0.3.1.UPF
     MD5 check sum: 558e9f355611b531a870a69ef6ace9e2
     Pseudo is Ultrasoft + core correction, Zval = 12.0
     Generated using "atomic" code by A. Dal Corso  v.5.0.99 svn rev. 10869
     Using radial grid of 1239 points,  6 beta functions with:
                l(1) =   0
                l(2) =   0
                l(3) =   1
                l(4) =   1
                l(5) =   2
                l(6) =   2
     Q(r) pseudized with 0 coefficients

     PseudoPot. # 3 for Te read from file:
     /home/pragov/projects/rrg-bengioy-ad/pragov/crystal_structure_design/SSSP/Te_pbe_v1.uspp.F.UPF
     MD5 check sum: c319670d6894cc26e93307826a071b75
     Pseudo is Ultrasoft + core correction, Zval =  6.0
     Generated by new atomic code, or converted to UPF format
     Using radial grid of  891 points,  5 beta functions with:
                l(1) =   0
                l(2) =   0
                l(3) =   1
                l(4) =   1
                l(5) =   2
     Q(r) pseudized with  6 coefficients,  rinner =    1.800   1.800   1.800
                                                       1.800   1.800

     atomic species   valence    mass     pseudopotential
        Mn            15.00    54.93804     Mn( 1.00)
        Cd            12.00   112.41400     Cd( 1.00)
        Te             6.00   127.60000     Te( 1.00)

      4 Sym. Ops. (no inversion) found

                                    s                        frac. trans.

      isym =  1     identity

 cryst.   s( 1) = (     1          0          0      )
                  (     0          1          0      )
                  (     0          0          1      )

 cart.    s( 1) = (  1.0000000  0.0000000  0.0000000 )
                  (  0.0000000  1.0000000  0.0000000 )
                  (  0.0000000  0.0000000  1.0000000 )

      isym =  2     180 deg rotation - cart. axis [0,1,0]

[...]

      isym =  3     inv. 180 deg rotation - cart. axis [0,0,1]

[...]

      isym =  4     inv. 180 deg rotation - cart. axis [1,0,0]

 cryst.   s( 4) = (    -1          0          0      )
                  (     0          1          0      )
                  (     0          0          1      )

 cart.    s( 4) = ( -1.0000000  0.0000000  0.0000000 )
                  (  0.0000000  1.0000000  0.0000000 )
                  (  0.0000000  0.0000000  1.0000000 )

   Cartesian axes

     site n.     atom                  positions (alat units)
         1           Mn  tau(   1) = (   0.5000000   0.7016828   1.0005568  )
         2           Cd  tau(   2) = (   0.0000000   0.0004648   0.5078246  )
         3           Cd  tau(   3) = (   0.5000000   0.6965675   0.0000000  )
         4           Cd  tau(   4) = (   0.0000000   0.0004648   1.4932890  )
         5           Te  tau(   5) = (   0.5000000   0.3621723   0.5187347  )
         6           Te  tau(   6) = (   0.0000000   1.0536245   0.0000000  )
         7           Te  tau(   7) = (   0.5000000   0.3621723   1.4823789  )
         8           Te  tau(   8) = (   0.0000000   1.0225996   1.0005568  )

   Crystallographic axes

     site n.     atom                  positions (cryst. coord.)
         1           Mn  tau(   1) = (  0.5000000  0.5012320  0.5000000  )
         2           Cd  tau(   2) = (  0.0000000  0.0003320  0.2537710  )
         3           Cd  tau(   3) = (  0.5000000  0.4975780  0.0000000  )
         4           Cd  tau(   4) = (  0.0000000  0.0003320  0.7462290  )
         5           Te  tau(   5) = (  0.5000000  0.2587100  0.2592230  )
         6           Te  tau(   6) = (  0.0000000  0.7526340  0.0000000  )
         7           Te  tau(   7) = (  0.5000000  0.2587100  0.7407770  )
         8           Te  tau(   8) = (  0.0000000  0.7304720  0.5000000  )

     number of k points=     1  Methfessel-Paxton smearing, width (Ry)=  0.0010
                       cart. coord. in units 2pi/alat
        k(    1) = (   0.0000000   0.0000000   0.0000000), wk =   2.0000000

                       cryst. coord.
        k(    1) = (   0.0000000   0.0000000   0.0000000), wk =   2.0000000

     Check: negative core charge=   -0.000003

     Initial potential from superposition of free atoms

     starting charge      74.4844, renormalised to      75.0000
     Starting wfcs are   56 randomized atomic wfcs

     Self-consistent Calculation

     iteration #  1     ecut=    30.00 Ry     beta= 0.70
     Davidson diagonalization with overlap

     ethr =  1.00E-02,  avg # of iterations =  4.0

     total energy              =    -677.83986846 Ry
     estimated scf accuracy    <       6.75376076 Ry

[...]

     negative rho (up, down):  1.880E-03 0.000E+00

[...]

     negative rho (up, down):  8.672E-03 0.000E+00

[...]

     total energy              =    -683.44492262 Ry
     estimated scf accuracy    <       0.00000599 Ry

     iteration # 35     ecut=    30.00 Ry     beta= 0.70
     Davidson diagonalization with overlap

     ethr =  7.98E-09,  avg # of iterations =  2.0

     End of self-consistent calculation

          k = 0.0000 0.0000 0.0000 (  2647 PWs)   bands (ev):

   -73.5850 -42.5074 -42.3523 -42.1669  -6.4139  -5.9919  -5.9192  -5.7820
    -3.5387  -3.5155  -3.4947  -3.4829  -3.4406  -3.4184  -3.4017  -3.3687
    -3.3356  -3.3226  -3.3062  -3.2603  -3.2502  -3.1885  -2.9418   0.4928
     0.8641   1.3906   2.2695   2.5276   2.5389   2.7343   3.2386   3.6672
     3.7747   3.8296   4.3726   4.8201   5.2378   5.4978   5.8944   5.8957
     6.0261   7.3737   7.4482   7.6144   8.6229   9.2044

     occupation numbers
     1.0000   1.0000   1.0000   1.0000   1.0000   1.0000   1.0000   1.0000
     1.0000   1.0000   1.0000   1.0000   1.0000   1.0000   1.0000   1.0000
     1.0000   1.0000   1.0000   1.0000   1.0000   1.0000   1.0000   1.0000
     1.0000   1.0000   1.0000   1.0000   1.0000   1.0000   1.0000   1.0000
     1.0000   1.0000   1.0000   1.0000   1.0000   0.5000  -0.0000  -0.0000
    -0.0000  -0.0000  -0.0000  -0.0000  -0.0000  -0.0000

     the Fermi energy is     5.4978 ev

!    total energy              =    -683.44492306 Ry
     estimated scf accuracy    <       0.00000050 Ry
     smearing contrib. (-TS)   =      -0.00028209 Ry
     internal energy E=F+TS    =    -683.44464096 Ry

     The total energy is F=E-TS. E is the sum of the following terms:
     one-electron contribution =    -361.53808635 Ry
     hartree contribution      =     224.80269680 Ry
     xc contribution           =    -212.80457476 Ry
     ewald contribution        =    -333.90467665 Ry

     convergence has been achieved in  35 iterations

     Forces acting on atoms (cartesian axes, Ry/au):

     atom    1 type  1   force =     0.00000000   -0.00574738    0.00000000
     atom    2 type  2   force =     0.00000000   -0.02120168   -0.00434701
     atom    3 type  2   force =     0.00000000   -0.01760044    0.00000000
     atom    4 type  2   force =     0.00000000   -0.02120168    0.00434701
     atom    5 type  3   force =     0.00000000    0.06363261    0.06033381
     atom    6 type  3   force =     0.00000000    0.02971224    0.00000000
     atom    7 type  3   force =     0.00000000    0.06363261   -0.06033381
     atom    8 type  3   force =     0.00000000   -0.09122628    0.00000000
     The non-local contrib.  to forces
     atom    1 type  1   force =     0.00000000    0.29238774    0.00000000
     atom    2 type  2   force =     0.00000000    0.09271935    0.01708173
     atom    3 type  2   force =     0.00000000    0.05440215    0.00000000
     atom    4 type  2   force =     0.00000000    0.09271935   -0.01708173
     atom    5 type  3   force =     0.00000000    0.01690318   -0.05148993
     atom    6 type  3   force =     0.00000000    0.00073354    0.00000000
     atom    7 type  3   force =     0.00000000    0.01690318    0.05148993
     atom    8 type  3   force =     0.00000000    0.04473412    0.00000000
     The ionic contribution  to forces
     atom    1 type  1   force =    -0.00000000    0.41839022    0.00000000
     atom    2 type  2   force =     0.00000000   -0.04453655   -1.80783793
     atom    3 type  2   force =    -0.00000000   -0.21677861   -0.00000000
     atom    4 type  2   force =     0.00000000   -0.04453655    1.80783793
     atom    5 type  3   force =    -0.00000000   -0.88996811   -1.83061463
     atom    6 type  3   force =     0.00000000    0.27033322   -0.00000000
     atom    7 type  3   force =     0.00000000   -0.88996811    1.83061463
     atom    8 type  3   force =     0.00000000    1.39706449    0.00000000
     The local contribution  to forces
     atom    1 type  1   force =     0.00003548   -0.70656072    0.00009363
     atom    2 type  2   force =     0.00000909   -0.06690281    1.78660734
     atom    3 type  2   force =    -0.00001031    0.14491445    0.00002982
     atom    4 type  2   force =    -0.00000189   -0.06716122   -1.78649944
     atom    5 type  3   force =    -0.00006153    0.93518794    1.94952868
     atom    6 type  3   force =    -0.00000743   -0.24151215    0.00010568
     atom    7 type  3   force =    -0.00001295    0.93523805   -1.94940896
     atom    8 type  3   force =    -0.00000306   -1.54053680   -0.00010253
     The core correction contribution to forces
     atom    1 type  1   force =     0.00000183   -0.00951120    0.00001492
     atom    2 type  2   force =     0.00000134   -0.00231143   -0.00107641
     atom    3 type  2   force =     0.00000004   -0.00015086   -0.00000494
     atom    4 type  2   force =    -0.00000087   -0.00231887    0.00108010
     atom    5 type  3   force =     0.00000562    0.00132379   -0.00745487
     atom    6 type  3   force =     0.00000122    0.00019506   -0.00000570
     atom    7 type  3   force =     0.00000230    0.00132510    0.00744287
     atom    8 type  3   force =     0.00000053    0.00757898   -0.00000044
     The Hubbard contrib.    to forces
     atom    1 type  1   force =     0.00000000    0.00000000    0.00000000
     atom    2 type  2   force =     0.00000000    0.00000000    0.00000000
     atom    3 type  2   force =     0.00000000    0.00000000    0.00000000
     atom    4 type  2   force =     0.00000000    0.00000000    0.00000000
     atom    5 type  3   force =     0.00000000    0.00000000    0.00000000
     atom    6 type  3   force =     0.00000000    0.00000000    0.00000000
     atom    7 type  3   force =     0.00000000    0.00000000    0.00000000
     atom    8 type  3   force =     0.00000000    0.00000000    0.00000000
     The SCF correction term to forces
     atom    1 type  1   force =    -0.00002100   -0.00048981   -0.00005985
     atom    2 type  2   force =    -0.00004911   -0.00015967    0.00083213
     atom    3 type  2   force =    -0.00000665   -0.00002395   -0.00000573
     atom    4 type  2   force =    -0.00001879    0.00001226   -0.00103598
     atom    5 type  3   force =    -0.00000206    0.00016357    0.00041206
     atom    6 type  3   force =    -0.00000713   -0.00007381   -0.00002382
     atom    7 type  3   force =    -0.00000574    0.00008386   -0.00042479
     atom    8 type  3   force =    -0.00000624   -0.00010346    0.00007141

     Total force =     0.160820     Total SCF correction =     0.001564

     Computing stress (Cartesian axis) and pressure

          total   stress  (Ry/bohr**3)                   (kbar)     P=      -55.84
  -0.00017331   0.00000000   0.00000000          -25.49        0.00        0.00
   0.00000000  -0.00046731   0.00000000            0.00      -68.74        0.00
   0.00000000   0.00000000  -0.00049819            0.00        0.00      -73.29

     kinetic stress (kbar)   9415.61      0.00      0.00
                                0.00   9316.35      0.00
                                0.00      0.00   9345.24

     local   stress (kbar)  -1117.28      0.02     -0.00
                                0.02   -733.43     -0.23
                               -0.00     -0.23   -743.80

     nonloc. stress (kbar)  -3001.83      0.00      0.00
                                0.00  -2892.47      0.00
                                0.00      0.00  -2861.93

     hartree stress (kbar)   5967.27     -0.01     -0.00
                               -0.01   5764.65      0.07
                               -0.00      0.07   5739.94

     exc-cor stress (kbar)   6888.74     -0.00     -0.00
                               -0.00   6886.52      0.00
                               -0.00      0.00   6888.53

     corecor stress (kbar)  -9703.69     -0.00      0.00
                               -0.00  -9685.58      0.00
                                0.00      0.00  -9689.00

     ewald   stress (kbar)  -8474.32     -0.00     -0.00
                               -0.00  -8724.79     -0.00
                               -0.00     -0.00  -8752.26

     hubbard stress (kbar)      0.00      0.00      0.00
                                0.00      0.00      0.00
                                0.00      0.00      0.00

     DFT-D   stress (kbar)      0.00      0.00      0.00
                                0.00      0.00      0.00
                                0.00      0.00      0.00

     XDM     stress (kbar)      0.00      0.00      0.00
                                0.00      0.00      0.00
                                0.00      0.00      0.00

     dft-nl  stress (kbar)      0.00      0.00      0.00
                                0.00      0.00      0.00
                                0.00      0.00      0.00

     TS-vdW  stress (kbar)      0.00      0.00      0.00
                                0.00      0.00      0.00
                                0.00      0.00      0.00

[...]

                                0.00      0.00      0.00

     Writing all to output data dir new_calculations/myprefix.save/

     General routines

     Parallel routines

   This run was terminated on:  11:35:21  20May2023

   JOB DONE.