     Program PWSCF v.7.0 starts on 20May2023 at 20:40:30

     Reading input from espresso_4652.pwi
Warning: card &CELL ignored
Warning: card / ignored

     Current dimensions of program PWSCF are:
     Max number of different atomic species (ntypx) = 10
     Max number of k-points (npk) =  40000
     Max angular momentum in pseudopotentials (lmaxx) =  4
     file O.pbe-n-kjpaw_psl.0.1.UPF: wavefunction(s)  2P renormalized

     gamma-point specific algorithms are used
     Message from routine setup:
     using ibrav=0 with symmetry is DISCOURAGED, use correct ibrav instead

     Subspace diagonalization in iterative solution of the eigenvalue problem:
     a serial algorithm will be used

     Using Slab Decomposition

     bravais-lattice index     =            0
     lattice parameter (alat)  =      11.0675  a.u.
     unit-cell volume          =     954.0730 (a.u.)^3
     number of atoms/cell      =           16
     number of atomic types    =            4
     number of electrons       =       129.00
     number of Kohn-Sham states=           78
     kinetic-energy cutoff     =      30.0000  Ry
     charge density cutoff     =     240.0000  Ry
     scf convergence threshold =      1.0E-06
     mixing beta               =       0.7000
     number of iterations used =            8  plain     mixing
     Exchange-correlation= SLA  PW   PBX  PBC
                           (   1   4   3   4   0   0   0)

     celldm(1)=  11.067508  celldm(2)=   0.000000  celldm(3)=   0.000000
     celldm(4)=   0.000000  celldm(5)=   0.000000  celldm(6)=   0.000000

     crystal axes: (cart. coord. in units of alat)
               a(1) = (   1.000000   0.000000   0.000000 )
               a(2) = (   0.503137   0.864207   0.000000 )
               a(3) = (   0.503137   0.289271   0.814356 )

     reciprocal axes: (cart. coord. in units 2 pi/alat)
               b(1) = (  1.000000 -0.582195 -0.411030 )
               b(2) = (  0.000000  1.157130 -0.411030 )
               b(3) = (  0.000000  0.000000  1.227964 )

     PseudoPot. # 1 for Li read from file:
     /home/pragov/projects/rrg-bengioy-ad/pragov/crystal_structure_design/SSSP/li_pbe_v1.4.uspp.F.UPF
     MD5 check sum: e912e257baa3777c20ea3d68f190483c
     Pseudo is Ultrasoft, Zval =  3.0
     Generated by new atomic code, or converted to UPF format
     Using radial grid of  751 points,  5 beta functions with:
                l(1) =   0
                l(2) =   0
                l(3) =   0
                l(4) =   1
                l(5) =   1
     Q(r) pseudized with 10 coefficients,  rinner =    1.150   1.150   1.150

     PseudoPot. # 2 for Mn read from file:
     /home/pragov/projects/rrg-bengioy-ad/pragov/crystal_structure_design/SSSP/mn_pbe_v1.5.uspp.F.UPF
     MD5 check sum: 82ef2b46521d7a7d9e736dc3972e4928
     Pseudo is Ultrasoft + core correction, Zval = 15.0
     Generated by new atomic code, or converted to UPF format
     Using radial grid of  859 points,  6 beta functions with:
                l(1) =   0
                l(2) =   0
                l(3) =   1
                l(4) =   1
                l(5) =   2
                l(6) =   2
     Q(r) pseudized with  8 coefficients,  rinner =    0.950   0.950   0.950
                                                       0.950   0.950

     PseudoPot. # 3 for Ni read from file:
     /home/pragov/projects/rrg-bengioy-ad/pragov/crystal_structure_design/SSSP/ni_pbe_v1.4.uspp.F.UPF
     MD5 check sum: 1ee80287db30b12d2bc1f57a5b5d6409
     Pseudo is Ultrasoft + core correction, Zval = 18.0
     Generated by new atomic code, or converted to UPF format
     Using radial grid of  865 points,  6 beta functions with:
                l(1) =   0
                l(2) =   0
                l(3) =   1
                l(4) =   1
                l(5) =   2
                l(6) =   2
     Q(r) pseudized with 10 coefficients,  rinner =    0.980   0.980   0.980
                                                       0.980   0.980

     PseudoPot. # 4 for O  read from file:
     /home/pragov/projects/rrg-bengioy-ad/pragov/crystal_structure_design/SSSP/O.pbe-n-kjpaw_psl.0.1.UPF
     MD5 check sum: 0234752ac141de4415c5fc33072bef88
     Pseudo is Projector augmented-wave + core cor, Zval =  6.0
     Generated using "atomic" code by A. Dal Corso  v.5.0.99 svn rev. 10869
     Shape of augmentation charge: BESSEL
     Using radial grid of 1095 points,  4 beta functions with:
                l(1) =   0
                l(2) =   0
                l(3) =   1
                l(4) =   1
     Q(r) pseudized with 0 coefficients

     atomic species   valence    mass     pseudopotential
        Li             3.00     6.94000     Li( 1.00)
        Mn            15.00    54.93804     Mn( 1.00)
        Ni            18.00    58.69340     Ni( 1.00)
        O              6.00    15.99900     O ( 1.00)

      2 Sym. Ops., with inversion, found

                                    s                        frac. trans.

      isym =  1     identity

 cryst.   s( 1) = (     1          0          0      )
                  (     0          1          0      )
                  (     0          0          1      )

 cart.    s( 1) = (  1.0000000  0.0000000 -0.0000000 )
                  (  0.0000000  1.0000000 -0.0000000 )
                  (  0.0000000  0.0000000  1.0000000 )

      isym =  2     inversion

 cryst.   s( 2) = (    -1          0          0      )
                  (     0         -1          0      )
                  (     0          0         -1      )

 cart.    s( 2) = ( -1.0000000 -0.0000000  0.0000000 )
                  (  0.0000000 -1.0000000  0.0000000 )
                  (  0.0000000  0.0000000 -1.0000000 )

   Cartesian axes

     site n.     atom                  positions (alat units)
         1           Li  tau(   1) = (   0.7515683   0.4321034   0.0000000  )
         2           Li  tau(   2) = (   0.5031366   0.5767390   0.4071780  )
         3           Li  tau(   3) = (   0.0000000   0.0000000   0.0000000  )
         4           Li  tau(   4) = (   0.7515683   0.1446356   0.4071780  )
         5           Mn  tau(   5) = (   1.0031366   0.5767390   0.4071780  )
         6           Ni  tau(   6) = (   0.2515683   0.1446356   0.4071780  )
         7           Ni  tau(   7) = (   0.5000000   0.0000000   0.0000000  )
         8           Ni  tau(   8) = (   0.2515683   0.4321034   0.0000000  )
         9           O   tau(   9) = (   0.7695503   0.4424419   0.6015526  )
        10           O   tau(  10) = (   1.2367230   0.7110362   0.2128034  )
        11           O   tau(  11) = (   1.0050526   0.3053337   0.2155657  )
        12           O   tau(  12) = (   1.0012207   0.8481444   0.5987903  )
        13           O   tau(  13) = (   0.4752400   0.2732324   0.1929022  )
        14           O   tau(  14) = (   1.5310333   0.8802457   0.6214538  )
        15           O   tau(  15) = (   0.7695503   0.7149488   0.2155657  )
        16           O   tau(  16) = (   1.2367230   0.4385293   0.5987903  )

   Crystallographic axes

     site n.     atom                  positions (cryst. coord.)
         1           Li  tau(   1) = (  0.5000000  0.5000000  0.0000000  )
         2           Li  tau(   2) = (  0.0000000  0.5000000  0.5000000  )
         3           Li  tau(   3) = (  0.0000000  0.0000000  0.0000000  )
         4           Li  tau(   4) = (  0.5000000  0.0000000  0.5000000  )
         5           Mn  tau(   5) = (  0.5000000  0.5000000  0.5000000  )
         6           Ni  tau(   6) = ( -0.0000000  0.0000000  0.5000000  )
         7           Ni  tau(   7) = (  0.5000000  0.0000000  0.0000000  )
         8           Ni  tau(   8) = ( -0.0000000  0.5000000  0.0000000  )
         9           O   tau(   9) = (  0.2647070  0.2647070  0.7386850  )
        10           O   tau(  10) = (  0.7352930  0.7352930  0.2613150  )
        11           O   tau(  11) = (  0.7386850  0.2647070  0.2647070  )
        12           O   tau(  12) = (  0.2613150  0.7352930  0.7352930  )
        13           O   tau(  13) = (  0.2368770  0.2368770  0.2368770  )
        14           O   tau(  14) = (  0.7631230  0.7631230  0.7631230  )
        15           O   tau(  15) = (  0.2647070  0.7386850  0.2647070  )
        16           O   tau(  16) = (  0.7352930  0.2613150  0.7352930  )

     number of k points=     1  Methfessel-Paxton smearing, width (Ry)=  0.0010
                       cart. coord. in units 2pi/alat
        k(    1) = (   0.0000000   0.0000000   0.0000000), wk =   2.0000000

                       cryst. coord.
        k(    1) = (   0.0000000   0.0000000   0.0000000), wk =   2.0000000

     Check: negative core charge=   -0.000022

     Initial potential from superposition of free atoms

     starting charge     120.6969, renormalised to     129.0000
     Starting wfcs are  104 randomized atomic wfcs
     Checking if some PAW data can be deallocated...

     Self-consistent Calculation

     iteration #  1     ecut=    30.00 Ry     beta= 0.70
     Davidson diagonalization with overlap

     ethr =  1.00E-02,  avg # of iterations =  5.0

     total energy              =   -1538.33949541 Ry
     estimated scf accuracy    <     127.87146989 Ry

[...]

     ethr =  9.45E-06,  avg # of iterations =  1.0

[...]

     ethr =  9.45E-06,  avg # of iterations =  1.0
     Minimization algorithm failed to find Fermi energy: reverting to bisection
     Possible cause: smearing is larger than the electronic band-gap.

[...]

     total energy              =   -1631.76557404 Ry
     estimated scf accuracy    <       0.00000103 Ry

     iteration # 40     ecut=    30.00 Ry     beta= 0.70
     Davidson diagonalization with overlap

     ethr =  8.01E-10,  avg # of iterations =  1.0
     Minimization algorithm failed to find Fermi energy: reverting to bisection
     Possible cause: smearing is larger than the electronic band-gap.

     End of self-consistent calculation

          k = 0.0000 0.0000 0.0000 (  1343 PWs)   bands (ev):

   -94.3662 -94.3646 -94.3645 -69.1707 -54.8878 -54.8794 -54.8794 -54.7377
   -54.7377 -54.7269 -54.4742 -54.4597 -54.4596 -37.9515 -37.9226 -37.9226
   -35.6817 -35.3324 -35.3142 -35.3142 -10.0692  -8.8296  -8.8296  -8.8016
    -8.7164  -8.7164  -8.5353  -8.4993   2.6837   2.6837   2.8775   3.1354
     3.5888   3.5915   3.5916   4.8713   4.8714   5.0812   5.0812   5.2125
     5.4605   5.5588   5.5589   6.0291   6.0582   6.0582   6.2736   6.2736
     6.4429   7.4541   7.4874   7.4874   7.6411   7.6411   7.8349   7.8349
     7.8835   8.3081   8.3138   8.4047   8.4047   9.9613   9.9613  10.0421
    10.0859  10.0859  10.0876  10.9327  11.0596  11.0596  12.9455  12.9455
    14.0615  16.3201  16.3344  16.3344  16.5309  18.9837

     occupation numbers
     1.0000   1.0000   1.0000   1.0000   1.0000   1.0000   1.0000   1.0000
     1.0000   1.0000   1.0000   1.0000   1.0000   1.0000   1.0000   1.0000
     1.0000   1.0000   1.0000   1.0000   1.0000   1.0000   1.0000   1.0000
     1.0000   1.0000   1.0000   1.0000   1.0000   1.0000   1.0000   1.0000
     1.0000   1.0000   1.0000   1.0000   1.0000   1.0000   1.0000   1.0000
     1.0000   1.0000   1.0000   1.0000   1.0000   1.0000   1.0000   1.0000
     1.0000   1.0000   1.0000   1.0000   1.0000   1.0000   1.0000   1.0000
     1.0000   1.0000   1.0000   1.0000   1.0000   1.0000   1.0000   1.0002
     0.1913   0.1906   0.1178  -0.0000  -0.0000  -0.0000  -0.0000  -0.0000
    -0.0000  -0.0000  -0.0000  -0.0000  -0.0000  -0.0000

     the Fermi energy is    10.0805 ev

!    total energy              =   -1631.76557325 Ry
     estimated scf accuracy    <       0.00000088 Ry
     smearing contrib. (-TS)   =      -0.00042503 Ry
     internal energy E=F+TS    =   -1631.76514821 Ry

     The total energy is F=E-TS. E is the sum of the following terms:
     one-electron contribution =   -1117.12812022 Ry
     hartree contribution      =     617.97966634 Ry
     xc contribution           =    -206.04065651 Ry
     ewald contribution        =    -850.41336838 Ry
     one-center paw contrib.   =     -76.16266944 Ry
      -> PAW hartree energy AE =     230.09383427 Ry
      -> PAW hartree energy PS =    -229.25148834 Ry
      -> PAW xc energy AE      =    -136.28287205 Ry
      -> PAW xc energy PS      =      59.27785667 Ry
      -> total E_H with PAW    =     618.82201228 Ry
      -> total E_XC with PAW   =    -283.04567189 Ry

     convergence has been achieved in  40 iterations

     Forces acting on atoms (cartesian axes, Ry/au):

     atom    1 type  1   force =     0.00000000    0.00000000    0.00000000
     atom    2 type  1   force =     0.00000000    0.00000000    0.00000000
     atom    3 type  1   force =     0.00000000    0.00000000    0.00000000
     atom    4 type  1   force =     0.00000000    0.00000000    0.00000000
     atom    5 type  2   force =     0.00000000    0.00000000    0.00000000
     atom    6 type  3   force =     0.00000000    0.00000000    0.00000000
     atom    7 type  3   force =     0.00000000    0.00000000    0.00000000
     atom    8 type  3   force =     0.00000000    0.00000000    0.00000000
     atom    9 type  4   force =     0.05172532    0.02981024    0.02864424
     atom   10 type  4   force =    -0.05172532   -0.02981024   -0.02864424
     atom   11 type  4   force =     0.05791780    0.02619489    0.01837657
     atom   12 type  4   force =    -0.05791780   -0.02619489   -0.01837657
     atom   13 type  4   force =    -0.00735021   -0.00421239   -0.00300329
     atom   14 type  4   force =     0.00735021    0.00421239    0.00300329
     atom   15 type  4   force =     0.05171002    0.03682885    0.01841026
     atom   16 type  4   force =    -0.05171002   -0.03682885   -0.01841026
     The non-local contrib.  to forces
     atom    1 type  1   force =     0.00000000    0.00000000    0.00000000
     atom    2 type  1   force =     0.00000000    0.00000000    0.00000000
     atom    3 type  1   force =     0.00000000    0.00000000    0.00000000
     atom    4 type  1   force =     0.00000000    0.00000000    0.00000000
     atom    5 type  2   force =     0.00000000    0.00000000    0.00000000
     atom    6 type  3   force =     0.00000000    0.00000000    0.00000000
     atom    7 type  3   force =     0.00000000    0.00000000    0.00000000
     atom    8 type  3   force =     0.00000000    0.00000000    0.00000000
     atom    9 type  4   force =     0.47080661    0.27090340    0.28084058
     atom   10 type  4   force =    -0.47080661   -0.27090340   -0.28084058
     atom   11 type  4   force =     0.54379813    0.22837485    0.16090475
     atom   12 type  4   force =    -0.54379813   -0.22837485   -0.16090475
     atom   13 type  4   force =    -0.48482003   -0.27872676   -0.19681632
     atom   14 type  4   force =     0.48482003    0.27872676    0.19681632
     atom   15 type  4   force =     0.47083628    0.35496573    0.16101492
     atom   16 type  4   force =    -0.47083628   -0.35496573   -0.16101492
     The ionic contribution  to forces
     atom    1 type  1   force =    -0.00000000   -0.00000000    0.00000000
     atom    2 type  1   force =     0.00000000    0.00000000    0.00000000
     atom    3 type  1   force =     0.00000000    0.00000000   -0.00000000
     atom    4 type  1   force =    -0.00000000   -0.00000000   -0.00000000
     atom    5 type  2   force =    -0.00000000    0.00000000   -0.00000000
     atom    6 type  3   force =     0.00000000   -0.00000000   -0.00000000
     atom    7 type  3   force =     0.00000000   -0.00000000    0.00000000
     atom    8 type  3   force =    -0.00000000   -0.00000000    0.00000000
     atom    9 type  4   force =   -13.89107309   -7.98647348   -5.66717337
     atom   10 type  4   force =    13.89107308    7.98647348    5.66717337
     atom   11 type  4   force =   -13.91446125   -7.97285702   -5.62884035
     atom   12 type  4   force =    13.91446125    7.97285702    5.62884035
     atom   13 type  4   force =    14.79530287    8.50634744    6.00548483
     atom   14 type  4   force =   -14.79530287   -8.50634744   -6.00548483
     atom   15 type  4   force =   -13.89107309   -8.01353663   -5.62884035
     atom   16 type  4   force =    13.89107309    8.01353663    5.62884035
     The local contribution  to forces
     atom    1 type  1   force =    -0.00000943    0.00000512   -0.00001662
     atom    2 type  1   force =    -0.00001405    0.00000810   -0.00000252
     atom    3 type  1   force =    -0.00001162   -0.00001542   -0.00000410
     atom    4 type  1   force =    -0.00001051   -0.00002229    0.00000455
     atom    5 type  2   force =     0.00007800    0.00011823    0.00002955
     atom    6 type  3   force =     0.00005783   -0.00004527    0.00010970
     atom    7 type  3   force =     0.00008519   -0.00005876    0.00001565
     atom    8 type  3   force =     0.00005073    0.00014174   -0.00003898
     atom    9 type  4   force =    13.47682660    7.74778477    5.41880943
     atom   10 type  4   force =   -13.47682632   -7.74777594   -5.41881749
     atom   11 type  4   force =    13.43509028    7.77209186    5.48800271
     atom   12 type  4   force =   -13.43509624   -7.77208600   -5.48800505
     atom   13 type  4   force =   -14.32308836   -8.23522466   -5.81334670
     atom   14 type  4   force =    14.32310607    8.23522597    5.81335326
     atom   15 type  4   force =    13.47669558    7.70049814    5.48765457
     atom   16 type  4   force =   -13.47668461   -7.70049411   -5.48764699
     The core correction contribution to forces
     atom    1 type  1   force =     0.00000000    0.00000000    0.00000000
     atom    2 type  1   force =     0.00000000    0.00000000    0.00000000
     atom    3 type  1   force =     0.00000000    0.00000000    0.00000000
     atom    4 type  1   force =     0.00000000    0.00000000    0.00000000
     atom    5 type  2   force =     0.00000030    0.00000051    0.00000008
     atom    6 type  3   force =     0.00000010   -0.00000003    0.00000016
     atom    7 type  3   force =     0.00000015   -0.00000007    0.00000004
     atom    8 type  3   force =     0.00000014    0.00000023   -0.00000003
     atom    9 type  4   force =    -0.00493464   -0.00283992   -0.00389152
     atom   10 type  4   force =     0.00493445    0.00283988    0.00389134
     atom   11 type  4   force =    -0.00647153   -0.00194472   -0.00136887
     atom   12 type  4   force =     0.00647127    0.00194469    0.00136885
     atom   13 type  4   force =     0.00523357    0.00300903    0.00212436
     atom   14 type  4   force =    -0.00523349   -0.00300900   -0.00212432
     atom   15 type  4   force =    -0.00493518   -0.00461331   -0.00137026
     atom   16 type  4   force =     0.00493518    0.00461325    0.00137029
     The Hubbard contrib.    to forces
     atom    1 type  1   force =     0.00000000    0.00000000    0.00000000
     atom    2 type  1   force =     0.00000000    0.00000000    0.00000000
     atom    3 type  1   force =     0.00000000    0.00000000    0.00000000
     atom    4 type  1   force =     0.00000000    0.00000000    0.00000000
     atom    5 type  2   force =     0.00000000    0.00000000    0.00000000
     atom    6 type  3   force =     0.00000000    0.00000000    0.00000000
     atom    7 type  3   force =     0.00000000    0.00000000    0.00000000
     atom    8 type  3   force =     0.00000000    0.00000000    0.00000000
     atom    9 type  4   force =     0.00000000    0.00000000    0.00000000
     atom   10 type  4   force =     0.00000000    0.00000000    0.00000000
     atom   11 type  4   force =     0.00000000    0.00000000    0.00000000
     atom   12 type  4   force =     0.00000000    0.00000000    0.00000000
     atom   13 type  4   force =     0.00000000    0.00000000    0.00000000
     atom   14 type  4   force =     0.00000000    0.00000000    0.00000000
     atom   15 type  4   force =     0.00000000    0.00000000    0.00000000
     atom   16 type  4   force =     0.00000000    0.00000000    0.00000000
     The SCF correction term to forces
     atom    1 type  1   force =     0.00000806   -0.00000439    0.00001480
     atom    2 type  1   force =     0.00001264   -0.00000716    0.00000213
     atom    3 type  1   force =     0.00001105    0.00001421    0.00000376
     atom    4 type  1   force =     0.00000935    0.00002000   -0.00000411
     atom    5 type  2   force =    -0.00007934   -0.00011936   -0.00002787
     atom    6 type  3   force =    -0.00005753    0.00004708   -0.00011402
     atom    7 type  3   force =    -0.00009122    0.00006618   -0.00001610
     atom    8 type  3   force =    -0.00004587   -0.00014701    0.00004098
     atom    9 type  4   force =     0.00009777    0.00043558    0.00005529
     atom   10 type  4   force =    -0.00010200   -0.00044416   -0.00005471
     atom   11 type  4   force =    -0.00004449    0.00052899   -0.00032143
     atom   12 type  4   force =     0.00003740   -0.00053668    0.00032428
     atom   13 type  4   force =     0.00002331    0.00038297   -0.00044975
     atom   14 type  4   force =    -0.00003795   -0.00038351    0.00044258
     atom   15 type  4   force =     0.00018682   -0.00048656   -0.00004780
     atom   16 type  4   force =    -0.00019699    0.00047963    0.00004184

     Total force =     0.162561     Total SCF correction =     0.001585

     Computing stress (Cartesian axis) and pressure

          total   stress  (Ry/bohr**3)                   (kbar)     P=     -910.71
  -0.00641080  -0.00025191  -0.00017813         -943.06      -37.06      -26.20
  -0.00025191  -0.00611723  -0.00010236          -37.06     -899.88      -15.06
  -0.00017813  -0.00010236  -0.00604467          -26.20      -15.06     -889.20

     kinetic stress (kbar)  34241.13     52.24     37.29
                               52.24  34180.06     21.23
                               37.29     21.23  34164.89

     local   stress (kbar)  11456.29  40371.64  28501.43
                            40371.64 -35551.40  16386.96
                            28501.43  16386.96 -47193.07

     nonloc. stress (kbar)  10552.31    -57.08    -40.04
                              -57.08  10618.61    -23.15
                              -40.04    -23.15  10635.02

     hartree stress (kbar)  15567.91 -18562.48 -13104.86
                           -18562.48  37181.68  -7534.58
                           -13104.86  -7534.58  42534.47

     exc-cor stress (kbar)  -8095.96     -3.30     -2.33
                               -3.30  -8092.11     -1.34
                               -2.33     -1.34  -8091.16

     corecor stress (kbar)  -1905.91      0.34      0.24
                                0.34  -1906.31      0.14
                                0.24      0.14  -1906.40

     ewald   stress (kbar) -62758.83 -21838.42 -15417.93
                           -21838.42 -37330.41  -8864.32
                           -15417.93  -8864.32 -31032.94

     hubbard stress (kbar)      0.00      0.00      0.00
                                0.00      0.00      0.00
                                0.00      0.00      0.00

     DFT-D   stress (kbar)      0.00      0.00      0.00
                                0.00      0.00      0.00
                                0.00      0.00      0.00

     XDM     stress (kbar)      0.00      0.00      0.00
                                0.00      0.00      0.00
                                0.00      0.00      0.00

     dft-nl  stress (kbar)      0.00      0.00      0.00
                                0.00      0.00      0.00
                                0.00      0.00      0.00

     TS-vdW  stress (kbar)      0.00      0.00      0.00
                                0.00      0.00      0.00
                                0.00      0.00      0.00

[...]

                                0.00      0.00      0.00

     Writing all to output data dir new_calculations/myprefix.save/

     General routines

     Parallel routines

     PAW routines

   This run was terminated on:  20:41:35  20May2023

   JOB DONE.