     Program PWSCF v.7.0 starts on 21May2023 at 19:56: 8

     Reading input from espresso_20854.pwi
Warning: card &CELL ignored
Warning: card / ignored

     Current dimensions of program PWSCF are:
     Max number of different atomic species (ntypx) = 10
     Max number of k-points (npk) =  40000
     Max angular momentum in pseudopotentials (lmaxx) =  4
     file Nb.pbe-spn-kjpaw_psl.0.3.0.UPF: wavefunction(s)  4S 4P renormalized
     file O.pbe-n-kjpaw_psl.0.1.UPF: wavefunction(s)  2P renormalized

     gamma-point specific algorithms are used
     Message from routine setup:
     using ibrav=0 with symmetry is DISCOURAGED, use correct ibrav instead

     Subspace diagonalization in iterative solution of the eigenvalue problem:
     a serial algorithm will be used

     Using Slab Decomposition

     bravais-lattice index     =            0
     lattice parameter (alat)  =      16.1274  a.u.
     unit-cell volume          =    1524.8347 (a.u.)^3
     number of atoms/cell      =           17
     number of atomic types    =            4
     number of electrons       =       106.00
     number of Kohn-Sham states=           64
     kinetic-energy cutoff     =      30.0000  Ry
     charge density cutoff     =     240.0000  Ry
     scf convergence threshold =      1.0E-06
     mixing beta               =       0.7000
     number of iterations used =            8  plain     mixing
     Exchange-correlation= SLA  PW   PBX  PBC
                           (   1   4   3   4   0   0   0)

     celldm(1)=  16.127405  celldm(2)=   0.000000  celldm(3)=   0.000000
     celldm(4)=   0.000000  celldm(5)=   0.000000  celldm(6)=   0.000000

     crystal axes: (cart. coord. in units of alat)
               a(1) = (   1.000000   0.000000   0.000000 )
               a(2) = (   0.000000   0.586371   0.000000 )
               a(3) = (   0.000000   0.011049   0.619950 )

     reciprocal axes: (cart. coord. in units 2 pi/alat)
               b(1) = (  1.000000  0.000000  0.000000 )
               b(2) = (  0.000000  1.705405 -0.030394 )
               b(3) = (  0.000000  0.000000  1.613033 )

     PseudoPot. # 1 for Li read from file:
     /home/pragov/projects/rrg-bengioy-ad/pragov/crystal_structure_design/SSSP/li_pbe_v1.4.uspp.F.UPF
     MD5 check sum: e912e257baa3777c20ea3d68f190483c
     Pseudo is Ultrasoft, Zval =  3.0
     Generated by new atomic code, or converted to UPF format
     Using radial grid of  751 points,  5 beta functions with:
                l(1) =   0
                l(2) =   0
                l(3) =   0
                l(4) =   1
                l(5) =   1
     Q(r) pseudized with 10 coefficients,  rinner =    1.150   1.150   1.150

     PseudoPot. # 2 for Nb read from file:
     /home/pragov/projects/rrg-bengioy-ad/pragov/crystal_structure_design/SSSP/Nb.pbe-spn-kjpaw_psl.0.3.0.UPF
     MD5 check sum: 411d72ad547312f8017e2943ceca08cc
     Pseudo is Projector augmented-wave + core cor, Zval = 13.0
     Generated using "atomic" code by A. Dal Corso  v.5.0.99 svn rev. 10869
     Shape of augmentation charge: PSQ
     Using radial grid of 1227 points,  6 beta functions with:
                l(1) =   0
                l(2) =   0
                l(3) =   1
                l(4) =   1
                l(5) =   2
                l(6) =   2
     Q(r) pseudized with 0 coefficients

     PseudoPot. # 3 for Te read from file:
     /home/pragov/projects/rrg-bengioy-ad/pragov/crystal_structure_design/SSSP/Te_pbe_v1.uspp.F.UPF
     MD5 check sum: c319670d6894cc26e93307826a071b75
     Pseudo is Ultrasoft + core correction, Zval =  6.0
     Generated by new atomic code, or converted to UPF format
     Using radial grid of  891 points,  5 beta functions with:
                l(1) =   0
                l(2) =   0
                l(3) =   1
                l(4) =   1
                l(5) =   2
     Q(r) pseudized with  6 coefficients,  rinner =    1.800   1.800   1.800
                                                       1.800   1.800

     PseudoPot. # 4 for O  read from file:
     /home/pragov/projects/rrg-bengioy-ad/pragov/crystal_structure_design/SSSP/O.pbe-n-kjpaw_psl.0.1.UPF
     MD5 check sum: 0234752ac141de4415c5fc33072bef88
     Pseudo is Projector augmented-wave + core cor, Zval =  6.0
     Generated using "atomic" code by A. Dal Corso  v.5.0.99 svn rev. 10869
     Shape of augmentation charge: BESSEL
     Using radial grid of 1095 points,  4 beta functions with:
                l(1) =   0
                l(2) =   0
                l(3) =   1
                l(4) =   1
     Q(r) pseudized with 0 coefficients

     atomic species   valence    mass     pseudopotential
        Li             3.00     6.94000     Li( 1.00)
        Nb            13.00    92.90637     Nb( 1.00)
        Te             6.00   127.60000     Te( 1.00)
        O              6.00    15.99900     O ( 1.00)

      2 Sym. Ops. (no inversion) found

                                    s                        frac. trans.

      isym =  1     identity

 cryst.   s( 1) = (     1          0          0      )
                  (     0          1          0      )
                  (     0          0          1      )

 cart.    s( 1) = (  1.0000000  0.0000000  0.0000000 )
                  (  0.0000000  1.0000000 -0.0000000 )
                  (  0.0000000  0.0000000  1.0000000 )

      isym =  2     180 deg rotation - cart. axis [1,0,0]

 cryst.   s( 2) = (     1          0          0      )
                  (     0         -1          0      )
                  (     0          0         -1      )

 cart.    s( 2) = (  1.0000000  0.0000000  0.0000000 )
                  (  0.0000000 -1.0000000  0.0000000 )
                  (  0.0000000  0.0000000 -1.0000000 )

   Cartesian axes

     site n.     atom                  positions (alat units)
         1           Li  tau(   1) = (   0.8014300   0.2987099   0.3099751  )
         2           Nb  tau(   2) = (   0.8981800   0.0000000   0.0000000  )
         3           Te  tau(   3) = (   0.5774380   0.2931855   0.0000000  )
         4           Te  tau(   4) = (   0.3950210   0.2987099   0.3099751  )
         5           Te  tau(   5) = (   0.0869770   0.0055244   0.3099751  )
         6           O   tau(   6) = (   0.7402300   0.1665077   0.5441253  )
         7           O   tau(   7) = (   0.4159480   0.1792710   0.5062085  )
         8           O   tau(   8) = (   0.0671980   0.1251740   0.4986656  )
         9           O   tau(   9) = (   0.5682790   0.4191742   0.4196486  )
        10           O   tau(  10) = (   0.9244970   0.4679714   0.4194161  )
        11           O   tau(  11) = (   0.2471830   0.4474138   0.3955946  )
        12           O   tau(  12) = (   0.2471830   0.1500060   0.2243556  )
        13           O   tau(  13) = (   0.9244970   0.1294484   0.2005340  )
        14           O   tau(  14) = (   0.5682790   0.1782456   0.2003016  )
        15           O   tau(  15) = (   0.0671980   0.4722458   0.1212846  )
        16           O   tau(  16) = (   0.4159480   0.4181488   0.1137416  )
        17           O   tau(  17) = (   0.7402300   0.4309121   0.0758249  )

   Crystallographic axes

     site n.     atom                  positions (cryst. coord.)
         1           Li  tau(   1) = (  0.8014300  0.5000000  0.5000000  )
         2           Nb  tau(   2) = (  0.8981800  0.0000000  0.0000000  )
         3           Te  tau(   3) = (  0.5774380  0.5000000  0.0000000  )
         4           Te  tau(   4) = (  0.3950210  0.5000000  0.5000000  )
         5           Te  tau(   5) = (  0.0869770 -0.0000000  0.5000000  )
         6           O   tau(   6) = (  0.7402300  0.2674250  0.8776920  )
         7           O   tau(   7) = (  0.4159480  0.2903440  0.8165310  )
         8           O   tau(   8) = (  0.0671980  0.1983160  0.8043640  )
         9           O   tau(   9) = (  0.5682790  0.7021070  0.6769070  )
        10           O   tau(  10) = (  0.9244970  0.7853330  0.6765320  )
        11           O   tau(  11) = (  0.2471830  0.7509980  0.6381070  )
        12           O   tau(  12) = (  0.2471830  0.2490020  0.3618930  )
        13           O   tau(  13) = (  0.9244970  0.2146670  0.3234680  )
        14           O   tau(  14) = (  0.5682790  0.2978930  0.3230930  )
        15           O   tau(  15) = (  0.0671980  0.8016840  0.1956360  )
        16           O   tau(  16) = (  0.4159480  0.7096560  0.1834690  )
        17           O   tau(  17) = (  0.7402300  0.7325750  0.1223080  )

     number of k points=     1  Methfessel-Paxton smearing, width (Ry)=  0.0010
                       cart. coord. in units 2pi/alat
        k(    1) = (   0.0000000   0.0000000   0.0000000), wk =   2.0000000

                       cryst. coord.
        k(    1) = (   0.0000000   0.0000000   0.0000000), wk =   2.0000000

     Check: negative core charge=   -0.000011

     Initial potential from superposition of free atoms

     starting charge     105.5465, renormalised to     106.0000
     Starting wfcs are   75 randomized atomic wfcs
     Checking if some PAW data can be deallocated...

     Self-consistent Calculation

     iteration #  1     ecut=    30.00 Ry     beta= 0.70
     Davidson diagonalization with overlap

     ethr =  1.00E-02,  avg # of iterations =  2.0

     total energy              =    -924.35119996 Ry
     estimated scf accuracy    <       5.64282070 Ry

[...]

     total energy              =    -927.12033309 Ry
     estimated scf accuracy    <       0.00000405 Ry

     iteration # 12     ecut=    30.00 Ry     beta= 0.70
     Davidson diagonalization with overlap

     ethr =  3.82E-09,  avg # of iterations =  2.0

     End of self-consistent calculation

          k = 0.0000 0.0000 0.0000 (  2126 PWs)   bands (ev):

   -50.3029 -38.1573 -26.4968 -26.3708 -26.3548 -15.9537 -14.6228 -13.7081
   -13.6478 -13.0991 -12.7852 -12.6658 -12.5642 -12.3703 -12.1675 -11.6647
   -11.5395  -7.1461  -4.8885  -3.2970  -1.7423  -1.5179  -1.1385  -1.0215
    -0.7461  -0.1119   0.1803   0.8819   1.0362   1.1028   1.6301   1.7592
     1.7729   1.9695   2.0228   2.4841   2.6695   2.8420   3.0933   3.1721
     3.1847   3.3587   3.4469   3.5013   3.6412   3.7828   3.8821   3.9968
     3.9984   4.2197   4.2747   4.4087   4.7097   6.2406   7.3679   8.2292
     8.4478   8.6850   9.4542  10.6960  11.1999  11.4179  11.9187  12.1686

     occupation numbers
     1.0000   1.0000   1.0000   1.0000   1.0000   1.0000   1.0000   1.0000
     1.0000   1.0000   1.0000   1.0000   1.0000   1.0000   1.0000   1.0000
     1.0000   1.0000   1.0000   1.0000   1.0000   1.0000   1.0000   1.0000
     1.0000   1.0000   1.0000   1.0000   1.0000   1.0000   1.0000   1.0000
     1.0000   1.0000   1.0000   1.0000   1.0000   1.0000   1.0000   1.0000
     1.0000   1.0000   1.0000   1.0000   1.0000   1.0000   1.0000   1.0000
     1.0000   1.0000   1.0000   1.0000   1.0000  -0.0000  -0.0000  -0.0000
    -0.0000  -0.0000  -0.0000  -0.0000  -0.0000  -0.0000  -0.0000  -0.0000

     the Fermi energy is     5.4420 ev

!    total energy              =    -927.12033344 Ry
     estimated scf accuracy    <       0.00000076 Ry
     smearing contrib. (-TS)   =       0.00000000 Ry
     internal energy E=F+TS    =    -927.12033344 Ry

     The total energy is F=E-TS. E is the sum of the following terms:
     one-electron contribution =    -234.79740779 Ry
     hartree contribution      =     175.35108359 Ry
     xc contribution           =    -164.97752613 Ry
     ewald contribution        =    -379.84581572 Ry
     one-center paw contrib.   =    -322.85066739 Ry
      -> PAW hartree energy AE =     419.23556927 Ry
      -> PAW hartree energy PS =    -417.66235942 Ry
      -> PAW xc energy AE      =    -441.45593182 Ry
      -> PAW xc energy PS      =     117.03205458 Ry
      -> total E_H with PAW    =     176.92429344 Ry
      -> total E_XC with PAW   =    -489.40140337 Ry

     convergence has been achieved in  12 iterations

     Forces acting on atoms (cartesian axes, Ry/au):

     atom    1 type  1   force =     0.00788901    0.00000000    0.00000000
     atom    2 type  2   force =     0.01592267    0.00000000    0.00000000
     atom    3 type  3   force =    -0.01227955    0.00000000    0.00000000
     atom    4 type  3   force =    -0.00437782    0.00000000    0.00000000
     atom    5 type  3   force =     0.00266215    0.00000000    0.00000000
     atom    6 type  4   force =     0.04859053   -0.04859137   -0.00755661
     atom    7 type  4   force =    -0.03893457   -0.03516345    0.01760516
     atom    8 type  4   force =    -0.00817229    0.01996985    0.04938046
     atom    9 type  4   force =     0.04043492    0.03193567   -0.01632237
     atom   10 type  4   force =    -0.04281225   -0.00827035    0.01364640
     atom   11 type  4   force =    -0.00401457    0.00671545    0.04041570
     atom   12 type  4   force =    -0.00401457   -0.00671545   -0.04041570
     atom   13 type  4   force =    -0.04281225    0.00827035   -0.01364640
     atom   14 type  4   force =     0.04043492   -0.03193567    0.01632237
     atom   15 type  4   force =    -0.00817229   -0.01996985   -0.04938046
     atom   16 type  4   force =    -0.03893457    0.03516345   -0.01760516
     atom   17 type  4   force =     0.04859053    0.04859137    0.00755661
     The non-local contrib.  to forces
     atom    1 type  1   force =    -0.05943426    0.00000000    0.00000000
     atom    2 type  2   force =     0.03766710    0.00000000    0.00000000
     atom    3 type  3   force =     0.01485439    0.00000000    0.00000000
     atom    4 type  3   force =    -0.02286092    0.00000000    0.00000000
     atom    5 type  3   force =    -0.13038470    0.00000000    0.00000000
     atom    6 type  4   force =    -0.47206381    0.34650783    0.74865589
     atom    7 type  4   force =     0.85902499    1.40257132   -0.54724662
     atom    8 type  4   force =    -0.51655706   -1.15942836   -0.81554777
     atom    9 type  4   force =    -0.75085824   -1.27588627    0.58229572
     atom   10 type  4   force =     0.73378346    0.87569964   -0.03801159
     atom   11 type  4   force =     0.07809100   -0.13821205   -1.47618880
     atom   12 type  4   force =     0.07809100    0.13821205    1.47618880
     atom   13 type  4   force =     0.73378346   -0.87569964    0.03801159
     atom   14 type  4   force =    -0.75085824    1.27588627   -0.58229572
     atom   15 type  4   force =    -0.51655706    1.15942836    0.81554777
     atom   16 type  4   force =     0.85902499   -1.40257132    0.54724662
     atom   17 type  4   force =    -0.47206381   -0.34650783   -0.74865589
     The ionic contribution  to forces
     atom    1 type  1   force =    -0.57464285    0.00000000    0.00000000
     atom    2 type  2   force =    -1.54877479    0.00000000   -0.00000000
     atom    3 type  3   force =    -2.67874895    0.00000000   -0.00000000
     atom    4 type  3   force =    -1.11421472    0.00000000    0.00000000
     atom    5 type  3   force =     4.07327888    0.00000000    0.00000000
     atom    6 type  4   force =    -4.10702273    1.43967609   -4.23241803
     atom    7 type  4   force =    -3.41108463   -5.54684418    2.22217932
     atom    8 type  4   force =     7.80615704    7.44157995    0.54086664
     atom    9 type  4   force =     0.20661909    5.79699282   -2.12332830
     atom   10 type  4   force =    -1.17763914   -6.40587889   -3.73076729
     atom   11 type  4   force =     1.60452159    0.10917356    3.74779805
     atom   12 type  4   force =     1.60452159   -0.10917356   -3.74779805
     atom   13 type  4   force =    -1.17763914    6.40587889    3.73076729
     atom   14 type  4   force =     0.20661909   -5.79699282    2.12332830
     atom   15 type  4   force =     7.80615704   -7.44157995   -0.54086664
     atom   16 type  4   force =    -3.41108463    5.54684418   -2.22217932
     atom   17 type  4   force =    -4.10702273   -1.43967609    4.23241803
     The local contribution  to forces
     atom    1 type  1   force =     0.64187588   -0.00000461    0.00001388
     atom    2 type  2   force =     1.53115345    0.00003739   -0.00011140
     atom    3 type  3   force =     2.65066205   -0.00000674   -0.00001786
     atom    4 type  3   force =     1.13593647    0.00001970   -0.00001342
     atom    5 type  3   force =    -3.92608422    0.00001490    0.00003701
     atom    6 type  4   force =     4.62194045   -1.83048360    3.48378269
     atom    7 type  4   force =     2.52281612    4.12320616   -1.66222137
     atom    8 type  4   force =    -7.30297536   -6.27324105    0.31576437
     atom    9 type  4   force =     0.57769138   -4.50178490    1.53119303
     atom   10 type  4   force =     0.40823300    5.53009405    3.78174394
     atom   11 type  4   force =    -1.68597467    0.03449918   -2.24681443
     atom   12 type  4   force =    -1.68597149   -0.03452345    2.24682391
     atom   13 type  4   force =     0.40823068   -5.53006703   -3.78173623
     atom   14 type  4   force =     0.57769910    4.50176057   -1.53113943
     atom   15 type  4   force =    -7.30298142    6.27322317   -0.31576738
     atom   16 type  4   force =     2.52284169   -4.12323203    1.66222098
     atom   17 type  4   force =     4.62191804    1.83050240   -3.48380654
     The core correction contribution to forces
     atom    1 type  1   force =     0.00000000    0.00000000    0.00000000
     atom    2 type  2   force =    -0.00525630    0.00000050   -0.00000239
     atom    3 type  3   force =     0.00168040    0.00000084    0.00000021
     atom    4 type  3   force =    -0.00283046   -0.00000114    0.00000103
     atom    5 type  3   force =    -0.01466829   -0.00000021   -0.00000158
     atom    6 type  4   force =     0.00546335   -0.00396190   -0.00740482
     atom    7 type  4   force =    -0.00892354   -0.01410797    0.00548750
     atom    8 type  4   force =     0.00462205    0.01105671    0.00841515
     atom    9 type  4   force =     0.00785527    0.01258880   -0.00590156
     atom   10 type  4   force =    -0.00781692   -0.00821927    0.00084289
     atom   11 type  4   force =    -0.00084173    0.00135900    0.01596815
     atom   12 type  4   force =    -0.00084157   -0.00135923   -0.01596813
     atom   13 type  4   force =    -0.00781702    0.00821941   -0.00084312
     atom   14 type  4   force =     0.00785550   -0.01258908    0.00590191
     atom   15 type  4   force =     0.00462199   -0.01105711   -0.00841507
     atom   16 type  4   force =    -0.00892325    0.01410750   -0.00548740
     atom   17 type  4   force =     0.00546337    0.00396210    0.00740509
     The Hubbard contrib.    to forces
     atom    1 type  1   force =     0.00000000    0.00000000    0.00000000
     atom    2 type  2   force =     0.00000000    0.00000000    0.00000000
     atom    3 type  3   force =     0.00000000    0.00000000    0.00000000
     atom    4 type  3   force =     0.00000000    0.00000000    0.00000000
     atom    5 type  3   force =     0.00000000    0.00000000    0.00000000
     atom    6 type  4   force =     0.00000000    0.00000000    0.00000000
     atom    7 type  4   force =     0.00000000    0.00000000    0.00000000
     atom    8 type  4   force =     0.00000000    0.00000000    0.00000000
     atom    9 type  4   force =     0.00000000    0.00000000    0.00000000
     atom   10 type  4   force =     0.00000000    0.00000000    0.00000000
     atom   11 type  4   force =     0.00000000    0.00000000    0.00000000
     atom   12 type  4   force =     0.00000000    0.00000000    0.00000000
     atom   13 type  4   force =     0.00000000    0.00000000    0.00000000
     atom   14 type  4   force =     0.00000000    0.00000000    0.00000000
     atom   15 type  4   force =     0.00000000    0.00000000    0.00000000
     atom   16 type  4   force =     0.00000000    0.00000000    0.00000000
     atom   17 type  4   force =     0.00000000    0.00000000    0.00000000
     The SCF correction term to forces
     atom    1 type  1   force =     0.00008719    0.00000307   -0.00001349
     atom    2 type  2   force =     0.00113015   -0.00004095    0.00010127
     atom    3 type  3   force =    -0.00073049   -0.00000329    0.00001810
     atom    4 type  3   force =    -0.00041125   -0.00000965    0.00000109
     atom    5 type  3   force =     0.00051743   -0.00001348   -0.00002441
     atom    6 type  4   force =     0.00026658   -0.00031952   -0.00015859
     atom    7 type  4   force =    -0.00077797   -0.00000030   -0.00059077
     atom    8 type  4   force =     0.00058095   -0.00000636   -0.00011240
     atom    9 type  4   force =    -0.00088176    0.00001563   -0.00057356
     atom   10 type  4   force =     0.00062867    0.00003508   -0.00016998
     atom   11 type  4   force =     0.00018278   -0.00011197   -0.00034980
     atom   12 type  4   force =     0.00018625    0.00012102    0.00033524
     atom   13 type  4   force =     0.00062234   -0.00006033    0.00014564
     atom   14 type  4   force =    -0.00087747   -0.00001021    0.00053503
     atom   15 type  4   force =     0.00058115    0.00000674    0.00012639
     atom   16 type  4   force =    -0.00078901    0.00000361    0.00059686
     atom   17 type  4   force =     0.00029623    0.00032107    0.00020966

     Total force =     0.188125     Total SCF correction =     0.002944

     Computing stress (Cartesian axis) and pressure

          total   stress  (Ry/bohr**3)                   (kbar)     P=     -291.43
  -0.00176569   0.00000000   0.00000000         -259.74        0.00        0.00
   0.00000000  -0.00223878   0.00010657            0.00     -329.34       15.68
   0.00000000   0.00010657  -0.00193890            0.00       15.68     -285.22

     kinetic stress (kbar)  17133.58      0.00      0.00
                                0.00  17288.34      0.13
                                0.00      0.13  16867.98

     local   stress (kbar)  -6908.81      0.01      0.01
                                0.01  -5654.11   -350.91
                                0.01   -350.91 -11914.57

     nonloc. stress (kbar)   1324.40      0.00      0.00
                                0.00   1306.43    -12.07
                                0.00    -12.07   1258.85

     hartree stress (kbar)   5023.38     -0.01     -0.00
                               -0.01   4916.93    108.04
                               -0.00    108.04   6976.30

     exc-cor stress (kbar)   1155.08      0.00     -0.00
                                0.00   1152.26      1.06
                               -0.00      1.06   1159.20

     corecor stress (kbar)  -5102.72     -0.00     -0.00
                               -0.00  -5103.04     -2.05
                               -0.00     -2.05  -5109.01

     ewald   stress (kbar) -12884.66     -0.00      0.00
                               -0.00 -14236.15    271.48
                                0.00    271.48  -9523.98

     hubbard stress (kbar)      0.00      0.00      0.00
                                0.00      0.00      0.00
                                0.00      0.00      0.00

     DFT-D   stress (kbar)      0.00      0.00      0.00
                                0.00      0.00      0.00
                                0.00      0.00      0.00

     XDM     stress (kbar)      0.00      0.00      0.00
                                0.00      0.00      0.00
                                0.00      0.00      0.00

     dft-nl  stress (kbar)      0.00      0.00      0.00
                                0.00      0.00      0.00
                                0.00      0.00      0.00

     TS-vdW  stress (kbar)      0.00      0.00      0.00
                                0.00      0.00      0.00
                                0.00      0.00      0.00

[...]

                                0.00      0.00      0.00

     Writing all to output data dir new_calculations/myprefix.save/

     General routines

     Parallel routines

     PAW routines

   This run was terminated on:  19:56:31  21May2023

   JOB DONE.