     Program PWSCF v.7.0 starts on 21May2023 at  5: 5:12

     Reading input from espresso_7984.pwi
Warning: card &CELL ignored
Warning: card / ignored

     Current dimensions of program PWSCF are:
     Max number of different atomic species (ntypx) = 10
     Max number of k-points (npk) =  40000
     Max angular momentum in pseudopotentials (lmaxx) =  4
     file Cd.pbe-dn-rrkjus_psl.0.3.1.UPF: wavefunction(s)  4D renormalized
     file Ga.pbe-dn-kjpaw_psl.1.0.0.UPF: wavefunction(s)  4S renormalized

     gamma-point specific algorithms are used

     Subspace diagonalization in iterative solution of the eigenvalue problem:
     a serial algorithm will be used

     Using Slab Decomposition

     bravais-lattice index     =            0
     lattice parameter (alat)  =      12.3652  a.u.
     unit-cell volume          =    1115.1811 (a.u.)^3
     number of atoms/cell      =            7
     number of atomic types    =            3
     number of electrons       =        62.00
     number of Kohn-Sham states=           37
     kinetic-energy cutoff     =      30.0000  Ry
     charge density cutoff     =     240.0000  Ry
     scf convergence threshold =      1.0E-06
     mixing beta               =       0.7000
     number of iterations used =            8  plain     mixing
     Exchange-correlation=  SLA  PW   PBX  PBC
                           (   1   4   3   4   0   0   0)

     celldm(1)=  12.365161  celldm(2)=   0.000000  celldm(3)=   0.000000
     celldm(4)=   0.000000  celldm(5)=   0.000000  celldm(6)=   0.000000

     crystal axes: (cart. coord. in units of alat)
               a(1) = (   1.000000   0.000000   0.000000 )
               a(2) = (   0.255529   0.966801   0.000000 )
               a(3) = (  -0.627765  -0.483401   0.610111 )

     reciprocal axes: (cart. coord. in units 2 pi/alat)
               b(1) = (  1.000000 -0.264304  0.819523 )
               b(2) = (  0.000000  1.034339  0.819523 )
               b(3) = (  0.000000  0.000000  1.639046 )

     PseudoPot. # 1 for Cd read from file:
     /home/pragov/projects/rrg-bengioy-ad/pragov/crystal_structure_design/SSSP/Cd.pbe-dn-rrkjus_psl.0.3.1.UPF
     MD5 check sum: 558e9f355611b531a870a69ef6ace9e2
     Pseudo is Ultrasoft + core correction, Zval = 12.0
     Generated using "atomic" code by A. Dal Corso  v.5.0.99 svn rev. 10869
     Using radial grid of 1239 points,  6 beta functions with:
                l(1) =   0
                l(2) =   0
                l(3) =   1
                l(4) =   1
                l(5) =   2
                l(6) =   2
     Q(r) pseudized with 0 coefficients

     PseudoPot. # 2 for Ga read from file:
     /home/pragov/projects/rrg-bengioy-ad/pragov/crystal_structure_design/SSSP/Ga.pbe-dn-kjpaw_psl.1.0.0.UPF
     MD5 check sum: a27b4342b1af7e5f338de752e9ed7044
     Pseudo is Projector augmented-wave + core cor, Zval = 13.0
     Generated using "atomic" code by A. Dal Corso  v.5.1
     Shape of augmentation charge: PSQ
     Using radial grid of 1205 points,  6 beta functions with:
                l(1) =   0
                l(2) =   0
                l(3) =   1
                l(4) =   1
                l(5) =   2
                l(6) =   2
     Q(r) pseudized with 0 coefficients

     PseudoPot. # 3 for S  read from file:
     /home/pragov/projects/rrg-bengioy-ad/pragov/crystal_structure_design/SSSP/s_pbe_v1.4.uspp.F.UPF
     MD5 check sum: 88d86576ff6df21479756cfb9bdac1df
     Pseudo is Ultrasoft + core correction, Zval =  6.0
     Generated by new atomic code, or converted to UPF format
     Using radial grid of  907 points,  6 beta functions with:
                l(1) =   0
                l(2) =   0
                l(3) =   1
                l(4) =   1
                l(5) =   2
                l(6) =   2
     Q(r) pseudized with  8 coefficients,  rinner =    1.300   1.300   1.300
                                                       1.300   1.300

     atomic species   valence    mass     pseudopotential
        Cd            12.00   112.41400     Cd( 1.00)
        Ga            13.00    69.72300     Ga( 1.00)
        S              6.00    32.06000     S ( 1.00)

     No symmetry found

                                    s                        frac. trans.

      isym =  1     identity

 cryst.   s( 1) = (     1          0          0      )
                  (     0          1          0      )
                  (     0          0          1      )

 cart.    s( 1) = (  1.0000000 -0.0000000 -0.0000000 )
                  (  0.0000000  1.0000000 -0.0000000 )
                  (  0.0000000  0.0000000  1.0000000 )

   Cartesian axes

     site n.     atom                  positions (alat units)
         1           Cd  tau(   1) = (   0.0000000   0.0000000   0.0000000  )
         2           Ga  tau(   2) = (   0.1277646   0.4834007   0.3050555  )
         3           Ga  tau(   3) = (   0.6277646   0.4834007   0.0000000  )
         4           S   tau(   4) = (   0.9691044   0.3915831   0.0035551  )
         5           S   tau(   5) = (   0.4556987   0.3553908   0.2810043  )
         6           S   tau(   6) = (  -0.1677277  -0.1336424   0.3291067  )
         7           S   tau(   7) = (  -0.0015468   0.3534708   0.6065558  )

   Crystallographic axes

     site n.     atom                  positions (cryst. coord.)
         1           Cd  tau(   1) = (  0.0000000  0.0000000  0.0000000  )
         2           Ga  tau(   2) = (  0.2500000  0.7500000  0.5000000  )
         3           Ga  tau(   3) = (  0.5000000  0.5000000  0.0000000  )
         4           S   tau(   4) = (  0.8685210  0.4079430  0.0058270  )
         5           S   tau(   5) = (  0.5920570  0.5978840  0.4605790  )
         6           S   tau(   6) = (  0.1373050  0.1314790  0.5394210  )
         7           S   tau(   7) = (  0.4021160  0.8626950  0.9941730  )

     number of k points=     1  Methfessel-Paxton smearing, width (Ry)=  0.0010
                       cart. coord. in units 2pi/alat
        k(    1) = (   0.0000000   0.0000000   0.0000000), wk =   2.0000000

                       cryst. coord.
        k(    1) = (   0.0000000   0.0000000   0.0000000), wk =   2.0000000

     Check: negative core charge=   -0.000002

     Initial potential from superposition of free atoms

     starting charge      61.9891, renormalised to      62.0000
     Starting wfcs are   43 randomized atomic wfcs
     Checking if some PAW data can be deallocated...

     Self-consistent Calculation

     iteration #  1     ecut=    30.00 Ry     beta= 0.70
     Davidson diagonalization with overlap

     ethr =  1.00E-02,  avg # of iterations =  3.0

     Threshold (ethr) on eigenvalues was too large:
     Diagonalizing with lowered threshold

     Davidson diagonalization with overlap

[...]

     total energy              =    -774.49230411 Ry
     estimated scf accuracy    <       0.35376480 Ry

[...]

     total energy              =    -774.62684435 Ry
     estimated scf accuracy    <       0.00000440 Ry

     iteration #  8     ecut=    30.00 Ry     beta= 0.70
     Davidson diagonalization with overlap

     ethr =  7.10E-09,  avg # of iterations =  4.0

     End of self-consistent calculation

          k = 0.0000 0.0000 0.0000 (  1537 PWs)   bands (ev):

    -9.9164  -9.9163  -9.9006  -9.7395  -9.7321  -9.6985  -9.6629  -9.6628
    -9.5594  -9.5508  -8.3052  -6.5665  -6.5663  -6.4661  -2.6520  -2.5524
    -2.5133  -2.5125  -2.4973  -1.8074   0.1463   1.3992   1.3993   1.5431
     2.1756   2.4809   3.1369   3.1370   4.6501   4.6504   4.6525   6.5188
     8.2505   8.4853   9.8591  10.4002  10.4005

     occupation numbers
     1.0000   1.0000   1.0000   1.0000   1.0000   1.0000   1.0000   1.0000
     1.0000   1.0000   1.0000   1.0000   1.0000   1.0000   1.0000   1.0000
     1.0000   1.0000   1.0000   1.0000   1.0000   1.0000   1.0000   1.0000
     1.0000   1.0000   1.0000   1.0000   1.0000   1.0000   1.0000  -0.0000
    -0.0000  -0.0000  -0.0000  -0.0000  -0.0000

     the Fermi energy is     5.3893 ev

!    total energy              =    -774.62684545 Ry
     estimated scf accuracy    <       0.00000040 Ry
     smearing contrib. (-TS)   =       0.00000000 Ry
     internal energy E=F+TS    =    -774.62684545 Ry

     The total energy is F=E-TS. E is the sum of the following terms:
     one-electron contribution =    -320.54191110 Ry
     hartree contribution      =     206.53660605 Ry
     xc contribution           =    -152.95425799 Ry
     ewald contribution        =    -285.75411495 Ry
     one-center paw contrib.   =    -221.91316746 Ry
      -> PAW hartree energy AE =     280.01170817 Ry
      -> PAW hartree energy PS =    -275.64290348 Ry
      -> PAW xc energy AE      =    -301.50878713 Ry
      -> PAW xc energy PS      =      75.22681498 Ry
      -> total E_H with PAW    =     210.90541073 Ry
      -> total E_XC with PAW   =    -379.23623014 Ry

     convergence has been achieved in   8 iterations

     Forces acting on atoms (cartesian axes, Ry/au):

     atom    1 type  1   force =     0.00004948    0.00000346    0.00005752
     atom    2 type  2   force =    -0.00005121    0.00016133    0.00014996
     atom    3 type  2   force =     0.00004811    0.00003986   -0.00045066
     atom    4 type  3   force =     0.03624085   -0.00736697   -0.02772922
     atom    5 type  3   force =    -0.00227821   -0.03694193    0.02810175
     atom    6 type  3   force =    -0.03614014    0.00717118   -0.02795790
     atom    7 type  3   force =     0.00213111    0.03693307    0.02782854
     The non-local contrib.  to forces
     atom    1 type  1   force =     0.00005291    0.00002718   -0.00002677
     atom    2 type  2   force =     0.00006298   -0.00003708   -0.00005127
     atom    3 type  2   force =     0.00005224   -0.00013745   -0.00021437
     atom    4 type  3   force =    -0.20921168   -0.11917465    0.29653544
     atom    5 type  3   force =     0.00804663    0.38029097   -0.03323060
     atom    6 type  3   force =     0.36980034   -0.08927445    0.03319705
     atom    7 type  3   force =    -0.16876003   -0.17185854   -0.29645599
     The ionic contribution  to forces
     atom    1 type  1   force =     0.00001568    0.00000127   -0.00001714
     atom    2 type  2   force =    -0.00000893    0.00004013   -0.00002261
     atom    3 type  2   force =    -0.00003670    0.00001441    0.00002634
     atom    4 type  3   force =     2.60738329    0.22303931   -4.99766820
     atom    5 type  3   force =     1.30453088   -5.30316632    1.41403709
     atom    6 type  3   force =    -4.79377680    2.61628734   -1.41405266
     atom    7 type  3   force =     0.88189259    2.46378385    4.99769718
     The local contribution  to forces
     atom    1 type  1   force =     0.00000965   -0.00015534    0.00009335
     atom    2 type  2   force =     0.00005715    0.00007998    0.00019256
     atom    3 type  2   force =     0.00003306    0.00001344    0.00002108
     atom    4 type  3   force =    -2.37342756   -0.11777752    4.68993839
     atom    5 type  3   force =    -1.31452686    4.90717990   -1.35450551
     atom    6 type  3   force =     4.40841887   -2.52477884    1.35447537
     atom    7 type  3   force =    -0.72047117   -2.26436010   -4.69008788
     The core correction contribution to forces
     atom    1 type  1   force =     0.00000673   -0.00000043    0.00000944
     atom    2 type  2   force =    -0.00000035    0.00001671    0.00001096
     atom    3 type  2   force =     0.00000013   -0.00000716   -0.00000129
     atom    4 type  3   force =     0.01146580    0.00692429   -0.01623250
     atom    5 type  3   force =    -0.00066708   -0.02090982    0.00155781
     atom    6 type  3   force =    -0.02046984    0.00466284   -0.00150228
     atom    7 type  3   force =     0.00964683    0.00942279    0.01623624
     The Hubbard contrib.    to forces
     atom    1 type  1   force =     0.00000000    0.00000000    0.00000000
     atom    2 type  2   force =     0.00000000    0.00000000    0.00000000
     atom    3 type  2   force =     0.00000000    0.00000000    0.00000000
     atom    4 type  3   force =     0.00000000    0.00000000    0.00000000
     atom    5 type  3   force =     0.00000000    0.00000000    0.00000000
     atom    6 type  3   force =     0.00000000    0.00000000    0.00000000
     atom    7 type  3   force =     0.00000000    0.00000000    0.00000000
     The SCF correction term to forces
     atom    1 type  1   force =    -0.00006338    0.00023396   -0.00006972
     atom    2 type  2   force =    -0.00018995    0.00016478   -0.00004804
     atom    3 type  2   force =    -0.00002853    0.00025981   -0.00035078
     atom    4 type  3   force =     0.00000309   -0.00027522   -0.00037071
     atom    5 type  3   force =     0.00031033   -0.00023348    0.00017460
     atom    6 type  3   force =    -0.00014061    0.00037746   -0.00014375
     atom    7 type  3   force =    -0.00020500    0.00004826    0.00037063

     Total force =     0.092621     Total SCF correction =     0.001039

     Computing stress (Cartesian axis) and pressure

          total   stress  (Ry/bohr**3)                   (kbar)     P=      -24.35
  -0.00038563  -0.00036530   0.00000008          -56.73      -53.74        0.01
  -0.00036530  -0.00019525   0.00000046          -53.74      -28.72        0.07
   0.00000008   0.00000046   0.00008426            0.01        0.07       12.39

     kinetic stress (kbar)   8822.16    -51.54      0.11
                              -51.54   8849.17     -0.00
                                0.11     -0.00   8888.87

     local   stress (kbar)  -3554.67     65.29     -0.01
                               65.29  -3589.20      0.06
                               -0.01      0.06  -3639.53

     nonloc. stress (kbar)   2045.35     -3.92     -0.08
                               -3.92   2047.27      0.07
                               -0.08      0.07   2050.01

     hartree stress (kbar)   9100.29     30.92     -0.02
                               30.92   9084.01     -0.05
                               -0.02     -0.05   9060.23

     exc-cor stress (kbar)   5432.55     -0.83      0.00
                               -0.83   5432.99     -0.00
                                0.00     -0.00   5433.63

     corecor stress (kbar)  -9280.17      0.79     -0.00
                                0.79  -9280.60      0.00
                               -0.00      0.00  -9281.21

     ewald   stress (kbar) -12622.25    -94.45      0.01
                              -94.45 -12572.36     -0.01
                                0.01     -0.01 -12499.61

     hubbard stress (kbar)      0.00      0.00      0.00
                                0.00      0.00      0.00
                                0.00      0.00      0.00

     DFT-D   stress (kbar)      0.00      0.00      0.00
                                0.00      0.00      0.00
                                0.00      0.00      0.00

     XDM     stress (kbar)      0.00      0.00      0.00
                                0.00      0.00      0.00
                                0.00      0.00      0.00

     dft-nl  stress (kbar)      0.00      0.00      0.00
                                0.00      0.00      0.00
                                0.00      0.00      0.00

     TS-vdW  stress (kbar)      0.00      0.00      0.00
                                0.00      0.00      0.00
                                0.00      0.00      0.00

[...]

                                0.00      0.00      0.00

     Writing all to output data dir new_calculations/myprefix.save/

     General routines

     Parallel routines

     PAW routines

   This run was terminated on:   5: 5:25  21May2023

   JOB DONE.