     Program PWSCF v.7.0 starts on 20May2023 at 11:25: 2

     Reading input from espresso_8425.pwi
Warning: card &CELL ignored
Warning: card / ignored

     Current dimensions of program PWSCF are:
     Max number of different atomic species (ntypx) = 10
     Max number of k-points (npk) =  40000
     Max angular momentum in pseudopotentials (lmaxx) =  4

     gamma-point specific algorithms are used
     Message from routine setup:
     using ibrav=0 with symmetry is DISCOURAGED, use correct ibrav instead

     Subspace diagonalization in iterative solution of the eigenvalue problem:
     a serial algorithm will be used

     Using Slab Decomposition

     bravais-lattice index     =            0
     lattice parameter (alat)  =      14.5967  a.u.
     unit-cell volume          =     753.3290 (a.u.)^3
     number of atoms/cell      =            4
     number of atomic types    =            3
     number of electrons       =        42.00
     number of Kohn-Sham states=           25
     kinetic-energy cutoff     =      30.0000  Ry
     charge density cutoff     =     240.0000  Ry
     scf convergence threshold =      1.0E-06
     mixing beta               =       0.7000
     number of iterations used =            8  plain     mixing
     Exchange-correlation=  SLA  PW   PBX  PBC
                           (   1   4   3   4   0   0   0)

     celldm(1)=  14.596720  celldm(2)=   0.000000  celldm(3)=   0.000000
     celldm(4)=   0.000000  celldm(5)=   0.000000  celldm(6)=   0.000000

     crystal axes: (cart. coord. in units of alat)
               a(1) = (   1.000000   0.000000   0.000000 )
               a(2) = (   0.852736   0.522343   0.000000 )
               a(3) = (   0.852736   0.240412   0.463728 )

     reciprocal axes: (cart. coord. in units 2 pi/alat)
               b(1) = (  1.000000 -1.632522 -0.992516 )
               b(2) = (  0.000000  1.914453 -0.992516 )
               b(3) = (  0.000000  0.000000  2.156436 )

     PseudoPot. # 1 for Eu read from file:
     /home/pragov/projects/rrg-bengioy-ad/pragov/crystal_structure_design/SSSP/Eu.GGA-PBE-paw-v1.0.UPF
     MD5 check sum: acec5fd9176fb57ec8e299eae1ecaf48
     Pseudo is Projector augmented-wave + core cor, Zval = 17.0
     Generated using ATOMPAW code
     Shape of augmentation charge: BESSEL
     Using radial grid of 1109 points,  8 beta functions with:
                l(1) =   0
                l(2) =   0
                l(3) =   1
                l(4) =   1
                l(5) =   2
                l(6) =   2
                l(7) =   3
                l(8) =   3
     Q(r) pseudized with 0 coefficients

     PseudoPot. # 2 for Tl read from file:
     /home/pragov/projects/rrg-bengioy-ad/pragov/crystal_structure_design/SSSP/Tl_pbe_v1.2.uspp.F.UPF
     MD5 check sum: b76cf1f7e72655a2b2c53cf6385d7059
     Pseudo is Ultrasoft + core correction, Zval = 13.0
     Generated by new atomic code, or converted to UPF format
     Using radial grid of  899 points,  6 beta functions with:
                l(1) =   0
                l(2) =   0
                l(3) =   1
                l(4) =   1
                l(5) =   2
                l(6) =   2
     Q(r) pseudized with  6 coefficients,  rinner =    1.100   1.100   1.100
                                                       1.100   1.100

     PseudoPot. # 3 for S  read from file:
     /home/pragov/projects/rrg-bengioy-ad/pragov/crystal_structure_design/SSSP/s_pbe_v1.4.uspp.F.UPF
     MD5 check sum: 88d86576ff6df21479756cfb9bdac1df
     Pseudo is Ultrasoft + core correction, Zval =  6.0
     Generated by new atomic code, or converted to UPF format
     Using radial grid of  907 points,  6 beta functions with:
                l(1) =   0
                l(2) =   0
                l(3) =   1
                l(4) =   1
                l(5) =   2
                l(6) =   2
     Q(r) pseudized with  8 coefficients,  rinner =    1.300   1.300   1.300
                                                       1.300   1.300

     atomic species   valence    mass     pseudopotential
        Eu            17.00   151.96400     Eu( 1.00)
        Tl            13.00   204.38000     Tl( 1.00)
        S              6.00    32.06000     S ( 1.00)

      2 Sym. Ops., with inversion, found

                                    s                        frac. trans.

      isym =  1     identity

 cryst.   s( 1) = (     1          0          0      )
                  (     0          1          0      )
                  (     0          0          1      )

 cart.    s( 1) = (  1.0000000  0.0000000 -0.0000000 )
                  (  0.0000000  1.0000000 -0.0000000 )
                  (  0.0000000  0.0000000  1.0000000 )

      isym =  2     inversion

 cryst.   s( 2) = (    -1          0          0      )
                  (     0         -1          0      )
                  (     0          0         -1      )

 cart.    s( 2) = ( -1.0000000 -0.0000000  0.0000000 )
                  (  0.0000000 -1.0000000  0.0000000 )
                  (  0.0000000  0.0000000 -1.0000000 )

   Cartesian axes

     site n.     atom                  positions (alat units)
         1           Eu  tau(   1) = (   0.0000000   0.0000000   0.0000000  )
         2           Tl  tau(   2) = (   1.3527358   0.3813773   0.2318641  )
         3           S   tau(   3) = (   1.9910702   0.5613432   0.3412770  )
         4           S   tau(   4) = (   0.7144014   0.2014115   0.1224511  )

   Crystallographic axes

     site n.     atom                  positions (cryst. coord.)
         1           Eu  tau(   1) = (  0.0000000  0.0000000  0.0000000  )
         2           Tl  tau(   2) = (  0.5000000  0.5000000  0.5000000  )
         3           S   tau(   3) = (  0.7359420  0.7359420  0.7359420  )
         4           S   tau(   4) = (  0.2640580  0.2640580  0.2640580  )

     number of k points=     1  Methfessel-Paxton smearing, width (Ry)=  0.0010
                       cart. coord. in units 2pi/alat
        k(    1) = (   0.0000000   0.0000000   0.0000000), wk =   2.0000000

                       cryst. coord.
        k(    1) = (   0.0000000   0.0000000   0.0000000), wk =   2.0000000

     Check: negative core charge=   -0.000004

     Initial potential from superposition of free atoms

     starting charge      41.9903, renormalised to      42.0000

     negative rho (up, down):  5.065E-02 0.000E+00
     Starting wfcs are   49 randomized atomic wfcs
     Checking if some PAW data can be deallocated...

     Self-consistent Calculation

     iteration #  1     ecut=    30.00 Ry     beta= 0.70
     Davidson diagonalization with overlap

     ethr =  1.00E-02,  avg # of iterations =  1.0

     negative rho (up, down):  5.116E-02 0.000E+00

     total energy              =    -830.57882197 Ry
     estimated scf accuracy    <       4.29779377 Ry

[...]

     total energy              =    -835.41056395 Ry
     estimated scf accuracy    <       0.00000384 Ry

     iteration # 39     ecut=    30.00 Ry     beta= 0.70
     Davidson diagonalization with overlap

     ethr =  6.01E-09,  avg # of iterations =  1.0

[...]

     End of self-consistent calculation

          k = 0.0000 0.0000 0.0000 (  1021 PWs)   bands (ev):

   -31.9593 -11.1238 -10.6458 -10.6446  -4.3323  -4.3322  -4.2306  -4.1759
    -4.1759  -3.9168  -3.0669   1.1416   6.0652   6.0654   6.2454   6.3141
     6.9382   6.9387   8.8319   8.8324   8.9354   9.2146   9.2185   9.2715
     9.3850

     occupation numbers
     1.0000   1.0000   1.0000   1.0000   1.0000   1.0000   1.0000   1.0000
     1.0000   1.0000   1.0000   1.0000   1.0000   1.0000   1.0000   1.0000
     1.0000   1.0000   1.0000   1.0000   1.0000  -0.0000  -0.0000  -0.0000
    -0.0000

     the Fermi energy is     9.0334 ev

!    total energy              =    -835.41056645 Ry
     estimated scf accuracy    <       0.00000094 Ry
     smearing contrib. (-TS)   =       0.00000000 Ry
     internal energy E=F+TS    =    -835.41056645 Ry

     The total energy is F=E-TS. E is the sum of the following terms:
     one-electron contribution =    -132.82303846 Ry
     hartree contribution      =      93.76730585 Ry
     xc contribution           =     -99.26239358 Ry
     ewald contribution        =    -239.96292199 Ry
     one-center paw contrib.   =    -457.12951827 Ry
      -> PAW hartree energy AE =     156.91848819 Ry
      -> PAW hartree energy PS =    -149.86308269 Ry
      -> PAW xc energy AE      =    -483.28025707 Ry
      -> PAW xc energy PS      =      19.09533330 Ry
      -> total E_H with PAW    =     100.82271135 Ry
      -> total E_XC with PAW   =    -563.44731735 Ry

     convergence has been achieved in  39 iterations

     negative rho (up, down):  5.115E-02 0.000E+00

     Forces acting on atoms (cartesian axes, Ry/au):

     atom    1 type  1   force =     0.00000000    0.00000000    0.00000000
     atom    2 type  2   force =     0.00000000    0.00000000    0.00000000
     atom    3 type  3   force =    -0.15211283   -0.04289263   -0.02603340
     atom    4 type  3   force =     0.15211283    0.04289263    0.02603340
     The non-local contrib.  to forces
     atom    1 type  1   force =     0.00000000    0.00000000    0.00000000
     atom    2 type  2   force =     0.00000000    0.00000000    0.00000000
     atom    3 type  3   force =    -0.02328180   -0.00657452   -0.00410085
     atom    4 type  3   force =     0.02328180    0.00657452    0.00410085
     The ionic contribution  to forces
     atom    1 type  1   force =     0.00000000   -0.00000000    0.00000000
     atom    2 type  2   force =    -0.00000000   -0.00000000    0.00000000
     atom    3 type  3   force =     4.50709953    1.27068833    0.77253170
     atom    4 type  3   force =    -4.50709953   -1.27068833   -0.77253170
     The local contribution  to forces
     atom    1 type  1   force =    -0.00012211   -0.00003451   -0.00002403
     atom    2 type  2   force =     0.00069714    0.00018426    0.00013763
     atom    3 type  3   force =    -4.63731967   -1.30745339   -0.79474976
     atom    4 type  3   force =     4.63709446    1.30740757    0.79471401
     The core correction contribution to forces
     atom    1 type  1   force =     0.00000001    0.00000000    0.00000000
     atom    2 type  2   force =     0.00000757    0.00000200    0.00000319
     atom    3 type  3   force =     0.00136707    0.00038654    0.00024065
     atom    4 type  3   force =    -0.00136920   -0.00038642   -0.00024099
     The Hubbard contrib.    to forces
     atom    1 type  1   force =     0.00000000    0.00000000    0.00000000
     atom    2 type  2   force =     0.00000000    0.00000000    0.00000000
     atom    3 type  3   force =     0.00000000    0.00000000    0.00000000
     atom    4 type  3   force =     0.00000000    0.00000000    0.00000000
     The SCF correction term to forces
     atom    1 type  1   force =     0.00081333    0.00037206   -0.00005386
     atom    2 type  2   force =    -0.00078819   -0.00020699   -0.00016597
     atom    3 type  3   force =     0.00001169    0.00006241    0.00005065
     atom    4 type  3   force =     0.00019497   -0.00001271   -0.00000297

     Total force =     0.226521     Total SCF correction =     0.001241

     Computing stress (Cartesian axis) and pressure

     negative rho (up, down):  5.115E-02 0.000E+00
          total   stress  (Ry/bohr**3)                   (kbar)     P=        6.43
  -0.00017185  -0.00009456  -0.00005774          -25.28      -13.91       -8.49
  -0.00009456   0.00014204  -0.00001661          -13.91       20.89       -2.44
  -0.00005774  -0.00001661   0.00016101           -8.49       -2.44       23.69

     kinetic stress (kbar)   5995.20    -57.68    -35.04
                              -57.68   6183.89     -9.91
                              -35.04     -9.91   6194.03

     local   stress (kbar)   3573.20   1752.88   1065.71
                             1752.88  -2153.04    300.83
                             1065.71    300.83  -2465.24

     nonloc. stress (kbar)   7294.63    -10.10     -6.21
                              -10.10   7329.95     -2.01
                               -6.21     -2.01   7332.58

     hartree stress (kbar)   4290.43   -810.49   -492.77
                             -810.49   6937.76   -139.06
                             -492.77   -139.06   7082.07

     exc-cor stress (kbar)   7398.98     -0.15     -0.09
                               -0.15   7399.48     -0.03
                               -0.09     -0.03   7399.51

     corecor stress (kbar) -10970.06      0.83      0.50
                                0.83 -10972.77      0.14
                                0.50      0.14 -10972.91

     ewald   stress (kbar) -17607.65   -889.20   -540.61
                             -889.20 -14704.37   -152.41
                             -540.61   -152.41 -14546.34

     hubbard stress (kbar)      0.00      0.00      0.00
                                0.00      0.00      0.00
                                0.00      0.00      0.00

     DFT-D   stress (kbar)      0.00      0.00      0.00
                                0.00      0.00      0.00
                                0.00      0.00      0.00

     XDM     stress (kbar)      0.00      0.00      0.00
                                0.00      0.00      0.00
                                0.00      0.00      0.00

     dft-nl  stress (kbar)      0.00      0.00      0.00
                                0.00      0.00      0.00
                                0.00      0.00      0.00

     TS-vdW  stress (kbar)      0.00      0.00      0.00
                                0.00      0.00      0.00
                                0.00      0.00      0.00

[...]

                                0.00      0.00      0.00

     Writing all to output data dir new_calculations/myprefix.save/

     General routines

     Parallel routines

     PAW routines

   This run was terminated on:  11:25:42  20May2023

   JOB DONE.