     Program PWSCF v.7.0 starts on 21May2023 at 17:23:28

     Reading input from espresso_24903.pwi
Warning: card &CELL ignored
Warning: card / ignored

     Current dimensions of program PWSCF are:
     Max number of different atomic species (ntypx) = 10
     Max number of k-points (npk) =  40000
     Max angular momentum in pseudopotentials (lmaxx) =  4

     gamma-point specific algorithms are used
     Message from routine setup:
     using ibrav=0 with symmetry is DISCOURAGED, use correct ibrav instead

     Subspace diagonalization in iterative solution of the eigenvalue problem:
     a serial algorithm will be used

     Using Slab Decomposition

     bravais-lattice index     =            0
     lattice parameter (alat)  =      14.7769  a.u.
     unit-cell volume          =    5241.4091 (a.u.)^3
     number of atoms/cell      =           20
     number of atomic types    =            3
     number of electrons       =       176.00
     number of Kohn-Sham states=          106
     kinetic-energy cutoff     =      30.0000  Ry
     charge density cutoff     =     240.0000  Ry
     scf convergence threshold =      1.0E-06
     mixing beta               =       0.7000
     number of iterations used =            8  plain     mixing
     Exchange-correlation=  SLA  PW   PBX  PBC
                           (   1   4   3   4   0   0   0)

     celldm(1)=  14.776899  celldm(2)=   0.000000  celldm(3)=   0.000000
     celldm(4)=   0.000000  celldm(5)=   0.000000  celldm(6)=   0.000000

     crystal axes: (cart. coord. in units of alat)
               a(1) = (   1.000000   0.000000   0.000000 )
               a(2) = (   0.292914   1.225000   0.000000 )
               a(3) = (   0.144564   0.307281   1.326057 )

     reciprocal axes: (cart. coord. in units 2 pi/alat)
               b(1) = (  1.000000 -0.239113 -0.053609 )
               b(2) = (  0.000000  0.816327 -0.189164 )
               b(3) = (  0.000000  0.000000  0.754115 )

     PseudoPot. # 1 for Rb read from file:
     /home/pragov/projects/rrg-bengioy-ad/pragov/crystal_structure_design/SSSP/Rb_ONCV_PBE-1.0.oncvpsp.upf
     MD5 check sum: 55a5172d6bfbce6759a58e35d43f6aa9
     Pseudo is Norm-conserving, Zval =  9.0
     Generated using ONCVPSP code by D. R. Hamann
     Using radial grid of 2308 points,  6 beta functions with:
                l(1) =   0
                l(2) =   0
                l(3) =   1
                l(4) =   1
                l(5) =   2
                l(6) =   2

     PseudoPot. # 2 for Bi read from file:
     /home/pragov/projects/rrg-bengioy-ad/pragov/crystal_structure_design/SSSP/Bi_pbe_v1.uspp.F.UPF
     MD5 check sum: cceb9f28ec65b6d7ff33140f5b0b1758
     Pseudo is Ultrasoft + core correction, Zval = 15.0
     Generated by new atomic code, or converted to UPF format
     Using radial grid of  899 points,  6 beta functions with:
                l(1) =   0
                l(2) =   0
                l(3) =   1
                l(4) =   1
                l(5) =   2
                l(6) =   2
     Q(r) pseudized with  6 coefficients,  rinner =    1.000   1.000   1.000
                                                       1.000   1.000

     PseudoPot. # 3 for Br read from file:
     /home/pragov/projects/rrg-bengioy-ad/pragov/crystal_structure_design/SSSP/br_pbe_v1.4.uspp.F.UPF
     MD5 check sum: d3ffb7b29f6225aa16fe06858fb2a80b
     Pseudo is Ultrasoft + core correction, Zval =  7.0
     Generated by new atomic code, or converted to UPF format
     Using radial grid of  879 points,  6 beta functions with:
                l(1) =   0
                l(2) =   0
                l(3) =   1
                l(4) =   1
                l(5) =   2
                l(6) =   2
     Q(r) pseudized with  8 coefficients,  rinner =    1.100   1.100   1.100
                                                       1.100   1.100

     atomic species   valence    mass     pseudopotential
        Rb             9.00    85.46780     Rb( 1.00)
        Bi            15.00   208.98040     Bi( 1.00)
        Br             7.00    79.90400     Br( 1.00)

      2 Sym. Ops., with inversion, found

                                    s                        frac. trans.

      isym =  1     identity

 cryst.   s( 1) = (     1          0          0      )
                  (     0          1          0      )
                  (     0          0          1      )

 cart.    s( 1) = (  1.0000000  0.0000000  0.0000000 )
                  (  0.0000000  1.0000000 -0.0000000 )
                  (  0.0000000  0.0000000  1.0000000 )

      isym =  2     inversion

 cryst.   s( 2) = (    -1          0          0      )
                  (     0         -1          0      )
                  (     0          0         -1      )

 cart.    s( 2) = ( -1.0000000 -0.0000000 -0.0000000 )
                  (  0.0000000 -1.0000000  0.0000000 )
                  (  0.0000000  0.0000000 -1.0000000 )

   Cartesian axes

     site n.     atom                  positions (alat units)
         1           Rb  tau(   1) = (   0.6847190   1.1480909   0.4067084  )
         2           Rb  tau(   2) = (   0.7527584   0.3841897   0.9193488  )
         3           Bi  tau(   3) = (   1.1491177   0.9789708   0.8280458  )
         4           Bi  tau(   4) = (   0.2883597   0.5533098   0.4980114  )
         5           Bi  tau(   5) = (   0.6498983   1.1508214   1.2380468  )
         6           Bi  tau(   6) = (   0.7875791   0.3814592   0.0880104  )
         7           Br  tau(   7) = (   1.1903359   1.1948967   0.5636035  )
         8           Br  tau(   8) = (   0.2471415   0.3373838   0.7624537  )
         9           Br  tau(   9) = (   1.3123250   1.2146857   1.0508764  )
        10           Br  tau(  10) = (   0.1251523   0.3175948   0.2751807  )
        11           Br  tau(  11) = (   0.8282154   1.1519807   0.8857187  )
        12           Br  tau(  12) = (   0.6092619   0.3802999   0.4403385  )
        13           Br  tau(  13) = (   0.9728421   0.7322668   0.5987679  )
        14           Br  tau(  14) = (   0.4646352   0.8000137   0.7272893  )
        15           Br  tau(  15) = (   1.1060819   0.6831355   1.1041229  )
        16           Br  tau(  16) = (   0.3313955   0.8491450   0.2219342  )
        17           Br  tau(  17) = (   0.7004975   1.4889700   1.2539104  )
        18           Br  tau(  18) = (   0.7369799   0.0433105   0.0721468  )
        19           Br  tau(  19) = (   0.8102082   0.7832060   0.0887225  )
        20           Br  tau(  20) = (   0.6272691   0.7490746   1.2373347  )

   Crystallographic axes

     site n.     atom                  positions (cryst. coord.)
         1           Rb  tau(   1) = (  0.3883920  0.8602830  0.3067050  )
         2           Rb  tau(   2) = (  0.6116080  0.1397170  0.6932950  )
         3           Bi  tau(   3) = (  0.8706420  0.6425240  0.6244420  )
         4           Bi  tau(   4) = (  0.1293580  0.3574760  0.3755580  )
         5           Bi  tau(   5) = (  0.3083510  0.7052530  0.9336300  )
         6           Bi  tau(   6) = (  0.6916490  0.2947470  0.0663700  )
         7           Br  tau(   7) = (  0.8744060  0.8688130  0.4250220  )
         8           Br  tau(   8) = (  0.1255940  0.1311870  0.5749780  )
         9           Br  tau(   9) = (  0.9655410  0.7927930  0.7924820  )
        10           Br  tau(  10) = (  0.0344590  0.2072070  0.2075180  )
        11           Br  tau(  11) = (  0.5052790  0.7728470  0.6679340  )
        12           Br  tau(  12) = (  0.4947210  0.2271530  0.3320660  )
        13           Br  tau(  13) = (  0.7656480  0.4845040  0.4515400  )
        14           Br  tau(  14) = (  0.2343520  0.5154960  0.5484600  )
        15           Br  tau(  15) = (  0.8835440  0.3488020  0.8326360  )
        16           Br  tau(  16) = (  0.1164560  0.6511980  0.1673640  )
        17           Br  tau(  17) = (  0.2772440  0.9782920  0.9455930  )
        18           Br  tau(  18) = (  0.7227560  0.0217080  0.0544070  )
        19           Br  tau(  19) = (  0.6181770  0.6225690  0.0669070  )
        20           Br  tau(  20) = (  0.3818230  0.3774310  0.9330930  )

     number of k points=     1  Methfessel-Paxton smearing, width (Ry)=  0.0010
                       cart. coord. in units 2pi/alat
        k(    1) = (   0.0000000   0.0000000   0.0000000), wk =   2.0000000

                       cryst. coord.
        k(    1) = (   0.0000000   0.0000000   0.0000000), wk =   2.0000000

     Check: negative core charge=   -0.000002

     Initial potential from superposition of free atoms

     starting charge     171.9500, renormalised to     176.0000

     negative rho (up, down):  1.636E-01 0.000E+00
     Starting wfcs are  102 randomized atomic wfcs +    4 random wfcs

     Self-consistent Calculation

     iteration #  1     ecut=    30.00 Ry     beta= 0.70
     Davidson diagonalization with overlap

     ethr =  1.00E-02,  avg # of iterations =  6.0

     Threshold (ethr) on eigenvalues was too large:
     Diagonalizing with lowered threshold

     Davidson diagonalization with overlap

[...]

     negative rho (up, down):  1.533E-01 0.000E+00

     total energy              =   -1495.85353546 Ry
     estimated scf accuracy    <       0.96168291 Ry

[...]

     total energy              =   -1496.19797568 Ry
     estimated scf accuracy    <       0.00000108 Ry

     iteration #  9     ecut=    30.00 Ry     beta= 0.70
     Davidson diagonalization with overlap

     ethr =  6.16E-10,  avg # of iterations =  4.0

[...]

     End of self-consistent calculation

          k = 0.0000 0.0000 0.0000 (  7271 PWs)   bands (ev):

   -23.3930 -23.3929 -20.3760 -20.3695 -20.3635 -20.3593 -20.3417 -20.3372
   -20.3314 -20.3311 -20.3269 -20.3268 -20.3186 -20.3172 -20.3133 -20.3127
   -20.2953 -20.2923 -20.2818 -20.2786 -20.2689 -20.2685 -11.9587 -11.6822
   -11.6255 -11.4561 -11.3403 -11.2859 -11.2261 -11.1736 -11.1392 -11.1200
   -11.0953 -11.0326 -10.9757 -10.9649  -7.5919  -7.5636  -7.4720  -7.4597
    -7.4531  -7.4443  -7.4414  -7.4211  -7.3921  -7.0427  -1.4845  -1.2212
    -1.1267  -1.0704  -0.9467  -0.8770  -0.7243  -0.5986  -0.5338  -0.3015
    -0.0669   0.0310   0.2989   0.3252   0.4731   0.5052   0.6892   0.7037
     0.7834   0.7978   0.8700   0.9053   0.9235   1.0027   1.0106   1.0296
     1.0585   1.1340   1.2375   1.2624   1.3192   1.3724   1.3873   1.4393
     1.4993   1.5724   1.5986   1.7130   1.7146   1.7485   1.8461   1.8734
     4.7942   5.0041   5.0367   5.3629   5.5616   5.6897   5.9509   5.9711
     6.1406   6.3514   6.4046   6.5046   7.1375   8.2595   9.1019   9.2067
     9.2827   9.2903

     occupation numbers
     1.0000   1.0000   1.0000   1.0000   1.0000   1.0000   1.0000   1.0000
     1.0000   1.0000   1.0000   1.0000   1.0000   1.0000   1.0000   1.0000
     1.0000   1.0000   1.0000   1.0000   1.0000   1.0000   1.0000   1.0000
     1.0000   1.0000   1.0000   1.0000   1.0000   1.0000   1.0000   1.0000
     1.0000   1.0000   1.0000   1.0000   1.0000   1.0000   1.0000   1.0000
     1.0000   1.0000   1.0000   1.0000   1.0000   1.0000   1.0000   1.0000
     1.0000   1.0000   1.0000   1.0000   1.0000   1.0000   1.0000   1.0000
     1.0000   1.0000   1.0000   1.0000   1.0000   1.0000   1.0000   1.0000
     1.0000   1.0000   1.0000   1.0000   1.0000   1.0000   1.0000   1.0000
     1.0000   1.0000   1.0000   1.0000   1.0000   1.0000   1.0000   1.0000
     1.0000   1.0000   1.0000   1.0000   1.0000   1.0000   1.0000   1.0000
    -0.0000  -0.0000  -0.0000  -0.0000  -0.0000  -0.0000  -0.0000  -0.0000
    -0.0000  -0.0000  -0.0000  -0.0000  -0.0000  -0.0000  -0.0000  -0.0000
    -0.0000  -0.0000

     the Fermi energy is     3.2472 ev

!    total energy              =   -1496.19797603 Ry
     estimated scf accuracy    <       0.00000022 Ry
     smearing contrib. (-TS)   =       0.00000000 Ry
     internal energy E=F+TS    =   -1496.19797603 Ry

     The total energy is F=E-TS. E is the sum of the following terms:
     one-electron contribution =    -509.43940831 Ry
     hartree contribution      =     322.30104938 Ry
     xc contribution           =    -639.14644797 Ry
     ewald contribution        =    -669.91316912 Ry

     convergence has been achieved in   9 iterations

     negative rho (up, down):  1.572E-01 0.000E+00

     Forces acting on atoms (cartesian axes, Ry/au):

     atom    1 type  1   force =    -0.00081633    0.00077632   -0.00254329
     atom    2 type  1   force =     0.00081633   -0.00077632    0.00254329
     atom    3 type  2   force =     0.00135469   -0.00190993   -0.00106917
     atom    4 type  2   force =    -0.00135469    0.00190993    0.00106917
     atom    5 type  2   force =    -0.00182889   -0.00961233   -0.00231077
     atom    6 type  2   force =     0.00182889    0.00961233    0.00231077
     atom    7 type  3   force =    -0.00147586   -0.00072916    0.00079074
     atom    8 type  3   force =     0.00147586    0.00072916   -0.00079074
     atom    9 type  3   force =     0.00398394    0.00360255    0.00424852
     atom   10 type  3   force =    -0.00398394   -0.00360255   -0.00424852
     atom   11 type  3   force =     0.00415078   -0.00017118   -0.00241977
     atom   12 type  3   force =    -0.00415078    0.00017118    0.00241977
     atom   13 type  3   force =    -0.00097902   -0.00346573   -0.00406569
     atom   14 type  3   force =     0.00097902    0.00346573    0.00406569
     atom   15 type  3   force =    -0.00055683   -0.00403561   -0.00665992
     atom   16 type  3   force =     0.00055683    0.00403561    0.00665992
     atom   17 type  3   force =     0.00417975    0.00664317   -0.00370476
     atom   18 type  3   force =    -0.00417975   -0.00664317    0.00370476
     atom   19 type  3   force =     0.00621510    0.00181986   -0.00218489
     atom   20 type  3   force =    -0.00621510   -0.00181986    0.00218489
     The non-local contrib.  to forces
     atom    1 type  1   force =     0.00217381   -0.00300456    0.01131964
     atom    2 type  1   force =    -0.00217381    0.00300456   -0.01131964
     atom    3 type  2   force =     0.04108031    0.21023665   -0.16349025
     atom    4 type  2   force =    -0.04108031   -0.21023665    0.16349025
     atom    5 type  2   force =     0.09373764    0.21458540    0.21970857
     atom    6 type  2   force =    -0.09373764   -0.21458540   -0.21970857
     atom    7 type  3   force =    -0.00153078    0.00692893   -0.00813535
     atom    8 type  3   force =     0.00153078   -0.00692893    0.00813535
     atom    9 type  3   force =    -0.00616642    0.01715498    0.00573689
     atom   10 type  3   force =     0.00616642   -0.01715498   -0.00573689
     atom   11 type  3   force =    -0.00399069    0.00949983   -0.00893410
     atom   12 type  3   force =     0.00399069   -0.00949983    0.00893410
     atom   13 type  3   force =    -0.01955332   -0.00174299   -0.00544751
     atom   14 type  3   force =     0.01955332    0.00174299    0.00544751
     atom   15 type  3   force =     0.01116182   -0.01528264   -0.00681682
     atom   16 type  3   force =    -0.01116182    0.01528264    0.00681682
     atom   17 type  3   force =    -0.00257800    0.00228121   -0.00242699
     atom   18 type  3   force =     0.00257800   -0.00228121    0.00242699
     atom   19 type  3   force =     0.01723551    0.00193080    0.00170616
     atom   20 type  3   force =    -0.01723551   -0.00193080   -0.00170616
     The ionic contribution  to forces
     atom    1 type  1   force =     0.32779626    0.29265475    0.63329328
     atom    2 type  1   force =    -0.32779626   -0.29265475   -0.63329328
     atom    3 type  2   force =    -0.41133511    0.70372052    1.16314964
     atom    4 type  2   force =     0.41133511   -0.70372052   -1.16314964
     atom    5 type  2   force =    -2.15440844    1.65524473   -2.83934293
     atom    6 type  2   force =     2.15440844   -1.65524473    2.83934293
     atom    7 type  3   force =     0.64790588    4.29167218   -4.54892426
     atom    8 type  3   force =    -0.64790588   -4.29167218    4.54892426
     atom    9 type  3   force =    -0.58224750    4.29801649    1.07571151
     atom   10 type  3   force =     0.58224750   -4.29801649   -1.07571151
     atom   11 type  3   force =    -2.69573606    2.65941177   -3.08916526
     atom   12 type  3   force =     2.69573606   -2.65941177    3.08916526
     atom   13 type  3   force =    -6.10708793   -0.47969126   -1.43372314
     atom   14 type  3   force =     6.10708793    0.47969126    1.43372314
     atom   15 type  3   force =     2.91871954   -3.23963164   -2.04577846
     atom   16 type  3   force =    -2.91871954    3.23963164    2.04577846
     atom   17 type  3   force =     0.51000039    6.20119483   -0.11501081
     atom   18 type  3   force =    -0.51000039   -6.20119483    0.11501081
     atom   19 type  3   force =     5.12223156    3.33354099    3.16357201
     atom   20 type  3   force =    -5.12223156   -3.33354099   -3.16357201
     The local contribution  to forces
     atom    1 type  1   force =    -0.33078639   -0.28907811   -0.64721131
     atom    2 type  1   force =     0.33079237    0.28908025    0.64723094
     atom    3 type  2   force =     0.37264293   -0.90968157   -1.00546781
     atom    4 type  2   force =    -0.37261652    0.90968358    1.00556469
     atom    5 type  2   force =     2.06271327   -1.87408697    2.62437500
     atom    6 type  2   force =    -2.06273341    1.87408719   -2.62451119
     atom    7 type  3   force =    -0.64968030   -4.31181861    4.57326804
     atom    8 type  3   force =     0.64967994    4.31180623   -4.57321534
     atom    9 type  3   force =     0.59475875   -4.32500876   -1.08352215
     atom   10 type  3   force =    -0.59475411    4.32499981    1.08350869
     atom   11 type  3   force =     2.71164136   -2.67625412    3.10164286
     atom   12 type  3   force =    -2.71164610    2.67624632   -3.10161755
     atom   13 type  3   force =     6.14251694    0.47973591    1.44015054
     atom   14 type  3   force =    -6.14252035   -0.47971615   -1.44009167
     atom   15 type  3   force =    -2.94189488    3.25993047    2.05527308
     atom   16 type  3   force =     2.94190660   -3.25992089   -2.05531536
     atom   17 type  3   force =    -0.50280243   -6.21454690    0.11414932
     atom   18 type  3   force =     0.50279710    6.21453321   -0.11418668
     atom   19 type  3   force =    -5.15109803   -3.33740677   -3.17326838
     atom   20 type  3   force =     5.15108609    3.33741753    3.17321551
     The core correction contribution to forces
     atom    1 type  1   force =     0.00000000    0.00000000    0.00000000
     atom    2 type  1   force =     0.00000000    0.00000000    0.00000000
     atom    3 type  2   force =    -0.00133948   -0.00602050    0.00445389
     atom    4 type  2   force =     0.00133977    0.00602151   -0.00445404
     atom    5 type  2   force =    -0.00308301   -0.00563931   -0.00661390
     atom    6 type  2   force =     0.00308233    0.00563945    0.00661233
     atom    7 type  3   force =     0.00176323    0.01242219   -0.01535066
     atom    8 type  3   force =    -0.00176325   -0.01242224    0.01535093
     atom    9 type  3   force =    -0.00240467    0.01344541    0.00634072
     atom   10 type  3   force =     0.00240509   -0.01344679   -0.00634133
     atom   11 type  3   force =    -0.00770748    0.00709830   -0.00589909
     atom   12 type  3   force =     0.00770736   -0.00709828    0.00589936
     atom   13 type  3   force =    -0.01686513   -0.00167335   -0.00495560
     atom   14 type  3   force =     0.01686456    0.00167333    0.00495544
     atom   15 type  3   force =     0.01122812   -0.00903928   -0.00926304
     atom   16 type  3   force =    -0.01122843    0.00904041    0.00926290
     atom   17 type  3   force =    -0.00033900    0.01754374   -0.00036037
     atom   18 type  3   force =     0.00033921   -0.01754344    0.00036025
     atom   19 type  3   force =     0.01759950    0.00373871    0.00570585
     atom   20 type  3   force =    -0.01759934   -0.00373853   -0.00570602
     The Hubbard contrib.    to forces
     atom    1 type  1   force =     0.00000000    0.00000000    0.00000000
     atom    2 type  1   force =     0.00000000    0.00000000    0.00000000
     atom    3 type  2   force =     0.00000000    0.00000000    0.00000000
     atom    4 type  2   force =     0.00000000    0.00000000    0.00000000
     atom    5 type  2   force =     0.00000000    0.00000000    0.00000000
     atom    6 type  2   force =     0.00000000    0.00000000    0.00000000
     atom    7 type  3   force =     0.00000000    0.00000000    0.00000000
     atom    8 type  3   force =     0.00000000    0.00000000    0.00000000
     atom    9 type  3   force =     0.00000000    0.00000000    0.00000000
     atom   10 type  3   force =     0.00000000    0.00000000    0.00000000
     atom   11 type  3   force =     0.00000000    0.00000000    0.00000000
     atom   12 type  3   force =     0.00000000    0.00000000    0.00000000
     atom   13 type  3   force =     0.00000000    0.00000000    0.00000000
     atom   14 type  3   force =     0.00000000    0.00000000    0.00000000
     atom   15 type  3   force =     0.00000000    0.00000000    0.00000000
     atom   16 type  3   force =     0.00000000    0.00000000    0.00000000
     atom   17 type  3   force =     0.00000000    0.00000000    0.00000000
     atom   18 type  3   force =     0.00000000    0.00000000    0.00000000
     atom   19 type  3   force =     0.00000000    0.00000000    0.00000000
     atom   20 type  3   force =     0.00000000    0.00000000    0.00000000
     The SCF correction term to forces
     atom    1 type  1   force =    -0.00000089    0.00020441    0.00005387
     atom    2 type  1   force =    -0.00000684   -0.00020622   -0.00007596
     atom    3 type  2   force =     0.00030834   -0.00016056    0.00028113
     atom    4 type  2   force =    -0.00033045    0.00016647   -0.00038633
     atom    5 type  2   force =    -0.00079004    0.00028389   -0.00043929
     atom    6 type  2   force =     0.00080750   -0.00028412    0.00057350
     atom    7 type  3   force =     0.00006585    0.00006556   -0.00006811
     atom    8 type  3   force =    -0.00006599   -0.00005430    0.00001299
     atom    9 type  3   force =     0.00004232   -0.00000168   -0.00001645
     atom   10 type  3   force =    -0.00005032    0.00001979    0.00003452
     atom   11 type  3   force =    -0.00005638    0.00007322   -0.00006572
     atom   12 type  3   force =     0.00006119   -0.00006507    0.00003705
     atom   13 type  3   force =     0.00001200   -0.00009314   -0.00009094
     atom   14 type  3   force =    -0.00000484    0.00007518    0.00003030
     atom   15 type  3   force =     0.00022869   -0.00001621   -0.00007313
     atom   16 type  3   force =    -0.00023988   -0.00000187    0.00011866
     atom   17 type  3   force =    -0.00010168    0.00016974   -0.00005448
     atom   18 type  3   force =     0.00010588   -0.00015746    0.00009483
     atom   19 type  3   force =     0.00024560    0.00001529    0.00010114
     atom   20 type  3   force =    -0.00023574   -0.00002792   -0.00004475

     Total force =     0.028330     Total SCF correction =     0.001720

     Computing stress (Cartesian axis) and pressure

     negative rho (up, down):  1.572E-01 0.000E+00
          total   stress  (Ry/bohr**3)                   (kbar)     P=        2.75
   0.00004162  -0.00000398   0.00000143            6.12       -0.58        0.21
  -0.00000398  -0.00000774   0.00001000           -0.58       -1.14        1.47
   0.00000143   0.00001000   0.00002222            0.21        1.47        3.27

     kinetic stress (kbar)   3887.41      3.73     -2.48
                                3.73   3858.83      3.13
                               -2.48      3.13   3876.30

     local   stress (kbar)    600.13    699.67    437.45
                              699.67     -0.35   -375.28
                              437.45   -375.28   -229.09

     nonloc. stress (kbar)   1480.99      1.14      0.18
                                1.14   1501.76     -3.39
                                0.18     -3.39   1491.06

     hartree stress (kbar)   2841.75   -303.09   -212.78
                             -303.09   3020.40    170.97
                             -212.78    170.97   3183.53

     exc-cor stress (kbar)  11204.25     -0.07      0.01
                               -0.07  11205.13     -0.07
                                0.01     -0.07  11204.71

     corecor stress (kbar) -13439.44     -0.16      0.04
                               -0.16 -13438.36     -0.03
                                0.04     -0.03 -13439.01

     ewald   stress (kbar)  -6568.98   -401.79   -222.22
                             -401.79  -6148.54    206.15
                             -222.22    206.15  -6084.23

     hubbard stress (kbar)      0.00      0.00      0.00
                                0.00      0.00      0.00
                                0.00      0.00      0.00

     DFT-D   stress (kbar)      0.00      0.00      0.00
                                0.00      0.00      0.00
                                0.00      0.00      0.00

     XDM     stress (kbar)      0.00      0.00      0.00
                                0.00      0.00      0.00
                                0.00      0.00      0.00

     dft-nl  stress (kbar)      0.00      0.00      0.00
                                0.00      0.00      0.00
                                0.00      0.00      0.00

     TS-vdW  stress (kbar)      0.00      0.00      0.00
                                0.00      0.00      0.00
                                0.00      0.00      0.00

[...]

                                0.00      0.00      0.00

     Writing all to output data dir new_calculations/myprefix.save/

     General routines

     Parallel routines

   This run was terminated on:  17:24:22  21May2023

   JOB DONE.