     Program PWSCF v.7.0 starts on 21May2023 at  4: 7: 9

     Reading input from espresso_21544.pwi
Warning: card &CELL ignored
Warning: card / ignored

     Current dimensions of program PWSCF are:
     Max number of different atomic species (ntypx) = 10
     Max number of k-points (npk) =  40000
     Max angular momentum in pseudopotentials (lmaxx) =  4

     gamma-point specific algorithms are used
     Message from routine setup:
     using ibrav=0 with symmetry is DISCOURAGED, use correct ibrav instead

     Subspace diagonalization in iterative solution of the eigenvalue problem:
     a serial algorithm will be used

     Using Slab Decomposition

     bravais-lattice index     =            0
     lattice parameter (alat)  =      16.4399  a.u.
     unit-cell volume          =    3141.8447 (a.u.)^3
     number of atoms/cell      =           10
     number of atomic types    =            4
     number of electrons       =        84.00
     number of Kohn-Sham states=           50
     kinetic-energy cutoff     =      30.0000  Ry
     charge density cutoff     =     240.0000  Ry
     scf convergence threshold =      1.0E-06
     mixing beta               =       0.7000
     number of iterations used =            8  plain     mixing
     Exchange-correlation=  SLA  PW   PBX  PBC
                           (   1   4   3   4   0   0   0)

     celldm(1)=  16.439928  celldm(2)=   0.000000  celldm(3)=   0.000000
     celldm(4)=   0.000000  celldm(5)=   0.000000  celldm(6)=   0.000000

     crystal axes: (cart. coord. in units of alat)
               a(1) = (   1.000000   0.000000   0.000000 )
               a(2) = (   0.500000   0.866025   0.000000 )
               a(3) = (   0.500000   0.288675   0.816497 )

     reciprocal axes: (cart. coord. in units 2 pi/alat)
               b(1) = (  1.000000 -0.577350 -0.408248 )
               b(2) = (  0.000000  1.154701 -0.408248 )
               b(3) = (  0.000000  0.000000  1.224745 )

     PseudoPot. # 1 for Cs read from file:
     /home/pragov/projects/rrg-bengioy-ad/pragov/crystal_structure_design/SSSP/Cs_pbe_v1.uspp.F.UPF
     MD5 check sum: 3476d69cb178dfad3ffaa59df4e07ca4
     Pseudo is Ultrasoft + core correction, Zval =  9.0
     Generated by new atomic code, or converted to UPF format
     Using radial grid of  905 points,  6 beta functions with:
                l(1) =   0
                l(2) =   0
                l(3) =   1
                l(4) =   1
                l(5) =   2
                l(6) =   2
     Q(r) pseudized with  6 coefficients,  rinner =    1.500   1.500   1.500
                                                       1.500   1.500

     PseudoPot. # 2 for Rb read from file:
     /home/pragov/projects/rrg-bengioy-ad/pragov/crystal_structure_design/SSSP/Rb_ONCV_PBE-1.0.oncvpsp.upf
     MD5 check sum: 55a5172d6bfbce6759a58e35d43f6aa9
     Pseudo is Norm-conserving, Zval =  9.0
     Generated using ONCVPSP code by D. R. Hamann
     Using radial grid of 2308 points,  6 beta functions with:
                l(1) =   0
                l(2) =   0
                l(3) =   1
                l(4) =   1
                l(5) =   2
                l(6) =   2

     PseudoPot. # 3 for Bi read from file:
     /home/pragov/projects/rrg-bengioy-ad/pragov/crystal_structure_design/SSSP/Bi_pbe_v1.uspp.F.UPF
     MD5 check sum: cceb9f28ec65b6d7ff33140f5b0b1758
     Pseudo is Ultrasoft + core correction, Zval = 15.0
     Generated by new atomic code, or converted to UPF format
     Using radial grid of  899 points,  6 beta functions with:
                l(1) =   0
                l(2) =   0
                l(3) =   1
                l(4) =   1
                l(5) =   2
                l(6) =   2
     Q(r) pseudized with  6 coefficients,  rinner =    1.000   1.000   1.000
                                                       1.000   1.000

     PseudoPot. # 4 for Br read from file:
     /home/pragov/projects/rrg-bengioy-ad/pragov/crystal_structure_design/SSSP/br_pbe_v1.4.uspp.F.UPF
     MD5 check sum: d3ffb7b29f6225aa16fe06858fb2a80b
     Pseudo is Ultrasoft + core correction, Zval =  7.0
     Generated by new atomic code, or converted to UPF format
     Using radial grid of  879 points,  6 beta functions with:
                l(1) =   0
                l(2) =   0
                l(3) =   1
                l(4) =   1
                l(5) =   2
                l(6) =   2
     Q(r) pseudized with  8 coefficients,  rinner =    1.100   1.100   1.100
                                                       1.100   1.100

     atomic species   valence    mass     pseudopotential
        Cs             9.00   132.90545     Cs( 1.00)
        Rb             9.00    85.46780     Rb( 1.00)
        Bi            15.00   208.98040     Bi( 1.00)
        Br             7.00    79.90400     Br( 1.00)

     12 Sym. Ops., with inversion, found

                                    s                        frac. trans.

      isym =  1     identity

 cryst.   s( 1) = (     1          0          0      )
                  (     0          1          0      )
                  (     0          0          1      )

 cart.    s( 1) = (  1.0000000  0.0000000  0.0000000 )
                  (  0.0000000  1.0000000 -0.0000000 )
                  (  0.0000000  0.0000000  1.0000000 )

      isym =  2     180 deg rotation - cart. axis [1,0,0]

[...]

      isym =  3     120 deg rotation - cryst. axis [0,0,1]

[...]

      isym =  6     180 deg rotation - cryst. axis [1,1,0]

[...]

      isym =  7     inversion

[...]

      isym =  8     inv. 180 deg rotation - cart. axis [1,0,0]

[...]

      isym =  9     inv. 120 deg rotation - cryst. axis [0,0,1]

 cryst.   s( 9) = (     1         -1          0      )
                  (     1          0          0      )
                  (     1          0         -1      )

 cart.    s( 9) = (  0.5000000  0.8660254  0.0000000 )
                  ( -0.8660254  0.5000000  0.0000000 )
                  (  0.0000000  0.0000000 -1.0000000 )

[...]

 cryst.   s(10) = (     0          1          0      )
                  (    -1          1          0      )
                  (     0          1         -1      )

 cart.    s(10) = (  0.5000000 -0.8660254 -0.0000000 )
                  (  0.8660254  0.5000000  0.0000000 )
                  (  0.0000000  0.0000000 -1.0000000 )

[...]

      isym = 12     inv. 180 deg rotation - cryst. axis [1,1,0]

 cryst.   s(12) = (     1         -1          0      )
                  (     0         -1          0      )
                  (     0         -1          1      )

 cart.    s(12) = (  0.5000000 -0.8660254 -0.0000000 )
                  ( -0.8660254 -0.5000000 -0.0000000 )
                  (  0.0000000  0.0000000  1.0000000 )

   Cartesian axes

     site n.     atom                  positions (alat units)
         1           Cs  tau(   1) = (   1.5000000   0.8660254   0.6123724  )
         2           Cs  tau(   2) = (   0.5000000   0.2886751   0.2041241  )
         3           Rb  tau(   3) = (   1.0000000   0.5773503   0.4082483  )
         4           Bi  tau(   4) = (   0.0000000   0.0000000   0.0000000  )
         5           Br  tau(   5) = (   1.0000000   0.2695244   0.1905825  )
         6           Br  tau(   6) = (   0.7334150   0.4234373   0.6259140  )
         7           Br  tau(   7) = (   1.0000000   0.8851761   0.6259140  )
         8           Br  tau(   8) = (   0.7334150   0.7312632   0.1905825  )
         9           Br  tau(   9) = (   1.2665850   0.4234373   0.6259140  )
        10           Br  tau(  10) = (   1.2665850   0.7312632   0.1905825  )

   Crystallographic axes

     site n.     atom                  positions (cryst. coord.)
         1           Cs  tau(   1) = (  0.7500000  0.7500000  0.7500000  )
         2           Cs  tau(   2) = (  0.2500000  0.2500000  0.2500000  )
         3           Rb  tau(   3) = (  0.5000000  0.5000000  0.5000000  )
         4           Bi  tau(   4) = (  0.0000000  0.0000000  0.0000000  )
         5           Br  tau(   5) = (  0.7665850  0.2334150  0.2334150  )
         6           Br  tau(   6) = (  0.2334150  0.2334150  0.7665850  )
         7           Br  tau(   7) = (  0.2334150  0.7665850  0.7665850  )
         8           Br  tau(   8) = (  0.2334150  0.7665850  0.2334150  )
         9           Br  tau(   9) = (  0.7665850  0.2334150  0.7665850  )
        10           Br  tau(  10) = (  0.7665850  0.7665850  0.2334150  )

     number of k points=     1  Methfessel-Paxton smearing, width (Ry)=  0.0010
                       cart. coord. in units 2pi/alat
        k(    1) = (   0.0000000   0.0000000   0.0000000), wk =   2.0000000

                       cryst. coord.
        k(    1) = (   0.0000000   0.0000000   0.0000000), wk =   2.0000000

     Check: negative core charge=   -0.000002

     Initial potential from superposition of free atoms

     starting charge      82.8963, renormalised to      84.0000

     negative rho (up, down):  4.123E-02 0.000E+00
     Starting wfcs are   64 randomized atomic wfcs

     Self-consistent Calculation

     iteration #  1     ecut=    30.00 Ry     beta= 0.70
     Davidson diagonalization with overlap

     ethr =  1.00E-02,  avg # of iterations =  2.0

     Threshold (ethr) on eigenvalues was too large:
     Diagonalizing with lowered threshold

     Davidson diagonalization with overlap

[...]

     negative rho (up, down):  3.948E-02 0.000E+00

     total energy              =    -642.23789707 Ry
     estimated scf accuracy    <       0.38329749 Ry

[...]

     total energy              =    -642.36233919 Ry
     estimated scf accuracy    <       0.00000317 Ry

     iteration #  7     ecut=    30.00 Ry     beta= 0.70
     Davidson diagonalization with overlap

     ethr =  3.77E-09,  avg # of iterations =  2.0

[...]

     End of self-consistent calculation

          k = 0.0000 0.0000 0.0000 (  4329 PWs)   bands (ev):

   -23.6235 -20.7237 -20.7237 -20.7077 -20.7077 -20.7077 -19.2024 -19.2013
   -11.9478 -11.4772 -11.4770 -11.4769 -11.3031 -11.3029  -7.8157  -7.7456
    -7.7455  -7.7455  -5.9903  -5.9903  -5.9903  -5.9721  -5.9721  -5.9721
    -1.2414  -1.2413  -1.2413   0.0486   0.0486   0.0487   0.3486   0.3487
     0.7382   0.7382   0.7383   0.7983   0.7983   0.7984   0.8385   1.1550
     1.1550   1.1551   5.1949   5.1950   5.1950   5.3936   6.7509   6.7509
     6.9461   7.5105

     occupation numbers
     1.0000   1.0000   1.0000   1.0000   1.0000   1.0000   1.0000   1.0000
     1.0000   1.0000   1.0000   1.0000   1.0000   1.0000   1.0000   1.0000
     1.0000   1.0000   1.0000   1.0000   1.0000   1.0000   1.0000   1.0000
     1.0000   1.0000   1.0000   1.0000   1.0000   1.0000   1.0000   1.0000
     1.0000   1.0000   1.0000   1.0000   1.0000   1.0000   1.0000   1.0000
     1.0000   1.0000  -0.0000  -0.0000  -0.0000  -0.0000  -0.0000  -0.0000
    -0.0000  -0.0000

     the Fermi energy is     3.7208 ev

!    total energy              =    -642.36234000 Ry
     estimated scf accuracy    <       0.00000010 Ry
     smearing contrib. (-TS)   =       0.00000000 Ry
     internal energy E=F+TS    =    -642.36234000 Ry

     The total energy is F=E-TS. E is the sum of the following terms:
     one-electron contribution =    -198.84642014 Ry
     hartree contribution      =     128.53529426 Ry
     xc contribution           =    -289.65565514 Ry
     ewald contribution        =    -282.39555897 Ry

     convergence has been achieved in   7 iterations

     negative rho (up, down):  3.993E-02 0.000E+00

     Forces acting on atoms (cartesian axes, Ry/au):

     atom    1 type  1   force =    -0.00000000    0.00000000    0.00000156
     atom    2 type  1   force =     0.00000000   -0.00000000   -0.00000156
     atom    3 type  2   force =     0.00000000    0.00000000    0.00000000
     atom    4 type  3   force =    -0.00000000   -0.00000000   -0.00000000
     atom    5 type  4   force =     0.00000000   -0.00109206   -0.00076945
     atom    6 type  4   force =    -0.00094575   -0.00054603    0.00076945
     atom    7 type  4   force =     0.00000000    0.00109206    0.00076945
     atom    8 type  4   force =    -0.00094575    0.00054603   -0.00076945
     atom    9 type  4   force =     0.00094575   -0.00054603    0.00076945
     atom   10 type  4   force =     0.00094575    0.00054603   -0.00076945
     The non-local contrib.  to forces
     atom    1 type  1   force =     0.00000000    0.00000000   -0.00000374
     atom    2 type  1   force =    -0.00000000   -0.00000000    0.00000374
     atom    3 type  2   force =     0.00000000    0.00000000    0.00000000
     atom    4 type  3   force =    -0.00000000    0.00000000    0.00000000
     atom    5 type  4   force =    -0.00000000    0.01050547    0.00744752
     atom    6 type  4   force =     0.00909800    0.00525273   -0.00744752
     atom    7 type  4   force =     0.00000000   -0.01050547   -0.00744752
     atom    8 type  4   force =     0.00909800   -0.00525273    0.00744752
     atom    9 type  4   force =    -0.00909800    0.00525273   -0.00744752
     atom   10 type  4   force =    -0.00909800   -0.00525273    0.00744752
     The ionic contribution  to forces
     atom    1 type  1   force =    -0.00000000   -0.00000000    0.00000000
     atom    2 type  1   force =     0.00000000   -0.00000000   -0.00000000
     atom    3 type  2   force =     0.00000000    0.00000000    0.00000000
     atom    4 type  3   force =    -0.00000000    0.00000000    0.00000000
     atom    5 type  4   force =    -0.00000000    3.64802998    2.57954674
     atom    6 type  4   force =     3.15928664    1.82401499   -2.57954674
     atom    7 type  4   force =     0.00000000   -3.64802998   -2.57954674
     atom    8 type  4   force =     3.15928664   -1.82401499    2.57954674
     atom    9 type  4   force =    -3.15928664    1.82401499   -2.57954674
     atom   10 type  4   force =    -3.15928664   -1.82401499    2.57954674
     The local contribution  to forces
     atom    1 type  1   force =     0.00001089    0.00005380   -0.00007053
     atom    2 type  1   force =    -0.00004574   -0.00002803    0.00003525
     atom    3 type  2   force =     0.00001715    0.00000315   -0.00000277
     atom    4 type  3   force =     0.00013197   -0.00014751    0.00021788
     atom    5 type  4   force =     0.00004893   -3.66746469   -2.59317346
     atom    6 type  4   force =    -3.17605757   -1.83374138    2.59326785
     atom    7 type  4   force =    -0.00001117    3.66742457    2.59322181
     atom    8 type  4   force =    -3.17608068    1.83376002   -2.59321478
     atom    9 type  4   force =     3.17602779   -1.83372607    2.59319080
     atom   10 type  4   force =     3.17609458    1.83370928   -2.59321171
     The core correction contribution to forces
     atom    1 type  1   force =    -0.00000023    0.00000203   -0.00000049
     atom    2 type  1   force =    -0.00000022   -0.00000178    0.00000044
     atom    3 type  2   force =     0.00000000    0.00000000    0.00000000
     atom    4 type  3   force =     0.00000222   -0.00000260    0.00000182
     atom    5 type  4   force =     0.00000210    0.00775359    0.00548689
     atom    6 type  4   force =     0.00671764    0.00387775   -0.00548311
     atom    7 type  4   force =    -0.00000104   -0.00775485   -0.00548444
     atom    8 type  4   force =     0.00671410   -0.00387528    0.00548497
     atom    9 type  4   force =    -0.00672119    0.00387775   -0.00549020
     atom   10 type  4   force =    -0.00671418   -0.00387738    0.00548465
     The Hubbard contrib.    to forces
     atom    1 type  1   force =     0.00000000    0.00000000    0.00000000
     atom    2 type  1   force =     0.00000000    0.00000000    0.00000000
     atom    3 type  2   force =     0.00000000    0.00000000    0.00000000
     atom    4 type  3   force =     0.00000000    0.00000000    0.00000000
     atom    5 type  4   force =     0.00000000    0.00000000    0.00000000
     atom    6 type  4   force =     0.00000000    0.00000000    0.00000000
     atom    7 type  4   force =     0.00000000    0.00000000    0.00000000
     atom    8 type  4   force =     0.00000000    0.00000000    0.00000000
     atom    9 type  4   force =     0.00000000    0.00000000    0.00000000
     atom   10 type  4   force =     0.00000000    0.00000000    0.00000000
     The SCF correction term to forces
     atom    1 type  1   force =    -0.00001536   -0.00005065    0.00008372
     atom    2 type  1   force =     0.00005861    0.00002740   -0.00003359
     atom    3 type  2   force =    -0.00002222   -0.00001353    0.00001285
     atom    4 type  3   force =    -0.00016136    0.00017368   -0.00023486
     atom    5 type  4   force =    -0.00006721    0.00009388   -0.00008671
     atom    6 type  4   force =    -0.00000326    0.00005066   -0.00003906
     atom    7 type  4   force =     0.00001921   -0.00004163    0.00001888
     atom    8 type  4   force =     0.00004628   -0.00008618   -0.00002984
     atom    9 type  4   force =     0.00005384    0.00003796    0.00008884
     atom   10 type  4   force =    -0.00006059   -0.00001772   -0.00003090

     Total force =     0.003272     Total SCF correction =     0.000427
     SCF correction compared to forces is large: reduce conv_thr to get better values

     Computing stress (Cartesian axis) and pressure

     negative rho (up, down):  3.993E-02 0.000E+00
          total   stress  (Ry/bohr**3)                   (kbar)     P=        9.02
   0.00006131  -0.00000000  -0.00000000            9.02       -0.00       -0.00
  -0.00000000   0.00006131   0.00000000           -0.00        9.02        0.00
  -0.00000000   0.00000000   0.00006130           -0.00        0.00        9.02

     kinetic stress (kbar)   3255.19      0.00      0.00
                                0.00   3255.19      0.00
                                0.00      0.00   3255.19

     local   stress (kbar)   -765.76     -0.00     -0.01
                               -0.00   -765.75     -0.00
                               -0.01     -0.00   -765.77

     nonloc. stress (kbar)   1539.76     -0.00      0.00
                               -0.00   1539.76      0.00
                                0.00      0.00   1539.76

     hartree stress (kbar)   2006.06     -0.00      0.01
                               -0.00   2006.05      0.00
                                0.01      0.00   2006.07

     exc-cor stress (kbar)   8635.06      0.00     -0.00
                                0.00   8635.06     -0.00
                               -0.00     -0.00   8635.06

     corecor stress (kbar) -10253.92     -0.00      0.00
                               -0.00 -10253.92     -0.00
                                0.00     -0.00 -10253.92

     ewald   stress (kbar)  -4407.37      0.00     -0.00
                                0.00  -4407.37     -0.00
                               -0.00     -0.00  -4407.37

     hubbard stress (kbar)      0.00      0.00      0.00
                                0.00      0.00      0.00
                                0.00      0.00      0.00

     DFT-D   stress (kbar)      0.00      0.00      0.00
                                0.00      0.00      0.00
                                0.00      0.00      0.00

     XDM     stress (kbar)      0.00      0.00      0.00
                                0.00      0.00      0.00
                                0.00      0.00      0.00

     dft-nl  stress (kbar)      0.00      0.00      0.00
                                0.00      0.00      0.00
                                0.00      0.00      0.00

     TS-vdW  stress (kbar)      0.00      0.00      0.00
                                0.00      0.00      0.00
                                0.00      0.00      0.00

[...]

                                0.00      0.00      0.00

     Writing all to output data dir new_calculations/myprefix.save/

     General routines

     Parallel routines

   This run was terminated on:   4: 7:32  21May2023

   JOB DONE.