     Program PWSCF v.7.0 starts on 21May2023 at  4:37:23

     Reading input from espresso_8076.pwi
Warning: card &CELL ignored
Warning: card / ignored

     Current dimensions of program PWSCF are:
     Max number of different atomic species (ntypx) = 10
     Max number of k-points (npk) =  40000
     Max angular momentum in pseudopotentials (lmaxx) =  4

     gamma-point specific algorithms are used
     Message from routine setup:
     using ibrav=0 with symmetry is DISCOURAGED, use correct ibrav instead

     Subspace diagonalization in iterative solution of the eigenvalue problem:
     a serial algorithm will be used

     Using Slab Decomposition

     bravais-lattice index     =            0
     lattice parameter (alat)  =      12.6038  a.u.
     unit-cell volume          =    1415.7467 (a.u.)^3
     number of atoms/cell      =           10
     number of atomic types    =            4
     number of electrons       =        94.00
     number of Kohn-Sham states=           56
     kinetic-energy cutoff     =      30.0000  Ry
     charge density cutoff     =     240.0000  Ry
     scf convergence threshold =      1.0E-06
     mixing beta               =       0.7000
     number of iterations used =            8  plain     mixing
     Exchange-correlation=  SLA  PW   PBX  PBC
                           (   1   4   3   4   0   0   0)

     celldm(1)=  12.603762  celldm(2)=   0.000000  celldm(3)=   0.000000
     celldm(4)=   0.000000  celldm(5)=   0.000000  celldm(6)=   0.000000

     crystal axes: (cart. coord. in units of alat)
               a(1) = (   1.000000   0.000000   0.000000 )
               a(2) = (   0.500000   0.866025   0.000000 )
               a(3) = (   0.500000   0.288675   0.816497 )

     reciprocal axes: (cart. coord. in units 2 pi/alat)
               b(1) = (  1.000000 -0.577350 -0.408248 )
               b(2) = (  0.000000  1.154701 -0.408248 )
               b(3) = (  0.000000  0.000000  1.224745 )

     PseudoPot. # 1 for Rb read from file:
     /home/pragov/projects/rrg-bengioy-ad/pragov/crystal_structure_design/SSSP/Rb_ONCV_PBE-1.0.oncvpsp.upf
     MD5 check sum: 55a5172d6bfbce6759a58e35d43f6aa9
     Pseudo is Norm-conserving, Zval =  9.0
     Generated using ONCVPSP code by D. R. Hamann
     Using radial grid of 2308 points,  6 beta functions with:
                l(1) =   0
                l(2) =   0
                l(3) =   1
                l(4) =   1
                l(5) =   2
                l(6) =   2

     PseudoPot. # 2 for Ag read from file:
     /home/pragov/projects/rrg-bengioy-ad/pragov/crystal_structure_design/SSSP/Ag_ONCV_PBE-1.0.oncvpsp.upf
     MD5 check sum: 94f47bd0669c641108e45594df92fabc
     Pseudo is Norm-conserving, Zval = 19.0
     Generated using ONCVPSP code by D. R. Hamann
     Using radial grid of 1398 points,  6 beta functions with:
                l(1) =   0
                l(2) =   0
                l(3) =   1
                l(4) =   1
                l(5) =   2
                l(6) =   2

     PseudoPot. # 3 for Bi read from file:
     /home/pragov/projects/rrg-bengioy-ad/pragov/crystal_structure_design/SSSP/Bi_pbe_v1.uspp.F.UPF
     MD5 check sum: cceb9f28ec65b6d7ff33140f5b0b1758
     Pseudo is Ultrasoft + core correction, Zval = 15.0
     Generated by new atomic code, or converted to UPF format
     Using radial grid of  899 points,  6 beta functions with:
                l(1) =   0
                l(2) =   0
                l(3) =   1
                l(4) =   1
                l(5) =   2
                l(6) =   2
     Q(r) pseudized with  6 coefficients,  rinner =    1.000   1.000   1.000
                                                       1.000   1.000

     PseudoPot. # 4 for F  read from file:
     /home/pragov/projects/rrg-bengioy-ad/pragov/crystal_structure_design/SSSP/f_pbe_v1.4.uspp.F.UPF
     MD5 check sum: 4c38b6a325caf53ec0e86aed9459de46
     Pseudo is Ultrasoft, Zval =  7.0
     Generated by new atomic code, or converted to UPF format
     Using radial grid of  799 points,  4 beta functions with:
                l(1) =   0
                l(2) =   0
                l(3) =   1
                l(4) =   1
     Q(r) pseudized with  8 coefficients,  rinner =    0.950   0.950   0.950

     atomic species   valence    mass     pseudopotential
        Rb             9.00    85.46780     Rb( 1.00)
        Ag            19.00   107.86820     Ag( 1.00)
        Bi            15.00   208.98040     Bi( 1.00)
        F              7.00    18.99840     F ( 1.00)

     12 Sym. Ops., with inversion, found

                                    s                        frac. trans.

      isym =  1     identity

 cryst.   s( 1) = (     1          0          0      )
                  (     0          1          0      )
                  (     0          0          1      )

 cart.    s( 1) = (  1.0000000  0.0000000  0.0000000 )
                  (  0.0000000  1.0000000  0.0000000 )
                  (  0.0000000  0.0000000  1.0000000 )

      isym =  2     180 deg rotation - cart. axis [1,0,0]

[...]

      isym =  3     120 deg rotation - cryst. axis [0,0,1]

[...]

      isym =  6     180 deg rotation - cryst. axis [1,1,0]

[...]

      isym =  7     inversion

[...]

      isym =  8     inv. 180 deg rotation - cart. axis [1,0,0]

[...]

      isym =  9     inv. 120 deg rotation - cryst. axis [0,0,1]

 cryst.   s( 9) = (     1         -1          0      )
                  (     1          0          0      )
                  (     1          0         -1      )

 cart.    s( 9) = (  0.5000000  0.8660254 -0.0000000 )
                  ( -0.8660254  0.5000000 -0.0000000 )
                  (  0.0000000  0.0000000 -1.0000000 )

[...]

 cryst.   s(10) = (     0          1          0      )
                  (    -1          1          0      )
                  (     0          1         -1      )

 cart.    s(10) = (  0.5000000 -0.8660254  0.0000000 )
                  (  0.8660254  0.5000000 -0.0000000 )
                  (  0.0000000  0.0000000 -1.0000000 )

[...]

      isym = 12     inv. 180 deg rotation - cryst. axis [1,1,0]

 cryst.   s(12) = (     1         -1          0      )
                  (     0         -1          0      )
                  (     0         -1          1      )

 cart.    s(12) = (  0.5000000 -0.8660254  0.0000000 )
                  ( -0.8660254 -0.5000000  0.0000000 )
                  (  0.0000000  0.0000000  1.0000000 )

   Cartesian axes

     site n.     atom                  positions (alat units)
         1           Rb  tau(   1) = (   1.5000000   0.8660254   0.6123724  )
         2           Rb  tau(   2) = (   0.5000000   0.2886751   0.2041241  )
         3           Ag  tau(   3) = (   1.0000000   0.5773503   0.4082483  )
         4           Bi  tau(   4) = (   0.0000000   0.0000000   0.0000000  )
         5           F   tau(   5) = (   1.0000000   0.2778429   0.1964646  )
         6           F   tau(   6) = (   0.7406190   0.4275966   0.6200320  )
         7           F   tau(   7) = (   1.0000000   0.8768576   0.6200320  )
         8           F   tau(   8) = (   0.7406190   0.7271040   0.1964646  )
         9           F   tau(   9) = (   1.2593810   0.4275966   0.6200320  )
        10           F   tau(  10) = (   1.2593810   0.7271040   0.1964646  )

   Crystallographic axes

     site n.     atom                  positions (cryst. coord.)
         1           Rb  tau(   1) = (  0.7500000  0.7500000  0.7500000  )
         2           Rb  tau(   2) = (  0.2500000  0.2500000  0.2500000  )
         3           Ag  tau(   3) = (  0.5000000  0.5000000  0.5000000  )
         4           Bi  tau(   4) = (  0.0000000  0.0000000  0.0000000  )
         5           F   tau(   5) = (  0.7593810  0.2406190  0.2406190  )
         6           F   tau(   6) = (  0.2406190  0.2406190  0.7593810  )
         7           F   tau(   7) = (  0.2406190  0.7593810  0.7593810  )
         8           F   tau(   8) = (  0.2406190  0.7593810  0.2406190  )
         9           F   tau(   9) = (  0.7593810  0.2406190  0.7593810  )
        10           F   tau(  10) = (  0.7593810  0.7593810  0.2406190  )

     number of k points=     1  Methfessel-Paxton smearing, width (Ry)=  0.0010
                       cart. coord. in units 2pi/alat
        k(    1) = (   0.0000000   0.0000000   0.0000000), wk =   2.0000000

                       cryst. coord.
        k(    1) = (   0.0000000   0.0000000   0.0000000), wk =   2.0000000

     Check: negative core charge=   -0.000003

     Initial potential from superposition of free atoms

     starting charge      92.9501, renormalised to      94.0000

     negative rho (up, down):  3.966E-02 0.000E+00
     Starting wfcs are   53 randomized atomic wfcs +    3 random wfcs

     Self-consistent Calculation

     iteration #  1     ecut=    30.00 Ry     beta= 0.70
     Davidson diagonalization with overlap

     ethr =  1.00E-02,  avg # of iterations =  3.0

     Threshold (ethr) on eigenvalues was too large:
     Diagonalizing with lowered threshold

     Davidson diagonalization with overlap

[...]

     negative rho (up, down):  3.717E-02 0.000E+00

     total energy              =    -862.02994793 Ry
     estimated scf accuracy    <       0.89586983 Ry

[...]

     total energy              =    -862.41025485 Ry
     estimated scf accuracy    <       0.00000188 Ry

     iteration #  8     ecut=    30.00 Ry     beta= 0.70
     Davidson diagonalization with overlap

     ethr =  2.00E-09,  avg # of iterations =  2.0

[...]

     End of self-consistent calculation

          k = 0.0000 0.0000 0.0000 (  1920 PWs)   bands (ev):

   -85.3836 -48.4211 -48.4211 -48.4211 -21.4326 -21.4185 -18.7285 -18.7284
   -18.1885 -18.1885 -18.1884 -17.6478 -17.3707 -17.3706 -17.3703 -16.6607
   -16.6605  -5.6777  -5.5766  -5.5766  -5.5766  -5.4956  -5.4956  -5.4956
    -0.4127  -0.4126  -0.4124   0.6277   0.6279   0.8861   0.8863   0.8863
     1.4646   1.4648   1.4648   1.4750   1.4750   1.4751   1.7854   1.7856
     1.7856   2.2838   3.5839   3.5839   3.5839   4.3599   4.3599   8.1449
     8.4310   8.4310   8.4311  10.7810  10.7810  11.3077  12.4996  12.6709

     occupation numbers
     1.0000   1.0000   1.0000   1.0000   1.0000   1.0000   1.0000   1.0000
     1.0000   1.0000   1.0000   1.0000   1.0000   1.0000   1.0000   1.0000
     1.0000   1.0000   1.0000   1.0000   1.0000   1.0000   1.0000   1.0000
     1.0000   1.0000   1.0000   1.0000   1.0000   1.0000   1.0000   1.0000
     1.0000   1.0000   1.0000   1.0000   1.0000   1.0000   1.0000   1.0000
     1.0000   1.0000   1.0000   1.0000   1.0000   1.0000   1.0000  -0.0000
    -0.0000  -0.0000  -0.0000  -0.0000  -0.0000  -0.0000  -0.0000  -0.0000

     the Fermi energy is     6.6615 ev

!    total energy              =    -862.41025524 Ry
     estimated scf accuracy    <       0.00000008 Ry
     smearing contrib. (-TS)   =       0.00000000 Ry
     internal energy E=F+TS    =    -862.41025524 Ry

     The total energy is F=E-TS. E is the sum of the following terms:
     one-electron contribution =    -504.31751931 Ry
     hartree contribution      =     294.74742631 Ry
     xc contribution           =    -163.08716760 Ry
     ewald contribution        =    -489.75299463 Ry

     convergence has been achieved in   8 iterations

     negative rho (up, down):  3.797E-02 0.000E+00

     Forces acting on atoms (cartesian axes, Ry/au):

     atom    1 type  1   force =     0.00000000    0.00000000    0.00000804
     atom    2 type  1   force =     0.00000000    0.00000000   -0.00000804
     atom    3 type  2   force =     0.00000000    0.00000000    0.00000000
     atom    4 type  3   force =     0.00000000    0.00000000    0.00000000
     atom    5 type  4   force =     0.00000000   -0.01869965   -0.01321799
     atom    6 type  4   force =    -0.01619437   -0.00934983    0.01321799
     atom    7 type  4   force =     0.00000000    0.01869965    0.01321799
     atom    8 type  4   force =    -0.01619437    0.00934983   -0.01321799
     atom    9 type  4   force =     0.01619437   -0.00934983    0.01321799
     atom   10 type  4   force =     0.01619437    0.00934983   -0.01321799
     The non-local contrib.  to forces
     atom    1 type  1   force =     0.00000000   -0.00000000    0.00000002
     atom    2 type  1   force =     0.00000000    0.00000000   -0.00000002
     atom    3 type  2   force =     0.00000000    0.00000000   -0.00000000
     atom    4 type  3   force =     0.00000000    0.00000000   -0.00000000
     atom    5 type  4   force =     0.00000000   -0.38734872   -0.27389777
     atom    6 type  4   force =    -0.33545384   -0.19367436    0.27389777
     atom    7 type  4   force =     0.00000000    0.38734872    0.27389777
     atom    8 type  4   force =    -0.33545384    0.19367436   -0.27389777
     atom    9 type  4   force =     0.33545384   -0.19367436    0.27389777
     atom   10 type  4   force =     0.33545384    0.19367436   -0.27389777
     The ionic contribution  to forces
     atom    1 type  1   force =     0.00000000    0.00000000    0.00000000
     atom    2 type  1   force =    -0.00000000   -0.00000000    0.00000000
     atom    3 type  2   force =    -0.00000000    0.00000000    0.00000000
     atom    4 type  3   force =    -0.00000000   -0.00000000   -0.00000000
     atom    5 type  4   force =     0.00000000    0.62534768    0.44218759
     atom    6 type  4   force =     0.54156698    0.31267384   -0.44218759
     atom    7 type  4   force =     0.00000000   -0.62534769   -0.44218759
     atom    8 type  4   force =     0.54156698   -0.31267384    0.44218759
     atom    9 type  4   force =    -0.54156698    0.31267384   -0.44218759
     atom   10 type  4   force =    -0.54156698   -0.31267384    0.44218759
     The local contribution  to forces
     atom    1 type  1   force =     0.00000752    0.00001046    0.00000796
     atom    2 type  1   force =    -0.00001774   -0.00000457    0.00000091
     atom    3 type  2   force =     0.00001482   -0.00022521   -0.00001487
     atom    4 type  3   force =    -0.00001071    0.00017147    0.00005185
     atom    5 type  4   force =     0.00000588   -0.25666368   -0.18150275
     atom    6 type  4   force =    -0.22226081   -0.12831917    0.18148859
     atom    7 type  4   force =    -0.00000491    0.25662784    0.18147194
     atom    8 type  4   force =    -0.22226216    0.12833441   -0.18148320
     atom    9 type  4   force =     0.22227610   -0.12833086    0.18149848
     atom   10 type  4   force =     0.22225399    0.12832110   -0.18148018
     The core correction contribution to forces
     atom    1 type  1   force =     0.00000000    0.00000000    0.00000000
     atom    2 type  1   force =     0.00000000    0.00000000    0.00000000
     atom    3 type  2   force =     0.00000000    0.00000000    0.00000000
     atom    4 type  3   force =    -0.00000015   -0.00000110    0.00000107
     atom    5 type  4   force =     0.00000000    0.00000000    0.00000000
     atom    6 type  4   force =     0.00000000    0.00000000    0.00000000
     atom    7 type  4   force =     0.00000000    0.00000000    0.00000000
     atom    8 type  4   force =     0.00000000    0.00000000    0.00000000
     atom    9 type  4   force =     0.00000000    0.00000000    0.00000000
     atom   10 type  4   force =     0.00000000    0.00000000    0.00000000
     The Hubbard contrib.    to forces
     atom    1 type  1   force =     0.00000000    0.00000000    0.00000000
     atom    2 type  1   force =     0.00000000    0.00000000    0.00000000
     atom    3 type  2   force =     0.00000000    0.00000000    0.00000000
     atom    4 type  3   force =     0.00000000    0.00000000    0.00000000
     atom    5 type  4   force =     0.00000000    0.00000000    0.00000000
     atom    6 type  4   force =     0.00000000    0.00000000    0.00000000
     atom    7 type  4   force =     0.00000000    0.00000000    0.00000000
     atom    8 type  4   force =     0.00000000    0.00000000    0.00000000
     atom    9 type  4   force =     0.00000000    0.00000000    0.00000000
     atom   10 type  4   force =     0.00000000    0.00000000    0.00000000
     The SCF correction term to forces
     atom    1 type  1   force =    -0.00000778   -0.00001402   -0.00000183
     atom    2 type  1   force =     0.00002170    0.00000432   -0.00001081
     atom    3 type  2   force =    -0.00001203    0.00028129    0.00002166
     atom    4 type  3   force =     0.00000904   -0.00019102   -0.00006827
     atom    5 type  4   force =    -0.00001127   -0.00004971   -0.00001263
     atom    6 type  4   force =    -0.00005434   -0.00003411    0.00002475
     atom    7 type  4   force =     0.00001049    0.00005661    0.00002350
     atom    8 type  4   force =    -0.00003640    0.00000832   -0.00002098
     atom    9 type  4   force =     0.00003763   -0.00002177    0.00001813
     atom   10 type  4   force =     0.00004725    0.00002867   -0.00002174

     Total force =     0.056092     Total SCF correction =     0.000375

     Computing stress (Cartesian axis) and pressure

     negative rho (up, down):  3.797E-02 0.000E+00
          total   stress  (Ry/bohr**3)                   (kbar)     P=     -224.68
  -0.00152733  -0.00000000  -0.00000000         -224.68       -0.00       -0.00
  -0.00000000  -0.00152733   0.00000000           -0.00     -224.68        0.00
  -0.00000000   0.00000000  -0.00152734           -0.00        0.00     -224.68

     kinetic stress (kbar)  17045.69     -0.00     -0.00
                               -0.00  17045.69     -0.00
                               -0.00     -0.00  17045.69

     local   stress (kbar)  -9047.04     -0.02      0.03
                               -0.02  -9047.06     -0.01
                                0.03     -0.01  -9047.05

     nonloc. stress (kbar)   2791.17     -0.00      0.00
                                0.00   2791.17     -0.00
                                0.00     -0.00   2791.16

     hartree stress (kbar)  10208.70      0.02     -0.02
                                0.02  10208.72      0.01
                               -0.02      0.01  10208.71

     exc-cor stress (kbar)    706.20     -0.00      0.00
                               -0.00    706.20     -0.00
                                0.00     -0.00    706.20

     corecor stress (kbar)  -4966.57      0.00     -0.00
                                0.00  -4966.57      0.00
                               -0.00      0.00  -4966.57

     ewald   stress (kbar) -16962.82      0.00      0.00
                                0.00 -16962.82      0.00
                                0.00      0.00 -16962.82

     hubbard stress (kbar)      0.00      0.00      0.00
                                0.00      0.00      0.00
                                0.00      0.00      0.00

     DFT-D   stress (kbar)      0.00      0.00      0.00
                                0.00      0.00      0.00
                                0.00      0.00      0.00

     XDM     stress (kbar)      0.00      0.00      0.00
                                0.00      0.00      0.00
                                0.00      0.00      0.00

     dft-nl  stress (kbar)      0.00      0.00      0.00
                                0.00      0.00      0.00
                                0.00      0.00      0.00

     TS-vdW  stress (kbar)      0.00      0.00      0.00
                                0.00      0.00      0.00
                                0.00      0.00      0.00

[...]

                                0.00      0.00      0.00

     Writing all to output data dir new_calculations/myprefix.save/

     General routines

     Parallel routines

   This run was terminated on:   4:37:51  21May2023

   JOB DONE.