     Program PWSCF v.7.0 starts on 20May2023 at 21: 4:17

     Reading input from espresso_22235.pwi
Warning: card &CELL ignored
Warning: card / ignored

     Current dimensions of program PWSCF are:
     Max number of different atomic species (ntypx) = 10
     Max number of k-points (npk) =  40000
     Max angular momentum in pseudopotentials (lmaxx) =  4

     gamma-point specific algorithms are used
     Message from routine setup:
     using ibrav=0 with symmetry is DISCOURAGED, use correct ibrav instead

     Subspace diagonalization in iterative solution of the eigenvalue problem:
     a serial algorithm will be used

     Using Slab Decomposition

     bravais-lattice index     =            0
     lattice parameter (alat)  =      10.4398  a.u.
     unit-cell volume          =    1504.1787 (a.u.)^3
     number of atoms/cell      =           16
     number of atomic types    =            3
     number of electrons       =       128.00
     number of Kohn-Sham states=           77
     kinetic-energy cutoff     =      30.0000  Ry
     charge density cutoff     =     240.0000  Ry
     scf convergence threshold =      1.0E-06
     mixing beta               =       0.7000
     number of iterations used =            8  plain     mixing
     Exchange-correlation=  SLA  PW   PBX  PBC
                           (   1   4   3   4   0   0   0)

     celldm(1)=  10.439777  celldm(2)=   0.000000  celldm(3)=   0.000000
     celldm(4)=   0.000000  celldm(5)=   0.000000  celldm(6)=   0.000000

     crystal axes: (cart. coord. in units of alat)
               a(1) = (   1.000000   0.000000   0.000000 )
               a(2) = (  -0.712413   0.701760   0.000000 )
               a(3) = (   0.000000   0.000000   1.883810 )

     reciprocal axes: (cart. coord. in units 2 pi/alat)
               b(1) = (  1.000000  1.015181  0.000000 )
               b(2) = (  0.000000  1.424989  0.000000 )
               b(3) = (  0.000000  0.000000  0.530839 )

     PseudoPot. # 1 for Li read from file:
     /home/pragov/projects/rrg-bengioy-ad/pragov/crystal_structure_design/SSSP/li_pbe_v1.4.uspp.F.UPF
     MD5 check sum: e912e257baa3777c20ea3d68f190483c
     Pseudo is Ultrasoft, Zval =  3.0
     Generated by new atomic code, or converted to UPF format
     Using radial grid of  751 points,  5 beta functions with:
                l(1) =   0
                l(2) =   0
                l(3) =   0
                l(4) =   1
                l(5) =   1
     Q(r) pseudized with 10 coefficients,  rinner =    1.150   1.150   1.150

     PseudoPot. # 2 for V  read from file:
     /home/pragov/projects/rrg-bengioy-ad/pragov/crystal_structure_design/SSSP/v_pbe_v1.4.uspp.F.UPF
     MD5 check sum: 22b79981416ebb76fdaf5b1b8640f6fb
     Pseudo is Ultrasoft + core correction, Zval = 13.0
     Generated by new atomic code, or converted to UPF format
     Using radial grid of  853 points,  6 beta functions with:
                l(1) =   0
                l(2) =   0
                l(3) =   1
                l(4) =   1
                l(5) =   2
                l(6) =   2
     Q(r) pseudized with  8 coefficients,  rinner =    1.100   1.100   1.100
                                                       1.100   1.100

     PseudoPot. # 3 for F  read from file:
     /home/pragov/projects/rrg-bengioy-ad/pragov/crystal_structure_design/SSSP/f_pbe_v1.4.uspp.F.UPF
     MD5 check sum: 4c38b6a325caf53ec0e86aed9459de46
     Pseudo is Ultrasoft, Zval =  7.0
     Generated by new atomic code, or converted to UPF format
     Using radial grid of  799 points,  4 beta functions with:
                l(1) =   0
                l(2) =   0
                l(3) =   1
                l(4) =   1
     Q(r) pseudized with  8 coefficients,  rinner =    0.950   0.950   0.950

     atomic species   valence    mass     pseudopotential
        Li             3.00     6.94000     Li( 1.00)
        V             13.00    50.94150     V ( 1.00)
        F              7.00    18.99840     F ( 1.00)

      4 Sym. Ops., with inversion, found ( 2 have fractional translation)

                                    s                        frac. trans.

      isym =  1     identity

 cryst.   s( 1) = (     1          0          0      )
                  (     0          1          0      )
                  (     0          0          1      )

 cart.    s( 1) = (  1.0000000  0.0000000  0.0000000 )
                  (  0.0000000  1.0000000  0.0000000 )
                  (  0.0000000  0.0000000  1.0000000 )

      isym =  2     180 deg rotation - cart. axis [0,0,1]

 cryst.   s( 2) = (    -1          0          0      )    f =( -0.0000000 )
                  (     0         -1          0      )       (  0.0000000 )
                  (     0          0          1      )       ( -0.5000000 )

 cart.    s( 2) = ( -1.0000000 -0.0000000  0.0000000 )    f =( -0.0000000 )
                  (  0.0000000 -1.0000000  0.0000000 )       (  0.0000000 )
                  (  0.0000000  0.0000000  1.0000000 )       ( -0.9419051 )

      isym =  3     inversion

 cryst.   s( 3) = (    -1          0          0      )
                  (     0         -1          0      )
                  (     0          0         -1      )

 cart.    s( 3) = ( -1.0000000 -0.0000000  0.0000000 )
                  (  0.0000000 -1.0000000  0.0000000 )
                  (  0.0000000  0.0000000 -1.0000000 )

      isym =  4     inv. 180 deg rotation - cart. axis [0,0,1]

 cryst.   s( 4) = (     1          0          0      )    f =(  0.0000000 )
                  (     0          1          0      )       (  0.0000000 )
                  (     0          0         -1      )       (  0.5000000 )

 cart.    s( 4) = (  1.0000000  0.0000000  0.0000000 )    f =(  0.0000000 )
                  (  0.0000000  1.0000000  0.0000000 )       (  0.0000000 )
                  (  0.0000000  0.0000000 -1.0000000 )       (  0.9419051 )

   Cartesian axes

     site n.     atom                  positions (alat units)
         1           Li  tau(   1) = (   0.6907107   0.1267491   0.4709526  )
         2           Li  tau(   2) = (  -0.4031242   0.5750109   1.4128577  )
         3           V   tau(   3) = (   0.7545957   0.1005685   1.0624558  )
         4           V   tau(   4) = (   0.7545957   0.1005685   1.7632596  )
         5           V   tau(   5) = (  -0.4670092   0.6011915   0.1205507  )
         6           V   tau(   6) = (  -0.4670092   0.6011915   0.8213545  )
         7           F   tau(   7) = (   0.4493803   0.2256481   0.1053992  )
         8           F   tau(   8) = (   0.4493803   0.2256481   0.8365060  )
         9           F   tau(   9) = (   0.9070279   0.0381007   0.2219468  )
        10           F   tau(  10) = (   0.9070279   0.0381007   0.7199584  )
        11           F   tau(  11) = (   0.5994819   0.1641353   1.4128577  )
        12           F   tau(  12) = (  -0.3118954   0.5376246   0.4709526  )
        13           F   tau(  13) = (  -0.6194414   0.6636593   1.6618635  )
        14           F   tau(  14) = (  -0.6194414   0.6636593   1.1638519  )
        15           F   tau(  15) = (  -0.1617938   0.4761119   1.7784111  )
        16           F   tau(  16) = (  -0.1617938   0.4761119   1.0473043  )

   Crystallographic axes

     site n.     atom                  positions (cryst. coord.)
         1           Li  tau(   1) = (  0.8193840  0.1806160  0.2500000  )
         2           Li  tau(   2) = (  0.1806160  0.8193840  0.7500000  )
         3           V   tau(   3) = (  0.8566910  0.1433090  0.5639930  )
         4           V   tau(   4) = (  0.8566910  0.1433090  0.9360070  )
         5           V   tau(   5) = (  0.1433090  0.8566910  0.0639930  )
         6           V   tau(   6) = (  0.1433090  0.8566910  0.4360070  )
         7           F   tau(   7) = (  0.6784540  0.3215460  0.0559500  )
         8           F   tau(   8) = (  0.6784540  0.3215460  0.4440500  )
         9           F   tau(   9) = (  0.9457070  0.0542930  0.1178180  )
        10           F   tau(  10) = (  0.9457070  0.0542930  0.3821820  )
        11           F   tau(  11) = (  0.7661090  0.2338910  0.7500000  )
        12           F   tau(  12) = (  0.2338910  0.7661090  0.2500000  )
        13           F   tau(  13) = (  0.0542930  0.9457070  0.8821820  )
        14           F   tau(  14) = (  0.0542930  0.9457070  0.6178180  )
        15           F   tau(  15) = (  0.3215460  0.6784540  0.9440500  )
        16           F   tau(  16) = (  0.3215460  0.6784540  0.5559500  )

     number of k points=     1  Methfessel-Paxton smearing, width (Ry)=  0.0010
                       cart. coord. in units 2pi/alat
        k(    1) = (   0.0000000   0.0000000   0.0000000), wk =   2.0000000

                       cryst. coord.
        k(    1) = (   0.0000000   0.0000000   0.0000000), wk =   2.0000000

     Check: negative core charge=   -0.000004

     Initial potential from superposition of free atoms

     starting charge     127.0936, renormalised to     128.0000
     Starting wfcs are   90 randomized atomic wfcs

     Self-consistent Calculation

     iteration #  1     ecut=    30.00 Ry     beta= 0.70
     Davidson diagonalization with overlap

     ethr =  1.00E-02,  avg # of iterations =  2.0

     negative rho (up, down):  1.020E-03 0.000E+00

     total energy              =   -1094.56259943 Ry
     estimated scf accuracy    <       2.06977236 Ry

[...]

     total energy              =   -1095.83924035 Ry
     estimated scf accuracy    <       0.00011002 Ry

     iteration # 41     ecut=    30.00 Ry     beta= 0.70
     Davidson diagonalization with overlap

     ethr =  3.42E-09,  avg # of iterations =  3.0

     End of self-consistent calculation

          k = 0.0000 0.0000 0.0000 (  2077 PWs)   bands (ev):

   -58.3888 -58.3886 -58.3804 -58.3800 -40.2668 -40.2662 -32.4397 -32.4394
   -32.3623 -32.3617 -32.2480 -32.2465 -32.2287 -32.2277 -32.1687 -32.1652
   -32.1570 -32.1491 -19.0477 -19.0024 -18.7520 -18.7333 -18.6120 -18.5392
   -18.5199 -18.4421 -18.4303 -18.4040  -1.4267  -1.3513  -1.2793  -1.2554
    -1.2376  -1.1776  -1.1262  -0.9440  -0.9362  -0.8455  -0.6502  -0.4893
    -0.4096  -0.2545  -0.2396  -0.1334  -0.0997  -0.0585  -0.0153   0.1293
     0.1661   0.3029   0.3179   0.3296   0.3306   0.4045   0.4163   0.4911
     0.5882   0.6646   6.4469   6.5586   6.6001   6.6008   6.7070   6.7482
     6.7662   6.7837   6.8055   6.8926   6.9232   6.9330   7.5068   7.5197
     7.5560   7.6071   7.6719   7.9046   8.1062

     occupation numbers
     1.0000   1.0000   1.0000   1.0000   1.0000   1.0000   1.0000   1.0000
     1.0000   1.0000   1.0000   1.0000   1.0000   1.0000   1.0000   1.0000
     1.0000   1.0000   1.0000   1.0000   1.0000   1.0000   1.0000   1.0000
     1.0000   1.0000   1.0000   1.0000   1.0000   1.0000   1.0000   1.0000
     1.0000   1.0000   1.0000   1.0000   1.0000   1.0000   1.0000   1.0000
     1.0000   1.0000   1.0000   1.0000   1.0000   1.0000   1.0000   1.0000
     1.0000   1.0000   1.0000   1.0000   1.0000   1.0000   1.0000   1.0000
     1.0000   1.0000   1.0000   1.0000   1.0000   1.0000   1.0000   0.9497
     0.0600  -0.0097  -0.0000  -0.0000  -0.0000  -0.0000  -0.0000  -0.0000
    -0.0000  -0.0000  -0.0000  -0.0000  -0.0000

     the Fermi energy is     6.7574 ev

!    total energy              =   -1095.83923992 Ry
     estimated scf accuracy    <       0.00000078 Ry
     smearing contrib. (-TS)   =      -0.00000473 Ry
     internal energy E=F+TS    =   -1095.83923519 Ry

     The total energy is F=E-TS. E is the sum of the following terms:
     one-electron contribution =    -717.29019108 Ry
     hartree contribution      =     406.64021709 Ry
     xc contribution           =    -179.07280191 Ry
     ewald contribution        =    -606.11645929 Ry

     convergence has been achieved in  41 iterations

     Forces acting on atoms (cartesian axes, Ry/au):

     atom    1 type  1   force =    -0.00752237    0.00308282    0.00000000
     atom    2 type  1   force =     0.00752237   -0.00308282    0.00000000
     atom    3 type  2   force =     0.00417882   -0.00171414   -0.02159781
     atom    4 type  2   force =     0.00417882   -0.00171414    0.02159781
     atom    5 type  2   force =    -0.00417882    0.00171414   -0.02159781
     atom    6 type  2   force =    -0.00417882    0.00171414    0.02159781
     atom    7 type  3   force =     0.00554211   -0.00227428    0.00865365
     atom    8 type  3   force =     0.00554211   -0.00227428   -0.00865365
     atom    9 type  3   force =     0.01630701   -0.00668329   -0.01424234
     atom   10 type  3   force =     0.01630701   -0.00668329    0.01424234
     atom   11 type  3   force =    -0.03217762    0.01318490    0.00000000
     atom   12 type  3   force =     0.03217762   -0.01318490    0.00000000
     atom   13 type  3   force =    -0.01630701    0.00668329    0.01424234
     atom   14 type  3   force =    -0.01630701    0.00668329   -0.01424234
     atom   15 type  3   force =    -0.00554211    0.00227428   -0.00865365
     atom   16 type  3   force =    -0.00554211    0.00227428    0.00865365
     The non-local contrib.  to forces
     atom    1 type  1   force =    -0.10271328    0.04209275    0.00000000
     atom    2 type  1   force =     0.10271328   -0.04209275    0.00000000
     atom    3 type  2   force =    -0.05204500    0.02132875    0.03666261
     atom    4 type  2   force =    -0.05204500    0.02132875   -0.03666261
     atom    5 type  2   force =     0.05204500   -0.02132875    0.03666261
     atom    6 type  2   force =     0.05204500   -0.02132875   -0.03666261
     atom    7 type  3   force =     0.10303794   -0.04222887   -0.11153635
     atom    8 type  3   force =     0.10303794   -0.04222887    0.11153635
     atom    9 type  3   force =     0.11686537   -0.04789270   -0.52091738
     atom   10 type  3   force =     0.11686537   -0.04789270    0.52091738
     atom   11 type  3   force =     0.38477494   -0.15768497    0.00000000
     atom   12 type  3   force =    -0.38477494    0.15768497    0.00000000
     atom   13 type  3   force =    -0.11686537    0.04789270    0.52091738
     atom   14 type  3   force =    -0.11686537    0.04789270   -0.52091738
     atom   15 type  3   force =    -0.10303794    0.04222887    0.11153635
     atom   16 type  3   force =    -0.10303794    0.04222887   -0.11153635
     The ionic contribution  to forces
     atom    1 type  1   force =    -0.22213814    0.09103389   -0.00000000
     atom    2 type  1   force =     0.22213814   -0.09103389   -0.00000000
     atom    3 type  2   force =     2.80359649   -1.14893504    6.59249257
     atom    4 type  2   force =     2.80359649   -1.14893504   -6.59249257
     atom    5 type  2   force =    -2.80359649    1.14893505    6.59249257
     atom    6 type  2   force =    -2.80359649    1.14893505   -6.59249257
     atom    7 type  3   force =    -5.07588897    2.08013768    4.17093275
     atom    8 type  3   force =    -5.07588897    2.08013768   -4.17093275
     atom    9 type  3   force =    -0.89387932    0.36631851    9.95330690
     atom   10 type  3   force =    -0.89387932    0.36631851   -9.95330690
     atom   11 type  3   force =    -5.11615187    2.09663773   -0.00000000
     atom   12 type  3   force =     5.11615187   -2.09663773   -0.00000000
     atom   13 type  3   force =     0.89387932   -0.36631851   -9.95330690
     atom   14 type  3   force =     0.89387932   -0.36631851    9.95330690
     atom   15 type  3   force =     5.07588897   -2.08013769   -4.17093275
     atom   16 type  3   force =     5.07588897   -2.08013769    4.17093275
     The local contribution  to forces
     atom    1 type  1   force =     0.31731554   -0.13003598    0.00040420
     atom    2 type  1   force =    -0.31734369    0.13004961   -0.00042261
     atom    3 type  2   force =    -2.74804077    1.12616392   -6.64830818
     atom    4 type  2   force =    -2.74796556    1.12614900    6.64698441
     atom    5 type  2   force =     2.74795925   -1.12612792   -6.64644450
     atom    6 type  2   force =     2.74804829   -1.12617680    6.64792790
     atom    7 type  3   force =     4.97814456   -2.04006970   -4.05015683
     atom    8 type  3   force =     4.97854255   -2.04023451    4.05107187
     atom    9 type  3   force =     0.79345177   -0.32514699   -9.44559741
     atom   10 type  3   force =     0.79340929   -0.32514633    9.44740570
     atom   11 type  3   force =     4.69910848   -1.92573151   -0.00141701
     atom   12 type  3   force =    -4.69926054    1.92578084    0.00109721
     atom   13 type  3   force =    -0.79303285    0.32500208    9.44594598
     atom   14 type  3   force =    -0.79344134    0.32515262   -9.44756137
     atom   15 type  3   force =    -4.97848218    2.04020957    4.05056152
     atom   16 type  3   force =    -4.97851892    2.04022692   -4.05123778
     The core correction contribution to forces
     atom    1 type  1   force =     0.00000000    0.00000000    0.00000000
     atom    2 type  1   force =     0.00000000    0.00000000    0.00000000
     atom    3 type  2   force =     0.00062114   -0.00025469   -0.00333975
     atom    4 type  2   force =     0.00062012   -0.00025407    0.00333662
     atom    5 type  2   force =    -0.00061903    0.00025416   -0.00333673
     atom    6 type  2   force =    -0.00062049    0.00025452    0.00333903
     atom    7 type  3   force =     0.00000000    0.00000000    0.00000000
     atom    8 type  3   force =     0.00000000    0.00000000    0.00000000
     atom    9 type  3   force =     0.00000000    0.00000000    0.00000000
     atom   10 type  3   force =     0.00000000    0.00000000    0.00000000
     atom   11 type  3   force =     0.00000000    0.00000000    0.00000000
     atom   12 type  3   force =     0.00000000    0.00000000    0.00000000
     atom   13 type  3   force =     0.00000000    0.00000000    0.00000000
     atom   14 type  3   force =     0.00000000    0.00000000    0.00000000
     atom   15 type  3   force =     0.00000000    0.00000000    0.00000000
     atom   16 type  3   force =     0.00000000    0.00000000    0.00000000
     The Hubbard contrib.    to forces
     atom    1 type  1   force =     0.00000000    0.00000000    0.00000000
     atom    2 type  1   force =     0.00000000    0.00000000    0.00000000
     atom    3 type  2   force =     0.00000000    0.00000000    0.00000000
     atom    4 type  2   force =     0.00000000    0.00000000    0.00000000
     atom    5 type  2   force =     0.00000000    0.00000000    0.00000000
     atom    6 type  2   force =     0.00000000    0.00000000    0.00000000
     atom    7 type  3   force =     0.00000000    0.00000000    0.00000000
     atom    8 type  3   force =     0.00000000    0.00000000    0.00000000
     atom    9 type  3   force =     0.00000000    0.00000000    0.00000000
     atom   10 type  3   force =     0.00000000    0.00000000    0.00000000
     atom   11 type  3   force =     0.00000000    0.00000000    0.00000000
     atom   12 type  3   force =     0.00000000    0.00000000    0.00000000
     atom   13 type  3   force =     0.00000000    0.00000000    0.00000000
     atom   14 type  3   force =     0.00000000    0.00000000    0.00000000
     atom   15 type  3   force =     0.00000000    0.00000000    0.00000000
     atom   16 type  3   force =     0.00000000    0.00000000    0.00000000
     The SCF correction term to forces
     atom    1 type  1   force =     0.00001141   -0.00000688   -0.00033727
     atom    2 type  1   force =     0.00001255   -0.00000483    0.00035255
     atom    3 type  2   force =     0.00004441   -0.00001716    0.00087734
     atom    4 type  2   force =    -0.00001804   -0.00000399    0.00040961
     atom    5 type  2   force =     0.00004057   -0.00001995   -0.00096253
     atom    6 type  2   force =    -0.00005662    0.00003041   -0.00049995
     atom    7 type  3   force =     0.00024488   -0.00011215   -0.00058663
     atom    8 type  3   force =    -0.00015036    0.00005021   -0.00032317
     atom    9 type  3   force =    -0.00012679    0.00003803   -0.00104228
     atom   10 type  3   force =    -0.00009049    0.00003545   -0.00077411
     atom   11 type  3   force =     0.00008850   -0.00003519    0.00141494
     atom   12 type  3   force =     0.00005889   -0.00001183   -0.00110067
     atom   13 type  3   force =    -0.00028740    0.00010857    0.00067267
     atom   14 type  3   force =     0.00012155   -0.00004673    0.00092383
     atom   15 type  3   force =     0.00008738   -0.00002866    0.00016926
     atom   16 type  3   force =     0.00012281   -0.00004162    0.00048973

     Total force =     0.083636     Total SCF correction =     0.003091

     Computing stress (Cartesian axis) and pressure

          total   stress  (Ry/bohr**3)                   (kbar)     P=     -177.61
  -0.00134098   0.00027019   0.00000000         -197.26       39.75        0.00
   0.00027019  -0.00079259   0.00000000           39.75     -116.59        0.00
   0.00000000   0.00000000  -0.00148857            0.00        0.00     -218.98

     kinetic stress (kbar)  21494.74    104.55      0.00
                              104.55  21707.06      0.00
                                0.00      0.00  21637.17

     local   stress (kbar) -13535.91   1966.99      0.05
                             1966.99  -9542.35     -0.02
                                0.05     -0.02  -7642.04

     nonloc. stress (kbar)    450.88     36.41      0.00
                               36.41    524.82      0.00
                                0.00      0.00    441.51

     hartree stress (kbar)  14729.09   -816.74     -0.01
                             -816.74  13070.86      0.00
                               -0.01      0.00  11968.49

     exc-cor stress (kbar)  -4504.25     -1.54     -0.00
                               -1.54  -4507.38      0.00
                               -0.00      0.00  -4500.99

     corecor stress (kbar)  -1014.69     -1.00      0.00
                               -1.00  -1016.72     -0.00
                                0.00     -0.00  -1016.40

     ewald   stress (kbar) -17817.13  -1248.92     -0.00
                            -1248.92 -20352.88     -0.00
                               -0.00     -0.00 -21106.73

     hubbard stress (kbar)      0.00      0.00      0.00
                                0.00      0.00      0.00
                                0.00      0.00      0.00

     DFT-D   stress (kbar)      0.00      0.00      0.00
                                0.00      0.00      0.00
                                0.00      0.00      0.00

     XDM     stress (kbar)      0.00      0.00      0.00
                                0.00      0.00      0.00
                                0.00      0.00      0.00

     dft-nl  stress (kbar)      0.00      0.00      0.00
                                0.00      0.00      0.00
                                0.00      0.00      0.00

     TS-vdW  stress (kbar)      0.00      0.00      0.00
                                0.00      0.00      0.00
                                0.00      0.00      0.00

[...]

                                0.00      0.00      0.00

     Writing all to output data dir new_calculations/myprefix.save/

     General routines

     Parallel routines

   This run was terminated on:  21: 4:53  20May2023

   JOB DONE.