     Program PWSCF v.7.0 starts on 21May2023 at 21:55: 7

     Reading input from espresso_24091.pwi
Warning: card &CELL ignored
Warning: card / ignored

     Current dimensions of program PWSCF are:
     Max number of different atomic species (ntypx) = 10
     Max number of k-points (npk) =  40000
     Max angular momentum in pseudopotentials (lmaxx) =  4

     gamma-point specific algorithms are used
     Message from routine setup:
     using ibrav=0 with symmetry is DISCOURAGED, use correct ibrav instead

     Subspace diagonalization in iterative solution of the eigenvalue problem:
     a serial algorithm will be used

     Using Slab Decomposition

     bravais-lattice index     =            0
     lattice parameter (alat)  =       8.5682  a.u.
     unit-cell volume          =     262.7148 (a.u.)^3
     number of atoms/cell      =            3
     number of atomic types    =            3
     number of electrons       =        49.00
     number of Kohn-Sham states=           30
     kinetic-energy cutoff     =      30.0000  Ry
     charge density cutoff     =     240.0000  Ry
     scf convergence threshold =      1.0E-06
     mixing beta               =       0.7000
     number of iterations used =            8  plain     mixing
     Exchange-correlation=  SLA  PW   PBX  PBC
                           (   1   4   3   4   0   0   0)

     celldm(1)=   8.568174  celldm(2)=   0.000000  celldm(3)=   0.000000
     celldm(4)=   0.000000  celldm(5)=   0.000000  celldm(6)=   0.000000

     crystal axes: (cart. coord. in units of alat)
               a(1) = (   1.000000   0.000000   0.000000 )
               a(2) = (   0.521086   0.853504   0.000000 )
               a(3) = (  -0.760543  -0.426752   0.489344 )

     reciprocal axes: (cart. coord. in units 2 pi/alat)
               b(1) = (  1.000000 -0.610525  1.021777 )
               b(2) = (  0.000000  1.171640  1.021777 )
               b(3) = (  0.000000  0.000000  2.043554 )

     PseudoPot. # 1 for Ti read from file:
     /home/pragov/projects/rrg-bengioy-ad/pragov/crystal_structure_design/SSSP/ti_pbe_v1.4.uspp.F.UPF
     MD5 check sum: 88a00a6731bd790ddea75d31a80cb452
     Pseudo is Ultrasoft + core correction, Zval = 12.0
     Generated by new atomic code, or converted to UPF format
     Using radial grid of  851 points,  6 beta functions with:
                l(1) =   0
                l(2) =   0
                l(3) =   1
                l(4) =   1
                l(5) =   2
                l(6) =   2
     Q(r) pseudized with  6 coefficients,  rinner =    1.000   1.000   1.000
                                                       1.000   1.000

     PseudoPot. # 2 for Cu read from file:
     /home/pragov/projects/rrg-bengioy-ad/pragov/crystal_structure_design/SSSP/Cu_pbe_v1.2.uspp.F.UPF
     MD5 check sum: 6e991ff952a84172a2a52a1c1e996048
     Pseudo is Ultrasoft + core correction, Zval = 19.0
     Generated by new atomic code, or converted to UPF format
     Using radial grid of  867 points,  6 beta functions with:
                l(1) =   0
                l(2) =   0
                l(3) =   1
                l(4) =   1
                l(5) =   2
                l(6) =   2
     Q(r) pseudized with  8 coefficients,  rinner =    1.150   1.150   1.150
                                                       1.150   1.150

     PseudoPot. # 3 for Ni read from file:
     /home/pragov/projects/rrg-bengioy-ad/pragov/crystal_structure_design/SSSP/ni_pbe_v1.4.uspp.F.UPF
     MD5 check sum: 1ee80287db30b12d2bc1f57a5b5d6409
     Pseudo is Ultrasoft + core correction, Zval = 18.0
     Generated by new atomic code, or converted to UPF format
     Using radial grid of  865 points,  6 beta functions with:
                l(1) =   0
                l(2) =   0
                l(3) =   1
                l(4) =   1
                l(5) =   2
                l(6) =   2
     Q(r) pseudized with 10 coefficients,  rinner =    0.980   0.980   0.980
                                                       0.980   0.980

     atomic species   valence    mass     pseudopotential
        Ti            12.00    47.86700     Ti( 1.00)
        Cu            19.00    63.54600     Cu( 1.00)
        Ni            18.00    58.69340     Ni( 1.00)

      2 Sym. Ops. (no inversion) found

                                    s                        frac. trans.

      isym =  1     identity

 cryst.   s( 1) = (     1          0          0      )
                  (     0          1          0      )
                  (     0          0          1      )

 cart.    s( 1) = (  1.0000000 -0.0000000  0.0000000 )
                  (  0.0000000  1.0000000  0.0000000 )
                  (  0.0000000  0.0000000  1.0000000 )

      isym =  2     inv. 180 deg rotation - cart. axis [0,0,1]

 cryst.   s( 2) = (     1          0          0      )
                  (     0          1          0      )
                  (    -1         -1         -1      )

 cart.    s( 2) = (  1.0000000 -0.0000000 -0.0000000 )
                  (  0.0000000  1.0000000 -0.0000000 )
                  (  0.0000000  0.0000000 -1.0000000 )

   Cartesian axes

     site n.     atom                  positions (alat units)
         1           Ti  tau(   1) = (   1.5119622   0.8483850   0.0000000  )
         2           Cu  tau(   2) = (   1.0161491   0.5701768   0.0000000  )
         3           Ni  tau(   3) = (   0.5140600   0.2884469   0.0000000  )

   Crystallographic axes

     site n.     atom                  positions (cryst. coord.)
         1           Ti  tau(   1) = (  0.9940020  0.9940020  0.0000000  )
         2           Cu  tau(   2) = (  0.6680420  0.6680420  0.0000000  )
         3           Ni  tau(   3) = (  0.3379560  0.3379560  0.0000000  )

     number of k points=     1  Methfessel-Paxton smearing, width (Ry)=  0.0010
                       cart. coord. in units 2pi/alat
        k(    1) = (   0.0000000   0.0000000   0.0000000), wk =   2.0000000

                       cryst. coord.
        k(    1) = (   0.0000000   0.0000000   0.0000000), wk =   2.0000000

     Check: negative core charge=   -0.000010

     Initial potential from superposition of free atoms

     starting charge      45.0000, renormalised to      49.0000

     negative rho (up, down):  1.574E-03 0.000E+00
     Starting wfcs are   36 randomized atomic wfcs

     Self-consistent Calculation

     iteration #  1     ecut=    30.00 Ry     beta= 0.70
     Davidson diagonalization with overlap

     ethr =  1.00E-02,  avg # of iterations =  5.0

     total energy              =    -788.84641843 Ry
     estimated scf accuracy    <     105.88388274 Ry

[...]

     negative rho (up, down):  3.610E-05 0.000E+00

[...]

     total energy              =    -866.44106962 Ry
     estimated scf accuracy    <       0.00003778 Ry

     iteration # 19     ecut=    30.00 Ry     beta= 0.70
     Davidson diagonalization with overlap

     ethr =  7.06E-08,  avg # of iterations =  2.0

[...]

     End of self-consistent calculation

          k = 0.0000 0.0000 0.0000 (   385 PWs)   bands (ev):

   -96.7175 -86.2613 -54.1405 -54.1405 -54.0446 -46.7212 -46.7211 -46.5158
   -40.1819 -16.6364 -16.3337 -16.3336   7.7672  12.3272  12.4656  13.0418
    13.1799  13.1799  13.6337  13.7911  15.2464  15.2465  15.3549  15.4309
    17.1588  17.4256  17.4257  19.1589  20.1836  22.9166

     occupation numbers
     1.0000   1.0000   1.0000   1.0000   1.0000   1.0000   1.0000   1.0000
     1.0000   1.0000   1.0000   1.0000   1.0000   1.0000   1.0000   1.0000
     1.0000   1.0000   1.0000   1.0000   1.0000   1.0000   1.0000   1.0000
     0.5000  -0.0000  -0.0000  -0.0000  -0.0000  -0.0000

     the Fermi energy is    17.1588 ev

!    total energy              =    -866.44107287 Ry
     estimated scf accuracy    <       0.00000026 Ry
     smearing contrib. (-TS)   =      -0.00028209 Ry
     internal energy E=F+TS    =    -866.44079077 Ry

     The total energy is F=E-TS. E is the sum of the following terms:
     one-electron contribution =    -543.68164783 Ry
     hartree contribution      =     299.46219577 Ry
     xc contribution           =     -92.71279702 Ry
     ewald contribution        =    -529.50854170 Ry

     convergence has been achieved in  19 iterations

     negative rho (up, down):  6.738E-04 0.000E+00

     Forces acting on atoms (cartesian axes, Ry/au):

     atom    1 type  1   force =    -0.06401922   -0.03595528    0.00000000
     atom    2 type  2   force =    -0.03811326   -0.02132785    0.00000000
     atom    3 type  3   force =     0.10213248    0.05728313   -0.00000000
     The non-local contrib.  to forces
     atom    1 type  1   force =     0.02610890    0.01464972   -0.00000000
     atom    2 type  2   force =    -0.03775431   -0.02117300    0.00000000
     atom    3 type  3   force =    -0.15635547   -0.08773763    0.00000000
     The ionic contribution  to forces
     atom    1 type  1   force =     1.92666504    1.08108112   -0.00000000
     atom    2 type  2   force =    -4.70862942   -2.64208374    0.00000000
     atom    3 type  3   force =     2.78196438    1.56100262   -0.00000000
     The local contribution  to forces
     atom    1 type  1   force =    -2.01424221   -1.13020658    0.00001797
     atom    2 type  2   force =     4.70466849    2.63980282    0.00008375
     atom    3 type  3   force =    -2.52596446   -1.41735341   -0.00000448
     The core correction contribution to forces
     atom    1 type  1   force =    -0.00293928   -0.00164930    0.00000117
     atom    2 type  2   force =    -0.00043571   -0.00024442   -0.00000002
     atom    3 type  3   force =     0.00645830    0.00362386    0.00000007
     The Hubbard contrib.    to forces
     atom    1 type  1   force =     0.00000000    0.00000000    0.00000000
     atom    2 type  2   force =     0.00000000    0.00000000    0.00000000
     atom    3 type  3   force =     0.00000000    0.00000000    0.00000000
     The SCF correction term to forces
     atom    1 type  1   force =     0.00075870    0.00040858   -0.00001700
     atom    2 type  2   force =     0.00440805    0.00260931   -0.00024023
     atom    3 type  3   force =    -0.00359991   -0.00201350   -0.00000971

     Total force =     0.144952     Total SCF correction =     0.006637

     Computing stress (Cartesian axis) and pressure

     negative rho (up, down):  6.738E-04 0.000E+00
          total   stress  (Ry/bohr**3)                   (kbar)     P=     -791.23
  -0.00478257   0.00059592   0.00000000         -703.54       87.66        0.00
   0.00059592  -0.00551024   0.00000000           87.66     -810.58        0.00
   0.00000000   0.00000000  -0.00584325            0.00        0.00     -859.57

     kinetic stress (kbar)  42676.08   -241.77     -0.00
                             -241.77  42971.30     -0.00
                               -0.00     -0.00  43107.01

     local   stress (kbar) -10461.10  -3584.26      0.01
                            -3584.26  -6084.54      0.01
                                0.01      0.01  -4073.07

     nonloc. stress (kbar)  22684.93    266.35     -0.00
                              266.35  22359.70     -0.00
                               -0.00     -0.00  22210.26

     hartree stress (kbar)  57083.30   1188.14      0.00
                             1188.14  55632.51      0.00
                                0.00      0.00  54965.67

     exc-cor stress (kbar) -13058.91     -4.50     -0.00
                               -4.50 -13053.42     -0.00
                               -0.00     -0.00 -13050.90

     corecor stress (kbar)  -3267.49     -4.67      0.00
                               -4.67  -3261.78      0.00
                                0.00      0.00  -3259.16

     ewald   stress (kbar) -96360.36   2468.37     -0.00
                             2468.37 -99374.36     -0.00
                               -0.00     -0.00-100759.40

     hubbard stress (kbar)      0.00      0.00      0.00
                                0.00      0.00      0.00
                                0.00      0.00      0.00

     DFT-D   stress (kbar)      0.00      0.00      0.00
                                0.00      0.00      0.00
                                0.00      0.00      0.00

     XDM     stress (kbar)      0.00      0.00      0.00
                                0.00      0.00      0.00
                                0.00      0.00      0.00

     dft-nl  stress (kbar)      0.00      0.00      0.00
                                0.00      0.00      0.00
                                0.00      0.00      0.00

     TS-vdW  stress (kbar)      0.00      0.00      0.00
                                0.00      0.00      0.00
                                0.00      0.00      0.00

[...]

                                0.00      0.00      0.00

     Writing all to output data dir new_calculations/myprefix.save/

     General routines

     Parallel routines

   This run was terminated on:  21:55:18  21May2023

   JOB DONE.