     Program PWSCF v.7.0 starts on 20May2023 at 23: 1: 7

     Reading input from espresso_18637.pwi
Warning: card &CELL ignored
Warning: card / ignored

     Current dimensions of program PWSCF are:
     Max number of different atomic species (ntypx) = 10
     Max number of k-points (npk) =  40000
     Max angular momentum in pseudopotentials (lmaxx) =  4
     file Ga.pbe-dn-kjpaw_psl.1.0.0.UPF: wavefunction(s)  4S renormalized

     gamma-point specific algorithms are used
     Message from routine setup:
     using ibrav=0 with symmetry is DISCOURAGED, use correct ibrav instead

     Subspace diagonalization in iterative solution of the eigenvalue problem:
     a serial algorithm will be used

     Using Slab Decomposition

     bravais-lattice index     =            0
     lattice parameter (alat)  =       8.5508  a.u.
     unit-cell volume          =    1745.0112 (a.u.)^3
     number of atoms/cell      =           12
     number of atomic types    =            3
     number of electrons       =       168.00
     number of Kohn-Sham states=          101
     kinetic-energy cutoff     =      30.0000  Ry
     charge density cutoff     =     240.0000  Ry
     scf convergence threshold =      1.0E-06
     mixing beta               =       0.7000
     number of iterations used =            8  plain     mixing
     Exchange-correlation=  SLA  PW   PBX  PBC
                           (   1   4   3   4   0   0   0)

     celldm(1)=   8.550835  celldm(2)=   0.000000  celldm(3)=   0.000000
     celldm(4)=   0.000000  celldm(5)=   0.000000  celldm(6)=   0.000000

     crystal axes: (cart. coord. in units of alat)
               a(1) = (   1.000000   0.000000   0.000000 )
               a(2) = (   0.000000   1.587010   0.000000 )
               a(3) = (   0.000000   0.000000   1.758705 )

     reciprocal axes: (cart. coord. in units 2 pi/alat)
               b(1) = (  1.000000  0.000000  0.000000 )
               b(2) = (  0.000000  0.630116  0.000000 )
               b(3) = (  0.000000  0.000000  0.568600 )

     PseudoPot. # 1 for Pr read from file:
     /home/pragov/projects/rrg-bengioy-ad/pragov/crystal_structure_design/SSSP/Pr.GGA-PBE-paw-v1.0.UPF
     MD5 check sum: b5e1e58e76df433569641143f671cc27
     Pseudo is Projector augmented-wave + core cor, Zval = 13.0
     Generated using ATOMPAW code
     Shape of augmentation charge: BESSEL
     Using radial grid of 1103 points,  8 beta functions with:
                l(1) =   0
                l(2) =   0
                l(3) =   1
                l(4) =   1
                l(5) =   2
                l(6) =   2
                l(7) =   3
                l(8) =   3
     Q(r) pseudized with 0 coefficients

     PseudoPot. # 2 for Ga read from file:
     /home/pragov/projects/rrg-bengioy-ad/pragov/crystal_structure_design/SSSP/Ga.pbe-dn-kjpaw_psl.1.0.0.UPF
     MD5 check sum: a27b4342b1af7e5f338de752e9ed7044
     Pseudo is Projector augmented-wave + core cor, Zval = 13.0
     Generated using "atomic" code by A. Dal Corso  v.5.1
     Shape of augmentation charge: PSQ
     Using radial grid of 1205 points,  6 beta functions with:
                l(1) =   0
                l(2) =   0
                l(3) =   1
                l(4) =   1
                l(5) =   2
                l(6) =   2
     Q(r) pseudized with 0 coefficients

     PseudoPot. # 3 for Pt read from file:
     /home/pragov/projects/rrg-bengioy-ad/pragov/crystal_structure_design/SSSP/pt_pbe_v1.4.uspp.F.UPF
     MD5 check sum: f09d6de1a584b5a045c4fc126da2d0c4
     Pseudo is Ultrasoft + core correction, Zval = 16.0
     Generated by new atomic code, or converted to UPF format
     Using radial grid of  985 points,  6 beta functions with:
                l(1) =   0
                l(2) =   0
                l(3) =   1
                l(4) =   1
                l(5) =   2
                l(6) =   2
     Q(r) pseudized with  8 coefficients,  rinner =    1.300   1.300   1.300
                                                       1.300   1.300

     atomic species   valence    mass     pseudopotential
        Pr            13.00   140.90766     Pr( 1.00)
        Ga            13.00    69.72300     Ga( 1.00)
        Pt            16.00   195.08400     Pt( 1.00)

      8 Sym. Ops., with inversion, found ( 6 have fractional translation)

                                    s                        frac. trans.

      isym =  1     identity

 cryst.   s( 1) = (     1          0          0      )
                  (     0          1          0      )
                  (     0          0          1      )

 cart.    s( 1) = (  1.0000000  0.0000000  0.0000000 )
                  (  0.0000000  1.0000000  0.0000000 )
                  (  0.0000000  0.0000000  1.0000000 )

      isym =  2     180 deg rotation - cart. axis [0,0,1]

 cryst.   s( 2) = (    -1          0          0      )    f =(  0.0000000 )
                  (     0         -1          0      )       (  0.5000000 )
                  (     0          0          1      )       (  0.5000000 )

 cart.    s( 2) = ( -1.0000000  0.0000000  0.0000000 )    f =(  0.0000000 )
                  (  0.0000000 -1.0000000  0.0000000 )       (  0.7935048 )
                  (  0.0000000  0.0000000  1.0000000 )       (  0.8793527 )

[...]

      isym =  4     180 deg rotation - cart. axis [1,0,0]

[...]

      isym =  5     inversion

 cryst.   s( 5) = (    -1          0          0      )
                  (     0         -1          0      )
                  (     0          0         -1      )

 cart.    s( 5) = ( -1.0000000  0.0000000  0.0000000 )
                  (  0.0000000 -1.0000000  0.0000000 )
                  (  0.0000000  0.0000000 -1.0000000 )

      isym =  6     inv. 180 deg rotation - cart. axis [0,0,1]

[...]

      isym =  8     inv. 180 deg rotation - cart. axis [1,0,0]

 cryst.   s( 8) = (    -1          0          0      )    f =(  0.5000000 )
                  (     0          1          0      )       (  0.0000000 )
                  (     0          0          1      )       (  0.0000000 )

 cart.    s( 8) = ( -1.0000000  0.0000000  0.0000000 )    f =(  0.5000000 )
                  (  0.0000000  1.0000000  0.0000000 )       (  0.0000000 )
                  (  0.0000000  0.0000000  1.0000000 )       (  0.0000000 )

   Cartesian axes

     site n.     atom                  positions (alat units)
         1           Pr  tau(   1) = (   0.2500000   0.0443569   1.2129509  )
         2           Pr  tau(   2) = (   0.2500000   0.8378617   1.4251071  )
         3           Pr  tau(   3) = (   0.7500000   1.5426527   0.5457544  )
         4           Pr  tau(   4) = (   0.7500000   0.7491479   0.3335983  )
         5           Ga  tau(   5) = (   0.2500000   0.2489367   0.1197801  )
         6           Ga  tau(   6) = (   0.2500000   1.0424416   0.7595725  )
         7           Ga  tau(   7) = (   0.7500000   1.3380729   1.6389252  )
         8           Ga  tau(   8) = (   0.7500000   0.5445681   0.9991328  )
         9           Pt  tau(   9) = (   0.2500000   0.4438310   0.6893386  )
        10           Pt  tau(  10) = (   0.2500000   1.2373359   0.1900140  )
        11           Pt  tau(  11) = (   0.7500000   1.1431786   1.0693667  )
        12           Pt  tau(  12) = (   0.7500000   0.3496738   1.5686913  )

   Crystallographic axes

     site n.     atom                  positions (cryst. coord.)
         1           Pr  tau(   1) = (  0.2500000  0.0279500  0.6896840  )
         2           Pr  tau(   2) = (  0.2500000  0.5279500  0.8103160  )
         3           Pr  tau(   3) = (  0.7500000  0.9720500  0.3103160  )
         4           Pr  tau(   4) = (  0.7500000  0.4720500  0.1896840  )
         5           Ga  tau(   5) = (  0.2500000  0.1568590  0.0681070  )
         6           Ga  tau(   6) = (  0.2500000  0.6568590  0.4318930  )
         7           Ga  tau(   7) = (  0.7500000  0.8431410  0.9318930  )
         8           Ga  tau(   8) = (  0.7500000  0.3431410  0.5681070  )
         9           Pt  tau(   9) = (  0.2500000  0.2796650  0.3919580  )
        10           Pt  tau(  10) = (  0.2500000  0.7796650  0.1080420  )
        11           Pt  tau(  11) = (  0.7500000  0.7203350  0.6080420  )
        12           Pt  tau(  12) = (  0.7500000  0.2203350  0.8919580  )

     number of k points=     1  Methfessel-Paxton smearing, width (Ry)=  0.0010
                       cart. coord. in units 2pi/alat
        k(    1) = (   0.0000000   0.0000000   0.0000000), wk =   2.0000000

                       cryst. coord.
        k(    1) = (   0.0000000   0.0000000   0.0000000), wk =   2.0000000

     Check: negative core charge=   -0.000001

     Initial potential from superposition of free atoms

     starting charge     165.9585, renormalised to     168.0000

     negative rho (up, down):  7.379E-01 0.000E+00
     Starting wfcs are  212 randomized atomic wfcs
     Checking if some PAW data can be deallocated...

     Self-consistent Calculation

     iteration #  1     ecut=    30.00 Ry     beta= 0.70
     Davidson diagonalization with overlap

     ethr =  1.00E-02,  avg # of iterations =  2.0

     negative rho (up, down):  6.541E-01 0.000E+00

     total energy              =   -3978.05839806 Ry
     estimated scf accuracy    <      13.73307699 Ry

[...]

     total energy              =   -3988.40153603 Ry
     estimated scf accuracy    <       0.00001189 Ry

     iteration # 54     ecut=    30.00 Ry     beta= 0.70
     Davidson diagonalization with overlap

     ethr =  6.58E-10,  avg # of iterations =  1.0

[...]

     End of self-consistent calculation

          k = 0.0000 0.0000 0.0000 (  2408 PWs)   bands (ev):

   -38.7341 -38.7339 -38.7338 -38.7336 -38.5596 -38.5594 -38.5589 -38.5586
   -38.4602 -38.4595 -38.4593 -38.4587 -21.3223 -21.2846 -21.2707 -21.2382
    -3.9216  -3.8204  -3.6589  -3.5658  -3.3494  -3.2996  -3.2346  -3.2248
    -3.2142  -3.1701  -3.0940  -3.0138  -0.4470  -0.4470  -0.4398  -0.4369
    -0.4290  -0.4273  -0.4210  -0.4197  -0.4196  -0.4167  -0.4142  -0.4098
    -0.4045  -0.3976  -0.3845  -0.3790  -0.3630  -0.3626  -0.3215  -0.3198
     5.6002   7.0003   7.7632   7.9314   9.5063   9.8352   9.9850  10.1556
    10.5087  10.5323  10.5700  10.6240  10.7173  10.7415  10.8413  10.8984
    10.9198  11.0323  11.0627  11.1322  11.1884  11.2684  11.3265  11.6883
    11.9359  12.2904  12.5954  13.3616  13.6698  13.6941  13.9019  14.0235
    14.5238  14.5239  14.5616  14.5907  14.5958  14.6174  14.6569  14.7004
    14.7245  14.7385  14.7546  14.7560  14.7668  14.7672  14.7737  14.8127
    14.8192  14.8339  14.8518  14.8688  14.8776

     occupation numbers
     1.0000   1.0000   1.0000   1.0000   1.0000   1.0000   1.0000   1.0000
     1.0000   1.0000   1.0000   1.0000   1.0000   1.0000   1.0000   1.0000
     1.0000   1.0000   1.0000   1.0000   1.0000   1.0000   1.0000   1.0000
     1.0000   1.0000   1.0000   1.0000   1.0000   1.0000   1.0000   1.0000
     1.0000   1.0000   1.0000   1.0000   1.0000   1.0000   1.0000   1.0000
     1.0000   1.0000   1.0000   1.0000   1.0000   1.0000   1.0000   1.0000
     1.0000   1.0000   1.0000   1.0000   1.0000   1.0000   1.0000   1.0000
     1.0000   1.0000   1.0000   1.0000   1.0000   1.0000   1.0000   1.0000
     1.0000   1.0000   1.0000   1.0000   1.0000   1.0000   1.0000   1.0000
     1.0000   1.0000   1.0000   1.0000   1.0000   1.0000   1.0000   1.0000
     1.0000   1.0000   1.0024   0.6606   0.3527  -0.0156  -0.0000  -0.0000
    -0.0000  -0.0000  -0.0000  -0.0000  -0.0000  -0.0000  -0.0000  -0.0000
    -0.0000  -0.0000  -0.0000  -0.0000  -0.0000

     the Fermi energy is    14.5933 ev

!    total energy              =   -3988.40153599 Ry
     estimated scf accuracy    <       0.00000006 Ry
     smearing contrib. (-TS)   =      -0.00043079 Ry
     internal energy E=F+TS    =   -3988.40110520 Ry

     The total energy is F=E-TS. E is the sum of the following terms:
     one-electron contribution =    -620.39458299 Ry
     hartree contribution      =     456.66133130 Ry
     xc contribution           =    -427.77465430 Ry
     ewald contribution        =   -1275.12043642 Ry
     one-center paw contrib.   =   -2121.77276279 Ry
      -> PAW hartree energy AE =     813.88045769 Ry
      -> PAW hartree energy PS =    -805.01223915 Ry
      -> PAW xc energy AE      =   -2323.53755297 Ry
      -> PAW xc energy PS      =     192.89657163 Ry
      -> total E_H with PAW    =     465.52954984 Ry
      -> total E_XC with PAW   =   -2558.41563563 Ry

     convergence has been achieved in  54 iterations

     negative rho (up, down):  6.896E-01 0.000E+00

     Forces acting on atoms (cartesian axes, Ry/au):

     atom    1 type  1   force =    -0.00000000   -0.02092846    0.00971540
     atom    2 type  1   force =     0.00000000   -0.02092846   -0.00971540
     atom    3 type  1   force =     0.00000000    0.02092846   -0.00971540
     atom    4 type  1   force =     0.00000000    0.02092846    0.00971540
     atom    5 type  2   force =     0.00000000    0.00362043    0.04272728
     atom    6 type  2   force =     0.00000000    0.00362043   -0.04272728
     atom    7 type  2   force =     0.00000000   -0.00362043   -0.04272728
     atom    8 type  2   force =    -0.00000000   -0.00362043    0.04272728
     atom    9 type  3   force =     0.00000000   -0.01008162   -0.01023870
     atom   10 type  3   force =     0.00000000   -0.01008162    0.01023870
     atom   11 type  3   force =     0.00000000    0.01008162    0.01023870
     atom   12 type  3   force =     0.00000000    0.01008162   -0.01023870
     The non-local contrib.  to forces
     atom    1 type  1   force =     0.00000000   -0.14519055    0.06725966
     atom    2 type  1   force =     0.00000000   -0.14519055   -0.06725966
     atom    3 type  1   force =     0.00000000    0.14519055   -0.06725966
     atom    4 type  1   force =     0.00000000    0.14519055    0.06725966
     atom    5 type  2   force =     0.00000000    0.05125414   -0.31461880
     atom    6 type  2   force =     0.00000000    0.05125414    0.31461880
     atom    7 type  2   force =     0.00000000   -0.05125414    0.31461880
     atom    8 type  2   force =     0.00000000   -0.05125414   -0.31461880
     atom    9 type  3   force =    -0.00000000    0.03281533    0.06335574
     atom   10 type  3   force =     0.00000000    0.03281533   -0.06335574
     atom   11 type  3   force =     0.00000000   -0.03281533   -0.06335574
     atom   12 type  3   force =     0.00000000   -0.03281533    0.06335574
     The ionic contribution  to forces
     atom    1 type  1   force =     0.00000000   -1.56562887   -3.75584476
     atom    2 type  1   force =     0.00000000   -1.56562888    3.75584476
     atom    3 type  1   force =    -0.00000000    1.56562888    3.75584476
     atom    4 type  1   force =    -0.00000000    1.56562888   -3.75584476
     atom    5 type  2   force =    -0.00000000    4.46497015    1.49781095
     atom    6 type  2   force =     0.00000000    4.46497015   -1.49781095
     atom    7 type  2   force =    -0.00000000   -4.46497015   -1.49781095
     atom    8 type  2   force =     0.00000000   -4.46497015    1.49781095
     atom    9 type  3   force =     0.00000000   -6.11859215   -1.33476509
     atom   10 type  3   force =    -0.00000000   -6.11859215    1.33476510
     atom   11 type  3   force =     0.00000000    6.11859215    1.33476509
     atom   12 type  3   force =     0.00000000    6.11859215   -1.33476509
     The local contribution  to forces
     atom    1 type  1   force =     0.00000015    1.68972940    3.69831483
     atom    2 type  1   force =    -0.00001731    1.68984175   -3.69795983
     atom    3 type  1   force =    -0.00000506   -1.68996194   -3.69839406
     atom    4 type  1   force =     0.00000613   -1.68969527    3.69795691
     atom    5 type  2   force =     0.00000279   -4.51231030   -1.14254290
     atom    6 type  2   force =     0.00000371   -4.51243557    1.14253476
     atom    7 type  2   force =    -0.00000101    4.51223928    1.14261244
     atom    8 type  2   force =    -0.00000368    4.51257201   -1.14255205
     atom    9 type  3   force =    -0.00000154    6.06951775    1.28493752
     atom   10 type  3   force =    -0.00000181    6.06914815   -1.28512683
     atom   11 type  3   force =    -0.00000244   -6.06952369   -1.28498392
     atom   12 type  3   force =    -0.00000181   -6.06910595    1.28522342
     The core correction contribution to forces
     atom    1 type  1   force =     0.00000000    0.00003082    0.00002830
     atom    2 type  1   force =    -0.00000000    0.00003083   -0.00002825
     atom    3 type  1   force =    -0.00000000   -0.00003085   -0.00002831
     atom    4 type  1   force =     0.00000000   -0.00003081    0.00002825
     atom    5 type  2   force =     0.00000008   -0.00021630    0.00210576
     atom    6 type  2   force =     0.00000004   -0.00021609   -0.00210527
     atom    7 type  2   force =    -0.00000002    0.00021591   -0.00210543
     atom    8 type  2   force =    -0.00000006    0.00021625    0.00210538
     atom    9 type  3   force =    -0.00000045    0.00633731   -0.02390810
     atom   10 type  3   force =     0.00000028    0.00633538    0.02390867
     atom   11 type  3   force =     0.00000033   -0.00633801    0.02390846
     atom   12 type  3   force =     0.00000018   -0.00633444   -0.02390926
     The Hubbard contrib.    to forces
     atom    1 type  1   force =     0.00000000    0.00000000    0.00000000
     atom    2 type  1   force =     0.00000000    0.00000000    0.00000000
     atom    3 type  1   force =     0.00000000    0.00000000    0.00000000
     atom    4 type  1   force =     0.00000000    0.00000000    0.00000000
     atom    5 type  2   force =     0.00000000    0.00000000    0.00000000
     atom    6 type  2   force =     0.00000000    0.00000000    0.00000000
     atom    7 type  2   force =     0.00000000    0.00000000    0.00000000
     atom    8 type  2   force =     0.00000000    0.00000000    0.00000000
     atom    9 type  3   force =     0.00000000    0.00000000    0.00000000
     atom   10 type  3   force =     0.00000000    0.00000000    0.00000000
     atom   11 type  3   force =     0.00000000    0.00000000    0.00000000
     atom   12 type  3   force =     0.00000000    0.00000000    0.00000000
     The SCF correction term to forces
     atom    1 type  1   force =     0.00000277    0.00013470   -0.00000474
     atom    2 type  1   force =     0.00000315    0.00001072   -0.00026971
     atom    3 type  1   force =     0.00000079    0.00006464    0.00007106
     atom    4 type  1   force =     0.00000261   -0.00013144    0.00026936
     atom    5 type  2   force =    -0.00000152   -0.00007775   -0.00002749
     atom    6 type  2   force =    -0.00000170    0.00004864    0.00003121
     atom    7 type  2   force =     0.00000189    0.00015327   -0.00003745
     atom    8 type  2   force =     0.00000059   -0.00018864   -0.00001792
     atom    9 type  3   force =     0.00000026   -0.00015106    0.00014202
     atom   10 type  3   force =     0.00000097    0.00020356    0.00005418
     atom   11 type  3   force =     0.00000364    0.00015481   -0.00010166
     atom   12 type  3   force =     0.00000225   -0.00024241   -0.00014407

     Total force =     0.101540     Total SCF correction =     0.000680

     Computing stress (Cartesian axis) and pressure

     negative rho (up, down):  6.896E-01 0.000E+00
          total   stress  (Ry/bohr**3)                   (kbar)     P=      -92.60
  -0.00065246   0.00000000   0.00000000          -95.98        0.00        0.00
   0.00000000  -0.00023916   0.00000000            0.00      -35.18        0.00
   0.00000000   0.00000000  -0.00099690            0.00        0.00     -146.65

     kinetic stress (kbar)  20614.59      0.00      0.00
                                0.00  20658.51      0.00
                                0.00      0.00  20493.44

     local   stress (kbar)   1522.32     -0.00      0.00
                               -0.00   8309.25      0.12
                                0.00      0.12   3985.41

     nonloc. stress (kbar)   5130.21      0.00      0.00
                                0.00   5223.22      0.00
                                0.00      0.00   5165.89

     hartree stress (kbar)  14177.96      0.00     -0.00
                                0.00  11358.26     -0.02
                               -0.00     -0.02  12960.50

     exc-cor stress (kbar)  10433.66      0.00     -0.00
                                0.00  10431.34      0.00
                               -0.00      0.00  10430.69

     corecor stress (kbar) -17892.43     -0.00      0.00
                               -0.00 -17893.04     -0.00
                                0.00     -0.00 -17894.46

     ewald   stress (kbar) -34082.28     -0.00      0.00
                               -0.00 -38122.72      0.00
                                0.00      0.00 -35288.12

     hubbard stress (kbar)      0.00      0.00      0.00
                                0.00      0.00      0.00
                                0.00      0.00      0.00

     DFT-D   stress (kbar)      0.00      0.00      0.00
                                0.00      0.00      0.00
                                0.00      0.00      0.00

     XDM     stress (kbar)      0.00      0.00      0.00
                                0.00      0.00      0.00
                                0.00      0.00      0.00

     dft-nl  stress (kbar)      0.00      0.00      0.00
                                0.00      0.00      0.00
                                0.00      0.00      0.00

     TS-vdW  stress (kbar)      0.00      0.00      0.00
                                0.00      0.00      0.00
                                0.00      0.00      0.00

[...]

                                0.00      0.00      0.00

     Writing all to output data dir new_calculations/myprefix.save/

     General routines

     Parallel routines

     PAW routines

   This run was terminated on:  23: 4:20  20May2023

   JOB DONE.