     Program PWSCF v.7.0 starts on 21May2023 at 11: 2:33

     Reading input from espresso_26647.pwi
Warning: card &CELL ignored
Warning: card / ignored

     Current dimensions of program PWSCF are:
     Max number of different atomic species (ntypx) = 10
     Max number of k-points (npk) =  40000
     Max angular momentum in pseudopotentials (lmaxx) =  4
     file O.pbe-n-kjpaw_psl.0.1.UPF: wavefunction(s)  2P renormalized

     gamma-point specific algorithms are used
     Message from routine setup:
     using ibrav=0 with symmetry is DISCOURAGED, use correct ibrav instead

     Subspace diagonalization in iterative solution of the eigenvalue problem:
     a serial algorithm will be used

     Using Slab Decomposition

     bravais-lattice index     =            0
     lattice parameter (alat)  =      13.0400  a.u.
     unit-cell volume          =    1567.8953 (a.u.)^3
     number of atoms/cell      =           16
     number of atomic types    =            3
     number of electrons       =       182.00
     number of Kohn-Sham states=          109
     kinetic-energy cutoff     =      30.0000  Ry
     charge density cutoff     =     240.0000  Ry
     scf convergence threshold =      1.0E-06
     mixing beta               =       0.7000
     number of iterations used =            8  plain     mixing
     Exchange-correlation= SLA  PW   PBX  PBC
                           (   1   4   3   4   0   0   0)

     celldm(1)=  13.039993  celldm(2)=   0.000000  celldm(3)=   0.000000
     celldm(4)=   0.000000  celldm(5)=   0.000000  celldm(6)=   0.000000

     crystal axes: (cart. coord. in units of alat)
               a(1) = (   1.000000   0.000000   0.000000 )
               a(2) = (   0.500000   0.866025   0.000000 )
               a(3) = (   0.500000   0.288675   0.816497 )

     reciprocal axes: (cart. coord. in units 2 pi/alat)
               b(1) = (  1.000000 -0.577350 -0.408248 )
               b(2) = (  0.000000  1.154701 -0.408248 )
               b(3) = (  0.000000  0.000000  1.224745 )

     PseudoPot. # 1 for Tl read from file:
     /home/pragov/projects/rrg-bengioy-ad/pragov/crystal_structure_design/SSSP/Tl_pbe_v1.2.uspp.F.UPF
     MD5 check sum: b76cf1f7e72655a2b2c53cf6385d7059
     Pseudo is Ultrasoft + core correction, Zval = 13.0
     Generated by new atomic code, or converted to UPF format
     Using radial grid of  899 points,  6 beta functions with:
                l(1) =   0
                l(2) =   0
                l(3) =   1
                l(4) =   1
                l(5) =   2
                l(6) =   2
     Q(r) pseudized with  6 coefficients,  rinner =    1.100   1.100   1.100
                                                       1.100   1.100

     PseudoPot. # 2 for Pd read from file:
     /home/pragov/projects/rrg-bengioy-ad/pragov/crystal_structure_design/SSSP/Pd_ONCV_PBE-1.0.oncvpsp.upf
     MD5 check sum: eb77f42b51d86fb18e25f68156a31cf1
     Pseudo is Norm-conserving, Zval = 18.0
     Generated using ONCVPSP code by D. R. Hamann
     Using radial grid of 1410 points,  6 beta functions with:
                l(1) =   0
                l(2) =   0
                l(3) =   1
                l(4) =   1
                l(5) =   2
                l(6) =   2

     PseudoPot. # 3 for O  read from file:
     /home/pragov/projects/rrg-bengioy-ad/pragov/crystal_structure_design/SSSP/O.pbe-n-kjpaw_psl.0.1.UPF
     MD5 check sum: 0234752ac141de4415c5fc33072bef88
     Pseudo is Projector augmented-wave + core cor, Zval =  6.0
     Generated using "atomic" code by A. Dal Corso  v.5.0.99 svn rev. 10869
     Shape of augmentation charge: BESSEL
     Using radial grid of 1095 points,  4 beta functions with:
                l(1) =   0
                l(2) =   0
                l(3) =   1
                l(4) =   1
     Q(r) pseudized with 0 coefficients

     atomic species   valence    mass     pseudopotential
        Tl            13.00   204.38000     Tl( 1.00)
        Pd            18.00   106.42000     Pd( 1.00)
        O              6.00    15.99900     O ( 1.00)

     12 Sym. Ops., with inversion, found

                                    s                        frac. trans.

      isym =  1     identity

 cryst.   s( 1) = (     1          0          0      )
                  (     0          1          0      )
                  (     0          0          1      )

 cart.    s( 1) = (  1.0000000  0.0000000  0.0000000 )
                  (  0.0000000  1.0000000  0.0000000 )
                  (  0.0000000  0.0000000  1.0000000 )

      isym =  2     180 deg rotation - cart. axis [1,0,0]

[...]

      isym =  3     120 deg rotation - cryst. axis [0,0,1]

[...]

      isym =  6     180 deg rotation - cryst. axis [1,1,0]

[...]

      isym =  7     inversion

[...]

      isym =  8     inv. 180 deg rotation - cart. axis [1,0,0]

[...]

      isym =  9     inv. 120 deg rotation - cryst. axis [0,0,1]

 cryst.   s( 9) = (     1         -1          0      )
                  (     1          0          0      )
                  (     1          0         -1      )

 cart.    s( 9) = (  0.5000000  0.8660254  0.0000000 )
                  ( -0.8660254  0.5000000  0.0000000 )
                  (  0.0000000  0.0000000 -1.0000000 )

[...]

 cryst.   s(10) = (     0          1          0      )
                  (    -1          1          0      )
                  (     0          1         -1      )

 cart.    s(10) = (  0.5000000 -0.8660254 -0.0000000 )
                  (  0.8660254  0.5000000  0.0000000 )
                  (  0.0000000  0.0000000 -1.0000000 )

[...]

      isym = 12     inv. 180 deg rotation - cryst. axis [1,1,0]

 cryst.   s(12) = (     1         -1          0      )
                  (     0         -1          0      )
                  (     0         -1          1      )

 cart.    s(12) = (  0.5000000 -0.8660254 -0.0000000 )
                  ( -0.8660254 -0.5000000 -0.0000000 )
                  (  0.0000000  0.0000000  1.0000000 )

   Cartesian axes

     site n.     atom                  positions (alat units)
         1           Tl  tau(   1) = (   1.0000000   0.5773503   0.4082483  )
         2           Tl  tau(   2) = (   0.0000000   0.0000000   0.0000000  )
         3           Pd  tau(   3) = (   0.5000000   0.0000000   0.0000000  )
         4           Pd  tau(   4) = (   0.2500000   0.1443376   0.4082483  )
         5           Pd  tau(   5) = (   0.7500000   0.1443376   0.4082483  )
         6           Pd  tau(   6) = (   0.5000000   0.5773503   0.4082483  )
         7           Pd  tau(   7) = (   0.2500000   0.4330127   0.0000000  )
         8           Pd  tau(   8) = (   0.7500000   0.4330127   0.0000000  )
         9           O   tau(   9) = (   1.7166340   0.9910991   0.7008129  )
        10           O   tau(  10) = (   0.7166340   0.1636014   0.1156837  )
        11           O   tau(  11) = (   0.5000000   0.2886751   0.4694455  )
        12           O   tau(  12) = (   0.5000000   0.5388225   0.1156837  )
        13           O   tau(  13) = (   1.5000000   0.8660254   0.3470511  )
        14           O   tau(  14) = (   1.5000000   0.6158780   0.7008129  )
        15           O   tau(  15) = (   0.2833660   0.1636014   0.1156837  )
        16           O   tau(  16) = (   1.2833660   0.9910991   0.7008129  )

   Crystallographic axes

     site n.     atom                  positions (cryst. coord.)
         1           Tl  tau(   1) = (  0.5000000  0.5000000  0.5000000  )
         2           Tl  tau(   2) = (  0.0000000  0.0000000  0.0000000  )
         3           Pd  tau(   3) = (  0.5000000  0.0000000  0.0000000  )
         4           Pd  tau(   4) = ( -0.0000000  0.0000000  0.5000000  )
         5           Pd  tau(   5) = (  0.5000000  0.0000000  0.5000000  )
         6           Pd  tau(   6) = ( -0.0000000  0.5000000  0.5000000  )
         7           Pd  tau(   7) = ( -0.0000000  0.5000000  0.0000000  )
         8           Pd  tau(   8) = (  0.5000000  0.5000000  0.0000000  )
         9           O   tau(   9) = (  0.8583170  0.8583170  0.8583170  )
        10           O   tau(  10) = (  0.5749510  0.1416830  0.1416830  )
        11           O   tau(  11) = (  0.1416830  0.1416830  0.5749510  )
        12           O   tau(  12) = (  0.1416830  0.5749510  0.1416830  )
        13           O   tau(  13) = (  0.8583170  0.8583170  0.4250490  )
        14           O   tau(  14) = (  0.8583170  0.4250490  0.8583170  )
        15           O   tau(  15) = (  0.1416830  0.1416830  0.1416830  )
        16           O   tau(  16) = (  0.4250490  0.8583170  0.8583170  )

     number of k points=     1  Methfessel-Paxton smearing, width (Ry)=  0.0010
                       cart. coord. in units 2pi/alat
        k(    1) = (   0.0000000   0.0000000   0.0000000), wk =   2.0000000

                       cryst. coord.
        k(    1) = (   0.0000000   0.0000000   0.0000000), wk =   2.0000000

     Check: negative core charge=   -0.000012

     Initial potential from superposition of free atoms

     starting charge     181.9881, renormalised to     182.0000

     negative rho (up, down):  1.017E-01 0.000E+00
     Starting wfcs are  110 randomized atomic wfcs
     Checking if some PAW data can be deallocated...

     Self-consistent Calculation

     iteration #  1     ecut=    30.00 Ry     beta= 0.70
     Davidson diagonalization with overlap

     ethr =  1.00E-02,  avg # of iterations =  3.0

     negative rho (up, down):  1.097E-01 0.000E+00

     total energy              =   -2139.27981726 Ry
     estimated scf accuracy    <       1.89089904 Ry

[...]

     total energy              =   -2140.06554987 Ry
     estimated scf accuracy    <       0.00000120 Ry

     iteration # 12     ecut=    30.00 Ry     beta= 0.70
     Davidson diagonalization with overlap

     ethr =  6.61E-10,  avg # of iterations =  2.0

[...]

     End of self-consistent calculation

          k = 0.0000 0.0000 0.0000 (  2143 PWs)   bands (ev):

   -73.7080 -73.7067 -73.7066 -73.7066 -73.7058 -73.7057 -39.4040 -39.4039
   -39.4037 -39.3872 -39.3871 -39.3870 -39.3868 -39.3620 -39.3620 -39.3620
   -39.3563 -39.3563 -38.5060 -38.5058 -38.5057 -38.4974 -38.4973 -38.4971
    -7.8893  -7.2315  -7.2314  -7.2312  -6.8332  -6.8330  -6.8329  -6.6442
    -0.4380  -0.4380  -0.4380  -0.4297  -0.4297   1.6310   1.6310   1.6310
     1.6496   1.6496   3.6931   4.8396   5.1275   5.1275   5.1275   5.1466
     5.1467   5.1468   5.2205   5.2205   6.6378   6.6378   6.6378   7.5723
     7.5724   7.5725   7.6483   7.6484   7.6485   7.9544   8.4684   8.4684
     8.5987   8.5988   8.5988   9.1937   9.1937   9.1938   9.2782   9.2782
     9.5446   9.5447   9.6441   9.6441   9.6441   9.6688  10.3142  10.3563
    10.3564  10.3565  10.4316  10.4316  10.4316  10.6654  11.0283  11.0283
    11.0284  11.4784  11.4784  12.5226  12.5226  12.5226  12.8965  12.8965
    12.8965  13.4536  14.6835  14.6835  14.6836  16.5055  18.4621  18.4621
    18.4621  19.0128  19.0128  19.0129  19.4574

     occupation numbers
     1.0000   1.0000   1.0000   1.0000   1.0000   1.0000   1.0000   1.0000
     1.0000   1.0000   1.0000   1.0000   1.0000   1.0000   1.0000   1.0000
     1.0000   1.0000   1.0000   1.0000   1.0000   1.0000   1.0000   1.0000
     1.0000   1.0000   1.0000   1.0000   1.0000   1.0000   1.0000   1.0000
     1.0000   1.0000   1.0000   1.0000   1.0000   1.0000   1.0000   1.0000
     1.0000   1.0000   1.0000   1.0000   1.0000   1.0000   1.0000   1.0000
     1.0000   1.0000   1.0000   1.0000   1.0000   1.0000   1.0000   1.0000
     1.0000   1.0000   1.0000   1.0000   1.0000   1.0000   1.0000   1.0000
     1.0000   1.0000   1.0000   1.0000   1.0000   1.0000   1.0000   1.0000
     1.0000   1.0000   1.0000   1.0000   1.0000   1.0000   1.0000   1.0000
     1.0000   1.0000   1.0000   1.0000   1.0000   1.0000   1.0000   1.0000
     1.0000   1.0000   1.0000  -0.0000  -0.0000  -0.0000  -0.0000  -0.0000
    -0.0000  -0.0000  -0.0000  -0.0000  -0.0000  -0.0000  -0.0000  -0.0000
    -0.0000  -0.0000  -0.0000  -0.0000  -0.0000

     the Fermi energy is    12.2936 ev

!    total energy              =   -2140.06555002 Ry
     estimated scf accuracy    <       0.00000007 Ry
     smearing contrib. (-TS)   =       0.00000000 Ry
     internal energy E=F+TS    =   -2140.06555002 Ry

     The total energy is F=E-TS. E is the sum of the following terms:
     one-electron contribution =    -903.64913670 Ry
     hartree contribution      =     549.76633003 Ry
     xc contribution           =    -331.46397997 Ry
     ewald contribution        =   -1378.45475538 Ry
     one-center paw contrib.   =     -76.26400800 Ry
      -> PAW hartree energy AE =     225.92785899 Ry
      -> PAW hartree energy PS =    -225.17875917 Ry
      -> PAW xc energy AE      =    -135.63450134 Ry
      -> PAW xc energy PS      =      58.62139353 Ry
      -> total E_H with PAW    =     550.51542984 Ry
      -> total E_XC with PAW   =    -408.47708778 Ry

     convergence has been achieved in  12 iterations

     negative rho (up, down):  1.071E-01 0.000E+00

     Forces acting on atoms (cartesian axes, Ry/au):

     atom    1 type  1   force =     0.00000000    0.00000000    0.00000000
     atom    2 type  1   force =     0.00000000    0.00000000    0.00000000
     atom    3 type  2   force =     0.00000000    0.00000000    0.00000000
     atom    4 type  2   force =     0.00000000    0.00000000   -0.00000000
     atom    5 type  2   force =     0.00000000    0.00000000   -0.00000000
     atom    6 type  2   force =     0.00000000    0.00000000    0.00000000
     atom    7 type  2   force =     0.00000000    0.00000000    0.00000000
     atom    8 type  2   force =     0.00000000    0.00000000    0.00000000
     atom    9 type  3   force =     0.01061681    0.00612962    0.00431722
     atom   10 type  3   force =     0.01061681   -0.00612962   -0.00431722
     atom   11 type  3   force =     0.00000000    0.00000000    0.01299459
     atom   12 type  3   force =     0.00000000    0.01225923   -0.00431722
     atom   13 type  3   force =     0.00000000    0.00000000   -0.01299459
     atom   14 type  3   force =     0.00000000   -0.01225923    0.00431722
     atom   15 type  3   force =    -0.01061681   -0.00612962   -0.00431722
     atom   16 type  3   force =    -0.01061681    0.00612962    0.00431722
     The non-local contrib.  to forces
     atom    1 type  1   force =     0.00000000    0.00000000   -0.00000000
     atom    2 type  1   force =    -0.00000000    0.00000000   -0.00000000
     atom    3 type  2   force =    -0.00000000    0.00000000   -0.00000000
     atom    4 type  2   force =     0.00000000    0.00000000   -0.00000000
     atom    5 type  2   force =     0.00000000   -0.00000000   -0.00000000
     atom    6 type  2   force =     0.00000000   -0.00000000   -0.00000000
     atom    7 type  2   force =     0.00000000   -0.00000000   -0.00000000
     atom    8 type  2   force =     0.00000000   -0.00000000    0.00000000
     atom    9 type  3   force =    -0.41239724   -0.23809766   -0.16837462
     atom   10 type  3   force =    -0.41239724    0.23809766    0.16837462
     atom   11 type  3   force =     0.00000000   -0.00000000   -0.50508702
     atom   12 type  3   force =     0.00000000   -0.47619532    0.16837462
     atom   13 type  3   force =     0.00000000    0.00000000    0.50508702
     atom   14 type  3   force =    -0.00000000    0.47619532   -0.16837462
     atom   15 type  3   force =     0.41239724    0.23809766    0.16837462
     atom   16 type  3   force =     0.41239724   -0.23809766   -0.16837462
     The ionic contribution  to forces
     atom    1 type  1   force =    -0.00000000    0.00000000   -0.00000000
     atom    2 type  1   force =    -0.00000000    0.00000000    0.00000000
     atom    3 type  2   force =     0.00000000    0.00000000    0.00000000
     atom    4 type  2   force =    -0.00000000   -0.00000000   -0.00000000
     atom    5 type  2   force =     0.00000000   -0.00000000   -0.00000000
     atom    6 type  2   force =     0.00000000    0.00000000   -0.00000000
     atom    7 type  2   force =    -0.00000000   -0.00000000    0.00000000
     atom    8 type  2   force =     0.00000000   -0.00000000    0.00000000
     atom    9 type  3   force =     1.95229303    1.12715690    0.79702029
     atom   10 type  3   force =     1.95229303   -1.12715690   -0.79702029
     atom   11 type  3   force =    -0.00000000   -0.00000000    2.39106087
     atom   12 type  3   force =     0.00000000    2.25431381   -0.79702029
     atom   13 type  3   force =     0.00000000    0.00000000   -2.39106087
     atom   14 type  3   force =     0.00000000   -2.25431381    0.79702029
     atom   15 type  3   force =    -1.95229303   -1.12715690   -0.79702029
     atom   16 type  3   force =    -1.95229303    1.12715690    0.79702029
     The local contribution  to forces
     atom    1 type  1   force =    -0.00005055    0.00007577   -0.00008994
     atom    2 type  1   force =     0.00009916   -0.00000486    0.00001081
     atom    3 type  2   force =    -0.00021849   -0.00005319    0.00015598
     atom    4 type  2   force =     0.00009632   -0.00004735   -0.00019409
     atom    5 type  2   force =    -0.00004861   -0.00002415    0.00005031
     atom    6 type  2   force =     0.00001113   -0.00000930   -0.00003532
     atom    7 type  2   force =    -0.00001553   -0.00008412    0.00006952
     atom    8 type  2   force =     0.00000656    0.00011994   -0.00000543
     atom    9 type  3   force =    -1.53480486   -0.88616258   -0.62653237
     atom   10 type  3   force =    -1.53483353    0.88610090    0.62653998
     atom   11 type  3   force =    -0.00003548   -0.00001707   -1.87974162
     atom   12 type  3   force =    -0.00004019   -1.77225509    0.62654632
     atom   13 type  3   force =     0.00004432   -0.00000614    1.87971531
     atom   14 type  3   force =     0.00005622    1.77226816   -0.62653936
     atom   15 type  3   force =     1.53483008    0.88613763    0.62656569
     atom   16 type  3   force =     1.53482367   -0.88610683   -0.62650529
     The core correction contribution to forces
     atom    1 type  1   force =    -0.00000103    0.00000096   -0.00000109
     atom    2 type  1   force =    -0.00000283   -0.00000124    0.00000000
     atom    3 type  2   force =     0.00000000    0.00000000    0.00000000
     atom    4 type  2   force =     0.00000000    0.00000000    0.00000000
     atom    5 type  2   force =     0.00000000    0.00000000    0.00000000
     atom    6 type  2   force =     0.00000000    0.00000000    0.00000000
     atom    7 type  2   force =     0.00000000    0.00000000    0.00000000
     atom    8 type  2   force =     0.00000000    0.00000000    0.00000000
     atom    9 type  3   force =     0.00550301    0.00317707    0.00224662
     atom   10 type  3   force =     0.00550293   -0.00317697   -0.00224678
     atom   11 type  3   force =     0.00000002    0.00000014    0.00673941
     atom   12 type  3   force =    -0.00000004    0.00635391   -0.00224655
     atom   13 type  3   force =    -0.00000009   -0.00000017   -0.00673945
     atom   14 type  3   force =    -0.00000005   -0.00635388    0.00224642
     atom   15 type  3   force =    -0.00550274   -0.00317678   -0.00224663
     atom   16 type  3   force =    -0.00550274    0.00317666    0.00224642
     The Hubbard contrib.    to forces
     atom    1 type  1   force =     0.00000000    0.00000000    0.00000000
     atom    2 type  1   force =     0.00000000    0.00000000    0.00000000
     atom    3 type  2   force =     0.00000000    0.00000000    0.00000000
     atom    4 type  2   force =     0.00000000    0.00000000    0.00000000
     atom    5 type  2   force =     0.00000000    0.00000000    0.00000000
     atom    6 type  2   force =     0.00000000    0.00000000    0.00000000
     atom    7 type  2   force =     0.00000000    0.00000000    0.00000000
     atom    8 type  2   force =     0.00000000    0.00000000    0.00000000
     atom    9 type  3   force =     0.00000000    0.00000000    0.00000000
     atom   10 type  3   force =     0.00000000    0.00000000    0.00000000
     atom   11 type  3   force =     0.00000000    0.00000000    0.00000000
     atom   12 type  3   force =     0.00000000    0.00000000    0.00000000
     atom   13 type  3   force =     0.00000000    0.00000000    0.00000000
     atom   14 type  3   force =     0.00000000    0.00000000    0.00000000
     atom   15 type  3   force =     0.00000000    0.00000000    0.00000000
     atom   16 type  3   force =     0.00000000    0.00000000    0.00000000
     The SCF correction term to forces
     atom    1 type  1   force =     0.00005558   -0.00007067    0.00009003
     atom    2 type  1   force =    -0.00015769    0.00000040   -0.00000600
     atom    3 type  2   force =     0.00022556    0.00008240   -0.00019695
     atom    4 type  2   force =    -0.00011768    0.00008364    0.00020092
     atom    5 type  2   force =     0.00005872    0.00004180   -0.00003816
     atom    6 type  2   force =    -0.00002826    0.00000020    0.00004719
     atom    7 type  2   force =     0.00002673    0.00006772   -0.00007390
     atom    8 type  2   force =    -0.00003075   -0.00015752   -0.00002421
     atom    9 type  3   force =     0.00003835    0.00006751   -0.00003826
     atom   10 type  3   force =     0.00006896    0.00002157    0.00002386
     atom   11 type  3   force =     0.00004115    0.00002658    0.00002622
     atom   12 type  3   force =     0.00004365    0.00003266    0.00002778
     atom   13 type  3   force =    -0.00006034    0.00000631    0.00000666
     atom   14 type  3   force =    -0.00007120   -0.00005307   -0.00004206
     atom   15 type  3   force =    -0.00004899   -0.00001283    0.00000667
     atom   16 type  3   force =    -0.00004661   -0.00002047   -0.00008246

     Total force =     0.036760     Total SCF correction =     0.000539

     Computing stress (Cartesian axis) and pressure

     negative rho (up, down):  1.071E-01 0.000E+00
          total   stress  (Ry/bohr**3)                   (kbar)     P=     -931.37
  -0.00633140  -0.00000000   0.00000000         -931.38       -0.00        0.00
   0.00000000  -0.00633140  -0.00000000            0.00     -931.38       -0.00
   0.00000000  -0.00000000  -0.00633113            0.00       -0.00     -931.34

     kinetic stress (kbar)  41818.68     -0.00     -0.00
                                0.00  41818.68      0.00
                                0.00      0.00  41818.66

     local   stress (kbar) -18202.27     -0.06     -0.05
                               -0.06 -18202.30      0.01
                               -0.05      0.01 -18202.13

     nonloc. stress (kbar)   9076.70      0.00      0.00
                                0.00   9076.70      0.00
                                0.00      0.00   9076.71

     hartree stress (kbar)  17193.66      0.04      0.03
                                0.04  17193.67     -0.00
                                0.03     -0.00  17193.55

     exc-cor stress (kbar)   1691.16     -0.00     -0.00
                               -0.00   1691.16      0.00
                               -0.00      0.00   1691.16

     corecor stress (kbar)  -9398.92     -0.00     -0.00
                               -0.00  -9398.92      0.00
                               -0.00      0.00  -9398.92

     ewald   stress (kbar) -43110.38     -0.00     -0.00
                               -0.00 -43110.38     -0.00
                               -0.00     -0.00 -43110.38

     hubbard stress (kbar)      0.00      0.00      0.00
                                0.00      0.00      0.00
                                0.00      0.00      0.00

     DFT-D   stress (kbar)      0.00      0.00      0.00
                                0.00      0.00      0.00
                                0.00      0.00      0.00

     XDM     stress (kbar)      0.00      0.00      0.00
                                0.00      0.00      0.00
                                0.00      0.00      0.00

     dft-nl  stress (kbar)      0.00      0.00      0.00
                                0.00      0.00      0.00
                                0.00      0.00      0.00

     TS-vdW  stress (kbar)      0.00      0.00      0.00
                                0.00      0.00      0.00
                                0.00      0.00      0.00

[...]

                                0.00      0.00      0.00

     Writing all to output data dir new_calculations/myprefix.save/

     General routines

     Parallel routines

     PAW routines

   This run was terminated on:  11: 2:57  21May2023

   JOB DONE.