     Program PWSCF v.7.0 starts on 21May2023 at  1:45:43

     Reading input from espresso_12685.pwi
Warning: card &CELL ignored
Warning: card / ignored

     Current dimensions of program PWSCF are:
     Max number of different atomic species (ntypx) = 10
     Max number of k-points (npk) =  40000
     Max angular momentum in pseudopotentials (lmaxx) =  4

     File new_calculations/myprefix.update deleted, as requested
     file O.pbe-n-kjpaw_psl.0.1.UPF: wavefunction(s)  2P renormalized

     gamma-point specific algorithms are used
     Message from routine setup:
     using ibrav=0 with symmetry is DISCOURAGED, use correct ibrav instead

     Subspace diagonalization in iterative solution of the eigenvalue problem:
     a serial algorithm will be used

     Using Slab Decomposition

     bravais-lattice index     =            0
     lattice parameter (alat)  =       6.0357  a.u.
     unit-cell volume          =     803.2261 (a.u.)^3
     number of atoms/cell      =           12
     number of atomic types    =            3
     number of electrons       =        64.00
     number of Kohn-Sham states=           38
     kinetic-energy cutoff     =      30.0000  Ry
     charge density cutoff     =     240.0000  Ry
     scf convergence threshold =      1.0E-06
     mixing beta               =       0.7000
     number of iterations used =            8  plain     mixing
     Exchange-correlation= SLA  PW   PBX  PBC
                           (   1   4   3   4   0   0   0)

     celldm(1)=   6.035719  celldm(2)=   0.000000  celldm(3)=   0.000000
     celldm(4)=   0.000000  celldm(5)=   0.000000  celldm(6)=   0.000000

     crystal axes: (cart. coord. in units of alat)
               a(1) = (   1.000000   0.000000   0.000000 )
               a(2) = (   0.000000   1.857530   0.000000 )
               a(3) = (   0.000000   0.000000   1.966595 )

     reciprocal axes: (cart. coord. in units 2 pi/alat)
               b(1) = (  1.000000  0.000000  0.000000 )
               b(2) = (  0.000000  0.538349  0.000000 )
               b(3) = (  0.000000  0.000000  0.508493 )

     PseudoPot. # 1 for Na read from file:
     /home/pragov/projects/rrg-bengioy-ad/pragov/crystal_structure_design/SSSP/na_pbe_v1.5.uspp.F.UPF
     MD5 check sum: 44600605ef58000f06b90626533354dc
     Pseudo is Ultrasoft, Zval =  9.0
     Generated by new atomic code, or converted to UPF format
     Using radial grid of  819 points,  5 beta functions with:
                l(1) =   0
                l(2) =   0
                l(3) =   1
                l(4) =   1
                l(5) =   2
     Q(r) pseudized with  8 coefficients,  rinner =    1.250   1.250   1.250
                                                       1.250   1.250

     PseudoPot. # 2 for H  read from file:
     /home/pragov/projects/rrg-bengioy-ad/pragov/crystal_structure_design/SSSP/H.pbe-rrkjus_psl.1.0.0.UPF
     MD5 check sum: f52b6d4d1c606e5624b1dc7b2218f220
     Pseudo is Ultrasoft, Zval =  1.0
     Generated using "atomic" code by A. Dal Corso  v.5.1
     Using radial grid of  929 points,  2 beta functions with:
                l(1) =   0
                l(2) =   0
     Q(r) pseudized with 0 coefficients

     PseudoPot. # 3 for O  read from file:
     /home/pragov/projects/rrg-bengioy-ad/pragov/crystal_structure_design/SSSP/O.pbe-n-kjpaw_psl.0.1.UPF
     MD5 check sum: 0234752ac141de4415c5fc33072bef88
     Pseudo is Projector augmented-wave + core cor, Zval =  6.0
     Generated using "atomic" code by A. Dal Corso  v.5.0.99 svn rev. 10869
     Shape of augmentation charge: BESSEL
     Using radial grid of 1095 points,  4 beta functions with:
                l(1) =   0
                l(2) =   0
                l(3) =   1
                l(4) =   1
     Q(r) pseudized with 0 coefficients

     atomic species   valence    mass     pseudopotential
        Na             9.00    22.98977     Na( 1.00)
        H              1.00     1.00800     H ( 1.00)
        O              6.00    15.99900     O ( 1.00)

      8 Sym. Ops., with inversion, found ( 6 have fractional translation)

                                    s                        frac. trans.

      isym =  1     identity

 cryst.   s( 1) = (     1          0          0      )
                  (     0          1          0      )
                  (     0          0          1      )

 cart.    s( 1) = (  1.0000000  0.0000000  0.0000000 )
                  (  0.0000000  1.0000000  0.0000000 )
                  (  0.0000000  0.0000000  1.0000000 )

      isym =  2     180 deg rotation - cart. axis [0,0,1]

 cryst.   s( 2) = (    -1          0          0      )    f =(  0.0000000 )
                  (     0         -1          0      )       (  0.0000000 )
                  (     0          0          1      )       ( -0.5000000 )

 cart.    s( 2) = ( -1.0000000  0.0000000  0.0000000 )    f =(  0.0000000 )
                  (  0.0000000 -1.0000000  0.0000000 )       (  0.0000000 )
                  (  0.0000000  0.0000000  1.0000000 )       ( -0.9832974 )

[...]

      isym =  4     180 deg rotation - cart. axis [1,0,0]

[...]

      isym =  5     inversion

 cryst.   s( 5) = (    -1          0          0      )
                  (     0         -1          0      )
                  (     0          0         -1      )

 cart.    s( 5) = ( -1.0000000  0.0000000  0.0000000 )
                  (  0.0000000 -1.0000000  0.0000000 )
                  (  0.0000000  0.0000000 -1.0000000 )

      isym =  6     inv. 180 deg rotation - cart. axis [0,0,1]

[...]

      isym =  8     inv. 180 deg rotation - cart. axis [1,0,0]

 cryst.   s( 8) = (    -1          0          0      )    f =(  0.0000000 )
                  (     0          1          0      )       ( -0.5000000 )
                  (     0          0          1      )       (  0.0000000 )

 cart.    s( 8) = ( -1.0000000  0.0000000  0.0000000 )    f =(  0.0000000 )
                  (  0.0000000  1.0000000  0.0000000 )       ( -0.9287650 )
                  (  0.0000000  0.0000000  1.0000000 )       (  0.0000000 )

   Cartesian axes

     site n.     atom                  positions (alat units)
         1           Na  tau(   1) = (   0.8621580   0.4643825   0.0000000  )
         2           Na  tau(   2) = (   0.1378420   1.3931475   0.9832974  )
         3           Na  tau(   3) = (   0.1378420   1.3931475   0.0000000  )
         4           Na  tau(   4) = (   0.8621580   0.4643825   0.9832974  )
         5           H   tau(   5) = (   0.5520440   0.9941965   0.4916487  )
         6           H   tau(   6) = (   0.4479560   0.8633335   1.4749461  )
         7           H   tau(   7) = (   0.5520440   1.7920986   1.4749461  )
         8           H   tau(   8) = (   0.4479560   0.0654315   0.4916487  )
         9           O   tau(   9) = (   0.2946260   0.8253563   0.4916487  )
        10           O   tau(  10) = (   0.7053740   1.0321737   1.4749461  )
        11           O   tau(  11) = (   0.2946260   0.1034087   1.4749461  )
        12           O   tau(  12) = (   0.7053740   1.7541214   0.4916487  )

   Crystallographic axes

     site n.     atom                  positions (cryst. coord.)
         1           Na  tau(   1) = (  0.8621580  0.2500000  0.0000000  )
         2           Na  tau(   2) = (  0.1378420  0.7500000  0.5000000  )
         3           Na  tau(   3) = (  0.1378420  0.7500000  0.0000000  )
         4           Na  tau(   4) = (  0.8621580  0.2500000  0.5000000  )
         5           H   tau(   5) = (  0.5520440  0.5352250  0.2500000  )
         6           H   tau(   6) = (  0.4479560  0.4647750  0.7500000  )
         7           H   tau(   7) = (  0.5520440  0.9647750  0.7500000  )
         8           H   tau(   8) = (  0.4479560  0.0352250  0.2500000  )
         9           O   tau(   9) = (  0.2946260  0.4443300  0.2500000  )
        10           O   tau(  10) = (  0.7053740  0.5556700  0.7500000  )
        11           O   tau(  11) = (  0.2946260  0.0556700  0.7500000  )
        12           O   tau(  12) = (  0.7053740  0.9443300  0.2500000  )

     number of k points=     1  Methfessel-Paxton smearing, width (Ry)=  0.0010
                       cart. coord. in units 2pi/alat
        k(    1) = (   0.0000000   0.0000000   0.0000000), wk =   2.0000000

                       cryst. coord.
        k(    1) = (   0.0000000   0.0000000   0.0000000), wk =   2.0000000

     Check: negative core charge=   -0.000012

     Initial potential from superposition of free atoms

     starting charge      63.9748, renormalised to      64.0000
     Starting wfcs are   40 randomized atomic wfcs
     Checking if some PAW data can be deallocated...

     Self-consistent Calculation

     iteration #  1     ecut=    30.00 Ry     beta= 0.70
     Davidson diagonalization with overlap

     ethr =  1.00E-02,  avg # of iterations =  3.0

     total energy              =    -551.76853748 Ry
     estimated scf accuracy    <       1.98950140 Ry

[...]

     total energy              =    -552.64508768 Ry
     estimated scf accuracy    <       0.00000464 Ry

     iteration #  8     ecut=    30.00 Ry     beta= 0.70
     Davidson diagonalization with overlap

     ethr =  7.26E-09,  avg # of iterations =  3.0

     End of self-consistent calculation

          k = 0.0000 0.0000 0.0000 (  1119 PWs)   bands (ev):

   -47.0717 -47.0649 -47.0636 -47.0570 -19.1281 -19.1160 -19.0420 -19.0366
   -18.9583 -18.9557 -18.9432 -18.9428 -18.9384 -18.9267 -18.9243 -18.9117
   -14.8015 -14.4821 -14.3541 -14.3316  -1.9658  -1.6070  -0.8233  -0.7919
     0.2963   1.3425   1.6369   1.8299   2.3163   2.3492   2.6817   2.7869
     5.7688   8.5878   9.3024  10.7618  11.4929  12.3046

     occupation numbers
     1.0000   1.0000   1.0000   1.0000   1.0000   1.0000   1.0000   1.0000
     1.0000   1.0000   1.0000   1.0000   1.0000   1.0000   1.0000   1.0000
     1.0000   1.0000   1.0000   1.0000   1.0000   1.0000   1.0000   1.0000
     1.0000   1.0000   1.0000   1.0000   1.0000   1.0000   1.0000   1.0000
    -0.0000  -0.0000  -0.0000  -0.0000  -0.0000  -0.0000

     the Fermi energy is     4.9846 ev

!    total energy              =    -552.64508903 Ry
     estimated scf accuracy    <       0.00000042 Ry
     smearing contrib. (-TS)   =       0.00000000 Ry
     internal energy E=F+TS    =    -552.64508903 Ry

     The total energy is F=E-TS. E is the sum of the following terms:
     one-electron contribution =    -320.54472338 Ry
     hartree contribution      =     184.56571761 Ry
     xc contribution           =     -90.73952733 Ry
     ewald contribution        =    -287.90453542 Ry
     one-center paw contrib.   =     -38.02202050 Ry
      -> PAW hartree energy AE =     123.73682524 Ry
      -> PAW hartree energy PS =    -123.27263009 Ry
      -> PAW xc energy AE      =     -69.44767644 Ry
      -> PAW xc energy PS      =      30.96146080 Ry
      -> total E_H with PAW    =     185.02991275 Ry
      -> total E_XC with PAW   =    -129.22574298 Ry

     convergence has been achieved in   8 iterations

     Forces acting on atoms (cartesian axes, Ry/au):

     atom    1 type  1   force =    -0.00298068    0.00000000   -0.00000000
     atom    2 type  1   force =     0.00298068    0.00000000   -0.00000000
     atom    3 type  1   force =     0.00298068    0.00000000    0.00000000
     atom    4 type  1   force =    -0.00298068    0.00000000    0.00000000
     atom    5 type  2   force =    -0.06533803   -0.02894915   -0.00000000
     atom    6 type  2   force =     0.06533803    0.02894915   -0.00000000
     atom    7 type  2   force =    -0.06533803    0.02894915    0.00000000
     atom    8 type  2   force =     0.06533803   -0.02894915    0.00000000
     atom    9 type  3   force =     0.05442297    0.01487490   -0.00000000
     atom   10 type  3   force =    -0.05442297   -0.01487490    0.00000000
     atom   11 type  3   force =     0.05442297   -0.01487490    0.00000000
     atom   12 type  3   force =    -0.05442297    0.01487490    0.00000000
     The non-local contrib.  to forces
     atom    1 type  1   force =    -0.05754792    0.00000000   -0.00000000
     atom    2 type  1   force =     0.05754792    0.00000000    0.00000000
     atom    3 type  1   force =     0.05754792    0.00000000    0.00000000
     atom    4 type  1   force =    -0.05754792   -0.00000000   -0.00000000
     atom    5 type  2   force =    -0.09184012   -0.05921171   -0.00000000
     atom    6 type  2   force =     0.09184012    0.05921171   -0.00000000
     atom    7 type  2   force =    -0.09184012    0.05921171    0.00000000
     atom    8 type  2   force =     0.09184012   -0.05921171    0.00000000
     atom    9 type  3   force =     1.66792532    0.98527846    0.00000000
     atom   10 type  3   force =    -1.66792532   -0.98527846    0.00000000
     atom   11 type  3   force =     1.66792532   -0.98527846    0.00000000
     atom   12 type  3   force =    -1.66792532    0.98527846    0.00000000
     The ionic contribution  to forces
     atom    1 type  1   force =    -0.22406981   -0.00000000    0.00000000
     atom    2 type  1   force =     0.22406981   -0.00000000   -0.00000000
     atom    3 type  1   force =     0.22406981   -0.00000000    0.00000000
     atom    4 type  1   force =    -0.22406981   -0.00000000   -0.00000000
     atom    5 type  2   force =     2.44218865    1.55555332   -0.00000000
     atom    6 type  2   force =    -2.44218865   -1.55555332   -0.00000000
     atom    7 type  2   force =     2.44218865   -1.55555332   -0.00000000
     atom    8 type  2   force =    -2.44218865    1.55555332   -0.00000000
     atom    9 type  3   force =    -1.23538868   -1.43749858    0.00000000
     atom   10 type  3   force =     1.23538868    1.43749858   -0.00000000
     atom   11 type  3   force =    -1.23538868    1.43749858   -0.00000000
     atom   12 type  3   force =     1.23538868   -1.43749858    0.00000000
     The local contribution  to forces
     atom    1 type  1   force =     0.27879274   -0.00002126   -0.00002143
     atom    2 type  1   force =    -0.27878488    0.00002352   -0.00001078
     atom    3 type  1   force =    -0.27878385    0.00002216    0.00001011
     atom    4 type  1   force =     0.27879852   -0.00002202    0.00001776
     atom    5 type  2   force =    -2.41569124   -1.52530777    0.00000803
     atom    6 type  2   force =     2.41567815    1.52528498   -0.00000779
     atom    7 type  2   force =    -2.41577383    1.52536377   -0.00000712
     atom    8 type  2   force =     2.41573771   -1.52532722    0.00000755
     atom    9 type  3   force =    -0.36122855    0.47662313    0.00002758
     atom   10 type  3   force =     0.36120668   -0.47670066   -0.00002301
     atom   11 type  3   force =    -0.36123272   -0.47657874   -0.00000620
     atom   12 type  3   force =     0.36119104    0.47665898    0.00004202
     The core correction contribution to forces
     atom    1 type  1   force =     0.00000000    0.00000000    0.00000000
     atom    2 type  1   force =     0.00000000    0.00000000    0.00000000
     atom    3 type  1   force =     0.00000000    0.00000000    0.00000000
     atom    4 type  1   force =     0.00000000    0.00000000    0.00000000
     atom    5 type  2   force =     0.00000000    0.00000000    0.00000000
     atom    6 type  2   force =     0.00000000    0.00000000    0.00000000
     atom    7 type  2   force =     0.00000000    0.00000000    0.00000000
     atom    8 type  2   force =     0.00000000    0.00000000    0.00000000
     atom    9 type  3   force =    -0.01738900   -0.00994210   -0.00000040
     atom   10 type  3   force =     0.01738894    0.00994262    0.00000046
     atom   11 type  3   force =    -0.01738803    0.00994216    0.00000060
     atom   12 type  3   force =     0.01738816   -0.00994274   -0.00000023
     The Hubbard contrib.    to forces
     atom    1 type  1   force =     0.00000000    0.00000000    0.00000000
     atom    2 type  1   force =     0.00000000    0.00000000    0.00000000
     atom    3 type  1   force =     0.00000000    0.00000000    0.00000000
     atom    4 type  1   force =     0.00000000    0.00000000    0.00000000
     atom    5 type  2   force =     0.00000000    0.00000000    0.00000000
     atom    6 type  2   force =     0.00000000    0.00000000    0.00000000
     atom    7 type  2   force =     0.00000000    0.00000000    0.00000000
     atom    8 type  2   force =     0.00000000    0.00000000    0.00000000
     atom    9 type  3   force =     0.00000000    0.00000000    0.00000000
     atom   10 type  3   force =     0.00000000    0.00000000    0.00000000
     atom   11 type  3   force =     0.00000000    0.00000000    0.00000000
     atom   12 type  3   force =     0.00000000    0.00000000    0.00000000
     The SCF correction term to forces
     atom    1 type  1   force =    -0.00016580    0.00008237    0.00004270
     atom    2 type  1   force =     0.00014636   -0.00006174    0.00001763
     atom    3 type  1   force =     0.00012815   -0.00006982   -0.00002337
     atom    4 type  1   force =    -0.00017148    0.00007247   -0.00004747
     atom    5 type  2   force =     0.00001648    0.00002248   -0.00000851
     atom    6 type  2   force =    -0.00000956   -0.00000061    0.00000833
     atom    7 type  2   force =     0.00006439   -0.00006372    0.00000759
     atom    8 type  2   force =    -0.00004421    0.00003391   -0.00000840
     atom    9 type  3   force =     0.00048809    0.00044529   -0.00005776
     atom   10 type  3   force =    -0.00046628   -0.00032067    0.00005489
     atom   11 type  3   force =     0.00052886   -0.00047790    0.00003848
     atom   12 type  3   force =    -0.00047521    0.00034432   -0.00006696

     Total force =     0.182199     Total SCF correction =     0.001325

     Computing stress (Cartesian axis) and pressure

          total   stress  (Ry/bohr**3)                   (kbar)     P=     -220.32
  -0.00093281   0.00000000   0.00000000         -137.22        0.00        0.00
   0.00000000  -0.00176649   0.00000000            0.00     -259.86        0.00
   0.00000000   0.00000000  -0.00179379            0.00        0.00     -263.88

     kinetic stress (kbar)  17265.75      0.00      0.00
                                0.00  17320.04      0.00
                                0.00      0.00  17680.06

     local   stress (kbar)  23867.84      0.01     -0.00
                                0.01  21746.51      0.00
                               -0.00      0.00  20439.38

     nonloc. stress (kbar) -28105.05      0.00      0.00
                                0.00 -28083.27      0.00
                                0.00      0.00 -28055.90

     hartree stress (kbar)  10108.71     -0.00      0.00
                               -0.00  11456.03      0.00
                                0.00      0.00  12237.14

     exc-cor stress (kbar)  -4958.32     -0.00      0.00
                               -0.00  -4959.71      0.00
                                0.00      0.00  -4966.02

     corecor stress (kbar)   -309.51      0.00     -0.00
                                0.00   -308.08      0.00
                               -0.00      0.00   -308.93

     ewald   stress (kbar) -18006.64      0.00     -0.00
                                0.00 -17431.38     -0.00
                               -0.00     -0.00 -17289.62

     hubbard stress (kbar)      0.00      0.00      0.00
                                0.00      0.00      0.00
                                0.00      0.00      0.00

     DFT-D   stress (kbar)      0.00      0.00      0.00
                                0.00      0.00      0.00
                                0.00      0.00      0.00

     XDM     stress (kbar)      0.00      0.00      0.00
                                0.00      0.00      0.00
                                0.00      0.00      0.00

     dft-nl  stress (kbar)      0.00      0.00      0.00
                                0.00      0.00      0.00
                                0.00      0.00      0.00

     TS-vdW  stress (kbar)      0.00      0.00      0.00
                                0.00      0.00      0.00
                                0.00      0.00      0.00

[...]

                                0.00      0.00      0.00

     Writing all to output data dir new_calculations/myprefix.save/

     General routines

     Parallel routines

     PAW routines

   This run was terminated on:   1:46:13  21May2023

   JOB DONE.