     Program PWSCF v.7.0 starts on 20May2023 at 14:46:57

     Reading input from espresso_3536.pwi
Warning: card &CELL ignored
Warning: card / ignored

     Current dimensions of program PWSCF are:
     Max number of different atomic species (ntypx) = 10
     Max number of k-points (npk) =  40000
     Max angular momentum in pseudopotentials (lmaxx) =  4
     file O.pbe-n-kjpaw_psl.0.1.UPF: wavefunction(s)  2P renormalized

     gamma-point specific algorithms are used
     Message from routine setup:
     using ibrav=0 with symmetry is DISCOURAGED, use correct ibrav instead

     Subspace diagonalization in iterative solution of the eigenvalue problem:
     a serial algorithm will be used

     Using Slab Decomposition

     bravais-lattice index     =            0
     lattice parameter (alat)  =      11.1067  a.u.
     unit-cell volume          =    1780.6507 (a.u.)^3
     number of atoms/cell      =           20
     number of atomic types    =            4
     number of electrons       =       194.00
     number of Kohn-Sham states=          116
     kinetic-energy cutoff     =      30.0000  Ry
     charge density cutoff     =     240.0000  Ry
     scf convergence threshold =      1.0E-06
     mixing beta               =       0.7000
     number of iterations used =            8  plain     mixing
     Exchange-correlation= SLA  PW   PBX  PBC
                           (   1   4   3   4   0   0   0)

     celldm(1)=  11.106718  celldm(2)=   0.000000  celldm(3)=   0.000000
     celldm(4)=   0.000000  celldm(5)=   0.000000  celldm(6)=   0.000000

     crystal axes: (cart. coord. in units of alat)
               a(1) = (   1.000000   0.000000   0.000000 )
               a(2) = (   0.000000   0.937206   0.000000 )
               a(3) = (   0.000000   0.931767   1.386712 )

     reciprocal axes: (cart. coord. in units 2 pi/alat)
               b(1) = (  1.000000  0.000000  0.000000 )
               b(2) = (  0.000000  1.067001 -0.716945 )
               b(3) = (  0.000000  0.000000  0.721130 )

     PseudoPot. # 1 for Pr read from file:
     /home/pragov/projects/rrg-bengioy-ad/pragov/crystal_structure_design/SSSP/Pr.GGA-PBE-paw-v1.0.UPF
     MD5 check sum: b5e1e58e76df433569641143f671cc27
     Pseudo is Projector augmented-wave + core cor, Zval = 13.0
     Generated using ATOMPAW code
     Shape of augmentation charge: BESSEL
     Using radial grid of 1103 points,  8 beta functions with:
                l(1) =   0
                l(2) =   0
                l(3) =   1
                l(4) =   1
                l(5) =   2
                l(6) =   2
                l(7) =   3
                l(8) =   3
     Q(r) pseudized with 0 coefficients

     PseudoPot. # 2 for Zn read from file:
     /home/pragov/projects/rrg-bengioy-ad/pragov/crystal_structure_design/SSSP/Zn_pbe_v1.uspp.F.UPF
     MD5 check sum: df62231357ef9e81f77b2b3087fa5675
     Pseudo is Ultrasoft, Zval = 20.0
     Generated by new atomic code, or converted to UPF format
     Using radial grid of  943 points,  6 beta functions with:
                l(1) =   0
                l(2) =   0
                l(3) =   1
                l(4) =   1
                l(5) =   2
                l(6) =   2
     Q(r) pseudized with  8 coefficients,  rinner =    1.100   1.100   1.100
                                                       1.100   1.100

     PseudoPot. # 3 for Mo read from file:
     /home/pragov/projects/rrg-bengioy-ad/pragov/crystal_structure_design/SSSP/Mo_ONCV_PBE-1.0.oncvpsp.upf
     MD5 check sum: 1b5d28e075c9ccadda658a603575cd1f
     Pseudo is Norm-conserving, Zval = 14.0
     Generated using ONCVPSP code by D. R. Hamann
     Using radial grid of 1526 points,  6 beta functions with:
                l(1) =   0
                l(2) =   0
                l(3) =   1
                l(4) =   1
                l(5) =   2
                l(6) =   2

     PseudoPot. # 4 for O  read from file:
     /home/pragov/projects/rrg-bengioy-ad/pragov/crystal_structure_design/SSSP/O.pbe-n-kjpaw_psl.0.1.UPF
     MD5 check sum: 0234752ac141de4415c5fc33072bef88
     Pseudo is Projector augmented-wave + core cor, Zval =  6.0
     Generated using "atomic" code by A. Dal Corso  v.5.0.99 svn rev. 10869
     Shape of augmentation charge: BESSEL
     Using radial grid of 1095 points,  4 beta functions with:
                l(1) =   0
                l(2) =   0
                l(3) =   1
                l(4) =   1
     Q(r) pseudized with 0 coefficients

     atomic species   valence    mass     pseudopotential
        Pr            13.00   140.90766     Pr( 1.00)
        Zn            20.00    65.38000     Zn( 1.00)
        Mo            14.00    95.95000     Mo( 1.00)
        O              6.00    15.99900     O ( 1.00)

      2 Sym. Ops. (no inversion) found ( 1 have fractional translation)

                                    s                        frac. trans.

      isym =  1     identity

 cryst.   s( 1) = (     1          0          0      )
                  (     0          1          0      )
                  (     0          0          1      )

 cart.    s( 1) = (  1.0000000  0.0000000  0.0000000 )
                  (  0.0000000  1.0000000  0.0000000 )
                  (  0.0000000  0.0000000  1.0000000 )

      isym =  2     inv. 180 deg rotation - cart. axis [1,0,0]

 cryst.   s( 2) = (    -1          0          0      )    f =(  0.0000000 )
                  (     0          1          0      )       (  0.0000000 )
                  (     0          0          1      )       (  0.5000000 )

 cart.    s( 2) = ( -1.0000000  0.0000000  0.0000000 )    f =(  0.0000000 )
                  (  0.0000000  1.0000000  0.0000000 )       (  0.4658833 )
                  (  0.0000000  0.0000000  1.0000000 )       (  0.6933560 )

   Cartesian axes

     site n.     atom                  positions (alat units)
         1           Pr  tau(   1) = (   0.3063690   0.9565051   0.3447921  )
         2           Pr  tau(   2) = (   0.6936310   1.4223884   1.0381481  )
         3           Zn  tau(   3) = (   0.6361930   0.4892975   0.3519337  )
         4           Zn  tau(   4) = (   0.3638070   0.9551808   1.0452897  )
         5           Mo  tau(   5) = (   0.7723390   0.9349479   0.0039923  )
         6           Mo  tau(   6) = (   0.7625920   0.9332705   0.6898532  )
         7           Mo  tau(   7) = (   0.2276610   1.4008312   0.6973484  )
         8           Mo  tau(   8) = (   0.2374080   1.3991538   1.3832092  )
         9           O   tau(   9) = (   0.7490150   1.0319554   1.0449056  )
        10           O   tau(  10) = (   0.0590680   0.1636710   0.0682914  )
        11           O   tau(  11) = (   0.0599550   1.1165809   0.6092547  )
        12           O   tau(  12) = (   0.5432750   1.2294159   0.6147558  )
        13           O   tau(  13) = (   0.5584670   0.2801879   0.0913330  )
        14           O   tau(  14) = (   0.2878450   1.2799881   1.0343749  )
        15           O   tau(  15) = (   0.2509850   0.5660722   0.3515495  )
        16           O   tau(  16) = (   0.9400450   1.5824642   1.3026108  )
        17           O   tau(  17) = (   0.9409320   0.6295543   0.7616474  )
        18           O   tau(  18) = (   0.4567250   1.6952991   1.3081118  )
        19           O   tau(  19) = (   0.4415330   0.7460711   0.7846890  )
        20           O   tau(  20) = (   0.7121550   0.8141048   0.3410188  )

   Crystallographic axes

     site n.     atom                  positions (cryst. coord.)
         1           Pr  tau(   1) = (  0.3063690  0.7733950  0.2486400  )
         2           Pr  tau(   2) = (  0.6936310  0.7733950  0.7486400  )
         3           Zn  tau(   3) = (  0.6361930  0.2697640  0.2537900  )
         4           Zn  tau(   4) = (  0.3638070  0.2697640  0.7537900  )
         5           Mo  tau(   5) = (  0.7723390  0.9947280  0.0028790  )
         6           Mo  tau(   6) = (  0.7625920  0.5012140  0.4974740  )
         7           Mo  tau(   7) = (  0.2276610  0.9947280  0.5028790  )
         8           Mo  tau(   8) = (  0.2374080  0.5012140  0.9974740  )
         9           O   tau(   9) = (  0.7490150  0.3519580  0.7535130  )
        10           O   tau(  10) = (  0.0590680  0.1256760  0.0492470  )
        11           O   tau(  11) = (  0.0599550  0.7545910  0.4393520  )
        12           O   tau(  12) = (  0.5432750  0.8710420  0.4433190  )
        13           O   tau(  13) = (  0.5584670  0.2334800  0.0658630  )
        14           O   tau(  14) = (  0.2878450  0.6241590  0.7459190  )
        15           O   tau(  15) = (  0.2509850  0.3519580  0.2535130  )
        16           O   tau(  16) = (  0.9400450  0.7545910  0.9393520  )
        17           O   tau(  17) = (  0.9409320  0.1256760  0.5492470  )
        18           O   tau(  18) = (  0.4567250  0.8710420  0.9433190  )
        19           O   tau(  19) = (  0.4415330  0.2334800  0.5658630  )
        20           O   tau(  20) = (  0.7121550  0.6241590  0.2459190  )

     number of k points=     1  Methfessel-Paxton smearing, width (Ry)=  0.0010
                       cart. coord. in units 2pi/alat
        k(    1) = (   0.0000000   0.0000000   0.0000000), wk =   2.0000000

                       cryst. coord.
        k(    1) = (   0.0000000   0.0000000   0.0000000), wk =   2.0000000

     Check: negative core charge=   -0.000013

     Initial potential from superposition of free atoms

     starting charge     193.9809, renormalised to     194.0000
     Starting wfcs are  178 randomized atomic wfcs
     Checking if some PAW data can be deallocated...

     Self-consistent Calculation

     iteration #  1     ecut=    30.00 Ry     beta= 0.70
     Davidson diagonalization with overlap

     ethr =  1.00E-02,  avg # of iterations =  2.0

     total energy              =   -2985.31717331 Ry
     estimated scf accuracy    <       5.16285654 Ry

[...]

     total energy              =   -2988.39014935 Ry
     estimated scf accuracy    <       0.00001121 Ry

     iteration # 93     ecut=    30.00 Ry     beta= 0.70
     Davidson diagonalization with overlap

     ethr =  1.08E-09,  avg # of iterations =  1.0

     End of self-consistent calculation

          k = 0.0000 0.0000 0.0000 (  2478 PWs)   bands (ev):

  -114.0307-114.0277 -68.2425 -68.2344 -68.1360 -68.1265 -68.1073 -68.0996
   -49.9958 -49.9957 -49.7073 -49.7069 -24.1764 -24.1695 -24.1167 -24.1159
   -24.0204 -24.0085 -23.8692 -23.8541 -23.7735 -23.7561 -23.7426 -23.7311
   -23.6847 -23.6545  -7.9390  -7.8899  -7.7837  -7.6026  -7.5828  -7.3491
    -7.3361  -7.1341  -6.8522  -6.7641  -6.6937  -6.5463  -5.1448  -5.1100
    -5.1019  -4.9159  -4.7827  -4.7434   4.3982   4.4838   4.5318   4.6116
     4.6390   4.7499   4.7915   4.8133   4.8729   4.9099   5.1140   5.4891
     5.5512   5.6243   5.6487   5.7442   5.7941   5.8108   6.0887   6.1586
     6.4235   6.8688   6.9272   6.9780   7.0894   7.1114   7.1752   7.5298
     7.5759   7.8216   7.8445   7.9217   8.0222   8.0279   8.0960   8.2848
     8.3049   8.6438   8.6965   8.7543   8.8036   8.8525   8.9316   8.9990
     9.1136   9.1844  11.4623  11.5125  11.6381  11.8498  12.0639  12.1063
    12.2820  12.2859  12.3168  12.3277  12.3498  12.3721  12.4149  12.4635
    12.4771  12.4862  12.4956  12.6031  12.7142  12.7634  12.8057  12.9289
    12.9786  13.0841  13.3693  13.5366

     occupation numbers
     1.0000   1.0000   1.0000   1.0000   1.0000   1.0000   1.0000   1.0000
     1.0000   1.0000   1.0000   1.0000   1.0000   1.0000   1.0000   1.0000
     1.0000   1.0000   1.0000   1.0000   1.0000   1.0000   1.0000   1.0000
     1.0000   1.0000   1.0000   1.0000   1.0000   1.0000   1.0000   1.0000
     1.0000   1.0000   1.0000   1.0000   1.0000   1.0000   1.0000   1.0000
     1.0000   1.0000   1.0000   1.0000   1.0000   1.0000   1.0000   1.0000
     1.0000   1.0000   1.0000   1.0000   1.0000   1.0000   1.0000   1.0000
     1.0000   1.0000   1.0000   1.0000   1.0000   1.0000   1.0000   1.0000
     1.0000   1.0000   1.0000   1.0000   1.0000   1.0000   1.0000   1.0000
     1.0000   1.0000   1.0000   1.0000   1.0000   1.0000   1.0000   1.0000
     1.0000   1.0000   1.0000   1.0000   1.0000   1.0000   1.0000   1.0000
     1.0000   1.0000   1.0000   1.0000   1.0000   1.0000   1.0000   1.0000
     0.6191   0.3826  -0.0017  -0.0000  -0.0000  -0.0000  -0.0000  -0.0000
    -0.0000  -0.0000  -0.0000  -0.0000  -0.0000  -0.0000  -0.0000  -0.0000
    -0.0000  -0.0000  -0.0000  -0.0000

     the Fermi energy is    12.2840 ev

!    total energy              =   -2988.39014870 Ry
     estimated scf accuracy    <       0.00000072 Ry
     smearing contrib. (-TS)   =      -0.00052184 Ry
     internal energy E=F+TS    =   -2988.38962686 Ry

     The total energy is F=E-TS. E is the sum of the following terms:
     one-electron contribution =   -1174.46805029 Ry
     hartree contribution      =     694.99085759 Ry
     xc contribution           =    -259.26970022 Ry
     ewald contribution        =   -1296.29829783 Ry
     one-center paw contrib.   =    -953.34443611 Ry
      -> PAW hartree energy AE =     473.93743056 Ry
      -> PAW hartree energy PS =    -472.79268633 Ry
      -> PAW xc energy AE      =   -1065.09382787 Ry
      -> PAW xc energy PS      =     110.60464754 Ry
      -> total E_H with PAW    =     696.13560182 Ry
      -> total E_XC with PAW   =   -1213.75888056 Ry

     convergence has been achieved in  93 iterations

     Forces acting on atoms (cartesian axes, Ry/au):

     atom    1 type  1   force =     0.02751485    0.01056039    0.00001108
     atom    2 type  1   force =    -0.02751485    0.01056039    0.00001108
     atom    3 type  2   force =     0.00705548   -0.00332513   -0.00165339
     atom    4 type  2   force =    -0.00705548   -0.00332513   -0.00165339
     atom    5 type  3   force =    -0.05048811   -0.02045870   -0.02698118
     atom    6 type  3   force =    -0.02466285   -0.01808309    0.01788259
     atom    7 type  3   force =     0.05048811   -0.02045870   -0.02698118
     atom    8 type  3   force =     0.02466285   -0.01808309    0.01788259
     atom    9 type  4   force =     0.04459910   -0.01244005   -0.00276225
     atom   10 type  4   force =    -0.02181773    0.04203160   -0.01061185
     atom   11 type  4   force =    -0.05345740   -0.00229320    0.02503743
     atom   12 type  4   force =     0.00005110   -0.00723838    0.00178136
     atom   13 type  4   force =    -0.01496189    0.01642456   -0.00840896
     atom   14 type  4   force =    -0.03859318   -0.00517800    0.00570516
     atom   15 type  4   force =    -0.04459910   -0.01244005   -0.00276225
     atom   16 type  4   force =     0.05345740   -0.00229320    0.02503743
     atom   17 type  4   force =     0.02181773    0.04203160   -0.01061185
     atom   18 type  4   force =    -0.00005110   -0.00723838    0.00178136
     atom   19 type  4   force =     0.01496189    0.01642456   -0.00840896
     atom   20 type  4   force =     0.03859318   -0.00517800    0.00570516
     The non-local contrib.  to forces
     atom    1 type  1   force =     0.09016180    0.02672302    0.00718463
     atom    2 type  1   force =    -0.09016180    0.02672302    0.00718463
     atom    3 type  2   force =     0.41463755    0.03093686    0.01804404
     atom    4 type  2   force =    -0.41463755    0.03093686    0.01804404
     atom    5 type  3   force =     0.04486655    0.03143595    0.01987156
     atom    6 type  3   force =     0.03542950    0.03710996   -0.01313015
     atom    7 type  3   force =    -0.04486655    0.03143595    0.01987156
     atom    8 type  3   force =    -0.03542950    0.03710996   -0.01313015
     atom    9 type  4   force =    -0.20128356   -0.08815899    0.00529332
     atom   10 type  4   force =    -0.13993780    0.08161355   -0.05855752
     atom   11 type  4   force =    -0.02194634    0.10762270    0.15248962
     atom   12 type  4   force =    -0.05246444    0.04975690   -0.23832631
     atom   13 type  4   force =    -0.06671678    0.10428863    0.21053344
     atom   14 type  4   force =     0.16058206   -0.17344952   -0.00311021
     atom   15 type  4   force =     0.20128356   -0.08815899    0.00529332
     atom   16 type  4   force =     0.02194634    0.10762270    0.15248962
     atom   17 type  4   force =     0.13993780    0.08161355   -0.05855752
     atom   18 type  4   force =     0.05246444    0.04975690   -0.23832631
     atom   19 type  4   force =     0.06671678    0.10428863    0.21053344
     atom   20 type  4   force =    -0.16058206   -0.17344952   -0.00311021
     The ionic contribution  to forces
     atom    1 type  1   force =    -8.31653062   -1.13174186    0.49536139
     atom    2 type  1   force =     8.31653062   -1.13174186    0.49536140
     atom    3 type  2   force =    18.99405194   -2.05260144   -0.70494424
     atom    4 type  2   force =   -18.99405193   -2.05260144   -0.70494424
     atom    5 type  3   force =     8.84826343    1.69821666    1.65488018
     atom    6 type  3   force =     9.40052643    1.54865536   -1.23758030
     atom    7 type  3   force =    -8.84826343    1.69821666    1.65488018
     atom    8 type  3   force =    -9.40052643    1.54865536   -1.23758030
     atom    9 type  4   force =     9.27455952    2.21389263   -0.70223457
     atom   10 type  4   force =    -0.19217953    0.08995660    1.49153424
     atom   11 type  4   force =    -2.09851407   -2.25936542   -1.58641268
     atom   12 type  4   force =     1.37849689   -3.80230457    4.84726265
     atom   13 type  4   force =     1.02208396   -2.41445684   -4.64627714
     atom   14 type  4   force =    -5.95345372    6.10974889    0.38841046
     atom   15 type  4   force =    -9.27455952    2.21389263   -0.70223457
     atom   16 type  4   force =     2.09851407   -2.25936542   -1.58641268
     atom   17 type  4   force =     0.19217953    0.08995660    1.49153424
     atom   18 type  4   force =    -1.37849689   -3.80230457    4.84726265
     atom   19 type  4   force =    -1.02208396   -2.41445684   -4.64627714
     atom   20 type  4   force =     5.95345372    6.10974889    0.38841046
     The local contribution  to forces
     atom    1 type  1   force =     8.25389058    1.11563467   -0.50298363
     atom    2 type  1   force =    -8.25401935    1.11562588   -0.50211307
     atom    3 type  2   force =   -19.40213410    2.01834026    0.68451921
     atom    4 type  2   force =    19.40142764    2.01834698    0.68590712
     atom    5 type  3   force =    -8.94365545   -1.75014754   -1.70126087
     atom    6 type  3   force =    -9.46075360   -1.60377290    1.26807677
     atom    7 type  3   force =     8.94369378   -1.75019773   -1.70233352
     atom    8 type  3   force =     9.46076109   -1.60384668    1.26920269
     atom    9 type  4   force =    -9.03062880   -2.13983221    0.69402297
     atom   10 type  4   force =     0.30948839   -0.12789625   -1.44424038
     atom   11 type  4   force =     2.06616987    2.15010512    1.46047206
     atom   12 type  4   force =    -1.32622991    3.74547673   -4.61008203
     atom   13 type  4   force =    -0.97159288    2.32831131    4.42976068
     atom   14 type  4   force =     5.75571820   -5.94363408   -0.37889061
     atom   15 type  4   force =     9.03067861   -2.13963237    0.69340890
     atom   16 type  4   force =    -2.06566852    2.15018127    1.46119867
     atom   17 type  4   force =    -0.30907288   -0.12790027   -1.44465514
     atom   18 type  4   force =     1.32586392    3.74554182   -4.60936396
     atom   19 type  4   force =     0.97117787    2.32842052    4.42939006
     atom   20 type  4   force =    -5.75597409   -5.94358373   -0.37945406
     The core correction contribution to forces
     atom    1 type  1   force =    -0.00004195   -0.00001003    0.00000661
     atom    2 type  1   force =     0.00004195   -0.00001002    0.00000662
     atom    3 type  2   force =     0.00000000    0.00000000    0.00000000
     atom    4 type  2   force =     0.00000000    0.00000000    0.00000000
     atom    5 type  3   force =     0.00000000    0.00000000    0.00000000
     atom    6 type  3   force =     0.00000000    0.00000000    0.00000000
     atom    7 type  3   force =     0.00000000    0.00000000    0.00000000
     atom    8 type  3   force =     0.00000000    0.00000000    0.00000000
     atom    9 type  4   force =     0.00192529    0.00168787    0.00018318
     atom   10 type  4   force =     0.00132721   -0.00151628    0.00096002
     atom   11 type  4   force =     0.00103917   -0.00094526   -0.00201496
     atom   12 type  4   force =     0.00021476   -0.00038257    0.00258025
     atom   13 type  4   force =     0.00084582   -0.00159851   -0.00222739
     atom   14 type  4   force =    -0.00142057    0.00211947   -0.00018215
     atom   15 type  4   force =    -0.00192541    0.00168800    0.00018353
     atom   16 type  4   force =    -0.00103958   -0.00094504   -0.00201555
     atom   17 type  4   force =    -0.00132722   -0.00151592    0.00095989
     atom   18 type  4   force =    -0.00021466   -0.00038223    0.00257985
     atom   19 type  4   force =    -0.00084545   -0.00159846   -0.00222768
     atom   20 type  4   force =     0.00142064    0.00211954   -0.00018169
     The Hubbard contrib.    to forces
     atom    1 type  1   force =     0.00000000    0.00000000    0.00000000
     atom    2 type  1   force =     0.00000000    0.00000000    0.00000000
     atom    3 type  2   force =     0.00000000    0.00000000    0.00000000
     atom    4 type  2   force =     0.00000000    0.00000000    0.00000000
     atom    5 type  3   force =     0.00000000    0.00000000    0.00000000
     atom    6 type  3   force =     0.00000000    0.00000000    0.00000000
     atom    7 type  3   force =     0.00000000    0.00000000    0.00000000
     atom    8 type  3   force =     0.00000000    0.00000000    0.00000000
     atom    9 type  4   force =     0.00000000    0.00000000    0.00000000
     atom   10 type  4   force =     0.00000000    0.00000000    0.00000000
     atom   11 type  4   force =     0.00000000    0.00000000    0.00000000
     atom   12 type  4   force =     0.00000000    0.00000000    0.00000000
     atom   13 type  4   force =     0.00000000    0.00000000    0.00000000
     atom   14 type  4   force =     0.00000000    0.00000000    0.00000000
     atom   15 type  4   force =     0.00000000    0.00000000    0.00000000
     atom   16 type  4   force =     0.00000000    0.00000000    0.00000000
     atom   17 type  4   force =     0.00000000    0.00000000    0.00000000
     atom   18 type  4   force =     0.00000000    0.00000000    0.00000000
     atom   19 type  4   force =     0.00000000    0.00000000    0.00000000
     atom   20 type  4   force =     0.00000000    0.00000000    0.00000000
     The SCF correction term to forces
     atom    1 type  1   force =     0.00003155   -0.00004744    0.00043334
     atom    2 type  1   force =     0.00009024   -0.00003199   -0.00041217
     atom    3 type  2   force =     0.00049303   -0.00000679    0.00075360
     atom    4 type  2   force =     0.00019929    0.00000103   -0.00067873
     atom    5 type  3   force =     0.00003184    0.00004076   -0.00046986
     atom    6 type  3   force =     0.00014344   -0.00006736    0.00051128
     atom    7 type  3   force =    -0.00008121    0.00008450    0.00060601
     atom    8 type  3   force =    -0.00013372   -0.00000728   -0.00059707
     atom    9 type  4   force =     0.00001971   -0.00003989   -0.00003866
     atom   10 type  4   force =    -0.00051518   -0.00013684   -0.00030046
     atom   11 type  4   force =    -0.00021755    0.00028430    0.00052644
     atom   12 type  4   force =     0.00003650    0.00020302    0.00036527
     atom   13 type  4   force =     0.00042819   -0.00012060   -0.00018571
     atom   14 type  4   force =    -0.00001580    0.00003527   -0.00053751
     atom   15 type  4   force =    -0.00008330   -0.00021616    0.00060568
     atom   16 type  4   force =    -0.00030643    0.00022127   -0.00023807
     atom   17 type  4   force =     0.00010134   -0.00010894    0.00010652
     atom   18 type  4   force =     0.00033480    0.00016442   -0.00038175
     atom   19 type  4   force =     0.00000686   -0.00022610    0.00016713
     atom   20 type  4   force =     0.00027833   -0.00000859    0.00006344

     Total force =     0.179154     Total SCF correction =     0.002351

     Computing stress (Cartesian axis) and pressure

          total   stress  (Ry/bohr**3)                   (kbar)     P=     -528.71
  -0.00352411   0.00000000   0.00000000         -518.42        0.00        0.00
   0.00000000  -0.00337668   0.00002594            0.00     -496.73        3.82
   0.00000000   0.00002594  -0.00388157            0.00        3.82     -571.00

     kinetic stress (kbar)  27306.98      0.00      0.00
                                0.00  27298.67      9.64
                                0.00      9.64  27069.02

     local   stress (kbar)   -624.90      0.08     -0.06
                                0.08 -19889.73   -228.66
                               -0.06   -228.66 -14175.35

     nonloc. stress (kbar)   7085.96      0.00      0.00
                                0.00   7115.87     -0.56
                                0.00     -0.56   7145.95

     hartree stress (kbar)  14311.53     -0.03      0.03
                               -0.03  22522.32     48.49
                                0.03     48.49  20581.50

     exc-cor stress (kbar)  -6327.70     -0.00      0.00
                               -0.00  -6320.56      0.68
                                0.00      0.68  -6327.97

     corecor stress (kbar)   -422.32      0.00     -0.00
                                0.00   -422.40     -0.04
                               -0.00     -0.04   -421.79

     ewald   stress (kbar) -41847.97     -0.00     -0.00
                               -0.00 -30800.89    174.25
                               -0.00    174.25 -34442.36

     hubbard stress (kbar)      0.00      0.00      0.00
                                0.00      0.00      0.00
                                0.00      0.00      0.00

     DFT-D   stress (kbar)      0.00      0.00      0.00
                                0.00      0.00      0.00
                                0.00      0.00      0.00

     XDM     stress (kbar)      0.00      0.00      0.00
                                0.00      0.00      0.00
                                0.00      0.00      0.00

     dft-nl  stress (kbar)      0.00      0.00      0.00
                                0.00      0.00      0.00
                                0.00      0.00      0.00

     TS-vdW  stress (kbar)      0.00      0.00      0.00
                                0.00      0.00      0.00
                                0.00      0.00      0.00

[...]

                                0.00      0.00      0.00

     Writing all to output data dir new_calculations/myprefix.save/

     General routines

     Parallel routines

     PAW routines

   This run was terminated on:  14:51:30  20May2023

   JOB DONE.