     Program PWSCF v.7.0 starts on 21May2023 at  7:25:46

     Reading input from espresso_25382.pwi
Warning: card &CELL ignored
Warning: card / ignored

     Current dimensions of program PWSCF are:
     Max number of different atomic species (ntypx) = 10
     Max number of k-points (npk) =  40000
     Max angular momentum in pseudopotentials (lmaxx) =  4

     gamma-point specific algorithms are used
     Message from routine setup:
     using ibrav=0 with symmetry is DISCOURAGED, use correct ibrav instead

     Subspace diagonalization in iterative solution of the eigenvalue problem:
     a serial algorithm will be used

     Using Slab Decomposition

     bravais-lattice index     =            0
     lattice parameter (alat)  =      14.5791  a.u.
     unit-cell volume          =    1720.8722 (a.u.)^3
     number of atoms/cell      =           12
     number of atomic types    =            3
     number of electrons       =        88.00
     number of Kohn-Sham states=           53
     kinetic-energy cutoff     =      30.0000  Ry
     charge density cutoff     =     240.0000  Ry
     scf convergence threshold =      1.0E-06
     mixing beta               =       0.7000
     number of iterations used =            8  plain     mixing
     Exchange-correlation=  SLA  PW   PBX  PBC
                           (   1   4   3   4   0   0   0)

     celldm(1)=  14.579106  celldm(2)=   0.000000  celldm(3)=   0.000000
     celldm(4)=   0.000000  celldm(5)=   0.000000  celldm(6)=   0.000000

     crystal axes: (cart. coord. in units of alat)
               a(1) = (   1.000000   0.000000   0.000000 )
               a(2) = (   0.301031   0.953614   0.000000 )
               a(3) = (  -0.590359  -0.558880   0.582349 )

     reciprocal axes: (cart. coord. in units 2 pi/alat)
               b(1) = (  1.000000 -0.315673  0.710803 )
               b(2) = (  0.000000  1.048642  1.006381 )
               b(3) = (  0.000000  0.000000  1.717184 )

     PseudoPot. # 1 for Cs read from file:
     /home/pragov/projects/rrg-bengioy-ad/pragov/crystal_structure_design/SSSP/Cs_pbe_v1.uspp.F.UPF
     MD5 check sum: 3476d69cb178dfad3ffaa59df4e07ca4
     Pseudo is Ultrasoft + core correction, Zval =  9.0
     Generated by new atomic code, or converted to UPF format
     Using radial grid of  905 points,  6 beta functions with:
                l(1) =   0
                l(2) =   0
                l(3) =   1
                l(4) =   1
                l(5) =   2
                l(6) =   2
     Q(r) pseudized with  6 coefficients,  rinner =    1.500   1.500   1.500
                                                       1.500   1.500

     PseudoPot. # 2 for Br read from file:
     /home/pragov/projects/rrg-bengioy-ad/pragov/crystal_structure_design/SSSP/br_pbe_v1.4.uspp.F.UPF
     MD5 check sum: d3ffb7b29f6225aa16fe06858fb2a80b
     Pseudo is Ultrasoft + core correction, Zval =  7.0
     Generated by new atomic code, or converted to UPF format
     Using radial grid of  879 points,  6 beta functions with:
                l(1) =   0
                l(2) =   0
                l(3) =   1
                l(4) =   1
                l(5) =   2
                l(6) =   2
     Q(r) pseudized with  8 coefficients,  rinner =    1.100   1.100   1.100
                                                       1.100   1.100

     PseudoPot. # 3 for F  read from file:
     /home/pragov/projects/rrg-bengioy-ad/pragov/crystal_structure_design/SSSP/f_pbe_v1.4.uspp.F.UPF
     MD5 check sum: 4c38b6a325caf53ec0e86aed9459de46
     Pseudo is Ultrasoft, Zval =  7.0
     Generated by new atomic code, or converted to UPF format
     Using radial grid of  799 points,  4 beta functions with:
                l(1) =   0
                l(2) =   0
                l(3) =   1
                l(4) =   1
     Q(r) pseudized with  8 coefficients,  rinner =    0.950   0.950   0.950

     atomic species   valence    mass     pseudopotential
        Cs             9.00   132.90545     Cs( 1.00)
        Br             7.00    79.90400     Br( 1.00)
        F              7.00    18.99840     F ( 1.00)

      2 Sym. Ops., with inversion, found

                                    s                        frac. trans.

      isym =  1     identity

 cryst.   s( 1) = (     1          0          0      )
                  (     0          1          0      )
                  (     0          0          1      )

 cart.    s( 1) = (  1.0000000  0.0000000  0.0000000 )
                  (  0.0000000  1.0000000  0.0000000 )
                  (  0.0000000  0.0000000  1.0000000 )

      isym =  2     inversion

 cryst.   s( 2) = (    -1          0          0      )
                  (     0         -1          0      )
                  (     0          0         -1      )

 cart.    s( 2) = ( -1.0000000 -0.0000000 -0.0000000 )
                  (  0.0000000 -1.0000000 -0.0000000 )
                  (  0.0000000  0.0000000 -1.0000000 )

   Cartesian axes

     site n.     atom                  positions (alat units)
         1           Cs  tau(   1) = (   0.9341205   0.6846809   0.0000000  )
         2           Cs  tau(   2) = (   0.3669101   0.2689336   0.0000000  )
         3           Br  tau(   3) = (   0.2048206  -0.2794399   0.2911743  )
         4           Br  tau(   4) = (  -0.1446641   0.1973674   0.2911743  )
         5           F   tau(   5) = (  -0.0313200   0.0427304   0.4523050  )
         6           F   tau(   6) = (   0.7419919   0.3520044   0.1300437  )
         7           F   tau(   7) = (   0.4292523  -0.2806646   0.4035088  )
         8           F   tau(   8) = (   0.2814196   0.6753993   0.1788399  )
         9           F   tau(   9) = (   0.4394573   0.4597846   0.4035088  )
        10           F   tau(  10) = (   0.2712145  -0.0650499   0.1788399  )
        11           F   tau(  11) = (   0.6520655   0.0483765   0.2911743  )
        12           F   tau(  12) = (   0.0586064   0.3463582   0.2911743  )

   Crystallographic axes

     site n.     atom                  positions (cryst. coord.)
         1           Cs  tau(   1) = (  0.7179850  0.7179850  0.0000000  )
         2           Cs  tau(   2) = (  0.2820150  0.2820150  0.0000000  )
         3           Br  tau(   3) = (  0.5000000 -0.0000000  0.5000000  )
         4           Br  tau(   4) = ( -0.0000000  0.5000000  0.5000000  )
         5           F   tau(   5) = (  0.2766910  0.5000000  0.7766910  )
         6           F   tau(   6) = (  0.7233090  0.5000000  0.2233090  )
         7           F   tau(   7) = (  0.8046660  0.1117670  0.6928990  )
         8           F   tau(   8) = (  0.1953340  0.8882330  0.3071010  )
         9           F   tau(   9) = (  0.5811310  0.8882330  0.6928990  )
        10           F   tau(  10) = (  0.4188690  0.1117670  0.3071010  )
        11           F   tau(  11) = (  0.8437620  0.3437620  0.5000000  )
        12           F   tau(  12) = (  0.1562380  0.6562380  0.5000000  )

     number of k points=     1  Methfessel-Paxton smearing, width (Ry)=  0.0010
                       cart. coord. in units 2pi/alat
        k(    1) = (   0.0000000   0.0000000   0.0000000), wk =   2.0000000

                       cryst. coord.
        k(    1) = (   0.0000000   0.0000000   0.0000000), wk =   2.0000000

     Initial potential from superposition of free atoms

     starting charge      87.9212, renormalised to      88.0000
     Starting wfcs are   66 randomized atomic wfcs

     Self-consistent Calculation

     iteration #  1     ecut=    30.00 Ry     beta= 0.70
     Davidson diagonalization with overlap

     ethr =  1.00E-02,  avg # of iterations =  3.0

     total energy              =    -607.80605899 Ry
     estimated scf accuracy    <       2.06915956 Ry

[...]

     total energy              =    -608.84377493 Ry
     estimated scf accuracy    <       0.00000166 Ry

     iteration #  9     ecut=    30.00 Ry     beta= 0.70
     Davidson diagonalization with overlap

     ethr =  1.89E-09,  avg # of iterations =  2.0

     End of self-consistent calculation

          k = 0.0000 0.0000 0.0000 (  2412 PWs)   bands (ev):

   -21.0000 -20.8673 -20.1861 -20.1778 -20.0898 -20.0891 -19.8153 -19.7965
   -17.1737 -17.1545 -13.0754 -12.9682  -4.8753  -4.8009  -4.5802  -4.5408
    -4.3786  -4.2390  -4.0370  -4.0370  -3.9226  -3.7143  -3.0224  -2.0924
    -1.9645  -1.7953  -1.5301  -1.4552  -1.3571  -0.9919  -0.9330  -0.8656
    -0.8629  -0.7334  -0.6898  -0.6147  -0.6100  -0.5526  -0.4123  -0.3566
    -0.2477   0.0345   1.1564   1.5805   4.8543   5.0099   5.1797   5.4227
     7.8237   9.0828   9.2838   9.9081  10.6180

     occupation numbers
     1.0000   1.0000   1.0000   1.0000   1.0000   1.0000   1.0000   1.0000
     1.0000   1.0000   1.0000   1.0000   1.0000   1.0000   1.0000   1.0000
     1.0000   1.0000   1.0000   1.0000   1.0000   1.0000   1.0000   1.0000
     1.0000   1.0000   1.0000   1.0000   1.0000   1.0000   1.0000   1.0000
     1.0000   1.0000   1.0000   1.0000   1.0000   1.0000   1.0000   1.0000
     1.0000   1.0000   1.0000   1.0000  -0.0000  -0.0000  -0.0000  -0.0000
    -0.0000  -0.0000  -0.0000  -0.0000  -0.0000

     the Fermi energy is     2.7815 ev

!    total energy              =    -608.84377509 Ry
     estimated scf accuracy    <       0.00000036 Ry
     smearing contrib. (-TS)   =       0.00000000 Ry
     internal energy E=F+TS    =    -608.84377509 Ry

     The total energy is F=E-TS. E is the sum of the following terms:
     one-electron contribution =    -285.45507530 Ry
     hartree contribution      =     187.45613558 Ry
     xc contribution           =    -187.16830672 Ry
     ewald contribution        =    -323.67652865 Ry

     convergence has been achieved in   9 iterations

     Forces acting on atoms (cartesian axes, Ry/au):

     atom    1 type  1   force =     0.00000555    0.00000531    0.00000207
     atom    2 type  1   force =    -0.00000555   -0.00000531   -0.00000207
     atom    3 type  2   force =     0.00000000    0.00000000    0.00000000
     atom    4 type  2   force =     0.00000000    0.00000000    0.00000000
     atom    5 type  3   force =     0.00340484   -0.00464387    0.00483987
     atom    6 type  3   force =    -0.00340484    0.00464387   -0.00483987
     atom    7 type  3   force =     0.00213366    0.00077050    0.00053741
     atom    8 type  3   force =    -0.00213366   -0.00077050   -0.00053741
     atom    9 type  3   force =    -0.00137607   -0.00179950    0.00053588
     atom   10 type  3   force =     0.00137607    0.00179950   -0.00053588
     atom   11 type  3   force =     0.00304854    0.00223662   -0.00000059
     atom   12 type  3   force =    -0.00304854   -0.00223662    0.00000059
     The non-local contrib.  to forces
     atom    1 type  1   force =    -0.00069574   -0.00050754   -0.00000212
     atom    2 type  1   force =     0.00069574    0.00050754    0.00000212
     atom    3 type  2   force =     0.00000000    0.00000000    0.00000000
     atom    4 type  2   force =     0.00000000    0.00000000    0.00000000
     atom    5 type  3   force =    -0.43766069    0.59710487   -0.62218021
     atom    6 type  3   force =     0.43766069   -0.59710487    0.62218021
     atom    7 type  3   force =    -0.85511139    0.03895950   -0.45125278
     atom    8 type  3   force =     0.85511139   -0.03895950    0.45125278
     atom    9 type  3   force =     0.22026587    0.82717291   -0.45125111
     atom   10 type  3   force =    -0.22026587   -0.82717291    0.45125111
     atom   11 type  3   force =     0.79608705    0.58350533    0.00000140
     atom   12 type  3   force =    -0.79608705   -0.58350533   -0.00000140
     The ionic contribution  to forces
     atom    1 type  1   force =     1.48664400    1.08964576    0.00000107
     atom    2 type  1   force =    -1.48664400   -1.08964576   -0.00000107
     atom    3 type  2   force =     0.00000000    0.00000000   -0.00000000
     atom    4 type  2   force =    -0.00000000   -0.00000000    0.00000000
     atom    5 type  3   force =     2.03563914   -2.77725466    2.89387103
     atom    6 type  3   force =    -2.03563914    2.77725467   -2.89387103
     atom    7 type  3   force =     6.59906963   -0.48166707    3.60510457
     atom    8 type  3   force =    -6.59906963    0.48166707   -3.60510457
     atom    9 type  3   force =    -1.52720624   -6.43794420    3.60508103
     atom   10 type  3   force =     1.52720624    6.43794420   -3.60508103
     atom   11 type  3   force =    -5.02494272   -3.68312725    0.00000761
     atom   12 type  3   force =     5.02494272    3.68312725   -0.00000761
     The local contribution  to forces
     atom    1 type  1   force =    -1.48599421   -1.08919116    0.00001419
     atom    2 type  1   force =     1.48602588    1.08918493   -0.00000499
     atom    3 type  2   force =    -0.00003337    0.00008062   -0.00007155
     atom    4 type  2   force =     0.00004544   -0.00001110    0.00003119
     atom    5 type  3   force =    -1.59441229    2.17528693   -2.26662397
     atom    6 type  3   force =     1.59441161   -2.17526283    2.26660812
     atom    7 type  3   force =    -5.74222209    0.44352111   -3.15354078
     atom    8 type  3   force =     5.74233387   -0.44346258    3.15355860
     atom    9 type  3   force =     1.30562835    5.60935033   -3.15351527
     atom   10 type  3   force =    -1.30574425   -5.60946849    3.15354069
     atom   11 type  3   force =     4.23179693    3.10175349    0.00000482
     atom   12 type  3   force =    -4.23179437   -3.10178555    0.00002003
     The core correction contribution to forces
     atom    1 type  1   force =    -0.00005850   -0.00004399    0.00000027
     atom    2 type  1   force =     0.00005804    0.00004320   -0.00000040
     atom    3 type  2   force =    -0.00000689    0.00001036   -0.00001012
     atom    4 type  2   force =     0.00000226    0.00000044    0.00000091
     atom    5 type  3   force =     0.00000000    0.00000000    0.00000000
     atom    6 type  3   force =     0.00000000    0.00000000    0.00000000
     atom    7 type  3   force =     0.00000000    0.00000000    0.00000000
     atom    8 type  3   force =     0.00000000    0.00000000    0.00000000
     atom    9 type  3   force =     0.00000000    0.00000000    0.00000000
     atom   10 type  3   force =     0.00000000    0.00000000    0.00000000
     atom   11 type  3   force =     0.00000000    0.00000000    0.00000000
     atom   12 type  3   force =     0.00000000    0.00000000    0.00000000
     The Hubbard contrib.    to forces
     atom    1 type  1   force =     0.00000000    0.00000000    0.00000000
     atom    2 type  1   force =     0.00000000    0.00000000    0.00000000
     atom    3 type  2   force =     0.00000000    0.00000000    0.00000000
     atom    4 type  2   force =     0.00000000    0.00000000    0.00000000
     atom    5 type  3   force =     0.00000000    0.00000000    0.00000000
     atom    6 type  3   force =     0.00000000    0.00000000    0.00000000
     atom    7 type  3   force =     0.00000000    0.00000000    0.00000000
     atom    8 type  3   force =     0.00000000    0.00000000    0.00000000
     atom    9 type  3   force =     0.00000000    0.00000000    0.00000000
     atom   10 type  3   force =     0.00000000    0.00000000    0.00000000
     atom   11 type  3   force =     0.00000000    0.00000000    0.00000000
     atom   12 type  3   force =     0.00000000    0.00000000    0.00000000
     The SCF correction term to forces
     atom    1 type  1   force =     0.00011822    0.00010490   -0.00000996
     atom    2 type  1   force =    -0.00013299   -0.00009255    0.00000365
     atom    3 type  2   force =     0.00008523   -0.00017083    0.00015655
     atom    4 type  2   force =    -0.00006881    0.00000556   -0.00004077
     atom    5 type  3   force =    -0.00016147    0.00022150   -0.00022975
     atom    6 type  3   force =     0.00016183   -0.00024060    0.00024004
     atom    7 type  3   force =     0.00042241   -0.00005067    0.00024414
     atom    8 type  3   force =    -0.00048439   -0.00002311   -0.00022650
     atom    9 type  3   force =    -0.00006508   -0.00041578    0.00024606
     atom   10 type  3   force =     0.00017892    0.00045948   -0.00022184
     atom   11 type  3   force =     0.00009814    0.00010045   -0.00001818
     atom   12 type  3   force =    -0.00011899   -0.00007760   -0.00001418

     Total force =     0.012785     Total SCF correction =     0.001219

     Computing stress (Cartesian axis) and pressure

          total   stress  (Ry/bohr**3)                   (kbar)     P=      -67.81
  -0.00044238   0.00002394   0.00001337          -65.08        3.52        1.97
   0.00002394  -0.00045750  -0.00001824            3.52      -67.30       -2.68
   0.00001337  -0.00001824  -0.00048295            1.97       -2.68      -71.04

     kinetic stress (kbar)  10305.65   -132.35   -186.08
                             -132.35  10389.21    253.88
                             -186.08    253.88  10596.22

     local   stress (kbar)  -8099.27  -2135.84  -2666.07
                            -2135.84  -6750.80   3637.35
                            -2666.07   3637.35  -3609.27

     nonloc. stress (kbar)   2595.50      6.44     13.50
                                6.44   2591.43    -18.41
                               13.50    -18.41   2578.73

     hartree stress (kbar)   5965.28    678.84    874.28
                              678.84   5536.70  -1192.79
                              874.28  -1192.79   4522.31

     exc-cor stress (kbar)   4553.30      2.47      2.87
                                2.47   4551.74     -3.92
                                2.87     -3.92   4548.23

     corecor stress (kbar)  -7597.50      6.05      8.50
                                6.05  -7601.32    -11.59
                                8.50    -11.59  -7610.77

     ewald   stress (kbar)  -7788.04   1577.91   1954.97
                             1577.91  -8784.26  -2667.20
                             1954.97  -2667.20 -11096.49

     hubbard stress (kbar)      0.00      0.00      0.00
                                0.00      0.00      0.00
                                0.00      0.00      0.00

     DFT-D   stress (kbar)      0.00      0.00      0.00
                                0.00      0.00      0.00
                                0.00      0.00      0.00

     XDM     stress (kbar)      0.00      0.00      0.00
                                0.00      0.00      0.00
                                0.00      0.00      0.00

     dft-nl  stress (kbar)      0.00      0.00      0.00
                                0.00      0.00      0.00
                                0.00      0.00      0.00

     TS-vdW  stress (kbar)      0.00      0.00      0.00
                                0.00      0.00      0.00
                                0.00      0.00      0.00

[...]

                                0.00      0.00      0.00

     Writing all to output data dir new_calculations/myprefix.save/

     General routines

     Parallel routines

   This run was terminated on:   7:26: 2  21May2023

   JOB DONE.