     Program PWSCF v.7.0 starts on 20May2023 at 16:51:47

     Reading input from espresso_9515.pwi
Warning: card &CELL ignored
Warning: card / ignored

     Current dimensions of program PWSCF are:
     Max number of different atomic species (ntypx) = 10
     Max number of k-points (npk) =  40000
     Max angular momentum in pseudopotentials (lmaxx) =  4

     gamma-point specific algorithms are used
     Message from routine setup:
     using ibrav=0 with symmetry is DISCOURAGED, use correct ibrav instead

     Subspace diagonalization in iterative solution of the eigenvalue problem:
     a serial algorithm will be used

     Using Slab Decomposition

     bravais-lattice index     =            0
     lattice parameter (alat)  =      10.2691  a.u.
     unit-cell volume          =    1289.3687 (a.u.)^3
     number of atoms/cell      =           14
     number of atomic types    =            3
     number of electrons       =       128.00
     number of Kohn-Sham states=           77
     kinetic-energy cutoff     =      30.0000  Ry
     charge density cutoff     =     240.0000  Ry
     scf convergence threshold =      1.0E-06
     mixing beta               =       0.7000
     number of iterations used =            8  plain     mixing
     Exchange-correlation=  SLA  PW   PBX  PBC
                           (   1   4   3   4   0   0   0)

     celldm(1)=  10.269077  celldm(2)=   0.000000  celldm(3)=   0.000000
     celldm(4)=   0.000000  celldm(5)=   0.000000  celldm(6)=   0.000000

     crystal axes: (cart. coord. in units of alat)
               a(1) = (   1.000000   0.000000   0.000000 )
               a(2) = (   0.303117   0.952953   0.000000 )
               a(3) = (   0.480042   0.351049   1.249428 )

     reciprocal axes: (cart. coord. in units 2 pi/alat)
               b(1) = (  1.000000 -0.318082 -0.294839 )
               b(2) = (  0.000000  1.049369 -0.294839 )
               b(3) = (  0.000000  0.000000  0.800366 )

     PseudoPot. # 1 for Mn read from file:
     /home/pragov/projects/rrg-bengioy-ad/pragov/crystal_structure_design/SSSP/mn_pbe_v1.5.uspp.F.UPF
     MD5 check sum: 82ef2b46521d7a7d9e736dc3972e4928
     Pseudo is Ultrasoft + core correction, Zval = 15.0
     Generated by new atomic code, or converted to UPF format
     Using radial grid of  859 points,  6 beta functions with:
                l(1) =   0
                l(2) =   0
                l(3) =   1
                l(4) =   1
                l(5) =   2
                l(6) =   2
     Q(r) pseudized with  8 coefficients,  rinner =    0.950   0.950   0.950
                                                       0.950   0.950

     PseudoPot. # 2 for Cr read from file:
     /home/pragov/projects/rrg-bengioy-ad/pragov/crystal_structure_design/SSSP/cr_pbe_v1.5.uspp.F.UPF
     MD5 check sum: 0d52af634a40206e4dee301ad30da4bf
     Pseudo is Ultrasoft + core correction, Zval = 14.0
     Generated by new atomic code, or converted to UPF format
     Using radial grid of  857 points,  6 beta functions with:
                l(1) =   0
                l(2) =   0
                l(3) =   1
                l(4) =   1
                l(5) =   2
                l(6) =   2
     Q(r) pseudized with  8 coefficients,  rinner =    0.950   0.950   0.950
                                                       0.950   0.950

     PseudoPot. # 3 for F  read from file:
     /home/pragov/projects/rrg-bengioy-ad/pragov/crystal_structure_design/SSSP/f_pbe_v1.4.uspp.F.UPF
     MD5 check sum: 4c38b6a325caf53ec0e86aed9459de46
     Pseudo is Ultrasoft, Zval =  7.0
     Generated by new atomic code, or converted to UPF format
     Using radial grid of  799 points,  4 beta functions with:
                l(1) =   0
                l(2) =   0
                l(3) =   1
                l(4) =   1
     Q(r) pseudized with  8 coefficients,  rinner =    0.950   0.950   0.950

     atomic species   valence    mass     pseudopotential
        Mn            15.00    54.93804     Mn( 1.00)
        Cr            14.00    51.99610     Cr( 1.00)
        F              7.00    18.99840     F ( 1.00)

      2 Sym. Ops., with inversion, found

                                    s                        frac. trans.

      isym =  1     identity

 cryst.   s( 1) = (     1          0          0      )
                  (     0          1          0      )
                  (     0          0          1      )

 cart.    s( 1) = (  1.0000000  0.0000000 -0.0000000 )
                  (  0.0000000  1.0000000  0.0000000 )
                  (  0.0000000  0.0000000  1.0000000 )

      isym =  2     inversion

 cryst.   s( 2) = (    -1          0          0      )
                  (     0         -1          0      )
                  (     0          0         -1      )

 cart.    s( 2) = ( -1.0000000 -0.0000000  0.0000000 )
                  (  0.0000000 -1.0000000 -0.0000000 )
                  (  0.0000000  0.0000000 -1.0000000 )

   Cartesian axes

     site n.     atom                  positions (alat units)
         1           Mn  tau(   1) = (   0.9884871   0.7713554   0.9370710  )
         2           Mn  tau(   2) = (   0.7946722   0.5326465   0.3123570  )
         3           Cr  tau(   3) = (   0.0000000   0.0000000   0.0000000  )
         4           Cr  tau(   4) = (   0.2400210   0.1755243   0.6247140  )
         5           F   tau(   5) = (   0.5157998   0.3296686   0.4643799  )
         6           F   tau(   6) = (   1.0726317   0.7368727   0.1603341  )
         7           F   tau(   7) = (   1.2673595   0.9743333   0.7850481  )
         8           F   tau(   8) = (   0.7105277   0.5671292   1.0890939  )
         9           F   tau(   9) = (   0.7291388   1.1260018   0.9370710  )
        10           F   tau(  10) = (   1.0540206   0.1780002   0.3123570  )
        11           F   tau(  11) = (   0.5511738   0.6976012   0.0437675  )
        12           F   tau(  12) = (   0.7112867   0.8146898   0.5809466  )
        13           F   tau(  13) = (   1.2319856   0.6064008   1.2056606  )
        14           F   tau(  14) = (   1.0718726   0.4893122   0.6684815  )

   Crystallographic axes

     site n.     atom                  positions (cryst. coord.)
         1           Mn  tau(   1) = (  0.4668480  0.5331520  0.7500000  )
         2           Mn  tau(   2) = (  0.5331520  0.4668480  0.2500000  )
         3           Cr  tau(   3) = (  0.0000000  0.0000000  0.0000000  )
         4           Cr  tau(   4) = ( -0.0000000  0.0000000  0.5000000  )
         5           F   tau(   5) = (  0.2740210  0.2090270  0.3716740  )
         6           F   tau(   6) = (  0.7909730  0.7259790  0.1283260  )
         7           F   tau(   7) = (  0.7259790  0.7909730  0.6283260  )
         8           F   tau(   8) = (  0.2090270  0.2740210  0.8716740  )
         9           F   tau(   9) = (  0.0946930  0.9053070  0.7500000  )
        10           F   tau(  10) = (  0.9053070  0.0946930  0.2500000  )
        11           F   tau(  11) = (  0.3163750  0.7191370  0.0350300  )
        12           F   tau(  12) = (  0.2808630  0.6836250  0.4649700  )
        13           F   tau(  13) = (  0.6836250  0.2808630  0.9649700  )
        14           F   tau(  14) = (  0.7191370  0.3163750  0.5350300  )

     number of k points=     1  Methfessel-Paxton smearing, width (Ry)=  0.0010
                       cart. coord. in units 2pi/alat
        k(    1) = (   0.0000000   0.0000000   0.0000000), wk =   2.0000000

                       cryst. coord.
        k(    1) = (   0.0000000   0.0000000   0.0000000), wk =   2.0000000

     Check: negative core charge=   -0.000015

     Initial potential from superposition of free atoms

     starting charge     124.9998, renormalised to     128.0000

     negative rho (up, down):  4.041E-03 0.000E+00
     Starting wfcs are   86 randomized atomic wfcs

     Self-consistent Calculation

     iteration #  1     ecut=    30.00 Ry     beta= 0.70
     Davidson diagonalization with overlap

     ethr =  1.00E-02,  avg # of iterations =  2.0

     total energy              =   -1219.23445668 Ry
     estimated scf accuracy    <      48.43010795 Ry

[...]

     negative rho (up, down):  1.040E-03 0.000E+00

[...]

     total energy              =   -1259.52549440 Ry
     estimated scf accuracy    <       0.00000209 Ry

     iteration # 85     ecut=    30.00 Ry     beta= 0.70
     Davidson diagonalization with overlap

     ethr =  8.04E-10,  avg # of iterations =  1.0

[...]

     End of self-consistent calculation

          k = 0.0000 0.0000 0.0000 (  1789 PWs)   bands (ev):

   -73.7777 -73.7776 -67.2019 -67.2013 -42.5853 -42.5818 -42.5343 -42.5332
   -42.4578 -42.4556 -38.7485 -38.7469 -38.5501 -38.5316 -38.3146 -38.3095
   -19.4843 -19.1895 -18.7427 -18.6981 -18.4258 -18.4065 -18.2932 -18.2860
   -18.2072 -18.1518  -2.7174  -2.1735  -1.7593  -1.6658  -1.5898  -1.5421
    -1.4726  -1.3760  -1.1490  -1.0978  -0.8624  -0.6338  -0.5075  -0.3793
    -0.2156  -0.2152  -0.0955  -0.0042   0.0857   0.3412   0.3778   0.4817
     0.6469   1.0101   1.0125   1.0569   1.0844   1.1476   1.2833   1.4661
     4.9671   5.0559   5.1983   5.2735   5.3076   5.3590   5.4678   5.5293
     5.5480   5.5757   5.6161   5.6457   5.7827   5.9644   6.0506   6.4942
     6.6969   7.3801   7.7088   7.8814   8.5700

     occupation numbers
     1.0000   1.0000   1.0000   1.0000   1.0000   1.0000   1.0000   1.0000
     1.0000   1.0000   1.0000   1.0000   1.0000   1.0000   1.0000   1.0000
     1.0000   1.0000   1.0000   1.0000   1.0000   1.0000   1.0000   1.0000
     1.0000   1.0000   1.0000   1.0000   1.0000   1.0000   1.0000   1.0000
     1.0000   1.0000   1.0000   1.0000   1.0000   1.0000   1.0000   1.0000
     1.0000   1.0000   1.0000   1.0000   1.0000   1.0000   1.0000   1.0000
     1.0000   1.0000   1.0000   1.0000   1.0000   1.0000   1.0000   1.0000
     1.0000   1.0000   1.0000   1.0000   1.0000   1.0000   1.0000   0.9551
     0.0453  -0.0004  -0.0000  -0.0000  -0.0000  -0.0000  -0.0000  -0.0000
    -0.0000  -0.0000  -0.0000  -0.0000  -0.0000

     the Fermi energy is     5.5387 ev

!    total energy              =   -1259.52549397 Ry
     estimated scf accuracy    <       0.00000093 Ry
     smearing contrib. (-TS)   =      -0.00001821 Ry
     internal energy E=F+TS    =   -1259.52547575 Ry

     The total energy is F=E-TS. E is the sum of the following terms:
     one-electron contribution =    -822.79350399 Ry
     hartree contribution      =     461.27103247 Ry
     xc contribution           =    -190.56846578 Ry
     ewald contribution        =    -707.43453846 Ry

     convergence has been achieved in  85 iterations

     negative rho (up, down):  3.871E-03 0.000E+00

     Forces acting on atoms (cartesian axes, Ry/au):

     atom    1 type  1   force =     0.05213232   -0.07130793   -0.00000126
     atom    2 type  1   force =    -0.05213232    0.07130793    0.00000126
     atom    3 type  2   force =     0.00000000    0.00000000    0.00000000
     atom    4 type  2   force =     0.00000000    0.00000000    0.00000000
     atom    5 type  3   force =     0.01738035    0.01169515   -0.00241768
     atom    6 type  3   force =    -0.01641547   -0.01303214    0.00242304
     atom    7 type  3   force =    -0.01738035   -0.01169515    0.00241768
     atom    8 type  3   force =     0.01641547    0.01303214   -0.00242304
     atom    9 type  3   force =    -0.01209258    0.01654968    0.00000642
     atom   10 type  3   force =     0.01209258   -0.01654968   -0.00000642
     atom   11 type  3   force =     0.01284908   -0.00380092    0.02239608
     atom   12 type  3   force =    -0.00031483   -0.01337048   -0.02238931
     atom   13 type  3   force =    -0.01284908    0.00380092   -0.02239608
     atom   14 type  3   force =     0.00031483    0.01337048    0.02238931
     The non-local contrib.  to forces
     atom    1 type  1   force =    -0.03076672    0.04208068   -0.00000978
     atom    2 type  1   force =     0.03076672   -0.04208068    0.00000978
     atom    3 type  2   force =     0.00000000    0.00000000    0.00000000
     atom    4 type  2   force =     0.00000000    0.00000000    0.00000000
     atom    5 type  3   force =    -0.19526579    0.00759955    0.10492950
     atom    6 type  3   force =     0.05191713    0.18838583   -0.10494176
     atom    7 type  3   force =     0.19526579   -0.00759955   -0.10492950
     atom    8 type  3   force =    -0.05191713   -0.18838583    0.10494176
     atom    9 type  3   force =    -0.22024781    0.30123870   -0.00001132
     atom   10 type  3   force =     0.22024781   -0.30123870    0.00001132
     atom   11 type  3   force =    -0.32541999    0.20530708    0.13787262
     atom   12 type  3   force =    -0.09706318    0.37233855   -0.13785401
     atom   13 type  3   force =     0.32541999   -0.20530708   -0.13787262
     atom   14 type  3   force =     0.09706318   -0.37233855    0.13785401
     The ionic contribution  to forces
     atom    1 type  1   force =     0.62598686   -0.85600665   -0.00000000
     atom    2 type  1   force =    -0.62598686    0.85600665    0.00000000
     atom    3 type  2   force =    -0.00000000   -0.00000000   -0.00000000
     atom    4 type  2   force =     0.00000000   -0.00000000   -0.00000000
     atom    5 type  3   force =     2.19660353    0.95218906   -1.83794809
     atom    6 type  3   force =    -1.57322022   -1.80463547    1.83794809
     atom    7 type  3   force =    -2.19660353   -0.95218906    1.83794809
     atom    8 type  3   force =     1.57322022    1.80463547   -1.83794809
     atom    9 type  3   force =     0.21147482   -0.28918155    0.00000000
     atom   10 type  3   force =    -0.21147482    0.28918155    0.00000000
     atom   11 type  3   force =     4.20671195   -1.42745714    0.54874331
     atom   12 type  3   force =     0.08517267   -4.44148680   -0.54874331
     atom   13 type  3   force =    -4.20671195    1.42745714   -0.54874331
     atom   14 type  3   force =    -0.08517268    4.44148680    0.54874331
     The local contribution  to forces
     atom    1 type  1   force =    -0.54035789    0.73896843    0.00007554
     atom    2 type  1   force =     0.54047404   -0.73913503   -0.00008264
     atom    3 type  2   force =    -0.00005716   -0.00011272   -0.00030303
     atom    4 type  2   force =     0.00007892    0.00002936    0.00031974
     atom    5 type  3   force =    -1.98401824   -0.94828090    1.73087122
     atom    6 type  3   force =     1.50512895    1.60329977   -1.73087844
     atom    7 type  3   force =     1.98382014    0.94818224   -1.73065304
     atom    8 type  3   force =    -1.50494467   -1.60318287    1.73066896
     atom    9 type  3   force =    -0.00327557    0.00445044    0.00003137
     atom   10 type  3   force =     0.00349426   -0.00473450   -0.00001939
     atom   11 type  3   force =    -3.86864629    1.21869172   -0.66440652
     atom   12 type  3   force =     0.01145582    4.05601880    0.66434523
     atom   13 type  3   force =     3.86852783   -1.21868201    0.66382238
     atom   14 type  3   force =    -0.01142599   -4.05587633   -0.66378481
     The core correction contribution to forces
     atom    1 type  1   force =    -0.00264925    0.00362001    0.00000006
     atom    2 type  1   force =     0.00265278   -0.00362658   -0.00000069
     atom    3 type  2   force =    -0.00000032   -0.00000112   -0.00000053
     atom    4 type  2   force =     0.00000031   -0.00000054    0.00000111
     atom    5 type  3   force =     0.00000000    0.00000000    0.00000000
     atom    6 type  3   force =     0.00000000    0.00000000    0.00000000
     atom    7 type  3   force =     0.00000000    0.00000000    0.00000000
     atom    8 type  3   force =     0.00000000    0.00000000    0.00000000
     atom    9 type  3   force =     0.00000000    0.00000000    0.00000000
     atom   10 type  3   force =     0.00000000    0.00000000    0.00000000
     atom   11 type  3   force =     0.00000000    0.00000000    0.00000000
     atom   12 type  3   force =     0.00000000    0.00000000    0.00000000
     atom   13 type  3   force =     0.00000000    0.00000000    0.00000000
     atom   14 type  3   force =     0.00000000    0.00000000    0.00000000
     The Hubbard contrib.    to forces
     atom    1 type  1   force =     0.00000000    0.00000000    0.00000000
     atom    2 type  1   force =     0.00000000    0.00000000    0.00000000
     atom    3 type  2   force =     0.00000000    0.00000000    0.00000000
     atom    4 type  2   force =     0.00000000    0.00000000    0.00000000
     atom    5 type  3   force =     0.00000000    0.00000000    0.00000000
     atom    6 type  3   force =     0.00000000    0.00000000    0.00000000
     atom    7 type  3   force =     0.00000000    0.00000000    0.00000000
     atom    8 type  3   force =     0.00000000    0.00000000    0.00000000
     atom    9 type  3   force =     0.00000000    0.00000000    0.00000000
     atom   10 type  3   force =     0.00000000    0.00000000    0.00000000
     atom   11 type  3   force =     0.00000000    0.00000000    0.00000000
     atom   12 type  3   force =     0.00000000    0.00000000    0.00000000
     atom   13 type  3   force =     0.00000000    0.00000000    0.00000000
     atom   14 type  3   force =     0.00000000    0.00000000    0.00000000
     The SCF correction term to forces
     atom    1 type  1   force =    -0.00005566   -0.00002106   -0.00006922
     atom    2 type  1   force =    -0.00001397    0.00009292    0.00007265
     atom    3 type  2   force =     0.00005499    0.00010337    0.00027829
     atom    4 type  2   force =    -0.00007387   -0.00003650   -0.00028975
     atom    5 type  3   force =     0.00005038    0.00018512   -0.00028780
     atom    6 type  3   force =    -0.00023565   -0.00007309    0.00031286
     atom    7 type  3   force =     0.00012678   -0.00009109    0.00003464
     atom    8 type  3   force =     0.00006273   -0.00002544   -0.00006796
     atom    9 type  3   force =    -0.00003560    0.00002871   -0.00001308
     atom   10 type  3   force =    -0.00016625    0.00022860    0.00000219
     atom   11 type  3   force =     0.00021799   -0.00033693    0.00019104
     atom   12 type  3   force =     0.00011553   -0.00024631   -0.00014541
     atom   13 type  3   force =    -0.00007036    0.00033851    0.00040184
     atom   14 type  3   force =    -0.00015401    0.00009330   -0.00043138

     Total force =     0.144733     Total SCF correction =     0.001180

     Computing stress (Cartesian axis) and pressure

     negative rho (up, down):  3.871E-03 0.000E+00
          total   stress  (Ry/bohr**3)                   (kbar)     P=     -306.56
  -0.00214508  -0.00024164   0.00008151         -315.55      -35.55       11.99
  -0.00024164  -0.00199146   0.00006008          -35.55     -292.95        8.84
   0.00008151   0.00006008  -0.00211521           11.99        8.84     -311.16

     kinetic stress (kbar)  25795.29    -82.02     33.97
                              -82.02  25847.50     24.65
                               33.97     24.65  25776.90

     local   stress (kbar) -14301.79   5696.43  -3015.89
                             5696.43 -17925.85  -2204.94
                            -3015.89  -2204.94 -17029.31

     nonloc. stress (kbar)   6496.75    -57.23     10.79
                              -57.23   6533.28      7.76
                               10.79      7.76   6516.13

     hartree stress (kbar)  16529.68  -2550.55   1452.78
                            -2550.55  18152.27   1062.24
                             1452.78   1062.24  17944.82

     exc-cor stress (kbar)  -5438.86      0.79     -2.06
                                0.79  -5439.36     -1.51
                               -2.06     -1.51  -5442.08

     corecor stress (kbar)  -1407.17      1.82     -0.60
                                1.82  -1408.33     -0.43
                               -0.60     -0.43  -1407.78

     ewald   stress (kbar) -27989.45  -3044.78   1533.00
                            -3044.78 -26052.47   1121.07
                             1533.00   1121.07 -26669.84

     hubbard stress (kbar)      0.00      0.00      0.00
                                0.00      0.00      0.00
                                0.00      0.00      0.00

     DFT-D   stress (kbar)      0.00      0.00      0.00
                                0.00      0.00      0.00
                                0.00      0.00      0.00

     XDM     stress (kbar)      0.00      0.00      0.00
                                0.00      0.00      0.00
                                0.00      0.00      0.00

     dft-nl  stress (kbar)      0.00      0.00      0.00
                                0.00      0.00      0.00
                                0.00      0.00      0.00

     TS-vdW  stress (kbar)      0.00      0.00      0.00
                                0.00      0.00      0.00
                                0.00      0.00      0.00

[...]

                                0.00      0.00      0.00

     Writing all to output data dir new_calculations/myprefix.save/

     General routines

     Parallel routines

   This run was terminated on:  16:53:16  20May2023

   JOB DONE.