     Program PWSCF v.7.0 starts on 21May2023 at 11:33:53

     Reading input from espresso_21874.pwi
Warning: card &CELL ignored
Warning: card / ignored

     Current dimensions of program PWSCF are:
     Max number of different atomic species (ntypx) = 10
     Max number of k-points (npk) =  40000
     Max angular momentum in pseudopotentials (lmaxx) =  4

     gamma-point specific algorithms are used
     Message from routine setup:
     using ibrav=0 with symmetry is DISCOURAGED, use correct ibrav instead

     Subspace diagonalization in iterative solution of the eigenvalue problem:
     a serial algorithm will be used

     Using Slab Decomposition

     bravais-lattice index     =            0
     lattice parameter (alat)  =       7.9143  a.u.
     unit-cell volume          =    1851.4105 (a.u.)^3
     number of atoms/cell      =            6
     number of atomic types    =            2
     number of electrons       =        66.00
     number of Kohn-Sham states=           40
     kinetic-energy cutoff     =      30.0000  Ry
     charge density cutoff     =     240.0000  Ry
     scf convergence threshold =      1.0E-06
     mixing beta               =       0.7000
     number of iterations used =            8  plain     mixing
     Exchange-correlation= SLA  PW   PBX  PBC
                           (   1   4   3   4   0   0   0)

     celldm(1)=   7.914332  celldm(2)=   0.000000  celldm(3)=   0.000000
     celldm(4)=   0.000000  celldm(5)=   0.000000  celldm(6)=   0.000000

     crystal axes: (cart. coord. in units of alat)
               a(1) = (   1.000000   0.000000   0.000000 )
               a(2) = (   0.000000   1.000000   0.000000 )
               a(3) = (   0.000000   0.000000   3.734736 )

     reciprocal axes: (cart. coord. in units 2 pi/alat)
               b(1) = (  1.000000  0.000000  0.000000 )
               b(2) = (  0.000000  1.000000  0.000000 )
               b(3) = (  0.000000  0.000000  0.267757 )

     PseudoPot. # 1 for Au read from file:
     /home/pragov/projects/rrg-bengioy-ad/pragov/crystal_structure_design/SSSP/Au_ONCV_PBE-1.0.oncvpsp.upf
     MD5 check sum: d14007822ba0e19f0206237467fc06c2
     Pseudo is Norm-conserving, Zval = 19.0
     Generated using ONCVPSP code by D. R. Hamann
     Using radial grid of 1278 points,  8 beta functions with:
                l(1) =   0
                l(2) =   0
                l(3) =   1
                l(4) =   1
                l(5) =   2
                l(6) =   2
                l(7) =   3
                l(8) =   3

     PseudoPot. # 2 for I  read from file:
     /home/pragov/projects/rrg-bengioy-ad/pragov/crystal_structure_design/SSSP/I.pbe-n-kjpaw_psl.0.2.UPF
     MD5 check sum: d4ef18d9c8f18dc85e5843bca1e50dc0
     Pseudo is Projector augmented-wave + core cor, Zval =  7.0
     Generated using "atomic" code by A. Dal Corso  v.5.0.99 svn rev. 10869
     Shape of augmentation charge: PSQ
     Using radial grid of 1247 points,  4 beta functions with:
                l(1) =   0
                l(2) =   0
                l(3) =   1
                l(4) =   1
     Q(r) pseudized with 0 coefficients

     atomic species   valence    mass     pseudopotential
        Au            19.00   196.96657     Au( 1.00)
        I              7.00   126.90447     I ( 1.00)

     16 Sym. Ops., with inversion, found ( 8 have fractional translation)

                                    s                        frac. trans.

      isym =  1     identity

 cryst.   s( 1) = (     1          0          0      )
                  (     0          1          0      )
                  (     0          0          1      )

 cart.    s( 1) = (  1.0000000  0.0000000  0.0000000 )
                  (  0.0000000  1.0000000  0.0000000 )
                  (  0.0000000  0.0000000  1.0000000 )

      isym =  2     180 deg rotation - cart. axis [0,0,1]

[...]

 cryst.   s( 5) = (     0          1          0      )    f =(  0.0000000 )
                  (     1          0          0      )       (  0.0000000 )
                  (     0          0         -1      )       ( -0.5000000 )

 cart.    s( 5) = (  0.0000000  1.0000000  0.0000000 )    f =(  0.0000000 )
                  (  1.0000000  0.0000000  0.0000000 )       (  0.0000000 )
                  (  0.0000000  0.0000000 -1.0000000 )       ( -1.8673682 )

[...]

      isym =  8      90 deg rotation - cart. axis [0,0,1]

 cryst.   s( 8) = (     0          1          0      )    f =(  0.0000000 )
                  (    -1          0          0      )       (  0.0000000 )
                  (     0          0          1      )       ( -0.5000000 )

 cart.    s( 8) = (  0.0000000 -1.0000000  0.0000000 )    f =(  0.0000000 )
                  (  1.0000000  0.0000000  0.0000000 )       (  0.0000000 )
                  (  0.0000000  0.0000000  1.0000000 )       ( -1.8673682 )

      isym =  9     inversion

 cryst.   s( 9) = (    -1          0          0      )
                  (     0         -1          0      )
                  (     0          0         -1      )

 cart.    s( 9) = ( -1.0000000  0.0000000  0.0000000 )
                  (  0.0000000 -1.0000000  0.0000000 )
                  (  0.0000000  0.0000000 -1.0000000 )

      isym = 10     inv. 180 deg rotation - cart. axis [0,0,1]

 cryst.   s(10) = (     1          0          0      )
                  (     0          1          0      )
                  (     0          0         -1      )

 cart.    s(10) = (  1.0000000  0.0000000  0.0000000 )
                  (  0.0000000  1.0000000  0.0000000 )
                  (  0.0000000  0.0000000 -1.0000000 )

[...]

 cryst.   s(12) = (    -1          0          0      )
                  (     0          1          0      )
                  (     0          0          1      )

 cart.    s(12) = ( -1.0000000  0.0000000  0.0000000 )
                  (  0.0000000  1.0000000  0.0000000 )
                  (  0.0000000  0.0000000  1.0000000 )

[...]

 cryst.   s(13) = (     0         -1          0      )    f =(  0.0000000 )
                  (    -1          0          0      )       (  0.0000000 )
                  (     0          0          1      )       ( -0.5000000 )

 cart.    s(13) = (  0.0000000 -1.0000000  0.0000000 )    f =(  0.0000000 )
                  ( -1.0000000  0.0000000  0.0000000 )       (  0.0000000 )
                  (  0.0000000  0.0000000  1.0000000 )       ( -1.8673682 )

[...]

      isym = 16     inv.  90 deg rotation - cart. axis [0,0,1]

 cryst.   s(16) = (     0         -1          0      )    f =(  0.0000000 )
                  (     1          0          0      )       (  0.0000000 )
                  (     0          0         -1      )       ( -0.5000000 )

 cart.    s(16) = (  0.0000000  1.0000000  0.0000000 )    f =(  0.0000000 )
                  ( -1.0000000  0.0000000  0.0000000 )       (  0.0000000 )
                  (  0.0000000  0.0000000 -1.0000000 )       ( -1.8673682 )

   Cartesian axes

     site n.     atom                  positions (alat units)
         1           Au  tau(   1) = (   0.0000000   0.0000000   2.8010523  )
         2           Au  tau(   2) = (   0.0000000   0.0000000   0.9336841  )
         3           I   tau(   3) = (   0.0000000   0.5000000   3.2218563  )
         4           I   tau(   4) = (   0.5000000   0.0000000   1.3544881  )
         5           I   tau(   5) = (   0.5000000   0.0000000   2.3802484  )
         6           I   tau(   6) = (   0.0000000   0.5000000   0.5128802  )

   Crystallographic axes

     site n.     atom                  positions (cryst. coord.)
         1           Au  tau(   1) = (  0.0000000  0.0000000  0.7500000  )
         2           Au  tau(   2) = (  0.0000000  0.0000000  0.2500000  )
         3           I   tau(   3) = (  0.0000000  0.5000000  0.8626730  )
         4           I   tau(   4) = (  0.5000000  0.0000000  0.3626730  )
         5           I   tau(   5) = (  0.5000000  0.0000000  0.6373270  )
         6           I   tau(   6) = (  0.0000000  0.5000000  0.1373270  )

     number of k points=     1  Methfessel-Paxton smearing, width (Ry)=  0.0010
                       cart. coord. in units 2pi/alat
        k(    1) = (   0.0000000   0.0000000   0.0000000), wk =   2.0000000

                       cryst. coord.
        k(    1) = (   0.0000000   0.0000000   0.0000000), wk =   2.0000000

     Check: negative core charge=   -0.000001

     Initial potential from superposition of free atoms

     starting charge      65.9995, renormalised to      66.0000
     Starting wfcs are   36 randomized atomic wfcs +    4 random wfcs
     Checking if some PAW data can be deallocated...

     Self-consistent Calculation

     iteration #  1     ecut=    30.00 Ry     beta= 0.70
     Davidson diagonalization with overlap

     ethr =  1.00E-02,  avg # of iterations =  5.0

     Threshold (ethr) on eigenvalues was too large:
     Diagonalizing with lowered threshold

     Davidson diagonalization with overlap

[...]

     negative rho (up, down):  2.971E-04 0.000E+00

     total energy              =   -2063.94561044 Ry
     estimated scf accuracy    <       0.08768828 Ry

[...]

     total energy              =   -2063.96180657 Ry
     estimated scf accuracy    <       0.00000515 Ry

     iteration # 16     ecut=    30.00 Ry     beta= 0.70
     Davidson diagonalization with overlap

     ethr =  7.81E-09,  avg # of iterations =  1.0

[...]

     End of self-consistent calculation

          k = 0.0000 0.0000 0.0000 (  2558 PWs)   bands (ev):

  -102.7402-102.7400 -53.7823 -53.7820 -53.7590 -53.7589 -53.7584 -53.7584
    -9.3274  -9.2777  -8.9738  -8.9137  -1.4252  -1.3090  -1.3090  -1.3017
    -1.3017  -1.2945  -1.2280  -1.1483  -0.1861  -0.1820  -0.0128   0.1823
     1.9468   1.9469   2.0044   2.0045   2.1902   2.9372   3.4571   3.4571
     3.5451   3.5451   5.1498   6.0078   7.5749   7.9280   8.8568   9.2735

     occupation numbers
     1.0000   1.0000   1.0000   1.0000   1.0000   1.0000   1.0000   1.0000
     1.0000   1.0000   1.0000   1.0000   1.0000   1.0000   1.0000   1.0000
     1.0000   1.0000   1.0000   1.0000   1.0000   1.0000   1.0000   1.0000
     1.0000   1.0000   1.0000   1.0000   1.0000   1.0000   1.0000   1.0000
     0.5001   0.4999  -0.0000  -0.0000  -0.0000  -0.0000  -0.0000  -0.0000

     the Fermi energy is     3.5451 ev

!    total energy              =   -2063.96180587 Ry
     estimated scf accuracy    <       0.00000079 Ry
     smearing contrib. (-TS)   =      -0.00056419 Ry
     internal energy E=F+TS    =   -2063.96124168 Ry

     The total energy is F=E-TS. E is the sum of the following terms:
     one-electron contribution =    -605.58875633 Ry
     hartree contribution      =     310.99600996 Ry
     xc contribution           =    -217.76982628 Ry
     ewald contribution        =    -269.48599547 Ry
     one-center paw contrib.   =   -1282.11267356 Ry
      -> PAW hartree energy AE =      38.96770074 Ry
      -> PAW hartree energy PS =     -39.21921162 Ry
      -> PAW xc energy AE      =   -1443.84822970 Ry
      -> PAW xc energy PS      =     161.98706702 Ry
      -> total E_H with PAW    =     310.74449908 Ry
      -> total E_XC with PAW   =   -1499.63098897 Ry

     convergence has been achieved in  16 iterations

     negative rho (up, down):  5.905E-04 0.000E+00

     Forces acting on atoms (cartesian axes, Ry/au):

     atom    1 type  1   force =     0.00000000    0.00000000    0.00000000
     atom    2 type  1   force =     0.00000000    0.00000000   -0.00000000
     atom    3 type  2   force =     0.00000000    0.00000000    0.07848567
     atom    4 type  2   force =     0.00000000    0.00000000    0.07848567
     atom    5 type  2   force =     0.00000000    0.00000000   -0.07848567
     atom    6 type  2   force =     0.00000000    0.00000000   -0.07848567
     The non-local contrib.  to forces
     atom    1 type  1   force =     0.00000000    0.00000000    0.00000000
     atom    2 type  1   force =     0.00000000    0.00000000    0.00000000
     atom    3 type  2   force =     0.00000000    0.00000000   -0.11039806
     atom    4 type  2   force =     0.00000000    0.00000000   -0.11039806
     atom    5 type  2   force =     0.00000000    0.00000000    0.11039806
     atom    6 type  2   force =     0.00000000    0.00000000    0.11039806
     The ionic contribution  to forces
     atom    1 type  1   force =     0.00000000    0.00000000   -0.00000000
     atom    2 type  1   force =     0.00000000    0.00000000    0.00000000
     atom    3 type  2   force =     0.00000000    0.00000000   13.39869956
     atom    4 type  2   force =    -0.00000000   -0.00000000   13.39869956
     atom    5 type  2   force =    -0.00000000   -0.00000000  -13.39869956
     atom    6 type  2   force =     0.00000000    0.00000000  -13.39869956
     The local contribution  to forces
     atom    1 type  1   force =    -0.00000046   -0.00000312    0.00113883
     atom    2 type  1   force =     0.00000131    0.00000097    0.00036413
     atom    3 type  2   force =     0.00000043   -0.00000044  -13.24253579
     atom    4 type  2   force =     0.00000015   -0.00000040  -13.24406876
     atom    5 type  2   force =     0.00000088    0.00000026   13.24271774
     atom    6 type  2   force =     0.00000070   -0.00000013   13.24404817
     The core correction contribution to forces
     atom    1 type  1   force =     0.00000000    0.00000000    0.00000000
     atom    2 type  1   force =     0.00000000    0.00000000    0.00000000
     atom    3 type  2   force =    -0.00000014   -0.00000003    0.03346512
     atom    4 type  2   force =    -0.00000003   -0.00000002    0.03347489
     atom    5 type  2   force =     0.00000009    0.00000009   -0.03346715
     atom    6 type  2   force =     0.00000012   -0.00000003   -0.03346962
     The Hubbard contrib.    to forces
     atom    1 type  1   force =     0.00000000    0.00000000    0.00000000
     atom    2 type  1   force =     0.00000000    0.00000000    0.00000000
     atom    3 type  2   force =     0.00000000    0.00000000    0.00000000
     atom    4 type  2   force =     0.00000000    0.00000000    0.00000000
     atom    5 type  2   force =     0.00000000    0.00000000    0.00000000
     atom    6 type  2   force =     0.00000000    0.00000000    0.00000000
     The SCF correction term to forces
     atom    1 type  1   force =     0.00000061    0.00000141   -0.00110262
     atom    2 type  1   force =    -0.00000027   -0.00000022   -0.00038372
     atom    3 type  2   force =     0.00000071   -0.00000014   -0.00075357
     atom    4 type  2   force =     0.00000006    0.00000014    0.00081287
     atom    5 type  2   force =    -0.00000016   -0.00000001    0.00059863
     atom    6 type  2   force =    -0.00000020    0.00000009   -0.00076968

     Total force =     0.156971     Total SCF correction =     0.001882

     Computing stress (Cartesian axis) and pressure

     negative rho (up, down):  5.905E-04 0.000E+00
          total   stress  (Ry/bohr**3)                   (kbar)     P=      -35.16
  -0.00021113   0.00000000   0.00000000          -31.06        0.00        0.00
   0.00000000  -0.00021113   0.00000000            0.00      -31.06        0.00
   0.00000000   0.00000000  -0.00029470            0.00        0.00      -43.35

     kinetic stress (kbar)  10294.34      0.00      0.00
                                0.00  10294.34      0.00
                                0.00      0.00  10235.42

     local   stress (kbar) -19613.52     -0.02     -0.00
                               -0.02 -19613.63      0.00
                               -0.00      0.00   9985.97

     nonloc. stress (kbar)    398.75      0.00      0.00
                                0.00    398.75      0.00
                                0.00      0.00    414.86

     hartree stress (kbar)  12987.47      0.01      0.00
                                0.01  12987.53     -0.00
                                0.00     -0.00  -1264.61

     exc-cor stress (kbar)   9546.06     -0.00      0.00
                               -0.00   9546.06     -0.00
                                0.00     -0.00   9548.64

     corecor stress (kbar) -11619.47      0.00      0.00
                                0.00 -11619.47     -0.00
                                0.00     -0.00 -11600.79

     ewald   stress (kbar)  -2024.67      0.00      0.00
                                0.00  -2024.67      0.00
                                0.00      0.00 -17362.84

     hubbard stress (kbar)      0.00      0.00      0.00
                                0.00      0.00      0.00
                                0.00      0.00      0.00

     DFT-D   stress (kbar)      0.00      0.00      0.00
                                0.00      0.00      0.00
                                0.00      0.00      0.00

     XDM     stress (kbar)      0.00      0.00      0.00
                                0.00      0.00      0.00
                                0.00      0.00      0.00

     dft-nl  stress (kbar)      0.00      0.00      0.00
                                0.00      0.00      0.00
                                0.00      0.00      0.00

     TS-vdW  stress (kbar)      0.00      0.00      0.00
                                0.00      0.00      0.00
                                0.00      0.00      0.00

[...]

                                0.00      0.00      0.00

     Writing all to output data dir new_calculations/myprefix.save/

     General routines

     Parallel routines

     PAW routines

   This run was terminated on:  11:34: 3  21May2023

   JOB DONE.