     Program PWSCF v.7.0 starts on 21May2023 at 13: 3:25

     Reading input from espresso_25593.pwi
Warning: card &CELL ignored
Warning: card / ignored

     Current dimensions of program PWSCF are:
     Max number of different atomic species (ntypx) = 10
     Max number of k-points (npk) =  40000
     Max angular momentum in pseudopotentials (lmaxx) =  4

     gamma-point specific algorithms are used
     Message from routine setup:
     using ibrav=0 with symmetry is DISCOURAGED, use correct ibrav instead

     Subspace diagonalization in iterative solution of the eigenvalue problem:
     a serial algorithm will be used

     Using Slab Decomposition

     bravais-lattice index     =            0
     lattice parameter (alat)  =      11.0097  a.u.
     unit-cell volume          =     943.6399 (a.u.)^3
     number of atoms/cell      =           14
     number of atomic types    =            3
     number of electrons       =        70.00
     number of Kohn-Sham states=           42
     kinetic-energy cutoff     =      30.0000  Ry
     charge density cutoff     =     240.0000  Ry
     scf convergence threshold =      1.0E-06
     mixing beta               =       0.7000
     number of iterations used =            8  plain     mixing
     Exchange-correlation=  SLA  PW   PBX  PBC
                           (   1   4   3   4   0   0   0)

     celldm(1)=  11.009656  celldm(2)=   0.000000  celldm(3)=   0.000000
     celldm(4)=   0.000000  celldm(5)=   0.000000  celldm(6)=   0.000000

     crystal axes: (cart. coord. in units of alat)
               a(1) = (   1.000000   0.000000   0.000000 )
               a(2) = (   0.500000   0.866025   0.000000 )
               a(3) = (   0.500000   0.288675   0.816497 )

     reciprocal axes: (cart. coord. in units 2 pi/alat)
               b(1) = (  1.000000 -0.577350 -0.408248 )
               b(2) = (  0.000000  1.154701 -0.408248 )
               b(3) = (  0.000000  0.000000  1.224745 )

     PseudoPot. # 1 for La read from file:
     /home/pragov/projects/rrg-bengioy-ad/pragov/crystal_structure_design/SSSP/La.GGA-PBE-paw-v1.0.UPF
     MD5 check sum: 436541e95c1ad8901025bd0b0ed42ae2
     Pseudo is Projector augmented-wave + core cor, Zval = 11.0
     Generated using ATOMPAW code
     Shape of augmentation charge: BESSEL
     Using radial grid of 1101 points,  8 beta functions with:
                l(1) =   0
                l(2) =   0
                l(3) =   1
                l(4) =   1
                l(5) =   2
                l(6) =   2
                l(7) =   3
                l(8) =   3
     Q(r) pseudized with 0 coefficients

     PseudoPot. # 2 for Tm read from file:
     /home/pragov/projects/rrg-bengioy-ad/pragov/crystal_structure_design/SSSP/Tm.GGA-PBE-paw-v1.0.UPF
     MD5 check sum: e502ddec747d736c64e0ed72ddfd7d4c
     Pseudo is Projector augmented-wave + core cor, Zval = 23.0
     Generated using ATOMPAW code
     Shape of augmentation charge: BESSEL
     Using radial grid of 1116 points,  8 beta functions with:
                l(1) =   0
                l(2) =   0
                l(3) =   1
                l(4) =   1
                l(5) =   2
                l(6) =   2
                l(7) =   3
                l(8) =   3
     Q(r) pseudized with 0 coefficients

     PseudoPot. # 3 for B  read from file:
     /home/pragov/projects/rrg-bengioy-ad/pragov/crystal_structure_design/SSSP/b_pbe_v1.4.uspp.F.UPF
     MD5 check sum: cc6de2960df11db49a60e589f9ebb39b
     Pseudo is Ultrasoft + core correction, Zval =  3.0
     Generated by new atomic code, or converted to UPF format
     Using radial grid of  781 points,  4 beta functions with:
                l(1) =   0
                l(2) =   0
                l(3) =   1
                l(4) =   1
     Q(r) pseudized with  8 coefficients,  rinner =    1.100   1.100   1.100

     atomic species   valence    mass     pseudopotential
        La            11.00   138.90547     La( 1.00)
        Tm            23.00   168.93422     Tm( 1.00)
        B              3.00    10.81000     B ( 1.00)

     12 Sym. Ops., with inversion, found

                                    s                        frac. trans.

      isym =  1     identity

 cryst.   s( 1) = (     1          0          0      )
                  (     0          1          0      )
                  (     0          0          1      )

 cart.    s( 1) = (  1.0000000  0.0000000 -0.0000000 )
                  (  0.0000000  1.0000000 -0.0000000 )
                  (  0.0000000  0.0000000  1.0000000 )

      isym =  2     180 deg rotation - cart. axis [1,0,0]

[...]

      isym =  3     120 deg rotation - cryst. axis [0,0,1]

[...]

      isym =  6     180 deg rotation - cryst. axis [1,1,0]

[...]

      isym =  7     inversion

[...]

      isym =  8     inv. 180 deg rotation - cart. axis [1,0,0]

[...]

      isym =  9     inv. 120 deg rotation - cryst. axis [0,0,1]

 cryst.   s( 9) = (     1         -1          0      )
                  (     1          0          0      )
                  (     1          0         -1      )

 cart.    s( 9) = (  0.5000000  0.8660254  0.0000000 )
                  ( -0.8660254  0.5000000  0.0000000 )
                  (  0.0000000  0.0000000 -1.0000000 )

[...]

 cryst.   s(10) = (     0          1          0      )
                  (    -1          1          0      )
                  (     0          1         -1      )

 cart.    s(10) = (  0.5000000 -0.8660254 -0.0000000 )
                  (  0.8660254  0.5000000  0.0000000 )
                  (  0.0000000  0.0000000 -1.0000000 )

[...]

      isym = 12     inv. 180 deg rotation - cryst. axis [1,1,0]

 cryst.   s(12) = (     1         -1          0      )
                  (     0         -1          0      )
                  (     0         -1          1      )

 cart.    s(12) = (  0.5000000 -0.8660254 -0.0000000 )
                  ( -0.8660254 -0.5000000 -0.0000000 )
                  (  0.0000000  0.0000000  1.0000000 )

   Cartesian axes

     site n.     atom                  positions (alat units)
         1           La  tau(   1) = (   0.0000000   0.0000000   0.0000000  )
         2           Tm  tau(   2) = (   1.0000000   0.5773503   0.4082483  )
         3           B   tau(   3) = (   1.5000000   0.6923850   0.4895901  )
         4           B   tau(   4) = (   0.5000000   0.1150347   0.0813418  )
         5           B   tau(   5) = (   1.6503770   0.9528456   0.4895901  )
         6           B   tau(   6) = (   0.6503770   0.3754953   0.0813418  )
         7           B   tau(   7) = (   1.3496230   0.9528456   0.4895901  )
         8           B   tau(   8) = (   0.3496230   0.3754953   0.0813418  )
         9           B   tau(   9) = (   1.3496230   0.7792052   0.7351547  )
        10           B   tau(  10) = (   0.3496230   0.2018549   0.3269065  )
        11           B   tau(  11) = (   1.6503770   0.7792052   0.7351547  )
        12           B   tau(  12) = (   0.6503770   0.2018549   0.3269065  )
        13           B   tau(  13) = (   1.5000000   1.0396658   0.7351547  )
        14           B   tau(  14) = (   0.5000000   0.4623155   0.3269065  )

   Crystallographic axes

     site n.     atom                  positions (cryst. coord.)
         1           La  tau(   1) = (  0.0000000  0.0000000  0.0000000  )
         2           Tm  tau(   2) = (  0.5000000  0.5000000  0.5000000  )
         3           B   tau(   3) = (  0.9003770  0.5996230  0.5996230  )
         4           B   tau(   4) = (  0.4003770  0.0996230  0.0996230  )
         5           B   tau(   5) = (  0.9003770  0.9003770  0.5996230  )
         6           B   tau(   6) = (  0.4003770  0.4003770  0.0996230  )
         7           B   tau(   7) = (  0.5996230  0.9003770  0.5996230  )
         8           B   tau(   8) = (  0.0996230  0.4003770  0.0996230  )
         9           B   tau(   9) = (  0.5996230  0.5996230  0.9003770  )
        10           B   tau(  10) = (  0.0996230  0.0996230  0.4003770  )
        11           B   tau(  11) = (  0.9003770  0.5996230  0.9003770  )
        12           B   tau(  12) = (  0.4003770  0.0996230  0.4003770  )
        13           B   tau(  13) = (  0.5996230  0.9003770  0.9003770  )
        14           B   tau(  14) = (  0.0996230  0.4003770  0.4003770  )

     number of k points=     1  Methfessel-Paxton smearing, width (Ry)=  0.0010
                       cart. coord. in units 2pi/alat
        k(    1) = (   0.0000000   0.0000000   0.0000000), wk =   2.0000000

                       cryst. coord.
        k(    1) = (   0.0000000   0.0000000   0.0000000), wk =   2.0000000

     Initial potential from superposition of free atoms

     starting charge      69.9837, renormalised to      70.0000
     Starting wfcs are  112 randomized atomic wfcs
     Checking if some PAW data can be deallocated...

     Self-consistent Calculation

     iteration #  1     ecut=    30.00 Ry     beta= 0.70
     Davidson diagonalization with overlap

     ethr =  1.00E-02,  avg # of iterations =  2.0

     negative rho (up, down):  3.515E-05 0.000E+00

     total energy              =   -1479.39907651 Ry
     estimated scf accuracy    <       2.60989868 Ry

[...]

     total energy              =   -1481.24225864 Ry
     estimated scf accuracy    <       0.00000800 Ry

     iteration # 30     ecut=    30.00 Ry     beta= 0.70
     Davidson diagonalization with overlap

     ethr =  1.14E-08,  avg # of iterations =  2.0

     End of self-consistent calculation

          k = 0.0000 0.0000 0.0000 (  1343 PWs)   bands (ev):

   -37.7354 -20.8998 -11.1643 -11.1641 -11.1640  -4.8556  -4.8555  -4.8554
    -2.8189  -1.7382   2.5080   2.5080   2.5081   4.4027   5.0456   5.0456
     5.0456   5.4026   5.4026   7.4279   7.4279   7.4279  10.2822  10.2822
    10.2822  10.9346  10.9347  10.9347  12.1823  12.1823  12.1826  12.2585
    12.4164  12.4166  12.4166  13.1050  13.1050  13.1051  14.0095  14.1711
    14.1712  14.2276

     occupation numbers
     1.0000   1.0000   1.0000   1.0000   1.0000   1.0000   1.0000   1.0000
     1.0000   1.0000   1.0000   1.0000   1.0000   1.0000   1.0000   1.0000
     1.0000   1.0000   1.0000   1.0000   1.0000   1.0000   1.0000   1.0000
     1.0000   1.0000   1.0000   1.0000   1.0000   1.0000   1.0000   1.0000
     1.0000   1.0000   1.0000  -0.0000  -0.0000  -0.0000  -0.0000  -0.0000
    -0.0000  -0.0000

     the Fermi energy is    12.7313 ev

!    total energy              =   -1481.24225898 Ry
     estimated scf accuracy    <       0.00000015 Ry
     smearing contrib. (-TS)   =       0.00000000 Ry
     internal energy E=F+TS    =   -1481.24225898 Ry

     The total energy is F=E-TS. E is the sum of the following terms:
     one-electron contribution =    -318.72933602 Ry
     hartree contribution      =     180.03436042 Ry
     xc contribution           =     -81.00842229 Ry
     ewald contribution        =    -376.21782894 Ry
     one-center paw contrib.   =    -885.32103214 Ry
      -> PAW hartree energy AE =     431.29156568 Ry
      -> PAW hartree energy PS =    -383.55270111 Ry
      -> PAW xc energy AE      =    -975.10700517 Ry
      -> PAW xc energy PS      =      42.04710847 Ry
      -> total E_H with PAW    =     227.77322498 Ry
      -> total E_XC with PAW   =   -1014.06831900 Ry

     convergence has been achieved in  30 iterations

     Forces acting on atoms (cartesian axes, Ry/au):

     atom    1 type  1   force =     0.00000000    0.00000000    0.00000000
     atom    2 type  2   force =    -0.00000000   -0.00000000    0.00000000
     atom    3 type  3   force =     0.00000000    0.09122203    0.06451860
     atom    4 type  3   force =     0.00000000    0.09122329    0.06450731
     atom    5 type  3   force =    -0.07900060   -0.04561102    0.06451860
     atom    6 type  3   force =    -0.07900168   -0.04561164    0.06450731
     atom    7 type  3   force =     0.07900060   -0.04561102    0.06451860
     atom    8 type  3   force =     0.07900168   -0.04561164    0.06450731
     atom    9 type  3   force =     0.07900168    0.04561164   -0.06450731
     atom   10 type  3   force =     0.07900060    0.04561102   -0.06451860
     atom   11 type  3   force =    -0.07900168    0.04561164   -0.06450731
     atom   12 type  3   force =    -0.07900060    0.04561102   -0.06451860
     atom   13 type  3   force =     0.00000000   -0.09122329   -0.06450731
     atom   14 type  3   force =     0.00000000   -0.09122203   -0.06451860
     The non-local contrib.  to forces
     atom    1 type  1   force =    -0.00000000   -0.00000000    0.00000000
     atom    2 type  2   force =     0.00000000    0.00000000    0.00000000
     atom    3 type  3   force =     0.00000000    0.08688433    0.06144359
     atom    4 type  3   force =     0.00000000    0.08687946    0.06142976
     atom    5 type  3   force =    -0.07524404   -0.04344216    0.06144359
     atom    6 type  3   force =    -0.07523982   -0.04343973    0.06142976
     atom    7 type  3   force =     0.07524404   -0.04344216    0.06144359
     atom    8 type  3   force =     0.07523982   -0.04343973    0.06142976
     atom    9 type  3   force =     0.07523982    0.04343973   -0.06142976
     atom   10 type  3   force =     0.07524404    0.04344216   -0.06144359
     atom   11 type  3   force =    -0.07523982    0.04343973   -0.06142976
     atom   12 type  3   force =    -0.07524404    0.04344216   -0.06144359
     atom   13 type  3   force =     0.00000000   -0.08687946   -0.06142976
     atom   14 type  3   force =     0.00000000   -0.08688433   -0.06144359
     The ionic contribution  to forces
     atom    1 type  1   force =    -0.00000000   -0.00000000    0.00000000
     atom    2 type  2   force =     0.00000000    0.00000000   -0.00000000
     atom    3 type  3   force =     0.00000000   -0.94122539   -0.66554685
     atom    4 type  3   force =    -0.00000000   -0.94122539   -0.66554685
     atom    5 type  3   force =     0.81512510    0.47061269   -0.66554685
     atom    6 type  3   force =     0.81512510    0.47061269   -0.66554685
     atom    7 type  3   force =    -0.81512510    0.47061269   -0.66554685
     atom    8 type  3   force =    -0.81512510    0.47061269   -0.66554685
     atom    9 type  3   force =    -0.81512510   -0.47061269    0.66554685
     atom   10 type  3   force =    -0.81512510   -0.47061269    0.66554685
     atom   11 type  3   force =     0.81512510   -0.47061269    0.66554685
     atom   12 type  3   force =     0.81512510   -0.47061269    0.66554685
     atom   13 type  3   force =    -0.00000000    0.94122539    0.66554685
     atom   14 type  3   force =     0.00000000    0.94122539    0.66554685
     The local contribution  to forces
     atom    1 type  1   force =     0.00007646    0.00020271   -0.00005680
     atom    2 type  2   force =    -0.00127936   -0.00261184   -0.00148304
     atom    3 type  3   force =     0.00000604    0.94512748    0.66835403
     atom    4 type  3   force =    -0.00000296    0.94511882    0.66828850
     atom    5 type  3   force =    -0.81849750   -0.47254076    0.66834207
     atom    6 type  3   force =    -0.81847513   -0.47256384    0.66831498
     atom    7 type  3   force =     0.81852022   -0.47252633    0.66827056
     atom    8 type  3   force =     0.81847980   -0.47258031    0.66825923
     atom    9 type  3   force =     0.81851970    0.47254815   -0.66830045
     atom   10 type  3   force =     0.81848266    0.47254109   -0.66827302
     atom   11 type  3   force =    -0.81851165    0.47254939   -0.66833558
     atom   12 type  3   force =    -0.81845862    0.47254951   -0.66831263
     atom   13 type  3   force =     0.00001147   -0.94510099   -0.66832274
     atom   14 type  3   force =     0.00004745   -0.94510405   -0.66828367
     The core correction contribution to forces
     atom    1 type  1   force =     0.00000004    0.00000010   -0.00000003
     atom    2 type  2   force =    -0.00000001   -0.00000002   -0.00000001
     atom    3 type  3   force =    -0.00000030    0.00040366    0.00028541
     atom    4 type  3   force =    -0.00000039    0.00040436    0.00028580
     atom    5 type  3   force =    -0.00034863   -0.00020138    0.00028606
     atom    6 type  3   force =    -0.00035018   -0.00020147    0.00028546
     atom    7 type  3   force =     0.00034964   -0.00020234    0.00028422
     atom    8 type  3   force =     0.00035079   -0.00020205    0.00028470
     atom    9 type  3   force =     0.00034879    0.00020182   -0.00028552
     atom   10 type  3   force =     0.00034981    0.00020162   -0.00028506
     atom   11 type  3   force =    -0.00034989    0.00020147   -0.00028590
     atom   12 type  3   force =    -0.00034984    0.00020071   -0.00028607
     atom   13 type  3   force =     0.00000007   -0.00040312   -0.00028576
     atom   14 type  3   force =     0.00000085   -0.00040325   -0.00028573
     The Hubbard contrib.    to forces
     atom    1 type  1   force =     0.00000000    0.00000000    0.00000000
     atom    2 type  2   force =     0.00000000    0.00000000    0.00000000
     atom    3 type  3   force =     0.00000000    0.00000000    0.00000000
     atom    4 type  3   force =     0.00000000    0.00000000    0.00000000
     atom    5 type  3   force =     0.00000000    0.00000000    0.00000000
     atom    6 type  3   force =     0.00000000    0.00000000    0.00000000
     atom    7 type  3   force =     0.00000000    0.00000000    0.00000000
     atom    8 type  3   force =     0.00000000    0.00000000    0.00000000
     atom    9 type  3   force =     0.00000000    0.00000000    0.00000000
     atom   10 type  3   force =     0.00000000    0.00000000    0.00000000
     atom   11 type  3   force =     0.00000000    0.00000000    0.00000000
     atom   12 type  3   force =     0.00000000    0.00000000    0.00000000
     atom   13 type  3   force =     0.00000000    0.00000000    0.00000000
     atom   14 type  3   force =     0.00000000    0.00000000    0.00000000
     The SCF correction term to forces
     atom    1 type  1   force =    -0.00003131   -0.00017236    0.00000836
     atom    2 type  2   force =     0.00076116    0.00295030    0.00185102
     atom    3 type  3   force =    -0.00001995    0.00002969   -0.00001028
     atom    4 type  3   force =     0.00000221    0.00006668    0.00005951
     atom    5 type  3   force =    -0.00001408   -0.00003479    0.00000390
     atom    6 type  3   force =    -0.00008291   -0.00001459    0.00002341
     atom    7 type  3   force =     0.00001166   -0.00005570    0.00003725
     atom    8 type  3   force =     0.00009577   -0.00002221    0.00005037
     atom    9 type  3   force =    -0.00001604    0.00002831   -0.00004227
     atom   10 type  3   force =     0.00007553    0.00002387   -0.00004604
     atom   11 type  3   force =    -0.00001176    0.00002443   -0.00002864
     atom   12 type  3   force =    -0.00008901    0.00001767   -0.00004831
     atom   13 type  3   force =    -0.00001729   -0.00003381   -0.00000758
     atom   14 type  3   force =    -0.00001009   -0.00005546   -0.00005742

     Total force =     0.387043     Total SCF correction =     0.003579

     Computing stress (Cartesian axis) and pressure

          total   stress  (Ry/bohr**3)                   (kbar)     P=       69.78
   0.00047409  -0.00000000  -0.00000000           69.74       -0.00       -0.00
  -0.00000000   0.00047409   0.00000000           -0.00       69.74        0.00
  -0.00000000   0.00000000   0.00047497           -0.00        0.00       69.87

     kinetic stress (kbar)   9114.46      0.00      0.00
                                0.00   9114.46      0.00
                               -0.00      0.00   9114.44

     local   stress (kbar)  -1326.09     -0.01     -0.00
                               -0.01  -1326.10      0.02
                               -0.00      0.02  -1326.15

     nonloc. stress (kbar)   6105.93     -0.00     -0.00
                                0.00   6105.93      0.00
                               -0.00      0.00   6106.09

     hartree stress (kbar)   9355.23      0.02      0.00
                                0.02   9355.25     -0.01
                                0.00     -0.01   9355.28

     exc-cor stress (kbar)  -2158.68      0.00      0.00
                                0.00  -2158.68     -0.00
                                0.00     -0.00  -2158.68

     corecor stress (kbar)  -1471.43      0.00     -0.00
                                0.00  -1471.43     -0.00
                               -0.00     -0.00  -1471.43

     ewald   stress (kbar) -19549.67      0.00      0.00
                                0.00 -19549.67      0.00
                                0.00      0.00 -19549.67

     hubbard stress (kbar)      0.00      0.00      0.00
                                0.00      0.00      0.00
                                0.00      0.00      0.00

     DFT-D   stress (kbar)      0.00      0.00      0.00
                                0.00      0.00      0.00
                                0.00      0.00      0.00

     XDM     stress (kbar)      0.00      0.00      0.00
                                0.00      0.00      0.00
                                0.00      0.00      0.00

     dft-nl  stress (kbar)      0.00      0.00      0.00
                                0.00      0.00      0.00
                                0.00      0.00      0.00

     TS-vdW  stress (kbar)      0.00      0.00      0.00
                                0.00      0.00      0.00
                                0.00      0.00      0.00

[...]

                                0.00      0.00      0.00

     Writing all to output data dir new_calculations/myprefix.save/

     General routines

     Parallel routines

     PAW routines

   This run was terminated on:  13: 5: 8  21May2023

   JOB DONE.