     Program PWSCF v.7.0 starts on 20May2023 at 17:25:37

     Reading input from espresso_4547.pwi
Warning: card &CELL ignored
Warning: card / ignored

     Current dimensions of program PWSCF are:
     Max number of different atomic species (ntypx) = 10
     Max number of k-points (npk) =  40000
     Max angular momentum in pseudopotentials (lmaxx) =  4
     file O.pbe-n-kjpaw_psl.0.1.UPF: wavefunction(s)  2P renormalized

     gamma-point specific algorithms are used

     Subspace diagonalization in iterative solution of the eigenvalue problem:
     a serial algorithm will be used

     Using Slab Decomposition

     bravais-lattice index     =            0
     lattice parameter (alat)  =       9.9751  a.u.
     unit-cell volume          =    1445.1898 (a.u.)^3
     number of atoms/cell      =           16
     number of atomic types    =            3
     number of electrons       =       133.00
     number of Kohn-Sham states=           80
     kinetic-energy cutoff     =      30.0000  Ry
     charge density cutoff     =     240.0000  Ry
     scf convergence threshold =      1.0E-06
     mixing beta               =       0.7000
     number of iterations used =            8  plain     mixing
     Exchange-correlation=  SLA  PW   PBX  PBC
                           (   1   4   3   4   0   0   0)

     celldm(1)=   9.975137  celldm(2)=   0.000000  celldm(3)=   0.000000
     celldm(4)=   0.000000  celldm(5)=   0.000000  celldm(6)=   0.000000

     crystal axes: (cart. coord. in units of alat)
               a(1) = (   1.000000   0.000000   0.000000 )
               a(2) = (   0.490707   0.892894   0.000000 )
               a(3) = (  -0.002169   0.526463   1.630678 )

     reciprocal axes: (cart. coord. in units 2 pi/alat)
               b(1) = (  1.000000 -0.549570  0.178758 )
               b(2) = (  0.000000  1.119954 -0.361576 )
               b(3) = (  0.000000  0.000000  0.613242 )

     PseudoPot. # 1 for V  read from file:
     /home/pragov/projects/rrg-bengioy-ad/pragov/crystal_structure_design/SSSP/v_pbe_v1.4.uspp.F.UPF
     MD5 check sum: 22b79981416ebb76fdaf5b1b8640f6fb
     Pseudo is Ultrasoft + core correction, Zval = 13.0
     Generated by new atomic code, or converted to UPF format
     Using radial grid of  853 points,  6 beta functions with:
                l(1) =   0
                l(2) =   0
                l(3) =   1
                l(4) =   1
                l(5) =   2
                l(6) =   2
     Q(r) pseudized with  8 coefficients,  rinner =    1.100   1.100   1.100
                                                       1.100   1.100

     PseudoPot. # 2 for O  read from file:
     /home/pragov/projects/rrg-bengioy-ad/pragov/crystal_structure_design/SSSP/O.pbe-n-kjpaw_psl.0.1.UPF
     MD5 check sum: 0234752ac141de4415c5fc33072bef88
     Pseudo is Projector augmented-wave + core cor, Zval =  6.0
     Generated using "atomic" code by A. Dal Corso  v.5.0.99 svn rev. 10869
     Shape of augmentation charge: BESSEL
     Using radial grid of 1095 points,  4 beta functions with:
                l(1) =   0
                l(2) =   0
                l(3) =   1
                l(4) =   1
     Q(r) pseudized with 0 coefficients

     PseudoPot. # 3 for F  read from file:
     /home/pragov/projects/rrg-bengioy-ad/pragov/crystal_structure_design/SSSP/f_pbe_v1.4.uspp.F.UPF
     MD5 check sum: 4c38b6a325caf53ec0e86aed9459de46
     Pseudo is Ultrasoft, Zval =  7.0
     Generated by new atomic code, or converted to UPF format
     Using radial grid of  799 points,  4 beta functions with:
                l(1) =   0
                l(2) =   0
                l(3) =   1
                l(4) =   1
     Q(r) pseudized with  8 coefficients,  rinner =    0.950   0.950   0.950

     atomic species   valence    mass     pseudopotential
        V             13.00    50.94150     V ( 1.00)
        O              6.00    15.99900     O ( 1.00)
        F              7.00    18.99840     F ( 1.00)

     No symmetry found

                                    s                        frac. trans.

      isym =  1     identity

 cryst.   s( 1) = (     1          0          0      )
                  (     0          1          0      )
                  (     0          0          1      )

 cart.    s( 1) = (  1.0000000  0.0000000 -0.0000000 )
                  (  0.0000000  1.0000000 -0.0000000 )
                  (  0.0000000  0.0000000  1.0000000 )

   Cartesian axes

     site n.     atom                  positions (alat units)
         1           V   tau(   1) = (   0.9948748   0.5788805   0.4080284  )
         2           V   tau(   2) = (   0.9757440   1.1302099   0.8058601  )
         3           V   tau(   3) = (   0.5180696   0.8563358   1.2143760  )
         4           V   tau(   4) = (   0.0132132   0.0268336   0.0118077  )
         5           O   tau(   5) = (   1.0772623   0.2763764   0.1958559  )
         6           O   tau(   6) = (   0.9133573   0.8805058   0.6184609  )
         7           O   tau(   7) = (   0.7677165   1.0118530   1.0916773  )
         8           F   tau(   8) = (   1.2848219   0.9754225   0.9484531  )
         9           F   tau(   9) = (   1.2925307   0.7535815   0.2755667  )
        10           F   tau(  10) = (   0.7926799   0.7094637   0.1236185  )
        11           F   tau(  11) = (   0.6981531   0.4041937   0.5409352  )
        12           F   tau(  12) = (   0.6948676   0.7012489   1.5027990  )
        13           F   tau(  13) = (   0.5773832   0.5425236   1.0189148  )
        14           F   tau(  14) = (   0.4039231   1.1323355   1.4362266  )
        15           F   tau(  15) = (   0.2072374   0.6632433   1.3467806  )
        16           F   tau(  16) = (   0.1975593   0.4486186   0.6907260  )

   Crystallographic axes

     site n.     atom                  positions (cryst. coord.)
         1           V   tau(   1) = (  0.7496780  0.5007860  0.2502200  )
         2           V   tau(   2) = (  0.4986690  0.9744030  0.4941870  )
         3           V   tau(   3) = (  0.2645330  0.5199670  0.7447060  )
         4           V   tau(   4) = (  0.0005770  0.0257830  0.0072410  )
         5           O   tau(   5) = (  0.9603850  0.2387120  0.1201070  )
         6           O   tau(   6) = (  0.5400130  0.7625050  0.3792660  )
         7           O   tau(   7) = (  0.4067790  0.7385040  0.6694620  )
         8           F   tau(   8) = (  0.9183030  0.7494900  0.5816310  )
         9           F   tau(   9) = (  0.9276450  0.7443380  0.1689890  )
        10           F   tau(  10) = (  0.4248780  0.7498690  0.0758080  )
        11           F   tau(  11) = (  0.5727170  0.2570890  0.3317240  )
        12           F   tau(  12) = (  0.5781200  0.2419900  0.9215790  )
        13           F   tau(  13) = (  0.4613680  0.2391860  0.6248410  )
        14           F   tau(  14) = (  0.0383630  0.7488580  0.8807540  )
        15           F   tau(  15) = (  0.0834870  0.2558380  0.8259020  )
        16           F   tau(  16) = (  0.0744850  0.2526820  0.4235820  )

     number of k points=     1  Methfessel-Paxton smearing, width (Ry)=  0.0010
                       cart. coord. in units 2pi/alat
        k(    1) = (   0.0000000   0.0000000   0.0000000), wk =   2.0000000

                       cryst. coord.
        k(    1) = (   0.0000000   0.0000000   0.0000000), wk =   2.0000000

     Check: negative core charge=   -0.000009

     Initial potential from superposition of free atoms

     starting charge     132.9951, renormalised to     133.0000

     negative rho (up, down):  1.949E-03 0.000E+00
     Starting wfcs are   88 randomized atomic wfcs
     Checking if some PAW data can be deallocated...

     Self-consistent Calculation

     iteration #  1     ecut=    30.00 Ry     beta= 0.70
     Davidson diagonalization with overlap

     ethr =  1.00E-02,  avg # of iterations =  2.0

     negative rho (up, down):  5.452E-03 0.000E+00

     total energy              =   -1140.77415197 Ry
     estimated scf accuracy    <       4.74816460 Ry

[...]

     total energy              =   -1143.69431057 Ry
     estimated scf accuracy    <       0.00000130 Ry

     iteration # 25     ecut=    30.00 Ry     beta= 0.70
     Davidson diagonalization with overlap

     ethr =  9.79E-10,  avg # of iterations =  1.0

[...]

     End of self-consistent calculation

          k = 0.0000 0.0000 0.0000 (  1990 PWs)   bands (ev):

   -60.9768 -60.9027 -60.6658 -60.5735 -34.9935 -34.8635 -34.7716 -34.7444
   -34.6874 -34.6777 -34.6397 -34.5382 -34.4379 -34.4256 -34.4063 -34.2084
   -19.2038 -18.9364 -18.8617 -18.8110 -18.6721 -18.6269 -18.5187 -18.3823
   -18.2739 -13.5213 -13.4580 -13.2205  -2.4897  -2.2156  -1.9645  -1.9022
    -1.7664  -1.6317  -1.5180  -1.4008  -1.3730  -1.2636  -1.2395  -1.1475
    -0.7226  -0.6649  -0.6052  -0.5787  -0.4287  -0.3046  -0.2366  -0.1721
     0.0135   0.5282   0.6632   0.7417   0.7601   0.9171   0.9756   1.1166
     1.1264   1.2474   1.5513   1.7001   1.7529   1.8644   1.8815   2.1679
     4.7796   4.9211   4.9289   5.3055   5.4326   5.6000   5.7159   6.0008
     6.0852   6.1632   6.2668   6.6214   6.7646   6.9554   7.2420   7.5860

     occupation numbers
     1.0000   1.0000   1.0000   1.0000   1.0000   1.0000   1.0000   1.0000
     1.0000   1.0000   1.0000   1.0000   1.0000   1.0000   1.0000   1.0000
     1.0000   1.0000   1.0000   1.0000   1.0000   1.0000   1.0000   1.0000
     1.0000   1.0000   1.0000   1.0000   1.0000   1.0000   1.0000   1.0000
     1.0000   1.0000   1.0000   1.0000   1.0000   1.0000   1.0000   1.0000
     1.0000   1.0000   1.0000   1.0000   1.0000   1.0000   1.0000   1.0000
     1.0000   1.0000   1.0000   1.0000   1.0000   1.0000   1.0000   1.0000
     1.0000   1.0000   1.0000   1.0000   1.0000   1.0000   1.0000   1.0000
     1.0000   0.9381   0.5619  -0.0000  -0.0000  -0.0000  -0.0000  -0.0000
    -0.0000  -0.0000  -0.0000  -0.0000  -0.0000  -0.0000  -0.0000  -0.0000

     the Fermi energy is     4.9299 ev

!    total energy              =   -1143.69431012 Ry
     estimated scf accuracy    <       0.00000063 Ry
     smearing contrib. (-TS)   =      -0.00031024 Ry
     internal energy E=F+TS    =   -1143.69399988 Ry

     The total energy is F=E-TS. E is the sum of the following terms:
     one-electron contribution =    -695.93304367 Ry
     hartree contribution      =     398.80565949 Ry
     xc contribution           =    -184.02879583 Ry
     ewald contribution        =    -633.94793345 Ry
     one-center paw contrib.   =     -28.58988642 Ry
      -> PAW hartree energy AE =      88.22257935 Ry
      -> PAW hartree energy PS =     -87.92328632 Ry
      -> PAW xc energy AE      =     -51.42073979 Ry
      -> PAW xc energy PS      =      22.53156033 Ry
      -> total E_H with PAW    =     399.10495252 Ry
      -> total E_XC with PAW   =    -212.91797528 Ry

     convergence has been achieved in  25 iterations

     negative rho (up, down):  3.452E-03 0.000E+00

     Forces acting on atoms (cartesian axes, Ry/au):

     atom    1 type  1   force =    -0.00540805   -0.00007238    0.01110619
     atom    2 type  1   force =    -0.03072567   -0.01988662    0.00687303
     atom    3 type  1   force =     0.01054385    0.01229102   -0.01099619
     atom    4 type  1   force =     0.01380547    0.00509375    0.00613484
     atom    5 type  2   force =    -0.02441504    0.02722529    0.01282510
     atom    6 type  2   force =     0.02514088   -0.02958526   -0.01817417
     atom    7 type  2   force =    -0.00619845   -0.00389448   -0.00685932
     atom    8 type  3   force =    -0.00303251    0.00067759    0.00028270
     atom    9 type  3   force =    -0.00943196    0.00199177   -0.00533912
     atom   10 type  3   force =    -0.01742546    0.00667370   -0.00039941
     atom   11 type  3   force =     0.01724671    0.00113095   -0.00057525
     atom   12 type  3   force =     0.01947630    0.00633395   -0.00956834
     atom   13 type  3   force =    -0.00962059    0.02363939    0.01614398
     atom   14 type  3   force =     0.01271110   -0.02056342   -0.01757417
     atom   15 type  3   force =    -0.00985865   -0.01093911    0.02385862
     atom   16 type  3   force =     0.01719205   -0.00011611   -0.00773849
     The non-local contrib.  to forces
     atom    1 type  1   force =     0.00325374   -0.00029872   -0.00612009
     atom    2 type  1   force =    -0.01192502   -0.06681097   -0.08600793
     atom    3 type  1   force =     0.08923176    0.05084206   -0.03328343
     atom    4 type  1   force =     0.01286311    0.08660308    0.06936099
     atom    5 type  2   force =    -0.32025399   -0.23427637   -0.14240561
     atom    6 type  2   force =     0.30694995    0.20166558    0.12117144
     atom    7 type  2   force =    -0.34008434   -0.26812389   -0.19398481
     atom    8 type  3   force =    -0.20572813    0.10219749    0.35329650
     atom    9 type  3   force =    -0.27117050   -0.06954483   -0.31703443
     atom   10 type  3   force =    -0.22268180    0.25108076    0.48625747
     atom   11 type  3   force =     0.30176408    0.10020279    0.28114514
     atom   12 type  3   force =     0.35664514    0.03477665   -0.43077811
     atom   13 type  3   force =    -0.35214809    0.18860853    0.04158258
     atom   14 type  3   force =     0.53012530   -0.12170936   -0.18460124
     atom   15 type  3   force =     0.06468971    0.10569736    0.56348792
     atom   16 type  3   force =     0.19715084   -0.23948302   -0.50951836
     The ionic contribution  to forces
     atom    1 type  1   force =    -0.05340107   -0.08083356   -0.00913547
     atom    2 type  1   force =    -0.19203038    1.26596540    2.00150644
     atom    3 type  1   force =    -1.23514078   -0.83881035    0.81524511
     atom    4 type  1   force =     0.02246545   -1.26940533   -1.51476362
     atom    5 type  2   force =     4.94934514    4.19535256    3.40037597
     atom    6 type  2   force =    -4.83483479   -3.83559598   -3.27536069
     atom    7 type  2   force =     5.95715930    3.65908126    1.65210338
     atom    8 type  3   force =     1.92111634   -0.87380876   -3.52914919
     atom    9 type  3   force =     2.71998357    0.43133430    3.80324479
     atom   10 type  3   force =     2.65628949   -1.82416911   -4.34049964
     atom   11 type  3   force =    -2.81927715   -0.54158031   -3.44577744
     atom   12 type  3   force =    -3.15455317    0.01912211    4.15493188
     atom   13 type  3   force =     4.33702400   -1.01108373    0.13356776
     atom   14 type  3   force =    -5.58528347    0.30167518    0.74882593
     atom   15 type  3   force =    -2.26390316   -1.34521919   -5.02310379
     atom   16 type  3   force =    -2.42495934    1.74797550    4.42798859
     The local contribution  to forces
     atom    1 type  1   force =     0.04500469    0.08152688    0.02675761
     atom    2 type  1   force =     0.16845345   -1.23521751   -1.91797261
     atom    3 type  1   force =     1.17253030    0.81022729   -0.80025722
     atom    4 type  1   force =    -0.01706613    1.20455382    1.46178386
     atom    5 type  2   force =    -4.65589115   -3.93459859   -3.24540592
     atom    6 type  2   force =     4.55523105    3.60466448    3.13597176
     atom    7 type  2   force =    -5.62514466   -3.39667767   -1.46737186
     atom    8 type  3   force =    -1.71807472    0.77209421    3.17675683
     atom    9 type  3   force =    -2.45782859   -0.35956347   -3.49193330
     atom   10 type  3   force =    -2.45136001    1.57997332    3.85329984
     atom   11 type  3   force =     2.53440838    0.44233758    3.16436272
     atom   12 type  3   force =     2.81722252   -0.04741260   -3.73434446
     atom   13 type  3   force =    -3.99457664    0.84657001   -0.15850117
     atom   14 type  3   force =     5.06805798   -0.20081376   -0.58225881
     atom   15 type  3   force =     2.18959677    1.22872843    4.48329180
     atom   16 type  3   force =     2.24516758   -1.50872771   -3.92572096
     The core correction contribution to forces
     atom    1 type  1   force =    -0.00032169   -0.00037580   -0.00028225
     atom    2 type  1   force =     0.00484732    0.01619931    0.00984572
     atom    3 type  1   force =    -0.01623599   -0.01008581    0.00736780
     atom    4 type  1   force =    -0.00446267   -0.01682778   -0.01099642
     atom    5 type  2   force =     0.00242547    0.00032094   -0.00021056
     atom    6 type  2   force =    -0.00232114   -0.00010089    0.00038342
     atom    7 type  2   force =     0.00134500    0.00149260    0.00277270
     atom    8 type  3   force =     0.00000000    0.00000000    0.00000000
     atom    9 type  3   force =     0.00000000    0.00000000    0.00000000
     atom   10 type  3   force =     0.00000000    0.00000000    0.00000000
     atom   11 type  3   force =     0.00000000    0.00000000    0.00000000
     atom   12 type  3   force =     0.00000000    0.00000000    0.00000000
     atom   13 type  3   force =     0.00000000    0.00000000    0.00000000
     atom   14 type  3   force =     0.00000000    0.00000000    0.00000000
     atom   15 type  3   force =     0.00000000    0.00000000    0.00000000
     atom   16 type  3   force =     0.00000000    0.00000000    0.00000000
     The Hubbard contrib.    to forces
     atom    1 type  1   force =     0.00000000    0.00000000    0.00000000
     atom    2 type  1   force =     0.00000000    0.00000000    0.00000000
     atom    3 type  1   force =     0.00000000    0.00000000    0.00000000
     atom    4 type  1   force =     0.00000000    0.00000000    0.00000000
     atom    5 type  2   force =     0.00000000    0.00000000    0.00000000
     atom    6 type  2   force =     0.00000000    0.00000000    0.00000000
     atom    7 type  2   force =     0.00000000    0.00000000    0.00000000
     atom    8 type  3   force =     0.00000000    0.00000000    0.00000000
     atom    9 type  3   force =     0.00000000    0.00000000    0.00000000
     atom   10 type  3   force =     0.00000000    0.00000000    0.00000000
     atom   11 type  3   force =     0.00000000    0.00000000    0.00000000
     atom   12 type  3   force =     0.00000000    0.00000000    0.00000000
     atom   13 type  3   force =     0.00000000    0.00000000    0.00000000
     atom   14 type  3   force =     0.00000000    0.00000000    0.00000000
     atom   15 type  3   force =     0.00000000    0.00000000    0.00000000
     atom   16 type  3   force =     0.00000000    0.00000000    0.00000000
     The SCF correction term to forces
     atom    1 type  1   force =     0.00004710   -0.00009984   -0.00011044
     atom    2 type  1   force =    -0.00008022   -0.00003150   -0.00049542
     atom    3 type  1   force =     0.00014938    0.00010916   -0.00006526
     atom    4 type  1   force =    -0.00000347    0.00016130    0.00075319
     atom    5 type  2   force =    -0.00004969    0.00041809    0.00047440
     atom    6 type  2   force =     0.00010662   -0.00022711   -0.00033692
     atom    7 type  2   force =     0.00051706    0.00032455   -0.00037554
     atom    8 type  3   force =    -0.00035517    0.00018600   -0.00061826
     atom    9 type  3   force =    -0.00042563   -0.00024290    0.00038698
     atom   10 type  3   force =     0.00031768   -0.00021993    0.00054609
     atom   11 type  3   force =     0.00034222    0.00016223   -0.00030251
     atom   12 type  3   force =     0.00015264   -0.00016088    0.00062553
     atom   13 type  3   force =     0.00007096   -0.00046409   -0.00050202
     atom   14 type  3   force =    -0.00019789    0.00027586    0.00046313
     atom   15 type  3   force =    -0.00025115   -0.00015438    0.00018588
     atom   16 type  3   force =    -0.00017620    0.00011046   -0.00048458

     Total force =     0.099263     Total SCF correction =     0.002293

     Computing stress (Cartesian axis) and pressure

     negative rho (up, down):  3.452E-03 0.000E+00
          total   stress  (Ry/bohr**3)                   (kbar)     P=     -299.05
  -0.00193706   0.00006350   0.00006182         -284.95        9.34        9.09
   0.00006350  -0.00198372  -0.00000955            9.34     -291.82       -1.40
   0.00006182  -0.00000955  -0.00217786            9.09       -1.40     -320.37

     kinetic stress (kbar)  24202.14     15.88      8.10
                               15.88  24323.02     54.07
                                8.10     54.07  24211.57

     local   stress (kbar) -11446.82   -693.18    -31.78
                             -693.18 -13051.18    104.12
                              -31.78    104.12 -11405.68

     nonloc. stress (kbar)   1290.50    -16.35     -2.20
                              -16.35   1293.20     -9.38
                               -2.20     -9.38   1296.57

     hartree stress (kbar)  13369.29    161.12     37.68
                              161.12  13912.77   -184.15
                               37.68   -184.15  13312.16

     exc-cor stress (kbar)  -4710.83      2.78     -0.94
                                2.78  -4705.70      3.94
                               -0.94      3.94  -4708.41

     corecor stress (kbar)  -1183.06      0.60     -0.40
                                0.60  -1183.74      0.42
                               -0.40      0.42  -1183.72

     ewald   stress (kbar) -21806.17    538.50     -1.35
                              538.50 -20880.19     29.58
                               -1.35     29.58 -21842.86

     hubbard stress (kbar)      0.00      0.00      0.00
                                0.00      0.00      0.00
                                0.00      0.00      0.00

     DFT-D   stress (kbar)      0.00      0.00      0.00
                                0.00      0.00      0.00
                                0.00      0.00      0.00

     XDM     stress (kbar)      0.00      0.00      0.00
                                0.00      0.00      0.00
                                0.00      0.00      0.00

     dft-nl  stress (kbar)      0.00      0.00      0.00
                                0.00      0.00      0.00
                                0.00      0.00      0.00

     TS-vdW  stress (kbar)      0.00      0.00      0.00
                                0.00      0.00      0.00
                                0.00      0.00      0.00

[...]

                                0.00      0.00      0.00

     Writing all to output data dir new_calculations/myprefix.save/

     General routines

     Parallel routines

     PAW routines

   This run was terminated on:  17:26: 8  20May2023

   JOB DONE.