     Program PWSCF v.7.0 starts on 20May2023 at  8:20:29

     Reading input from espresso_4253.pwi
Warning: card &CELL ignored
Warning: card / ignored

     Current dimensions of program PWSCF are:
     Max number of different atomic species (ntypx) = 10
     Max number of k-points (npk) =  40000
     Max angular momentum in pseudopotentials (lmaxx) =  4

     gamma-point specific algorithms are used
     Message from routine setup:
     using ibrav=0 with symmetry is DISCOURAGED, use correct ibrav instead

     Subspace diagonalization in iterative solution of the eigenvalue problem:
     a serial algorithm will be used

     Using Slab Decomposition

     bravais-lattice index     =            0
     lattice parameter (alat)  =       7.7584  a.u.
     unit-cell volume          =    1400.7945 (a.u.)^3
     number of atoms/cell      =           13
     number of atomic types    =            3
     number of electrons       =       159.00
     number of Kohn-Sham states=           96
     kinetic-energy cutoff     =      30.0000  Ry
     charge density cutoff     =     240.0000  Ry
     scf convergence threshold =      1.0E-06
     mixing beta               =       0.7000
     number of iterations used =            8  plain     mixing
     Exchange-correlation= PBE
                           (   1   4   3   4   0   0   0)

     celldm(1)=   7.758373  celldm(2)=   0.000000  celldm(3)=   0.000000
     celldm(4)=   0.000000  celldm(5)=   0.000000  celldm(6)=   0.000000

     crystal axes: (cart. coord. in units of alat)
               a(1) = (   1.000000   0.000000   0.000000 )
               a(2) = (   0.000000   1.000000   0.000000 )
               a(3) = (  -0.500000  -0.500000   2.999594 )

     reciprocal axes: (cart. coord. in units 2 pi/alat)
               b(1) = (  1.000000  0.000000  0.166689 )
               b(2) = (  0.000000  1.000000  0.166689 )
               b(3) = (  0.000000  0.000000  0.333378 )

     PseudoPot. # 1 for Sr read from file:
     /home/pragov/projects/rrg-bengioy-ad/pragov/crystal_structure_design/SSSP/Sr_pbe_v1.uspp.F.UPF
     MD5 check sum: 6b418c05fbe9db5448babca5e47b7a5b
     Pseudo is Ultrasoft + core correction, Zval = 10.0
     Generated by new atomic code, or converted to UPF format
     Using radial grid of  883 points,  6 beta functions with:
                l(1) =   0
                l(2) =   0
                l(3) =   1
                l(4) =   1
                l(5) =   2
                l(6) =   2
     Q(r) pseudized with  6 coefficients,  rinner =    1.400   1.400   1.400
                                                       1.400   1.400

     PseudoPot. # 2 for Cu read from file:
     /home/pragov/projects/rrg-bengioy-ad/pragov/crystal_structure_design/SSSP/Cu_pbe_v1.2.uspp.F.UPF
     MD5 check sum: 6e991ff952a84172a2a52a1c1e996048
     Pseudo is Ultrasoft + core correction, Zval = 19.0
     Generated by new atomic code, or converted to UPF format
     Using radial grid of  867 points,  6 beta functions with:
                l(1) =   0
                l(2) =   0
                l(3) =   1
                l(4) =   1
                l(5) =   2
                l(6) =   2
     Q(r) pseudized with  8 coefficients,  rinner =    1.150   1.150   1.150
                                                       1.150   1.150

     PseudoPot. # 3 for P  read from file:
     /home/pragov/projects/rrg-bengioy-ad/pragov/crystal_structure_design/SSSP/P.pbe-n-rrkjus_psl.1.0.0.UPF
     MD5 check sum: 8b930f418f0a4573dca56cd030ffe088
     Pseudo is Ultrasoft + core correction, Zval =  5.0
     Generated using "atomic" code by A. Dal Corso  v.5.1
     Using radial grid of 1147 points,  6 beta functions with:
                l(1) =   0
                l(2) =   0
                l(3) =   1
                l(4) =   1
                l(5) =   2
                l(6) =   2
     Q(r) pseudized with 0 coefficients

     atomic species   valence    mass     pseudopotential
        Sr            10.00    87.62000     Sr( 1.00)
        Cu            19.00    63.54600     Cu( 1.00)
        P              5.00    30.97376     P ( 1.00)

     16 Sym. Ops., with inversion, found

                                    s                        frac. trans.

      isym =  1     identity

 cryst.   s( 1) = (     1          0          0      )
                  (     0          1          0      )
                  (     0          0          1      )

 cart.    s( 1) = (  1.0000000  0.0000000 -0.0000000 )
                  (  0.0000000  1.0000000 -0.0000000 )
                  (  0.0000000  0.0000000  1.0000000 )

      isym =  2     180 deg rotation - cart. axis [0,0,1]

[...]

      isym =  8      90 deg rotation - cart. axis [0,0,1]

[...]

      isym =  9     inversion

 cryst.   s( 9) = (    -1          0          0      )
                  (     0         -1          0      )
                  (     0          0         -1      )

 cart.    s( 9) = ( -1.0000000  0.0000000  0.0000000 )
                  (  0.0000000 -1.0000000  0.0000000 )
                  (  0.0000000  0.0000000 -1.0000000 )

      isym = 10     inv. 180 deg rotation - cart. axis [0,0,1]

 cryst.   s(10) = (     1          0          0      )
                  (     0          1          0      )
                  (    -1         -1         -1      )

 cart.    s(10) = (  1.0000000  0.0000000 -0.0000000 )
                  (  0.0000000  1.0000000 -0.0000000 )
                  (  0.0000000  0.0000000 -1.0000000 )

[...]

      isym = 16     inv.  90 deg rotation - cart. axis [0,0,1]

 cryst.   s(16) = (     0         -1          0      )
                  (     1          0          0      )
                  (    -1          0         -1      )

 cart.    s(16) = (  0.0000000  1.0000000 -0.0000000 )
                  ( -1.0000000  0.0000000  0.0000000 )
                  (  0.0000000  0.0000000 -1.0000000 )

   Cartesian axes

     site n.     atom                  positions (alat units)
         1           Sr  tau(   1) = (   0.5000000   0.5000000   0.8934651  )
         2           Sr  tau(   2) = (   0.0000000   0.0000000   2.1061291  )
         3           Cu  tau(   3) = (   0.4999995  -0.0000005   2.6866795  )
         4           Cu  tau(   4) = (  -0.0000005   0.4999995   2.6866795  )
         5           Cu  tau(   5) = (   0.0000005   0.5000005   0.3129147  )
         6           Cu  tau(   6) = (   0.5000005   0.0000005   0.3129147  )
         7           Cu  tau(   7) = (   0.0000000   0.5000000   1.4997971  )
         8           Cu  tau(   8) = (   0.5000000   0.0000000   1.4997971  )
         9           P   tau(   9) = (   0.5000000   0.5000000   0.0000000  )
        10           P   tau(  10) = (   0.4999995   0.4999995   2.3765875  )
        11           P   tau(  11) = (   0.0000005   0.0000005   0.6230067  )
        12           P   tau(  12) = (   0.5000000   0.5000000   1.8101591  )
        13           P   tau(  13) = (   0.0000000   0.0000000   1.1894351  )

   Crystallographic axes

     site n.     atom                  positions (cryst. coord.)
         1           Sr  tau(   1) = (  0.6489310  0.6489310  0.2978620  )
         2           Sr  tau(   2) = (  0.3510690  0.3510690  0.7021380  )
         3           Cu  tau(   3) = (  0.9478400  0.4478400  0.8956810  )
         4           Cu  tau(   4) = (  0.4478400  0.9478400  0.8956810  )
         5           Cu  tau(   5) = (  0.0521600  0.5521600  0.1043190  )
         6           Cu  tau(   6) = (  0.5521600  0.0521600  0.1043190  )
         7           Cu  tau(   7) = (  0.2500000  0.7500000  0.5000000  )
         8           Cu  tau(   8) = (  0.7500000  0.2500000  0.5000000  )
         9           P   tau(   9) = (  0.5000000  0.5000000  0.0000000  )
        10           P   tau(  10) = (  0.8961510  0.8961510  0.7923030  )
        11           P   tau(  11) = (  0.1038490  0.1038490  0.2076970  )
        12           P   tau(  12) = (  0.8017340  0.8017340  0.6034680  )
        13           P   tau(  13) = (  0.1982660  0.1982660  0.3965320  )

     number of k points=     1  Methfessel-Paxton smearing, width (Ry)=  0.0010
                       cart. coord. in units 2pi/alat
        k(    1) = (   0.0000000   0.0000000   0.0000000), wk =   2.0000000

                       cryst. coord.
        k(    1) = (   0.0000000   0.0000000   0.0000000), wk =   2.0000000

     Check: negative core charge=   -0.000002

     Initial potential from superposition of free atoms

     starting charge     152.9319, renormalised to     159.0000

     negative rho (up, down):  1.311E-01 0.000E+00
     Starting wfcs are  124 randomized atomic wfcs

     Self-consistent Calculation

     iteration #  1     ecut=    30.00 Ry     beta= 0.70
     Davidson diagonalization with overlap

     ethr =  1.00E-02,  avg # of iterations =  4.0

     negative rho (up, down):  1.263E-01 0.000E+00

     total energy              =   -2507.27166873 Ry
     estimated scf accuracy    <     144.58274477 Ry

[...]

     c_bands:  2 eigenvalues not converged
     ethr =  1.00E-02,  avg # of iterations = 20.0

[...]

     total energy              =   -2631.80438095 Ry
     estimated scf accuracy    <       0.00000284 Ry

     iteration # 28     ecut=    30.00 Ry     beta= 0.70
     Davidson diagonalization with overlap

     ethr =  1.79E-09,  avg # of iterations =  2.0

[...]

     End of self-consistent calculation

          k = 0.0000 0.0000 0.0000 (  1963 PWs)   bands (ev):

  -101.2429-101.2401-101.2193-101.2171-101.2161-101.2149 -58.6732 -58.6712
   -58.6452 -58.6424 -58.6271 -58.6271 -58.6194 -58.6194 -58.5959 -58.5931
   -58.5903 -58.5900 -58.5887 -58.5885 -58.5430 -58.5427 -58.5407 -58.5405
   -22.0768 -22.0764  -4.5305  -4.4777  -4.1140  -4.1140  -4.1131  -4.1131
    -0.7771   0.0063   0.0141   1.8716   2.3629   5.7675   5.8246   6.7258
     6.8541   6.8542   7.6304   7.6304   7.8930   7.8940   7.8941   7.9017
     7.9802   7.9967   7.9968   8.0626   8.1374   8.2555   8.3107   8.3107
     8.4169   8.7731   8.9751   8.9753   9.0174   9.0412   9.1009   9.2092
     9.2566   9.4168   9.4506   9.4760   9.4970   9.4971   9.7484   9.7484
     9.7857  11.0700  11.0701  11.8811  11.8811  12.1420  12.3532  12.4376
    12.6869  13.2342  13.2342  13.3797  13.9402  14.4268  14.6207  15.1424
    15.5307  15.9997  15.9997  16.7310  16.7720  16.7811  16.8773  17.0869

     occupation numbers
     1.0000   1.0000   1.0000   1.0000   1.0000   1.0000   1.0000   1.0000
     1.0000   1.0000   1.0000   1.0000   1.0000   1.0000   1.0000   1.0000
     1.0000   1.0000   1.0000   1.0000   1.0000   1.0000   1.0000   1.0000
     1.0000   1.0000   1.0000   1.0000   1.0000   1.0000   1.0000   1.0000
     1.0000   1.0000   1.0000   1.0000   1.0000   1.0000   1.0000   1.0000
     1.0000   1.0000   1.0000   1.0000   1.0000   1.0000   1.0000   1.0000
     1.0000   1.0000   1.0000   1.0000   1.0000   1.0000   1.0000   1.0000
     1.0000   1.0000   1.0000   1.0000   1.0000   1.0000   1.0000   1.0000
     1.0000   1.0000   1.0000   1.0000   1.0000   1.0000   1.0000   1.0000
     1.0000   1.0000   1.0000   1.0000   1.0000   1.0000   1.0000   0.5000
    -0.0000  -0.0000  -0.0000  -0.0000  -0.0000  -0.0000  -0.0000  -0.0000
    -0.0000  -0.0000  -0.0000  -0.0000  -0.0000  -0.0000  -0.0000  -0.0000

     the Fermi energy is    12.4376 ev

!    total energy              =   -2631.80438097 Ry
     estimated scf accuracy    <       0.00000034 Ry
     smearing contrib. (-TS)   =      -0.00028209 Ry
     internal energy E=F+TS    =   -2631.80409887 Ry

     The total energy is F=E-TS. E is the sum of the following terms:
     one-electron contribution =   -2349.77098623 Ry
     hartree contribution      =    1250.52517057 Ry
     xc contribution           =    -291.83391299 Ry
     ewald contribution        =   -1240.72437022 Ry

     convergence has been achieved in  28 iterations

     negative rho (up, down):  1.293E-01 0.000E+00

     Forces acting on atoms (cartesian axes, Ry/au):

     atom    1 type  1   force =     0.00000000    0.00000000    0.00750208
     atom    2 type  1   force =     0.00000000    0.00000000   -0.00750208
     atom    3 type  2   force =     0.00000000    0.00000000   -0.03848032
     atom    4 type  2   force =     0.00000000    0.00000000   -0.03848032
     atom    5 type  2   force =     0.00000000    0.00000000    0.03848032
     atom    6 type  2   force =     0.00000000    0.00000000    0.03848032
     atom    7 type  2   force =     0.00000000    0.00000000    0.00000000
     atom    8 type  2   force =     0.00000000    0.00000000    0.00000000
     atom    9 type  3   force =     0.00000000    0.00000000    0.00000000
     atom   10 type  3   force =     0.00000000    0.00000000   -0.09364852
     atom   11 type  3   force =     0.00000000    0.00000000    0.09364852
     atom   12 type  3   force =     0.00000000    0.00000000    0.09281177
     atom   13 type  3   force =     0.00000000    0.00000000   -0.09281177
     The non-local contrib.  to forces
     atom    1 type  1   force =     0.00000000    0.00000000    0.00550249
     atom    2 type  1   force =     0.00000000    0.00000000   -0.00550249
     atom    3 type  2   force =     0.00000000    0.00000000    0.39869145
     atom    4 type  2   force =     0.00000000    0.00000000    0.39869145
     atom    5 type  2   force =     0.00000000    0.00000000   -0.39869145
     atom    6 type  2   force =     0.00000000    0.00000000   -0.39869145
     atom    7 type  2   force =     0.00000000    0.00000000   -0.00000000
     atom    8 type  2   force =     0.00000000    0.00000000    0.00000000
     atom    9 type  3   force =     0.00000000    0.00000000    0.00000000
     atom   10 type  3   force =     0.00000000    0.00000000   -0.10065548
     atom   11 type  3   force =     0.00000000    0.00000000    0.10065548
     atom   12 type  3   force =     0.00000000    0.00000000    0.03087908
     atom   13 type  3   force =     0.00000000    0.00000000   -0.03087908
     The ionic contribution  to forces
     atom    1 type  1   force =     0.00000773    0.00000773   12.41884519
     atom    2 type  1   force =    -0.00000773   -0.00000773  -12.41884519
     atom    3 type  2   force =     0.00001563   -0.00002364  -42.40707678
     atom    4 type  2   force =    -0.00002364    0.00001563  -42.40707678
     atom    5 type  2   force =    -0.00001563    0.00002364   42.40707678
     atom    6 type  2   force =     0.00002364   -0.00001563   42.40707678
     atom    7 type  2   force =    -0.00000101    0.00000101    0.00000000
     atom    8 type  2   force =     0.00000101   -0.00000101    0.00000000
     atom    9 type  3   force =     0.00000000    0.00000000   -0.00000000
     atom   10 type  3   force =     0.00000379    0.00000379  -16.94878935
     atom   11 type  3   force =    -0.00000379   -0.00000379   16.94878935
     atom   12 type  3   force =     0.00000123    0.00000123    6.40909253
     atom   13 type  3   force =    -0.00000123   -0.00000123   -6.40909253
     The local contribution  to forces
     atom    1 type  1   force =    -0.00001206   -0.00000891  -12.41712387
     atom    2 type  1   force =     0.00001275    0.00001144   12.41691591
     atom    3 type  2   force =    -0.00000225    0.00001688   41.96894692
     atom    4 type  2   force =     0.00000563   -0.00000983   41.96927155
     atom    5 type  2   force =     0.00003686   -0.00002346  -41.96954696
     atom    6 type  2   force =    -0.00003158    0.00002716  -41.96935015
     atom    7 type  2   force =     0.00001410   -0.00000703    0.00092796
     atom    8 type  2   force =    -0.00001858    0.00000275    0.00074603
     atom    9 type  3   force =    -0.00000575    0.00000006   -0.00024165
     atom   10 type  3   force =    -0.00000329   -0.00000381   16.95096639
     atom   11 type  3   force =     0.00000995    0.00000604  -16.95112995
     atom   12 type  3   force =    -0.00000634   -0.00000622   -6.34579346
     atom   13 type  3   force =     0.00000584   -0.00000168    6.34600273
     The core correction contribution to forces
     atom    1 type  1   force =     0.00000012   -0.00000025   -0.00030278
     atom    2 type  1   force =     0.00000023    0.00000020    0.00029640
     atom    3 type  2   force =    -0.00000018   -0.00000003   -0.00068013
     atom    4 type  2   force =    -0.00000003   -0.00000017   -0.00068013
     atom    5 type  2   force =     0.00000017    0.00000003    0.00068016
     atom    6 type  2   force =     0.00000006    0.00000017    0.00068004
     atom    7 type  2   force =    -0.00000011    0.00000010    0.00000005
     atom    8 type  2   force =     0.00000013   -0.00000010   -0.00000002
     atom    9 type  3   force =    -0.00000014   -0.00000003   -0.00000561
     atom   10 type  3   force =    -0.00000010   -0.00000000    0.00475651
     atom   11 type  3   force =     0.00000017    0.00000012   -0.00475726
     atom   12 type  3   force =    -0.00000015   -0.00000011   -0.00094883
     atom   13 type  3   force =    -0.00000007   -0.00000007    0.00095039
     The Hubbard contrib.    to forces
     atom    1 type  1   force =     0.00000000    0.00000000    0.00000000
     atom    2 type  1   force =     0.00000000    0.00000000    0.00000000
     atom    3 type  2   force =     0.00000000    0.00000000    0.00000000
     atom    4 type  2   force =     0.00000000    0.00000000    0.00000000
     atom    5 type  2   force =     0.00000000    0.00000000    0.00000000
     atom    6 type  2   force =     0.00000000    0.00000000    0.00000000
     atom    7 type  2   force =     0.00000000    0.00000000    0.00000000
     atom    8 type  2   force =     0.00000000    0.00000000    0.00000000
     atom    9 type  3   force =     0.00000000    0.00000000    0.00000000
     atom   10 type  3   force =     0.00000000    0.00000000    0.00000000
     atom   11 type  3   force =     0.00000000    0.00000000    0.00000000
     atom   12 type  3   force =     0.00000000    0.00000000    0.00000000
     atom   13 type  3   force =     0.00000000    0.00000000    0.00000000
     The SCF correction term to forces
     atom    1 type  1   force =     0.00000308   -0.00000207    0.00052125
     atom    2 type  1   force =    -0.00000195   -0.00000096   -0.00042650
     atom    3 type  2   force =    -0.00002667    0.00001492    0.00167188
     atom    4 type  2   force =     0.00003861   -0.00001412    0.00130442
     atom    5 type  2   force =    -0.00003221    0.00001115   -0.00099746
     atom    6 type  2   force =     0.00001784   -0.00001219   -0.00125116
     atom    7 type  2   force =    -0.00002129    0.00000818   -0.00093715
     atom    8 type  2   force =     0.00003417    0.00000448   -0.00067531
     atom    9 type  3   force =     0.00000507    0.00000070    0.00014596
     atom   10 type  3   force =    -0.00000214   -0.00000124    0.00006204
     atom   11 type  3   force =    -0.00000363    0.00000072    0.00007953
     atom   12 type  3   force =     0.00000465    0.00000220   -0.00040299
     atom   13 type  3   force =    -0.00000602    0.00000070    0.00022128

     Total force =     0.201999     Total SCF correction =     0.003016

     Computing stress (Cartesian axis) and pressure

     negative rho (up, down):  1.293E-01 0.000E+00
          total   stress  (Ry/bohr**3)                   (kbar)     P=     -266.25
  -0.00112758   0.00000000   0.00000000         -165.87        0.00        0.00
   0.00000000  -0.00112758   0.00000000            0.00     -165.87        0.00
   0.00000000   0.00000000  -0.00317468            0.00        0.00     -467.01

     kinetic stress (kbar)  22609.94      0.00     -0.00
                                0.00  22609.94     -0.00
                               -0.00     -0.00  22204.78

     local   stress (kbar) -55368.10      0.00     -0.02
                                0.00 -55368.12     -0.02
                               -0.02     -0.02  19992.93

     nonloc. stress (kbar)  16550.28      0.00     -0.00
                                0.00  16550.28     -0.00
                               -0.00     -0.00  16327.01

     hartree stress (kbar)  56082.61     -0.00      0.01
                               -0.00  56082.62      0.01
                                0.01      0.01  19159.25

     exc-cor stress (kbar)  -6450.72      0.00     -0.00
                                0.00  -6450.72     -0.00
                               -0.00     -0.00  -6451.61

     corecor stress (kbar)  -2863.84     -0.00     -0.00
                               -0.00  -2863.84      0.00
                               -0.00      0.00  -2856.20

     ewald   stress (kbar) -30726.04      0.00      0.01
                                0.00 -30726.04      0.01
                                0.01      0.01 -68843.17

     hubbard stress (kbar)      0.00      0.00      0.00
                                0.00      0.00      0.00
                                0.00      0.00      0.00

     DFT-D   stress (kbar)      0.00      0.00      0.00
                                0.00      0.00      0.00
                                0.00      0.00      0.00

     XDM     stress (kbar)      0.00      0.00      0.00
                                0.00      0.00      0.00
                                0.00      0.00      0.00

     dft-nl  stress (kbar)      0.00      0.00      0.00
                                0.00      0.00      0.00
                                0.00      0.00      0.00

     TS-vdW  stress (kbar)      0.00      0.00      0.00
                                0.00      0.00      0.00
                                0.00      0.00      0.00

[...]

                                0.00      0.00      0.00

     Writing all to output data dir new_calculations/myprefix.save/

     General routines

     Parallel routines

   This run was terminated on:   8:21: 9  20May2023

   JOB DONE.