     Program PWSCF v.7.0 starts on 20May2023 at 14:18:23

     Reading input from espresso_14439.pwi
Warning: card &CELL ignored
Warning: card / ignored

     Current dimensions of program PWSCF are:
     Max number of different atomic species (ntypx) = 10
     Max number of k-points (npk) =  40000
     Max angular momentum in pseudopotentials (lmaxx) =  4
     file O.pbe-n-kjpaw_psl.0.1.UPF: wavefunction(s)  2P renormalized

     gamma-point specific algorithms are used

     Subspace diagonalization in iterative solution of the eigenvalue problem:
     a serial algorithm will be used

     Using Slab Decomposition

     bravais-lattice index     =            0
     lattice parameter (alat)  =      12.2614  a.u.
     unit-cell volume          =    2255.0853 (a.u.)^3
     number of atoms/cell      =           11
     number of atomic types    =            3
     number of electrons       =        89.00
     number of Kohn-Sham states=           54
     kinetic-energy cutoff     =      30.0000  Ry
     charge density cutoff     =     240.0000  Ry
     scf convergence threshold =      1.0E-06
     mixing beta               =       0.7000
     number of iterations used =            8  plain     mixing
     Exchange-correlation= SLA  PW   PBX  PBC
                           (   1   4   3   4   0   0   0)

     celldm(1)=  12.261372  celldm(2)=   0.000000  celldm(3)=   0.000000
     celldm(4)=   0.000000  celldm(5)=   0.000000  celldm(6)=   0.000000

     crystal axes: (cart. coord. in units of alat)
               a(1) = (   1.000000   0.000000   0.000000 )
               a(2) = (   0.095576   1.007232   0.000000 )
               a(3) = (   0.188792   0.442754   1.214552 )

     reciprocal axes: (cart. coord. in units 2 pi/alat)
               b(1) = (  1.000000 -0.094890 -0.120850 )
               b(2) = (  0.000000  0.992819 -0.361923 )
               b(3) = (  0.000000  0.000000  0.823349 )

     PseudoPot. # 1 for Re read from file:
     /home/pragov/projects/rrg-bengioy-ad/pragov/crystal_structure_design/SSSP/Re_pbe_v1.2.uspp.F.UPF
     MD5 check sum: 85f993410f3e006da9d71c142b4ad953
     Pseudo is Ultrasoft + core correction, Zval = 15.0
     Generated by new atomic code, or converted to UPF format
     Using radial grid of  981 points,  8 beta functions with:
                l(1) =   0
                l(2) =   0
                l(3) =   1
                l(4) =   1
                l(5) =   2
                l(6) =   2
                l(7) =   3
                l(8) =   3
     Q(r) pseudized with  8 coefficients,  rinner =    1.150   1.150   1.150
                                                       1.150   1.150   1.150
                                                       1.150

     PseudoPot. # 2 for Cl read from file:
     /home/pragov/projects/rrg-bengioy-ad/pragov/crystal_structure_design/SSSP/cl_pbe_v1.4.uspp.F.UPF
     MD5 check sum: fc6f6913ecf08c9257cb748ef0700058
     Pseudo is Ultrasoft + core correction, Zval =  7.0
     Generated by new atomic code, or converted to UPF format
     Using radial grid of  909 points,  6 beta functions with:
                l(1) =   0
                l(2) =   0
                l(3) =   1
                l(4) =   1
                l(5) =   2
                l(6) =   2
     Q(r) pseudized with  8 coefficients,  rinner =    1.300   1.300   1.300
                                                       1.300   1.300

     PseudoPot. # 3 for O  read from file:
     /home/pragov/projects/rrg-bengioy-ad/pragov/crystal_structure_design/SSSP/O.pbe-n-kjpaw_psl.0.1.UPF
     MD5 check sum: 0234752ac141de4415c5fc33072bef88
     Pseudo is Projector augmented-wave + core cor, Zval =  6.0
     Generated using "atomic" code by A. Dal Corso  v.5.0.99 svn rev. 10869
     Shape of augmentation charge: BESSEL
     Using radial grid of 1095 points,  4 beta functions with:
                l(1) =   0
                l(2) =   0
                l(3) =   1
                l(4) =   1
     Q(r) pseudized with 0 coefficients

     atomic species   valence    mass     pseudopotential
        Re            15.00   186.20700     Re( 1.00)
        Cl             7.00    35.45000     Cl( 1.00)
        O              6.00    15.99900     O ( 1.00)

     No symmetry found

                                    s                        frac. trans.

      isym =  1     identity

 cryst.   s( 1) = (     1          0          0      )
                  (     0          1          0      )
                  (     0          0          1      )

 cart.    s( 1) = (  1.0000000  0.0000000 -0.0000000 )
                  (  0.0000000  1.0000000  0.0000000 )
                  (  0.0000000  0.0000000  1.0000000 )

   Cartesian axes

     site n.     atom                  positions (alat units)
         1           Re  tau(   1) = (   0.5175075   0.7115976   0.6858744  )
         2           Re  tau(   2) = (   0.1045117   1.0007452   0.0041040  )
         3           Cl  tau(   3) = (   1.1906892   1.3109938   0.9066180  )
         4           Cl  tau(   4) = (   0.1957698   0.2041060   0.2168400  )
         5           Cl  tau(   5) = (   0.5738503   1.2311764   1.2004448  )
         6           Cl  tau(   6) = (   1.0102197   0.7243547   1.1329376  )
         7           Cl  tau(   7) = (   0.6898870   0.4831543   0.4982492  )
         8           O   tau(   8) = (   0.4805753   0.6261895   0.9368397  )
         9           O   tau(   9) = (   0.9514263   0.8740121   0.1713793  )
        10           O   tau(  10) = (   0.2797925   0.7544593   0.5763401  )
        11           O   tau(  11) = (   0.6527913   0.9396809   0.6893906  )

   Crystallographic axes

     site n.     atom                  positions (cryst. coord.)
         1           Re  tau(   1) = (  0.3670960  0.4582540  0.5647140  )
         2           Re  tau(   2) = (  0.0090550  0.9920740  0.0033790  )
         3           Cl  tau(   3) = (  0.9567240  0.9734540  0.7464630  )
         4           Cl  tau(   4) = (  0.1501970  0.1241610  0.1785350  )
         5           Cl  tau(   5) = (  0.3119500  0.7878670  0.9883850  )
         6           Cl  tau(   6) = (  0.8045700  0.3091170  0.9328030  )
         7           Cl  tau(   7) = (  0.5838270  0.2993570  0.4102330  )
         8           O   tau(   8) = (  0.3079390  0.2826290  0.7713460  )
         9           O   tau(   9) = (  0.8477800  0.8057100  0.1411050  )
        10           O   tau(  10) = (  0.1385510  0.5404510  0.4745290  )
        11           O   tau(  11) = (  0.4803120  0.6834270  0.5676090  )

     number of k points=     1  Methfessel-Paxton smearing, width (Ry)=  0.0010
                       cart. coord. in units 2pi/alat
        k(    1) = (   0.0000000   0.0000000   0.0000000), wk =   2.0000000

                       cryst. coord.
        k(    1) = (   0.0000000   0.0000000   0.0000000), wk =   2.0000000

     Check: negative core charge=   -0.000005

     Initial potential from superposition of free atoms

     starting charge      87.9999, renormalised to      89.0000

     negative rho (up, down):  3.396E-01 0.000E+00
     Starting wfcs are   62 randomized atomic wfcs
     Checking if some PAW data can be deallocated...

     Self-consistent Calculation

     iteration #  1     ecut=    30.00 Ry     beta= 0.70
     Davidson diagonalization with overlap

     ethr =  1.00E-02,  avg # of iterations =  2.0

     negative rho (up, down):  3.673E-01 0.000E+00

     total energy              =    -712.87486611 Ry
     estimated scf accuracy    <       2.53870828 Ry

[...]

     total energy              =    -714.47732858 Ry
     estimated scf accuracy    <       0.00000251 Ry

     iteration # 12     ecut=    30.00 Ry     beta= 0.70
     Davidson diagonalization with overlap

     ethr =  2.82E-09,  avg # of iterations =  2.0

[...]

     End of self-consistent calculation

          k = 0.0000 0.0000 0.0000 (  3136 PWs)   bands (ev):

   -81.4562 -80.9915 -43.4741 -43.4599 -43.3751 -43.3394 -42.5786 -42.5682
   -18.2327 -17.8308 -17.4200 -17.3413 -14.7274 -14.1565 -13.5523 -13.5019
   -13.4887  -5.2762  -4.9376  -4.9175  -4.7580  -4.6612  -4.5672  -4.5199
    -4.4723  -4.1377  -4.0941  -3.8729  -3.4822  -2.6419  -2.6167  -2.4496
    -2.3475  -2.2411  -1.8241  -1.7220  -1.4788  -1.4215  -1.1639  -1.1298
    -1.0625  -0.8953  -0.8899  -0.2108   1.1626   2.4143   2.4859   2.6851
     2.7384   3.5346   4.1802   4.2019   5.0612   5.1923

     occupation numbers
     1.0000   1.0000   1.0000   1.0000   1.0000   1.0000   1.0000   1.0000
     1.0000   1.0000   1.0000   1.0000   1.0000   1.0000   1.0000   1.0000
     1.0000   1.0000   1.0000   1.0000   1.0000   1.0000   1.0000   1.0000
     1.0000   1.0000   1.0000   1.0000   1.0000   1.0000   1.0000   1.0000
     1.0000   1.0000   1.0000   1.0000   1.0000   1.0000   1.0000   1.0000
     1.0000   1.0000   1.0000   1.0000   0.5000  -0.0000  -0.0000  -0.0000
    -0.0000  -0.0000  -0.0000  -0.0000  -0.0000  -0.0000

     the Fermi energy is     1.1626 ev

!    total energy              =    -714.47732852 Ry
     estimated scf accuracy    <       0.00000087 Ry
     smearing contrib. (-TS)   =      -0.00028209 Ry
     internal energy E=F+TS    =    -714.47704643 Ry

     The total energy is F=E-TS. E is the sum of the following terms:
     one-electron contribution =    -509.08136285 Ry
     hartree contribution      =     270.75688693 Ry
     xc contribution           =    -180.86292851 Ry
     ewald contribution        =    -257.12351237 Ry
     one-center paw contrib.   =     -38.16612963 Ry
      -> PAW hartree energy AE =     114.51863879 Ry
      -> PAW hartree energy PS =    -114.15443022 Ry
      -> PAW xc energy AE      =     -68.10558052 Ry
      -> PAW xc energy PS      =      29.57524233 Ry
      -> total E_H with PAW    =     271.12109550 Ry
      -> total E_XC with PAW   =    -219.39326670 Ry

     convergence has been achieved in  12 iterations

     negative rho (up, down):  3.460E-01 0.000E+00

     Forces acting on atoms (cartesian axes, Ry/au):

     atom    1 type  1   force =    -0.00955704    0.01431382    0.00867688
     atom    2 type  1   force =    -0.02212604   -0.01653114    0.02520066
     atom    3 type  2   force =     0.00354664    0.00018708    0.00102606
     atom    4 type  2   force =     0.00189543   -0.00141601   -0.00602413
     atom    5 type  2   force =     0.00001907    0.00657311   -0.00211191
     atom    6 type  2   force =     0.00784597   -0.00434344    0.00026486
     atom    7 type  2   force =    -0.00152353   -0.00012703    0.00251147
     atom    8 type  3   force =     0.00168217    0.00603543   -0.02130650
     atom    9 type  3   force =     0.01323825    0.01444136   -0.01762159
     atom   10 type  3   force =     0.01925728   -0.00475499    0.00971466
     atom   11 type  3   force =    -0.01427819   -0.01437818   -0.00033046
     The non-local contrib.  to forces
     atom    1 type  1   force =     0.12840095   -0.17718729   -0.11624047
     atom    2 type  1   force =     0.06822358    0.06137342   -0.08192299
     atom    3 type  2   force =     0.07294823    0.08976766    0.20914814
     atom    4 type  2   force =    -0.12625433   -0.14732762   -0.15074235
     atom    5 type  2   force =    -0.19961117    0.13497991    0.02120639
     atom    6 type  2   force =     0.13192073   -0.20698267    0.05195093
     atom    7 type  2   force =    -0.12884396    0.15543484    0.13847295
     atom    8 type  3   force =     0.08716923    0.44185665   -1.42289970
     atom    9 type  3   force =     0.98381431    0.83532345   -1.10131425
     atom   10 type  3   force =     1.51950032   -0.28682957    0.66258780
     atom   11 type  3   force =    -0.82619530   -1.45770837   -0.03846795
     The ionic contribution  to forces
     atom    1 type  1   force =     5.42680690   -3.31827706   -6.66915765
     atom    2 type  1   force =     1.06392251    2.03216385   -0.57284729
     atom    3 type  2   force =    -5.09756860   -5.93649088   -9.74256647
     atom    4 type  2   force =     5.48657995    7.32888550    8.17421302
     atom    5 type  2   force =     9.05494941   -8.04766330    0.41230040
     atom    6 type  2   force =    -6.62648561    9.64635752   -0.54077456
     atom    7 type  2   force =     5.74227304   -8.12702928   -6.78493763
     atom    8 type  3   force =     1.62859170   -2.85303533   12.00296025
     atom    9 type  3   force =   -11.19954468   -8.80891479   11.83674984
     atom   10 type  3   force =   -15.34343096    2.70879410   -7.57914785
     atom   11 type  3   force =     9.86390633   15.37520968   -0.53679207
     The local contribution  to forces
     atom    1 type  1   force =    -5.57908775    3.52750229    6.80462877
     atom    2 type  1   force =    -1.15829949   -2.11348711    0.68538646
     atom    3 type  2   force =     5.02942835    5.84851034    9.53808297
     atom    4 type  2   force =    -5.36062835   -7.18568513   -8.03235958
     atom    5 type  2   force =    -8.85902247    7.92149304   -0.43509987
     atom    6 type  2   force =     6.50475762   -9.44759367    0.48978738
     atom    7 type  2   force =    -5.61694769    7.97348159    6.65098621
     atom    8 type  3   force =    -1.71385296    2.42075786  -10.61319238
     atom    9 type  3   force =    10.23642957    7.99430739  -10.76148303
     atom   10 type  3   force =    13.85556051   -2.42929119    6.93168612
     atom   11 type  3   force =    -9.05907162  -13.94435329    0.57454834
     The core correction contribution to forces
     atom    1 type  1   force =     0.01233499   -0.01895931   -0.01079776
     atom    2 type  1   force =     0.00380460    0.00293697   -0.00525047
     atom    3 type  2   force =    -0.00144372   -0.00174430   -0.00413577
     atom    4 type  2   force =     0.00241645    0.00295468    0.00305993
     atom    5 type  2   force =     0.00399087   -0.00247062   -0.00051518
     atom    6 type  2   force =    -0.00261596    0.00425610   -0.00095202
     atom    7 type  2   force =     0.00193913   -0.00208900   -0.00208186
     atom    8 type  3   force =    -0.00042046   -0.00371339    0.01185244
     atom    9 type  3   force =    -0.00772077   -0.00663098    0.00875508
     atom   10 type  3   force =    -0.01278747    0.00240972   -0.00551558
     atom   11 type  3   force =     0.00687852    0.01225625    0.00034802
     The Hubbard contrib.    to forces
     atom    1 type  1   force =     0.00000000    0.00000000    0.00000000
     atom    2 type  1   force =     0.00000000    0.00000000    0.00000000
     atom    3 type  2   force =     0.00000000    0.00000000    0.00000000
     atom    4 type  2   force =     0.00000000    0.00000000    0.00000000
     atom    5 type  2   force =     0.00000000    0.00000000    0.00000000
     atom    6 type  2   force =     0.00000000    0.00000000    0.00000000
     atom    7 type  2   force =     0.00000000    0.00000000    0.00000000
     atom    8 type  3   force =     0.00000000    0.00000000    0.00000000
     atom    9 type  3   force =     0.00000000    0.00000000    0.00000000
     atom   10 type  3   force =     0.00000000    0.00000000    0.00000000
     atom   11 type  3   force =     0.00000000    0.00000000    0.00000000
     The SCF correction term to forces
     atom    1 type  1   force =     0.00191979    0.00119390    0.00024554
     atom    2 type  1   force =     0.00015468    0.00044044   -0.00016349
     atom    3 type  2   force =     0.00011431    0.00010296    0.00049874
     atom    4 type  2   force =    -0.00028636   -0.00028472   -0.00019360
     atom    5 type  2   force =    -0.00035564    0.00019280   -0.00000210
     atom    6 type  2   force =     0.00020110   -0.00042200    0.00025467
     atom    7 type  2   force =    -0.00001212    0.00003353    0.00007335
     atom    8 type  3   force =     0.00012658    0.00012834   -0.00002556
     atom    9 type  3   force =     0.00019175    0.00031502   -0.00032768
     atom   10 type  3   force =     0.00034680    0.00012067    0.00010573
     atom   11 type  3   force =     0.00013580    0.00017626    0.00003475

     Total force =     0.063623     Total SCF correction =     0.002611

     Computing stress (Cartesian axis) and pressure

     negative rho (up, down):  3.460E-01 0.000E+00
          total   stress  (Ry/bohr**3)                   (kbar)     P=      -94.66
  -0.00064894  -0.00002710   0.00000888          -95.46       -3.99        1.31
  -0.00002710  -0.00063732   0.00001819           -3.99      -93.75        2.68
   0.00000888   0.00001819  -0.00064426            1.31        2.68      -94.77

     kinetic stress (kbar)   9729.98      0.76     40.38
                                0.76   9728.58     -1.44
                               40.38     -1.44   9709.92

     local   stress (kbar)  -7838.93  -1169.50    881.66
                            -1169.50  -5731.64   3590.93
                              881.66   3590.93  -9849.14

     nonloc. stress (kbar)    258.17     -2.96     -3.33
                               -2.96    260.87      2.01
                               -3.33      2.01    261.36

     hartree stress (kbar)   5908.12    494.35   -420.22
                              494.35   4946.60  -1623.00
                             -420.22  -1623.00   6807.46

     exc-cor stress (kbar)   3483.21      0.60      0.95
                                0.60   3482.81     -0.57
                                0.95     -0.57   3483.02

     corecor stress (kbar)  -6050.65      0.32     -1.15
                                0.32  -6050.68     -0.40
                               -1.15     -0.40  -6050.21

     ewald   stress (kbar)  -5585.37    672.43   -496.99
                              672.43  -6730.30  -1964.84
                             -496.99  -1964.84  -4457.17

     hubbard stress (kbar)      0.00      0.00      0.00
                                0.00      0.00      0.00
                                0.00      0.00      0.00

     DFT-D   stress (kbar)      0.00      0.00      0.00
                                0.00      0.00      0.00
                                0.00      0.00      0.00

     XDM     stress (kbar)      0.00      0.00      0.00
                                0.00      0.00      0.00
                                0.00      0.00      0.00

     dft-nl  stress (kbar)      0.00      0.00      0.00
                                0.00      0.00      0.00
                                0.00      0.00      0.00

     TS-vdW  stress (kbar)      0.00      0.00      0.00
                                0.00      0.00      0.00
                                0.00      0.00      0.00

[...]

                                0.00      0.00      0.00

     Writing all to output data dir new_calculations/myprefix.save/

     General routines

     Parallel routines

     PAW routines

   This run was terminated on:  14:18:52  20May2023

   JOB DONE.