     Program PWSCF v.7.0 starts on 21May2023 at 10:30:26

     Reading input from espresso_24624.pwi
Warning: card &CELL ignored
Warning: card / ignored

     Current dimensions of program PWSCF are:
     Max number of different atomic species (ntypx) = 10
     Max number of k-points (npk) =  40000
     Max angular momentum in pseudopotentials (lmaxx) =  4

     gamma-point specific algorithms are used
     Message from routine setup:
     using ibrav=0 with symmetry is DISCOURAGED, use correct ibrav instead

     Subspace diagonalization in iterative solution of the eigenvalue problem:
     a serial algorithm will be used

     Using Slab Decomposition

     bravais-lattice index     =            0
     lattice parameter (alat)  =      14.7919  a.u.
     unit-cell volume          =    2381.2188 (a.u.)^3
     number of atoms/cell      =           10
     number of atomic types    =            3
     number of electrons       =        80.00
     number of Kohn-Sham states=           48
     kinetic-energy cutoff     =      30.0000  Ry
     charge density cutoff     =     240.0000  Ry
     scf convergence threshold =      1.0E-06
     mixing beta               =       0.7000
     number of iterations used =            8  plain     mixing
     Exchange-correlation=  SLA  PW   PBX  PBC
                           (   1   4   3   4   0   0   0)

     celldm(1)=  14.791926  celldm(2)=   0.000000  celldm(3)=   0.000000
     celldm(4)=   0.000000  celldm(5)=   0.000000  celldm(6)=   0.000000

     crystal axes: (cart. coord. in units of alat)
               a(1) = (   1.000000   0.000000   0.000000 )
               a(2) = (   0.000000   1.000000   0.000000 )
               a(3) = (   0.000000   0.000000   0.735741 )

     reciprocal axes: (cart. coord. in units 2 pi/alat)
               b(1) = (  1.000000  0.000000  0.000000 )
               b(2) = (  0.000000  1.000000  0.000000 )
               b(3) = (  0.000000  0.000000  1.359173 )

     PseudoPot. # 1 for Rb read from file:
     /home/pragov/projects/rrg-bengioy-ad/pragov/crystal_structure_design/SSSP/Rb_ONCV_PBE-1.0.oncvpsp.upf
     MD5 check sum: 55a5172d6bfbce6759a58e35d43f6aa9
     Pseudo is Norm-conserving, Zval =  9.0
     Generated using ONCVPSP code by D. R. Hamann
     Using radial grid of 2308 points,  6 beta functions with:
                l(1) =   0
                l(2) =   0
                l(3) =   1
                l(4) =   1
                l(5) =   2
                l(6) =   2

     PseudoPot. # 2 for Sr read from file:
     /home/pragov/projects/rrg-bengioy-ad/pragov/crystal_structure_design/SSSP/Sr_pbe_v1.uspp.F.UPF
     MD5 check sum: 6b418c05fbe9db5448babca5e47b7a5b
     Pseudo is Ultrasoft + core correction, Zval = 10.0
     Generated by new atomic code, or converted to UPF format
     Using radial grid of  883 points,  6 beta functions with:
                l(1) =   0
                l(2) =   0
                l(3) =   1
                l(4) =   1
                l(5) =   2
                l(6) =   2
     Q(r) pseudized with  6 coefficients,  rinner =    1.400   1.400   1.400
                                                       1.400   1.400

     PseudoPot. # 3 for Cl read from file:
     /home/pragov/projects/rrg-bengioy-ad/pragov/crystal_structure_design/SSSP/cl_pbe_v1.4.uspp.F.UPF
     MD5 check sum: fc6f6913ecf08c9257cb748ef0700058
     Pseudo is Ultrasoft + core correction, Zval =  7.0
     Generated by new atomic code, or converted to UPF format
     Using radial grid of  909 points,  6 beta functions with:
                l(1) =   0
                l(2) =   0
                l(3) =   1
                l(4) =   1
                l(5) =   2
                l(6) =   2
     Q(r) pseudized with  8 coefficients,  rinner =    1.300   1.300   1.300
                                                       1.300   1.300

     atomic species   valence    mass     pseudopotential
        Rb             9.00    85.46780     Rb( 1.00)
        Sr            10.00    87.62000     Sr( 1.00)
        Cl             7.00    35.45000     Cl( 1.00)

     16 Sym. Ops., with inversion, found ( 8 have fractional translation)

                                    s                        frac. trans.

      isym =  1     identity

 cryst.   s( 1) = (     1          0          0      )
                  (     0          1          0      )
                  (     0          0          1      )

 cart.    s( 1) = (  1.0000000  0.0000000  0.0000000 )
                  (  0.0000000  1.0000000  0.0000000 )
                  (  0.0000000  0.0000000  1.0000000 )

      isym =  2     180 deg rotation - cart. axis [0,0,1]

[...]

 cryst.   s( 3) = (    -1          0          0      )    f =(  0.5000000 )
                  (     0          1          0      )       ( -0.5000000 )
                  (     0          0         -1      )       (  0.0000000 )

 cart.    s( 3) = ( -1.0000000  0.0000000  0.0000000 )    f =(  0.5000000 )
                  (  0.0000000  1.0000000  0.0000000 )       ( -0.5000000 )
                  (  0.0000000  0.0000000 -1.0000000 )       (  0.0000000 )

[...]

 cryst.   s( 6) = (     0         -1          0      )    f =(  0.5000000 )
                  (    -1          0          0      )       (  0.5000000 )
                  (     0          0         -1      )       (  0.0000000 )

 cart.    s( 6) = (  0.0000000 -1.0000000  0.0000000 )    f =(  0.5000000 )
                  ( -1.0000000  0.0000000  0.0000000 )       (  0.5000000 )
                  (  0.0000000  0.0000000 -1.0000000 )       (  0.0000000 )

[...]

      isym =  8      90 deg rotation - cart. axis [0,0,1]

[...]

      isym =  9     inversion

 cryst.   s( 9) = (    -1          0          0      )
                  (     0         -1          0      )
                  (     0          0         -1      )

 cart.    s( 9) = ( -1.0000000  0.0000000  0.0000000 )
                  (  0.0000000 -1.0000000  0.0000000 )
                  (  0.0000000  0.0000000 -1.0000000 )

      isym = 10     inv. 180 deg rotation - cart. axis [0,0,1]

 cryst.   s(10) = (     1          0          0      )
                  (     0          1          0      )
                  (     0          0         -1      )

 cart.    s(10) = (  1.0000000  0.0000000  0.0000000 )
                  (  0.0000000  1.0000000  0.0000000 )
                  (  0.0000000  0.0000000 -1.0000000 )

[...]

 cryst.   s(11) = (     1          0          0      )    f =(  0.5000000 )
                  (     0         -1          0      )       (  0.5000000 )
                  (     0          0          1      )       (  0.0000000 )

 cart.    s(11) = (  1.0000000  0.0000000  0.0000000 )    f =(  0.5000000 )
                  (  0.0000000 -1.0000000  0.0000000 )       (  0.5000000 )
                  (  0.0000000  0.0000000  1.0000000 )       (  0.0000000 )

[...]

 cryst.   s(14) = (     0          1          0      )    f =(  0.5000000 )
                  (     1          0          0      )       ( -0.5000000 )
                  (     0          0          1      )       (  0.0000000 )

 cart.    s(14) = (  0.0000000  1.0000000  0.0000000 )    f =(  0.5000000 )
                  (  1.0000000  0.0000000  0.0000000 )       ( -0.5000000 )
                  (  0.0000000  0.0000000  1.0000000 )       (  0.0000000 )

[...]

      isym = 16     inv.  90 deg rotation - cart. axis [0,0,1]

 cryst.   s(16) = (     0         -1          0      )
                  (     1          0          0      )
                  (     0          0         -1      )

 cart.    s(16) = (  0.0000000  1.0000000  0.0000000 )
                  ( -1.0000000  0.0000000  0.0000000 )
                  (  0.0000000  0.0000000 -1.0000000 )

   Cartesian axes

     site n.     atom                  positions (alat units)
         1           Rb  tau(   1) = (   0.5000000   0.0000000   0.0000000  )
         2           Rb  tau(   2) = (   0.0000000   0.5000000   0.0000000  )
         3           Sr  tau(   3) = (   0.0000000   0.0000000   0.3678707  )
         4           Sr  tau(   4) = (   0.5000000   0.5000000   0.3678707  )
         5           Cl  tau(   5) = (   0.0000000   0.0000000   0.0000000  )
         6           Cl  tau(   6) = (   0.5000000   0.5000000   0.0000000  )
         7           Cl  tau(   7) = (   0.6737490   0.1737490   0.3678707  )
         8           Cl  tau(   8) = (   0.3262510   0.8262510   0.3678707  )
         9           Cl  tau(   9) = (   0.1737490   0.3262510   0.3678707  )
        10           Cl  tau(  10) = (   0.8262510   0.6737490   0.3678707  )

   Crystallographic axes

     site n.     atom                  positions (cryst. coord.)
         1           Rb  tau(   1) = (  0.5000000  0.0000000  0.0000000  )
         2           Rb  tau(   2) = (  0.0000000  0.5000000  0.0000000  )
         3           Sr  tau(   3) = (  0.0000000  0.0000000  0.5000000  )
         4           Sr  tau(   4) = (  0.5000000  0.5000000  0.5000000  )
         5           Cl  tau(   5) = (  0.0000000  0.0000000  0.0000000  )
         6           Cl  tau(   6) = (  0.5000000  0.5000000  0.0000000  )
         7           Cl  tau(   7) = (  0.6737490  0.1737490  0.5000000  )
         8           Cl  tau(   8) = (  0.3262510  0.8262510  0.5000000  )
         9           Cl  tau(   9) = (  0.1737490  0.3262510  0.5000000  )
        10           Cl  tau(  10) = (  0.8262510  0.6737490  0.5000000  )

     number of k points=     1  Methfessel-Paxton smearing, width (Ry)=  0.0010
                       cart. coord. in units 2pi/alat
        k(    1) = (   0.0000000   0.0000000   0.0000000), wk =   2.0000000

                       cryst. coord.
        k(    1) = (   0.0000000   0.0000000   0.0000000), wk =   2.0000000

     Check: negative core charge=   -0.000002

     Initial potential from superposition of free atoms

     starting charge      79.8831, renormalised to      80.0000

     negative rho (up, down):  2.167E-01 0.000E+00
     Starting wfcs are   60 randomized atomic wfcs

     Self-consistent Calculation

     iteration #  1     ecut=    30.00 Ry     beta= 0.70
     Davidson diagonalization with overlap

     ethr =  1.00E-02,  avg # of iterations =  4.0

     Threshold (ethr) on eigenvalues was too large:
     Diagonalizing with lowered threshold

     Davidson diagonalization with overlap

[...]

     negative rho (up, down):  2.242E-01 0.000E+00

     total energy              =    -439.22258880 Ry
     estimated scf accuracy    <       0.54498929 Ry

[...]

     total energy              =    -439.41010224 Ry
     estimated scf accuracy    <       0.00002011 Ry

     iteration #  6     ecut=    30.00 Ry     beta= 0.70
     Davidson diagonalization with overlap

     ethr =  2.51E-08,  avg # of iterations =  4.0

[...]

     End of self-consistent calculation

          k = 0.0000 0.0000 0.0000 (  3296 PWs)   bands (ev):

   -31.5070 -31.5062 -23.3933 -23.3926 -13.7329 -13.7328 -13.5877 -13.5855
   -13.5641 -13.5641 -11.3611 -11.2327 -10.9720 -10.9576 -10.9280 -10.9278
    -7.5147  -7.5146  -7.4449  -7.4448  -7.4404  -7.4342  -0.4976  -0.2682
    -0.1064   0.1210   0.1211   0.1713   0.4110   0.4111   0.6124   0.6295
     0.6890   0.7519   0.7519   0.9664   0.9664   0.9672   1.0584   1.0584
     5.9846   7.0141   7.0141   7.6161   7.6891   8.1514   8.1560   8.1560

     occupation numbers
     1.0000   1.0000   1.0000   1.0000   1.0000   1.0000   1.0000   1.0000
     1.0000   1.0000   1.0000   1.0000   1.0000   1.0000   1.0000   1.0000
     1.0000   1.0000   1.0000   1.0000   1.0000   1.0000   1.0000   1.0000
     1.0000   1.0000   1.0000   1.0000   1.0000   1.0000   1.0000   1.0000
     1.0000   1.0000   1.0000   1.0000   1.0000   1.0000   1.0000   1.0000
    -0.0000  -0.0000  -0.0000  -0.0000  -0.0000  -0.0000  -0.0000  -0.0000

     the Fermi energy is     3.3002 ev

!    total energy              =    -439.41011009 Ry
     estimated scf accuracy    <       0.00000066 Ry
     smearing contrib. (-TS)   =       0.00000000 Ry
     internal energy E=F+TS    =    -439.41011009 Ry

     The total energy is F=E-TS. E is the sum of the following terms:
     one-electron contribution =    -134.05028819 Ry
     hartree contribution      =      91.08290145 Ry
     xc contribution           =    -108.61431868 Ry
     ewald contribution        =    -287.82840467 Ry

     convergence has been achieved in   6 iterations

     negative rho (up, down):  2.229E-01 0.000E+00

     Forces acting on atoms (cartesian axes, Ry/au):

     atom    1 type  1   force =     0.00000000    0.00000000    0.00000000
     atom    2 type  1   force =     0.00000000    0.00000000   -0.00000000
     atom    3 type  2   force =     0.00000000    0.00000000    0.00000000
     atom    4 type  2   force =     0.00000000    0.00000000    0.00000000
     atom    5 type  3   force =     0.00000000    0.00000000   -0.00000000
     atom    6 type  3   force =     0.00000000    0.00000000    0.00000000
     atom    7 type  3   force =    -0.00173317   -0.00173317   -0.00000000
     atom    8 type  3   force =     0.00173317    0.00173317    0.00000000
     atom    9 type  3   force =    -0.00173317    0.00173317    0.00000000
     atom   10 type  3   force =     0.00173317   -0.00173317   -0.00000000
     The non-local contrib.  to forces
     atom    1 type  1   force =     0.00000000    0.00000000    0.00000000
     atom    2 type  1   force =     0.00000000    0.00000000    0.00000000
     atom    3 type  2   force =     0.00000000    0.00000000   -0.00000000
     atom    4 type  2   force =     0.00000000    0.00000000   -0.00000000
     atom    5 type  3   force =     0.00000000    0.00000000   -0.00000000
     atom    6 type  3   force =     0.00000000    0.00000000   -0.00000000
     atom    7 type  3   force =     0.01655456    0.01655456   -0.00000000
     atom    8 type  3   force =    -0.01655456   -0.01655456    0.00000000
     atom    9 type  3   force =     0.01655456   -0.01655456    0.00000000
     atom   10 type  3   force =    -0.01655456    0.01655456    0.00000000
     The ionic contribution  to forces
     atom    1 type  1   force =    -0.00000000   -0.00000000    0.00000000
     atom    2 type  1   force =     0.00000000    0.00000000    0.00000000
     atom    3 type  2   force =    -0.00000000   -0.00000000    0.00000000
     atom    4 type  2   force =    -0.00000000   -0.00000000    0.00000000
     atom    5 type  3   force =    -0.00000000   -0.00000000   -0.00000000
     atom    6 type  3   force =    -0.00000000   -0.00000000   -0.00000000
     atom    7 type  3   force =    -0.50068840   -0.50068840    0.00000000
     atom    8 type  3   force =     0.50068840    0.50068840    0.00000000
     atom    9 type  3   force =    -0.50068840    0.50068840    0.00000000
     atom   10 type  3   force =     0.50068840   -0.50068840    0.00000000
     The local contribution  to forces
     atom    1 type  1   force =     0.00001830   -0.00001617   -0.00000104
     atom    2 type  1   force =    -0.00005721   -0.00000776   -0.00001003
     atom    3 type  2   force =    -0.00012136   -0.00003146    0.00005580
     atom    4 type  2   force =     0.00002099    0.00002929    0.00000476
     atom    5 type  3   force =    -0.00001564   -0.00000659   -0.00003170
     atom    6 type  3   force =     0.00005894    0.00000103    0.00000521
     atom    7 type  3   force =     0.48252439    0.48244731    0.00000060
     atom    8 type  3   force =    -0.48243444   -0.48247492    0.00000665
     atom    9 type  3   force =     0.48251926   -0.48256086    0.00001404
     atom   10 type  3   force =    -0.48254850    0.48256635   -0.00001913
     The core correction contribution to forces
     atom    1 type  1   force =     0.00000000    0.00000000    0.00000000
     atom    2 type  1   force =     0.00000000    0.00000000    0.00000000
     atom    3 type  2   force =    -0.00000111   -0.00000106    0.00000227
     atom    4 type  2   force =    -0.00000053    0.00000068   -0.00000015
     atom    5 type  3   force =     0.00000208   -0.00000096   -0.00000125
     atom    6 type  3   force =     0.00000064   -0.00000131   -0.00000009
     atom    7 type  3   force =    -0.00026879   -0.00027062   -0.00000119
     atom    8 type  3   force =     0.00027006    0.00027031   -0.00000030
     atom    9 type  3   force =    -0.00026861    0.00026875    0.00000078
     atom   10 type  3   force =     0.00026851   -0.00026973   -0.00000083
     The Hubbard contrib.    to forces
     atom    1 type  1   force =     0.00000000    0.00000000    0.00000000
     atom    2 type  1   force =     0.00000000    0.00000000    0.00000000
     atom    3 type  2   force =     0.00000000    0.00000000    0.00000000
     atom    4 type  2   force =     0.00000000    0.00000000    0.00000000
     atom    5 type  3   force =     0.00000000    0.00000000    0.00000000
     atom    6 type  3   force =     0.00000000    0.00000000    0.00000000
     atom    7 type  3   force =     0.00000000    0.00000000    0.00000000
     atom    8 type  3   force =     0.00000000    0.00000000    0.00000000
     atom    9 type  3   force =     0.00000000    0.00000000    0.00000000
     atom   10 type  3   force =     0.00000000    0.00000000    0.00000000
     The SCF correction term to forces
     atom    1 type  1   force =    -0.00003573    0.00000399   -0.00000959
     atom    2 type  1   force =     0.00004909   -0.00001194   -0.00002678
     atom    3 type  2   force =     0.00010763    0.00002207   -0.00003902
     atom    4 type  2   force =    -0.00002936   -0.00003576    0.00000645
     atom    5 type  3   force =     0.00002514   -0.00000077    0.00001709
     atom    6 type  3   force =    -0.00003751   -0.00000790   -0.00000722
     atom    7 type  3   force =     0.00014907    0.00021566   -0.00000105
     atom    8 type  3   force =    -0.00023097   -0.00018957   -0.00000110
     atom    9 type  3   force =     0.00015075   -0.00011769   -0.00001180
     atom   10 type  3   force =    -0.00013162    0.00009933    0.00002010

     Total force =     0.004902     Total SCF correction =     0.000495
     SCF correction compared to forces is large: reduce conv_thr to get better values

     Computing stress (Cartesian axis) and pressure

     negative rho (up, down):  2.229E-01 0.000E+00
          total   stress  (Ry/bohr**3)                   (kbar)     P=       15.32
   0.00000531   0.00000000   0.00000000            0.78        0.00        0.00
   0.00000000   0.00000531   0.00000000            0.00        0.78        0.00
   0.00000000   0.00000000   0.00030183            0.00        0.00       44.40

     kinetic stress (kbar)   5658.22      0.00      0.00
                                0.00   5658.22      0.00
                                0.00      0.00   5695.56

     local   stress (kbar)  -3778.53     -0.00     -0.00
                               -0.00  -3778.53      0.00
                               -0.00      0.00  -4388.65

     nonloc. stress (kbar)   4023.91      0.00      0.00
                                0.00   4023.91      0.00
                                0.00      0.00   4046.20

     hartree stress (kbar)   1818.55      0.00     -0.00
                                0.00   1818.55     -0.00
                               -0.00     -0.00   1989.76

     exc-cor stress (kbar)    976.74      0.00      0.00
                                0.00    976.74     -0.00
                                0.00     -0.00    977.10

     corecor stress (kbar)  -2629.64     -0.00     -0.00
                               -0.00  -2629.64      0.00
                               -0.00      0.00  -2631.28

     ewald   stress (kbar)  -6068.47      0.00      0.00
                                0.00  -6068.47      0.00
                                0.00      0.00  -5644.30

     hubbard stress (kbar)      0.00      0.00      0.00
                                0.00      0.00      0.00
                                0.00      0.00      0.00

     DFT-D   stress (kbar)      0.00      0.00      0.00
                                0.00      0.00      0.00
                                0.00      0.00      0.00

     XDM     stress (kbar)      0.00      0.00      0.00
                                0.00      0.00      0.00
                                0.00      0.00      0.00

     dft-nl  stress (kbar)      0.00      0.00      0.00
                                0.00      0.00      0.00
                                0.00      0.00      0.00

     TS-vdW  stress (kbar)      0.00      0.00      0.00
                                0.00      0.00      0.00
                                0.00      0.00      0.00

[...]

                                0.00      0.00      0.00

     Writing all to output data dir new_calculations/myprefix.save/

     General routines

     Parallel routines

   This run was terminated on:  10:30:43  21May2023

   JOB DONE.