     Program PWSCF v.7.0 starts on 21May2023 at 17:25:38

     Reading input from espresso_21131.pwi
Warning: card &CELL ignored
Warning: card / ignored

     Current dimensions of program PWSCF are:
     Max number of different atomic species (ntypx) = 10
     Max number of k-points (npk) =  40000
     Max angular momentum in pseudopotentials (lmaxx) =  4

     gamma-point specific algorithms are used
     Message from routine setup:
     using ibrav=0 with symmetry is DISCOURAGED, use correct ibrav instead

     Subspace diagonalization in iterative solution of the eigenvalue problem:
     a serial algorithm will be used

     Using Slab Decomposition

     bravais-lattice index     =            0
     lattice parameter (alat)  =      14.0789  a.u.
     unit-cell volume          =    2182.6564 (a.u.)^3
     number of atoms/cell      =           20
     number of atomic types    =            3
     number of electrons       =       160.00
     number of Kohn-Sham states=           96
     kinetic-energy cutoff     =      30.0000  Ry
     charge density cutoff     =     240.0000  Ry
     scf convergence threshold =      1.0E-06
     mixing beta               =       0.7000
     number of iterations used =            8  plain     mixing
     Exchange-correlation= PBE
                           (   1   4   3   4   0   0   0)

     celldm(1)=  14.078933  celldm(2)=   0.000000  celldm(3)=   0.000000
     celldm(4)=   0.000000  celldm(5)=   0.000000  celldm(6)=   0.000000

     crystal axes: (cart. coord. in units of alat)
               a(1) = (   1.000000   0.000000   0.000000 )
               a(2) = (   0.105554   0.994414   0.000000 )
               a(3) = (   0.226834   0.204031   0.786519 )

     reciprocal axes: (cart. coord. in units 2 pi/alat)
               b(1) = (  1.000000 -0.106147 -0.260868 )
               b(2) = (  0.000000  1.005618 -0.260868 )
               b(3) = (  0.000000  0.000000  1.271425 )

     PseudoPot. # 1 for Ca read from file:
     /home/pragov/projects/rrg-bengioy-ad/pragov/crystal_structure_design/SSSP/Ca_pbe_v1.uspp.F.UPF
     MD5 check sum: 403a4c14b9e4d4dfdc3024c9a3812218
     Pseudo is Ultrasoft + core correction, Zval = 10.0
     Generated by new atomic code, or converted to UPF format
     Using radial grid of  845 points,  6 beta functions with:
                l(1) =   0
                l(2) =   0
                l(3) =   1
                l(4) =   1
                l(5) =   2
                l(6) =   2
     Q(r) pseudized with  8 coefficients,  rinner =    1.500   1.500   1.500
                                                       1.500   1.500

     PseudoPot. # 2 for Re read from file:
     /home/pragov/projects/rrg-bengioy-ad/pragov/crystal_structure_design/SSSP/Re_pbe_v1.2.uspp.F.UPF
     MD5 check sum: 85f993410f3e006da9d71c142b4ad953
     Pseudo is Ultrasoft + core correction, Zval = 15.0
     Generated by new atomic code, or converted to UPF format
     Using radial grid of  981 points,  8 beta functions with:
                l(1) =   0
                l(2) =   0
                l(3) =   1
                l(4) =   1
                l(5) =   2
                l(6) =   2
                l(7) =   3
                l(8) =   3
     Q(r) pseudized with  8 coefficients,  rinner =    1.150   1.150   1.150
                                                       1.150   1.150   1.150
                                                       1.150

     PseudoPot. # 3 for N  read from file:
     /home/pragov/projects/rrg-bengioy-ad/pragov/crystal_structure_design/SSSP/N.pbe-n-radius_5.UPF
     MD5 check sum: 16739722b17309cd8fe442a2ace49922
     Pseudo is Ultrasoft + core correction, Zval =  5.0
     Generated using "atomic" code by A. Dal Corso  v.5.1
     Using radial grid of 1085 points,  4 beta functions with:
                l(1) =   0
                l(2) =   0
                l(3) =   1
                l(4) =   1
     Q(r) pseudized with 0 coefficients

     atomic species   valence    mass     pseudopotential
        Ca            10.00    40.07800     Ca( 1.00)
        Re            15.00   186.20700     Re( 1.00)
        N              5.00    14.00700     N ( 1.00)

      2 Sym. Ops., with inversion, found

                                    s                        frac. trans.

      isym =  1     identity

 cryst.   s( 1) = (     1          0          0      )
                  (     0          1          0      )
                  (     0          0          1      )

 cart.    s( 1) = (  1.0000000  0.0000000 -0.0000000 )
                  (  0.0000000  1.0000000 -0.0000000 )
                  (  0.0000000  0.0000000  1.0000000 )

      isym =  2     inversion

 cryst.   s( 2) = (    -1          0          0      )
                  (     0         -1          0      )
                  (     0          0         -1      )

 cart.    s( 2) = ( -1.0000000 -0.0000000  0.0000000 )
                  (  0.0000000 -1.0000000  0.0000000 )
                  (  0.0000000  0.0000000 -1.0000000 )

   Cartesian axes

     site n.     atom                  positions (alat units)
         1           Ca  tau(   1) = (   1.0913878   0.2405615   0.5898891  )
         2           Ca  tau(   2) = (   0.5392195   0.8544428   0.5898891  )
         3           Ca  tau(   3) = (   0.2410008   0.9578831   0.1966297  )
         4           Ca  tau(   4) = (   0.7931691   0.3440018   0.1966297  )
         5           Re  tau(   5) = (   0.7681618   0.8480586   0.2149477  )
         6           Re  tau(   6) = (   0.2945677   0.4220746   0.1783117  )
         7           Re  tau(   7) = (   0.5642268   0.3503859   0.5715711  )
         8           Re  tau(   8) = (   1.0378209   0.7763700   0.6082071  )
         9           N   tau(   9) = (   0.5925080   0.5443129   0.7369288  )
        10           N   tau(  10) = (   0.1114368   0.2939801   0.2655051  )
        11           N   tau(  11) = (   0.9148709   1.0166456   0.1277542  )
        12           N   tau(  12) = (   0.4175177   0.1817990   0.6587645  )
        13           N   tau(  13) = (   0.7398806   0.6541316   0.0495900  )
        14           N   tau(  14) = (   1.1071498   0.5557019   0.6522994  )
        15           N   tau(  15) = (   0.2252387   0.6427427   0.1342194  )
        16           N   tau(  16) = (   1.2209518   0.9044644   0.5210136  )
        17           N   tau(  17) = (   0.5560444   0.9402927   0.2590400  )
        18           N   tau(  18) = (   0.8419920   0.7687165   0.4428494  )
        19           N   tau(  19) = (   0.7763441   0.2581518   0.5274788  )
        20           N   tau(  20) = (   0.4903965   0.4297280   0.3436694  )

   Crystallographic axes

     site n.     atom                  positions (cryst. coord.)
         1           Ca  tau(   1) = (  0.9119700  0.0880300  0.7500000  )
         2           Ca  tau(   2) = (  0.2946400  0.7053600  0.7500000  )
         3           Ca  tau(   3) = (  0.0880300  0.9119700  0.2500000  )
         4           Ca  tau(   4) = (  0.7053600  0.2946400  0.2500000  )
         5           Re  tau(   5) = (  0.6220700  0.7967500  0.2732900  )
         6           Re  tau(   6) = (  0.2032500  0.3779300  0.2267100  )
         7           Re  tau(   7) = (  0.3779300  0.2032500  0.7267100  )
         8           Re  tau(   8) = (  0.7967500  0.6220700  0.7732900  )
         9           N   tau(   9) = (  0.3424900  0.3551300  0.9369500  )
        10           N   tau(  10) = (  0.0109700  0.2263700  0.3375700  )
        11           N   tau(  11) = (  0.7736300  0.9890300  0.1624300  )
        12           N   tau(  12) = (  0.2263700  0.0109700  0.8375700  )
        13           N   tau(  13) = (  0.6575100  0.6448700  0.0630500  )
        14           N   tau(  14) = (  0.8780000  0.3886600  0.8293500  )
        15           N   tau(  15) = (  0.1220000  0.6113400  0.1706500  )
        16           N   tau(  16) = (  0.9890300  0.7736300  0.6624300  )
        17           N   tau(  17) = (  0.3886600  0.8780000  0.3293500  )
        18           N   tau(  18) = (  0.6448700  0.6575100  0.5630500  )
        19           N   tau(  19) = (  0.6113400  0.1220000  0.6706500  )
        20           N   tau(  20) = (  0.3551300  0.3424900  0.4369500  )

     number of k points=     1  Methfessel-Paxton smearing, width (Ry)=  0.0010
                       cart. coord. in units 2pi/alat
        k(    1) = (   0.0000000   0.0000000   0.0000000), wk =   2.0000000

                       cryst. coord.
        k(    1) = (   0.0000000   0.0000000   0.0000000), wk =   2.0000000

     Check: negative core charge=   -0.000002

     Initial potential from superposition of free atoms

     starting charge     157.9779, renormalised to     160.0000

     negative rho (up, down):  5.293E-01 0.000E+00
     Starting wfcs are  140 randomized atomic wfcs

     Self-consistent Calculation

     iteration #  1     ecut=    30.00 Ry     beta= 0.70
     Davidson diagonalization with overlap

     ethr =  1.00E-02,  avg # of iterations =  2.0

     negative rho (up, down):  5.996E-01 0.000E+00

     total energy              =   -1299.51448566 Ry
     estimated scf accuracy    <       9.60064426 Ry

[...]

     total energy              =   -1305.20887930 Ry
     estimated scf accuracy    <       0.00000837 Ry

     iteration # 14     ecut=    30.00 Ry     beta= 0.70
     Davidson diagonalization with overlap

     ethr =  4.43E-09,  avg # of iterations =  2.0

[...]

     End of self-consistent calculation

          k = 0.0000 0.0000 0.0000 (  3029 PWs)   bands (ev):

   -73.3255 -73.3247 -73.3243 -73.3235 -35.3105 -35.3097 -35.2933 -35.2926
   -35.2766 -35.2756 -35.2654 -35.2644 -35.2496 -35.2489 -35.2231 -35.2222
   -31.8605 -31.8598 -31.2321 -31.2159 -12.9702 -12.9680 -12.9324 -12.9292
   -12.8839 -12.8812 -12.4317 -12.3671 -12.3222 -12.3044 -12.2924 -12.2368
    -6.9252  -6.6593  -6.0461  -5.9976  -5.5793  -5.5738  -5.5132  -5.3189
    -5.1909  -5.0642  -4.9986  -4.9749   1.8181   1.8689   1.9405   1.9629
     2.5435   2.6815   2.7801   2.9919   3.1245   3.2867   3.4205   3.6320
     3.6419   3.7518   3.8027   3.8814   4.0147   4.0948   4.4272   4.5727
     4.6172   4.7605   5.1618   5.5187   5.5343   5.7778   5.8225   6.1408
     6.3880   6.4332   6.6305   6.8551   6.8554   6.9601   7.1265   7.2519
     9.2290   9.3378   9.8704   9.9047  10.1691  10.2698  10.2825  10.8326
    10.8619  11.1607  11.2742  11.4134  11.4600  11.6138  12.0116  12.3275

     occupation numbers
     1.0000   1.0000   1.0000   1.0000   1.0000   1.0000   1.0000   1.0000
     1.0000   1.0000   1.0000   1.0000   1.0000   1.0000   1.0000   1.0000
     1.0000   1.0000   1.0000   1.0000   1.0000   1.0000   1.0000   1.0000
     1.0000   1.0000   1.0000   1.0000   1.0000   1.0000   1.0000   1.0000
     1.0000   1.0000   1.0000   1.0000   1.0000   1.0000   1.0000   1.0000
     1.0000   1.0000   1.0000   1.0000   1.0000   1.0000   1.0000   1.0000
     1.0000   1.0000   1.0000   1.0000   1.0000   1.0000   1.0000   1.0000
     1.0000   1.0000   1.0000   1.0000   1.0000   1.0000   1.0000   1.0000
     1.0000   1.0000   1.0000   1.0000   1.0000   1.0000   1.0000   1.0000
     1.0000   1.0000   1.0000   1.0000   1.0000   1.0000   1.0000   1.0000
    -0.0000  -0.0000  -0.0000  -0.0000  -0.0000  -0.0000  -0.0000  -0.0000
    -0.0000  -0.0000  -0.0000  -0.0000  -0.0000  -0.0000  -0.0000  -0.0000

     the Fermi energy is     8.4358 ev

!    total energy              =   -1305.20887966 Ry
     estimated scf accuracy    <       0.00000094 Ry
     smearing contrib. (-TS)   =       0.00000000 Ry
     internal energy E=F+TS    =   -1305.20887966 Ry

     The total energy is F=E-TS. E is the sum of the following terms:
     one-electron contribution =    -527.25149815 Ry
     hartree contribution      =     315.29407358 Ry
     xc contribution           =    -322.19823910 Ry
     ewald contribution        =    -771.05321599 Ry

     convergence has been achieved in  14 iterations

     negative rho (up, down):  5.472E-01 0.000E+00

     Forces acting on atoms (cartesian axes, Ry/au):

     atom    1 type  1   force =     0.01370935   -0.01530092   -0.00001655
     atom    2 type  1   force =    -0.00623610    0.00693294   -0.00000781
     atom    3 type  1   force =    -0.01370935    0.01530092    0.00001655
     atom    4 type  1   force =     0.00623610   -0.00693294    0.00000781
     atom    5 type  2   force =     0.00284567    0.00526170   -0.00374301
     atom    6 type  2   force =    -0.00557993   -0.00247000    0.00349313
     atom    7 type  2   force =    -0.00284567   -0.00526170    0.00374301
     atom    8 type  2   force =     0.00557993    0.00247000   -0.00349313
     atom    9 type  3   force =    -0.00042388    0.00801648    0.00128047
     atom   10 type  3   force =     0.01950872   -0.00158969   -0.01261251
     atom   11 type  3   force =    -0.00048982   -0.01958709    0.01263085
     atom   12 type  3   force =     0.00048982    0.01958709   -0.01263085
     atom   13 type  3   force =     0.00042388   -0.00801648   -0.00128047
     atom   14 type  3   force =    -0.01301316    0.01720265   -0.00323655
     atom   15 type  3   force =     0.01301316   -0.01720265    0.00323655
     atom   16 type  3   force =    -0.01950872    0.00158969    0.01261251
     atom   17 type  3   force =     0.01571455   -0.01474516   -0.00321954
     atom   18 type  3   force =    -0.00789700    0.00128978   -0.00131176
     atom   19 type  3   force =    -0.01571455    0.01474516    0.00321954
     atom   20 type  3   force =     0.00789700   -0.00128978    0.00131176
     The non-local contrib.  to forces
     atom    1 type  1   force =     0.01237091   -0.01380289   -0.00000850
     atom    2 type  1   force =     0.04190611   -0.04660170    0.00000391
     atom    3 type  1   force =    -0.01237091    0.01380289    0.00000850
     atom    4 type  1   force =    -0.04190611    0.04660170   -0.00000391
     atom    5 type  2   force =     0.05678995   -0.18227796   -0.00678685
     atom    6 type  2   force =     0.17516515   -0.07600043    0.00636424
     atom    7 type  2   force =    -0.05678995    0.18227796    0.00678685
     atom    8 type  2   force =    -0.17516515    0.07600043   -0.00636424
     atom    9 type  3   force =    -0.39274311   -0.31081118    0.24661809
     atom   10 type  3   force =     0.55908214    0.36882000   -0.25289400
     atom   11 type  3   force =    -0.42578058   -0.51705196    0.25288880
     atom   12 type  3   force =     0.42578058    0.51705196   -0.25288880
     atom   13 type  3   force =     0.39274311    0.31081118   -0.24661809
     atom   14 type  3   force =    -0.22581523    0.77370226   -0.10753655
     atom   15 type  3   force =     0.22581523   -0.77370226    0.10753655
     atom   16 type  3   force =    -0.55908214   -0.36882000    0.25289400
     atom   17 type  3   force =     0.74554290   -0.30621330   -0.10753877
     atom   18 type  3   force =     0.35053609    0.35771522   -0.24665032
     atom   19 type  3   force =    -0.74554290    0.30621330    0.10753877
     atom   20 type  3   force =    -0.35053609   -0.35771522    0.24665032
     The ionic contribution  to forces
     atom    1 type  1   force =    -0.63761109    0.70887360    0.00000000
     atom    2 type  1   force =    -0.36899921    0.41024035    0.00000000
     atom    3 type  1   force =     0.63761109   -0.70887360   -0.00000000
     atom    4 type  1   force =     0.36899921   -0.41024035   -0.00000000
     atom    5 type  2   force =    -0.34045041   -0.89930832   -1.83954434
     atom    6 type  2   force =     0.93022032    0.24362286    1.83954434
     atom    7 type  2   force =     0.34045042    0.89930832    1.83954434
     atom    8 type  2   force =    -0.93022032   -0.24362286   -1.83954434
     atom    9 type  3   force =     3.80137143    2.03720837   -2.06814377
     atom   10 type  3   force =    -6.38215352   -3.62207342    2.89205517
     atom   11 type  3   force =     4.27550118    5.96417547   -2.89205517
     atom   12 type  3   force =    -4.27550118   -5.96417547    2.89205517
     atom   13 type  3   force =    -3.80137143   -2.03720837    2.06814377
     atom   14 type  3   force =     3.24478044   -8.35635623    0.59252625
     atom   15 type  3   force =    -3.24478044    8.35635623   -0.59252625
     atom   16 type  3   force =     6.38215352    3.62207342   -2.89205517
     atom   17 type  3   force =    -7.96717424    4.10870105    0.59252625
     atom   18 type  3   force =    -2.42707784   -3.56509970    2.06814377
     atom   19 type  3   force =     7.96717424   -4.10870105   -0.59252625
     atom   20 type  3   force =     2.42707784    3.56509970   -2.06814377
     The local contribution  to forces
     atom    1 type  1   force =     0.63891785   -0.71031567   -0.00002497
     atom    2 type  1   force =     0.32046799   -0.35651257   -0.00007503
     atom    3 type  1   force =    -0.63770112    0.70957928    0.00010461
     atom    4 type  1   force =    -0.32093742    0.35668864   -0.00007986
     atom    5 type  2   force =     0.27167314    1.11766617    1.84338484
     atom    6 type  2   force =    -1.13979223   -0.15344578   -1.84435985
     atom    7 type  2   force =    -0.27349804   -1.11713369   -1.84224951
     atom    8 type  2   force =     1.14049756    0.15425780    1.84323979
     atom    9 type  3   force =    -3.41232800   -1.72098998    1.82469277
     atom   10 type  3   force =     5.84629730    3.25395115   -2.65349514
     atom   11 type  3   force =    -3.85292407   -5.46996470    2.65332462
     atom   12 type  3   force =     3.85303718    5.46984621   -2.65333913
     atom   13 type  3   force =     3.41208010    1.72113960   -1.82467798
     atom   14 type  3   force =    -3.03289680    7.60466110   -0.48885116
     atom   15 type  3   force =     3.03320067   -7.60453195    0.48870885
     atom   16 type  3   force =    -5.84564477   -3.25388973    2.65321262
     atom   17 type  3   force =     7.24159200   -3.81872663   -0.48880724
     atom   18 type  3   force =     2.07133771    3.21165277   -1.82469254
     atom   19 type  3   force =    -7.24234133    3.81889500    0.48904103
     atom   20 type  3   force =    -2.07165990   -3.21154424    1.82480672
     The core correction contribution to forces
     atom    1 type  1   force =     0.00043438   -0.00048339   -0.00000050
     atom    2 type  1   force =    -0.00019460    0.00021480    0.00000009
     atom    3 type  1   force =    -0.00042971    0.00048181    0.00000046
     atom    4 type  1   force =     0.00019366   -0.00021530   -0.00000035
     atom    5 type  2   force =     0.01321690   -0.02964980   -0.00103213
     atom    6 type  2   force =     0.02809247   -0.01629289    0.00101740
     atom    7 type  2   force =    -0.01325566    0.02965316    0.00105341
     atom    8 type  2   force =    -0.02808051    0.01632514   -0.00104130
     atom    9 type  3   force =     0.00306199    0.00251705   -0.00185080
     atom   10 type  3   force =    -0.00347717   -0.00230611    0.00157444
     atom   11 type  3   force =     0.00266031    0.00321425   -0.00157448
     atom   12 type  3   force =    -0.00266031   -0.00321476    0.00157447
     atom   13 type  3   force =    -0.00306162   -0.00251642    0.00185070
     atom   14 type  3   force =     0.00112181   -0.00476942    0.00060767
     atom   15 type  3   force =    -0.00112204    0.00476929   -0.00060768
     atom   16 type  3   force =     0.00347714    0.00230625   -0.00157467
     atom   17 type  3   force =    -0.00462401    0.00161913    0.00060734
     atom   18 type  3   force =    -0.00282575   -0.00277855    0.00185102
     atom   19 type  3   force =     0.00462452   -0.00161874   -0.00060790
     atom   20 type  3   force =     0.00282617    0.00277881   -0.00185107
     The Hubbard contrib.    to forces
     atom    1 type  1   force =     0.00000000    0.00000000    0.00000000
     atom    2 type  1   force =     0.00000000    0.00000000    0.00000000
     atom    3 type  1   force =     0.00000000    0.00000000    0.00000000
     atom    4 type  1   force =     0.00000000    0.00000000    0.00000000
     atom    5 type  2   force =     0.00000000    0.00000000    0.00000000
     atom    6 type  2   force =     0.00000000    0.00000000    0.00000000
     atom    7 type  2   force =     0.00000000    0.00000000    0.00000000
     atom    8 type  2   force =     0.00000000    0.00000000    0.00000000
     atom    9 type  3   force =     0.00000000    0.00000000    0.00000000
     atom   10 type  3   force =     0.00000000    0.00000000    0.00000000
     atom   11 type  3   force =     0.00000000    0.00000000    0.00000000
     atom   12 type  3   force =     0.00000000    0.00000000    0.00000000
     atom   13 type  3   force =     0.00000000    0.00000000    0.00000000
     atom   14 type  3   force =     0.00000000    0.00000000    0.00000000
     atom   15 type  3   force =     0.00000000    0.00000000    0.00000000
     atom   16 type  3   force =     0.00000000    0.00000000    0.00000000
     atom   17 type  3   force =     0.00000000    0.00000000    0.00000000
     atom   18 type  3   force =     0.00000000    0.00000000    0.00000000
     atom   19 type  3   force =     0.00000000    0.00000000    0.00000000
     atom   20 type  3   force =     0.00000000    0.00000000    0.00000000
     The SCF correction term to forces
     atom    1 type  1   force =    -0.00039546    0.00043413    0.00001995
     atom    2 type  1   force =     0.00058116   -0.00039989    0.00005567
     atom    3 type  1   force =    -0.00081147    0.00031725   -0.00009450
     atom    4 type  1   force =    -0.00011568    0.00024042    0.00008438
     atom    5 type  2   force =     0.00165972   -0.00118863    0.00016938
     atom    6 type  2   force =     0.00071903   -0.00040933    0.00100704
     atom    7 type  2   force =     0.00029120    0.00061232   -0.00145817
     atom    8 type  2   force =    -0.00146699   -0.00054607    0.00029700
     atom    9 type  3   force =     0.00023693    0.00013199   -0.00004426
     atom   10 type  3   force =    -0.00023551    0.00003675    0.00013555
     atom   11 type  3   force =     0.00004240    0.00001444    0.00004738
     atom   12 type  3   force =    -0.00017740    0.00005373   -0.00003226
     atom   13 type  3   force =     0.00005684   -0.00020271    0.00001270
     atom   14 type  3   force =    -0.00023364   -0.00000190    0.00001800
     atom   15 type  3   force =    -0.00013052   -0.00006081    0.00012584
     atom   16 type  3   force =    -0.00040795   -0.00006220    0.00012424
     atom   17 type  3   force =     0.00035448   -0.00008569   -0.00002270
     atom   18 type  3   force =     0.00014480   -0.00018856    0.00003086
     atom   19 type  3   force =     0.00034752   -0.00000361   -0.00024170
     atom   20 type  3   force =     0.00020100    0.00010258   -0.00015590

     Total force =     0.074514     Total SCF correction =     0.003697

     Computing stress (Cartesian axis) and pressure

     negative rho (up, down):  5.472E-01 0.000E+00
          total   stress  (Ry/bohr**3)                   (kbar)     P=      -69.09
  -0.00047841   0.00003980   0.00004604          -70.38        5.86        6.77
   0.00003980  -0.00048713   0.00004097            5.86      -71.66        6.03
   0.00004604   0.00004097  -0.00044355            6.77        6.03      -65.25

     kinetic stress (kbar)  18905.62    -50.44      7.71
                              -50.44  18916.32      6.91
                                7.71      6.91  18736.46

     local   stress (kbar)   -233.63   -659.25   1702.41
                             -659.25    -93.72   1531.10
                             1702.41   1531.10  -5818.54

     nonloc. stress (kbar)  -1753.60      0.25     14.08
                                0.25  -1753.68     12.65
                               14.08     12.65  -1710.64

     hartree stress (kbar)   6325.78    301.18   -563.36
                              301.18   6261.89   -506.59
                             -563.36   -506.59   8662.29

     exc-cor stress (kbar)   5610.78     -0.52     -2.59
                               -0.52   5610.89     -2.33
                               -2.59     -2.33   5610.30

     corecor stress (kbar) -10506.06      0.59      0.46
                                0.59 -10506.19      0.42
                                0.46      0.42 -10504.67

     ewald   stress (kbar) -18419.26    414.06  -1151.93
                              414.06 -18507.17  -1036.13
                            -1151.93  -1036.13 -15040.45

     hubbard stress (kbar)      0.00      0.00      0.00
                                0.00      0.00      0.00
                                0.00      0.00      0.00

     DFT-D   stress (kbar)      0.00      0.00      0.00
                                0.00      0.00      0.00
                                0.00      0.00      0.00

     XDM     stress (kbar)      0.00      0.00      0.00
                                0.00      0.00      0.00
                                0.00      0.00      0.00

     dft-nl  stress (kbar)      0.00      0.00      0.00
                                0.00      0.00      0.00
                                0.00      0.00      0.00

     TS-vdW  stress (kbar)      0.00      0.00      0.00
                                0.00      0.00      0.00
                                0.00      0.00      0.00

[...]

                                0.00      0.00      0.00

     Writing all to output data dir new_calculations/myprefix.save/

     General routines

     Parallel routines

   This run was terminated on:  17:26:33  21May2023

   JOB DONE.