     Program PWSCF v.7.0 starts on 20May2023 at 22: 4:58

     Reading input from espresso_1765.pwi
Warning: card &CELL ignored
Warning: card / ignored

     Current dimensions of program PWSCF are:
     Max number of different atomic species (ntypx) = 10
     Max number of k-points (npk) =  40000
     Max angular momentum in pseudopotentials (lmaxx) =  4
     file Cd.pbe-dn-rrkjus_psl.0.3.1.UPF: wavefunction(s)  4D renormalized

     gamma-point specific algorithms are used
     Message from routine setup:
     using ibrav=0 with symmetry is DISCOURAGED, use correct ibrav instead

     Subspace diagonalization in iterative solution of the eigenvalue problem:
     a serial algorithm will be used

     Using Slab Decomposition

     bravais-lattice index     =            0
     lattice parameter (alat)  =       8.2938  a.u.
     unit-cell volume          =     825.3417 (a.u.)^3
     number of atoms/cell      =            5
     number of atomic types    =            3
     number of electrons       =        44.00
     number of Kohn-Sham states=           26
     kinetic-energy cutoff     =      30.0000  Ry
     charge density cutoff     =     240.0000  Ry
     scf convergence threshold =      1.0E-06
     mixing beta               =       0.7000
     number of iterations used =            8  plain     mixing
     Exchange-correlation= PBE
                           (   1   4   3   4   0   0   0)

     celldm(1)=   8.293802  celldm(2)=   0.000000  celldm(3)=   0.000000
     celldm(4)=   0.000000  celldm(5)=   0.000000  celldm(6)=   0.000000

     crystal axes: (cart. coord. in units of alat)
               a(1) = (   1.000000   0.000000   0.000000 )
               a(2) = (  -0.500000   0.866026   0.000000 )
               a(3) = (   0.000000   0.000000   1.670483 )

     reciprocal axes: (cart. coord. in units 2 pi/alat)
               b(1) = (  1.000000  0.577350  0.000000 )
               b(2) = (  0.000000  1.154700  0.000000 )
               b(3) = (  0.000000  0.000000  0.598629 )

     PseudoPot. # 1 for Sr read from file:
     /home/pragov/projects/rrg-bengioy-ad/pragov/crystal_structure_design/SSSP/Sr_pbe_v1.uspp.F.UPF
     MD5 check sum: 6b418c05fbe9db5448babca5e47b7a5b
     Pseudo is Ultrasoft + core correction, Zval = 10.0
     Generated by new atomic code, or converted to UPF format
     Using radial grid of  883 points,  6 beta functions with:
                l(1) =   0
                l(2) =   0
                l(3) =   1
                l(4) =   1
                l(5) =   2
                l(6) =   2
     Q(r) pseudized with  6 coefficients,  rinner =    1.400   1.400   1.400
                                                       1.400   1.400

     PseudoPot. # 2 for Cd read from file:
     /home/pragov/projects/rrg-bengioy-ad/pragov/crystal_structure_design/SSSP/Cd.pbe-dn-rrkjus_psl.0.3.1.UPF
     MD5 check sum: 558e9f355611b531a870a69ef6ace9e2
     Pseudo is Ultrasoft + core correction, Zval = 12.0
     Generated using "atomic" code by A. Dal Corso  v.5.0.99 svn rev. 10869
     Using radial grid of 1239 points,  6 beta functions with:
                l(1) =   0
                l(2) =   0
                l(3) =   1
                l(4) =   1
                l(5) =   2
                l(6) =   2
     Q(r) pseudized with 0 coefficients

     PseudoPot. # 3 for P  read from file:
     /home/pragov/projects/rrg-bengioy-ad/pragov/crystal_structure_design/SSSP/P.pbe-n-rrkjus_psl.1.0.0.UPF
     MD5 check sum: 8b930f418f0a4573dca56cd030ffe088
     Pseudo is Ultrasoft + core correction, Zval =  5.0
     Generated using "atomic" code by A. Dal Corso  v.5.1
     Using radial grid of 1147 points,  6 beta functions with:
                l(1) =   0
                l(2) =   0
                l(3) =   1
                l(4) =   1
                l(5) =   2
                l(6) =   2
     Q(r) pseudized with 0 coefficients

     atomic species   valence    mass     pseudopotential
        Sr            10.00    87.62000     Sr( 1.00)
        Cd            12.00   112.41400     Cd( 1.00)
        P              5.00    30.97376     P ( 1.00)

     12 Sym. Ops., with inversion, found

                                    s                        frac. trans.

      isym =  1     identity

 cryst.   s( 1) = (     1          0          0      )
                  (     0          1          0      )
                  (     0          0          1      )

 cart.    s( 1) = (  1.0000000  0.0000000  0.0000000 )
                  (  0.0000000  1.0000000  0.0000000 )
                  (  0.0000000  0.0000000  1.0000000 )

      isym =  2     180 deg rotation - cart. axis [1,0,0]

[...]

      isym =  3     120 deg rotation - cryst. axis [0,0,1]

[...]

      isym =  6     180 deg rotation - cryst. axis [1,1,0]

[...]

      isym =  7     inversion

[...]

      isym =  8     inv. 180 deg rotation - cart. axis [1,0,0]

[...]

      isym =  9     inv. 120 deg rotation - cryst. axis [0,0,1]

 cryst.   s( 9) = (     0         -1          0      )
                  (     1          1          0      )
                  (     0          0         -1      )

 cart.    s( 9) = (  0.4999998  0.8660253  0.0000000 )
                  ( -0.8660255  0.5000002  0.0000000 )
                  (  0.0000000  0.0000000 -1.0000000 )

[...]

 cryst.   s(10) = (     1          1          0      )
                  (    -1          0          0      )
                  (     0          0         -1      )

 cart.    s(10) = (  0.5000002 -0.8660253  0.0000000 )
                  (  0.8660255  0.4999998  0.0000000 )
                  (  0.0000000  0.0000000 -1.0000000 )

[...]

      isym = 12     inv. 180 deg rotation - cryst. axis [1,1,0]

 cryst.   s(12) = (     0         -1          0      )
                  (    -1          0          0      )
                  (     0          0          1      )

 cart.    s(12) = (  0.4999998 -0.8660255  0.0000000 )
                  ( -0.8660255 -0.4999998  0.0000000 )
                  (  0.0000000  0.0000000  1.0000000 )

   Cartesian axes

     site n.     atom                  positions (alat units)
         1           Sr  tau(   1) = (   0.0000000   0.0000000   0.0000000  )
         2           Cd  tau(   2) = (  -0.0000004   0.5773506   1.0611058  )
         3           Cd  tau(   3) = (   0.5000006   0.2886749   0.6093772  )
         4           P   tau(   4) = (   0.5000006   0.2886749   1.2482216  )
         5           P   tau(   5) = (  -0.0000004   0.5773506   0.4222613  )

   Crystallographic axes

     site n.     atom                  positions (cryst. coord.)
         1           Sr  tau(   1) = (  0.0000000  0.0000000  0.0000000  )
         2           Cd  tau(   2) = (  0.3333330  0.6666670  0.6352090  )
         3           Cd  tau(   3) = (  0.6666670  0.3333330  0.3647910  )
         4           P   tau(   4) = (  0.6666670  0.3333330  0.7472220  )
         5           P   tau(   5) = (  0.3333330  0.6666670  0.2527780  )

     number of k points=     1  Methfessel-Paxton smearing, width (Ry)=  0.0010
                       cart. coord. in units 2pi/alat
        k(    1) = (   0.0000000   0.0000000   0.0000000), wk =   2.0000000

                       cryst. coord.
        k(    1) = (   0.0000000   0.0000000   0.0000000), wk =   2.0000000

     Check: negative core charge=   -0.000002

     Initial potential from superposition of free atoms

     starting charge      43.9563, renormalised to      44.0000

     negative rho (up, down):  6.495E-02 0.000E+00
     Starting wfcs are   39 randomized atomic wfcs

     Self-consistent Calculation

     iteration #  1     ecut=    30.00 Ry     beta= 0.70
     Davidson diagonalization with overlap

     ethr =  1.00E-02,  avg # of iterations =  4.0

     negative rho (up, down):  6.590E-02 0.000E+00

     total energy              =    -341.56278710 Ry
     estimated scf accuracy    <       0.86364959 Ry

[...]

     total energy              =    -341.88387706 Ry
     estimated scf accuracy    <       0.00000197 Ry

     iteration # 18     ecut=    30.00 Ry     beta= 0.70
     Davidson diagonalization with overlap

     ethr =  3.67E-09,  avg # of iterations =  1.0

[...]

     End of self-consistent calculation

          k = 0.0000 0.0000 0.0000 (  1132 PWs)   bands (ev):

   -26.9185  -9.1342  -8.8164  -8.8163  -2.0665  -1.9406  -1.1935  -1.1935
    -1.1335  -1.1335  -0.8147  -0.8147  -0.7679  -0.6014  -0.6014   0.2908
     3.9384   7.5476   7.5477   8.8259   8.8260   8.8293   8.9070   9.0992
    10.8076  11.2248

     occupation numbers
     1.0000   1.0000   1.0000   1.0000   1.0000   1.0000   1.0000   1.0000
     1.0000   1.0000   1.0000   1.0000   1.0000   1.0000   1.0000   1.0000
     1.0000   1.0000   1.0000   1.0000   1.0000   1.0002  -0.0003  -0.0000
    -0.0000  -0.0000

     the Fermi energy is     8.8687 ev

!    total energy              =    -341.88387655 Ry
     estimated scf accuracy    <       0.00000076 Ry
     smearing contrib. (-TS)   =       0.00000309 Ry
     internal energy E=F+TS    =    -341.88387964 Ry

     The total energy is F=E-TS. E is the sum of the following terms:
     one-electron contribution =    -100.24710803 Ry
     hartree contribution      =      82.78376304 Ry
     xc contribution           =    -113.18717366 Ry
     ewald contribution        =    -211.23336098 Ry

     convergence has been achieved in  18 iterations

     negative rho (up, down):  6.753E-02 0.000E+00

     Forces acting on atoms (cartesian axes, Ry/au):

     atom    1 type  1   force =     0.00000000    0.00000000    0.00000000
     atom    2 type  2   force =    -0.00000000    0.00000000   -0.02203244
     atom    3 type  2   force =     0.00000000   -0.00000000    0.02203244
     atom    4 type  3   force =    -0.00000000   -0.00000000    0.13205584
     atom    5 type  3   force =     0.00000000   -0.00000000   -0.13205584
     The non-local contrib.  to forces
     atom    1 type  1   force =     0.00000000    0.00000000    0.00000000
     atom    2 type  2   force =     0.00000000    0.00000000    0.10084034
     atom    3 type  2   force =     0.00000000    0.00000000   -0.10084034
     atom    4 type  3   force =     0.00000000    0.00000000   -0.27173994
     atom    5 type  3   force =    -0.00000000   -0.00000000    0.27173994
     The ionic contribution  to forces
     atom    1 type  1   force =     0.00000000    0.00000000   -0.00000000
     atom    2 type  2   force =     0.00002336   -0.00001349    4.70171317
     atom    3 type  2   force =    -0.00002336    0.00001349   -4.70171317
     atom    4 type  3   force =    -0.00001570    0.00000907    3.75537616
     atom    5 type  3   force =     0.00001570   -0.00000907   -3.75537616
     The local contribution  to forces
     atom    1 type  1   force =    -0.00002769   -0.00005471    0.00021126
     atom    2 type  2   force =     0.00029937    0.00008075   -4.82147024
     atom    3 type  2   force =    -0.00032701   -0.00022470    4.82117473
     atom    4 type  3   force =     0.00064319   -0.00016534   -3.36459520
     atom    5 type  3   force =    -0.00018218   -0.00026774    3.36430803
     The core correction contribution to forces
     atom    1 type  1   force =     0.00000138   -0.00000345    0.00000347
     atom    2 type  2   force =     0.00001344    0.00000224   -0.00199109
     atom    3 type  2   force =    -0.00001478   -0.00001117    0.00198473
     atom    4 type  3   force =     0.00002931   -0.00000560    0.01393508
     atom    5 type  3   force =    -0.00001065   -0.00001286   -0.01394929
     The Hubbard contrib.    to forces
     atom    1 type  1   force =     0.00000000    0.00000000    0.00000000
     atom    2 type  2   force =     0.00000000    0.00000000    0.00000000
     atom    3 type  2   force =     0.00000000    0.00000000    0.00000000
     atom    4 type  3   force =     0.00000000    0.00000000    0.00000000
     atom    5 type  3   force =     0.00000000    0.00000000    0.00000000
     The SCF correction term to forces
     atom    1 type  1   force =     0.00003559    0.00001804   -0.00019698
     atom    2 type  2   force =    -0.00023531   -0.00009702   -0.00109877
     atom    3 type  2   force =     0.00029864    0.00018552    0.00145235
     atom    4 type  3   force =    -0.00015341    0.00004931   -0.00104078
     atom    5 type  3   force =     0.00002882    0.00006754    0.00110112

     Total force =     0.189337     Total SCF correction =     0.002423

     Computing stress (Cartesian axis) and pressure

     negative rho (up, down):  6.753E-02 0.000E+00
          total   stress  (Ry/bohr**3)                   (kbar)     P=       18.51
   0.00034471  -0.00000000  -0.00000000           50.71       -0.00       -0.00
  -0.00000000   0.00034471  -0.00000000           -0.00       50.71       -0.00
  -0.00000000  -0.00000000  -0.00031202           -0.00       -0.00      -45.90

     kinetic stress (kbar)  13526.83     -0.00      0.00
                               -0.00  13526.83      0.00
                                0.00      0.00  13235.33

     local   stress (kbar)  -3229.67     -0.08     -0.06
                               -0.08  -3229.76     -0.01
                               -0.06     -0.01  -1113.83

     nonloc. stress (kbar)    289.91     -0.00      0.00
                               -0.00    289.91      0.00
                                0.00      0.00    249.00

     hartree stress (kbar)   5247.16      0.05      0.05
                                0.05   5247.19      0.01
                                0.05      0.01   4260.64

     exc-cor stress (kbar)   7794.17      0.00      0.00
                                0.00   7794.17      0.00
                                0.00      0.00   7794.25

     corecor stress (kbar) -11328.34     -0.00      0.00
                               -0.00 -11328.34      0.00
                                0.00      0.00 -11320.68

     ewald   stress (kbar) -12249.33      0.02     -0.00
                                0.02 -12249.30      0.00
                               -0.00      0.00 -13150.62

     hubbard stress (kbar)      0.00      0.00      0.00
                                0.00      0.00      0.00
                                0.00      0.00      0.00

     DFT-D   stress (kbar)      0.00      0.00      0.00
                                0.00      0.00      0.00
                                0.00      0.00      0.00

     XDM     stress (kbar)      0.00      0.00      0.00
                                0.00      0.00      0.00
                                0.00      0.00      0.00

     dft-nl  stress (kbar)      0.00      0.00      0.00
                                0.00      0.00      0.00
                                0.00      0.00      0.00

     TS-vdW  stress (kbar)      0.00      0.00      0.00
                                0.00      0.00      0.00
                                0.00      0.00      0.00

[...]

                                0.00      0.00      0.00

     Writing all to output data dir new_calculations/myprefix.save/

     General routines

     Parallel routines

   This run was terminated on:  22: 5:11  20May2023

   JOB DONE.