     Program PWSCF v.7.0 starts on 20May2023 at 18:31:25

     Reading input from espresso_22128.pwi
Warning: card &CELL ignored
Warning: card / ignored

     Current dimensions of program PWSCF are:
     Max number of different atomic species (ntypx) = 10
     Max number of k-points (npk) =  40000
     Max angular momentum in pseudopotentials (lmaxx) =  4

     gamma-point specific algorithms are used
     Message from routine setup:
     using ibrav=0 with symmetry is DISCOURAGED, use correct ibrav instead

     Subspace diagonalization in iterative solution of the eigenvalue problem:
     a serial algorithm will be used

     Using Slab Decomposition

     bravais-lattice index     =            0
     lattice parameter (alat)  =       8.6801  a.u.
     unit-cell volume          =    1745.8475 (a.u.)^3
     number of atoms/cell      =           12
     number of atomic types    =            3
     number of electrons       =       160.00
     number of Kohn-Sham states=           96
     kinetic-energy cutoff     =      30.0000  Ry
     charge density cutoff     =     240.0000  Ry
     scf convergence threshold =      1.0E-06
     mixing beta               =       0.7000
     number of iterations used =            8  plain     mixing
     Exchange-correlation= SLA  PW   PBE  PBE
                           (   1   4   3   4   0   0   0)

     celldm(1)=   8.680115  celldm(2)=   0.000000  celldm(3)=   0.000000
     celldm(4)=   0.000000  celldm(5)=   0.000000  celldm(6)=   0.000000

     crystal axes: (cart. coord. in units of alat)
               a(1) = (   1.000000   0.000000   0.000000 )
               a(2) = (   0.000000   1.525658   0.000000 )
               a(3) = (   0.000000   0.000000   1.749736 )

     reciprocal axes: (cart. coord. in units 2 pi/alat)
               b(1) = (  1.000000  0.000000  0.000000 )
               b(2) = (  0.000000  0.655455  0.000000 )
               b(3) = (  0.000000  0.000000  0.571515 )

     PseudoPot. # 1 for Y  read from file:
     /home/pragov/projects/rrg-bengioy-ad/pragov/crystal_structure_design/SSSP/Y_pbe_v1.uspp.F.UPF
     MD5 check sum: 2cf71db95cafeb975fc457bd7f14888e
     Pseudo is Ultrasoft + core correction, Zval = 11.0
     Generated by new atomic code, or converted to UPF format
     Using radial grid of  885 points,  6 beta functions with:
                l(1) =   0
                l(2) =   0
                l(3) =   1
                l(4) =   1
                l(5) =   2
                l(6) =   2
     Q(r) pseudized with  6 coefficients,  rinner =    1.200   1.200   1.200
                                                       1.200   1.200

     PseudoPot. # 2 for Sn read from file:
     /home/pragov/projects/rrg-bengioy-ad/pragov/crystal_structure_design/SSSP/Sn_pbe_v1.uspp.F.UPF
     MD5 check sum: 4cf58ce39ec5d5d420df3dd08604eb00
     Pseudo is Ultrasoft + core correction, Zval = 14.0
     Generated by new atomic code, or converted to UPF format
     Using radial grid of  891 points,  6 beta functions with:
                l(1) =   0
                l(2) =   0
                l(3) =   1
                l(4) =   1
                l(5) =   2
                l(6) =   2
     Q(r) pseudized with  6 coefficients,  rinner =    1.200   1.200   1.200
                                                       1.200   1.200

     PseudoPot. # 3 for Ir read from file:
     /home/pragov/projects/rrg-bengioy-ad/pragov/crystal_structure_design/SSSP/Ir_pbe_v1.2.uspp.F.UPF
     MD5 check sum: 8836f839c3459d2b385c504ce6d91f2c
     Pseudo is Ultrasoft + core correction, Zval = 15.0
     Generated by new atomic code, or converted to UPF format
     Using radial grid of  983 points,  7 beta functions with:
                l(1) =   0
                l(2) =   0
                l(3) =   1
                l(4) =   1
                l(5) =   1
                l(6) =   2
                l(7) =   2
     Q(r) pseudized with  8 coefficients,  rinner =    1.400   1.400   1.400
                                                       1.400   1.400

     atomic species   valence    mass     pseudopotential
        Y             11.00    88.90584     Y ( 1.00)
        Sn            14.00   118.71000     Sn( 1.00)
        Ir            15.00   192.21700     Ir( 1.00)

      8 Sym. Ops., with inversion, found ( 6 have fractional translation)

                                    s                        frac. trans.

      isym =  1     identity

 cryst.   s( 1) = (     1          0          0      )
                  (     0          1          0      )
                  (     0          0          1      )

 cart.    s( 1) = (  1.0000000  0.0000000  0.0000000 )
                  (  0.0000000  1.0000000  0.0000000 )
                  (  0.0000000  0.0000000  1.0000000 )

      isym =  2     180 deg rotation - cart. axis [0,0,1]

 cryst.   s( 2) = (    -1          0          0      )    f =(  0.0000000 )
                  (     0         -1          0      )       (  0.5000000 )
                  (     0          0          1      )       (  0.5000000 )

 cart.    s( 2) = ( -1.0000000  0.0000000  0.0000000 )    f =(  0.0000000 )
                  (  0.0000000 -1.0000000  0.0000000 )       (  0.7628292 )
                  (  0.0000000  0.0000000  1.0000000 )       (  0.8748680 )

[...]

      isym =  4     180 deg rotation - cart. axis [1,0,0]

[...]

      isym =  5     inversion

 cryst.   s( 5) = (    -1          0          0      )
                  (     0         -1          0      )
                  (     0          0         -1      )

 cart.    s( 5) = ( -1.0000000  0.0000000  0.0000000 )
                  (  0.0000000 -1.0000000  0.0000000 )
                  (  0.0000000  0.0000000 -1.0000000 )

      isym =  6     inv. 180 deg rotation - cart. axis [0,0,1]

[...]

      isym =  8     inv. 180 deg rotation - cart. axis [1,0,0]

 cryst.   s( 8) = (    -1          0          0      )    f =(  0.5000000 )
                  (     0          1          0      )       (  0.0000000 )
                  (     0          0          1      )       (  0.0000000 )

 cart.    s( 8) = ( -1.0000000  0.0000000  0.0000000 )    f =(  0.5000000 )
                  (  0.0000000  1.0000000  0.0000000 )       (  0.0000000 )
                  (  0.0000000  0.0000000  1.0000000 )       (  0.0000000 )

   Cartesian axes

     site n.     atom                  positions (alat units)
         1           Y   tau(   1) = (   0.2500000   0.0301546   0.5419405  )
         2           Y   tau(   2) = (   0.2500000   0.7929839   0.3329275  )
         3           Y   tau(   3) = (   0.7500000   1.4955038   1.2077956  )
         4           Y   tau(   4) = (   0.7500000   0.7326746   1.4168086  )
         5           Sn  tau(   5) = (   0.2500000   0.2567134   1.6213667  )
         6           Sn  tau(   6) = (   0.2500000   1.0195426   1.0032374  )
         7           Sn  tau(   7) = (   0.7500000   1.2689451   0.1283694  )
         8           Sn  tau(   8) = (   0.7500000   0.5061158   0.7464987  )
         9           Ir  tau(   9) = (   0.2500000   0.4131132   1.0540725  )
        10           Ir  tau(  10) = (   0.2500000   1.1759425   1.5705316  )
        11           Ir  tau(  11) = (   0.7500000   1.1125452   0.6956636  )
        12           Ir  tau(  12) = (   0.7500000   0.3497160   0.1792045  )

   Crystallographic axes

     site n.     atom                  positions (cryst. coord.)
         1           Y   tau(   1) = (  0.2500000  0.0197650  0.3097270  )
         2           Y   tau(   2) = (  0.2500000  0.5197650  0.1902730  )
         3           Y   tau(   3) = (  0.7500000  0.9802350  0.6902730  )
         4           Y   tau(   4) = (  0.7500000  0.4802350  0.8097270  )
         5           Sn  tau(   5) = (  0.2500000  0.1682640  0.9266350  )
         6           Sn  tau(   6) = (  0.2500000  0.6682640  0.5733650  )
         7           Sn  tau(   7) = (  0.7500000  0.8317360  0.0733650  )
         8           Sn  tau(   8) = (  0.7500000  0.3317360  0.4266350  )
         9           Ir  tau(   9) = (  0.2500000  0.2707770  0.6024180  )
        10           Ir  tau(  10) = (  0.2500000  0.7707770  0.8975820  )
        11           Ir  tau(  11) = (  0.7500000  0.7292230  0.3975820  )
        12           Ir  tau(  12) = (  0.7500000  0.2292230  0.1024180  )

     number of k points=     1  Methfessel-Paxton smearing, width (Ry)=  0.0010
                       cart. coord. in units 2pi/alat
        k(    1) = (   0.0000000   0.0000000   0.0000000), wk =   2.0000000

                       cryst. coord.
        k(    1) = (   0.0000000   0.0000000   0.0000000), wk =   2.0000000

     Check: negative core charge=   -0.000003

     Initial potential from superposition of free atoms

     starting charge     153.9818, renormalised to     160.0000

     negative rho (up, down):  1.682E+00 0.000E+00
     Starting wfcs are  136 randomized atomic wfcs

     Self-consistent Calculation

     iteration #  1     ecut=    30.00 Ry     beta= 0.70
     Davidson diagonalization with overlap

     ethr =  1.00E-02,  avg # of iterations =  2.0

     negative rho (up, down):  1.281E+00 0.000E+00

     total energy              =   -1723.21870582 Ry
     estimated scf accuracy    <      13.11156733 Ry

[...]

     total energy              =   -1730.74255301 Ry
     estimated scf accuracy    <       0.00000112 Ry

     iteration # 14     ecut=    30.00 Ry     beta= 0.70
     Davidson diagonalization with overlap

     ethr =  6.99E-10,  avg # of iterations =  2.0

[...]

     End of self-consistent calculation

          k = 0.0000 0.0000 0.0000 (  2426 PWs)   bands (ev):

   -33.7776 -33.7772 -33.7769 -33.7767 -33.5844 -33.5843 -33.5837 -33.5830
   -33.3618 -33.3602 -33.3600 -33.3593 -27.5162 -27.5057 -27.4945 -27.4869
    -7.8398  -7.8245  -7.6732  -7.6662  -7.5848  -7.5787  -7.5434  -7.5429
    -7.4041  -7.3951  -7.3702  -7.3332  -6.4681  -6.4542  -6.4493  -6.4419
    -6.4402  -6.4292  -6.4220  -6.4142  -6.4075  -6.4038  -6.4001  -6.3932
    -6.3736  -6.3687  -6.3508  -6.3440  -6.3342  -6.3330  -6.2830  -6.2812
     4.8867   6.2160   7.0783   7.2835   9.3463  10.5908  10.7404  10.8684
    10.9419  11.0751  11.1747  11.4662  11.7062  11.8061  12.0516  12.2271
    12.3266  12.3334  12.3845  12.6179  12.6508  12.7014  12.7802  12.8448
    13.1425  13.2857  13.3626  13.9334  14.2060  14.2098  14.4697  14.5976
    15.7447  15.9942  16.0125  16.2885  16.5785  16.8301  17.0910  17.1328
    17.3838  17.4347  17.5828  17.6503  17.8205  17.9837  18.3993  18.6592

     occupation numbers
     1.0000   1.0000   1.0000   1.0000   1.0000   1.0000   1.0000   1.0000
     1.0000   1.0000   1.0000   1.0000   1.0000   1.0000   1.0000   1.0000
     1.0000   1.0000   1.0000   1.0000   1.0000   1.0000   1.0000   1.0000
     1.0000   1.0000   1.0000   1.0000   1.0000   1.0000   1.0000   1.0000
     1.0000   1.0000   1.0000   1.0000   1.0000   1.0000   1.0000   1.0000
     1.0000   1.0000   1.0000   1.0000   1.0000   1.0000   1.0000   1.0000
     1.0000   1.0000   1.0000   1.0000   1.0000   1.0000   1.0000   1.0000
     1.0000   1.0000   1.0000   1.0000   1.0000   1.0000   1.0000   1.0000
     1.0000   1.0000   1.0000   1.0000   1.0000   1.0000   1.0000   1.0000
     1.0000   1.0000   1.0000   1.0000   1.0000   1.0000   1.0000   1.0000
    -0.0000  -0.0000  -0.0000  -0.0000  -0.0000  -0.0000  -0.0000  -0.0000
    -0.0000  -0.0000  -0.0000  -0.0000  -0.0000  -0.0000  -0.0000  -0.0000

     the Fermi energy is    15.5009 ev

!    total energy              =   -1730.74255314 Ry
     estimated scf accuracy    <       0.00000006 Ry
     smearing contrib. (-TS)   =       0.00000000 Ry
     internal energy E=F+TS    =   -1730.74255314 Ry

     The total energy is F=E-TS. E is the sum of the following terms:
     one-electron contribution =    -394.82351970 Ry
     hartree contribution      =     304.41325833 Ry
     xc contribution           =    -480.51335947 Ry
     ewald contribution        =   -1159.81893230 Ry

     convergence has been achieved in  14 iterations

     negative rho (up, down):  1.448E+00 0.000E+00

     Forces acting on atoms (cartesian axes, Ry/au):

     atom    1 type  1   force =     0.00000000    0.00253147   -0.01656440
     atom    2 type  1   force =     0.00000000    0.00253147    0.01656440
     atom    3 type  1   force =     0.00000000   -0.00253147    0.01656440
     atom    4 type  1   force =     0.00000000   -0.00253147   -0.01656440
     atom    5 type  2   force =     0.00000000   -0.04509733   -0.04091424
     atom    6 type  2   force =     0.00000000   -0.04509733    0.04091424
     atom    7 type  2   force =     0.00000000    0.04509733    0.04091424
     atom    8 type  2   force =     0.00000000    0.04509733   -0.04091424
     atom    9 type  3   force =     0.00000000    0.00167039    0.00455071
     atom   10 type  3   force =     0.00000000    0.00167039   -0.00455071
     atom   11 type  3   force =     0.00000000   -0.00167039   -0.00455071
     atom   12 type  3   force =    -0.00000000   -0.00167039    0.00455071
     The non-local contrib.  to forces
     atom    1 type  1   force =    -0.00000000   -0.00794043   -0.04547995
     atom    2 type  1   force =     0.00000000   -0.00794043    0.04547995
     atom    3 type  1   force =     0.00000000    0.00794043    0.04547995
     atom    4 type  1   force =     0.00000000    0.00794043   -0.04547995
     atom    5 type  2   force =     0.00000000    0.11306690    0.20209628
     atom    6 type  2   force =    -0.00000000    0.11306690   -0.20209628
     atom    7 type  2   force =     0.00000000   -0.11306690   -0.20209628
     atom    8 type  2   force =     0.00000000   -0.11306690    0.20209628
     atom    9 type  3   force =     0.00000000    0.03887161   -0.03517603
     atom   10 type  3   force =    -0.00000000    0.03887161    0.03517603
     atom   11 type  3   force =     0.00000000   -0.03887161    0.03517603
     atom   12 type  3   force =     0.00000000   -0.03887161   -0.03517603
     The ionic contribution  to forces
     atom    1 type  1   force =    -0.00000000   -0.62141036    1.65130776
     atom    2 type  1   force =    -0.00000000   -0.62141036   -1.65130776
     atom    3 type  1   force =     0.00000000    0.62141036   -1.65130776
     atom    4 type  1   force =     0.00000000    0.62141036    1.65130776
     atom    5 type  2   force =    -0.00000000    3.69539152   -0.84105742
     atom    6 type  2   force =    -0.00000000    3.69539152    0.84105742
     atom    7 type  2   force =     0.00000000   -3.69539152    0.84105742
     atom    8 type  2   force =    -0.00000000   -3.69539152   -0.84105742
     atom    9 type  3   force =    -0.00000000   -4.89513514    0.82464913
     atom   10 type  3   force =    -0.00000000   -4.89513514   -0.82464913
     atom   11 type  3   force =     0.00000000    4.89513514   -0.82464913
     atom   12 type  3   force =     0.00000000    4.89513514    0.82464913
     The local contribution  to forces
     atom    1 type  1   force =    -0.00002268    0.63199097   -1.62460649
     atom    2 type  1   force =    -0.00001932    0.63169787    1.62439589
     atom    3 type  1   force =     0.00000454   -0.63183783    1.62481076
     atom    4 type  1   force =     0.00000566   -0.63190379   -1.62429785
     atom    5 type  2   force =    -0.00001703   -3.85251280    0.59875790
     atom    6 type  2   force =    -0.00001038   -3.85263328   -0.59877973
     atom    7 type  2   force =     0.00001167    3.85225031   -0.59910632
     atom    8 type  2   force =     0.00001234    3.85286339    0.59857772
     atom    9 type  3   force =    -0.00001000    4.84070127   -0.80437925
     atom   10 type  3   force =    -0.00000209    4.84065882    0.80462935
     atom   11 type  3   force =     0.00003047   -4.84116181    0.80450266
     atom   12 type  3   force =     0.00004383   -4.84000026   -0.80470600
     The core correction contribution to forces
     atom    1 type  1   force =    -0.00000045   -0.00001151    0.00209311
     atom    2 type  1   force =    -0.00000049   -0.00001491   -0.00209504
     atom    3 type  1   force =     0.00000000    0.00001300   -0.00209010
     atom    4 type  1   force =     0.00000014    0.00001202    0.00209448
     atom    5 type  2   force =    -0.00000021   -0.00101737   -0.00094449
     atom    6 type  2   force =    -0.00000008   -0.00101441    0.00094109
     atom    7 type  2   force =     0.00000015    0.00101065    0.00094057
     atom    8 type  2   force =     0.00000007    0.00101827   -0.00094373
     atom    9 type  3   force =    -0.00000003    0.01734652    0.02001962
     atom   10 type  3   force =    -0.00000001    0.01735495   -0.02002077
     atom   11 type  3   force =     0.00000034   -0.01735510   -0.02002421
     atom   12 type  3   force =     0.00000057   -0.01734141    0.02002178
     The Hubbard contrib.    to forces
     atom    1 type  1   force =     0.00000000    0.00000000    0.00000000
     atom    2 type  1   force =     0.00000000    0.00000000    0.00000000
     atom    3 type  1   force =     0.00000000    0.00000000    0.00000000
     atom    4 type  1   force =     0.00000000    0.00000000    0.00000000
     atom    5 type  2   force =     0.00000000    0.00000000    0.00000000
     atom    6 type  2   force =     0.00000000    0.00000000    0.00000000
     atom    7 type  2   force =     0.00000000    0.00000000    0.00000000
     atom    8 type  2   force =     0.00000000    0.00000000    0.00000000
     atom    9 type  3   force =     0.00000000    0.00000000    0.00000000
     atom   10 type  3   force =     0.00000000    0.00000000    0.00000000
     atom   11 type  3   force =     0.00000000    0.00000000    0.00000000
     atom   12 type  3   force =     0.00000000    0.00000000    0.00000000
     The SCF correction term to forces
     atom    1 type  1   force =     0.00001832   -0.00008443    0.00012805
     atom    2 type  1   force =     0.00001592    0.00018638    0.00008678
     atom    3 type  1   force =    -0.00000427   -0.00005237   -0.00029956
     atom    4 type  1   force =    -0.00000503    0.00000428   -0.00017142
     atom    5 type  2   force =     0.00002001   -0.00003502    0.00023047
     atom    6 type  2   force =     0.00001226    0.00009367   -0.00021203
     atom    7 type  2   force =    -0.00001430    0.00029175    0.00014684
     atom    8 type  2   force =    -0.00001602   -0.00033061    0.00044015
     atom    9 type  3   force =     0.00001073   -0.00011825   -0.00057864
     atom   10 type  3   force =     0.00000085   -0.00008178    0.00031848
     atom   11 type  3   force =    -0.00003143    0.00058380    0.00042788
     atom   12 type  3   force =    -0.00004553   -0.00059941   -0.00023371

     Total force =     0.126681     Total SCF correction =     0.001451

     Computing stress (Cartesian axis) and pressure

     negative rho (up, down):  1.448E+00 0.000E+00
          total   stress  (Ry/bohr**3)                   (kbar)     P=      -43.05
  -0.00011004   0.00000000   0.00000000          -16.19        0.00        0.00
   0.00000000   0.00004393   0.00000000            0.00        6.46        0.00
   0.00000000   0.00000000  -0.00081182            0.00        0.00     -119.42

     kinetic stress (kbar)  20251.18      0.00      0.00
                                0.00  20307.66      0.00
                                0.00      0.00  20063.11

     local   stress (kbar)    403.55      0.00      0.00
                                0.00   6592.49     -0.01
                                0.00     -0.01   1386.92

     nonloc. stress (kbar)   8627.71      0.00      0.00
                                0.00   8825.96      0.00
                                0.00      0.00   8689.93

     hartree stress (kbar)   9508.72     -0.00     -0.00
                               -0.00   7175.06      0.01
                               -0.00      0.01   8966.08

     exc-cor stress (kbar)  17615.85     -0.00     -0.00
                               -0.00  17614.11      0.00
                               -0.00      0.00  17615.55

     corecor stress (kbar) -25349.86     -0.00     -0.00
                               -0.00 -25347.58     -0.00
                               -0.00     -0.00 -25349.25

     ewald   stress (kbar) -31073.33     -0.00     -0.00
                               -0.00 -35161.23     -0.00
                               -0.00     -0.00 -31491.76

     hubbard stress (kbar)      0.00      0.00      0.00
                                0.00      0.00      0.00
                                0.00      0.00      0.00

     DFT-D   stress (kbar)      0.00      0.00      0.00
                                0.00      0.00      0.00
                                0.00      0.00      0.00

     XDM     stress (kbar)      0.00      0.00      0.00
                                0.00      0.00      0.00
                                0.00      0.00      0.00

     dft-nl  stress (kbar)      0.00      0.00      0.00
                                0.00      0.00      0.00
                                0.00      0.00      0.00

     TS-vdW  stress (kbar)      0.00      0.00      0.00
                                0.00      0.00      0.00
                                0.00      0.00      0.00

[...]

                                0.00      0.00      0.00

     Writing all to output data dir new_calculations/myprefix.save/

     General routines

     Parallel routines

   This run was terminated on:  18:31:50  20May2023

   JOB DONE.