     Program PWSCF v.7.0 starts on 21May2023 at  6:30:15

     Reading input from espresso_6871.pwi
Warning: card &CELL ignored
Warning: card / ignored

     Current dimensions of program PWSCF are:
     Max number of different atomic species (ntypx) = 10
     Max number of k-points (npk) =  40000
     Max angular momentum in pseudopotentials (lmaxx) =  4
     file O.pbe-n-kjpaw_psl.0.1.UPF: wavefunction(s)  2P renormalized

     gamma-point specific algorithms are used
     Message from routine setup:
     using ibrav=0 with symmetry is DISCOURAGED, use correct ibrav instead

     Subspace diagonalization in iterative solution of the eigenvalue problem:
     a serial algorithm will be used

     Using Slab Decomposition

     bravais-lattice index     =            0
     lattice parameter (alat)  =      13.3241  a.u.
     unit-cell volume          =    1847.2590 (a.u.)^3
     number of atoms/cell      =           18
     number of atomic types    =            3
     number of electrons       =       120.00
     number of Kohn-Sham states=           72
     kinetic-energy cutoff     =      30.0000  Ry
     charge density cutoff     =     240.0000  Ry
     scf convergence threshold =      1.0E-06
     mixing beta               =       0.7000
     number of iterations used =            8  plain     mixing
     Exchange-correlation= SLA  PW   PBX  PBC
                           (   1   4   3   4   0   0   0)

     celldm(1)=  13.324068  celldm(2)=   0.000000  celldm(3)=   0.000000
     celldm(4)=   0.000000  celldm(5)=   0.000000  celldm(6)=   0.000000

     crystal axes: (cart. coord. in units of alat)
               a(1) = (   1.000000   0.000000   0.000000 )
               a(2) = (  -0.500000   0.866025   0.000000 )
               a(3) = (   0.000000   0.000000   0.901751 )

     reciprocal axes: (cart. coord. in units 2 pi/alat)
               b(1) = (  1.000000  0.577350  0.000000 )
               b(2) = (  0.000000  1.154700  0.000000 )
               b(3) = (  0.000000  0.000000  1.108954 )

     PseudoPot. # 1 for Ca read from file:
     /home/pragov/projects/rrg-bengioy-ad/pragov/crystal_structure_design/SSSP/Ca_pbe_v1.uspp.F.UPF
     MD5 check sum: 403a4c14b9e4d4dfdc3024c9a3812218
     Pseudo is Ultrasoft + core correction, Zval = 10.0
     Generated by new atomic code, or converted to UPF format
     Using radial grid of  845 points,  6 beta functions with:
                l(1) =   0
                l(2) =   0
                l(3) =   1
                l(4) =   1
                l(5) =   2
                l(6) =   2
     Q(r) pseudized with  8 coefficients,  rinner =    1.500   1.500   1.500
                                                       1.500   1.500

     PseudoPot. # 2 for S  read from file:
     /home/pragov/projects/rrg-bengioy-ad/pragov/crystal_structure_design/SSSP/s_pbe_v1.4.uspp.F.UPF
     MD5 check sum: 88d86576ff6df21479756cfb9bdac1df
     Pseudo is Ultrasoft + core correction, Zval =  6.0
     Generated by new atomic code, or converted to UPF format
     Using radial grid of  907 points,  6 beta functions with:
                l(1) =   0
                l(2) =   0
                l(3) =   1
                l(4) =   1
                l(5) =   2
                l(6) =   2
     Q(r) pseudized with  8 coefficients,  rinner =    1.300   1.300   1.300
                                                       1.300   1.300

     PseudoPot. # 3 for O  read from file:
     /home/pragov/projects/rrg-bengioy-ad/pragov/crystal_structure_design/SSSP/O.pbe-n-kjpaw_psl.0.1.UPF
     MD5 check sum: 0234752ac141de4415c5fc33072bef88
     Pseudo is Projector augmented-wave + core cor, Zval =  6.0
     Generated using "atomic" code by A. Dal Corso  v.5.0.99 svn rev. 10869
     Shape of augmentation charge: BESSEL
     Using radial grid of 1095 points,  4 beta functions with:
                l(1) =   0
                l(2) =   0
                l(3) =   1
                l(4) =   1
     Q(r) pseudized with 0 coefficients

     atomic species   valence    mass     pseudopotential
        Ca            10.00    40.07800     Ca( 1.00)
        S              6.00    32.06000     S ( 1.00)
        O              6.00    15.99900     O ( 1.00)

     12 Sym. Ops. (no inversion) found ( 8 have fractional translation)

                                    s                        frac. trans.

      isym =  1     identity

 cryst.   s( 1) = (     1          0          0      )
                  (     0          1          0      )
                  (     0          0          1      )

 cart.    s( 1) = (  1.0000000 -0.0000000  0.0000000 )
                  (  0.0000000  1.0000000  0.0000000 )
                  (  0.0000000  0.0000000  1.0000000 )

      isym =  2     180 deg rotation - cart. axis [0,0,1]

[...]

      isym =  4     180 deg rotation - cart. axis [1,0,0]

 cryst.   s( 4) = (     1          0          0      )
                  (    -1         -1          0      )
                  (     0          0         -1      )

 cart.    s( 4) = (  1.0000000 -0.0000002  0.0000000 )
                  (  0.0000000 -1.0000000  0.0000000 )
                  (  0.0000000  0.0000000 -1.0000000 )

      isym =  5      60 deg rotation - cryst. axis [0,0,1]

 cryst.   s( 5) = (     1          1          0      )    f =( -0.0000000 )
                  (    -1          0          0      )       (  0.0000000 )
                  (     0          0          1      )       (  0.3333330 )

 cart.    s( 5) = (  0.5000001 -0.8660254  0.0000000 )    f =( -0.0000000 )
                  (  0.8660255  0.4999999  0.0000000 )       (  0.0000000 )
                  (  0.0000000  0.0000000  1.0000000 )       (  0.3005833 )

[...]

 cryst.   s( 9) = (     0         -1          0      )    f =(  0.0000000 )
                  (    -1          0          0      )       (  0.0000000 )
                  (     0          0         -1      )       ( -0.3333340 )

 cart.    s( 9) = (  0.4999999 -0.8660255  0.0000000 )    f =(  0.0000000 )
                  ( -0.8660255 -0.4999999  0.0000000 )       (  0.0000000 )
                  (  0.0000000  0.0000000 -1.0000000 )       ( -0.3005842 )

[...]

 cryst.   s(10) = (     1          1          0      )    f =( -0.0000000 )
                  (     0         -1          0      )       (  0.0000000 )
                  (     0          0         -1      )       (  0.3333330 )

 cart.    s(10) = (  0.5000001  0.8660253  0.0000000 )    f =( -0.0000000 )
                  (  0.8660255 -0.5000001  0.0000000 )       (  0.0000000 )
                  (  0.0000000  0.0000000 -1.0000000 )       (  0.3005833 )

[...]

      isym = 12     180 deg rotation - cryst. axis [1,1,0]

 cryst.   s(12) = (     0          1          0      )    f =( -0.0000000 )
                  (     1          0          0      )       (  0.0000000 )
                  (     0          0         -1      )       ( -0.3333340 )

 cart.    s(12) = ( -0.4999999  0.8660255  0.0000000 )    f =( -0.0000000 )
                  (  0.8660255  0.4999999  0.0000000 )       (  0.0000000 )
                  (  0.0000000  0.0000000 -1.0000000 )       ( -0.3005842 )

   Cartesian axes

     site n.     atom                  positions (alat units)
         1           Ca  tau(   1) = (   0.2500000   0.4330127   0.1502921  )
         2           Ca  tau(   2) = (   0.5000000   0.0000000   0.4508754  )
         3           Ca  tau(   3) = (  -0.2500000   0.4330127   0.7514588  )
         4           S   tau(   4) = (   0.5000000   0.0000000   0.0000000  )
         5           S   tau(   5) = (   0.2500000   0.4330127   0.6011675  )
         6           S   tau(   6) = (  -0.2500000   0.4330127   0.3005833  )
         7           O   tau(   7) = (  -0.2088874   0.5965140   0.4274687  )
         8           O   tau(   8) = (   0.0878475   0.3868666   0.7280520  )
         9           O   tau(   9) = (   0.4121525   0.4791589   0.7280520  )
        10           O   tau(  10) = (   0.3789600   0.1173551   0.1268845  )
        11           O   tau(  11) = (   0.1210401   0.7486703   0.1268845  )
        12           O   tau(  12) = (   0.7088875   0.2695115   0.4274687  )
        13           O   tau(  13) = (   0.2088876   0.5965140   0.4742822  )
        14           O   tau(  14) = (   0.6210400   0.1173551   0.7748664  )
        15           O   tau(  15) = (   0.5878475   0.4791589   0.1736989  )
        16           O   tau(  16) = (  -0.0878475   0.3868666   0.1736989  )
        17           O   tau(  17) = (  -0.1210399   0.7486703   0.7748664  )
        18           O   tau(  18) = (   0.2911125   0.2695115   0.4742822  )

   Crystallographic axes

     site n.     atom                  positions (cryst. coord.)
         1           Ca  tau(   1) = (  0.5000000  0.5000000  0.1666670  )
         2           Ca  tau(   2) = (  0.5000000  0.0000000  0.5000000  )
         3           Ca  tau(   3) = (  0.0000000  0.5000000  0.8333330  )
         4           S   tau(   4) = (  0.5000000  0.0000000  0.0000000  )
         5           S   tau(   5) = (  0.5000000  0.5000000  0.6666670  )
         6           S   tau(   6) = (  0.0000000  0.5000000  0.3333330  )
         7           O   tau(   7) = (  0.1355100  0.6887950  0.4740430  )
         8           O   tau(   8) = (  0.3112050  0.4467150  0.8073760  )
         9           O   tau(   9) = (  0.6887950  0.5532850  0.8073760  )
        10           O   tau(  10) = (  0.4467150  0.1355100  0.1407090  )
        11           O   tau(  11) = (  0.5532850  0.8644900  0.1407090  )
        12           O   tau(  12) = (  0.8644900  0.3112050  0.4740430  )
        13           O   tau(  13) = (  0.5532850  0.6887950  0.5259570  )
        14           O   tau(  14) = (  0.6887950  0.1355100  0.8592910  )
        15           O   tau(  15) = (  0.8644900  0.5532850  0.1926240  )
        16           O   tau(  16) = (  0.1355100  0.4467150  0.1926240  )
        17           O   tau(  17) = (  0.3112050  0.8644900  0.8592910  )
        18           O   tau(  18) = (  0.4467150  0.3112050  0.5259570  )

     number of k points=     1  Methfessel-Paxton smearing, width (Ry)=  0.0010
                       cart. coord. in units 2pi/alat
        k(    1) = (   0.0000000   0.0000000   0.0000000), wk =   2.0000000

                       cryst. coord.
        k(    1) = (   0.0000000   0.0000000   0.0000000), wk =   2.0000000

     Check: negative core charge=   -0.000012

     Initial potential from superposition of free atoms

     starting charge     119.9835, renormalised to     120.0000
     Starting wfcs are   90 randomized atomic wfcs
     Checking if some PAW data can be deallocated...

     Self-consistent Calculation

     iteration #  1     ecut=    30.00 Ry     beta= 0.70
     Davidson diagonalization with overlap

     ethr =  1.00E-02,  avg # of iterations =  2.0

     total energy              =    -795.53324235 Ry
     estimated scf accuracy    <       3.93652348 Ry

[...]

     total energy              =    -797.41384624 Ry
     estimated scf accuracy    <       0.00000603 Ry

     iteration # 10     ecut=    30.00 Ry     beta= 0.70
     Davidson diagonalization with overlap

     ethr =  5.02E-09,  avg # of iterations =  2.0

     End of self-consistent calculation

          k = 0.0000 0.0000 0.0000 (  2570 PWs)   bands (ev):

   -35.3691 -35.3632 -35.3631 -20.0734 -19.9702 -19.9701 -16.8411 -16.7798
   -16.7630 -16.7630 -16.7262 -16.7262 -16.4759 -16.4759 -16.4502 -15.6602
   -15.6601 -15.5888 -15.5370 -15.4797 -15.4796 -15.3786 -15.3785 -15.2701
    -6.1700  -5.4530  -5.4530  -3.4387  -3.4387  -3.3697  -3.3696  -3.1999
    -2.8962  -2.5558  -2.5558  -2.5006  -0.6146  -0.6145  -0.3608  -0.2555
    -0.1470   0.1803   0.1803   0.1867   0.1868   0.6420   0.6420   0.9989
     1.0302   1.0302   1.1242   2.2573   2.2574   2.2862   2.2930   2.2931
     2.3428   2.4731   2.4732   2.8594   8.4372   9.8819   9.8819   9.9447
     9.9760   9.9760  10.0740  10.1908  10.1909  10.2783  10.2783  10.5225

     occupation numbers
     1.0000   1.0000   1.0000   1.0000   1.0000   1.0000   1.0000   1.0000
     1.0000   1.0000   1.0000   1.0000   1.0000   1.0000   1.0000   1.0000
     1.0000   1.0000   1.0000   1.0000   1.0000   1.0000   1.0000   1.0000
     1.0000   1.0000   1.0000   1.0000   1.0000   1.0000   1.0000   1.0000
     1.0000   1.0000   1.0000   1.0000   1.0000   1.0000   1.0000   1.0000
     1.0000   1.0000   1.0000   1.0000   1.0000   1.0000   1.0000   1.0000
     1.0000   1.0000   1.0000   1.0000   1.0000   1.0000   1.0000   1.0000
     1.0000   1.0000   1.0000   1.0000  -0.0000  -0.0000  -0.0000  -0.0000
    -0.0000  -0.0000  -0.0000  -0.0000  -0.0000  -0.0000  -0.0000  -0.0000

     the Fermi energy is     4.8881 ev

!    total energy              =    -797.41384717 Ry
     estimated scf accuracy    <       0.00000007 Ry
     smearing contrib. (-TS)   =       0.00000000 Ry
     internal energy E=F+TS    =    -797.41384717 Ry

     The total energy is F=E-TS. E is the sum of the following terms:
     one-electron contribution =    -442.05063911 Ry
     hartree contribution      =     273.64434006 Ry
     xc contribution           =    -152.08610290 Ry
     ewald contribution        =    -362.68136744 Ry
     one-center paw contrib.   =    -114.24007777 Ry
      -> PAW hartree energy AE =     377.63378856 Ry
      -> PAW hartree energy PS =    -376.32628930 Ry
      -> PAW xc energy AE      =    -209.44537875 Ry
      -> PAW xc energy PS      =      93.89780172 Ry
      -> total E_H with PAW    =     274.95183932 Ry
      -> total E_XC with PAW   =    -267.63367994 Ry

     convergence has been achieved in  10 iterations

     Forces acting on atoms (cartesian axes, Ry/au):

     atom    1 type  1   force =    -0.00000000   -0.00000000   -0.00000000
     atom    2 type  1   force =     0.00000000   -0.00000000   -0.00000000
     atom    3 type  1   force =    -0.00000000   -0.00000000    0.00000000
     atom    4 type  2   force =     0.00000000   -0.00000000    0.00000000
     atom    5 type  2   force =     0.00000000    0.00000000   -0.00000000
     atom    6 type  2   force =    -0.00000000   -0.00000000    0.00000000
     atom    7 type  3   force =     0.00007776    0.01257647    0.00210009
     atom    8 type  3   force =    -0.01093043   -0.00622089    0.00210009
     atom    9 type  3   force =     0.01093043    0.00622089    0.00210009
     atom   10 type  3   force =    -0.01085266    0.00635558    0.00210009
     atom   11 type  3   force =     0.01085266   -0.00635558    0.00210009
     atom   12 type  3   force =    -0.00007776   -0.01257647    0.00210009
     atom   13 type  3   force =    -0.00007776    0.01257647   -0.00210009
     atom   14 type  3   force =     0.01085266    0.00635558   -0.00210009
     atom   15 type  3   force =    -0.01093043    0.00622089   -0.00210009
     atom   16 type  3   force =     0.01093043   -0.00622089   -0.00210009
     atom   17 type  3   force =    -0.01085266   -0.00635558   -0.00210009
     atom   18 type  3   force =     0.00007776   -0.01257647   -0.00210009
     The non-local contrib.  to forces
     atom    1 type  1   force =     0.00000000   -0.00000000   -0.00000000
     atom    2 type  1   force =    -0.00000000   -0.00000000    0.00000000
     atom    3 type  1   force =     0.00000000    0.00000000    0.00000000
     atom    4 type  2   force =     0.00000000   -0.00000000    0.00000000
     atom    5 type  2   force =     0.00000000    0.00000000    0.00000000
     atom    6 type  2   force =     0.00000000    0.00000000    0.00000000
     atom    7 type  3   force =    -0.26084345   -1.61171881   -1.16063190
     atom    8 type  3   force =     1.52621127    0.57996223   -1.16063190
     atom    9 type  3   force =    -1.52621127   -0.57996223   -1.16063190
     atom   10 type  3   force =     1.26536782   -1.03175659   -1.16063190
     atom   11 type  3   force =    -1.26536782    1.03175659   -1.16063190
     atom   12 type  3   force =     0.26084345    1.61171881   -1.16063190
     atom   13 type  3   force =     0.26084345   -1.61171887    1.16063190
     atom   14 type  3   force =    -1.26536782   -1.03175633    1.16063190
     atom   15 type  3   force =     1.52621127   -0.57996254    1.16063190
     atom   16 type  3   force =    -1.52621127    0.57996254    1.16063190
     atom   17 type  3   force =     1.26536782    1.03175633    1.16063190
     atom   18 type  3   force =    -0.26084345    1.61171887    1.16063190
     The ionic contribution  to forces
     atom    1 type  1   force =    -0.00000000    0.00000000   -0.00002318
     atom    2 type  1   force =     0.00000000    0.00000000    0.00000014
     atom    3 type  1   force =    -0.00000000   -0.00000000    0.00002303
     atom    4 type  2   force =     0.00000000   -0.00000000   -0.00000205
     atom    5 type  2   force =    -0.00000000    0.00000000   -0.00002028
     atom    6 type  2   force =    -0.00000000   -0.00000000    0.00002233
     atom    7 type  3   force =    -2.95312028    9.31446871    3.97767191
     atom    8 type  3   force =    -6.59004292   -7.21472357    3.97770010
     atom    9 type  3   force =     6.59004292    7.21472357    3.97770010
     atom   10 type  3   force =    -9.54316459    2.09979596    3.97771368
     atom   11 type  3   force =     9.54316459   -2.09979596    3.97771368
     atom   12 type  3   force =     2.95312028   -9.31446871    3.97767191
     atom   13 type  3   force =     2.95312139    9.31446843   -3.97767228
     atom   14 type  3   force =     9.54316515    2.09979509   -3.97771280
     atom   15 type  3   force =    -6.59004198    7.21472386   -3.97770061
     atom   16 type  3   force =     6.59004198   -7.21472386   -3.97770061
     atom   17 type  3   force =    -9.54316515   -2.09979509   -3.97771280
     atom   18 type  3   force =    -2.95312139   -9.31446843   -3.97767228
     The local contribution  to forces
     atom    1 type  1   force =     0.00006495   -0.00001714   -0.00003490
     atom    2 type  1   force =     0.00004035    0.00009910    0.00003477
     atom    3 type  1   force =    -0.00009122   -0.00003643    0.00000375
     atom    4 type  2   force =     0.00001136    0.00002585   -0.00001384
     atom    5 type  2   force =     0.00002427   -0.00000028    0.00002987
     atom    6 type  2   force =    -0.00002087   -0.00001755   -0.00002082
     atom    7 type  3   force =     3.21189421   -7.70422721   -2.82499533
     atom    8 type  3   force =     5.06616246    6.63372580   -2.82505618
     atom    9 type  3   force =    -5.06611375   -6.63371940   -2.82501527
     atom   10 type  3   force =     8.27808157   -1.07055113   -2.82507453
     atom   11 type  3   force =    -8.27804507    1.07059054   -2.82507601
     atom   12 type  3   force =    -3.21193793    7.70419002   -2.82498283
     atom   13 type  3   force =    -3.21188615   -7.70425740    2.82504113
     atom   14 type  3   force =    -8.27806066   -1.07054671    2.82506295
     atom   15 type  3   force =     5.06611224   -6.63372743    2.82500524
     atom   16 type  3   force =    -5.06613418    6.63370043    2.82501161
     atom   17 type  3   force =     8.27804361    1.07057819    2.82503827
     atom   18 type  3   force =     3.21191724    7.70423399    2.82500891
     The core correction contribution to forces
     atom    1 type  1   force =     0.00000077   -0.00000034   -0.00000067
     atom    2 type  1   force =     0.00000061    0.00000108    0.00000033
     atom    3 type  1   force =    -0.00000086   -0.00000053    0.00000066
     atom    4 type  2   force =     0.00000021   -0.00000009    0.00000041
     atom    5 type  2   force =    -0.00000205    0.00000026   -0.00000070
     atom    6 type  2   force =     0.00000097    0.00000239    0.00000021
     atom    7 type  3   force =     0.00217390    0.01425191    0.01022909
     atom    8 type  3   force =    -0.01342911   -0.00524320    0.01022858
     atom    9 type  3   force =     0.01342882    0.00524322    0.01022869
     atom   10 type  3   force =    -0.01125529    0.00900823    0.01022873
     atom   11 type  3   force =     0.01125524   -0.00900840    0.01022882
     atom   12 type  3   force =    -0.00217365   -0.01425145    0.01022890
     atom   13 type  3   force =    -0.00217389    0.01425152   -0.01022925
     atom   14 type  3   force =     0.01125541    0.00900828   -0.01022864
     atom   15 type  3   force =    -0.01342909    0.00524347   -0.01022880
     atom   16 type  3   force =     0.01342924   -0.00524318   -0.01022887
     atom   17 type  3   force =    -0.01125562   -0.00900854   -0.01022905
     atom   18 type  3   force =     0.00217357   -0.01425175   -0.01022940
     The Hubbard contrib.    to forces
     atom    1 type  1   force =     0.00000000    0.00000000    0.00000000
     atom    2 type  1   force =     0.00000000    0.00000000    0.00000000
     atom    3 type  1   force =     0.00000000    0.00000000    0.00000000
     atom    4 type  2   force =     0.00000000    0.00000000    0.00000000
     atom    5 type  2   force =     0.00000000    0.00000000    0.00000000
     atom    6 type  2   force =     0.00000000    0.00000000    0.00000000
     atom    7 type  3   force =     0.00000000    0.00000000    0.00000000
     atom    8 type  3   force =     0.00000000    0.00000000    0.00000000
     atom    9 type  3   force =     0.00000000    0.00000000    0.00000000
     atom   10 type  3   force =     0.00000000    0.00000000    0.00000000
     atom   11 type  3   force =     0.00000000    0.00000000    0.00000000
     atom   12 type  3   force =     0.00000000    0.00000000    0.00000000
     atom   13 type  3   force =     0.00000000    0.00000000    0.00000000
     atom   14 type  3   force =     0.00000000    0.00000000    0.00000000
     atom   15 type  3   force =     0.00000000    0.00000000    0.00000000
     atom   16 type  3   force =     0.00000000    0.00000000    0.00000000
     atom   17 type  3   force =     0.00000000    0.00000000    0.00000000
     atom   18 type  3   force =     0.00000000    0.00000000    0.00000000
     The SCF correction term to forces
     atom    1 type  1   force =    -0.00006312    0.00001622    0.00005342
     atom    2 type  1   force =    -0.00003041   -0.00009182   -0.00003957
     atom    3 type  1   force =     0.00008774    0.00002638   -0.00002052
     atom    4 type  2   force =    -0.00000710   -0.00002543    0.00003504
     atom    5 type  2   force =    -0.00006918    0.00001140   -0.00003175
     atom    6 type  2   force =     0.00004125    0.00005530    0.00000688
     atom    7 type  3   force =    -0.00002313   -0.00020496   -0.00018080
     atom    8 type  3   force =     0.00015387    0.00006035   -0.00015067
     atom    9 type  3   force =    -0.00021900   -0.00006121   -0.00018223
     atom   10 type  3   force =     0.00011396   -0.00014318   -0.00013570
     atom   11 type  3   force =    -0.00015544    0.00009040   -0.00013163
     atom   12 type  3   force =     0.00007878    0.00025241   -0.00018810
     atom   13 type  3   force =     0.00000990   -0.00018207    0.00011416
     atom   14 type  3   force =    -0.00013109   -0.00014384    0.00015787
     atom   15 type  3   force =     0.00021899   -0.00004422    0.00019937
     atom   16 type  3   force =    -0.00018260    0.00009219    0.00018666
     atom   17 type  3   force =     0.00014784    0.00010313    0.00017020
     atom   18 type  3   force =    -0.00006595    0.00020007    0.00013993

     Total force =     0.044170     Total SCF correction =     0.000926

     Computing stress (Cartesian axis) and pressure

          total   stress  (Ry/bohr**3)                   (kbar)     P=     -291.81
  -0.00195038   0.00000000  -0.00000000         -286.91        0.00       -0.00
   0.00000000  -0.00195038   0.00000000            0.00     -286.91        0.00
   0.00000000   0.00000000  -0.00205026            0.00        0.00     -301.60

     kinetic stress (kbar)  15779.76     -0.00      0.00
                               -0.00  15779.75      0.00
                                0.00      0.00  15561.27

     local   stress (kbar)  -7055.07     -0.01     -0.00
                               -0.01  -7055.03     -0.00
                               -0.00     -0.00 -27474.45

     nonloc. stress (kbar)   3786.29     -0.00      0.00
                               -0.00   3786.29      0.00
                                0.00      0.00   3771.78

     hartree stress (kbar)   4314.98      0.00      0.00
                                0.00   4314.97     -0.00
                                0.00     -0.00  13161.50

     exc-cor stress (kbar)  -1814.36     -0.00      0.00
                               -0.00  -1814.36      0.00
                                0.00      0.00  -1809.38

     corecor stress (kbar)  -1742.59      0.00      0.00
                                0.00  -1742.59     -0.00
                                0.00     -0.00  -1742.33

     ewald   stress (kbar) -13555.92     -0.00     -0.00
                               -0.00 -13555.95      0.00
                               -0.00      0.00  -1770.00

     hubbard stress (kbar)      0.00      0.00      0.00
                                0.00      0.00      0.00
                                0.00      0.00      0.00

     DFT-D   stress (kbar)      0.00      0.00      0.00
                                0.00      0.00      0.00
                                0.00      0.00      0.00

     XDM     stress (kbar)      0.00      0.00      0.00
                                0.00      0.00      0.00
                                0.00      0.00      0.00

     dft-nl  stress (kbar)      0.00      0.00      0.00
                                0.00      0.00      0.00
                                0.00      0.00      0.00

     TS-vdW  stress (kbar)      0.00      0.00      0.00
                                0.00      0.00      0.00
                                0.00      0.00      0.00

[...]

                                0.00      0.00      0.00

     Writing all to output data dir new_calculations/myprefix.save/

     General routines

     Parallel routines

     PAW routines

   This run was terminated on:   6:30:38  21May2023

   JOB DONE.