     Program PWSCF v.7.0 starts on 20May2023 at 16:56:47

     Reading input from espresso_4524.pwi
Warning: card &CELL ignored
Warning: card / ignored

     Current dimensions of program PWSCF are:
     Max number of different atomic species (ntypx) = 10
     Max number of k-points (npk) =  40000
     Max angular momentum in pseudopotentials (lmaxx) =  4
     file Ba.pbe-spn-kjpaw_psl.1.0.0.UPF: wavefunction(s)  5S 6S renormalized
     file O.pbe-n-kjpaw_psl.0.1.UPF: wavefunction(s)  2P renormalized

     gamma-point specific algorithms are used

     Subspace diagonalization in iterative solution of the eigenvalue problem:
     a serial algorithm will be used

     Using Slab Decomposition

     bravais-lattice index     =            0
     lattice parameter (alat)  =      19.4065  a.u.
     unit-cell volume          =    1989.8507 (a.u.)^3
     number of atoms/cell      =           20
     number of atomic types    =            5
     number of electrons       =       160.00
     number of Kohn-Sham states=           96
     kinetic-energy cutoff     =      30.0000  Ry
     charge density cutoff     =     240.0000  Ry
     scf convergence threshold =      1.0E-06
     mixing beta               =       0.7000
     number of iterations used =            8  plain     mixing
     Exchange-correlation= SLA  PW   PBX  PBC
                           (   1   4   3   4   0   0   0)

     celldm(1)=  19.406491  celldm(2)=   0.000000  celldm(3)=   0.000000
     celldm(4)=   0.000000  celldm(5)=   0.000000  celldm(6)=   0.000000

     crystal axes: (cart. coord. in units of alat)
               a(1) = (   1.000000   0.000000   0.000000 )
               a(2) = (   0.833273   0.552861   0.000000 )
               a(3) = (   0.833273   0.251291   0.492451 )

     reciprocal axes: (cart. coord. in units 2 pi/alat)
               b(1) = (  1.000000 -1.507202 -0.922990 )
               b(2) = (  0.000000  1.808773 -0.922990 )
               b(3) = (  0.000000  0.000000  2.030657 )

     PseudoPot. # 1 for Ba read from file:
     /home/pragov/projects/rrg-bengioy-ad/pragov/crystal_structure_design/SSSP/Ba.pbe-spn-kjpaw_psl.1.0.0.UPF
     MD5 check sum: c432291d3e53af55f19d5e8866385beb
     Pseudo is Projector augmented-wave + core cor, Zval = 10.0
     Generated using "atomic" code by A. Dal Corso  v.5.1
     Shape of augmentation charge: PSQ
     Using radial grid of 1251 points,  7 beta functions with:
                l(1) =   0
                l(2) =   0
                l(3) =   0
                l(4) =   1
                l(5) =   1
                l(6) =   2
                l(7) =   2
     Q(r) pseudized with 0 coefficients

     PseudoPot. # 2 for Sr read from file:
     /home/pragov/projects/rrg-bengioy-ad/pragov/crystal_structure_design/SSSP/Sr_pbe_v1.uspp.F.UPF
     MD5 check sum: 6b418c05fbe9db5448babca5e47b7a5b
     Pseudo is Ultrasoft + core correction, Zval = 10.0
     Generated by new atomic code, or converted to UPF format
     Using radial grid of  883 points,  6 beta functions with:
                l(1) =   0
                l(2) =   0
                l(3) =   1
                l(4) =   1
                l(5) =   2
                l(6) =   2
     Q(r) pseudized with  6 coefficients,  rinner =    1.400   1.400   1.400
                                                       1.400   1.400

     PseudoPot. # 3 for Ca read from file:
     /home/pragov/projects/rrg-bengioy-ad/pragov/crystal_structure_design/SSSP/Ca_pbe_v1.uspp.F.UPF
     MD5 check sum: 403a4c14b9e4d4dfdc3024c9a3812218
     Pseudo is Ultrasoft + core correction, Zval = 10.0
     Generated by new atomic code, or converted to UPF format
     Using radial grid of  845 points,  6 beta functions with:
                l(1) =   0
                l(2) =   0
                l(3) =   1
                l(4) =   1
                l(5) =   2
                l(6) =   2
     Q(r) pseudized with  8 coefficients,  rinner =    1.500   1.500   1.500
                                                       1.500   1.500

     PseudoPot. # 4 for Mo read from file:
     /home/pragov/projects/rrg-bengioy-ad/pragov/crystal_structure_design/SSSP/Mo_ONCV_PBE-1.0.oncvpsp.upf
     MD5 check sum: 1b5d28e075c9ccadda658a603575cd1f
     Pseudo is Norm-conserving, Zval = 14.0
     Generated using ONCVPSP code by D. R. Hamann
     Using radial grid of 1526 points,  6 beta functions with:
                l(1) =   0
                l(2) =   0
                l(3) =   1
                l(4) =   1
                l(5) =   2
                l(6) =   2

     PseudoPot. # 5 for O  read from file:
     /home/pragov/projects/rrg-bengioy-ad/pragov/crystal_structure_design/SSSP/O.pbe-n-kjpaw_psl.0.1.UPF
     MD5 check sum: 0234752ac141de4415c5fc33072bef88
     Pseudo is Projector augmented-wave + core cor, Zval =  6.0
     Generated using "atomic" code by A. Dal Corso  v.5.0.99 svn rev. 10869
     Shape of augmentation charge: BESSEL
     Using radial grid of 1095 points,  4 beta functions with:
                l(1) =   0
                l(2) =   0
                l(3) =   1
                l(4) =   1
     Q(r) pseudized with 0 coefficients

     atomic species   valence    mass     pseudopotential
        Ba            10.00   137.32700     Ba( 1.00)
        Sr            10.00    87.62000     Sr( 1.00)
        Ca            10.00    40.07800     Ca( 1.00)
        Mo            14.00    95.95000     Mo( 1.00)
        O              6.00    15.99900     O ( 1.00)

     No symmetry found

                                    s                        frac. trans.

      isym =  1     identity

 cryst.   s( 1) = (     1          0          0      )
                  (     0          1          0      )
                  (     0          0          1      )

 cart.    s( 1) = (  1.0000000  0.0000000 -0.0000000 )
                  (  0.0000000  1.0000000  0.0000000 )
                  (  0.0000000  0.0000000  1.0000000 )

   Cartesian axes

     site n.     atom                  positions (alat units)
         1           Ba  tau(   1) = (   1.6666638   0.5026165   0.3077955  )
         2           Sr  tau(   2) = (   0.3332197   0.1004892   0.0615382  )
         3           Sr  tau(   3) = (   2.3326712   0.7034647   0.4307921  )
         4           Sr  tau(   4) = (   1.0005097   0.3017242   0.1847717  )
         5           Ca  tau(   5) = (   0.6662901   0.2009334   0.1230488  )
         6           Ca  tau(   6) = (   2.0002355   0.6032119   0.3693987  )
         7           Mo  tau(   7) = (   0.0007866   0.0002372   0.0001453  )
         8           Mo  tau(   8) = (   1.3324815   0.4018370   0.2460795  )
         9           O   tau(   9) = (   0.7564923   0.2281357   0.3217973  )
        10           O   tau(  10) = (   1.2559105   0.3787455   0.0751747  )
        11           O   tau(  11) = (   1.4089144   0.5649715   0.1887118  )
        12           O   tau(  12) = (   1.9117934   0.4139116   0.4360525  )
        13           O   tau(  13) = (   0.8461628   0.0929841   0.0569422  )
        14           O   tau(  14) = (   1.1787119   0.4950993   0.3031920  )
        15           O   tau(  15) = (   1.4089144   0.4248869   0.4174639  )
        16           O   tau(  16) = (   1.9117934   0.5765404   0.1704867  )
        17           O   tau(  17) = (   0.7564923   0.3903293   0.0569422  )
        18           O   tau(  18) = (   1.2559105   0.2391108   0.3031920  )
        19           O   tau(  19) = (   1.4863618   0.3081582   0.1887118  )
        20           O   tau(  20) = (   1.8218822   0.7120546   0.4360525  )

   Crystallographic axes

     site n.     atom                  positions (cryst. coord.)
         1           Ba  tau(   1) = (  0.6250270  0.6250270  0.6250270  )
         2           Sr  tau(   2) = (  0.1249630  0.1249630  0.1249630  )
         3           Sr  tau(   3) = (  0.8747910  0.8747910  0.8747910  )
         4           Sr  tau(   4) = (  0.3752080  0.3752080  0.3752080  )
         5           Ca  tau(   5) = (  0.2498700  0.2498700  0.2498700  )
         6           Ca  tau(   6) = (  0.7501220  0.7501220  0.7501220  )
         7           Mo  tau(   7) = (  0.0002950  0.0002950  0.0002950  )
         8           Mo  tau(   8) = (  0.4997030  0.4997030  0.4997030  )
         9           O   tau(   9) = (  0.1156300  0.1156300  0.6534600  )
        10           O   tau(  10) = (  0.6156790  0.6156790  0.1526540  )
        11           O   tau(  11) = (  0.3832090  0.8477260  0.3832090  )
        12           O   tau(  12) = (  0.8854730  0.3462000  0.8854730  )
        13           O   tau(  13) = (  0.6534600  0.1156300  0.1156300  )
        14           O   tau(  14) = (  0.1526540  0.6156790  0.6156790  )
        15           O   tau(  15) = (  0.3832090  0.3832090  0.8477260  )
        16           O   tau(  16) = (  0.8854730  0.8854730  0.3462000  )
        17           O   tau(  17) = (  0.1156300  0.6534600  0.1156300  )
        18           O   tau(  18) = (  0.6156790  0.1526540  0.6156790  )
        19           O   tau(  19) = (  0.8477260  0.3832090  0.3832090  )
        20           O   tau(  20) = (  0.3462000  0.8854730  0.8854730  )

     number of k points=     1  Methfessel-Paxton smearing, width (Ry)=  0.0010
                       cart. coord. in units 2pi/alat
        k(    1) = (   0.0000000   0.0000000   0.0000000), wk =   2.0000000

                       cryst. coord.
        k(    1) = (   0.0000000   0.0000000   0.0000000), wk =   2.0000000

     Check: negative core charge=   -0.000012

     Initial potential from superposition of free atoms

     starting charge     159.8691, renormalised to     160.0000

     negative rho (up, down):  1.906E-01 0.000E+00
     Starting wfcs are  132 randomized atomic wfcs
     Checking if some PAW data can be deallocated...

     Self-consistent Calculation

     iteration #  1     ecut=    30.00 Ry     beta= 0.70
     Davidson diagonalization with overlap

     ethr =  1.00E-02,  avg # of iterations =  4.0

     negative rho (up, down):  2.313E-01 0.000E+00

     total energy              =   -1567.41001608 Ry
     estimated scf accuracy    <       7.94172221 Ry

[...]

     WARNING: integrated charge=   159.99963874, expected=   160.00000000

[...]

     WARNING: integrated charge=   159.99996506, expected=   160.00000000

[...]

     total energy              =   -1571.63356189 Ry
     estimated scf accuracy    <       0.00000304 Ry

     iteration # 14     ecut=    30.00 Ry     beta= 0.70
     Davidson diagonalization with overlap

     ethr =  1.90E-09,  avg # of iterations =  2.0

[...]

     End of self-consistent calculation

          k = 0.0000 0.0000 0.0000 (  2761 PWs)   bands (ev):

   -53.1402 -52.9950 -28.7294 -28.6278 -27.2770 -27.2303 -27.2302 -27.1414
   -27.0924 -27.0924 -25.7367 -25.6886 -25.6364 -17.3896 -10.2673 -10.2126
   -10.2125 -10.1492 -10.1206 -10.1205  -8.2063  -8.0954  -7.9252  -7.7949
    -7.7949  -7.7268  -7.7268  -7.7015  -7.7011  -7.6851  -7.6496  -7.6495
    -7.2434  -7.2431  -7.2152  -7.0293  -7.0289  -6.9476  -6.7684  -6.7680
    -6.7663  -2.6892  -2.6891  -2.5263   4.4930   4.4933   4.5316   4.7065
     4.7065   4.7925   4.8237   4.8240   4.9867   4.9868   5.0353   5.8060
     5.9769   6.5431   6.5431   6.6251   6.7138   6.7139   6.9083   6.9084
     6.9196   7.7414   7.7416   7.7611   7.8436   7.8438   8.0053   8.1605
     8.1607   8.3449   8.3561   8.3563   8.4407   8.7442   8.7445   8.7717
    10.7657  10.8026  10.8027  11.1359  11.3354  11.3355  13.1089  13.1089
    13.1193  14.3360  14.3360  14.3533  14.6119  14.6119  14.6719  14.7889

     occupation numbers
     1.0000   1.0000   1.0000   1.0000   1.0000   1.0000   1.0000   1.0000
     1.0000   1.0000   1.0000   1.0000   1.0000   1.0000   1.0000   1.0000
     1.0000   1.0000   1.0000   1.0000   1.0000   1.0000   1.0000   1.0000
     1.0000   1.0000   1.0000   1.0000   1.0000   1.0000   1.0000   1.0000
     1.0000   1.0000   1.0000   1.0000   1.0000   1.0000   1.0000   1.0000
     1.0000   1.0000   1.0000   1.0000   1.0000   1.0000   1.0000   1.0000
     1.0000   1.0000   1.0000   1.0000   1.0000   1.0000   1.0000   1.0000
     1.0000   1.0000   1.0000   1.0000   1.0000   1.0000   1.0000   1.0000
     1.0000   1.0000   1.0000   1.0000   1.0000   1.0000   1.0000   1.0000
     1.0000   1.0000   1.0000   1.0000   1.0000   1.0000   1.0000   1.0000
    -0.0000  -0.0000  -0.0000  -0.0000  -0.0000  -0.0000  -0.0000  -0.0000
    -0.0000  -0.0000  -0.0000  -0.0000  -0.0000  -0.0000  -0.0000  -0.0000

     the Fermi energy is    10.6624 ev

!    total energy              =   -1571.63356165 Ry
     estimated scf accuracy    <       0.00000084 Ry
     smearing contrib. (-TS)   =       0.00000000 Ry
     internal energy E=F+TS    =   -1571.63356165 Ry

     The total energy is F=E-TS. E is the sum of the following terms:
     one-electron contribution =    -339.71675846 Ry
     hartree contribution      =     255.52777639 Ry
     xc contribution           =    -220.15545474 Ry
     ewald contribution        =    -778.11065373 Ry
     one-center paw contrib.   =    -489.17847110 Ry
      -> PAW hartree energy AE =     387.49652861 Ry
      -> PAW hartree energy PS =    -386.08609171 Ry
      -> PAW xc energy AE      =    -600.75106678 Ry
      -> PAW xc energy PS      =     110.16215877 Ry
      -> total E_H with PAW    =     256.93821329 Ry
      -> total E_XC with PAW   =    -710.74436275 Ry

     convergence has been achieved in  14 iterations

     negative rho (up, down):  2.022E-01 0.000E+00

     Forces acting on atoms (cartesian axes, Ry/au):

     atom    1 type  1   force =     0.00896105    0.00269577    0.00166151
     atom    2 type  2   force =     0.00191910    0.00056327    0.00035291
     atom    3 type  2   force =    -0.00448115   -0.00135811   -0.00082594
     atom    4 type  2   force =    -0.00046206   -0.00011906   -0.00009922
     atom    5 type  3   force =    -0.00117778   -0.00032308   -0.00027530
     atom    6 type  3   force =    -0.00201063   -0.00058794   -0.00032556
     atom    7 type  4   force =    -0.00340532   -0.00092269   -0.00066444
     atom    8 type  4   force =    -0.00285608   -0.00090520   -0.00051558
     atom    9 type  5   force =     0.01815578    0.00546841    0.03492443
     atom   10 type  5   force =     0.01563332    0.00471728    0.02765312
     atom   11 type  5   force =    -0.01763524   -0.02605842    0.00732840
     atom   12 type  5   force =    -0.01659049   -0.02549578    0.00739089
     atom   13 type  5   force =     0.03365848   -0.01792670   -0.01097194
     atom   14 type  5   force =     0.02781441   -0.01365505   -0.00836422
     atom   15 type  5   force =    -0.01764708   -0.00532027   -0.02657544
     atom   16 type  5   force =    -0.01660061   -0.00501583   -0.02610166
     atom   17 type  5   force =     0.01810322    0.03345447   -0.01093920
     atom   18 type  5   force =     0.01562743    0.02676511   -0.00836890
     atom   19 type  5   force =    -0.02912527    0.01198517    0.00733823
     atom   20 type  5   force =    -0.02788109    0.01203864    0.00737791
     The non-local contrib.  to forces
     atom    1 type  1   force =     0.01119707    0.00382330    0.00196054
     atom    2 type  2   force =     0.00769679    0.00231733    0.00141371
     atom    3 type  2   force =    -0.00786290   -0.00237873   -0.00144627
     atom    4 type  2   force =    -0.00889359   -0.00267582   -0.00165275
     atom    5 type  3   force =     0.00220039    0.00069243    0.00035588
     atom    6 type  3   force =    -0.00198894   -0.00059061   -0.00033436
     atom    7 type  4   force =    -0.00319754   -0.00094720   -0.00060316
     atom    8 type  4   force =     0.00048226    0.00013188    0.00008854
     atom    9 type  5   force =     0.15433432    0.04652558    0.40560333
     atom   10 type  5   force =     0.15057135    0.04542957    0.43952392
     atom   11 type  5   force =    -0.14816808   -0.40501763    0.15651321
     atom   12 type  5   force =    -0.15924530   -0.39800765    0.14918024
     atom   13 type  5   force =     0.34004563   -0.23335716   -0.14288787
     atom   14 type  5   force =     0.35334128   -0.26016012   -0.15933504
     atom   15 type  5   force =    -0.14813725   -0.04465137   -0.43189295
     atom   16 type  5   force =    -0.15924032   -0.04806166   -0.42227653
     atom   17 type  5   force =     0.15437825    0.38240299   -0.14287759
     atom   18 type  5   force =     0.15056703    0.41213517   -0.15932431
     atom   19 type  5   force =    -0.34736242    0.25560368    0.15650242
     atom   20 type  5   force =    -0.35273333    0.24354826    0.14919065
     The ionic contribution  to forces
     atom    1 type  1   force =    -0.11241872   -0.03390216   -0.02076225
     atom    2 type  2   force =     0.11582913    0.03493064    0.02139001
     atom    3 type  2   force =     0.34017318    0.10258617    0.06282338
     atom    4 type  2   force =    -0.34125421   -0.10291218   -0.06302096
     atom    5 type  3   force =     0.21388063    0.06450007    0.03949897
     atom    6 type  3   force =    -0.21030397   -0.06342146   -0.03883844
     atom    7 type  4   force =    -0.47057511   -0.14191154   -0.08690470
     atom    8 type  4   force =     0.47421424    0.14300900    0.08757676
     atom    9 type  5   force =    -3.04160678   -0.91725868   -6.58676056
     atom   10 type  5   force =    -2.88453230   -0.86988966   -6.54915785
     atom   11 type  5   force =     3.13523045    6.25147081   -2.12855541
     atom   12 type  5   force =     2.78890345    6.25445372   -2.24733159
     atom   13 type  5   force =    -6.00864950    3.55467247    2.17683271
     atom   14 type  5   force =    -5.84734260    3.59566240    2.20193439
     atom   15 type  5   force =     3.13522920    0.94549244    6.53587570
     atom   16 type  5   force =     2.78890221    0.84105045    6.59251974
     atom   17 type  5   force =    -3.04160803   -6.28396258    2.17683271
     atom   18 type  5   force =    -2.88453355   -6.22893810    2.20193439
     atom   19 type  5   force =     6.06869913   -3.47583775   -2.12855541
     atom   20 type  5   force =     5.78176318   -3.66979405   -2.24733159
     The local contribution  to forces
     atom    1 type  1   force =     0.11127841    0.03326698    0.02067670
     atom    2 type  2   force =    -0.12151117   -0.03674271   -0.02244920
     atom    3 type  2   force =    -0.33721758   -0.10177165   -0.06220829
     atom    4 type  2   force =     0.34901359    0.10537172    0.06435032
     atom    5 type  3   force =    -0.21655663   -0.06517649   -0.04025209
     atom    6 type  3   force =     0.21031738    0.06350427    0.03904391
     atom    7 type  4   force =     0.47027238    0.14146873    0.08699586
     atom    8 type  4   force =    -0.47838001   -0.14402093   -0.08837389
     atom    9 type  5   force =     2.90676479    0.87655437    6.21948847
     atom   10 type  5   force =     2.75016705    0.82941353    6.14034987
     atom   11 type  5   force =    -3.00557127   -5.87545477    1.98056567
     atom   12 type  5   force =    -2.64734656   -5.88509276    2.10680843
     atom   13 type  5   force =     5.70500026   -3.34112630   -2.04605826
     atom   14 type  5   force =     5.52390512   -3.35115484   -2.05221958
     atom   15 type  5   force =    -3.00559309   -0.90635610   -6.13372142
     atom   16 type  5   force =    -2.64744370   -0.79844273   -6.19988980
     atom   17 type  5   force =     2.90656079    5.93796428   -2.04602360
     atom   18 type  5   force =     2.75018802    5.84639625   -2.05218499
     atom   19 type  5   force =    -5.75278871    3.23423661    1.98054267
     atom   20 type  5   force =    -5.45957884    3.44024436    2.10683663
     The core correction contribution to forces
     atom    1 type  1   force =    -0.00068610   -0.00020850   -0.00012669
     atom    2 type  2   force =    -0.00043879   -0.00013328   -0.00008033
     atom    3 type  2   force =     0.00045787    0.00013782    0.00008507
     atom    4 type  2   force =     0.00052328    0.00015872    0.00009622
     atom    5 type  3   force =     0.00005961    0.00001877    0.00000973
     atom    6 type  3   force =     0.00002140    0.00000748    0.00000577
     atom    7 type  4   force =     0.00000000    0.00000000    0.00000000
     atom    8 type  4   force =     0.00000000    0.00000000    0.00000000
     atom    9 type  5   force =    -0.00102281   -0.00030825   -0.00316967
     atom   10 type  5   force =    -0.00095540   -0.00028841   -0.00357433
     atom   11 type  5   force =     0.00098349    0.00324160   -0.00132121
     atom   12 type  5   force =     0.00103307    0.00315704   -0.00126120
     atom   13 type  5   force =    -0.00249120    0.00190426    0.00116595
     atom   14 type  5   force =    -0.00262905    0.00223371    0.00136810
     atom   15 type  5   force =     0.00098293    0.00029616    0.00348756
     atom   16 type  5   force =     0.00103287    0.00031196    0.00338430
     atom   17 type  5   force =    -0.00102399   -0.00296411    0.00116599
     atom   18 type  5   force =    -0.00095529   -0.00331463    0.00136790
     atom   19 type  5   force =     0.00261129   -0.00215773   -0.00132101
     atom   20 type  5   force =     0.00260643   -0.00205890   -0.00126143
     The Hubbard contrib.    to forces
     atom    1 type  1   force =     0.00000000    0.00000000    0.00000000
     atom    2 type  2   force =     0.00000000    0.00000000    0.00000000
     atom    3 type  2   force =     0.00000000    0.00000000    0.00000000
     atom    4 type  2   force =     0.00000000    0.00000000    0.00000000
     atom    5 type  3   force =     0.00000000    0.00000000    0.00000000
     atom    6 type  3   force =     0.00000000    0.00000000    0.00000000
     atom    7 type  4   force =     0.00000000    0.00000000    0.00000000
     atom    8 type  4   force =     0.00000000    0.00000000    0.00000000
     atom    9 type  5   force =     0.00000000    0.00000000    0.00000000
     atom   10 type  5   force =     0.00000000    0.00000000    0.00000000
     atom   11 type  5   force =     0.00000000    0.00000000    0.00000000
     atom   12 type  5   force =     0.00000000    0.00000000    0.00000000
     atom   13 type  5   force =     0.00000000    0.00000000    0.00000000
     atom   14 type  5   force =     0.00000000    0.00000000    0.00000000
     atom   15 type  5   force =     0.00000000    0.00000000    0.00000000
     atom   16 type  5   force =     0.00000000    0.00000000    0.00000000
     atom   17 type  5   force =     0.00000000    0.00000000    0.00000000
     atom   18 type  5   force =     0.00000000    0.00000000    0.00000000
     atom   19 type  5   force =     0.00000000    0.00000000    0.00000000
     atom   20 type  5   force =     0.00000000    0.00000000    0.00000000
     The SCF correction term to forces
     atom    1 type  1   force =    -0.00040114   -0.00028079   -0.00008480
     atom    2 type  2   force =     0.00035161    0.00019435    0.00008070
     atom    3 type  2   force =    -0.00002326    0.00007133   -0.00007785
     atom    4 type  2   force =     0.00015733   -0.00005843    0.00012991
     atom    5 type  3   force =    -0.00075332   -0.00035482    0.00011419
     atom    6 type  3   force =    -0.00004802   -0.00008456   -0.00020046
     atom    7 type  4   force =     0.00010341    0.00047037   -0.00015046
     atom    8 type  4   force =     0.00083589   -0.00002210    0.00019498
     atom    9 type  5   force =    -0.00030527   -0.00004155   -0.00023517
     atom   10 type  5   force =     0.00039109    0.00005530    0.00051348
     atom   11 type  5   force =    -0.00010137   -0.00029537    0.00012812
     atom   12 type  5   force =     0.00007331   -0.00000308   -0.00000303
     atom   13 type  5   force =    -0.00023826   -0.00001693   -0.00002249
     atom   14 type  5   force =     0.00054813   -0.00023315   -0.00011011
     atom   15 type  5   force =    -0.00012040   -0.00009834   -0.00032235
     atom   16 type  5   force =     0.00015679    0.00012920    0.00016261
     atom   17 type  5   force =    -0.00019534    0.00001695   -0.00003474
     atom   18 type  5   force =     0.00036968    0.00048948   -0.00015990
     atom   19 type  5   force =    -0.00027610    0.00014342    0.00017155
     atom   20 type  5   force =     0.00006995    0.00010203   -0.00005436

     Total force =     0.118457     Total SCF correction =     0.002029

     Computing stress (Cartesian axis) and pressure

     negative rho (up, down):  2.022E-01 0.000E+00
          total   stress  (Ry/bohr**3)                   (kbar)     P=     -252.82
  -0.00224664  -0.00025480  -0.00015595         -330.49      -37.48      -22.94
  -0.00025480  -0.00147869  -0.00004703          -37.48     -217.52       -6.92
  -0.00015595  -0.00004703  -0.00143053          -22.94       -6.92     -210.44

     kinetic stress (kbar)  20130.05    -67.37    -41.23
                              -67.37  20333.09    -12.43
                              -41.23    -12.43  20345.86

     local   stress (kbar) -10379.06     27.92     17.17
                               27.92 -10463.33      5.19
                               17.17      5.19 -10468.44

     nonloc. stress (kbar)   7314.53     -2.48     -1.52
                               -2.48   7322.01     -0.46
                               -1.52     -0.46   7322.48

     hartree stress (kbar)   6307.09      4.95      2.94
                                4.95   6292.31      0.87
                                2.94      0.87   6291.18

     exc-cor stress (kbar)   -725.40      0.55      0.34
                                0.55   -727.05      0.10
                                0.34      0.10   -727.15

     corecor stress (kbar)  -3799.76      0.55      0.34
                                0.55  -3801.41      0.10
                                0.34      0.10  -3801.52

     ewald   stress (kbar) -19177.95     -1.60     -0.98
                               -1.60 -19173.14     -0.30
                               -0.98     -0.30 -19172.84

     hubbard stress (kbar)      0.00      0.00      0.00
                                0.00      0.00      0.00
                                0.00      0.00      0.00

     DFT-D   stress (kbar)      0.00      0.00      0.00
                                0.00      0.00      0.00
                                0.00      0.00      0.00

     XDM     stress (kbar)      0.00      0.00      0.00
                                0.00      0.00      0.00
                                0.00      0.00      0.00

     dft-nl  stress (kbar)      0.00      0.00      0.00
                                0.00      0.00      0.00
                                0.00      0.00      0.00

     TS-vdW  stress (kbar)      0.00      0.00      0.00
                                0.00      0.00      0.00
                                0.00      0.00      0.00

[...]

                                0.00      0.00      0.00

     Writing all to output data dir new_calculations/myprefix.save/

     General routines

     Parallel routines

     PAW routines

   This run was terminated on:  16:57:45  20May2023

   JOB DONE.