     Program PWSCF v.7.0 starts on 20May2023 at  6: 4:10

     Reading input from espresso_1181.pwi
Warning: card &CELL ignored
Warning: card / ignored

     Current dimensions of program PWSCF are:
     Max number of different atomic species (ntypx) = 10
     Max number of k-points (npk) =  40000
     Max angular momentum in pseudopotentials (lmaxx) =  4

     gamma-point specific algorithms are used
     Message from routine setup:
     using ibrav=0 with symmetry is DISCOURAGED, use correct ibrav instead

     Subspace diagonalization in iterative solution of the eigenvalue problem:
     a serial algorithm will be used

     Using Slab Decomposition

     bravais-lattice index     =            0
     lattice parameter (alat)  =       7.9199  a.u.
     unit-cell volume          =     795.2651 (a.u.)^3
     number of atoms/cell      =            6
     number of atomic types    =            3
     number of electrons       =        78.00
     number of Kohn-Sham states=           47
     kinetic-energy cutoff     =      30.0000  Ry
     charge density cutoff     =     240.0000  Ry
     scf convergence threshold =      1.0E-06
     mixing beta               =       0.7000
     number of iterations used =            8  plain     mixing
     Exchange-correlation= PBE
                           (   1   4   3   4   0   0   0)

     celldm(1)=   7.919883  celldm(2)=   0.000000  celldm(3)=   0.000000
     celldm(4)=   0.000000  celldm(5)=   0.000000  celldm(6)=   0.000000

     crystal axes: (cart. coord. in units of alat)
               a(1) = (   1.000000   0.000000   0.000000 )
               a(2) = (  -0.500000   0.866025   0.000000 )
               a(3) = (   0.000000   0.000000   1.848524 )

     reciprocal axes: (cart. coord. in units 2 pi/alat)
               b(1) = (  1.000000  0.577350  0.000000 )
               b(2) = (  0.000000  1.154700  0.000000 )
               b(3) = (  0.000000  0.000000  0.540972 )

     PseudoPot. # 1 for Sm read from file:
     /home/pragov/projects/rrg-bengioy-ad/pragov/crystal_structure_design/SSSP/Sm.GGA-PBE-paw-v1.0.UPF
     MD5 check sum: 886f70968969f895acf876f5617e0641
     Pseudo is Projector augmented-wave + core cor, Zval = 16.0
     Generated using ATOMPAW code
     Shape of augmentation charge: BESSEL
     Using radial grid of 1107 points,  8 beta functions with:
                l(1) =   0
                l(2) =   0
                l(3) =   1
                l(4) =   1
                l(5) =   2
                l(6) =   2
                l(7) =   3
                l(8) =   3
     Q(r) pseudized with 0 coefficients

     PseudoPot. # 2 for Cu read from file:
     /home/pragov/projects/rrg-bengioy-ad/pragov/crystal_structure_design/SSSP/Cu_pbe_v1.2.uspp.F.UPF
     MD5 check sum: 6e991ff952a84172a2a52a1c1e996048
     Pseudo is Ultrasoft + core correction, Zval = 19.0
     Generated by new atomic code, or converted to UPF format
     Using radial grid of  867 points,  6 beta functions with:
                l(1) =   0
                l(2) =   0
                l(3) =   1
                l(4) =   1
                l(5) =   2
                l(6) =   2
     Q(r) pseudized with  8 coefficients,  rinner =    1.150   1.150   1.150
                                                       1.150   1.150

     PseudoPot. # 3 for Si read from file:
     /home/pragov/projects/rrg-bengioy-ad/pragov/crystal_structure_design/SSSP/Si.pbe-n-rrkjus_psl.1.0.0.UPF
     MD5 check sum: 0b0bb1205258b0d07b9f9672cf965d36
     Pseudo is Ultrasoft + core correction, Zval =  4.0
     Generated using "atomic" code by A. Dal Corso  v.5.1
     Using radial grid of 1141 points,  6 beta functions with:
                l(1) =   0
                l(2) =   0
                l(3) =   1
                l(4) =   1
                l(5) =   2
                l(6) =   2
     Q(r) pseudized with 0 coefficients

     atomic species   valence    mass     pseudopotential
        Sm            16.00   150.36000     Sm( 1.00)
        Cu            19.00    63.54600     Cu( 1.00)
        Si             4.00    28.08500     Si( 1.00)

     24 Sym. Ops., with inversion, found (12 have fractional translation)

                                    s                        frac. trans.

      isym =  1     identity

 cryst.   s( 1) = (     1          0          0      )
                  (     0          1          0      )
                  (     0          0          1      )

 cart.    s( 1) = (  1.0000000 -0.0000000  0.0000000 )
                  (  0.0000000  1.0000000  0.0000000 )
                  (  0.0000000  0.0000000  1.0000000 )

      isym =  2     180 deg rotation - cart. axis [0,0,1]

 cryst.   s( 2) = (    -1          0          0      )    f =(  0.0000000 )
                  (     0         -1          0      )       (  0.0000000 )
                  (     0          0          1      )       ( -0.5000000 )

 cart.    s( 2) = ( -1.0000000  0.0000000  0.0000000 )    f =(  0.0000000 )
                  (  0.0000000 -1.0000000  0.0000000 )       (  0.0000000 )
                  (  0.0000000  0.0000000  1.0000000 )       ( -0.9242618 )

[...]

      isym =  4     180 deg rotation - cart. axis [1,0,0]

[...]

      isym =  5      60 deg rotation - cryst. axis [0,0,1]

[...]

 cryst.   s( 8) = (    -1         -1          0      )
                  (     1          0          0      )
                  (     0          0          1      )

 cart.    s( 8) = ( -0.5000001  0.8660253  0.0000000 )
                  ( -0.8660255 -0.4999999  0.0000000 )
                  (  0.0000000  0.0000000  1.0000000 )

[...]

 cryst.   s( 9) = (     0         -1          0      )    f =(  0.0000000 )
                  (    -1          0          0      )       (  0.0000000 )
                  (     0          0         -1      )       ( -0.5000000 )

 cart.    s( 9) = (  0.4999999 -0.8660255  0.0000000 )    f =(  0.0000000 )
                  ( -0.8660255 -0.4999999  0.0000000 )       (  0.0000000 )
                  (  0.0000000  0.0000000 -1.0000000 )       ( -0.9242618 )

[...]

 cryst.   s(10) = (     1          1          0      )    f =(  0.0000000 )
                  (     0         -1          0      )       (  0.0000000 )
                  (     0          0         -1      )       ( -0.5000000 )

 cart.    s(10) = (  0.5000001  0.8660252  0.0000000 )    f =(  0.0000000 )
                  (  0.8660255 -0.5000001  0.0000000 )       (  0.0000000 )
                  (  0.0000000  0.0000000 -1.0000000 )       ( -0.9242618 )

[...]

 cryst.   s(11) = (    -1         -1          0      )
                  (     0          1          0      )
                  (     0          0         -1      )

 cart.    s(11) = ( -0.5000001 -0.8660252  0.0000000 )
                  ( -0.8660255  0.5000001  0.0000000 )
                  (  0.0000000  0.0000000 -1.0000000 )

      isym = 12     180 deg rotation - cryst. axis [1,1,0]

[...]

      isym = 13     inversion

[...]

      isym = 14     inv. 180 deg rotation - cart. axis [0,0,1]

[...]

      isym = 16     inv. 180 deg rotation - cart. axis [1,0,0]

[...]

      isym = 17     inv.  60 deg rotation - cryst. axis [0,0,1]

[...]

 cryst.   s(22) = (    -1         -1          0      )    f =(  0.0000000 )
                  (     0          1          0      )       (  0.0000000 )
                  (     0          0          1      )       ( -0.5000000 )

 cart.    s(22) = ( -0.5000001 -0.8660252  0.0000000 )    f =(  0.0000000 )
                  ( -0.8660255  0.5000001  0.0000000 )       (  0.0000000 )
                  (  0.0000000  0.0000000  1.0000000 )       ( -0.9242618 )

[...]

      isym = 24     inv. 180 deg rotation - cryst. axis [1,1,0]

 cryst.   s(24) = (     0         -1          0      )
                  (    -1          0          0      )
                  (     0          0          1      )

 cart.    s(24) = (  0.4999999 -0.8660255  0.0000000 )
                  ( -0.8660255 -0.4999999  0.0000000 )
                  (  0.0000000  0.0000000  1.0000000 )

   Cartesian axes

     site n.     atom                  positions (alat units)
         1           Sm  tau(   1) = (   0.0000000   0.0000000   0.9242618  )
         2           Sm  tau(   2) = (   0.0000000   0.0000000   0.0000000  )
         3           Cu  tau(   3) = (  -0.0000004   0.5773506   0.4621309  )
         4           Cu  tau(   4) = (   0.5000005   0.2886749   1.3863927  )
         5           Si  tau(   5) = (   0.5000005   0.2886749   0.4621309  )
         6           Si  tau(   6) = (  -0.0000004   0.5773506   1.3863927  )

   Crystallographic axes

     site n.     atom                  positions (cryst. coord.)
         1           Sm  tau(   1) = (  0.0000000  0.0000000  0.5000000  )
         2           Sm  tau(   2) = (  0.0000000  0.0000000  0.0000000  )
         3           Cu  tau(   3) = (  0.3333330  0.6666670  0.2500000  )
         4           Cu  tau(   4) = (  0.6666670  0.3333330  0.7500000  )
         5           Si  tau(   5) = (  0.6666670  0.3333330  0.2500000  )
         6           Si  tau(   6) = (  0.3333330  0.6666670  0.7500000  )

     number of k points=     1  Methfessel-Paxton smearing, width (Ry)=  0.0010
                       cart. coord. in units 2pi/alat
        k(    1) = (   0.0000000   0.0000000   0.0000000), wk =   2.0000000

                       cryst. coord.
        k(    1) = (   0.0000000   0.0000000   0.0000000), wk =   2.0000000

     Initial potential from superposition of free atoms

     starting charge      75.9877, renormalised to      78.0000
     Starting wfcs are   98 randomized atomic wfcs
     Checking if some PAW data can be deallocated...

     Self-consistent Calculation

     iteration #  1     ecut=    30.00 Ry     beta= 0.70
     Davidson diagonalization with overlap

     ethr =  1.00E-02,  avg # of iterations =  2.0

     total energy              =   -2023.02784066 Ry
     estimated scf accuracy    <      14.12857720 Ry

[...]

     negative rho (up, down):  1.654E-01 0.000E+00

[...]

     ethr =  4.98E-05,  avg # of iterations =  1.0
     Minimization algorithm failed to find Fermi energy: reverting to bisection
     Possible cause: smearing is larger than the electronic band-gap.

[...]

     ethr =  4.98E-05,  avg # of iterations =  1.0
     Minimization algorithm failed to find Fermi energy: reverting to bisection
     Possible cause: smearing is larger than the electronic band-gap.

[...]

     total energy              =   -2037.78882306 Ry
     estimated scf accuracy    <       0.00000527 Ry

     iteration # 72     ecut=    30.00 Ry     beta= 0.70
     Davidson diagonalization with overlap

     ethr =  4.80E-09,  avg # of iterations =  1.0

     End of self-consistent calculation

          k = 0.0000 0.0000 0.0000 (  1093 PWs)   bands (ev):

  -101.6943-101.6934 -59.1514 -59.1512 -59.1504 -59.1503 -58.8611 -58.8590
   -26.5817 -26.5632  -6.7556  -6.3147  -6.1607  -6.1606  -6.1161  -6.1160
     2.6177   4.0010   7.4309   7.4309   7.6534   7.6534   8.2576   8.2577
     8.2745   8.3737   8.4411   8.4412   8.7531  11.5775  11.5775  11.9792
    12.1027  12.1028  12.3935  12.6456  12.6457  12.6636  12.7389  12.7527
    12.7528  12.7820  12.8230  12.8231  13.1327  13.1350  13.4309

     occupation numbers
     1.0000   1.0000   1.0000   1.0000   1.0000   1.0000   1.0000   1.0000
     1.0000   1.0000   1.0000   1.0000   1.0000   1.0000   1.0000   1.0000
     1.0000   1.0000   1.0000   1.0000   1.0000   1.0000   1.0000   1.0000
     1.0000   1.0000   1.0000   1.0000   1.0000   1.0000   1.0000   1.0000
     1.0000   1.0000   1.0000   1.0000   1.0000   1.0000   0.8293   0.0864
     0.0847  -0.0004  -0.0000  -0.0000  -0.0000  -0.0000  -0.0000

     the Fermi energy is    12.7448 ev

!    total energy              =   -2037.78882223 Ry
     estimated scf accuracy    <       0.00000080 Ry
     smearing contrib. (-TS)   =      -0.00026887 Ry
     internal energy E=F+TS    =   -2037.78855336 Ry

     The total energy is F=E-TS. E is the sum of the following terms:
     one-electron contribution =    -824.62567122 Ry
     hartree contribution      =     462.43774549 Ry
     xc contribution           =    -125.92954159 Ry
     ewald contribution        =    -650.15490576 Ry
     one-center paw contrib.   =    -899.51618029 Ry
      -> PAW hartree energy AE =     259.76183856 Ry
      -> PAW hartree energy PS =    -254.20994265 Ry
      -> PAW xc energy AE      =    -939.11005918 Ry
      -> PAW xc energy PS      =      34.04198298 Ry
      -> total E_H with PAW    =     467.98964140 Ry
      -> total E_XC with PAW   =   -1030.99761778 Ry

     convergence has been achieved in  72 iterations

     Forces acting on atoms (cartesian axes, Ry/au):

     atom    1 type  1   force =    -0.00000000   -0.00000000    0.00000000
     atom    2 type  1   force =     0.00000000    0.00000000    0.00000000
     atom    3 type  2   force =     0.00000000    0.00000000   -0.00000000
     atom    4 type  2   force =    -0.00000000   -0.00000000    0.00000000
     atom    5 type  3   force =    -0.00000000   -0.00000000    0.00000000
     atom    6 type  3   force =     0.00000000    0.00000000    0.00000000
     The non-local contrib.  to forces
     atom    1 type  1   force =    -0.00000000    0.00000000    0.00000000
     atom    2 type  1   force =    -0.00000000    0.00000000    0.00000000
     atom    3 type  2   force =    -0.00000000   -0.00000000    0.00000000
     atom    4 type  2   force =     0.00000000    0.00000000    0.00000000
     atom    5 type  3   force =     0.00000000    0.00000000    0.00000000
     atom    6 type  3   force =    -0.00000000   -0.00000000    0.00000000
     The ionic contribution  to forces
     atom    1 type  1   force =     0.00000000    0.00000000    0.00000000
     atom    2 type  1   force =     0.00000000    0.00000000   -0.00000000
     atom    3 type  2   force =     0.00005258   -0.00003036    0.00000000
     atom    4 type  2   force =    -0.00005258    0.00003036   -0.00000000
     atom    5 type  3   force =    -0.00003152    0.00001820   -0.00000000
     atom    6 type  3   force =     0.00003152   -0.00001820   -0.00000000
     The local contribution  to forces
     atom    1 type  1   force =     0.00005444   -0.00015623   -0.00298182
     atom    2 type  1   force =    -0.00027478    0.00017033    0.00299626
     atom    3 type  2   force =     0.00005828    0.00003763    0.00034777
     atom    4 type  2   force =    -0.00008530    0.00012997   -0.00033319
     atom    5 type  3   force =     0.00003126   -0.00002421    0.00007136
     atom    6 type  3   force =    -0.00000679    0.00001651   -0.00008158
     The core correction contribution to forces
     atom    1 type  1   force =     0.00000000   -0.00000001   -0.00000007
     atom    2 type  1   force =    -0.00000001    0.00000001    0.00000007
     atom    3 type  2   force =     0.00000005    0.00000002    0.00000001
     atom    4 type  2   force =    -0.00000037    0.00000020    0.00000001
     atom    5 type  3   force =    -0.00000224    0.00000089   -0.00000001
     atom    6 type  3   force =     0.00000375    0.00000004   -0.00000051
     The Hubbard contrib.    to forces
     atom    1 type  1   force =     0.00000000    0.00000000    0.00000000
     atom    2 type  1   force =     0.00000000    0.00000000    0.00000000
     atom    3 type  2   force =     0.00000000    0.00000000    0.00000000
     atom    4 type  2   force =     0.00000000    0.00000000    0.00000000
     atom    5 type  3   force =     0.00000000    0.00000000    0.00000000
     atom    6 type  3   force =     0.00000000    0.00000000    0.00000000
     The SCF correction term to forces
     atom    1 type  1   force =     0.00011850    0.00001169    0.00231526
     atom    2 type  1   force =     0.00011817   -0.00003482   -0.00234385
     atom    3 type  2   force =    -0.00012704   -0.00000102   -0.00031792
     atom    4 type  2   force =    -0.00001488   -0.00009285    0.00031371
     atom    5 type  3   force =    -0.00000244    0.00000508   -0.00006017
     atom    6 type  3   force =    -0.00000406    0.00000065    0.00006712

     Total force =     0.000000     Total SCF correction =     0.003334

     Computing stress (Cartesian axis) and pressure

          total   stress  (Ry/bohr**3)                   (kbar)     P=     -309.92
  -0.00156697   0.00000000   0.00000000         -230.51        0.00        0.00
   0.00000000  -0.00156697   0.00000000            0.00     -230.51        0.00
   0.00000000   0.00000000  -0.00318650            0.00        0.00     -468.75

     kinetic stress (kbar)  15962.85     -0.00      0.00
                               -0.00  15962.85      0.00
                                0.00      0.00  15918.08

     local   stress (kbar) -11714.74     -0.25      0.09
                               -0.25 -11714.93     -0.03
                                0.09     -0.03  -9394.32

     nonloc. stress (kbar)  13195.12     -0.00      0.00
                               -0.00  13195.12      0.00
                                0.00      0.00  13394.99

     hartree stress (kbar)  28546.54      0.12     -0.03
                                0.12  28546.65      0.02
                               -0.03      0.02  28446.77

     exc-cor stress (kbar)  -5528.52      0.00     -0.00
                                0.00  -5528.52     -0.00
                               -0.00     -0.00  -5532.28

     corecor stress (kbar)  -1475.85      0.00      0.00
                                0.00  -1475.85      0.00
                                0.00      0.00  -1470.57

     ewald   stress (kbar) -39215.86     -0.00      0.00
                               -0.00 -39215.87     -0.00
                                0.00     -0.00 -41831.42

     hubbard stress (kbar)      0.00      0.00      0.00
                                0.00      0.00      0.00
                                0.00      0.00      0.00

     DFT-D   stress (kbar)      0.00      0.00      0.00
                                0.00      0.00      0.00
                                0.00      0.00      0.00

     XDM     stress (kbar)      0.00      0.00      0.00
                                0.00      0.00      0.00
                                0.00      0.00      0.00

     dft-nl  stress (kbar)      0.00      0.00      0.00
                                0.00      0.00      0.00
                                0.00      0.00      0.00

     TS-vdW  stress (kbar)      0.00      0.00      0.00
                                0.00      0.00      0.00
                                0.00      0.00      0.00

[...]

                                0.00      0.00      0.00

     Writing all to output data dir new_calculations/myprefix.save/

     General routines

     Parallel routines

     PAW routines

   This run was terminated on:   6: 5:49  20May2023

   JOB DONE.