     Program PWSCF v.7.0 starts on 21May2023 at  6:17:23

     Reading input from espresso_11892.pwi
Warning: card &CELL ignored
Warning: card / ignored

     Current dimensions of program PWSCF are:
     Max number of different atomic species (ntypx) = 10
     Max number of k-points (npk) =  40000
     Max angular momentum in pseudopotentials (lmaxx) =  4
     file Al.pbe-n-kjpaw_psl.1.0.0.UPF: wavefunction(s)  3S 3P renormalized

     gamma-point specific algorithms are used
     Message from routine setup:
     using ibrav=0 with symmetry is DISCOURAGED, use correct ibrav instead

     Subspace diagonalization in iterative solution of the eigenvalue problem:
     a serial algorithm will be used

     Using Slab Decomposition

     bravais-lattice index     =            0
     lattice parameter (alat)  =       7.7790  a.u.
     unit-cell volume          =    1212.8343 (a.u.)^3
     number of atoms/cell      =           12
     number of atomic types    =            2
     number of electrons       =       140.00
     number of Kohn-Sham states=           84
     kinetic-energy cutoff     =      30.0000  Ry
     charge density cutoff     =     240.0000  Ry
     scf convergence threshold =      1.0E-06
     mixing beta               =       0.7000
     number of iterations used =            8  plain     mixing
     Exchange-correlation=  SLA  PW   PBX  PBC
                           (   1   4   3   4   0   0   0)

     celldm(1)=   7.778965  celldm(2)=   0.000000  celldm(3)=   0.000000
     celldm(4)=   0.000000  celldm(5)=   0.000000  celldm(6)=   0.000000

     crystal axes: (cart. coord. in units of alat)
               a(1) = (   1.000000   0.000000   0.000000 )
               a(2) = (   0.000000   1.329041   0.000000 )
               a(3) = (   0.000000   0.000000   1.938642 )

     reciprocal axes: (cart. coord. in units 2 pi/alat)
               b(1) = (  1.000000  0.000000  0.000000 )
               b(2) = (  0.000000  0.752422  0.000000 )
               b(3) = (  0.000000  0.000000  0.515825 )

     PseudoPot. # 1 for Al read from file:
     /home/pragov/projects/rrg-bengioy-ad/pragov/crystal_structure_design/SSSP/Al.pbe-n-kjpaw_psl.1.0.0.UPF
     MD5 check sum: cfc449ca30b5f3223ec38ddd88ac046d
     Pseudo is Projector augmented-wave + core cor, Zval =  3.0
     Generated using "atomic" code by A. Dal Corso  v.5.1
     Shape of augmentation charge: PSQ
     Using radial grid of 1135 points,  6 beta functions with:
                l(1) =   0
                l(2) =   0
                l(3) =   1
                l(4) =   1
                l(5) =   2
                l(6) =   2
     Q(r) pseudized with 0 coefficients

     PseudoPot. # 2 for Pt read from file:
     /home/pragov/projects/rrg-bengioy-ad/pragov/crystal_structure_design/SSSP/pt_pbe_v1.4.uspp.F.UPF
     MD5 check sum: f09d6de1a584b5a045c4fc126da2d0c4
     Pseudo is Ultrasoft + core correction, Zval = 16.0
     Generated by new atomic code, or converted to UPF format
     Using radial grid of  985 points,  6 beta functions with:
                l(1) =   0
                l(2) =   0
                l(3) =   1
                l(4) =   1
                l(5) =   2
                l(6) =   2
     Q(r) pseudized with  8 coefficients,  rinner =    1.300   1.300   1.300
                                                       1.300   1.300

     atomic species   valence    mass     pseudopotential
        Al             3.00    26.98154     Al( 1.00)
        Pt            16.00   195.08400     Pt( 1.00)

      8 Sym. Ops., with inversion, found ( 6 have fractional translation)

                                    s                        frac. trans.

      isym =  1     identity

 cryst.   s( 1) = (     1          0          0      )
                  (     0          1          0      )
                  (     0          0          1      )

 cart.    s( 1) = (  1.0000000  0.0000000  0.0000000 )
                  (  0.0000000  1.0000000  0.0000000 )
                  (  0.0000000  0.0000000  1.0000000 )

      isym =  2     180 deg rotation - cart. axis [0,0,1]

 cryst.   s( 2) = (    -1          0          0      )    f =(  0.0000000 )
                  (     0         -1          0      )       (  0.5000000 )
                  (     0          0          1      )       ( -0.5000000 )

 cart.    s( 2) = ( -1.0000000  0.0000000  0.0000000 )    f =(  0.0000000 )
                  (  0.0000000 -1.0000000  0.0000000 )       (  0.6645206 )
                  (  0.0000000  0.0000000  1.0000000 )       ( -0.9693209 )

[...]

      isym =  4     180 deg rotation - cart. axis [1,0,0]

[...]

      isym =  5     inversion

 cryst.   s( 5) = (    -1          0          0      )
                  (     0         -1          0      )
                  (     0          0         -1      )

 cart.    s( 5) = ( -1.0000000  0.0000000  0.0000000 )
                  (  0.0000000 -1.0000000  0.0000000 )
                  (  0.0000000  0.0000000 -1.0000000 )

      isym =  6     inv. 180 deg rotation - cart. axis [0,0,1]

[...]

      isym =  8     inv. 180 deg rotation - cart. axis [1,0,0]

 cryst.   s( 8) = (    -1          0          0      )    f =(  0.5000000 )
                  (     0          1          0      )       (  0.0000000 )
                  (     0          0          1      )       (  0.0000000 )

 cart.    s( 8) = ( -1.0000000  0.0000000  0.0000000 )    f =(  0.5000000 )
                  (  0.0000000  1.0000000  0.0000000 )       (  0.0000000 )
                  (  0.0000000  0.0000000  1.0000000 )       (  0.0000000 )

   Cartesian axes

     site n.     atom                  positions (alat units)
         1           Al  tau(   1) = (   0.7500000   1.0752249   1.7378896  )
         2           Al  tau(   2) = (   0.2500000   0.2538163   0.2007522  )
         3           Al  tau(   3) = (   0.7500000   0.4107043   1.1700731  )
         4           Al  tau(   4) = (   0.2500000   0.9183369   0.7685687  )
         5           Pt  tau(   5) = (   0.7500000   0.6067352   0.5630649  )
         6           Pt  tau(   6) = (   0.2500000   0.7223060   1.3755769  )
         7           Pt  tau(   7) = (   0.7500000   1.2712558   0.4062560  )
         8           Pt  tau(   8) = (   0.2500000   0.0577854   1.5323858  )
         9           Pt  tau(   9) = (   0.7500000   0.4506433   1.8053582  )
        10           Pt  tau(  10) = (   0.2500000   0.8783979   0.1332836  )
        11           Pt  tau(  11) = (   0.7500000   1.1151639   1.1026045  )
        12           Pt  tau(  12) = (   0.2500000   0.2138773   0.8360373  )

   Crystallographic axes

     site n.     atom                  positions (cryst. coord.)
         1           Al  tau(   1) = (  0.7500000  0.8090230  0.8964470  )
         2           Al  tau(   2) = (  0.2500000  0.1909770  0.1035530  )
         3           Al  tau(   3) = (  0.7500000  0.3090230  0.6035530  )
         4           Al  tau(   4) = (  0.2500000  0.6909770  0.3964470  )
         5           Pt  tau(   5) = (  0.7500000  0.4565210  0.2904430  )
         6           Pt  tau(   6) = (  0.2500000  0.5434790  0.7095570  )
         7           Pt  tau(   7) = (  0.7500000  0.9565210  0.2095570  )
         8           Pt  tau(   8) = (  0.2500000  0.0434790  0.7904430  )
         9           Pt  tau(   9) = (  0.7500000  0.3390740  0.9312490  )
        10           Pt  tau(  10) = (  0.2500000  0.6609260  0.0687510  )
        11           Pt  tau(  11) = (  0.7500000  0.8390740  0.5687510  )
        12           Pt  tau(  12) = (  0.2500000  0.1609260  0.4312490  )

     number of k points=     1  Methfessel-Paxton smearing, width (Ry)=  0.0010
                       cart. coord. in units 2pi/alat
        k(    1) = (   0.0000000   0.0000000   0.0000000), wk =   2.0000000

                       cryst. coord.
        k(    1) = (   0.0000000   0.0000000   0.0000000), wk =   2.0000000

     Initial potential from superposition of free atoms

     starting charge     135.9907, renormalised to     140.0000

     negative rho (up, down):  1.511E+00 0.000E+00
     Starting wfcs are  112 randomized atomic wfcs
     Checking if some PAW data can be deallocated...

     Self-consistent Calculation

     iteration #  1     ecut=    30.00 Ry     beta= 0.70
     Davidson diagonalization with overlap

     ethr =  1.00E-02,  avg # of iterations =  2.0

     negative rho (up, down):  1.352E+00 0.000E+00

     total energy              =   -1838.09842834 Ry
     estimated scf accuracy    <      11.89387790 Ry

[...]

     total energy              =   -1844.03884506 Ry
     estimated scf accuracy    <       0.00000386 Ry

     iteration # 12     ecut=    30.00 Ry     beta= 0.70
     Davidson diagonalization with overlap

     ethr =  2.76E-09,  avg # of iterations =  2.0

[...]

     End of self-consistent calculation

          k = 0.0000 0.0000 0.0000 (  1677 PWs)   bands (ev):

   -35.4377 -35.4348 -35.2528 -35.2524 -35.0716 -35.0690 -35.0441 -35.0435
   -34.8814 -34.8719 -34.8498 -34.8474 -34.5105 -34.5046 -34.5026 -34.4999
   -34.2837 -34.2760 -34.2207 -34.2151 -34.2105 -34.2048 -34.1459 -34.1445
     7.3058   9.7007   9.9076  11.2162  11.4221  11.8706  12.0146  12.1262
    12.1935  12.2549  12.3797  12.6138  12.8677  12.9496  13.1267  13.1662
    13.2330  13.4807  13.5298  13.5669  14.4849  14.5532  14.5630  14.6681
    14.7645  14.9773  14.9791  15.0591  15.2012  15.3845  15.4146  15.4748
    15.6860  15.6890  15.9016  16.0702  16.3177  16.5385  16.6043  16.6408
    16.8936  16.8954  17.1439  17.4316  17.4981  17.7970  17.9943  18.6391
    19.6113  19.9741  20.4423  21.8427  22.3932  22.6963  22.8139  23.3116
    23.3194  23.5935  24.8462  25.0817

     occupation numbers
     1.0000   1.0000   1.0000   1.0000   1.0000   1.0000   1.0000   1.0000
     1.0000   1.0000   1.0000   1.0000   1.0000   1.0000   1.0000   1.0000
     1.0000   1.0000   1.0000   1.0000   1.0000   1.0000   1.0000   1.0000
     1.0000   1.0000   1.0000   1.0000   1.0000   1.0000   1.0000   1.0000
     1.0000   1.0000   1.0000   1.0000   1.0000   1.0000   1.0000   1.0000
     1.0000   1.0000   1.0000   1.0000   1.0000   1.0000   1.0000   1.0000
     1.0000   1.0000   1.0000   1.0000   1.0000   1.0000   1.0000   1.0000
     1.0000   1.0000   1.0000   1.0000   1.0000   1.0000   1.0000   1.0000
     1.0000   1.0000   1.0000   1.0000   1.0000   1.0000  -0.0000  -0.0000
    -0.0000  -0.0000  -0.0000  -0.0000  -0.0000  -0.0000  -0.0000  -0.0000
    -0.0000  -0.0000  -0.0000  -0.0000

     the Fermi energy is    17.9156 ev

!    total energy              =   -1844.03884555 Ry
     estimated scf accuracy    <       0.00000062 Ry
     smearing contrib. (-TS)   =       0.00000000 Ry
     internal energy E=F+TS    =   -1844.03884555 Ry

     The total energy is F=E-TS. E is the sum of the following terms:
     one-electron contribution =    -356.37928415 Ry
     hartree contribution      =     284.40543291 Ry
     xc contribution           =    -466.35193811 Ry
     ewald contribution        =   -1167.04374220 Ry
     one-center paw contrib.   =    -138.66931400 Ry
      -> PAW hartree energy AE =       6.22017394 Ry
      -> PAW hartree energy PS =      -6.20357910 Ry
      -> PAW xc energy AE      =    -146.58280968 Ry
      -> PAW xc energy PS      =       7.89690083 Ry
      -> total E_H with PAW    =     284.42202775 Ry
      -> total E_XC with PAW   =    -605.03784696 Ry

     convergence has been achieved in  12 iterations

     negative rho (up, down):  1.408E+00 0.000E+00

     Forces acting on atoms (cartesian axes, Ry/au):

     atom    1 type  1   force =     0.00000000   -0.01841931    0.02027518
     atom    2 type  1   force =     0.00000000    0.01841931   -0.02027518
     atom    3 type  1   force =     0.00000000   -0.01841931   -0.02027518
     atom    4 type  1   force =     0.00000000    0.01841931    0.02027518
     atom    5 type  2   force =     0.00000000    0.03558647    0.04535529
     atom    6 type  2   force =    -0.00000000   -0.03558647   -0.04535529
     atom    7 type  2   force =     0.00000000    0.03558647   -0.04535529
     atom    8 type  2   force =     0.00000000   -0.03558647    0.04535529
     atom    9 type  2   force =     0.00000000   -0.01457211    0.05605926
     atom   10 type  2   force =     0.00000000    0.01457211   -0.05605926
     atom   11 type  2   force =     0.00000000   -0.01457211   -0.05605926
     atom   12 type  2   force =     0.00000000    0.01457211    0.05605926
     The non-local contrib.  to forces
     atom    1 type  1   force =     0.00000000    0.00355619    0.02393670
     atom    2 type  1   force =     0.00000000   -0.00355619   -0.02393670
     atom    3 type  1   force =     0.00000000    0.00355619   -0.02393670
     atom    4 type  1   force =    -0.00000000   -0.00355619    0.02393670
     atom    5 type  2   force =    -0.00000000    0.02534467   -0.05641410
     atom    6 type  2   force =    -0.00000000   -0.02534467    0.05641410
     atom    7 type  2   force =     0.00000000    0.02534467    0.05641410
     atom    8 type  2   force =     0.00000000   -0.02534467   -0.05641410
     atom    9 type  2   force =     0.00000000   -0.07122196    0.05854044
     atom   10 type  2   force =     0.00000000    0.07122196   -0.05854044
     atom   11 type  2   force =     0.00000000   -0.07122196   -0.05854044
     atom   12 type  2   force =     0.00000000    0.07122196    0.05854044
     The ionic contribution  to forces
     atom    1 type  1   force =     0.00000000    0.56244187    0.06321202
     atom    2 type  1   force =     0.00000000   -0.56244187   -0.06321202
     atom    3 type  1   force =    -0.00000000    0.56244187   -0.06321202
     atom    4 type  1   force =     0.00000000   -0.56244187    0.06321202
     atom    5 type  2   force =    -0.00000000    0.92099284    4.54969176
     atom    6 type  2   force =     0.00000000   -0.92099284   -4.54969176
     atom    7 type  2   force =    -0.00000000    0.92099284   -4.54969176
     atom    8 type  2   force =    -0.00000000   -0.92099284    4.54969176
     atom    9 type  2   force =    -0.00000000   -2.56883211   -0.59397132
     atom   10 type  2   force =     0.00000000    2.56883211    0.59397132
     atom   11 type  2   force =    -0.00000000   -2.56883211    0.59397132
     atom   12 type  2   force =     0.00000000    2.56883211   -0.59397132
     The local contribution  to forces
     atom    1 type  1   force =     0.00000078   -0.58340530   -0.06492918
     atom    2 type  1   force =    -0.00000148    0.58348779    0.06484985
     atom    3 type  1   force =     0.00000142   -0.58330928    0.06488980
     atom    4 type  1   force =    -0.00000108    0.58330587   -0.06491670
     atom    5 type  2   force =     0.00003722   -0.90352183   -4.45893964
     atom    6 type  2   force =     0.00001050    0.90509297    4.45907297
     atom    7 type  2   force =     0.00000423   -0.90715612    4.46073043
     atom    8 type  2   force =    -0.00001234    0.90599065   -4.46050183
     atom    9 type  2   force =     0.00003795    2.61886307    0.58641082
     atom   10 type  2   force =    -0.00004159   -2.61903052   -0.58620400
     atom   11 type  2   force =    -0.00001036    2.61760056   -0.58812485
     atom   12 type  2   force =     0.00000305   -2.61825459    0.58799833
     The core correction contribution to forces
     atom    1 type  1   force =    -0.00000013   -0.00105436   -0.00192886
     atom    2 type  1   force =     0.00000028    0.00105442    0.00193277
     atom    3 type  1   force =     0.00000000   -0.00105332    0.00192873
     atom    4 type  1   force =     0.00000004    0.00105688   -0.00193011
     atom    5 type  2   force =     0.00000001   -0.00520973    0.01215682
     atom    6 type  2   force =     0.00000097    0.00523485   -0.01214432
     atom    7 type  2   force =     0.00000048   -0.00524329   -0.01212652
     atom    8 type  2   force =    -0.00000007    0.00522575    0.01213179
     atom    9 type  2   force =    -0.00000007    0.00737157    0.00515548
     atom   10 type  2   force =     0.00000052   -0.00735715   -0.00517810
     atom   11 type  2   force =     0.00000014    0.00734771   -0.00517875
     atom   12 type  2   force =     0.00000088   -0.00736420    0.00517954
     The Hubbard contrib.    to forces
     atom    1 type  1   force =     0.00000000    0.00000000    0.00000000
     atom    2 type  1   force =     0.00000000    0.00000000    0.00000000
     atom    3 type  1   force =     0.00000000    0.00000000    0.00000000
     atom    4 type  1   force =     0.00000000    0.00000000    0.00000000
     atom    5 type  2   force =     0.00000000    0.00000000    0.00000000
     atom    6 type  2   force =     0.00000000    0.00000000    0.00000000
     atom    7 type  2   force =     0.00000000    0.00000000    0.00000000
     atom    8 type  2   force =     0.00000000    0.00000000    0.00000000
     atom    9 type  2   force =     0.00000000    0.00000000    0.00000000
     atom   10 type  2   force =     0.00000000    0.00000000    0.00000000
     atom   11 type  2   force =     0.00000000    0.00000000    0.00000000
     atom   12 type  2   force =     0.00000000    0.00000000    0.00000000
     The SCF correction term to forces
     atom    1 type  1   force =    -0.00000137    0.00004348   -0.00000285
     atom    2 type  1   force =     0.00000236   -0.00012498    0.00010873
     atom    3 type  1   force =    -0.00000072   -0.00003967    0.00004260
     atom    4 type  1   force =     0.00000090    0.00007103   -0.00003397
     atom    5 type  2   force =    -0.00004393   -0.00218725   -0.00117849
     atom    6 type  2   force =    -0.00001764    0.00047736    0.00103855
     atom    7 type  2   force =    -0.00000928    0.00179310   -0.00070235
     atom    8 type  2   force =     0.00001902   -0.00054256    0.00051061
     atom    9 type  2   force =    -0.00004770   -0.00076716   -0.00001840
     atom   10 type  2   force =     0.00005643    0.00091209   -0.00014803
     atom   11 type  2   force =     0.00001925    0.00058936    0.00190137
     atom   12 type  2   force =    -0.00001180    0.00017165   -0.00169758

     Total force =     0.172381     Total SCF correction =     0.004484

     Computing stress (Cartesian axis) and pressure

     negative rho (up, down):  1.408E+00 0.000E+00
          total   stress  (Ry/bohr**3)                   (kbar)     P=      -38.31
  -0.00029962   0.00000000   0.00000000          -44.08        0.00        0.00
   0.00000000   0.00004740   0.00000000            0.00        6.97        0.00
   0.00000000   0.00000000  -0.00052914            0.00        0.00      -77.84

     kinetic stress (kbar)  37752.73      0.00      0.00
                                0.00  37495.03      0.00
                                0.00      0.00  37616.27

     local   stress (kbar)   9391.17      0.00      0.00
                                0.00   6197.36     -0.09
                                0.00     -0.09  10050.30

     nonloc. stress (kbar)     -7.51      0.00      0.00
                                0.00     94.62      0.00
                                0.00      0.00    185.51

     hartree stress (kbar)  11044.90     -0.00     -0.00
                               -0.00  12516.11      0.11
                               -0.00      0.11  10934.62

     exc-cor stress (kbar)  27255.93     -0.00     -0.00
                               -0.00  27252.25     -0.00
                               -0.00     -0.00  27255.83

     corecor stress (kbar) -37886.38      0.00     -0.00
                                0.00 -37851.98      0.00
                               -0.00      0.00 -37860.57

     ewald   stress (kbar) -47594.91     -0.00     -0.00
                               -0.00 -45696.42     -0.00
                               -0.00     -0.00 -48259.79

     hubbard stress (kbar)      0.00      0.00      0.00
                                0.00      0.00      0.00
                                0.00      0.00      0.00

     DFT-D   stress (kbar)      0.00      0.00      0.00
                                0.00      0.00      0.00
                                0.00      0.00      0.00

     XDM     stress (kbar)      0.00      0.00      0.00
                                0.00      0.00      0.00
                                0.00      0.00      0.00

     dft-nl  stress (kbar)      0.00      0.00      0.00
                                0.00      0.00      0.00
                                0.00      0.00      0.00

     TS-vdW  stress (kbar)      0.00      0.00      0.00
                                0.00      0.00      0.00
                                0.00      0.00      0.00

[...]

                                0.00      0.00      0.00

     Writing all to output data dir new_calculations/myprefix.save/

     General routines

     Parallel routines

     PAW routines

   This run was terminated on:   6:17:39  21May2023

   JOB DONE.