     Program PWSCF v.7.0 starts on 21May2023 at  4:10:19

     Reading input from espresso_23365.pwi
Warning: card &CELL ignored
Warning: card / ignored

     Current dimensions of program PWSCF are:
     Max number of different atomic species (ntypx) = 10
     Max number of k-points (npk) =  40000
     Max angular momentum in pseudopotentials (lmaxx) =  4

     gamma-point specific algorithms are used
     Message from routine setup:
     using ibrav=0 with symmetry is DISCOURAGED, use correct ibrav instead

     Subspace diagonalization in iterative solution of the eigenvalue problem:
     a serial algorithm will be used

     Using Slab Decomposition

     bravais-lattice index     =            0
     lattice parameter (alat)  =      26.7642  a.u.
     unit-cell volume          =    3545.1722 (a.u.)^3
     number of atoms/cell      =           16
     number of atomic types    =            4
     number of electrons       =       148.00
     number of Kohn-Sham states=           89
     kinetic-energy cutoff     =      30.0000  Ry
     charge density cutoff     =     240.0000  Ry
     scf convergence threshold =      1.0E-06
     mixing beta               =       0.7000
     number of iterations used =            8  plain     mixing
     Exchange-correlation= SLA  PW   PBE  PBE
                           (   1   4   3   4   0   0   0)

     celldm(1)=  26.764196  celldm(2)=   0.000000  celldm(3)=   0.000000
     celldm(4)=   0.000000  celldm(5)=   0.000000  celldm(6)=   0.000000

     crystal axes: (cart. coord. in units of alat)
               a(1) = (   1.000000   0.000000   0.000000 )
               a(2) = (   0.750403   0.482638   0.000000 )
               a(3) = (   0.249597  -0.293506   0.383136 )

     reciprocal axes: (cart. coord. in units 2 pi/alat)
               b(1) = (  1.000000 -1.554794 -1.842528 )
               b(2) = (  0.000000  2.071946  1.587241 )
               b(3) = (  0.000000  0.000000  2.610038 )

     PseudoPot. # 1 for Rb read from file:
     /home/pragov/projects/rrg-bengioy-ad/pragov/crystal_structure_design/SSSP/Rb_ONCV_PBE-1.0.oncvpsp.upf
     MD5 check sum: 55a5172d6bfbce6759a58e35d43f6aa9
     Pseudo is Norm-conserving, Zval =  9.0
     Generated using ONCVPSP code by D. R. Hamann
     Using radial grid of 2308 points,  6 beta functions with:
                l(1) =   0
                l(2) =   0
                l(3) =   1
                l(4) =   1
                l(5) =   2
                l(6) =   2

     PseudoPot. # 2 for V  read from file:
     /home/pragov/projects/rrg-bengioy-ad/pragov/crystal_structure_design/SSSP/v_pbe_v1.4.uspp.F.UPF
     MD5 check sum: 22b79981416ebb76fdaf5b1b8640f6fb
     Pseudo is Ultrasoft + core correction, Zval = 13.0
     Generated by new atomic code, or converted to UPF format
     Using radial grid of  853 points,  6 beta functions with:
                l(1) =   0
                l(2) =   0
                l(3) =   1
                l(4) =   1
                l(5) =   2
                l(6) =   2
     Q(r) pseudized with  8 coefficients,  rinner =    1.100   1.100   1.100
                                                       1.100   1.100

     PseudoPot. # 3 for Ag read from file:
     /home/pragov/projects/rrg-bengioy-ad/pragov/crystal_structure_design/SSSP/Ag_ONCV_PBE-1.0.oncvpsp.upf
     MD5 check sum: 94f47bd0669c641108e45594df92fabc
     Pseudo is Norm-conserving, Zval = 19.0
     Generated using ONCVPSP code by D. R. Hamann
     Using radial grid of 1398 points,  6 beta functions with:
                l(1) =   0
                l(2) =   0
                l(3) =   1
                l(4) =   1
                l(5) =   2
                l(6) =   2

     PseudoPot. # 4 for Se read from file:
     /home/pragov/projects/rrg-bengioy-ad/pragov/crystal_structure_design/SSSP/Se_pbe_v1.uspp.F.UPF
     MD5 check sum: 1b3568f3a8ae88f9a2a0ad0698632c85
     Pseudo is Ultrasoft + core correction, Zval =  6.0
     Generated by new atomic code, or converted to UPF format
     Using radial grid of  877 points,  6 beta functions with:
                l(1) =   0
                l(2) =   0
                l(3) =   1
                l(4) =   1
                l(5) =   2
                l(6) =   2
     Q(r) pseudized with  8 coefficients,  rinner =    1.300   1.300   1.300
                                                       1.300   1.300

     atomic species   valence    mass     pseudopotential
        Rb             9.00    85.46780     Rb( 1.00)
        V             13.00    50.94150     V ( 1.00)
        Ag            19.00   107.86820     Ag( 1.00)
        Se             6.00    78.97100     Se( 1.00)

      2 Sym. Ops., with inversion, found ( 1 have fractional translation)

                                    s                        frac. trans.

      isym =  1     identity

 cryst.   s( 1) = (     1          0          0      )
                  (     0          1          0      )
                  (     0          0          1      )

 cart.    s( 1) = (  1.0000000  0.0000000  0.0000000 )
                  (  0.0000000  1.0000000  0.0000000 )
                  (  0.0000000  0.0000000  1.0000000 )

      isym =  2     inversion

 cryst.   s( 2) = (    -1          0          0      )    f =( -0.2500000 )
                  (     0         -1          0      )       ( -0.2500000 )
                  (     0          0         -1      )       ( -0.2500000 )

 cart.    s( 2) = ( -1.0000000 -0.0000000 -0.0000000 )    f =( -0.5000000 )
                  (  0.0000000 -1.0000000 -0.0000000 )       ( -0.0472829 )
                  (  0.0000000  0.0000000 -1.0000000 )       ( -0.0957841 )

   Cartesian axes

     site n.     atom                  positions (alat units)
         1           Rb  tau(   1) = (   1.2715168   0.2349812   0.1222534  )
         2           Rb  tau(   2) = (   0.7284832  -0.0458496   0.2608828  )
         3           Rb  tau(   3) = (   1.7715168   0.2822640   0.2180375  )
         4           Rb  tau(   4) = (   1.2284832   0.0014332   0.3566669  )
         5           V   tau(   5) = (   1.5000000   0.1418486   0.2873522  )
         6           V   tau(   6) = (   1.0000000   0.0945658   0.1915681  )
         7           Ag  tau(   7) = (   0.5000000   0.0472829   0.0957841  )
         8           Ag  tau(   8) = (   0.0000000   0.0000000   0.0000000  )
         9           Se  tau(   9) = (   0.8667753   0.0879008   0.0959251  )
        10           Se  tau(  10) = (   1.1332247   0.0226938   0.1281139  )
        11           Se  tau(  11) = (   1.4647517  -0.0171494   0.2669069  )
        12           Se  tau(  12) = (   1.5352483   0.2223098   0.1487002  )
        13           Se  tau(  13) = (   1.0352483   0.2535638   0.2120134  )
        14           Se  tau(  14) = (   0.9647517   0.0141046   0.3302201  )
        15           Se  tau(  15) = (   1.3667753   0.2137206   0.3508064  )
        16           Se  tau(  16) = (   1.6332247   0.1485136   0.3829952  )

   Crystallographic axes

     site n.     atom                  positions (cryst. coord.)
         1           Rb  tau(   1) = (  0.6809140  0.6809140  0.3190860  )
         2           Rb  tau(   2) = (  0.3190860  0.3190860  0.6809140  )
         3           Rb  tau(   3) = (  0.9309140  0.9309140  0.5690860  )
         4           Rb  tau(   4) = (  0.5690860  0.5690860  0.9309140  )
         5           V   tau(   5) = (  0.7500000  0.7500000  0.7500000  )
         6           V   tau(   6) = (  0.5000000  0.5000000  0.5000000  )
         7           Ag  tau(   7) = (  0.2500000  0.2500000  0.2500000  )
         8           Ag  tau(   8) = (  0.0000000  0.0000000  0.0000000  )
         9           Se  tau(   9) = (  0.5533630  0.3343820  0.2503680  )
        10           Se  tau(  10) = (  0.8618870  0.2503680  0.3343820  )
        11           Se  tau(  11) = (  0.9996320  0.3881130  0.6966370  )
        12           Se  tau(  12) = (  0.9156180  0.6966370  0.3881130  )
        13           Se  tau(  13) = (  0.2503680  0.8618870  0.5533630  )
        14           Se  tau(  14) = (  0.3343820  0.5533630  0.8618870  )
        15           Se  tau(  15) = (  0.3881130  0.9996320  0.9156180  )
        16           Se  tau(  16) = (  0.6966370  0.9156180  0.9996320  )

     number of k points=     1  Methfessel-Paxton smearing, width (Ry)=  0.0010
                       cart. coord. in units 2pi/alat
        k(    1) = (   0.0000000   0.0000000   0.0000000), wk =   2.0000000

                       cryst. coord.
        k(    1) = (   0.0000000   0.0000000   0.0000000), wk =   2.0000000

     Check: negative core charge=   -0.000001

     Initial potential from superposition of free atoms

     starting charge     147.8973, renormalised to     148.0000

     negative rho (up, down):  1.659E-03 0.000E+00
     Starting wfcs are   92 randomized atomic wfcs

     Self-consistent Calculation

     iteration #  1     ecut=    30.00 Ry     beta= 0.70
     Davidson diagonalization with overlap

     ethr =  1.00E-02,  avg # of iterations =  4.0

     Threshold (ethr) on eigenvalues was too large:
     Diagonalizing with lowered threshold

     Davidson diagonalization with overlap

[...]

     negative rho (up, down):  2.851E-03 0.000E+00

     total energy              =   -1409.60450534 Ry
     estimated scf accuracy    <       0.64829312 Ry

[...]

     total energy              =   -1409.82037673 Ry
     estimated scf accuracy    <       0.00000157 Ry

     iteration # 11     ecut=    30.00 Ry     beta= 0.70
     Davidson diagonalization with overlap

     ethr =  1.06E-09,  avg # of iterations =  8.0

[...]

     End of self-consistent calculation

          k = 0.0000 0.0000 0.0000 (  4920 PWs)   bands (ev):

   -87.9984 -87.9980 -60.2647 -60.2643 -51.1048 -51.1041 -51.0090 -51.0086
   -50.9936 -50.9916 -34.1932 -34.1927 -34.0802 -34.0797 -34.0247 -34.0238
   -22.1033 -22.0997 -22.0975 -22.0939  -7.9143  -7.8926  -7.4976  -7.4925
    -7.3873  -7.3511  -7.3402  -7.2632  -6.2718  -6.2352  -6.2283  -6.2025
    -6.1790  -6.1719  -6.1570  -6.1421  -6.1356  -6.1198  -6.1138  -6.1081
    -0.2170  -0.1135   0.1560   0.2512   0.2966   0.3005   0.6046   0.6242
     0.6834   0.7283   1.0227   1.0320   1.8368   1.9402   1.9771   2.0203
     2.1470   2.2448   2.3030   2.3174   2.4236   2.5362   2.6101   2.7337
     2.7603   2.8029   2.8099   2.9679   3.4162   3.4943   3.5072   3.5108
     3.9952   3.9997   5.3699   5.3896   5.4426   5.4914   5.8755   6.4500
     6.4609   6.4723   6.4854   6.6118   6.8268   8.3050   8.7298   8.7865
     8.9800

     occupation numbers
     1.0000   1.0000   1.0000   1.0000   1.0000   1.0000   1.0000   1.0000
     1.0000   1.0000   1.0000   1.0000   1.0000   1.0000   1.0000   1.0000
     1.0000   1.0000   1.0000   1.0000   1.0000   1.0000   1.0000   1.0000
     1.0000   1.0000   1.0000   1.0000   1.0000   1.0000   1.0000   1.0000
     1.0000   1.0000   1.0000   1.0000   1.0000   1.0000   1.0000   1.0000
     1.0000   1.0000   1.0000   1.0000   1.0000   1.0000   1.0000   1.0000
     1.0000   1.0000   1.0000   1.0000   1.0000   1.0000   1.0000   1.0000
     1.0000   1.0000   1.0000   1.0000   1.0000   1.0000   1.0000   1.0000
     1.0000   1.0000   1.0000   1.0000   1.0000   1.0000   1.0000   1.0000
     1.0000   1.0000  -0.0000  -0.0000  -0.0000  -0.0000  -0.0000  -0.0000
    -0.0000  -0.0000  -0.0000  -0.0000  -0.0000  -0.0000  -0.0000  -0.0000
    -0.0000

     the Fermi energy is     4.5574 ev

!    total energy              =   -1409.82038638 Ry
     estimated scf accuracy    <       0.00000033 Ry
     smearing contrib. (-TS)   =       0.00000000 Ry
     internal energy E=F+TS    =   -1409.82038638 Ry

     The total energy is F=E-TS. E is the sum of the following terms:
     one-electron contribution =    -944.95914102 Ry
     hartree contribution      =     504.15953962 Ry
     xc contribution           =    -360.75984614 Ry
     ewald contribution        =    -608.26093884 Ry

     convergence has been achieved in  11 iterations

     negative rho (up, down):  2.666E-03 0.000E+00

     Forces acting on atoms (cartesian axes, Ry/au):

     atom    1 type  1   force =    -0.00037999   -0.00019294    0.00009480
     atom    2 type  1   force =     0.00036812    0.00019449   -0.00009509
     atom    3 type  1   force =    -0.00036812   -0.00019449    0.00009509
     atom    4 type  1   force =     0.00037999    0.00019294   -0.00009480
     atom    5 type  2   force =    -0.00000314   -0.00001268    0.00000311
     atom    6 type  2   force =     0.00000314    0.00001268   -0.00000311
     atom    7 type  3   force =    -0.00000664   -0.00000325    0.00000245
     atom    8 type  3   force =     0.00000664    0.00000325   -0.00000245
     atom    9 type  4   force =     0.01572967   -0.00156972   -0.00041356
     atom   10 type  4   force =    -0.01578762    0.00062908   -0.00148910
     atom   11 type  4   force =     0.00684389    0.01230067   -0.00726284
     atom   12 type  4   force =    -0.00682557   -0.01325565    0.00537027
     atom   13 type  4   force =    -0.00684389   -0.01230067    0.00726284
     atom   14 type  4   force =     0.00682557    0.01325565   -0.00537027
     atom   15 type  4   force =     0.01578762   -0.00062908    0.00148910
     atom   16 type  4   force =    -0.01572967    0.00156972    0.00041356
     The non-local contrib.  to forces
     atom    1 type  1   force =     0.00644473    0.00334551   -0.00165021
     atom    2 type  1   force =    -0.00643635   -0.00331684    0.00163623
     atom    3 type  1   force =     0.00643635    0.00331684   -0.00163623
     atom    4 type  1   force =    -0.00644473   -0.00334551    0.00165021
     atom    5 type  2   force =     0.00002675   -0.00001895    0.00000231
     atom    6 type  2   force =    -0.00002675    0.00001895   -0.00000231
     atom    7 type  3   force =     0.00007180   -0.00005360    0.00001665
     atom    8 type  3   force =    -0.00007180    0.00005360   -0.00001665
     atom    9 type  4   force =     0.15281506   -0.04448809   -0.01764290
     atom   10 type  4   force =    -0.15278908    0.01308850   -0.04605277
     atom   11 type  4   force =     0.04871940    0.11730543   -0.09748839
     atom   12 type  4   force =    -0.04875141   -0.14872541    0.03379196
     atom   13 type  4   force =    -0.04871940   -0.11730543    0.09748839
     atom   14 type  4   force =     0.04875141    0.14872541   -0.03379196
     atom   15 type  4   force =     0.15278908   -0.01308850    0.04605277
     atom   16 type  4   force =    -0.15281506    0.04448809    0.01764290
     The ionic contribution  to forces
     atom    1 type  1   force =    -1.27889011   -0.66138036    0.32648405
     atom    2 type  1   force =     1.27889011    0.66138036   -0.32648405
     atom    3 type  1   force =    -1.27889011   -0.66138036    0.32648405
     atom    4 type  1   force =     1.27889011    0.66138036   -0.32648405
     atom    5 type  2   force =     0.00000001   -0.00000000   -0.00000001
     atom    6 type  2   force =    -0.00000001    0.00000000    0.00000001
     atom    7 type  3   force =    -0.00000001    0.00000000    0.00000001
     atom    8 type  3   force =     0.00000001   -0.00000000   -0.00000001
     atom    9 type  4   force =   -10.55353347    2.10754260   -1.29918621
     atom   10 type  4   force =    10.55353347   -2.31300218    0.88297315
     atom   11 type  4   force =    -3.15174757   -9.40071337    4.38175359
     atom   12 type  4   force =     3.15174757    9.19525380   -4.79796666
     atom   13 type  4   force =     3.15174757    9.40071337   -4.38175359
     atom   14 type  4   force =    -3.15174757   -9.19525380    4.79796666
     atom   15 type  4   force =   -10.55353347    2.31300218   -0.88297315
     atom   16 type  4   force =    10.55353347   -2.10754260    1.29918622
     The local contribution  to forces
     atom    1 type  1   force =     1.27236028    0.65824418   -0.32493194
     atom    2 type  1   force =    -1.27199687   -0.65756989    0.32460714
     atom    3 type  1   force =     1.27210337    0.65765415   -0.32462599
     atom    4 type  1   force =    -1.27245671   -0.65827367    0.32494694
     atom    5 type  2   force =     0.00063844   -0.00033209    0.00015725
     atom    6 type  2   force =    -0.00088761    0.00001007    0.00002504
     atom    7 type  3   force =     0.00080612   -0.00051080    0.00022441
     atom    8 type  3   force =    -0.00112205    0.00006613    0.00000185
     atom    9 type  4   force =    10.43185051   -2.07056682    1.31165318
     atom   10 type  4   force =   -10.43224974    2.30023859   -0.84597085
     atom   11 type  4   force =     3.11502383    9.30587766   -4.30439286
     atom   12 type  4   force =    -3.11459041   -9.07613865    4.76989195
     atom   13 type  4   force =    -3.11510469   -9.30614683    4.30440172
     atom   14 type  4   force =     3.11473689    9.07630734   -4.77004243
     atom   15 type  4   force =    10.43200029   -2.30019370    0.84604144
     atom   16 type  4   force =   -10.43158934    2.07055799   -1.31158082
     The core correction contribution to forces
     atom    1 type  1   force =     0.00000000    0.00000000    0.00000000
     atom    2 type  1   force =     0.00000000    0.00000000    0.00000000
     atom    3 type  1   force =     0.00000000    0.00000000    0.00000000
     atom    4 type  1   force =     0.00000000    0.00000000    0.00000000
     atom    5 type  2   force =     0.00000443   -0.00000644    0.00000312
     atom    6 type  2   force =    -0.00000783    0.00000230   -0.00000094
     atom    7 type  3   force =     0.00000000    0.00000000    0.00000000
     atom    8 type  3   force =     0.00000000    0.00000000    0.00000000
     atom    9 type  4   force =    -0.01529872    0.00591276    0.00483085
     atom   10 type  4   force =     0.01529278    0.00023290    0.00763219
     atom   11 type  4   force =    -0.00491624   -0.01022255    0.01279059
     atom   12 type  4   force =     0.00492717    0.01637087   -0.00032754
     atom   13 type  4   force =     0.00491542    0.01021882   -0.01279126
     atom   14 type  4   force =    -0.00492112   -0.01636778    0.00032737
     atom   15 type  4   force =    -0.01529479   -0.00023257   -0.00763197
     atom   16 type  4   force =     0.01530474   -0.00591195   -0.00483271
     The Hubbard contrib.    to forces
     atom    1 type  1   force =     0.00000000    0.00000000    0.00000000
     atom    2 type  1   force =     0.00000000    0.00000000    0.00000000
     atom    3 type  1   force =     0.00000000    0.00000000    0.00000000
     atom    4 type  1   force =     0.00000000    0.00000000    0.00000000
     atom    5 type  2   force =     0.00000000    0.00000000    0.00000000
     atom    6 type  2   force =     0.00000000    0.00000000    0.00000000
     atom    7 type  3   force =     0.00000000    0.00000000    0.00000000
     atom    8 type  3   force =     0.00000000    0.00000000    0.00000000
     atom    9 type  4   force =     0.00000000    0.00000000    0.00000000
     atom   10 type  4   force =     0.00000000    0.00000000    0.00000000
     atom   11 type  4   force =     0.00000000    0.00000000    0.00000000
     atom   12 type  4   force =     0.00000000    0.00000000    0.00000000
     atom   13 type  4   force =     0.00000000    0.00000000    0.00000000
     atom   14 type  4   force =     0.00000000    0.00000000    0.00000000
     atom   15 type  4   force =     0.00000000    0.00000000    0.00000000
     atom   16 type  4   force =     0.00000000    0.00000000    0.00000000
     The SCF correction term to forces
     atom    1 type  1   force =    -0.00029099   -0.00040072    0.00019205
     atom    2 type  1   force =    -0.00009213   -0.00030195    0.00014655
     atom    3 type  1   force =    -0.00002106    0.00021209   -0.00012579
     atom    4 type  1   force =     0.00039523    0.00043331   -0.00020875
     atom    5 type  2   force =    -0.00066754    0.00035279   -0.00016458
     atom    6 type  2   force =     0.00093057   -0.00001063   -0.00002993
     atom    7 type  3   force =    -0.00086531    0.00059011   -0.00025562
     atom    8 type  3   force =     0.00121971   -0.00008752   -0.00000464
     atom    9 type  4   force =    -0.00007785    0.00003386   -0.00007273
     atom   10 type  4   force =     0.00041080    0.00007545   -0.00006717
     atom   11 type  4   force =    -0.00024069    0.00002843    0.00007007
     atom   12 type  4   force =    -0.00013670   -0.00000574   -0.00002072
     atom   13 type  4   force =     0.00031206    0.00019434   -0.00008658
     atom   14 type  4   force =     0.00002775   -0.00014502    0.00016883
     atom   15 type  4   force =    -0.00018765   -0.00011230    0.00000368
     atom   16 type  4   force =    -0.00013761   -0.00001778   -0.00000626

     Total force =     0.044818     Total SCF correction =     0.002347

     Computing stress (Cartesian axis) and pressure

     negative rho (up, down):  2.666E-03 0.000E+00
          total   stress  (Ry/bohr**3)                   (kbar)     P=     -124.95
  -0.00089847  -0.00001611   0.00000803         -132.17       -2.37        1.18
  -0.00001611  -0.00085692   0.00004193           -2.37     -126.06        6.17
   0.00000803   0.00004193  -0.00079279            1.18        6.17     -116.62

     kinetic stress (kbar)  10280.40      2.11     -1.05
                                2.11  10260.38    -35.05
                               -1.05    -35.05  10206.68

     local   stress (kbar)   -272.24   1623.10   -801.19
                             1623.10  -6150.42  -7664.71
                             -801.19  -7664.71 -17893.76

     nonloc. stress (kbar)   1462.26      1.39     -0.69
                                1.39   1464.60      8.38
                               -0.69      8.38   1477.43

     hartree stress (kbar)   3468.89   -726.40    358.56
                             -726.40   6098.85   3428.72
                              358.56   3428.72  11352.10

     exc-cor stress (kbar)   6253.33      0.05     -0.02
                                0.05   6253.69      0.86
                               -0.02      0.86   6255.00

     corecor stress (kbar)  -8551.21     -0.11      0.06
                               -0.11  -8550.91      0.31
                                0.06      0.31  -8550.43

     ewald   stress (kbar) -12773.60   -902.50    445.51
                             -902.50  -9502.23   4267.66
                              445.51   4267.66  -2963.64

     hubbard stress (kbar)      0.00      0.00      0.00
                                0.00      0.00      0.00
                                0.00      0.00      0.00

     DFT-D   stress (kbar)      0.00      0.00      0.00
                                0.00      0.00      0.00
                                0.00      0.00      0.00

     XDM     stress (kbar)      0.00      0.00      0.00
                                0.00      0.00      0.00
                                0.00      0.00      0.00

     dft-nl  stress (kbar)      0.00      0.00      0.00
                                0.00      0.00      0.00
                                0.00      0.00      0.00

     TS-vdW  stress (kbar)      0.00      0.00      0.00
                                0.00      0.00      0.00
                                0.00      0.00      0.00

[...]

                                0.00      0.00      0.00

     Writing all to output data dir new_calculations/myprefix.save/

     General routines

     Parallel routines

   This run was terminated on:   4:11:20  21May2023

   JOB DONE.