     Program PWSCF v.7.0 starts on 21May2023 at 15: 7:56

     Reading input from espresso_25657.pwi
Warning: card &CELL ignored
Warning: card / ignored

     Current dimensions of program PWSCF are:
     Max number of different atomic species (ntypx) = 10
     Max number of k-points (npk) =  40000
     Max angular momentum in pseudopotentials (lmaxx) =  4
     file Pb.pbe-dn-kjpaw_psl.0.2.2.UPF: wavefunction(s)  6S renormalized

     gamma-point specific algorithms are used
     Message from routine setup:
     using ibrav=0 with symmetry is DISCOURAGED, use correct ibrav instead

     Subspace diagonalization in iterative solution of the eigenvalue problem:
     a serial algorithm will be used

     Using Slab Decomposition

     bravais-lattice index     =            0
     lattice parameter (alat)  =       7.2124  a.u.
     unit-cell volume          =    3367.1187 (a.u.)^3
     number of atoms/cell      =           20
     number of atomic types    =            3
     number of electrons       =       176.00
     number of Kohn-Sham states=          106
     kinetic-energy cutoff     =      30.0000  Ry
     charge density cutoff     =     240.0000  Ry
     scf convergence threshold =      1.0E-06
     mixing beta               =       0.7000
     number of iterations used =            8  plain     mixing
     Exchange-correlation=  SLA  PW   PBX  PBC
                           (   1   4   3   4   0   0   0)

     celldm(1)=   7.212378  celldm(2)=   0.000000  celldm(3)=   0.000000
     celldm(4)=   0.000000  celldm(5)=   0.000000  celldm(6)=   0.000000

     crystal axes: (cart. coord. in units of alat)
               a(1) = (   1.000000   0.000000   0.000000 )
               a(2) = (   0.000000   2.417123   0.000000 )
               a(3) = (   0.000000   0.000000   3.712994 )

     reciprocal axes: (cart. coord. in units 2 pi/alat)
               b(1) = (  1.000000  0.000000  0.000000 )
               b(2) = (  0.000000  0.413715  0.000000 )
               b(3) = (  0.000000  0.000000  0.269324 )

     PseudoPot. # 1 for Zr read from file:
     /home/pragov/projects/rrg-bengioy-ad/pragov/crystal_structure_design/SSSP/Zr_pbe_v1.uspp.F.UPF
     MD5 check sum: 5db81b1e868ab7776c4564c113de050b
     Pseudo is Ultrasoft + core correction, Zval = 12.0
     Generated by new atomic code, or converted to UPF format
     Using radial grid of  887 points,  6 beta functions with:
                l(1) =   0
                l(2) =   0
                l(3) =   1
                l(4) =   1
                l(5) =   2
                l(6) =   2
     Q(r) pseudized with  6 coefficients,  rinner =    1.200   1.200   1.200
                                                       1.200   1.200

     PseudoPot. # 2 for Pb read from file:
     /home/pragov/projects/rrg-bengioy-ad/pragov/crystal_structure_design/SSSP/Pb.pbe-dn-kjpaw_psl.0.2.2.UPF
     MD5 check sum: 9d431e6316058b74ade52399a6cf67da
     Pseudo is Projector augmented-wave + core cor, Zval = 14.0
     Generated using "atomic" code by A. Dal Corso  v.5.0.99 svn rev. 10869
     Shape of augmentation charge: PSQ
     Using radial grid of 1281 points,  6 beta functions with:
                l(1) =   0
                l(2) =   0
                l(3) =   1
                l(4) =   1
                l(5) =   2
                l(6) =   2
     Q(r) pseudized with 0 coefficients

     PseudoPot. # 3 for S  read from file:
     /home/pragov/projects/rrg-bengioy-ad/pragov/crystal_structure_design/SSSP/s_pbe_v1.4.uspp.F.UPF
     MD5 check sum: 88d86576ff6df21479756cfb9bdac1df
     Pseudo is Ultrasoft + core correction, Zval =  6.0
     Generated by new atomic code, or converted to UPF format
     Using radial grid of  907 points,  6 beta functions with:
                l(1) =   0
                l(2) =   0
                l(3) =   1
                l(4) =   1
                l(5) =   2
                l(6) =   2
     Q(r) pseudized with  8 coefficients,  rinner =    1.300   1.300   1.300
                                                       1.300   1.300

     atomic species   valence    mass     pseudopotential
        Zr            12.00    91.22400     Zr( 1.00)
        Pb            14.00   207.20000     Pb( 1.00)
        S              6.00    32.06000     S ( 1.00)

      8 Sym. Ops., with inversion, found ( 6 have fractional translation)

                                    s                        frac. trans.

      isym =  1     identity

 cryst.   s( 1) = (     1          0          0      )
                  (     0          1          0      )
                  (     0          0          1      )

 cart.    s( 1) = (  1.0000000  0.0000000  0.0000000 )
                  (  0.0000000  1.0000000  0.0000000 )
                  (  0.0000000  0.0000000  1.0000000 )

      isym =  2     180 deg rotation - cart. axis [0,0,1]

 cryst.   s( 2) = (    -1          0          0      )    f =(  0.0000000 )
                  (     0         -1          0      )       (  0.5000000 )
                  (     0          0          1      )       (  0.5000000 )

 cart.    s( 2) = ( -1.0000000  0.0000000  0.0000000 )    f =(  0.0000000 )
                  (  0.0000000 -1.0000000  0.0000000 )       (  1.2085616 )
                  (  0.0000000  0.0000000  1.0000000 )       (  1.8564969 )

[...]

      isym =  4     180 deg rotation - cart. axis [1,0,0]

[...]

      isym =  5     inversion

 cryst.   s( 5) = (    -1          0          0      )
                  (     0         -1          0      )
                  (     0          0         -1      )

 cart.    s( 5) = ( -1.0000000  0.0000000  0.0000000 )
                  (  0.0000000 -1.0000000  0.0000000 )
                  (  0.0000000  0.0000000 -1.0000000 )

      isym =  6     inv. 180 deg rotation - cart. axis [0,0,1]

[...]

      isym =  8     inv. 180 deg rotation - cart. axis [1,0,0]

 cryst.   s( 8) = (    -1          0          0      )    f =(  0.5000000 )
                  (     0          1          0      )       (  0.0000000 )
                  (     0          0          1      )       (  0.0000000 )

 cart.    s( 8) = ( -1.0000000  0.0000000  0.0000000 )    f =(  0.5000000 )
                  (  0.0000000  1.0000000  0.0000000 )       (  0.0000000 )
                  (  0.0000000  0.0000000  1.0000000 )       (  0.0000000 )

   Cartesian axes

     site n.     atom                  positions (alat units)
         1           Zr  tau(   1) = (   0.2500000   0.4006938   3.5320263  )
         2           Zr  tau(   2) = (   0.7500000   2.0164294   0.1809676  )
         3           Zr  tau(   3) = (   0.2500000   1.6092553   2.0374646  )
         4           Zr  tau(   4) = (   0.7500000   0.8078678   1.6755293  )
         5           Pb  tau(   5) = (   0.2500000   1.2636792   0.6408887  )
         6           Pb  tau(   6) = (   0.7500000   1.1534439   3.0721051  )
         7           Pb  tau(   7) = (   0.2500000   0.0551177   1.2156082  )
         8           Pb  tau(   8) = (   0.7500000   2.3620055   2.4973857  )
         9           S   tau(   9) = (   0.2500000   0.0228273   0.3887245  )
        10           S   tau(  10) = (   0.7500000   2.3942958   3.3242694  )
        11           S   tau(  11) = (   0.2500000   1.2313889   1.4677725  )
        12           S   tau(  12) = (   0.7500000   1.1857343   2.2452214  )
        13           S   tau(  13) = (   0.2500000   0.4085881   1.8923199  )
        14           S   tau(  14) = (   0.7500000   2.0085351   1.8206740  )
        15           S   tau(  15) = (   0.2500000   1.6171496   3.6771709  )
        16           S   tau(  16) = (   0.7500000   0.7999735   0.0358230  )
        17           S   tau(  17) = (   0.7500000   0.5496417   1.0635166  )
        18           S   tau(  18) = (   0.2500000   1.8674814   2.6494773  )
        19           S   tau(  19) = (   0.7500000   1.7582033   0.7929804  )
        20           S   tau(  20) = (   0.2500000   0.6589199   2.9200135  )

   Crystallographic axes

     site n.     atom                  positions (cryst. coord.)
         1           Zr  tau(   1) = (  0.2500000  0.1657730  0.9512610  )
         2           Zr  tau(   2) = (  0.7500000  0.8342270  0.0487390  )
         3           Zr  tau(   3) = (  0.2500000  0.6657730  0.5487390  )
         4           Zr  tau(   4) = (  0.7500000  0.3342270  0.4512610  )
         5           Pb  tau(   5) = (  0.2500000  0.5228030  0.1726070  )
         6           Pb  tau(   6) = (  0.7500000  0.4771970  0.8273930  )
         7           Pb  tau(   7) = (  0.2500000  0.0228030  0.3273930  )
         8           Pb  tau(   8) = (  0.7500000  0.9771970  0.6726070  )
         9           S   tau(   9) = (  0.2500000  0.0094440  0.1046930  )
        10           S   tau(  10) = (  0.7500000  0.9905560  0.8953070  )
        11           S   tau(  11) = (  0.2500000  0.5094440  0.3953070  )
        12           S   tau(  12) = (  0.7500000  0.4905560  0.6046930  )
        13           S   tau(  13) = (  0.2500000  0.1690390  0.5096480  )
        14           S   tau(  14) = (  0.7500000  0.8309610  0.4903520  )
        15           S   tau(  15) = (  0.2500000  0.6690390  0.9903520  )
        16           S   tau(  16) = (  0.7500000  0.3309610  0.0096480  )
        17           S   tau(  17) = (  0.7500000  0.2273950  0.2864310  )
        18           S   tau(  18) = (  0.2500000  0.7726050  0.7135690  )
        19           S   tau(  19) = (  0.7500000  0.7273950  0.2135690  )
        20           S   tau(  20) = (  0.2500000  0.2726050  0.7864310  )

     number of k points=     1  Methfessel-Paxton smearing, width (Ry)=  0.0010
                       cart. coord. in units 2pi/alat
        k(    1) = (   0.0000000   0.0000000   0.0000000), wk =   2.0000000

                       cryst. coord.
        k(    1) = (   0.0000000   0.0000000   0.0000000), wk =   2.0000000

     Check: negative core charge=   -0.000002

     Initial potential from superposition of free atoms

     starting charge     175.9816, renormalised to     176.0000

     negative rho (up, down):  2.408E-01 0.000E+00
     Starting wfcs are  136 randomized atomic wfcs
     Checking if some PAW data can be deallocated...

     Self-consistent Calculation

     iteration #  1     ecut=    30.00 Ry     beta= 0.70
     Davidson diagonalization with overlap

     ethr =  1.00E-02,  avg # of iterations =  3.0

     negative rho (up, down):  2.454E-01 0.000E+00

     total energy              =   -4167.66788302 Ry
     estimated scf accuracy    <       2.32095377 Ry

[...]

     total energy              =   -4168.67643524 Ry
     estimated scf accuracy    <       0.00002307 Ry

     iteration # 14     ecut=    30.00 Ry     beta= 0.70
     Davidson diagonalization with overlap

     ethr =  5.94E-09,  avg # of iterations =  3.0

[...]

     End of self-consistent calculation

          k = 0.0000 0.0000 0.0000 (  4697 PWs)   bands (ev):

   -41.8034 -41.8025 -41.7987 -41.7977 -19.9748 -19.9739 -19.9328 -19.9320
   -19.8314 -19.8305 -19.8104 -19.8096 -19.6139 -19.6130 -19.5970 -19.5960
    -9.6701  -9.6697  -9.6695  -9.6691  -9.5432  -9.5427  -9.5423  -9.5417
    -9.5275  -9.5269  -9.5267  -9.5262  -9.5045  -9.5026  -9.5025  -9.5013
    -9.4709  -9.4704  -9.4702  -9.4695  -5.4058  -5.1088  -4.8971  -4.6474
    -4.4645  -4.2817  -4.2226  -4.1101  -4.1067  -4.0707  -3.9462  -3.8004
    -0.8234  -0.3995  -0.0565   0.1917   3.2781   3.3524   3.6178   3.6825
     3.9355   3.9738   4.1590   4.3591   4.4702   4.5028   4.6234   4.7475
     4.7545   4.7881   5.0219   5.0570   5.1854   5.3003   5.5513   5.6545
     5.7354   5.9009   5.9085   6.0456   6.2134   6.3458   6.3508   6.4585
     6.6787   6.7818   6.8079   6.9475   6.9575   7.1320   7.1766   7.2912
     8.4928   8.5627   8.8770   8.8899   9.5334   9.6019   9.6220   9.6492
     9.6698  10.0826  10.1133  10.1261  10.3413  10.3866  10.4766  10.4871
    10.7005  11.0808

     occupation numbers
     1.0000   1.0000   1.0000   1.0000   1.0000   1.0000   1.0000   1.0000
     1.0000   1.0000   1.0000   1.0000   1.0000   1.0000   1.0000   1.0000
     1.0000   1.0000   1.0000   1.0000   1.0000   1.0000   1.0000   1.0000
     1.0000   1.0000   1.0000   1.0000   1.0000   1.0000   1.0000   1.0000
     1.0000   1.0000   1.0000   1.0000   1.0000   1.0000   1.0000   1.0000
     1.0000   1.0000   1.0000   1.0000   1.0000   1.0000   1.0000   1.0000
     1.0000   1.0000   1.0000   1.0000   1.0000   1.0000   1.0000   1.0000
     1.0000   1.0000   1.0000   1.0000   1.0000   1.0000   1.0000   1.0000
     1.0000   1.0000   1.0000   1.0000   1.0000   1.0000   1.0000   1.0000
     1.0000   1.0000   1.0000   1.0000   1.0000   1.0000   1.0000   1.0000
     1.0000   1.0000   1.0000   1.0000   1.0000   1.0000   1.0000   1.0000
    -0.0000  -0.0000  -0.0000  -0.0000  -0.0000  -0.0000  -0.0000  -0.0000
    -0.0000  -0.0000  -0.0000  -0.0000  -0.0000  -0.0000  -0.0000  -0.0000
    -0.0000  -0.0000

     the Fermi energy is     7.8946 ev

!    total energy              =   -4168.67643839 Ry
     estimated scf accuracy    <       0.00000064 Ry
     smearing contrib. (-TS)   =       0.00000000 Ry
     internal energy E=F+TS    =   -4168.67643839 Ry

     The total energy is F=E-TS. E is the sum of the following terms:
     one-electron contribution =    -339.41439939 Ry
     hartree contribution      =     260.39815499 Ry
     xc contribution           =    -350.41442205 Ry
     ewald contribution        =    -825.33272381 Ry
     one-center paw contrib.   =   -2913.91304813 Ry
      -> PAW hartree energy AE =     386.44376618 Ry
      -> PAW hartree energy PS =    -385.62003821 Ry
      -> PAW xc energy AE      =   -3089.32707073 Ry
      -> PAW xc energy PS      =     174.59029463 Ry
      -> total E_H with PAW    =     261.22188296 Ry
      -> total E_XC with PAW   =   -3265.15119816 Ry

     convergence has been achieved in  14 iterations

     negative rho (up, down):  2.491E-01 0.000E+00

     Forces acting on atoms (cartesian axes, Ry/au):

     atom    1 type  1   force =     0.00000000    0.02770873   -0.00262288
     atom    2 type  1   force =     0.00000000   -0.02770873    0.00262288
     atom    3 type  1   force =     0.00000000    0.02770873    0.00262288
     atom    4 type  1   force =     0.00000000   -0.02770873   -0.00262288
     atom    5 type  2   force =     0.00000000   -0.02640759   -0.00443245
     atom    6 type  2   force =     0.00000000    0.02640759    0.00443245
     atom    7 type  2   force =     0.00000000   -0.02640759    0.00443245
     atom    8 type  2   force =    -0.00000000    0.02640759   -0.00443245
     atom    9 type  3   force =     0.00000000   -0.03678211   -0.02467372
     atom   10 type  3   force =     0.00000000    0.03678211    0.02467372
     atom   11 type  3   force =     0.00000000   -0.03678211    0.02467372
     atom   12 type  3   force =     0.00000000    0.03678211   -0.02467372
     atom   13 type  3   force =     0.00000000    0.07923493   -0.04139326
     atom   14 type  3   force =    -0.00000000   -0.07923493    0.04139326
     atom   15 type  3   force =     0.00000000    0.07923493    0.04139326
     atom   16 type  3   force =     0.00000000   -0.07923493   -0.04139326
     atom   17 type  3   force =     0.00000000    0.04606670    0.01700344
     atom   18 type  3   force =     0.00000000   -0.04606670   -0.01700344
     atom   19 type  3   force =    -0.00000000    0.04606670   -0.01700344
     atom   20 type  3   force =     0.00000000   -0.04606670    0.01700344
     The non-local contrib.  to forces
     atom    1 type  1   force =     0.00000000   -0.00258129   -0.00409109
     atom    2 type  1   force =     0.00000000    0.00258129    0.00409109
     atom    3 type  1   force =     0.00000000   -0.00258129    0.00409109
     atom    4 type  1   force =     0.00000000    0.00258129   -0.00409109
     atom    5 type  2   force =     0.00000000    0.30975193    0.03289130
     atom    6 type  2   force =    -0.00000000   -0.30975193   -0.03289130
     atom    7 type  2   force =     0.00000000    0.30975193   -0.03289130
     atom    8 type  2   force =    -0.00000000   -0.30975193    0.03289130
     atom    9 type  3   force =     0.00000000    0.03556161   -0.00433494
     atom   10 type  3   force =     0.00000000   -0.03556161    0.00433494
     atom   11 type  3   force =     0.00000000    0.03556161    0.00433494
     atom   12 type  3   force =     0.00000000   -0.03556161   -0.00433494
     atom   13 type  3   force =     0.00000000   -0.09361496   -0.01323674
     atom   14 type  3   force =     0.00000000    0.09361496    0.01323674
     atom   15 type  3   force =     0.00000000   -0.09361496    0.01323674
     atom   16 type  3   force =    -0.00000000    0.09361496   -0.01323674
     atom   17 type  3   force =    -0.00000000   -0.01135736   -0.00594860
     atom   18 type  3   force =     0.00000000    0.01135736    0.00594860
     atom   19 type  3   force =     0.00000000   -0.01135736    0.00594860
     atom   20 type  3   force =     0.00000000    0.01135736   -0.00594860
     The ionic contribution  to forces
     atom    1 type  1   force =     0.00000000    0.63162444    1.04932507
     atom    2 type  1   force =     0.00000000   -0.63162444   -1.04932507
     atom    3 type  1   force =    -0.00000000    0.63162444   -1.04932507
     atom    4 type  1   force =     0.00000000   -0.63162444    1.04932507
     atom    5 type  2   force =    -0.00000000   -6.30464571    2.09342726
     atom    6 type  2   force =    -0.00000000    6.30464571   -2.09342726
     atom    7 type  2   force =     0.00000000   -6.30464571   -2.09342726
     atom    8 type  2   force =    -0.00000000    6.30464571    2.09342726
     atom    9 type  3   force =    -0.00000000    3.13622574    4.47806870
     atom   10 type  3   force =    -0.00000000   -3.13622574   -4.47806870
     atom   11 type  3   force =     0.00000000    3.13622574   -4.47806870
     atom   12 type  3   force =    -0.00000000   -3.13622574    4.47806870
     atom   13 type  3   force =    -0.00000000   -2.49834594    4.45124811
     atom   14 type  3   force =     0.00000000    2.49834594   -4.45124811
     atom   15 type  3   force =    -0.00000000   -2.49834594   -4.45124811
     atom   16 type  3   force =    -0.00000000    2.49834594    4.45124811
     atom   17 type  3   force =     0.00000000    1.59179290   -5.73064382
     atom   18 type  3   force =    -0.00000000   -1.59179290    5.73064382
     atom   19 type  3   force =     0.00000000    1.59179290    5.73064382
     atom   20 type  3   force =     0.00000000   -1.59179290   -5.73064382
     The local contribution  to forces
     atom    1 type  1   force =    -0.00000230   -0.60187175   -1.04965194
     atom    2 type  1   force =    -0.00000201    0.60178203    1.04927441
     atom    3 type  1   force =    -0.00000535   -0.60134493    1.04988727
     atom    4 type  1   force =     0.00000059    0.60115174   -1.04960441
     atom    5 type  2   force =     0.00000304    5.98113500   -2.12596109
     atom    6 type  2   force =     0.00001330   -5.98096100    2.12606199
     atom    7 type  2   force =     0.00000349    5.98108605    2.12768991
     atom    8 type  2   force =    -0.00000215   -5.98084805   -2.12763591
     atom    9 type  3   force =    -0.00000072   -3.20646101   -4.49861848
     atom   10 type  3   force =    -0.00000024    3.20650226    4.49856204
     atom   11 type  3   force =    -0.00000151   -3.20646954    4.49787705
     atom   12 type  3   force =     0.00000269    3.20646849   -4.49790018
     atom   13 type  3   force =    -0.00000254    2.66515724   -4.47975711
     atom   14 type  3   force =     0.00000036   -2.66527705    4.47988028
     atom   15 type  3   force =     0.00001084    2.66610486    4.48003992
     atom   16 type  3   force =     0.00000084   -2.66626346   -4.48032145
     atom   17 type  3   force =     0.00000447   -1.53450942    5.75275208
     atom   18 type  3   force =     0.00000012    1.53425509   -5.75266770
     atom   19 type  3   force =    -0.00000806   -1.53508415   -5.75258284
     atom   20 type  3   force =     0.00000261    1.53496646    5.75267105
     The core correction contribution to forces
     atom    1 type  1   force =     0.00000007    0.00010645    0.00141106
     atom    2 type  1   force =    -0.00000020   -0.00010447   -0.00141243
     atom    3 type  1   force =    -0.00000026    0.00010812   -0.00140957
     atom    4 type  1   force =     0.00000007   -0.00010810    0.00141106
     atom    5 type  2   force =    -0.00000006   -0.01228491   -0.00377377
     atom    6 type  2   force =     0.00000065    0.01228397    0.00377620
     atom    7 type  2   force =     0.00000022   -0.01227784    0.00378635
     atom    8 type  2   force =    -0.00000051    0.01228063   -0.00378848
     atom    9 type  3   force =    -0.00000010   -0.00225894   -0.00025066
     atom   10 type  3   force =     0.00000015    0.00225840    0.00025075
     atom   11 type  3   force =     0.00000002   -0.00226246    0.00024406
     atom   12 type  3   force =     0.00000015    0.00226228   -0.00024643
     atom   13 type  3   force =    -0.00000013    0.00569978    0.00038110
     atom   14 type  3   force =    -0.00000021   -0.00570415   -0.00037972
     atom   15 type  3   force =     0.00000010    0.00571529   -0.00037444
     atom   16 type  3   force =    -0.00000045   -0.00571973    0.00037178
     atom   17 type  3   force =    -0.00000016    0.00037700    0.00113388
     atom   18 type  3   force =    -0.00000027   -0.00038135   -0.00113273
     atom   19 type  3   force =    -0.00000056    0.00036033   -0.00113708
     atom   20 type  3   force =     0.00000011   -0.00036304    0.00113817
     The Hubbard contrib.    to forces
     atom    1 type  1   force =     0.00000000    0.00000000    0.00000000
     atom    2 type  1   force =     0.00000000    0.00000000    0.00000000
     atom    3 type  1   force =     0.00000000    0.00000000    0.00000000
     atom    4 type  1   force =     0.00000000    0.00000000    0.00000000
     atom    5 type  2   force =     0.00000000    0.00000000    0.00000000
     atom    6 type  2   force =     0.00000000    0.00000000    0.00000000
     atom    7 type  2   force =     0.00000000    0.00000000    0.00000000
     atom    8 type  2   force =     0.00000000    0.00000000    0.00000000
     atom    9 type  3   force =     0.00000000    0.00000000    0.00000000
     atom   10 type  3   force =     0.00000000    0.00000000    0.00000000
     atom   11 type  3   force =     0.00000000    0.00000000    0.00000000
     atom   12 type  3   force =     0.00000000    0.00000000    0.00000000
     atom   13 type  3   force =     0.00000000    0.00000000    0.00000000
     atom   14 type  3   force =     0.00000000    0.00000000    0.00000000
     atom   15 type  3   force =     0.00000000    0.00000000    0.00000000
     atom   16 type  3   force =     0.00000000    0.00000000    0.00000000
     atom   17 type  3   force =     0.00000000    0.00000000    0.00000000
     atom   18 type  3   force =     0.00000000    0.00000000    0.00000000
     atom   19 type  3   force =     0.00000000    0.00000000    0.00000000
     atom   20 type  3   force =     0.00000000    0.00000000    0.00000000
     The SCF correction term to forces
     atom    1 type  1   force =     0.00000291    0.00053708    0.00044853
     atom    2 type  1   force =     0.00000130   -0.00038643   -0.00005853
     atom    3 type  1   force =     0.00000251   -0.00015436   -0.00056524
     atom    4 type  1   force =     0.00000158    0.00038348    0.00027415
     atom    5 type  2   force =    -0.00000069   -0.00043992   -0.00118073
     atom    6 type  2   force =    -0.00000443    0.00022331    0.00105658
     atom    7 type  2   force =    -0.00000434   -0.00028385   -0.00087779
     atom    8 type  2   force =     0.00000155    0.00001093    0.00082918
     atom    9 type  3   force =     0.00000010    0.00020132    0.00039584
     atom   10 type  3   force =    -0.00000054   -0.00024920   -0.00032695
     atom   11 type  3   force =     0.00000131    0.00010413    0.00019105
     atom   12 type  3   force =    -0.00000111   -0.00011089   -0.00021200
     atom   13 type  3   force =     0.00000031    0.00018245    0.00006339
     atom   14 type  3   force =    -0.00000039   -0.00015159   -0.00015313
     atom   15 type  3   force =    -0.00000407   -0.00056050   -0.00021239
     atom   16 type  3   force =    -0.00000035    0.00063180    0.00044432
     atom   17 type  3   force =    -0.00000105   -0.00007565   -0.00034618
     atom   18 type  3   force =     0.00000048    0.00024163    0.00027084
     atom   19 type  3   force =     0.00000179    0.00012311    0.00007663
     atom   20 type  3   force =    -0.00000176   -0.00005218   -0.00013843

     Total force =     0.235425     Total SCF correction =     0.002704

     Computing stress (Cartesian axis) and pressure

     negative rho (up, down):  2.491E-01 0.000E+00
          total   stress  (Ry/bohr**3)                   (kbar)     P=       35.04
   0.00081516   0.00000000   0.00000000          119.91        0.00        0.00
   0.00000000   0.00001946   0.00000000            0.00        2.86        0.00
   0.00000000   0.00000000  -0.00011995            0.00        0.00      -17.64

     kinetic stress (kbar)   9830.26      0.00      0.00
                                0.00   9569.11      0.00
                                0.00      0.00   9610.62

     local   stress (kbar)  -7227.83     -0.00      0.00
                               -0.00  -2919.60      0.18
                                0.00      0.18    691.10

     nonloc. stress (kbar)   4941.68      0.00      0.00
                                0.00   4966.21      0.00
                                0.00      0.00   4913.64

     hartree stress (kbar)   5436.98      0.00     -0.00
                                0.00   3723.71     -0.17
                               -0.00     -0.17   2215.77

     exc-cor stress (kbar)   4957.56      0.00     -0.00
                                0.00   4957.72     -0.00
                               -0.00     -0.00   4959.03

     corecor stress (kbar)  -8155.93      0.00     -0.00
                                0.00  -8154.66     -0.00
                               -0.00     -0.00  -8152.50

     ewald   stress (kbar)  -9662.81      0.00     -0.00
                                0.00 -12139.61     -0.00
                               -0.00     -0.00 -14255.30

     hubbard stress (kbar)      0.00      0.00      0.00
                                0.00      0.00      0.00
                                0.00      0.00      0.00

     DFT-D   stress (kbar)      0.00      0.00      0.00
                                0.00      0.00      0.00
                                0.00      0.00      0.00

     XDM     stress (kbar)      0.00      0.00      0.00
                                0.00      0.00      0.00
                                0.00      0.00      0.00

     dft-nl  stress (kbar)      0.00      0.00      0.00
                                0.00      0.00      0.00
                                0.00      0.00      0.00

     TS-vdW  stress (kbar)      0.00      0.00      0.00
                                0.00      0.00      0.00
                                0.00      0.00      0.00

[...]

                                0.00      0.00      0.00

     Writing all to output data dir new_calculations/myprefix.save/

     General routines

     Parallel routines

     PAW routines

   This run was terminated on:  15: 9:23  21May2023

   JOB DONE.