     Program PWSCF v.7.0 starts on 20May2023 at  2: 9:30

     Reading input from espresso_2078.pwi
Warning: card &CELL ignored
Warning: card / ignored

     Current dimensions of program PWSCF are:
     Max number of different atomic species (ntypx) = 10
     Max number of k-points (npk) =  40000
     Max angular momentum in pseudopotentials (lmaxx) =  4

     gamma-point specific algorithms are used
     Message from routine setup:
     using ibrav=0 with symmetry is DISCOURAGED, use correct ibrav instead

     Subspace diagonalization in iterative solution of the eigenvalue problem:
     a serial algorithm will be used

     Using Slab Decomposition

     bravais-lattice index     =            0
     lattice parameter (alat)  =       6.6257  a.u.
     unit-cell volume          =     931.1895 (a.u.)^3
     number of atoms/cell      =           12
     number of atomic types    =            3
     number of electrons       =       140.00
     number of Kohn-Sham states=           84
     kinetic-energy cutoff     =      30.0000  Ry
     charge density cutoff     =     240.0000  Ry
     scf convergence threshold =      1.0E-06
     mixing beta               =       0.7000
     number of iterations used =            8  plain     mixing
     Exchange-correlation= PBE
                           (   1   4   3   4   0   0   0)

     celldm(1)=   6.625667  celldm(2)=   0.000000  celldm(3)=   0.000000
     celldm(4)=   0.000000  celldm(5)=   0.000000  celldm(6)=   0.000000

     crystal axes: (cart. coord. in units of alat)
               a(1) = (   1.000000   0.000000   0.000000 )
               a(2) = (   0.000000   1.675067   0.000000 )
               a(3) = (   0.000000   0.000000   1.911249 )

     reciprocal axes: (cart. coord. in units 2 pi/alat)
               b(1) = (  1.000000  0.000000  0.000000 )
               b(2) = (  0.000000  0.596991  0.000000 )
               b(3) = (  0.000000  0.000000  0.523218 )

     PseudoPot. # 1 for V  read from file:
     /home/pragov/projects/rrg-bengioy-ad/pragov/crystal_structure_design/SSSP/v_pbe_v1.4.uspp.F.UPF
     MD5 check sum: 22b79981416ebb76fdaf5b1b8640f6fb
     Pseudo is Ultrasoft + core correction, Zval = 13.0
     Generated by new atomic code, or converted to UPF format
     Using radial grid of  853 points,  6 beta functions with:
                l(1) =   0
                l(2) =   0
                l(3) =   1
                l(4) =   1
                l(5) =   2
                l(6) =   2
     Q(r) pseudized with  8 coefficients,  rinner =    1.100   1.100   1.100
                                                       1.100   1.100

     PseudoPot. # 2 for Co read from file:
     /home/pragov/projects/rrg-bengioy-ad/pragov/crystal_structure_design/SSSP/Co_pbe_v1.2.uspp.F.UPF
     MD5 check sum: 5f91765df6ddd3222702df6e7b74a16d
     Pseudo is Ultrasoft + core correction, Zval = 17.0
     Generated by new atomic code, or converted to UPF format
     Using radial grid of  863 points,  6 beta functions with:
                l(1) =   0
                l(2) =   0
                l(3) =   1
                l(4) =   1
                l(5) =   2
                l(6) =   2
     Q(r) pseudized with  8 coefficients,  rinner =    1.200   1.200   1.200
                                                       1.200   1.200

     PseudoPot. # 3 for P  read from file:
     /home/pragov/projects/rrg-bengioy-ad/pragov/crystal_structure_design/SSSP/P.pbe-n-rrkjus_psl.1.0.0.UPF
     MD5 check sum: 8b930f418f0a4573dca56cd030ffe088
     Pseudo is Ultrasoft + core correction, Zval =  5.0
     Generated using "atomic" code by A. Dal Corso  v.5.1
     Using radial grid of 1147 points,  6 beta functions with:
                l(1) =   0
                l(2) =   0
                l(3) =   1
                l(4) =   1
                l(5) =   2
                l(6) =   2
     Q(r) pseudized with 0 coefficients

     atomic species   valence    mass     pseudopotential
        V             13.00    50.94150     V ( 1.00)
        Co            17.00    58.93319     Co( 1.00)
        P              5.00    30.97376     P ( 1.00)

      8 Sym. Ops., with inversion, found ( 6 have fractional translation)

                                    s                        frac. trans.

      isym =  1     identity

 cryst.   s( 1) = (     1          0          0      )
                  (     0          1          0      )
                  (     0          0          1      )

 cart.    s( 1) = (  1.0000000  0.0000000  0.0000000 )
                  (  0.0000000  1.0000000  0.0000000 )
                  (  0.0000000  0.0000000  1.0000000 )

      isym =  2     180 deg rotation - cart. axis [0,0,1]

 cryst.   s( 2) = (    -1          0          0      )    f =( -0.0000000 )
                  (     0         -1          0      )       (  0.5000000 )
                  (     0          0          1      )       ( -0.5000000 )

 cart.    s( 2) = ( -1.0000000  0.0000000  0.0000000 )    f =( -0.0000000 )
                  (  0.0000000 -1.0000000  0.0000000 )       (  0.8375333 )
                  (  0.0000000  0.0000000  1.0000000 )       ( -0.9556243 )

[...]

      isym =  4     180 deg rotation - cart. axis [1,0,0]

[...]

      isym =  5     inversion

 cryst.   s( 5) = (    -1          0          0      )
                  (     0         -1          0      )
                  (     0          0         -1      )

 cart.    s( 5) = ( -1.0000000  0.0000000  0.0000000 )
                  (  0.0000000 -1.0000000  0.0000000 )
                  (  0.0000000  0.0000000 -1.0000000 )

      isym =  6     inv. 180 deg rotation - cart. axis [0,0,1]

[...]

      isym =  8     inv. 180 deg rotation - cart. axis [1,0,0]

 cryst.   s( 8) = (    -1          0          0      )    f =(  0.5000000 )
                  (     0          1          0      )       (  0.0000000 )
                  (     0          0          1      )       (  0.0000000 )

 cart.    s( 8) = ( -1.0000000  0.0000000  0.0000000 )    f =(  0.5000000 )
                  (  0.0000000  1.0000000  0.0000000 )       (  0.0000000 )
                  (  0.0000000  0.0000000  1.0000000 )       (  0.0000000 )

   Cartesian axes

     site n.     atom                  positions (alat units)
         1           V   tau(   1) = (   0.2500000   0.0484228   0.3215829  )
         2           V   tau(   2) = (   0.2500000   0.8859561   0.6340414  )
         3           V   tau(   3) = (   0.7500000   1.6266437   1.5896657  )
         4           V   tau(   4) = (   0.7500000   0.7891105   1.2772071  )
         5           Co  tau(   5) = (   0.2500000   0.2401560   1.0737681  )
         6           Co  tau(   6) = (   0.2500000   1.0776893   1.7931047  )
         7           Co  tau(   7) = (   0.7500000   1.4349106   0.8374805  )
         8           Co  tau(   8) = (   0.7500000   0.5973773   0.1181438  )
         9           P   tau(   9) = (   0.2500000   1.2859670   1.1951095  )
        10           P   tau(  10) = (   0.2500000   0.4484337   1.6717634  )
        11           P   tau(  11) = (   0.7500000   0.3890995   0.7161391  )
        12           P   tau(  12) = (   0.7500000   1.2266328   0.2394852  )

   Crystallographic axes

     site n.     atom                  positions (cryst. coord.)
         1           V   tau(   1) = (  0.2500000  0.0289080  0.1682580  )
         2           V   tau(   2) = (  0.2500000  0.5289080  0.3317420  )
         3           V   tau(   3) = (  0.7500000  0.9710920  0.8317420  )
         4           V   tau(   4) = (  0.7500000  0.4710920  0.6682580  )
         5           Co  tau(   5) = (  0.2500000  0.1433710  0.5618150  )
         6           Co  tau(   6) = (  0.2500000  0.6433710  0.9381850  )
         7           Co  tau(   7) = (  0.7500000  0.8566290  0.4381850  )
         8           Co  tau(   8) = (  0.7500000  0.3566290  0.0618150  )
         9           P   tau(   9) = (  0.2500000  0.7677110  0.6253030  )
        10           P   tau(  10) = (  0.2500000  0.2677110  0.8746970  )
        11           P   tau(  11) = (  0.7500000  0.2322890  0.3746970  )
        12           P   tau(  12) = (  0.7500000  0.7322890  0.1253030  )

     number of k points=     1  Methfessel-Paxton smearing, width (Ry)=  0.0010
                       cart. coord. in units 2pi/alat
        k(    1) = (   0.0000000   0.0000000   0.0000000), wk =   2.0000000

                       cryst. coord.
        k(    1) = (   0.0000000   0.0000000   0.0000000), wk =   2.0000000

     Check: negative core charge=   -0.000016

     Initial potential from superposition of free atoms

     starting charge     135.9944, renormalised to     140.0000

     negative rho (up, down):  4.142E-03 0.000E+00
     Starting wfcs are  108 randomized atomic wfcs

     Self-consistent Calculation

     iteration #  1     ecut=    30.00 Ry     beta= 0.70
     Davidson diagonalization with overlap

     ethr =  1.00E-02,  avg # of iterations =  4.0

     negative rho (up, down):  5.229E-03 0.000E+00

     total energy              =   -1810.08923829 Ry
     estimated scf accuracy    <      28.03721586 Ry

[...]

     total energy              =   -1830.65658654 Ry
     estimated scf accuracy    <       0.00000611 Ry

     iteration # 34     ecut=    30.00 Ry     beta= 0.70
     Davidson diagonalization with overlap

     ethr =  1.50E-09,  avg # of iterations =  1.0

[...]

     End of self-consistent calculation

          k = 0.0000 0.0000 0.0000 (  1296 PWs)   bands (ev):

   -77.5556 -77.5554 -77.5435 -77.5431 -46.5649 -46.5557 -46.5390 -46.5296
   -40.9987 -40.9955 -40.9864 -40.9861 -40.9832 -40.9817 -40.9277 -40.9245
   -40.6008 -40.5998 -40.5333 -40.5298 -20.8178 -20.8042 -20.7803 -20.7447
   -20.4716 -20.4100 -20.3698 -20.3310 -20.1281 -20.1151 -20.0537 -20.0395
     3.6416   5.5169   5.6318   5.7857  10.2124  10.4525  11.0735  11.6870
    12.0428  12.7557  12.7557  12.8253  12.9611  13.1762  13.7991  13.8963
    14.1451  14.6695  14.6979  15.0535  15.0625  15.0724  15.2187  15.3479
    15.6086  15.7729  15.9499  16.1318  16.1430  16.2062  16.3580  16.4643
    16.8722  16.9744  17.2506  17.5696  17.6232  17.6364  17.8348  18.1046
    18.1082  18.2094  18.3364  18.4529  18.7648  18.9540  18.9662  19.3196
    19.5790  19.6000  20.3411  20.8247

     occupation numbers
     1.0000   1.0000   1.0000   1.0000   1.0000   1.0000   1.0000   1.0000
     1.0000   1.0000   1.0000   1.0000   1.0000   1.0000   1.0000   1.0000
     1.0000   1.0000   1.0000   1.0000   1.0000   1.0000   1.0000   1.0000
     1.0000   1.0000   1.0000   1.0000   1.0000   1.0000   1.0000   1.0000
     1.0000   1.0000   1.0000   1.0000   1.0000   1.0000   1.0000   1.0000
     1.0000   1.0000   1.0000   1.0000   1.0000   1.0000   1.0000   1.0000
     1.0000   1.0000   1.0000   1.0000   1.0000   1.0000   1.0000   1.0000
     1.0000   1.0000   1.0000   1.0000   1.0000   1.0000   1.0000   1.0000
     1.0000   1.0000   1.0000   1.0000   1.0000   1.0000  -0.0000  -0.0000
    -0.0000  -0.0000  -0.0000  -0.0000  -0.0000  -0.0000  -0.0000  -0.0000
    -0.0000  -0.0000  -0.0000  -0.0000

     the Fermi energy is    17.7334 ev

!    total energy              =   -1830.65658672 Ry
     estimated scf accuracy    <       0.00000006 Ry
     smearing contrib. (-TS)   =       0.00000000 Ry
     internal energy E=F+TS    =   -1830.65658672 Ry

     The total energy is F=E-TS. E is the sum of the following terms:
     one-electron contribution =    -952.02757741 Ry
     hartree contribution      =     560.09063123 Ry
     xc contribution           =    -228.13751440 Ry
     ewald contribution        =   -1210.58212613 Ry

     convergence has been achieved in  34 iterations

     negative rho (up, down):  5.120E-03 0.000E+00

     Forces acting on atoms (cartesian axes, Ry/au):

     atom    1 type  1   force =     0.00000000   -0.04696627    0.02965563
     atom    2 type  1   force =    -0.00000000   -0.04696627   -0.02965563
     atom    3 type  1   force =     0.00000000    0.04696627   -0.02965563
     atom    4 type  1   force =    -0.00000000    0.04696627    0.02965563
     atom    5 type  2   force =     0.00000000    0.05621190   -0.00394882
     atom    6 type  2   force =     0.00000000    0.05621190    0.00394882
     atom    7 type  2   force =     0.00000000   -0.05621190    0.00394882
     atom    8 type  2   force =     0.00000000   -0.05621190   -0.00394882
     atom    9 type  3   force =    -0.00000000   -0.04066199    0.04477029
     atom   10 type  3   force =    -0.00000000   -0.04066199   -0.04477029
     atom   11 type  3   force =     0.00000000    0.04066199   -0.04477029
     atom   12 type  3   force =     0.00000000    0.04066199    0.04477029
     The non-local contrib.  to forces
     atom    1 type  1   force =     0.00000000   -0.03275537    0.09970132
     atom    2 type  1   force =     0.00000000   -0.03275537   -0.09970132
     atom    3 type  1   force =     0.00000000    0.03275537   -0.09970132
     atom    4 type  1   force =     0.00000000    0.03275537    0.09970132
     atom    5 type  2   force =     0.00000000    0.12261316   -0.40062283
     atom    6 type  2   force =     0.00000000    0.12261316    0.40062283
     atom    7 type  2   force =     0.00000000   -0.12261316    0.40062283
     atom    8 type  2   force =     0.00000000   -0.12261316   -0.40062283
     atom    9 type  3   force =     0.00000000    0.02704433    0.00412814
     atom   10 type  3   force =     0.00000000    0.02704433   -0.00412814
     atom   11 type  3   force =    -0.00000000   -0.02704433   -0.00412814
     atom   12 type  3   force =    -0.00000000   -0.02704433    0.00412814
     The ionic contribution  to forces
     atom    1 type  1   force =     0.00000000   -0.81657169   -4.11338838
     atom    2 type  1   force =    -0.00000000   -0.81657169    4.11338838
     atom    3 type  1   force =    -0.00000000    0.81657169    4.11338838
     atom    4 type  1   force =    -0.00000000    0.81657169   -4.11338838
     atom    5 type  2   force =    -0.00000000    7.83201452    4.06252251
     atom    6 type  2   force =    -0.00000000    7.83201452   -4.06252251
     atom    7 type  2   force =    -0.00000000   -7.83201452   -4.06252251
     atom    8 type  2   force =    -0.00000000   -7.83201452    4.06252251
     atom    9 type  3   force =     0.00000000   -3.14445362    1.35525489
     atom   10 type  3   force =    -0.00000000   -3.14445362   -1.35525489
     atom   11 type  3   force =    -0.00000000    3.14445362   -1.35525489
     atom   12 type  3   force =     0.00000000    3.14445362    1.35525489
     The local contribution  to forces
     atom    1 type  1   force =    -0.00000134    0.80042398    4.04175867
     atom    2 type  1   force =     0.00000261    0.80043423   -4.04157280
     atom    3 type  1   force =     0.00000115   -0.80027057   -4.04156279
     atom    4 type  1   force =     0.00000069   -0.80024464    4.04143221
     atom    5 type  2   force =    -0.00000100   -7.89551951   -3.67305520
     atom    6 type  2   force =    -0.00000096   -7.89565071    3.67299336
     atom    7 type  2   force =     0.00000033    7.89524639    3.67262274
     atom    8 type  2   force =    -0.00000435    7.89529866   -3.67265076
     atom    9 type  3   force =    -0.00000004    3.07778604   -1.31391299
     atom   10 type  3   force =    -0.00000046    3.07783873    1.31382336
     atom   11 type  3   force =     0.00000180   -3.07782574    1.31367342
     atom   12 type  3   force =    -0.00000093   -3.07782858   -1.31356547
     The core correction contribution to forces
     atom    1 type  1   force =    -0.00000008    0.00202369    0.00179337
     atom    2 type  1   force =     0.00000008    0.00202310   -0.00179359
     atom    3 type  1   force =    -0.00000001   -0.00202371   -0.00179216
     atom    4 type  1   force =    -0.00000009   -0.00202340    0.00179314
     atom    5 type  2   force =    -0.00000003   -0.00300502    0.00698901
     atom    6 type  2   force =     0.00000004   -0.00300530   -0.00698878
     atom    7 type  2   force =     0.00000004    0.00300618   -0.00698855
     atom    8 type  2   force =    -0.00000003    0.00300632    0.00698804
     atom    9 type  3   force =     0.00000002   -0.00105500   -0.00087406
     atom   10 type  3   force =    -0.00000008   -0.00105633    0.00087467
     atom   11 type  3   force =     0.00000008    0.00105447    0.00087319
     atom   12 type  3   force =    -0.00000002    0.00105583   -0.00087324
     The Hubbard contrib.    to forces
     atom    1 type  1   force =     0.00000000    0.00000000    0.00000000
     atom    2 type  1   force =     0.00000000    0.00000000    0.00000000
     atom    3 type  1   force =     0.00000000    0.00000000    0.00000000
     atom    4 type  1   force =     0.00000000    0.00000000    0.00000000
     atom    5 type  2   force =     0.00000000    0.00000000    0.00000000
     atom    6 type  2   force =     0.00000000    0.00000000    0.00000000
     atom    7 type  2   force =     0.00000000    0.00000000    0.00000000
     atom    8 type  2   force =     0.00000000    0.00000000    0.00000000
     atom    9 type  3   force =     0.00000000    0.00000000    0.00000000
     atom   10 type  3   force =     0.00000000    0.00000000    0.00000000
     atom   11 type  3   force =     0.00000000    0.00000000    0.00000000
     atom   12 type  3   force =     0.00000000    0.00000000    0.00000000
     The SCF correction term to forces
     atom    1 type  1   force =     0.00000021   -0.00009176   -0.00020431
     atom    2 type  1   force =    -0.00000277   -0.00008339    0.00002214
     atom    3 type  1   force =    -0.00000239   -0.00007556    0.00001595
     atom    4 type  1   force =    -0.00000089   -0.00007545    0.00011443
     atom    5 type  2   force =     0.00000215    0.00011745    0.00017732
     atom    6 type  2   force =     0.00000401    0.00025592   -0.00014410
     atom    7 type  2   force =     0.00000029    0.00016632    0.00019728
     atom    8 type  2   force =     0.00000444    0.00013208   -0.00015043
     atom    9 type  3   force =     0.00000053    0.00001998    0.00016001
     atom   10 type  3   force =    -0.00000024   -0.00004581   -0.00006621
     atom   11 type  3   force =    -0.00000050    0.00000856    0.00005323
     atom   12 type  3   force =     0.00000049    0.00003386   -0.00015353

     Total force =     0.199183     Total SCF correction =     0.000617

     Computing stress (Cartesian axis) and pressure

     negative rho (up, down):  5.120E-03 0.000E+00
          total   stress  (Ry/bohr**3)                   (kbar)     P=     -304.45
  -0.00105561   0.00000000   0.00000000         -155.29        0.00        0.00
   0.00000000  -0.00293428   0.00000000            0.00     -431.65        0.00
   0.00000000   0.00000000  -0.00221898            0.00        0.00     -326.42

     kinetic stress (kbar)  36574.76      0.00      0.00
                                0.00  36047.34      0.00
                                0.00      0.00  35880.75

     local   stress (kbar)  -5105.47      0.00      0.00
                                0.00  -1049.18     -0.00
                                0.00     -0.00   1950.21

     nonloc. stress (kbar)  10336.77      0.00      0.00
                                0.00  10418.72      0.00
                                0.00      0.00  10247.96

     hartree stress (kbar)  31246.50     -0.00     -0.00
                               -0.00  29510.03      0.02
                               -0.00      0.02  27724.05

     exc-cor stress (kbar)  -7447.53     -0.00     -0.00
                               -0.00  -7450.70     -0.00
                               -0.00     -0.00  -7450.37

     corecor stress (kbar)  -3709.66      0.00      0.00
                                0.00  -3699.15      0.00
                                0.00      0.00  -3696.12

     ewald   stress (kbar) -62050.65      0.00      0.00
                                0.00 -64208.72      0.00
                                0.00      0.00 -64982.89

     hubbard stress (kbar)      0.00      0.00      0.00
                                0.00      0.00      0.00
                                0.00      0.00      0.00

     DFT-D   stress (kbar)      0.00      0.00      0.00
                                0.00      0.00      0.00
                                0.00      0.00      0.00

     XDM     stress (kbar)      0.00      0.00      0.00
                                0.00      0.00      0.00
                                0.00      0.00      0.00

     dft-nl  stress (kbar)      0.00      0.00      0.00
                                0.00      0.00      0.00
                                0.00      0.00      0.00

     TS-vdW  stress (kbar)      0.00      0.00      0.00
                                0.00      0.00      0.00
                                0.00      0.00      0.00

[...]

                                0.00      0.00      0.00

     Writing all to output data dir new_calculations/myprefix.save/

     General routines

     Parallel routines

   This run was terminated on:   2:10:18  20May2023

   JOB DONE.