     Program PWSCF v.7.0 starts on 20May2023 at  5:21:14

     Reading input from espresso_16070.pwi
Warning: card &CELL ignored
Warning: card / ignored

     Current dimensions of program PWSCF are:
     Max number of different atomic species (ntypx) = 10
     Max number of k-points (npk) =  40000
     Max angular momentum in pseudopotentials (lmaxx) =  4
     file Cd.pbe-dn-rrkjus_psl.0.3.1.UPF: wavefunction(s)  4D renormalized
     file Ga.pbe-dn-kjpaw_psl.1.0.0.UPF: wavefunction(s)  4S renormalized

     gamma-point specific algorithms are used
     Message from routine setup:
     using ibrav=0 with symmetry is DISCOURAGED, use correct ibrav instead

     Subspace diagonalization in iterative solution of the eigenvalue problem:
     a serial algorithm will be used

     Using Slab Decomposition

     bravais-lattice index     =            0
     lattice parameter (alat)  =      11.0334  a.u.
     unit-cell volume          =    1201.0374 (a.u.)^3
     number of atoms/cell      =            7
     number of atomic types    =            4
     number of electrons       =        62.00
     number of Kohn-Sham states=           37
     kinetic-energy cutoff     =      30.0000  Ry
     charge density cutoff     =     240.0000  Ry
     scf convergence threshold =      1.0E-06
     mixing beta               =       0.7000
     number of iterations used =            8  plain     mixing
     Exchange-correlation=  SLA  PW   PBX  PBC
                           (   1   4   3   4   0   0   0)

     celldm(1)=  11.033427  celldm(2)=   0.000000  celldm(3)=   0.000000
     celldm(4)=   0.000000  celldm(5)=   0.000000  celldm(6)=   0.000000

     crystal axes: (cart. coord. in units of alat)
               a(1) = (   1.000000   0.000000   0.000000 )
               a(2) = (   0.028976   0.981789   0.000000 )
               a(3) = (   0.514488   0.490894   0.910767 )

     reciprocal axes: (cart. coord. in units 2 pi/alat)
               b(1) = (  1.000000 -0.029514 -0.548988 )
               b(2) = (  0.000000  1.018549 -0.548988 )
               b(3) = (  0.000000  0.000000  1.097976 )

     PseudoPot. # 1 for Cd read from file:
     /home/pragov/projects/rrg-bengioy-ad/pragov/crystal_structure_design/SSSP/Cd.pbe-dn-rrkjus_psl.0.3.1.UPF
     MD5 check sum: 558e9f355611b531a870a69ef6ace9e2
     Pseudo is Ultrasoft + core correction, Zval = 12.0
     Generated using "atomic" code by A. Dal Corso  v.5.0.99 svn rev. 10869
     Using radial grid of 1239 points,  6 beta functions with:
                l(1) =   0
                l(2) =   0
                l(3) =   1
                l(4) =   1
                l(5) =   2
                l(6) =   2
     Q(r) pseudized with 0 coefficients

     PseudoPot. # 2 for Ga read from file:
     /home/pragov/projects/rrg-bengioy-ad/pragov/crystal_structure_design/SSSP/Ga.pbe-dn-kjpaw_psl.1.0.0.UPF
     MD5 check sum: a27b4342b1af7e5f338de752e9ed7044
     Pseudo is Projector augmented-wave + core cor, Zval = 13.0
     Generated using "atomic" code by A. Dal Corso  v.5.1
     Shape of augmentation charge: PSQ
     Using radial grid of 1205 points,  6 beta functions with:
                l(1) =   0
                l(2) =   0
                l(3) =   1
                l(4) =   1
                l(5) =   2
                l(6) =   2
     Q(r) pseudized with 0 coefficients

     PseudoPot. # 3 for Se read from file:
     /home/pragov/projects/rrg-bengioy-ad/pragov/crystal_structure_design/SSSP/Se_pbe_v1.uspp.F.UPF
     MD5 check sum: 1b3568f3a8ae88f9a2a0ad0698632c85
     Pseudo is Ultrasoft + core correction, Zval =  6.0
     Generated by new atomic code, or converted to UPF format
     Using radial grid of  877 points,  6 beta functions with:
                l(1) =   0
                l(2) =   0
                l(3) =   1
                l(4) =   1
                l(5) =   2
                l(6) =   2
     Q(r) pseudized with  8 coefficients,  rinner =    1.300   1.300   1.300
                                                       1.300   1.300

     PseudoPot. # 4 for S  read from file:
     /home/pragov/projects/rrg-bengioy-ad/pragov/crystal_structure_design/SSSP/s_pbe_v1.4.uspp.F.UPF
     MD5 check sum: 88d86576ff6df21479756cfb9bdac1df
     Pseudo is Ultrasoft + core correction, Zval =  6.0
     Generated by new atomic code, or converted to UPF format
     Using radial grid of  907 points,  6 beta functions with:
                l(1) =   0
                l(2) =   0
                l(3) =   1
                l(4) =   1
                l(5) =   2
                l(6) =   2
     Q(r) pseudized with  8 coefficients,  rinner =    1.300   1.300   1.300
                                                       1.300   1.300

     atomic species   valence    mass     pseudopotential
        Cd            12.00   112.41400     Cd( 1.00)
        Ga            13.00    69.72300     Ga( 1.00)
        Se             6.00    78.97100     Se( 1.00)
        S              6.00    32.06000     S ( 1.00)

      2 Sym. Ops. (no inversion) found

                                    s                        frac. trans.

      isym =  1     identity

 cryst.   s( 1) = (     1          0          0      )
                  (     0          1          0      )
                  (     0          0          1      )

 cart.    s( 1) = (  1.0000000 -0.0000000 -0.0000000 )
                  (  0.0000000  1.0000000 -0.0000000 )
                  (  0.0000000  0.0000000  1.0000000 )

      isym =  2     180 deg rotation - cart. axis [0,0,1]

 cryst.   s( 2) = (    -1          0          0      )
                  (     0         -1          0      )
                  (    -1         -1          1      )

 cart.    s( 2) = ( -1.0000000  0.0000000 -0.0000000 )
                  (  0.0000000 -1.0000000  0.0000000 )
                  (  0.0000000  0.0000000  1.0000000 )

   Cartesian axes

     site n.     atom                  positions (alat units)
         1           Cd  tau(   1) = (   0.5144882   0.4908945   0.9040689  )
         2           Ga  tau(   2) = (   1.0144877   0.4908940   0.4631094  )
         3           Ga  tau(   3) = (   1.0289758   0.9817885   0.9021809  )
         4           Se  tau(   4) = (   0.7452283   0.7284997   0.2496147  )
         5           Se  tau(   5) = (   0.2837480   0.2532893   0.2496147  )
         6           S   tau(   6) = (   1.2426421   0.7456884   0.6649307  )
         7           S   tau(   7) = (   0.8153116   1.2178906   0.6649307  )

   Crystallographic axes

     site n.     atom                  positions (cryst. coord.)
         1           Cd  tau(   1) = (  0.0036770  0.0036770  0.9926460  )
         2           Ga  tau(   2) = (  0.7457580  0.2457580  0.5084830  )
         3           Ga  tau(   3) = (  0.5047130  0.5047130  0.9905730  )
         4           Se  tau(   4) = (  0.5866920  0.6049770  0.2740710  )
         5           Se  tau(   5) = (  0.1392370  0.1209520  0.2740710  )
         6           S   tau(   6) = (  0.8555950  0.3944810  0.7300780  )
         7           S   tau(   7) = (  0.4143280  0.8754420  0.7300780  )

     number of k points=     1  Methfessel-Paxton smearing, width (Ry)=  0.0010
                       cart. coord. in units 2pi/alat
        k(    1) = (   0.0000000   0.0000000   0.0000000), wk =   2.0000000

                       cryst. coord.
        k(    1) = (   0.0000000   0.0000000   0.0000000), wk =   2.0000000

     Check: negative core charge=   -0.000001

     Initial potential from superposition of free atoms

     starting charge      61.9890, renormalised to      62.0000
     Starting wfcs are   43 randomized atomic wfcs
     Checking if some PAW data can be deallocated...

     Self-consistent Calculation

     iteration #  1     ecut=    30.00 Ry     beta= 0.70
     Davidson diagonalization with overlap

     ethr =  1.00E-02,  avg # of iterations =  3.0

     Threshold (ethr) on eigenvalues was too large:
     Diagonalizing with lowered threshold

     Davidson diagonalization with overlap

[...]

     total energy              =    -813.50952597 Ry
     estimated scf accuracy    <       0.29688452 Ry

[...]

     total energy              =    -813.62292602 Ry
     estimated scf accuracy    <       0.00000189 Ry

     iteration #  8     ecut=    30.00 Ry     beta= 0.70
     Davidson diagonalization with overlap

     ethr =  3.06E-09,  avg # of iterations =  2.0

     End of self-consistent calculation

          k = 0.0000 0.0000 0.0000 (  1668 PWs)   bands (ev):

   -10.1089 -10.0684 -10.0543  -9.9349  -9.9249  -9.8829  -9.8597  -9.8387
    -9.7590  -9.7557  -8.3986  -6.8802  -6.8207  -6.7561  -2.8454  -2.7830
    -2.7579  -2.7485  -2.7449  -1.8926  -0.0503   1.2875   1.4852   1.4885
     1.9575   2.3731   2.9029   3.1445   4.5709   4.5840   4.6640   6.0803
     7.8821   8.0744   9.4718   9.9528  10.0647

     occupation numbers
     1.0000   1.0000   1.0000   1.0000   1.0000   1.0000   1.0000   1.0000
     1.0000   1.0000   1.0000   1.0000   1.0000   1.0000   1.0000   1.0000
     1.0000   1.0000   1.0000   1.0000   1.0000   1.0000   1.0000   1.0000
     1.0000   1.0000   1.0000   1.0000   1.0000   1.0000   1.0000  -0.0000
    -0.0000  -0.0000  -0.0000  -0.0000  -0.0000

     the Fermi energy is     5.0893 ev

!    total energy              =    -813.62292634 Ry
     estimated scf accuracy    <       0.00000035 Ry
     smearing contrib. (-TS)   =       0.00000000 Ry
     internal energy E=F+TS    =    -813.62292634 Ry

     The total energy is F=E-TS. E is the sum of the following terms:
     one-electron contribution =    -325.67151686 Ry
     hartree contribution      =     208.81900845 Ry
     xc contribution           =    -195.45098504 Ry
     ewald contribution        =    -279.41118891 Ry
     one-center paw contrib.   =    -221.90824397 Ry
      -> PAW hartree energy AE =     279.43716077 Ry
      -> PAW hartree energy PS =    -275.06191100 Ry
      -> PAW xc energy AE      =    -301.47265569 Ry
      -> PAW xc energy PS      =      75.18916194 Ry
      -> total E_H with PAW    =     213.19425822 Ry
      -> total E_XC with PAW   =    -421.73447879 Ry

     convergence has been achieved in   8 iterations

     Forces acting on atoms (cartesian axes, Ry/au):

     atom    1 type  1   force =     0.00000000    0.00000000   -0.00231345
     atom    2 type  2   force =     0.00000000    0.00000000   -0.00486562
     atom    3 type  2   force =     0.00000000    0.00000000    0.00868741
     atom    4 type  3   force =     0.00043375    0.02565216    0.02581104
     atom    5 type  3   force =    -0.00043375   -0.02565216    0.02581104
     atom    6 type  4   force =     0.04018110   -0.00084009   -0.02656521
     atom    7 type  4   force =    -0.04018110    0.00084009   -0.02656521
     The non-local contrib.  to forces
     atom    1 type  1   force =     0.00000000    0.00000000   -0.03430777
     atom    2 type  2   force =     0.00000000    0.00000000   -0.02327452
     atom    3 type  2   force =     0.00000000    0.00000000   -0.02308497
     atom    4 type  3   force =     0.24231175   -0.30381225   -0.27246712
     atom    5 type  3   force =    -0.24231175    0.30381225   -0.27246712
     atom    6 type  4   force =    -0.21771976   -0.15963324    0.23690391
     atom    7 type  4   force =     0.21771976    0.15963324    0.23690391
     The ionic contribution  to forces
     atom    1 type  1   force =    -0.00001944   -0.00001956    0.50343478
     atom    2 type  2   force =     0.00004971    0.00005468   -1.69451776
     atom    3 type  2   force =    -0.00000144    0.00000562    1.52712443
     atom    4 type  3   force =    -2.34596217    3.87271633    2.02895637
     atom    5 type  3   force =     2.34595388   -3.87272006    2.02899276
     atom    6 type  4   force =     4.64541363    2.35005289   -2.19703378
     atom    7 type  4   force =    -4.64543418   -2.35008991   -2.19695680
     The local contribution  to forces
     atom    1 type  1   force =    -0.00025774    0.00014871   -0.47186973
     atom    2 type  2   force =    -0.00001196   -0.00029433    1.71236606
     atom    3 type  2   force =    -0.00008703   -0.00012555   -1.49579996
     atom    4 type  3   force =     2.13260017   -3.57811258   -1.76317892
     atom    5 type  3   force =    -2.13263972    3.57788323   -1.76312652
     atom    6 type  4   force =    -4.39941363   -2.20029840    1.94683092
     atom    7 type  4   force =     4.39923925    2.20006559    1.94652812
     The core correction contribution to forces
     atom    1 type  1   force =     0.00000129   -0.00000149    0.00051205
     atom    2 type  2   force =    -0.00000302   -0.00001636    0.00009525
     atom    3 type  2   force =    -0.00001447    0.00000377    0.00079930
     atom    4 type  3   force =    -0.02849389    0.03451531    0.03248268
     atom    5 type  3   force =     0.02848623   -0.03454126    0.03249229
     atom    6 type  4   force =     0.01164779    0.00893847   -0.01321360
     atom    7 type  4   force =    -0.01166606   -0.00894678   -0.01322386
     The Hubbard contrib.    to forces
     atom    1 type  1   force =     0.00000000    0.00000000    0.00000000
     atom    2 type  2   force =     0.00000000    0.00000000    0.00000000
     atom    3 type  2   force =     0.00000000    0.00000000    0.00000000
     atom    4 type  3   force =     0.00000000    0.00000000    0.00000000
     atom    5 type  3   force =     0.00000000    0.00000000    0.00000000
     atom    6 type  4   force =     0.00000000    0.00000000    0.00000000
     atom    7 type  4   force =     0.00000000    0.00000000    0.00000000
     The SCF correction term to forces
     atom    1 type  1   force =     0.00040588   -0.00017681   -0.00006682
     atom    2 type  2   force =    -0.00009061    0.00029516    0.00048132
     atom    3 type  2   force =     0.00005201    0.00019033   -0.00033542
     atom    4 type  3   force =    -0.00005814    0.00023135   -0.00000479
     atom    5 type  3   force =     0.00004157   -0.00020032   -0.00002564
     atom    6 type  4   force =     0.00014133    0.00000463    0.00004577
     atom    7 type  4   force =    -0.00015162    0.00008240    0.00011692

     Total force =     0.085996     Total SCF correction =     0.000919

     Computing stress (Cartesian axis) and pressure

          total   stress  (Ry/bohr**3)                   (kbar)     P=      -20.87
   0.00008803  -0.00001327   0.00000000           12.95       -1.95        0.00
  -0.00001327   0.00016532  -0.00000000           -1.95       24.32       -0.00
   0.00000000  -0.00000000  -0.00067886            0.00       -0.00      -99.86

     kinetic stress (kbar)   8015.34      3.76      0.00
                                3.76   8023.34     -0.00
                                0.00     -0.00   7915.25

     local   stress (kbar)  -3409.23    455.26     -0.05
                              455.26  -4229.14     -0.06
                               -0.05     -0.06  -3514.29

     nonloc. stress (kbar)   2259.44     -2.15      0.00
                               -2.15   2256.39     -0.00
                                0.00     -0.00   2241.19

     hartree stress (kbar)   8338.60   -184.19      0.08
                             -184.19   8725.59      0.07
                                0.08      0.07   8512.32

     exc-cor stress (kbar)  10156.74     -0.17     -0.00
                               -0.17  10156.27     -0.00
                               -0.00     -0.00  10154.71

     corecor stress (kbar) -13815.32      0.00     -0.00
                                0.00 -13814.38      0.00
                               -0.00      0.00 -13812.66

     ewald   stress (kbar) -11532.61   -274.45     -0.04
                             -274.45 -11093.75     -0.03
                               -0.04     -0.03 -11596.39

     hubbard stress (kbar)      0.00      0.00      0.00
                                0.00      0.00      0.00
                                0.00      0.00      0.00

     DFT-D   stress (kbar)      0.00      0.00      0.00
                                0.00      0.00      0.00
                                0.00      0.00      0.00

     XDM     stress (kbar)      0.00      0.00      0.00
                                0.00      0.00      0.00
                                0.00      0.00      0.00

     dft-nl  stress (kbar)      0.00      0.00      0.00
                                0.00      0.00      0.00
                                0.00      0.00      0.00

     TS-vdW  stress (kbar)      0.00      0.00      0.00
                                0.00      0.00      0.00
                                0.00      0.00      0.00

[...]

                                0.00      0.00      0.00

     Writing all to output data dir new_calculations/myprefix.save/

     General routines

     Parallel routines

     PAW routines

   This run was terminated on:   5:21:41  20May2023

   JOB DONE.