     Program PWSCF v.7.0 starts on 21May2023 at 18:30:51

     Reading input from espresso_22941.pwi
Warning: card &CELL ignored
Warning: card / ignored

     Current dimensions of program PWSCF are:
     Max number of different atomic species (ntypx) = 10
     Max number of k-points (npk) =  40000
     Max angular momentum in pseudopotentials (lmaxx) =  4

     gamma-point specific algorithms are used
     Message from routine setup:
     using ibrav=0 with symmetry is DISCOURAGED, use correct ibrav instead

     Subspace diagonalization in iterative solution of the eigenvalue problem:
     a serial algorithm will be used

     Using Slab Decomposition

     bravais-lattice index     =            0
     lattice parameter (alat)  =      14.1087  a.u.
     unit-cell volume          =    1985.8649 (a.u.)^3
     number of atoms/cell      =           10
     number of atomic types    =            4
     number of electrons       =        98.00
     number of Kohn-Sham states=           59
     kinetic-energy cutoff     =      30.0000  Ry
     charge density cutoff     =     240.0000  Ry
     scf convergence threshold =      1.0E-06
     mixing beta               =       0.7000
     number of iterations used =            8  plain     mixing
     Exchange-correlation=  SLA  PW   PBX  PBC
                           (   1   4   3   4   0   0   0)

     celldm(1)=  14.108740  celldm(2)=   0.000000  celldm(3)=   0.000000
     celldm(4)=   0.000000  celldm(5)=   0.000000  celldm(6)=   0.000000

     crystal axes: (cart. coord. in units of alat)
               a(1) = (   1.000000   0.000000   0.000000 )
               a(2) = (   0.500000   0.866025   0.000000 )
               a(3) = (   0.500000   0.288675   0.816497 )

     reciprocal axes: (cart. coord. in units 2 pi/alat)
               b(1) = (  1.000000 -0.577350 -0.408248 )
               b(2) = (  0.000000  1.154701 -0.408248 )
               b(3) = (  0.000000  0.000000  1.224745 )

     PseudoPot. # 1 for Cs read from file:
     /home/pragov/projects/rrg-bengioy-ad/pragov/crystal_structure_design/SSSP/Cs_pbe_v1.uspp.F.UPF
     MD5 check sum: 3476d69cb178dfad3ffaa59df4e07ca4
     Pseudo is Ultrasoft + core correction, Zval =  9.0
     Generated by new atomic code, or converted to UPF format
     Using radial grid of  905 points,  6 beta functions with:
                l(1) =   0
                l(2) =   0
                l(3) =   1
                l(4) =   1
                l(5) =   2
                l(6) =   2
     Q(r) pseudized with  6 coefficients,  rinner =    1.500   1.500   1.500
                                                       1.500   1.500

     PseudoPot. # 2 for Tb read from file:
     /home/pragov/projects/rrg-bengioy-ad/pragov/crystal_structure_design/SSSP/Tb.GGA-PBE-paw-v1.0.UPF
     MD5 check sum: f7bf3d58e9b293961564f5b9598c921e
     Pseudo is Projector augmented-wave + core cor, Zval = 19.0
     Generated using ATOMPAW code
     Shape of augmentation charge: BESSEL
     Using radial grid of 1111 points,  8 beta functions with:
                l(1) =   0
                l(2) =   0
                l(3) =   1
                l(4) =   1
                l(5) =   2
                l(6) =   2
                l(7) =   3
                l(8) =   3
     Q(r) pseudized with 0 coefficients

     PseudoPot. # 3 for Cu read from file:
     /home/pragov/projects/rrg-bengioy-ad/pragov/crystal_structure_design/SSSP/Cu_pbe_v1.2.uspp.F.UPF
     MD5 check sum: 6e991ff952a84172a2a52a1c1e996048
     Pseudo is Ultrasoft + core correction, Zval = 19.0
     Generated by new atomic code, or converted to UPF format
     Using radial grid of  867 points,  6 beta functions with:
                l(1) =   0
                l(2) =   0
                l(3) =   1
                l(4) =   1
                l(5) =   2
                l(6) =   2
     Q(r) pseudized with  8 coefficients,  rinner =    1.150   1.150   1.150
                                                       1.150   1.150

     PseudoPot. # 4 for Cl read from file:
     /home/pragov/projects/rrg-bengioy-ad/pragov/crystal_structure_design/SSSP/cl_pbe_v1.4.uspp.F.UPF
     MD5 check sum: fc6f6913ecf08c9257cb748ef0700058
     Pseudo is Ultrasoft + core correction, Zval =  7.0
     Generated by new atomic code, or converted to UPF format
     Using radial grid of  909 points,  6 beta functions with:
                l(1) =   0
                l(2) =   0
                l(3) =   1
                l(4) =   1
                l(5) =   2
                l(6) =   2
     Q(r) pseudized with  8 coefficients,  rinner =    1.300   1.300   1.300
                                                       1.300   1.300

     atomic species   valence    mass     pseudopotential
        Cs             9.00   132.90545     Cs( 1.00)
        Tb            19.00   158.92535     Tb( 1.00)
        Cu            19.00    63.54600     Cu( 1.00)
        Cl             7.00    35.45000     Cl( 1.00)

     12 Sym. Ops., with inversion, found

                                    s                        frac. trans.

      isym =  1     identity

 cryst.   s( 1) = (     1          0          0      )
                  (     0          1          0      )
                  (     0          0          1      )

 cart.    s( 1) = (  1.0000000  0.0000000  0.0000000 )
                  (  0.0000000  1.0000000  0.0000000 )
                  (  0.0000000  0.0000000  1.0000000 )

      isym =  2     180 deg rotation - cart. axis [1,0,0]

[...]

      isym =  3     120 deg rotation - cryst. axis [0,0,1]

[...]

      isym =  6     180 deg rotation - cryst. axis [1,1,0]

[...]

      isym =  7     inversion

[...]

      isym =  8     inv. 180 deg rotation - cart. axis [1,0,0]

[...]

      isym =  9     inv. 120 deg rotation - cryst. axis [0,0,1]

 cryst.   s( 9) = (     1         -1          0      )
                  (     1          0          0      )
                  (     1          0         -1      )

 cart.    s( 9) = (  0.5000000  0.8660254 -0.0000000 )
                  ( -0.8660254  0.5000000 -0.0000000 )
                  (  0.0000000  0.0000000 -1.0000000 )

[...]

 cryst.   s(10) = (     0          1          0      )
                  (    -1          1          0      )
                  (     0          1         -1      )

 cart.    s(10) = (  0.5000000 -0.8660254  0.0000000 )
                  (  0.8660254  0.5000000 -0.0000000 )
                  (  0.0000000  0.0000000 -1.0000000 )

[...]

      isym = 12     inv. 180 deg rotation - cryst. axis [1,1,0]

 cryst.   s(12) = (     1         -1          0      )
                  (     0         -1          0      )
                  (     0         -1          1      )

 cart.    s(12) = (  0.5000000 -0.8660254  0.0000000 )
                  ( -0.8660254 -0.5000000  0.0000000 )
                  (  0.0000000  0.0000000  1.0000000 )

   Cartesian axes

     site n.     atom                  positions (alat units)
         1           Cs  tau(   1) = (   1.5000000   0.8660254   0.6123724  )
         2           Cs  tau(   2) = (   0.5000000   0.2886751   0.2041241  )
         3           Tb  tau(   3) = (   0.0000000   0.0000000   0.0000000  )
         4           Cu  tau(   4) = (   1.0000000   0.5773503   0.4082483  )
         5           Cl  tau(   5) = (   1.0000000   0.2916335   0.2062160  )
         6           Cl  tau(   6) = (   0.7525620   0.4344919   0.6102806  )
         7           Cl  tau(   7) = (   1.0000000   0.8630671   0.6102806  )
         8           Cl  tau(   8) = (   0.7525620   0.7202087   0.2062160  )
         9           Cl  tau(   9) = (   1.2474380   0.4344919   0.6102806  )
        10           Cl  tau(  10) = (   1.2474380   0.7202087   0.2062160  )

   Crystallographic axes

     site n.     atom                  positions (cryst. coord.)
         1           Cs  tau(   1) = (  0.7500000  0.7500000  0.7500000  )
         2           Cs  tau(   2) = (  0.2500000  0.2500000  0.2500000  )
         3           Tb  tau(   3) = (  0.0000000  0.0000000  0.0000000  )
         4           Cu  tau(   4) = (  0.5000000  0.5000000  0.5000000  )
         5           Cl  tau(   5) = (  0.7474380  0.2525620  0.2525620  )
         6           Cl  tau(   6) = (  0.2525620  0.2525620  0.7474380  )
         7           Cl  tau(   7) = (  0.2525620  0.7474380  0.7474380  )
         8           Cl  tau(   8) = (  0.2525620  0.7474380  0.2525620  )
         9           Cl  tau(   9) = (  0.7474380  0.2525620  0.7474380  )
        10           Cl  tau(  10) = (  0.7474380  0.7474380  0.2525620  )

     number of k points=     1  Methfessel-Paxton smearing, width (Ry)=  0.0010
                       cart. coord. in units 2pi/alat
        k(    1) = (   0.0000000   0.0000000   0.0000000), wk =   2.0000000

                       cryst. coord.
        k(    1) = (   0.0000000   0.0000000   0.0000000), wk =   2.0000000

     Initial potential from superposition of free atoms

     starting charge      96.9168, renormalised to      98.0000

     negative rho (up, down):  8.996E-02 0.000E+00
     Starting wfcs are   95 randomized atomic wfcs
     Checking if some PAW data can be deallocated...

     Self-consistent Calculation

     iteration #  1     ecut=    30.00 Ry     beta= 0.70
     Davidson diagonalization with overlap

     ethr =  1.00E-02,  avg # of iterations =  5.0

     negative rho (up, down):  9.299E-02 0.000E+00

     total energy              =   -1451.67703385 Ry
     estimated scf accuracy    <       8.03561956 Ry

[...]

     ethr =  2.15E-05,  avg # of iterations =  1.0
     Minimization algorithm failed to find Fermi energy: reverting to bisection
     Possible cause: smearing is larger than the electronic band-gap.

[...]

     total energy              =   -1459.04509519 Ry
     estimated scf accuracy    <       0.00000578 Ry

     iteration # 51     ecut=    30.00 Ry     beta= 0.70
     Davidson diagonalization with overlap

     ethr =  5.90E-09,  avg # of iterations =  2.0

[...]

     End of self-consistent calculation

          k = 0.0000 0.0000 0.0000 (  2789 PWs)   bands (ev):

  -105.5813 -63.0061 -63.0045 -63.0045 -38.6984 -15.8271 -15.8236 -15.8236
   -15.7552 -15.7394  -9.6880  -9.2464  -9.2464  -9.1761  -9.1757  -9.1757
    -2.7607  -2.7598  -2.7598  -2.6292  -2.6283  -2.6283  -0.0699   1.5549
     1.5549   1.5841   1.5988   1.5988   1.8069   1.8117   1.8117   2.6854
     2.6854   2.6861   2.9641   2.9700   2.9700   3.3141   3.3141   3.3191
     4.3050   4.3073   4.3073   4.4087   4.5211   4.5211   4.6291   4.7562
     4.7562   4.7755   4.9257   4.9257   7.9257   8.8908   8.9041   8.9041
     9.4573   9.6028  10.1029

     occupation numbers
     1.0000   1.0000   1.0000   1.0000   1.0000   1.0000   1.0000   1.0000
     1.0000   1.0000   1.0000   1.0000   1.0000   1.0000   1.0000   1.0000
     1.0000   1.0000   1.0000   1.0000   1.0000   1.0000   1.0000   1.0000
     1.0000   1.0000   1.0000   1.0000   1.0000   1.0000   1.0000   1.0000
     1.0000   1.0000   1.0000   1.0000   1.0000   1.0000   1.0000   1.0000
     1.0000   1.0000   1.0000   1.0000   1.0000   1.0000   1.0000   0.9748
     0.9748   0.0504  -0.0000  -0.0000  -0.0000  -0.0000  -0.0000  -0.0000
    -0.0000  -0.0000  -0.0000

     the Fermi energy is     4.7663 ev

!    total energy              =   -1459.04509461 Ry
     estimated scf accuracy    <       0.00000051 Ry
     smearing contrib. (-TS)   =       0.00001876 Ry
     internal energy E=F+TS    =   -1459.04511337 Ry

     The total energy is F=E-TS. E is the sum of the following terms:
     one-electron contribution =    -719.80625996 Ry
     hartree contribution      =     399.48638797 Ry
     xc contribution           =    -181.60672244 Ry
     ewald contribution        =    -483.72394368 Ry
     one-center paw contrib.   =    -473.39457526 Ry
      -> PAW hartree energy AE =     216.09554869 Ry
      -> PAW hartree energy PS =    -202.52946735 Ry
      -> PAW xc energy AE      =    -510.78545799 Ry
      -> PAW xc energy PS      =      23.82480139 Ry
      -> total E_H with PAW    =     413.05246930 Ry
      -> total E_XC with PAW   =    -668.56737903 Ry

     convergence has been achieved in  51 iterations

     negative rho (up, down):  8.779E-02 0.000E+00

     Forces acting on atoms (cartesian axes, Ry/au):

     atom    1 type  1   force =     0.00000000    0.00000000   -0.00009828
     atom    2 type  1   force =     0.00000000   -0.00000000    0.00009828
     atom    3 type  2   force =     0.00000000    0.00000000   -0.00000000
     atom    4 type  3   force =     0.00000000    0.00000000    0.00000000
     atom    5 type  4   force =     0.00000000    0.00181457    0.00159925
     atom    6 type  4   force =     0.00157146    0.00090728   -0.00159925
     atom    7 type  4   force =     0.00000000   -0.00181457   -0.00159925
     atom    8 type  4   force =     0.00157146   -0.00090728    0.00159925
     atom    9 type  4   force =    -0.00157146    0.00090728   -0.00159925
     atom   10 type  4   force =    -0.00157146   -0.00090728    0.00159925
     The non-local contrib.  to forces
     atom    1 type  1   force =     0.00000000    0.00000000   -0.00028471
     atom    2 type  1   force =     0.00000000    0.00000000    0.00028471
     atom    3 type  2   force =     0.00000000    0.00000000   -0.00000000
     atom    4 type  3   force =     0.00000000    0.00000000    0.00000000
     atom    5 type  4   force =     0.00000000    0.02839650    0.02644678
     atom    6 type  4   force =     0.02459209    0.01419825   -0.02644678
     atom    7 type  4   force =    -0.00000000   -0.02839650   -0.02644678
     atom    8 type  4   force =     0.02459209   -0.01419825    0.02644678
     atom    9 type  4   force =    -0.02459209    0.01419825   -0.02644678
     atom   10 type  4   force =    -0.02459209   -0.01419825    0.02644678
     The ionic contribution  to forces
     atom    1 type  1   force =     0.00000000   -0.00000000    0.00000000
     atom    2 type  1   force =     0.00000000   -0.00000000    0.00000000
     atom    3 type  2   force =     0.00000000   -0.00000000   -0.00000000
     atom    4 type  3   force =    -0.00000000    0.00000000   -0.00000000
     atom    5 type  4   force =    -0.00000000   -0.56622042   -0.40037830
     atom    6 type  4   force =    -0.49036127   -0.28311021    0.40037830
     atom    7 type  4   force =    -0.00000000    0.56622042    0.40037830
     atom    8 type  4   force =    -0.49036127    0.28311021   -0.40037830
     atom    9 type  4   force =     0.49036127   -0.28311021    0.40037830
     atom   10 type  4   force =     0.49036127    0.28311021   -0.40037830
     The local contribution  to forces
     atom    1 type  1   force =     0.00000085    0.00000196    0.00015949
     atom    2 type  1   force =     0.00000048   -0.00000012   -0.00015962
     atom    3 type  2   force =     0.00000024   -0.00000293   -0.00000798
     atom    4 type  3   force =     0.00000478   -0.00000535    0.00000274
     atom    5 type  4   force =     0.00000093    0.54127829    0.37691643
     atom    6 type  4   force =     0.46875903    0.27063543   -0.37691239
     atom    7 type  4   force =    -0.00000111   -0.54127677   -0.37691488
     atom    8 type  4   force =     0.46875809   -0.27063749    0.37691328
     atom    9 type  4   force =    -0.46875872    0.27063580   -0.37691293
     atom   10 type  4   force =    -0.46875891   -0.27063728    0.37691121
     The core correction contribution to forces
     atom    1 type  1   force =     0.00000014    0.00000019    0.00003021
     atom    2 type  1   force =     0.00000020   -0.00000001   -0.00003045
     atom    3 type  2   force =    -0.00000000    0.00000000   -0.00000000
     atom    4 type  3   force =    -0.00000000   -0.00000002    0.00000002
     atom    5 type  4   force =     0.00000002   -0.00202879   -0.00166589
     atom    6 type  4   force =    -0.00175697   -0.00101444    0.00166595
     atom    7 type  4   force =    -0.00000006    0.00202877    0.00166589
     atom    8 type  4   force =    -0.00175704    0.00101441   -0.00166595
     atom    9 type  4   force =     0.00175705   -0.00101444    0.00166594
     atom   10 type  4   force =     0.00175698    0.00101437   -0.00166595
     The Hubbard contrib.    to forces
     atom    1 type  1   force =     0.00000000    0.00000000    0.00000000
     atom    2 type  1   force =     0.00000000    0.00000000    0.00000000
     atom    3 type  2   force =     0.00000000    0.00000000    0.00000000
     atom    4 type  3   force =     0.00000000    0.00000000    0.00000000
     atom    5 type  4   force =     0.00000000    0.00000000    0.00000000
     atom    6 type  4   force =     0.00000000    0.00000000    0.00000000
     atom    7 type  4   force =     0.00000000    0.00000000    0.00000000
     atom    8 type  4   force =     0.00000000    0.00000000    0.00000000
     atom    9 type  4   force =     0.00000000    0.00000000    0.00000000
     atom   10 type  4   force =     0.00000000    0.00000000    0.00000000
     The SCF correction term to forces
     atom    1 type  1   force =    -0.00000030   -0.00000125   -0.00000366
     atom    2 type  1   force =     0.00000002    0.00000040    0.00000325
     atom    3 type  2   force =     0.00000244    0.00000380    0.00001047
     atom    4 type  3   force =    -0.00000176    0.00000561   -0.00000729
     atom    5 type  4   force =    -0.00000016    0.00038996    0.00028103
     atom    6 type  4   force =     0.00033850    0.00019751   -0.00028369
     atom    7 type  4   force =     0.00000036   -0.00039116   -0.00028241
     atom    8 type  4   force =     0.00033902   -0.00019605    0.00028366
     atom    9 type  4   force =    -0.00033848    0.00019727   -0.00028355
     atom   10 type  4   force =    -0.00033885   -0.00019620    0.00028472

     Total force =     0.005926     Total SCF correction =     0.001183
     SCF correction compared to forces is large: reduce conv_thr to get better values

     Computing stress (Cartesian axis) and pressure

     negative rho (up, down):  8.779E-02 0.000E+00
          total   stress  (Ry/bohr**3)                   (kbar)     P=       -7.77
  -0.00006360  -0.00000000  -0.00000000           -9.36       -0.00       -0.00
  -0.00000000  -0.00006360   0.00000000           -0.00       -9.36        0.00
  -0.00000000   0.00000000  -0.00003119           -0.00        0.00       -4.59

     kinetic stress (kbar)   7737.74     -0.00     -0.00
                               -0.00   7737.74     -0.00
                               -0.00     -0.00   7764.44

     local   stress (kbar) -10816.12      0.00     -0.00
                                0.00 -10816.14     -0.02
                               -0.00     -0.02 -10816.03

     nonloc. stress (kbar)   8202.95     -0.00     -0.00
                               -0.00   8202.95     -0.00
                               -0.00     -0.00   8183.89

     hartree stress (kbar)   9865.08     -0.00      0.00
                               -0.00   9865.09      0.01
                                0.00      0.01   9862.20

     exc-cor stress (kbar)   2192.78     -0.00      0.00
                               -0.00   2192.78      0.00
                                0.00      0.00   2193.01

     corecor stress (kbar)  -5247.67      0.00     -0.00
                                0.00  -5247.67     -0.00
                               -0.00     -0.00  -5247.98

     ewald   stress (kbar) -11944.12      0.00      0.00
                                0.00 -11944.12     -0.00
                                0.00     -0.00 -11944.12

     hubbard stress (kbar)      0.00      0.00      0.00
                                0.00      0.00      0.00
                                0.00      0.00      0.00

     DFT-D   stress (kbar)      0.00      0.00      0.00
                                0.00      0.00      0.00
                                0.00      0.00      0.00

     XDM     stress (kbar)      0.00      0.00      0.00
                                0.00      0.00      0.00
                                0.00      0.00      0.00

     dft-nl  stress (kbar)      0.00      0.00      0.00
                                0.00      0.00      0.00
                                0.00      0.00      0.00

     TS-vdW  stress (kbar)      0.00      0.00      0.00
                                0.00      0.00      0.00
                                0.00      0.00      0.00

[...]

                                0.00      0.00      0.00

     Writing all to output data dir new_calculations/myprefix.save/

     General routines

     Parallel routines

     PAW routines

   This run was terminated on:  18:32:48  21May2023

   JOB DONE.