     Program PWSCF v.7.0 starts on 21May2023 at  5:48: 9

     Reading input from espresso_18921.pwi
Warning: card &CELL ignored
Warning: card / ignored

     Current dimensions of program PWSCF are:
     Max number of different atomic species (ntypx) = 10
     Max number of k-points (npk) =  40000
     Max angular momentum in pseudopotentials (lmaxx) =  4

     gamma-point specific algorithms are used
     Message from routine setup:
     using ibrav=0 with symmetry is DISCOURAGED, use correct ibrav instead

     Subspace diagonalization in iterative solution of the eigenvalue problem:
     a serial algorithm will be used

     Using Slab Decomposition

     bravais-lattice index     =            0
     lattice parameter (alat)  =      12.9382  a.u.
     unit-cell volume          =     451.6675 (a.u.)^3
     number of atoms/cell      =            6
     number of atomic types    =            3
     number of electrons       =        68.00
     number of Kohn-Sham states=           41
     kinetic-energy cutoff     =      30.0000  Ry
     charge density cutoff     =     240.0000  Ry
     scf convergence threshold =      1.0E-06
     mixing beta               =       0.7000
     number of iterations used =            8  plain     mixing
     Exchange-correlation=  SLA  PW   PBX  PBC
                           (   1   4   3   4   0   0   0)

     celldm(1)=  12.938235  celldm(2)=   0.000000  celldm(3)=   0.000000
     celldm(4)=   0.000000  celldm(5)=   0.000000  celldm(6)=   0.000000

     crystal axes: (cart. coord. in units of alat)
               a(1) = (   1.000000   0.000000   0.000000 )
               a(2) = (  -0.884143   0.467217   0.000000 )
               a(3) = (   0.000000   0.000000   0.446349 )

     reciprocal axes: (cart. coord. in units 2 pi/alat)
               b(1) = (  1.000000  1.892358  0.000000 )
               b(2) = (  0.000000  2.140332  0.000000 )
               b(3) = (  0.000000  0.000000  2.240398 )

     PseudoPot. # 1 for Ta read from file:
     /home/pragov/projects/rrg-bengioy-ad/pragov/crystal_structure_design/SSSP/Ta_pbe_v1.uspp.F.UPF
     MD5 check sum: f8bbe9446314a3b8ea5d9f3e3836c939
     Pseudo is Ultrasoft + core correction, Zval = 13.0
     Generated by new atomic code, or converted to UPF format
     Using radial grid of  921 points,  7 beta functions with:
                l(1) =   0
                l(2) =   0
                l(3) =   1
                l(4) =   1
                l(5) =   2
                l(6) =   2
                l(7) =   3
     Q(r) pseudized with  6 coefficients,  rinner =    1.300   1.300   1.300
                                                       1.300   1.300   1.300
                                                       1.300

     PseudoPot. # 2 for Ni read from file:
     /home/pragov/projects/rrg-bengioy-ad/pragov/crystal_structure_design/SSSP/ni_pbe_v1.4.uspp.F.UPF
     MD5 check sum: 1ee80287db30b12d2bc1f57a5b5d6409
     Pseudo is Ultrasoft + core correction, Zval = 18.0
     Generated by new atomic code, or converted to UPF format
     Using radial grid of  865 points,  6 beta functions with:
                l(1) =   0
                l(2) =   0
                l(3) =   1
                l(4) =   1
                l(5) =   2
                l(6) =   2
     Q(r) pseudized with 10 coefficients,  rinner =    0.980   0.980   0.980
                                                       0.980   0.980

     PseudoPot. # 3 for B  read from file:
     /home/pragov/projects/rrg-bengioy-ad/pragov/crystal_structure_design/SSSP/b_pbe_v1.4.uspp.F.UPF
     MD5 check sum: cc6de2960df11db49a60e589f9ebb39b
     Pseudo is Ultrasoft + core correction, Zval =  3.0
     Generated by new atomic code, or converted to UPF format
     Using radial grid of  781 points,  4 beta functions with:
                l(1) =   0
                l(2) =   0
                l(3) =   1
                l(4) =   1
     Q(r) pseudized with  8 coefficients,  rinner =    1.100   1.100   1.100

     atomic species   valence    mass     pseudopotential
        Ta            13.00   180.94788     Ta( 1.00)
        Ni            18.00    58.69340     Ni( 1.00)
        B              3.00    10.81000     B ( 1.00)

      4 Sym. Ops., with inversion, found ( 2 have fractional translation)

                                    s                        frac. trans.

      isym =  1     identity

 cryst.   s( 1) = (     1          0          0      )
                  (     0          1          0      )
                  (     0          0          1      )

 cart.    s( 1) = (  1.0000000 -0.0000000  0.0000000 )
                  (  0.0000000  1.0000000  0.0000000 )
                  (  0.0000000  0.0000000  1.0000000 )

      isym =  2     180 deg rotation - cart. axis [0,0,1]

 cryst.   s( 2) = (    -1          0          0      )    f =( -0.0000000 )
                  (     0         -1          0      )       ( -0.0000000 )
                  (     0          0          1      )       (  0.5000000 )

 cart.    s( 2) = ( -1.0000000  0.0000000  0.0000000 )    f =( -0.0000000 )
                  (  0.0000000 -1.0000000  0.0000000 )       ( -0.0000000 )
                  (  0.0000000  0.0000000  1.0000000 )       (  0.2231746 )

      isym =  3     inversion

 cryst.   s( 3) = (    -1          0          0      )
                  (     0         -1          0      )
                  (     0          0         -1      )

 cart.    s( 3) = ( -1.0000000  0.0000000  0.0000000 )
                  (  0.0000000 -1.0000000  0.0000000 )
                  (  0.0000000  0.0000000 -1.0000000 )

      isym =  4     inv. 180 deg rotation - cart. axis [0,0,1]

 cryst.   s( 4) = (     1          0          0      )    f =(  0.0000000 )
                  (     0          1          0      )       (  0.0000000 )
                  (     0          0         -1      )       (  0.5000000 )

 cart.    s( 4) = (  1.0000000 -0.0000000  0.0000000 )    f =(  0.0000000 )
                  (  0.0000000  1.0000000  0.0000000 )       (  0.0000000 )
                  (  0.0000000  0.0000000 -1.0000000 )       (  0.2231746 )

   Cartesian axes

     site n.     atom                  positions (alat units)
         1           Ta  tau(   1) = (   0.8143385   0.0460391   0.3347619  )
         2           Ta  tau(   2) = (  -0.6984810   0.4211782   0.1115873  )
         3           Ni  tau(   3) = (   0.4421261   0.1383379   0.3347619  )
         4           Ni  tau(   4) = (  -0.3262686   0.3288794   0.1115873  )
         5           B   tau(   5) = (   0.1240358   0.2172159   0.3347619  )
         6           B   tau(   6) = (  -0.0081783   0.2500014   0.1115873  )

   Crystallographic axes

     site n.     atom                  positions (cryst. coord.)
         1           Ta  tau(   1) = (  0.9014610  0.0985390  0.7500000  )
         2           Ta  tau(   2) = (  0.0985390  0.9014610  0.2500000  )
         3           Ni  tau(   3) = (  0.7039110  0.2960890  0.7500000  )
         4           Ni  tau(   4) = (  0.2960890  0.7039110  0.2500000  )
         5           B   tau(   5) = (  0.5350860  0.4649140  0.7500000  )
         6           B   tau(   6) = (  0.4649140  0.5350860  0.2500000  )

     number of k points=     1  Methfessel-Paxton smearing, width (Ry)=  0.0010
                       cart. coord. in units 2pi/alat
        k(    1) = (   0.0000000   0.0000000   0.0000000), wk =   2.0000000

                       cryst. coord.
        k(    1) = (   0.0000000   0.0000000   0.0000000), wk =   2.0000000

     Check: negative core charge=   -0.000004

     Initial potential from superposition of free atoms

     starting charge      63.9972, renormalised to      68.0000

     negative rho (up, down):  2.022E-01 0.000E+00
     Starting wfcs are   60 randomized atomic wfcs

     Self-consistent Calculation

     iteration #  1     ecut=    30.00 Ry     beta= 0.70
     Davidson diagonalization with overlap

     ethr =  1.00E-02,  avg # of iterations =  3.0

     negative rho (up, down):  1.889E-01 0.000E+00

     total energy              =    -966.68391463 Ry
     estimated scf accuracy    <      27.29166342 Ry

[...]

     total energy              =    -983.09362165 Ry
     estimated scf accuracy    <       0.00000488 Ry

     iteration # 15     ecut=    30.00 Ry     beta= 0.70
     Davidson diagonalization with overlap

     ethr =  3.94E-09,  avg # of iterations =  2.0

[...]

     End of self-consistent calculation

          k = 0.0000 0.0000 0.0000 (   628 PWs)   bands (ev):

   -83.8194 -83.8088 -49.1375 -49.1122 -44.4116 -44.3761 -44.3032 -44.2319
   -43.9259 -43.8552 -16.0916 -15.7096 -15.6418 -15.5761 -15.3099 -15.2175
     5.9014   9.9808  12.0248  14.6703  14.8907  15.0999  15.1559  15.4139
    15.7575  17.2002  17.2092  17.2918  17.5303  17.6996  17.7153  18.1213
    18.4029  18.8336  19.8927  20.9168  21.4164  21.4915  22.1151  22.3225
    22.8844

     occupation numbers
     1.0000   1.0000   1.0000   1.0000   1.0000   1.0000   1.0000   1.0000
     1.0000   1.0000   1.0000   1.0000   1.0000   1.0000   1.0000   1.0000
     1.0000   1.0000   1.0000   1.0000   1.0000   1.0000   1.0000   1.0000
     1.0000   1.0000   1.0000   1.0000   1.0000   1.0000   1.0000   1.0000
     1.0000   1.0000  -0.0000  -0.0000  -0.0000  -0.0000  -0.0000  -0.0000
    -0.0000

     the Fermi energy is    19.6775 ev

!    total energy              =    -983.09362101 Ry
     estimated scf accuracy    <       0.00000086 Ry
     smearing contrib. (-TS)   =       0.00000000 Ry
     internal energy E=F+TS    =    -983.09362101 Ry

     The total energy is F=E-TS. E is the sum of the following terms:
     one-electron contribution =    -556.20764308 Ry
     hartree contribution      =     321.19524807 Ry
     xc contribution           =    -162.10059989 Ry
     ewald contribution        =    -585.98062611 Ry

     convergence has been achieved in  15 iterations

     negative rho (up, down):  1.910E-01 0.000E+00

     Forces acting on atoms (cartesian axes, Ry/au):

     atom    1 type  1   force =     0.01070016   -0.00265325   -0.00000000
     atom    2 type  1   force =    -0.01070016    0.00265325   -0.00000000
     atom    3 type  2   force =    -0.05217863    0.01294292    0.00000000
     atom    4 type  2   force =     0.05217863   -0.01294292   -0.00000000
     atom    5 type  3   force =    -0.17691140    0.04386915    0.00000000
     atom    6 type  3   force =     0.17691140   -0.04386915    0.00000000
     The non-local contrib.  to forces
     atom    1 type  1   force =    -0.03898262    0.00966581    0.00000000
     atom    2 type  1   force =     0.03898262   -0.00966581    0.00000000
     atom    3 type  2   force =    -0.27974398    0.06937022    0.00000000
     atom    4 type  2   force =     0.27974398   -0.06937022    0.00000000
     atom    5 type  3   force =     0.06608352   -0.01638718    0.00000000
     atom    6 type  3   force =    -0.06608352    0.01638718    0.00000000
     The ionic contribution  to forces
     atom    1 type  1   force =    28.40149941   -7.04281732   -0.00000000
     atom    2 type  1   force =   -28.40149941    7.04281732    0.00000000
     atom    3 type  2   force =   -23.06147439    5.71863298   -0.00000000
     atom    4 type  2   force =    23.06147439   -5.71863298    0.00000000
     atom    5 type  3   force =    -3.38634343    0.83972321   -0.00000000
     atom    6 type  3   force =     3.38634343   -0.83972321   -0.00000000
     The local contribution  to forces
     atom    1 type  1   force =   -28.31084510    7.02033475    0.00000024
     atom    2 type  1   force =    28.31087962   -7.02034552   -0.00000080
     atom    3 type  2   force =    23.28679634   -5.77450821    0.00000625
     atom    4 type  2   force =   -23.28681871    5.77451667   -0.00000013
     atom    5 type  3   force =     3.14950086   -0.78099230    0.00000020
     atom    6 type  3   force =    -3.14950384    0.78099400    0.00000006
     The core correction contribution to forces
     atom    1 type  1   force =    -0.03875959    0.00961105   -0.00000004
     atom    2 type  1   force =     0.03875699   -0.00961089    0.00000027
     atom    3 type  2   force =     0.00023259   -0.00005753   -0.00000004
     atom    4 type  2   force =    -0.00023279    0.00005786    0.00000003
     atom    5 type  3   force =    -0.00641533    0.00159084   -0.00000001
     atom    6 type  3   force =     0.00641524   -0.00159082    0.00000001
     The Hubbard contrib.    to forces
     atom    1 type  1   force =     0.00000000    0.00000000    0.00000000
     atom    2 type  1   force =     0.00000000    0.00000000    0.00000000
     atom    3 type  2   force =     0.00000000    0.00000000    0.00000000
     atom    4 type  2   force =     0.00000000    0.00000000    0.00000000
     atom    5 type  3   force =     0.00000000    0.00000000    0.00000000
     atom    6 type  3   force =     0.00000000    0.00000000    0.00000000
     The SCF correction term to forces
     atom    1 type  1   force =    -0.00222186    0.00055594   -0.00000058
     atom    2 type  1   force =     0.00217009   -0.00053839    0.00000021
     atom    3 type  2   force =     0.00197434   -0.00048961   -0.00001204
     atom    4 type  2   force =    -0.00202469    0.00049067   -0.00000140
     atom    5 type  3   force =     0.00026601   -0.00006586   -0.00000011
     atom    6 type  3   force =    -0.00025690    0.00006324   -0.00000000

     Total force =     0.269198     Total SCF correction =     0.004344

     Computing stress (Cartesian axis) and pressure

     negative rho (up, down):  1.910E-01 0.000E+00
          total   stress  (Ry/bohr**3)                   (kbar)     P=     -804.00
  -0.00457172  -0.00029070   0.00000000         -672.52      -42.76        0.00
  -0.00029070  -0.00567187   0.00000000          -42.76     -834.36        0.00
   0.00000000   0.00000000  -0.00615275            0.00        0.00     -905.10

     kinetic stress (kbar)  39641.72    104.64      0.00
                              104.64  40037.77      0.00
                                0.00      0.00  40979.55

     local   stress (kbar)  45244.12 -15799.36     -0.00
                           -15799.36 -14551.96      0.00
                               -0.00      0.00 -19302.12

     nonloc. stress (kbar)  -3127.48    -32.27      0.00
                              -32.27  -3249.60      0.00
                                0.00      0.00  -3203.80

     hartree stress (kbar)  13299.83   8225.71      0.00
                             8225.71  44431.80     -0.00
                                0.00     -0.00  46879.52

     exc-cor stress (kbar)   7603.10      1.06     -0.00
                                1.06   7607.11     -0.00
                               -0.00     -0.00   7620.79

     corecor stress (kbar) -20482.57     -2.16     -0.00
                               -2.16 -20490.74      0.00
                               -0.00      0.00 -20499.05

     ewald   stress (kbar) -82851.24   7459.61      0.00
                             7459.61 -54618.75      0.00
                                0.00      0.00 -53379.99

     hubbard stress (kbar)      0.00      0.00      0.00
                                0.00      0.00      0.00
                                0.00      0.00      0.00

     DFT-D   stress (kbar)      0.00      0.00      0.00
                                0.00      0.00      0.00
                                0.00      0.00      0.00

     XDM     stress (kbar)      0.00      0.00      0.00
                                0.00      0.00      0.00
                                0.00      0.00      0.00

     dft-nl  stress (kbar)      0.00      0.00      0.00
                                0.00      0.00      0.00
                                0.00      0.00      0.00

     TS-vdW  stress (kbar)      0.00      0.00      0.00
                                0.00      0.00      0.00
                                0.00      0.00      0.00

[...]

                                0.00      0.00      0.00

     Writing all to output data dir new_calculations/myprefix.save/

     General routines

     Parallel routines

   This run was terminated on:   5:48:20  21May2023

   JOB DONE.