     Program PWSCF v.7.0 starts on 21May2023 at  7: 6: 7

     Reading input from espresso_7069.pwi
Warning: card &CELL ignored
Warning: card / ignored

     Current dimensions of program PWSCF are:
     Max number of different atomic species (ntypx) = 10
     Max number of k-points (npk) =  40000
     Max angular momentum in pseudopotentials (lmaxx) =  4
     file Mg.pbe-n-kjpaw_psl.0.3.0.UPF: wavefunction(s)  3S renormalized

     gamma-point specific algorithms are used
     Message from routine setup:
     using ibrav=0 with symmetry is DISCOURAGED, use correct ibrav instead

     Subspace diagonalization in iterative solution of the eigenvalue problem:
     a serial algorithm will be used

     Using Slab Decomposition

     bravais-lattice index     =            0
     lattice parameter (alat)  =      10.6540  a.u.
     unit-cell volume          =     549.8175 (a.u.)^3
     number of atoms/cell      =            4
     number of atomic types    =            2
     number of electrons       =        10.00
     number of Kohn-Sham states=            9
     kinetic-energy cutoff     =      30.0000  Ry
     charge density cutoff     =     240.0000  Ry
     scf convergence threshold =      1.0E-06
     mixing beta               =       0.7000
     number of iterations used =            8  plain     mixing
     Exchange-correlation= SLA  PW   PBX  PBC
                           (   1   4   3   4   0   0   0)

     celldm(1)=  10.653961  celldm(2)=   0.000000  celldm(3)=   0.000000
     celldm(4)=   0.000000  celldm(5)=   0.000000  celldm(6)=   0.000000

     crystal axes: (cart. coord. in units of alat)
               a(1) = (   1.000000   0.000000   0.000000 )
               a(2) = (   0.434977   0.900441   0.000000 )
               a(3) = (  -0.629253  -0.590837   0.504928 )

     reciprocal axes: (cart. coord. in units 2 pi/alat)
               b(1) = (  1.000000 -0.483071  0.680960 )
               b(2) = (  0.000000  1.110566  1.299519 )
               b(3) = (  0.000000  0.000000  1.980479 )

     PseudoPot. # 1 for Li read from file:
     /home/pragov/projects/rrg-bengioy-ad/pragov/crystal_structure_design/SSSP/li_pbe_v1.4.uspp.F.UPF
     MD5 check sum: e912e257baa3777c20ea3d68f190483c
     Pseudo is Ultrasoft, Zval =  3.0
     Generated by new atomic code, or converted to UPF format
     Using radial grid of  751 points,  5 beta functions with:
                l(1) =   0
                l(2) =   0
                l(3) =   0
                l(4) =   1
                l(5) =   1
     Q(r) pseudized with 10 coefficients,  rinner =    1.150   1.150   1.150

     PseudoPot. # 2 for Mg read from file:
     /home/pragov/projects/rrg-bengioy-ad/pragov/crystal_structure_design/SSSP/Mg.pbe-n-kjpaw_psl.0.3.0.UPF
     MD5 check sum: 24ecedc7f3e3cbe212e682f4413594e4
     Pseudo is Projector augmented-wave + core cor, Zval =  2.0
     Generated using "atomic" code by A. Dal Corso  v.5.0.99 svn rev. 10869
     Shape of augmentation charge: PSQ
     Using radial grid of 1129 points,  4 beta functions with:
                l(1) =   0
                l(2) =   0
                l(3) =   1
                l(4) =   1
     Q(r) pseudized with 0 coefficients

     atomic species   valence    mass     pseudopotential
        Li             3.00     6.94000     Li( 1.00)
        Mg             2.00    24.30500     Mg( 1.00)

      2 Sym. Ops., with inversion, found

                                    s                        frac. trans.

      isym =  1     identity

 cryst.   s( 1) = (     1          0          0      )
                  (     0          1          0      )
                  (     0          0          1      )

 cart.    s( 1) = (  1.0000000  0.0000000  0.0000000 )
                  (  0.0000000  1.0000000 -0.0000000 )
                  (  0.0000000  0.0000000  1.0000000 )

      isym =  2     inversion

 cryst.   s( 2) = (    -1          0          0      )
                  (     0         -1          0      )
                  (     0          0         -1      )

 cart.    s( 2) = ( -1.0000000 -0.0000000 -0.0000000 )
                  (  0.0000000 -1.0000000  0.0000000 )
                  (  0.0000000  0.0000000 -1.0000000 )

   Cartesian axes

     site n.     atom                  positions (alat units)
         1           Li  tau(   1) = (   0.1859521   0.1265697   0.3786963  )
         2           Li  tau(   2) = (   0.6197727   0.1830345   0.1262321  )
         3           Mg  tau(   3) = (   0.3608696   0.6480693   0.1262321  )
         4           Mg  tau(   4) = (   0.4448552  -0.3384651   0.3786963  )

   Crystallographic axes

     site n.     atom                  positions (cryst. coord.)
         1           Li  tau(   1) = (  0.3826870  0.6326870  0.7500000  )
         2           Li  tau(   2) = (  0.6173130  0.3673130  0.2500000  )
         3           Mg  tau(   3) = (  0.1337650  0.8837650  0.2500000  )
         4           Mg  tau(   4) = (  0.8662350  0.1162350  0.7500000  )

     number of k points=     1  Methfessel-Paxton smearing, width (Ry)=  0.0010
                       cart. coord. in units 2pi/alat
        k(    1) = (   0.0000000   0.0000000   0.0000000), wk =   2.0000000

                       cryst. coord.
        k(    1) = (   0.0000000   0.0000000   0.0000000), wk =   2.0000000

     Initial potential from superposition of free atoms

     starting charge       9.0967, renormalised to      10.0000
     Starting wfcs are   18 randomized atomic wfcs
     Checking if some PAW data can be deallocated...

     Self-consistent Calculation

     iteration #  1     ecut=    30.00 Ry     beta= 0.70
     Davidson diagonalization with overlap

     ethr =  1.00E-02,  avg # of iterations =  2.0

     total energy              =     -95.93292826 Ry
     estimated scf accuracy    <       0.20728912 Ry

[...]

     total energy              =     -95.97584346 Ry
     estimated scf accuracy    <       0.00002104 Ry

     iteration # 24     ecut=    30.00 Ry     beta= 0.70
     Davidson diagonalization with overlap

     ethr =  2.10E-07,  avg # of iterations =  1.0

     End of self-consistent calculation

          k = 0.0000 0.0000 0.0000 (   757 PWs)   bands (ev):

   -43.6808 -43.6664  -3.0636   2.0899   3.4948   3.4975   3.6837   5.2842
     5.3015

     occupation numbers
     1.0000   1.0000   1.0000   1.0000   0.5848   0.4152  -0.0000  -0.0000
    -0.0000

     the Fermi energy is     3.4962 ev

!    total energy              =     -95.97584104 Ry
     estimated scf accuracy    <       0.00000078 Ry
     smearing contrib. (-TS)   =      -0.00054714 Ry
     internal energy E=F+TS    =     -95.97529390 Ry

     The total energy is F=E-TS. E is the sum of the following terms:
     one-electron contribution =     -17.24553043 Ry
     hartree contribution      =       8.05723920 Ry
     xc contribution           =      -9.98347566 Ry
     ewald contribution        =     -14.21953480 Ry
     one-center paw contrib.   =     -62.58399221 Ry
      -> PAW hartree energy AE =       1.53496671 Ry
      -> PAW hartree energy PS =      -1.53084940 Ry
      -> PAW xc energy AE      =     -65.19965500 Ry
      -> PAW xc energy PS      =       2.61154548 Ry
      -> total E_H with PAW    =       8.06135650 Ry
      -> total E_XC with PAW   =     -72.57158518 Ry

     convergence has been achieved in  24 iterations

     Forces acting on atoms (cartesian axes, Ry/au):

     atom    1 type  1   force =    -0.00778062   -0.00506891    0.00011296
     atom    2 type  1   force =     0.00778062    0.00506891   -0.00011296
     atom    3 type  2   force =     0.00492169    0.00307443    0.00000434
     atom    4 type  2   force =    -0.00492169   -0.00307443   -0.00000434
     The non-local contrib.  to forces
     atom    1 type  1   force =     0.02226104    0.01373661    0.00008953
     atom    2 type  1   force =    -0.02226104   -0.01373661   -0.00008953
     atom    3 type  2   force =     0.00411091    0.00262764   -0.00003328
     atom    4 type  2   force =    -0.00411091   -0.00262764    0.00003328
     The ionic contribution  to forces
     atom    1 type  1   force =    -0.11416023   -0.07163500   -0.00000000
     atom    2 type  1   force =     0.11416023    0.07163500   -0.00000000
     atom    3 type  2   force =    -0.05768572   -0.03619751    0.00000000
     atom    4 type  2   force =     0.05768572    0.03619751    0.00000000
     The local contribution  to forces
     atom    1 type  1   force =     0.08457324    0.05286013    0.00010539
     atom    2 type  1   force =    -0.08448852   -0.05296189   -0.00003511
     atom    3 type  2   force =     0.05875398    0.03682969    0.00002180
     atom    4 type  2   force =    -0.05873728   -0.03675582   -0.00006223
     The core correction contribution to forces
     atom    1 type  1   force =     0.00000000    0.00000000    0.00000000
     atom    2 type  1   force =     0.00000000    0.00000000    0.00000000
     atom    3 type  2   force =    -0.00036014   -0.00022871    0.00000123
     atom    4 type  2   force =     0.00035922    0.00023391   -0.00000503
     The Hubbard contrib.    to forces
     atom    1 type  1   force =     0.00000000    0.00000000    0.00000000
     atom    2 type  1   force =     0.00000000    0.00000000    0.00000000
     atom    3 type  2   force =     0.00000000    0.00000000    0.00000000
     atom    4 type  2   force =     0.00000000    0.00000000    0.00000000
     The SCF correction term to forces
     atom    1 type  1   force =    -0.00047114   -0.00004878   -0.00007162
     atom    2 type  1   force =     0.00035349    0.00011429    0.00002203
     atom    3 type  2   force =     0.00010404    0.00007486   -0.00000521
     atom    4 type  2   force =    -0.00011708   -0.00009086    0.00000982

     Total force =     0.015487     Total SCF correction =     0.000638

     Computing stress (Cartesian axis) and pressure

          total   stress  (Ry/bohr**3)                   (kbar)     P=       -1.82
   0.00096510   0.00082433   0.00066657          141.97      121.26       98.06
   0.00082433   0.00016983  -0.00106050          121.26       24.98     -156.01
   0.00066657  -0.00106050  -0.00117199           98.06     -156.01     -172.41

     kinetic stress (kbar)   1616.55    138.16    133.37
                              138.16   1483.04   -212.48
                              133.37   -212.48   1231.37

     local   stress (kbar)      3.21   -123.55      8.92
                             -123.55    122.54    -14.19
                                8.92    -14.19    188.97

     nonloc. stress (kbar)   -230.14     12.96     13.53
                               12.96   -242.45    -21.38
                               13.53    -21.38   -267.32

     hartree stress (kbar)    756.40     54.46    -20.90
                               54.46    703.81     33.29
                              -20.90     33.29    695.53

     exc-cor stress (kbar)   -366.20      0.75      0.96
                                0.75   -366.92     -1.54
                                0.96     -1.54   -368.57

     corecor stress (kbar)   -390.28     -2.62     -2.69
                               -2.62   -387.75      4.28
                               -2.69      4.28   -382.77

     ewald   stress (kbar)  -1247.57     41.11    -35.14
                               41.11  -1287.29     56.01
                              -35.14     56.01  -1269.61

     hubbard stress (kbar)      0.00      0.00      0.00
                                0.00      0.00      0.00
                                0.00      0.00      0.00

     DFT-D   stress (kbar)      0.00      0.00      0.00
                                0.00      0.00      0.00
                                0.00      0.00      0.00

     XDM     stress (kbar)      0.00      0.00      0.00
                                0.00      0.00      0.00
                                0.00      0.00      0.00

     dft-nl  stress (kbar)      0.00      0.00      0.00
                                0.00      0.00      0.00
                                0.00      0.00      0.00

     TS-vdW  stress (kbar)      0.00      0.00      0.00
                                0.00      0.00      0.00
                                0.00      0.00      0.00

[...]

                                0.00      0.00      0.00

     Writing all to output data dir new_calculations/myprefix.save/

     General routines

     Parallel routines

     PAW routines

   This run was terminated on:   7: 6:13  21May2023

   JOB DONE.