     Program PWSCF v.7.0 starts on 20May2023 at 19:28:23

     Reading input from espresso_22170.pwi
Warning: card &CELL ignored
Warning: card / ignored

     Current dimensions of program PWSCF are:
     Max number of different atomic species (ntypx) = 10
     Max number of k-points (npk) =  40000
     Max angular momentum in pseudopotentials (lmaxx) =  4
     file O.pbe-n-kjpaw_psl.0.1.UPF: wavefunction(s)  2P renormalized

     gamma-point specific algorithms are used
     Message from routine setup:
     using ibrav=0 with symmetry is DISCOURAGED, use correct ibrav instead

     Subspace diagonalization in iterative solution of the eigenvalue problem:
     a serial algorithm will be used

     Using Slab Decomposition

     bravais-lattice index     =            0
     lattice parameter (alat)  =      10.7742  a.u.
     unit-cell volume          =     884.3871 (a.u.)^3
     number of atoms/cell      =           10
     number of atomic types    =            5
     number of electrons       =        87.00
     number of Kohn-Sham states=           53
     kinetic-energy cutoff     =      30.0000  Ry
     charge density cutoff     =     240.0000  Ry
     scf convergence threshold =      1.0E-06
     mixing beta               =       0.7000
     number of iterations used =            8  plain     mixing
     Exchange-correlation= SLA  PW   PBX  PBC
                           (   1   4   3   4   0   0   0)

     celldm(1)=  10.774219  celldm(2)=   0.000000  celldm(3)=   0.000000
     celldm(4)=   0.000000  celldm(5)=   0.000000  celldm(6)=   0.000000

     crystal axes: (cart. coord. in units of alat)
               a(1) = (   1.000000   0.000000   0.000000 )
               a(2) = (   0.500000   0.866025   0.000000 )
               a(3) = (   0.500000   0.288675   0.816497 )

     reciprocal axes: (cart. coord. in units 2 pi/alat)
               b(1) = (  1.000000 -0.577350 -0.408248 )
               b(2) = (  0.000000  1.154701 -0.408248 )
               b(3) = (  0.000000  0.000000  1.224745 )

     PseudoPot. # 1 for Sr read from file:
     /home/pragov/projects/rrg-bengioy-ad/pragov/crystal_structure_design/SSSP/Sr_pbe_v1.uspp.F.UPF
     MD5 check sum: 6b418c05fbe9db5448babca5e47b7a5b
     Pseudo is Ultrasoft + core correction, Zval = 10.0
     Generated by new atomic code, or converted to UPF format
     Using radial grid of  883 points,  6 beta functions with:
                l(1) =   0
                l(2) =   0
                l(3) =   1
                l(4) =   1
                l(5) =   2
                l(6) =   2
     Q(r) pseudized with  6 coefficients,  rinner =    1.400   1.400   1.400
                                                       1.400   1.400

     PseudoPot. # 2 for Eu read from file:
     /home/pragov/projects/rrg-bengioy-ad/pragov/crystal_structure_design/SSSP/Eu.GGA-PBE-paw-v1.0.UPF
     MD5 check sum: acec5fd9176fb57ec8e299eae1ecaf48
     Pseudo is Projector augmented-wave + core cor, Zval = 17.0
     Generated using ATOMPAW code
     Shape of augmentation charge: BESSEL
     Using radial grid of 1109 points,  8 beta functions with:
                l(1) =   0
                l(2) =   0
                l(3) =   1
                l(4) =   1
                l(5) =   2
                l(6) =   2
                l(7) =   3
                l(8) =   3
     Q(r) pseudized with 0 coefficients

     PseudoPot. # 3 for Hf read from file:
     /home/pragov/projects/rrg-bengioy-ad/pragov/crystal_structure_design/SSSP/Hf-sp.oncvpsp.upf
     MD5 check sum: 417ed15784afe83d2e06dacf143de3f8
     Pseudo is Norm-conserving + core correction, Zval = 12.0
     Generated using ONCVPSP code by D. R. Hamann
     Using radial grid of 1656 points,  8 beta functions with:
                l(1) =   0
                l(2) =   0
                l(3) =   1
                l(4) =   1
                l(5) =   2
                l(6) =   2
                l(7) =   3
                l(8) =   3

     PseudoPot. # 4 for Ti read from file:
     /home/pragov/projects/rrg-bengioy-ad/pragov/crystal_structure_design/SSSP/ti_pbe_v1.4.uspp.F.UPF
     MD5 check sum: 88a00a6731bd790ddea75d31a80cb452
     Pseudo is Ultrasoft + core correction, Zval = 12.0
     Generated by new atomic code, or converted to UPF format
     Using radial grid of  851 points,  6 beta functions with:
                l(1) =   0
                l(2) =   0
                l(3) =   1
                l(4) =   1
                l(5) =   2
                l(6) =   2
     Q(r) pseudized with  6 coefficients,  rinner =    1.000   1.000   1.000
                                                       1.000   1.000

     PseudoPot. # 5 for O  read from file:
     /home/pragov/projects/rrg-bengioy-ad/pragov/crystal_structure_design/SSSP/O.pbe-n-kjpaw_psl.0.1.UPF
     MD5 check sum: 0234752ac141de4415c5fc33072bef88
     Pseudo is Projector augmented-wave + core cor, Zval =  6.0
     Generated using "atomic" code by A. Dal Corso  v.5.0.99 svn rev. 10869
     Shape of augmentation charge: BESSEL
     Using radial grid of 1095 points,  4 beta functions with:
                l(1) =   0
                l(2) =   0
                l(3) =   1
                l(4) =   1
     Q(r) pseudized with 0 coefficients

     atomic species   valence    mass     pseudopotential
        Sr            10.00    87.62000     Sr( 1.00)
        Eu            17.00   151.96400     Eu( 1.00)
        Hf            12.00   178.49000     Hf( 1.00)
        Ti            12.00    47.86700     Ti( 1.00)
        O              6.00    15.99900     O ( 1.00)

      6 Sym. Ops. (no inversion) found

                                    s                        frac. trans.

      isym =  1     identity

 cryst.   s( 1) = (     1          0          0      )
                  (     0          1          0      )
                  (     0          0          1      )

 cart.    s( 1) = (  1.0000000  0.0000000  0.0000000 )
                  (  0.0000000  1.0000000  0.0000000 )
                  (  0.0000000  0.0000000  1.0000000 )

      isym =  2     120 deg rotation - cryst. axis [0,0,1]

[...]

      isym =  3     120 deg rotation - cryst. axis [0,0,-1]

[...]

      isym =  4     inv. 180 deg rotation - cart. axis [1,0,0]

[...]

      isym =  5     inv. 180 deg rotation - cryst. axis [0,1,0]

[...]

      isym =  6     inv. 180 deg rotation - cryst. axis [1,1,0]

 cryst.   s( 6) = (     1         -1          0      )
                  (     0         -1          0      )
                  (     0         -1          1      )

 cart.    s( 6) = (  0.5000000 -0.8660254  0.0000000 )
                  ( -0.8660254 -0.5000000  0.0000000 )
                  (  0.0000000  0.0000000  1.0000000 )

   Cartesian axes

     site n.     atom                  positions (alat units)
         1           Sr  tau(   1) = (   1.5000000   0.8660254   0.6123724  )
         2           Eu  tau(   2) = (   0.5000000   0.2886751   0.2041241  )
         3           Hf  tau(   3) = (   0.0000000   0.0000000   0.0000000  )
         4           Ti  tau(   4) = (   1.0000000   0.5773503   0.4082483  )
         5           O   tau(   5) = (   1.0000000   0.2949975   0.2085947  )
         6           O   tau(   6) = (   1.0000000   0.8597030   0.6079018  )
         7           O   tau(   7) = (   1.2445247   0.4361739   0.6079018  )
         8           O   tau(   8) = (   0.7554753   0.7185266   0.2085947  )
         9           O   tau(   9) = (   1.2445247   0.7185266   0.2085947  )
        10           O   tau(  10) = (   0.7554753   0.4361739   0.6079018  )

   Crystallographic axes

     site n.     atom                  positions (cryst. coord.)
         1           Sr  tau(   1) = (  0.7500000  0.7500000  0.7500000  )
         2           Eu  tau(   2) = (  0.2500000  0.2500000  0.2500000  )
         3           Hf  tau(   3) = (  0.0000000  0.0000000  0.0000000  )
         4           Ti  tau(   4) = (  0.5000000  0.5000000  0.5000000  )
         5           O   tau(   5) = (  0.7445247  0.2554753  0.2554753  )
         6           O   tau(   6) = (  0.2554753  0.7445247  0.7445247  )
         7           O   tau(   7) = (  0.7445247  0.2554753  0.7445247  )
         8           O   tau(   8) = (  0.2554753  0.7445247  0.2554753  )
         9           O   tau(   9) = (  0.7445247  0.7445247  0.2554753  )
        10           O   tau(  10) = (  0.2554753  0.2554753  0.7445247  )

     number of k points=     1  Methfessel-Paxton smearing, width (Ry)=  0.0010
                       cart. coord. in units 2pi/alat
        k(    1) = (   0.0000000   0.0000000   0.0000000), wk =   2.0000000

                       cryst. coord.
        k(    1) = (   0.0000000   0.0000000   0.0000000), wk =   2.0000000

     Check: negative core charge=   -0.000013

     Initial potential from superposition of free atoms

     starting charge      85.9597, renormalised to      87.0000

     negative rho (up, down):  6.448E-02 0.000E+00
     Starting wfcs are   89 randomized atomic wfcs
     Checking if some PAW data can be deallocated...

     Self-consistent Calculation

     iteration #  1     ecut=    30.00 Ry     beta= 0.70
     Davidson diagonalization with overlap

     ethr =  1.00E-02,  avg # of iterations =  2.0

     negative rho (up, down):  6.361E-02 0.000E+00

     total energy              =   -1161.46935844 Ry
     estimated scf accuracy    <      34.35049490 Ry

[...]

     ethr =  8.25E-06,  avg # of iterations =  1.0
     Minimization algorithm failed to find Fermi energy: reverting to bisection
     Possible cause: smearing is larger than the electronic band-gap.

[...]

     ethr =  8.25E-06,  avg # of iterations =  1.0

[...]

     total energy              =   -1194.44139366 Ry
     estimated scf accuracy    <       0.00000250 Ry

     iteration # 80     ecut=    30.00 Ry     beta= 0.70
     Davidson diagonalization with overlap

     ethr =  1.40E-09,  avg # of iterations =  1.0
     Minimization algorithm failed to find Fermi energy: reverting to bisection
     Possible cause: smearing is larger than the electronic band-gap.

[...]

     End of self-consistent calculation

          k = 0.0000 0.0000 0.0000 (  1223 PWs)   bands (ev):

   -49.4231 -45.3436 -28.6666 -23.2296 -21.6230 -21.6230 -21.6226 -18.3885
   -18.3885 -18.3885  -7.6759  -7.6752  -7.6752  -6.0682  -5.2673  -5.2672
    -5.2672  -5.1871  -5.1870  -4.6050  -4.6049  -4.6048   6.5890   7.1496
     7.1496   7.3465   7.3465   7.3465   8.6951   8.6951   8.6952  10.0354
    10.0354  10.0354  10.9089  10.9089  10.9089  11.2356  11.2357  11.2357
    12.9908  13.1614  13.1616  13.1616  13.2125  13.2126  13.2127  13.5686
    13.5687  13.5720  14.7443  14.7443  15.4082

     occupation numbers
     1.0000   1.0000   1.0000   1.0000   1.0000   1.0000   1.0000   1.0000
     1.0000   1.0000   1.0000   1.0000   1.0000   1.0000   1.0000   1.0000
     1.0000   1.0000   1.0000   1.0000   1.0000   1.0000   1.0000   1.0000
     1.0000   1.0000   1.0000   1.0000   1.0000   1.0000   1.0000   1.0000
     1.0000   1.0000   1.0000   1.0000   1.0000   1.0000   1.0000   1.0000
     1.0000   0.8373   0.8316   0.8312  -0.0000  -0.0000  -0.0000  -0.0000
    -0.0000  -0.0000  -0.0000  -0.0000  -0.0000

     the Fermi energy is    13.1675 ev

!    total energy              =   -1194.44139365 Ry
     estimated scf accuracy    <       0.00000013 Ry
     smearing contrib. (-TS)   =      -0.00043235 Ry
     internal energy E=F+TS    =   -1194.44096130 Ry

     The total energy is F=E-TS. E is the sum of the following terms:
     one-electron contribution =    -182.64340419 Ry
     hartree contribution      =     148.00765570 Ry
     xc contribution           =    -130.70164685 Ry
     ewald contribution        =    -515.13832774 Ry
     one-center paw contrib.   =    -513.96523822 Ry
      -> PAW hartree energy AE =     343.68651737 Ry
      -> PAW hartree energy PS =    -335.59589441 Ry
      -> PAW xc energy AE      =    -587.84921051 Ry
      -> PAW xc energy PS      =      65.79334933 Ry
      -> total E_H with PAW    =     156.09827866 Ry
      -> total E_XC with PAW   =    -652.75750803 Ry

     convergence has been achieved in  80 iterations

     negative rho (up, down):  6.807E-02 0.000E+00

     Forces acting on atoms (cartesian axes, Ry/au):

     atom    1 type  1   force =     0.00000000    0.00000000    0.00006674
     atom    2 type  2   force =    -0.00000000   -0.00000000   -0.00060269
     atom    3 type  3   force =     0.00000000    0.00000000   -0.00009082
     atom    4 type  4   force =     0.00000000    0.00000000   -0.00013997
     atom    5 type  5   force =     0.00000000   -0.00901190   -0.00636919
     atom    6 type  5   force =     0.00000000    0.00914780    0.00662477
     atom    7 type  5   force =     0.00792223   -0.00457390    0.00662477
     atom    8 type  5   force =    -0.00780453    0.00450595   -0.00636919
     atom    9 type  5   force =     0.00780453    0.00450595   -0.00636919
     atom   10 type  5   force =    -0.00792223   -0.00457390    0.00662477
     The non-local contrib.  to forces
     atom    1 type  1   force =     0.00000000    0.00000000   -0.00000112
     atom    2 type  2   force =     0.00000000    0.00000000   -0.00230921
     atom    3 type  3   force =    -0.00000000   -0.00000000   -0.00000451
     atom    4 type  4   force =     0.00000000    0.00000000   -0.00006359
     atom    5 type  5   force =     0.00000000   -0.07624417   -0.05385043
     atom    6 type  5   force =     0.00000000    0.07613362    0.05397062
     atom    7 type  5   force =     0.06593365   -0.03806681    0.05397062
     atom    8 type  5   force =    -0.06602939    0.03812208   -0.05385043
     atom    9 type  5   force =     0.06602939    0.03812208   -0.05385043
     atom   10 type  5   force =    -0.06593365   -0.03806681    0.05397062
     The ionic contribution  to forces
     atom    1 type  1   force =     0.00000000    0.00000000   -0.00000000
     atom    2 type  2   force =     0.00000000    0.00000000   -0.00000000
     atom    3 type  3   force =     0.00000000   -0.00000000    0.00000000
     atom    4 type  4   force =     0.00000000   -0.00000000    0.00000000
     atom    5 type  5   force =     0.00000000   -1.20615299   -0.85287896
     atom    6 type  5   force =     0.00000000    1.20615299    0.85287896
     atom    7 type  5   force =     1.04455913   -0.60307649    0.85287896
     atom    8 type  5   force =    -1.04455913    0.60307649   -0.85287896
     atom    9 type  5   force =     1.04455913    0.60307649   -0.85287896
     atom   10 type  5   force =    -1.04455913   -0.60307649    0.85287896
     The local contribution  to forces
     atom    1 type  1   force =     0.00000896   -0.00003564   -0.00003618
     atom    2 type  2   force =    -0.00012256    0.00052423    0.00244749
     atom    3 type  3   force =    -0.00000893   -0.00003669   -0.00021282
     atom    4 type  4   force =     0.00002502    0.00000599   -0.00013110
     atom    5 type  5   force =     0.00000887    1.27275427    0.89988840
     atom    6 type  5   force =    -0.00000471   -1.27248570   -0.89988517
     atom    7 type  5   force =    -1.10197003    0.63625555   -0.89991704
     atom    8 type  5   force =     1.10220368   -0.63639326    0.89991520
     atom    9 type  5   force =    -1.10219423   -0.63640404    0.89991330
     atom   10 type  5   force =     1.10197330    0.63626074   -0.89990899
     The core correction contribution to forces
     atom    1 type  1   force =     0.00000016   -0.00000002   -0.00000048
     atom    2 type  2   force =    -0.00000000    0.00000001    0.00000007
     atom    3 type  3   force =    -0.00000008   -0.00000142    0.00000630
     atom    4 type  4   force =     0.00000042   -0.00000054    0.00000418
     atom    5 type  5   force =    -0.00000002    0.00064790    0.00045746
     atom    6 type  5   force =    -0.00000000   -0.00064657   -0.00045866
     atom    7 type  5   force =    -0.00055997    0.00032327   -0.00045852
     atom    8 type  5   force =     0.00056102   -0.00032379    0.00045729
     atom    9 type  5   force =    -0.00056109   -0.00032381    0.00045736
     atom   10 type  5   force =     0.00056004    0.00032328   -0.00045860
     The Hubbard contrib.    to forces
     atom    1 type  1   force =     0.00000000    0.00000000    0.00000000
     atom    2 type  2   force =     0.00000000    0.00000000    0.00000000
     atom    3 type  3   force =     0.00000000    0.00000000    0.00000000
     atom    4 type  4   force =     0.00000000    0.00000000    0.00000000
     atom    5 type  5   force =     0.00000000    0.00000000    0.00000000
     atom    6 type  5   force =     0.00000000    0.00000000    0.00000000
     atom    7 type  5   force =     0.00000000    0.00000000    0.00000000
     atom    8 type  5   force =     0.00000000    0.00000000    0.00000000
     atom    9 type  5   force =     0.00000000    0.00000000    0.00000000
     atom   10 type  5   force =     0.00000000    0.00000000    0.00000000
     The SCF correction term to forces
     atom    1 type  1   force =    -0.00000599    0.00003372    0.00004976
     atom    2 type  2   force =     0.00010403   -0.00042697   -0.00079581
     atom    3 type  3   force =     0.00001123    0.00003948    0.00006544
     atom    4 type  4   force =    -0.00002453   -0.00001949   -0.00000423
     atom    5 type  5   force =    -0.00001024   -0.00001693   -0.00003970
     atom    6 type  5   force =     0.00000440   -0.00000533    0.00005536
     atom    7 type  5   force =    -0.00004146   -0.00001137    0.00010220
     atom    8 type  5   force =     0.00002715    0.00003315   -0.00006705
     atom    9 type  5   force =    -0.00003203    0.00004593   -0.00006598
     atom   10 type  5   force =     0.00004035   -0.00001724    0.00009072

     Total force =     0.027358     Total SCF correction =     0.000937

     Computing stress (Cartesian axis) and pressure

     negative rho (up, down):  6.807E-02 0.000E+00
          total   stress  (Ry/bohr**3)                   (kbar)     P=     -184.09
  -0.00125196   0.00000000   0.00000000         -184.17        0.00        0.00
   0.00000000  -0.00125196   0.00000000            0.00     -184.17        0.00
   0.00000000   0.00000000  -0.00125028            0.00        0.00     -183.92

     kinetic stress (kbar)  21923.34     -0.00     -0.00
                                0.00  21923.34     -0.00
                                0.00     -0.00  21923.48

     local   stress (kbar)  -4784.98      0.00      0.00
                                0.00  -4784.70      0.10
                                0.00      0.10  -4785.55

     nonloc. stress (kbar)   9053.47     -0.00      0.00
                                0.00   9053.47     -0.00
                                0.00     -0.00   9054.07

     hartree stress (kbar)   8206.29      0.00     -0.01
                                0.00   8206.20     -0.03
                               -0.01     -0.03   8206.46

     exc-cor stress (kbar)   -655.76      0.00     -0.00
                                0.00   -655.76      0.00
                               -0.00      0.00   -655.76

     corecor stress (kbar)  -5364.67     -0.00      0.00
                               -0.00  -5364.67     -0.00
                                0.00     -0.00  -5364.67

     ewald   stress (kbar) -28561.95      0.00      0.00
                                0.00 -28561.95     -0.00
                                0.00     -0.00 -28561.95

     hubbard stress (kbar)      0.00      0.00      0.00
                                0.00      0.00      0.00
                                0.00      0.00      0.00

     DFT-D   stress (kbar)      0.00      0.00      0.00
                                0.00      0.00      0.00
                                0.00      0.00      0.00

     XDM     stress (kbar)      0.00      0.00      0.00
                                0.00      0.00      0.00
                                0.00      0.00      0.00

     dft-nl  stress (kbar)      0.00      0.00      0.00
                                0.00      0.00      0.00
                                0.00      0.00      0.00

     TS-vdW  stress (kbar)      0.00      0.00      0.00
                                0.00      0.00      0.00
                                0.00      0.00      0.00

[...]

                                0.00      0.00      0.00

     Writing all to output data dir new_calculations/myprefix.save/

     General routines

     Parallel routines

     PAW routines

   This run was terminated on:  19:29:56  20May2023

   JOB DONE.