     Program PWSCF v.7.0 starts on 20May2023 at  6:27:59

     Reading input from espresso_18100.pwi
Warning: card &CELL ignored
Warning: card / ignored

     Current dimensions of program PWSCF are:
     Max number of different atomic species (ntypx) = 10
     Max number of k-points (npk) =  40000
     Max angular momentum in pseudopotentials (lmaxx) =  4

     gamma-point specific algorithms are used

     Subspace diagonalization in iterative solution of the eigenvalue problem:
     a serial algorithm will be used

     Using Slab Decomposition

     bravais-lattice index     =            0
     lattice parameter (alat)  =      12.7248  a.u.
     unit-cell volume          =    2048.8251 (a.u.)^3
     number of atoms/cell      =           14
     number of atomic types    =            3
     number of electrons       =       136.00
     number of Kohn-Sham states=           82
     kinetic-energy cutoff     =      30.0000  Ry
     charge density cutoff     =     240.0000  Ry
     scf convergence threshold =      1.0E-06
     mixing beta               =       0.7000
     number of iterations used =            8  plain     mixing
     Exchange-correlation= SLA  PW   PBE  PBE
                           (   1   4   3   4   0   0   0)

     celldm(1)=  12.724845  celldm(2)=   0.000000  celldm(3)=   0.000000
     celldm(4)=   0.000000  celldm(5)=   0.000000  celldm(6)=   0.000000

     crystal axes: (cart. coord. in units of alat)
               a(1) = (   1.000000   0.000000   0.000000 )
               a(2) = (  -0.062098   0.998040   0.000000 )
               a(3) = (  -0.063098  -0.063314   0.996321 )

     reciprocal axes: (cart. coord. in units 2 pi/alat)
               b(1) = (  1.000000  0.062220  0.067285 )
               b(2) = (  0.000000  1.001964  0.063673 )
               b(3) = (  0.000000  0.000000  1.003692 )

     PseudoPot. # 1 for Re read from file:
     /home/pragov/projects/rrg-bengioy-ad/pragov/crystal_structure_design/SSSP/Re_pbe_v1.2.uspp.F.UPF
     MD5 check sum: 85f993410f3e006da9d71c142b4ad953
     Pseudo is Ultrasoft + core correction, Zval = 15.0
     Generated by new atomic code, or converted to UPF format
     Using radial grid of  981 points,  8 beta functions with:
                l(1) =   0
                l(2) =   0
                l(3) =   1
                l(4) =   1
                l(5) =   2
                l(6) =   2
                l(7) =   3
                l(8) =   3
     Q(r) pseudized with  8 coefficients,  rinner =    1.150   1.150   1.150
                                                       1.150   1.150   1.150
                                                       1.150

     PseudoPot. # 2 for Mo read from file:
     /home/pragov/projects/rrg-bengioy-ad/pragov/crystal_structure_design/SSSP/Mo_ONCV_PBE-1.0.oncvpsp.upf
     MD5 check sum: 1b5d28e075c9ccadda658a603575cd1f
     Pseudo is Norm-conserving, Zval = 14.0
     Generated using ONCVPSP code by D. R. Hamann
     Using radial grid of 1526 points,  6 beta functions with:
                l(1) =   0
                l(2) =   0
                l(3) =   1
                l(4) =   1
                l(5) =   2
                l(6) =   2

     PseudoPot. # 3 for Se read from file:
     /home/pragov/projects/rrg-bengioy-ad/pragov/crystal_structure_design/SSSP/Se_pbe_v1.uspp.F.UPF
     MD5 check sum: 1b3568f3a8ae88f9a2a0ad0698632c85
     Pseudo is Ultrasoft + core correction, Zval =  6.0
     Generated by new atomic code, or converted to UPF format
     Using radial grid of  877 points,  6 beta functions with:
                l(1) =   0
                l(2) =   0
                l(3) =   1
                l(4) =   1
                l(5) =   2
                l(6) =   2
     Q(r) pseudized with  8 coefficients,  rinner =    1.300   1.300   1.300
                                                       1.300   1.300

     atomic species   valence    mass     pseudopotential
        Re            15.00   186.20700     Re( 1.00)
        Mo            14.00    95.95000     Mo( 1.00)
        Se             6.00    78.97100     Se( 1.00)

     No symmetry found

                                    s                        frac. trans.

      isym =  1     identity

 cryst.   s( 1) = (     1          0          0      )
                  (     0          1          0      )
                  (     0          0          1      )

 cart.    s( 1) = (  1.0000000 -0.0000000 -0.0000000 )
                  (  0.0000000  1.0000000  0.0000000 )
                  (  0.0000000  0.0000000  1.0000000 )

   Cartesian axes

     site n.     atom                  positions (alat units)
         1           Re  tau(   1) = (   0.5054035   0.3982710   0.2361291  )
         2           Re  tau(   2) = (   0.6984947   0.4164056   0.5840305  )
         3           Re  tau(   3) = (   0.5085204   0.7337212   0.4515756  )
         4           Re  tau(   4) = (   0.3687048   0.5367823   0.7617832  )
         5           Mo  tau(   5) = (   0.1745103   0.5175141   0.4119469  )
         6           Mo  tau(   6) = (   0.3639019   0.2000801   0.5453533  )
         7           Se  tau(   7) = (   0.3181044   0.7230910   0.1247175  )
         8           Se  tau(   8) = (   0.0559731   0.3233264   0.7335146  )
         9           Se  tau(   9) = (   0.7054703   0.1042717   0.3671693  )
        10           Se  tau(  10) = (   0.5584522   0.2140449   0.8723201  )
        11           Se  tau(  11) = (   0.8137131   0.6116984   0.2669812  )
        12           Se  tau(  12) = (   0.1760995   0.8304738   0.6275140  )
        13           Se  tau(  13) = (   0.1887227   0.1983528   0.2087502  )
        14           Se  tau(  14) = (   0.6875549   0.7350501   0.7824648  )

   Crystallographic axes

     site n.     atom                  positions (cryst. coord.)
         1           Re  tau(   1) = (  0.5460720  0.4140880  0.2370010  )
         2           Re  tau(   2) = (  0.7637000  0.4544100  0.5861870  )
         3           Re  tau(   3) = (  0.5845570  0.7639150  0.4532430  )
         4           Re  tau(   4) = (  0.4533600  0.5863410  0.7645960  )
         5           Mo  tau(   5) = (  0.2344280  0.5447600  0.4134680  )
         6           Mo  tau(   6) = (  0.4130450  0.2351970  0.5473670  )
         7           Se  tau(   7) = (  0.3714870  0.7324520  0.1251780  )
         8           Se  tau(   8) = (  0.1254450  0.3706660  0.7362230  )
         9           Se  tau(   9) = (  0.7366630  0.1278550  0.3685250  )
        10           Se  tau(  10) = (  0.6304640  0.2700080  0.8755410  )
        11           Se  tau(  11) = (  0.8697370  0.6298990  0.2679670  )
        12           Se  tau(  12) = (  0.2699940  0.8720600  0.6298310  )
        13           Se  tau(  13) = (  0.2151100  0.2120340  0.2095210  )
        14           Se  tau(  14) = (  0.7859380  0.7863150  0.7853540  )

     number of k points=     1  Methfessel-Paxton smearing, width (Ry)=  0.0010
                       cart. coord. in units 2pi/alat
        k(    1) = (   0.0000000   0.0000000   0.0000000), wk =   2.0000000

                       cryst. coord.
        k(    1) = (   0.0000000   0.0000000   0.0000000), wk =   2.0000000

     Initial potential from superposition of free atoms

     starting charge     133.9973, renormalised to     136.0000

     negative rho (up, down):  5.177E-01 0.000E+00
     Starting wfcs are  104 randomized atomic wfcs

     Self-consistent Calculation

     iteration #  1     ecut=    30.00 Ry     beta= 0.70
     Davidson diagonalization with overlap

     ethr =  1.00E-02,  avg # of iterations =  2.0

     negative rho (up, down):  4.958E-01 0.000E+00

     total energy              =   -1385.36216969 Ry
     estimated scf accuracy    <       1.49434844 Ry

[...]

     total energy              =   -1386.13372815 Ry
     estimated scf accuracy    <       0.00000137 Ry

     iteration # 15     ecut=    30.00 Ry     beta= 0.70
     Davidson diagonalization with overlap

     ethr =  1.01E-09,  avg # of iterations =  2.0

[...]

     End of self-consistent calculation

          k = 0.0000 0.0000 0.0000 (  2836 PWs)   bands (ev):

   -69.9723 -69.9335 -69.8431 -69.8336 -50.5118 -50.4311 -32.2321 -32.0555
   -31.9210 -31.8903 -31.8541 -31.6938 -31.6504 -31.6111 -31.5782 -31.5609
   -31.5416 -31.5133 -24.9057 -24.6786 -24.6181 -24.5892 -24.5374 -24.2615
    -4.0157  -2.8578  -2.8170  -2.7136  -2.5300  -2.4815  -2.4442  -1.9354
     4.1699   4.2000   4.3591   4.6071   4.7712   4.9423   5.1798   5.6107
     5.8625   5.8914   6.0301   6.0757   6.1612   6.6167   6.6773   6.7467
     7.0263   7.1529   7.6260   7.8544   7.9329   8.0050   8.1269   8.1534
     8.2667   8.3257   8.3602   8.7900   8.8139   8.9480   9.1586   9.6621
     9.7591   9.8457  10.1987  10.2474  11.5116  11.6294  11.8947  11.9442
    12.0503  12.2107  12.5508  12.9550  13.0450  13.0684  13.1343  13.3329
    13.3806  13.4528

     occupation numbers
     1.0000   1.0000   1.0000   1.0000   1.0000   1.0000   1.0000   1.0000
     1.0000   1.0000   1.0000   1.0000   1.0000   1.0000   1.0000   1.0000
     1.0000   1.0000   1.0000   1.0000   1.0000   1.0000   1.0000   1.0000
     1.0000   1.0000   1.0000   1.0000   1.0000   1.0000   1.0000   1.0000
     1.0000   1.0000   1.0000   1.0000   1.0000   1.0000   1.0000   1.0000
     1.0000   1.0000   1.0000   1.0000   1.0000   1.0000   1.0000   1.0000
     1.0000   1.0000   1.0000   1.0000   1.0000   1.0000   1.0000   1.0000
     1.0000   1.0000   1.0000   1.0000   1.0000   1.0000   1.0000   1.0000
     1.0000   1.0000   1.0000   1.0000  -0.0000  -0.0000  -0.0000  -0.0000
    -0.0000  -0.0000  -0.0000  -0.0000  -0.0000  -0.0000  -0.0000  -0.0000
    -0.0000  -0.0000

     the Fermi energy is    10.9733 ev

!    total energy              =   -1386.13372825 Ry
     estimated scf accuracy    <       0.00000018 Ry
     smearing contrib. (-TS)   =       0.00000000 Ry
     internal energy E=F+TS    =   -1386.13372825 Ry

     The total energy is F=E-TS. E is the sum of the following terms:
     one-electron contribution =    -757.00885022 Ry
     hartree contribution      =     425.86108790 Ry
     xc contribution           =    -479.53316009 Ry
     ewald contribution        =    -575.45280584 Ry

     convergence has been achieved in  15 iterations

     negative rho (up, down):  5.006E-01 0.000E+00

     Forces acting on atoms (cartesian axes, Ry/au):

     atom    1 type  1   force =     0.00034714   -0.00010741    0.06519633
     atom    2 type  1   force =    -0.05781477   -0.00014351   -0.00616203
     atom    3 type  1   force =    -0.00169172   -0.05844870    0.00153033
     atom    4 type  1   force =     0.00337150   -0.00058887   -0.06265127
     atom    5 type  2   force =     0.05632103    0.00182334    0.00227351
     atom    6 type  2   force =    -0.00563120    0.05246395    0.00068034
     atom    7 type  3   force =     0.00022447    0.00973719   -0.01540050
     atom    8 type  3   force =    -0.01599297    0.00011249    0.00910912
     atom    9 type  3   force =     0.01142502   -0.01251774   -0.00002829
     atom   10 type  3   force =     0.00190913   -0.00999106    0.01477445
     atom   11 type  3   force =     0.01413211    0.00301034   -0.00848995
     atom   12 type  3   force =    -0.00833421    0.01451069   -0.00020687
     atom   13 type  3   force =    -0.00155116   -0.00369964   -0.00298225
     atom   14 type  3   force =     0.00328565    0.00383892    0.00235708
     The non-local contrib.  to forces
     atom    1 type  1   force =     0.07522322    0.03734627   -0.17786274
     atom    2 type  1   force =     0.17099840   -0.01093077    0.00013784
     atom    3 type  1   force =     0.01880576    0.15872241   -0.03348171
     atom    4 type  1   force =    -0.01772032    0.00406682    0.19025145
     atom    5 type  2   force =    -0.01956452   -0.03448880   -0.01437870
     atom    6 type  2   force =    -0.03946784   -0.01517284   -0.01879569
     atom    7 type  3   force =     0.19332582   -0.25334050    0.07037784
     atom    8 type  3   force =     0.06386445    0.19229822   -0.24272170
     atom    9 type  3   force =    -0.28529501    0.07732762    0.15714610
     atom   10 type  3   force =    -0.12100063    0.28438027   -0.05926082
     atom   11 type  3   force =    -0.12853633   -0.14119175    0.24466534
     atom   12 type  3   force =     0.25934618   -0.08326573   -0.09959242
     atom   13 type  3   force =     0.14940987    0.13659684    0.13309256
     atom   14 type  3   force =    -0.15321693   -0.16268379   -0.17405515
     The ionic contribution  to forces
     atom    1 type  1   force =     8.31916850  -11.29945093  -29.81688904
     atom    2 type  1   force =    30.24485212   -8.12481817   12.68999184
     atom    3 type  1   force =    10.32838349   31.41813994   -6.85308483
     atom    4 type  1   force =   -10.09904439   10.06480707   29.61763083
     atom    5 type  2   force =   -28.41320325    6.25837708  -11.82719844
     atom    6 type  2   force =   -11.14325680  -28.85291542    6.07964697
     atom    7 type  3   force =    -6.43097634    9.74037248   -7.34166176
     atom    8 type  3   force =    -7.46200748   -6.65032684    8.83954811
     atom    9 type  3   force =     9.95948700   -7.29033902   -5.82028753
     atom   10 type  3   force =     6.04087807   -9.93692417    7.32366678
     atom   11 type  3   force =     8.64307384    6.73243801   -9.25766719
     atom   12 type  3   force =   -10.31380026    7.51339271    5.74411528
     atom   13 type  3   force =    -9.22251340   -9.76953355  -10.08074912
     atom   14 type  3   force =     9.54895890   10.19678081   10.70293810
     The local contribution  to forces
     atom    1 type  1   force =    -8.40094726   11.25482001   30.06566997
     atom    2 type  1   force =   -30.47997069    8.13451182  -12.69365356
     atom    3 type  1   force =   -10.35023323  -31.64059832    6.89122817
     atom    4 type  1   force =    10.11937373  -10.06927288  -29.87879981
     atom    5 type  2   force =    28.48995738   -6.22225216   11.84415221
     atom    6 type  2   force =    11.17727774   28.92157166   -6.06054295
     atom    7 type  3   force =     6.26035892   -9.50620764    7.26283222
     atom    8 type  3   force =     7.38810392    6.48055175   -8.61551278
     atom    9 type  3   force =    -9.69561527    7.20805097    5.68139080
     atom   10 type  3   force =    -5.93168280    9.67528125   -7.25516649
     atom   11 type  3   force =    -8.51397407   -6.60416701    9.03235009
     atom   12 type  3   force =    10.07546547   -7.42415192   -5.65595776
     atom   13 type  3   force =     9.08739139    9.64339533    9.95826922
     atom   14 type  3   force =    -9.40867053  -10.04746879  -10.54501022
     The core correction contribution to forces
     atom    1 type  1   force =     0.00640876    0.00751658   -0.00454156
     atom    2 type  1   force =     0.00545063    0.00151169   -0.00287561
     atom    3 type  1   force =     0.00099320    0.00430439   -0.00290446
     atom    4 type  1   force =     0.00108490   -0.00040547    0.00705069
     atom    5 type  2   force =     0.00000000    0.00000000    0.00000000
     atom    6 type  2   force =     0.00000000    0.00000000    0.00000000
     atom    7 type  3   force =    -0.02247604    0.02877795   -0.00668092
     atom    8 type  3   force =    -0.00588852   -0.02229703    0.02759834
     atom    9 type  3   force =     0.03270164   -0.00748066   -0.01815829
     atom   10 type  3   force =     0.01367698   -0.03261511    0.00533114
     atom   11 type  3   force =     0.01344707    0.01587475   -0.02766292
     atom   12 type  3   force =    -0.02923556    0.00833088    0.01105512
     atom   13 type  3   force =    -0.01575926   -0.01400355   -0.01338046
     atom   14 type  3   force =     0.01610259    0.01704313    0.01829433
     The Hubbard contrib.    to forces
     atom    1 type  1   force =     0.00000000    0.00000000    0.00000000
     atom    2 type  1   force =     0.00000000    0.00000000    0.00000000
     atom    3 type  1   force =     0.00000000    0.00000000    0.00000000
     atom    4 type  1   force =     0.00000000    0.00000000    0.00000000
     atom    5 type  2   force =     0.00000000    0.00000000    0.00000000
     atom    6 type  2   force =     0.00000000    0.00000000    0.00000000
     atom    7 type  3   force =     0.00000000    0.00000000    0.00000000
     atom    8 type  3   force =     0.00000000    0.00000000    0.00000000
     atom    9 type  3   force =     0.00000000    0.00000000    0.00000000
     atom   10 type  3   force =     0.00000000    0.00000000    0.00000000
     atom   11 type  3   force =     0.00000000    0.00000000    0.00000000
     atom   12 type  3   force =     0.00000000    0.00000000    0.00000000
     atom   13 type  3   force =     0.00000000    0.00000000    0.00000000
     atom   14 type  3   force =     0.00000000    0.00000000    0.00000000
     The SCF correction term to forces
     atom    1 type  1   force =     0.00047104   -0.00034911   -0.00118195
     atom    2 type  1   force =     0.00083189   -0.00042785    0.00023580
     atom    3 type  1   force =     0.00033619    0.00097310   -0.00022848
     atom    4 type  1   force =    -0.00034531    0.00020581    0.00121393
     atom    5 type  2   force =    -0.00089146    0.00017744   -0.00030321
     atom    6 type  2   force =    -0.00020717   -0.00102922    0.00037036
     atom    7 type  3   force =    -0.00003077    0.00012513   -0.00026953
     atom    8 type  3   force =    -0.00008823   -0.00012339    0.00019550
     atom    9 type  3   force =     0.00012379   -0.00008643   -0.00012102
     atom   10 type  3   force =     0.00001464   -0.00012308    0.00020220
     atom   11 type  3   force =     0.00009872    0.00004655   -0.00017692
     atom   12 type  3   force =    -0.00013292    0.00019497    0.00017125
     atom   13 type  3   force =    -0.00010263   -0.00016448   -0.00021610
     atom   14 type  3   force =     0.00008875    0.00015779    0.00018837

     Total force =     0.151167     Total SCF correction =     0.002846

     Computing stress (Cartesian axis) and pressure

     negative rho (up, down):  5.006E-01 0.000E+00
          total   stress  (Ry/bohr**3)                   (kbar)     P=       -6.40
  -0.00004258   0.00002802   0.00002055           -6.26        4.12        3.02
   0.00002802  -0.00003506   0.00002626            4.12       -5.16        3.86
   0.00002055   0.00002626  -0.00005292            3.02        3.86       -7.78

     kinetic stress (kbar)  16217.87     18.63     22.76
                               18.63  16228.02     21.96
                               22.76     21.96  16209.80

     local   stress (kbar)  -6879.42   1533.07   1734.39
                             1533.07  -6655.12   1577.25
                             1734.39   1577.25  -8182.88

     nonloc. stress (kbar)   -776.53      2.32      1.39
                                2.32   -775.53      6.80
                                1.39      6.80   -763.41

     hartree stress (kbar)  10036.92   -681.29   -771.32
                             -681.29   9934.34   -710.02
                             -771.32   -710.02  10605.44

     exc-cor stress (kbar)  20168.72      0.24      0.25
                                0.24  20168.85      0.24
                                0.25      0.24  20168.64

     corecor stress (kbar) -24802.80     -0.73     -0.86
                               -0.73 -24803.17     -0.34
                               -0.86     -0.34 -24801.60

     ewald   stress (kbar) -13971.02   -868.11   -983.59
                             -868.11 -14102.55   -892.03
                             -983.59   -892.03 -13243.78

     hubbard stress (kbar)      0.00      0.00      0.00
                                0.00      0.00      0.00
                                0.00      0.00      0.00

     DFT-D   stress (kbar)      0.00      0.00      0.00
                                0.00      0.00      0.00
                                0.00      0.00      0.00

     XDM     stress (kbar)      0.00      0.00      0.00
                                0.00      0.00      0.00
                                0.00      0.00      0.00

     dft-nl  stress (kbar)      0.00      0.00      0.00
                                0.00      0.00      0.00
                                0.00      0.00      0.00

     TS-vdW  stress (kbar)      0.00      0.00      0.00
                                0.00      0.00      0.00
                                0.00      0.00      0.00

[...]

                                0.00      0.00      0.00

     Writing all to output data dir new_calculations/myprefix.save/

     General routines

     Parallel routines

   This run was terminated on:   6:28:51  20May2023

   JOB DONE.