     Program PWSCF v.7.0 starts on 20May2023 at 23:50: 9

     Reading input from espresso_23216.pwi
Warning: card &CELL ignored
Warning: card / ignored

     Current dimensions of program PWSCF are:
     Max number of different atomic species (ntypx) = 10
     Max number of k-points (npk) =  40000
     Max angular momentum in pseudopotentials (lmaxx) =  4
     file Cd.pbe-dn-rrkjus_psl.0.3.1.UPF: wavefunction(s)  4D renormalized

     gamma-point specific algorithms are used
     Message from routine setup:
     using ibrav=0 with symmetry is DISCOURAGED, use correct ibrav instead

     Subspace diagonalization in iterative solution of the eigenvalue problem:
     a serial algorithm will be used

     Using Slab Decomposition

     bravais-lattice index     =            0
     lattice parameter (alat)  =      13.5370  a.u.
     unit-cell volume          =    1425.3430 (a.u.)^3
     number of atoms/cell      =            8
     number of atomic types    =            3
     number of electrons       =        72.00
     number of Kohn-Sham states=           43
     kinetic-energy cutoff     =      30.0000  Ry
     charge density cutoff     =     240.0000  Ry
     scf convergence threshold =      1.0E-06
     mixing beta               =       0.7000
     number of iterations used =            8  plain     mixing
     Exchange-correlation= PBE
                           (   1   4   3   4   0   0   0)

     celldm(1)=  13.536958  celldm(2)=   0.000000  celldm(3)=   0.000000
     celldm(4)=   0.000000  celldm(5)=   0.000000  celldm(6)=   0.000000

     crystal axes: (cart. coord. in units of alat)
               a(1) = (   1.000000   0.000000   0.000000 )
               a(2) = (   0.282453   0.959281   0.000000 )
               a(3) = (  -0.641226  -0.479641   0.598977 )

     reciprocal axes: (cart. coord. in units 2 pi/alat)
               b(1) = (  1.000000 -0.294442  0.834756 )
               b(2) = (  0.000000  1.042447  0.834756 )
               b(3) = (  0.000000  0.000000  1.669513 )

     PseudoPot. # 1 for Cd read from file:
     /home/pragov/projects/rrg-bengioy-ad/pragov/crystal_structure_design/SSSP/Cd.pbe-dn-rrkjus_psl.0.3.1.UPF
     MD5 check sum: 558e9f355611b531a870a69ef6ace9e2
     Pseudo is Ultrasoft + core correction, Zval = 12.0
     Generated using "atomic" code by A. Dal Corso  v.5.0.99 svn rev. 10869
     Using radial grid of 1239 points,  6 beta functions with:
                l(1) =   0
                l(2) =   0
                l(3) =   1
                l(4) =   1
                l(5) =   2
                l(6) =   2
     Q(r) pseudized with 0 coefficients

     PseudoPot. # 2 for Ge read from file:
     /home/pragov/projects/rrg-bengioy-ad/pragov/crystal_structure_design/SSSP/ge_pbe_v1.4.uspp.F.UPF
     MD5 check sum: 9c9eaa91e581c3f09632fb3098b2c6b2
     Pseudo is Ultrasoft + core correction, Zval = 14.0
     Generated by new atomic code, or converted to UPF format
     Using radial grid of  873 points,  6 beta functions with:
                l(1) =   0
                l(2) =   0
                l(3) =   1
                l(4) =   1
                l(5) =   2
                l(6) =   2
     Q(r) pseudized with  8 coefficients,  rinner =    1.400   1.400   1.400
                                                       1.400   1.400

     PseudoPot. # 3 for As read from file:
     /home/pragov/projects/rrg-bengioy-ad/pragov/crystal_structure_design/SSSP/As.pbe-n-rrkjus_psl.0.2.UPF
     MD5 check sum: 767315de957beeeb34f87d97bf945c8f
     Pseudo is Ultrasoft + core correction, Zval =  5.0
     Generated using "atomic" code by A. Dal Corso  v.5.0.99 svn rev. 10869
     Using radial grid of 1209 points,  4 beta functions with:
                l(1) =   0
                l(2) =   0
                l(3) =   1
                l(4) =   1
     Q(r) pseudized with 0 coefficients

     atomic species   valence    mass     pseudopotential
        Cd            12.00   112.41400     Cd( 1.00)
        Ge            14.00    72.63000     Ge( 1.00)
        As             5.00    74.92159     As( 1.00)

      2 Sym. Ops. (no inversion) found ( 1 have fractional translation)

                                    s                        frac. trans.

      isym =  1     identity

 cryst.   s( 1) = (     1          0          0      )
                  (     0          1          0      )
                  (     0          0          1      )

 cart.    s( 1) = (  1.0000000 -0.0000000  0.0000000 )
                  (  0.0000000  1.0000000 -0.0000000 )
                  (  0.0000000  0.0000000  1.0000000 )

      isym =  2     inv. 180 deg rotation - cart. axis [0,0,1]

 cryst.   s( 2) = (     1          0          0      )    f =(  0.2500000 )
                  (     0          1          0      )       ( -0.2500000 )
                  (    -1         -1         -1      )       (  0.5000000 )

 cart.    s( 2) = (  1.0000000 -0.0000000 -0.0000000 )    f =( -0.1412264 )
                  (  0.0000000  1.0000000 -0.0000000 )       ( -0.4796406 )
                  (  0.0000000  0.0000000 -1.0000000 )       (  0.2994886 )

   Cartesian axes

     site n.     atom                  positions (alat units)
         1           Cd  tau(   1) = (   0.1412264   0.4796406   0.2994886  )
         2           Cd  tau(   2) = (   0.6412264   0.4796406   0.0000000  )
         3           Ge  tau(   3) = (   0.5000000   0.0000000   0.2994886  )
         4           Ge  tau(   4) = (   0.0000000   0.0000000   0.0000000  )
         5           As  tau(   5) = (   0.6701747   0.1067176   0.0164749  )
         6           As  tau(   6) = (   0.1701747   0.1067176   0.2830137  )
         7           As  tau(   7) = (  -0.3495615   0.1331027   0.5825022  )
         8           As  tau(   8) = (   0.7916650   0.6127433   0.3159634  )

   Crystallographic axes

     site n.     atom                  positions (cryst. coord.)
         1           Cd  tau(   1) = (  0.2500000  0.7500000  0.5000000  )
         2           Cd  tau(   2) = (  0.5000000  0.5000000  0.0000000  )
         3           Ge  tau(   3) = (  0.7500000  0.2500000  0.5000000  )
         4           Ge  tau(   4) = (  0.0000000  0.0000000  0.0000000  )
         5           As  tau(   5) = (  0.6525050  0.1250000  0.0275050  )
         6           As  tau(   6) = (  0.3750000  0.3474950  0.4724950  )
         7           As  tau(   7) = (  0.0974950  0.6250000  0.9724950  )
         8           As  tau(   8) = (  0.8750000  0.9025050  0.5275050  )

     number of k points=     1  Methfessel-Paxton smearing, width (Ry)=  0.0010
                       cart. coord. in units 2pi/alat
        k(    1) = (   0.0000000   0.0000000   0.0000000), wk =   2.0000000

                       cryst. coord.
        k(    1) = (   0.0000000   0.0000000   0.0000000), wk =   2.0000000

     Initial potential from superposition of free atoms

     starting charge      71.9875, renormalised to      72.0000
     Starting wfcs are   52 randomized atomic wfcs

     Self-consistent Calculation

     iteration #  1     ecut=    30.00 Ry     beta= 0.70
     Davidson diagonalization with overlap

     ethr =  1.00E-02,  avg # of iterations =  2.0

     Threshold (ethr) on eigenvalues was too large:
     Diagonalizing with lowered threshold

     Davidson diagonalization with overlap

[...]

     total energy              =    -744.24403844 Ry
     estimated scf accuracy    <       0.22725541 Ry

[...]

     total energy              =    -744.31487906 Ry
     estimated scf accuracy    <       0.00000193 Ry

     iteration # 12     ecut=    30.00 Ry     beta= 0.70
     Davidson diagonalization with overlap

     ethr =  2.68E-09,  avg # of iterations =  5.0

     End of self-consistent calculation

          k = 0.0000 0.0000 0.0000 (  1972 PWs)   bands (ev):

   -18.9369 -18.9308 -18.9258 -18.9221 -18.9217 -18.9193 -18.9146 -18.9113
   -18.9050 -18.8999  -6.6093  -4.6127  -4.6117  -4.5866  -3.0968  -2.1884
    -2.1032  -2.0957  -2.0329  -1.9920  -1.9873  -1.9409  -1.7747  -1.7538
    -1.7467  -0.5368   2.0324   2.1006   2.1030   2.5816   3.0620   3.9015
     3.9059   5.5424   5.8516   5.8652   5.9000   7.2915   7.6453   8.7498
     8.7512   9.2831   9.7429

     occupation numbers
     1.0000   1.0000   1.0000   1.0000   1.0000   1.0000   1.0000   1.0000
     1.0000   1.0000   1.0000   1.0000   1.0000   1.0000   1.0000   1.0000
     1.0000   1.0000   1.0000   1.0000   1.0000   1.0000   1.0000   1.0000
     1.0000   1.0000   1.0000   1.0000   1.0000   1.0000   1.0000   1.0000
     1.0000   1.0000   1.0021   1.0332  -0.0354  -0.0000  -0.0000  -0.0000
    -0.0000  -0.0000  -0.0000

     the Fermi energy is     5.8837 ev

!    total energy              =    -744.31487895 Ry
     estimated scf accuracy    <       0.00000091 Ry
     smearing contrib. (-TS)   =       0.00025680 Ry
     internal energy E=F+TS    =    -744.31513575 Ry

     The total energy is F=E-TS. E is the sum of the following terms:
     one-electron contribution =    -415.04014005 Ry
     hartree contribution      =     262.55345482 Ry
     xc contribution           =    -239.02210972 Ry
     ewald contribution        =    -352.80634079 Ry

     convergence has been achieved in  12 iterations

     Forces acting on atoms (cartesian axes, Ry/au):

     atom    1 type  1   force =    -0.00056855   -0.00027874    0.00033919
     atom    2 type  1   force =    -0.00056855   -0.00027874   -0.00033919
     atom    3 type  2   force =    -0.00087721   -0.00120808    0.00017701
     atom    4 type  2   force =    -0.00087721   -0.00120808   -0.00017701
     atom    5 type  3   force =    -0.01047400    0.01536587   -0.01624195
     atom    6 type  3   force =    -0.01047400    0.01536587    0.01624195
     atom    7 type  3   force =     0.01191976   -0.01387904    0.01700043
     atom    8 type  3   force =     0.01191976   -0.01387904   -0.01700043
     The non-local contrib.  to forces
     atom    1 type  1   force =     0.00134501    0.00179833    0.00022226
     atom    2 type  1   force =     0.00134501    0.00179833   -0.00022226
     atom    3 type  2   force =     0.00291913    0.00279178    0.00027911
     atom    4 type  2   force =     0.00291913    0.00279178   -0.00027911
     atom    5 type  3   force =     0.00591464   -0.00856826    0.01080633
     atom    6 type  3   force =     0.00591464   -0.00856826   -0.01080633
     atom    7 type  3   force =    -0.00517005    0.00879418   -0.01022310
     atom    8 type  3   force =    -0.00517005    0.00879418    0.01022310
     The ionic contribution  to forces
     atom    1 type  1   force =     0.00000000   -0.00000000    0.00000000
     atom    2 type  1   force =     0.00000000    0.00000000    0.00000000
     atom    3 type  2   force =    -0.00000000   -0.00000000    0.00000000
     atom    4 type  2   force =     0.00000000    0.00000000    0.00000000
     atom    5 type  3   force =    -0.59152206    0.79079958   -0.98755370
     atom    6 type  3   force =    -0.59152206    0.79079958    0.98755370
     atom    7 type  3   force =     0.59152206   -0.79079958    0.98755370
     atom    8 type  3   force =     0.59152206   -0.79079958   -0.98755370
     The local contribution  to forces
     atom    1 type  1   force =    -0.00205495   -0.00247329   -0.00085051
     atom    2 type  1   force =    -0.00210612   -0.00271295   -0.00138677
     atom    3 type  2   force =    -0.00330571   -0.00404124   -0.00225726
     atom    4 type  2   force =    -0.00487102   -0.00476923   -0.00172972
     atom    5 type  3   force =     0.57406082   -0.76450418    0.95789459
     atom    6 type  3   force =     0.57321898   -0.76475873   -0.95780880
     atom    7 type  3   force =    -0.57311019    0.76610705   -0.95755606
     atom    8 type  3   force =    -0.57231798    0.76638961    0.95787935
     The core correction contribution to forces
     atom    1 type  1   force =    -0.00010905   -0.00012257   -0.00003015
     atom    2 type  1   force =    -0.00009322   -0.00017608   -0.00013703
     atom    3 type  2   force =    -0.00003111   -0.00003199   -0.00008689
     atom    4 type  2   force =    -0.00009433   -0.00000751   -0.00003337
     atom    5 type  3   force =     0.00163253   -0.00202962    0.00276875
     atom    6 type  3   force =     0.00150163   -0.00203502   -0.00272525
     atom    7 type  3   force =    -0.00169408    0.00204608   -0.00278199
     atom    8 type  3   force =    -0.00155540    0.00206050    0.00270820
     The Hubbard contrib.    to forces
     atom    1 type  1   force =     0.00000000    0.00000000    0.00000000
     atom    2 type  1   force =     0.00000000    0.00000000    0.00000000
     atom    3 type  2   force =     0.00000000    0.00000000    0.00000000
     atom    4 type  2   force =     0.00000000    0.00000000    0.00000000
     atom    5 type  3   force =     0.00000000    0.00000000    0.00000000
     atom    6 type  3   force =     0.00000000    0.00000000    0.00000000
     atom    7 type  3   force =     0.00000000    0.00000000    0.00000000
     atom    8 type  3   force =     0.00000000    0.00000000    0.00000000
     The SCF correction term to forces
     atom    1 type  1   force =     0.00014781    0.00058717   -0.00004522
     atom    2 type  1   force =     0.00045876    0.00093770    0.00036406
     atom    3 type  2   force =     0.00039298    0.00068696    0.00008494
     atom    4 type  2   force =     0.00038686    0.00035743   -0.00029191
     atom    5 type  3   force =    -0.00014125   -0.00015117   -0.00004636
     atom    6 type  3   force =     0.00006446   -0.00005804    0.00014019
     atom    7 type  3   force =    -0.00009640   -0.00010405    0.00007854
     atom    8 type  3   force =    -0.00002010   -0.00005235   -0.00018670

     Total force =     0.049722     Total SCF correction =     0.001650

     Computing stress (Cartesian axis) and pressure

          total   stress  (Ry/bohr**3)                   (kbar)     P=      -44.08
  -0.00056437  -0.00053152   0.00000000          -83.02      -78.19        0.00
  -0.00053152  -0.00035283   0.00000000          -78.19      -51.90        0.00
   0.00000000   0.00000000   0.00001823            0.00        0.00        2.68

     kinetic stress (kbar)   8825.28   -142.00     -0.00
                             -142.00   8912.82     -0.00
                               -0.00     -0.00   9012.42

     local   stress (kbar)  -1271.70    330.55      1.94
                              330.55  -1472.92      2.01
                                1.94      2.01  -1709.43

     nonloc. stress (kbar)   -248.49     -3.04      0.00
                               -3.04   -261.17      0.00
                                0.00      0.00   -262.65

     hartree stress (kbar)   8994.14    -59.30     -0.45
                              -59.30   9031.70     -1.28
                               -0.45     -1.28   9071.46

     exc-cor stress (kbar)  10048.37     -3.77     -0.05
                               -3.77  10050.68     -0.00
                               -0.05     -0.00  10053.37

     corecor stress (kbar) -14158.66      9.10      0.15
                                9.10 -14164.55      0.11
                                0.15      0.11 -14170.92

     ewald   stress (kbar) -12271.97   -209.73     -0.00
                             -209.73 -12148.46     -0.00
                               -0.00     -0.00 -11991.58

     hubbard stress (kbar)      0.00      0.00      0.00
                                0.00      0.00      0.00
                                0.00      0.00      0.00

     DFT-D   stress (kbar)      0.00      0.00      0.00
                                0.00      0.00      0.00
                                0.00      0.00      0.00

     XDM     stress (kbar)      0.00      0.00      0.00
                                0.00      0.00      0.00
                                0.00      0.00      0.00

     dft-nl  stress (kbar)      0.00      0.00      0.00
                                0.00      0.00      0.00
                                0.00      0.00      0.00

     TS-vdW  stress (kbar)      0.00      0.00      0.00
                                0.00      0.00      0.00
                                0.00      0.00      0.00

[...]

                                0.00      0.00      0.00

     Writing all to output data dir new_calculations/myprefix.save/

     General routines

     Parallel routines

   This run was terminated on:  23:50:35  20May2023

   JOB DONE.