     Program PWSCF v.7.0 starts on 21May2023 at  4:46:53

     Reading input from espresso_4928.pwi
Warning: card &CELL ignored
Warning: card / ignored

     Current dimensions of program PWSCF are:
     Max number of different atomic species (ntypx) = 10
     Max number of k-points (npk) =  40000
     Max angular momentum in pseudopotentials (lmaxx) =  4
     file Cd.pbe-dn-rrkjus_psl.0.3.1.UPF: wavefunction(s)  4D renormalized

     gamma-point specific algorithms are used

     Subspace diagonalization in iterative solution of the eigenvalue problem:
     a serial algorithm will be used

     Using Slab Decomposition

     bravais-lattice index     =            0
     lattice parameter (alat)  =       8.4932  a.u.
     unit-cell volume          =     613.5154 (a.u.)^3
     number of atoms/cell      =            5
     number of atomic types    =            3
     number of electrons       =        46.00
     number of Kohn-Sham states=           28
     kinetic-energy cutoff     =      30.0000  Ry
     charge density cutoff     =     240.0000  Ry
     scf convergence threshold =      1.0E-06
     mixing beta               =       0.7000
     number of iterations used =            8  plain     mixing
     Exchange-correlation=  SLA  PW   PBX  PBC
                           (   1   4   3   4   0   0   0)

     celldm(1)=   8.493215  celldm(2)=   0.000000  celldm(3)=   0.000000
     celldm(4)=   0.000000  celldm(5)=   0.000000  celldm(6)=   0.000000

     crystal axes: (cart. coord. in units of alat)
               a(1) = (   1.000000   0.000000   0.000000 )
               a(2) = (   0.000907   1.000588   0.000000 )
               a(3) = (   0.004193   0.001865   1.000814 )

     reciprocal axes: (cart. coord. in units 2 pi/alat)
               b(1) = (  1.000000 -0.000906 -0.004188 )
               b(2) = (  0.000000  0.999412 -0.001862 )
               b(3) = (  0.000000  0.000000  0.999186 )

     PseudoPot. # 1 for Tl read from file:
     /home/pragov/projects/rrg-bengioy-ad/pragov/crystal_structure_design/SSSP/Tl_pbe_v1.2.uspp.F.UPF
     MD5 check sum: b76cf1f7e72655a2b2c53cf6385d7059
     Pseudo is Ultrasoft + core correction, Zval = 13.0
     Generated by new atomic code, or converted to UPF format
     Using radial grid of  899 points,  6 beta functions with:
                l(1) =   0
                l(2) =   0
                l(3) =   1
                l(4) =   1
                l(5) =   2
                l(6) =   2
     Q(r) pseudized with  6 coefficients,  rinner =    1.100   1.100   1.100
                                                       1.100   1.100

     PseudoPot. # 2 for Cd read from file:
     /home/pragov/projects/rrg-bengioy-ad/pragov/crystal_structure_design/SSSP/Cd.pbe-dn-rrkjus_psl.0.3.1.UPF
     MD5 check sum: 558e9f355611b531a870a69ef6ace9e2
     Pseudo is Ultrasoft + core correction, Zval = 12.0
     Generated using "atomic" code by A. Dal Corso  v.5.0.99 svn rev. 10869
     Using radial grid of 1239 points,  6 beta functions with:
                l(1) =   0
                l(2) =   0
                l(3) =   1
                l(4) =   1
                l(5) =   2
                l(6) =   2
     Q(r) pseudized with 0 coefficients

     PseudoPot. # 3 for F  read from file:
     /home/pragov/projects/rrg-bengioy-ad/pragov/crystal_structure_design/SSSP/f_pbe_v1.4.uspp.F.UPF
     MD5 check sum: 4c38b6a325caf53ec0e86aed9459de46
     Pseudo is Ultrasoft, Zval =  7.0
     Generated by new atomic code, or converted to UPF format
     Using radial grid of  799 points,  4 beta functions with:
                l(1) =   0
                l(2) =   0
                l(3) =   1
                l(4) =   1
     Q(r) pseudized with  8 coefficients,  rinner =    0.950   0.950   0.950

     atomic species   valence    mass     pseudopotential
        Tl            13.00   204.38000     Tl( 1.00)
        Cd            12.00   112.41400     Cd( 1.00)
        F              7.00    18.99840     F ( 1.00)

     No symmetry found

                                    s                        frac. trans.

      isym =  1     identity

 cryst.   s( 1) = (     1          0          0      )
                  (     0          1          0      )
                  (     0          0          1      )

 cart.    s( 1) = (  1.0000000 -0.0000000  0.0000000 )
                  (  0.0000000  1.0000000  0.0000000 )
                  (  0.0000000  0.0000000  1.0000000 )

   Cartesian axes

     site n.     atom                  positions (alat units)
         1           Tl  tau(   1) = (   0.9994919   0.9956941   0.9858243  )
         2           Cd  tau(   2) = (   0.4907082   0.4999236   0.4954993  )
         3           F   tau(   3) = (   0.4855175   1.0011470   0.4995916  )
         4           F   tau(   4) = (   0.9901429   0.5103616   0.5141895  )
         5           F   tau(   5) = (   0.4919469   0.5014387   0.9977380  )

   Crystallographic axes

     site n.     atom                  positions (cryst. coord.)
         1           Tl  tau(   1) = (  0.9944610  0.9932730  0.9850220  )
         2           Cd  tau(   2) = (  0.4881800  0.4987070  0.4950960  )
         3           F   tau(   3) = (  0.4825180  0.9996280  0.4991850  )
         4           F   tau(   4) = (  0.9875270  0.5091040  0.5137710  )
         5           F   tau(   5) = (  0.4873140  0.4992860  0.9969260  )

     number of k points=     1  Methfessel-Paxton smearing, width (Ry)=  0.0010
                       cart. coord. in units 2pi/alat
        k(    1) = (   0.0000000   0.0000000   0.0000000), wk =   2.0000000

                       cryst. coord.
        k(    1) = (   0.0000000   0.0000000   0.0000000), wk =   2.0000000

     Check: negative core charge=   -0.000004

     Initial potential from superposition of free atoms

     starting charge      45.9903, renormalised to      46.0000

     negative rho (up, down):  5.024E-02 0.000E+00
     Starting wfcs are   30 randomized atomic wfcs

     Self-consistent Calculation

     iteration #  1     ecut=    30.00 Ry     beta= 0.70
     Davidson diagonalization with overlap

     ethr =  1.00E-02,  avg # of iterations =  2.0

     negative rho (up, down):  5.235E-02 0.000E+00

     total energy              =    -413.03060217 Ry
     estimated scf accuracy    <       0.74413862 Ry

[...]

     total energy              =    -413.39103774 Ry
     estimated scf accuracy    <       0.00000100 Ry

     iteration #  8     ecut=    30.00 Ry     beta= 0.70
     Davidson diagonalization with overlap

     ethr =  2.18E-09,  avg # of iterations =  5.0

[...]

     End of self-consistent calculation

          k = 0.0000 0.0000 0.0000 (   872 PWs)   bands (ev):

   -16.6434 -16.3786 -16.3685  -5.4891  -5.4881  -5.4504  -5.4499  -5.4483
    -1.6061  -1.6006  -1.5951  -1.2573  -1.2496   0.5381   0.8366   0.8399
     0.8575   2.3763   2.3834   2.3860   2.4052   2.4071   2.4135   7.9838
    10.9256  10.9576  10.9694  14.5870

     occupation numbers
     1.0000   1.0000   1.0000   1.0000   1.0000   1.0000   1.0000   1.0000
     1.0000   1.0000   1.0000   1.0000   1.0000   1.0000   1.0000   1.0000
     1.0000   1.0000   1.0000   1.0000   1.0000   1.0000   1.0000  -0.0000
    -0.0000  -0.0000  -0.0000  -0.0000

     the Fermi energy is     6.8474 ev

!    total energy              =    -413.39103805 Ry
     estimated scf accuracy    <       0.00000010 Ry
     smearing contrib. (-TS)   =       0.00000000 Ry
     internal energy E=F+TS    =    -413.39103805 Ry

     The total energy is F=E-TS. E is the sum of the following terms:
     one-electron contribution =    -139.85294482 Ry
     hartree contribution      =     105.63739896 Ry
     xc contribution           =    -132.95359487 Ry
     ewald contribution        =    -246.22189733 Ry

     convergence has been achieved in   8 iterations

     negative rho (up, down):  5.189E-02 0.000E+00

     Forces acting on atoms (cartesian axes, Ry/au):

     atom    1 type  1   force =    -0.00106917    0.00101016    0.00167984
     atom    2 type  2   force =    -0.00379080    0.00711082    0.01477021
     atom    3 type  3   force =     0.00263444   -0.00233487   -0.00241043
     atom    4 type  3   force =     0.00190289   -0.00527831   -0.00949031
     atom    5 type  3   force =     0.00032264   -0.00050780   -0.00454931
     The non-local contrib.  to forces
     atom    1 type  1   force =     0.00507109   -0.00584529   -0.01165294
     atom    2 type  2   force =    -0.00345887    0.00448960    0.00843901
     atom    3 type  3   force =     0.00812589    0.00688741    0.00661835
     atom    4 type  3   force =    -0.00273936   -0.02097135   -0.03682444
     atom    5 type  3   force =    -0.00569230    0.00785576    0.01386515
     The ionic contribution  to forces
     atom    1 type  1   force =    -0.44563426    0.49891359    0.97329372
     atom    2 type  2   force =     0.23415286   -0.30209038   -0.61193969
     atom    3 type  3   force =     0.14625018    0.10406781   -0.32046781
     atom    4 type  3   force =    -0.09502577   -0.12923893   -0.25082260
     atom    5 type  3   force =     0.16025699   -0.17165208    0.20993638
     The local contribution  to forces
     atom    1 type  1   force =     0.43973295   -0.49261824   -0.96093399
     atom    2 type  2   force =    -0.23385177    0.30366417    0.61605190
     atom    3 type  3   force =    -0.15160210   -0.11327478    0.31147834
     atom    4 type  3   force =     0.09983031    0.14495141    0.27801509
     atom    5 type  3   force =    -0.15428553    0.16341709   -0.22832039
     The core correction contribution to forces
     atom    1 type  1   force =    -0.00043412    0.00052943    0.00100631
     atom    2 type  2   force =    -0.00069321    0.00105201    0.00218747
     atom    3 type  3   force =     0.00000000    0.00000000    0.00000000
     atom    4 type  3   force =     0.00000000    0.00000000    0.00000000
     atom    5 type  3   force =     0.00000000    0.00000000    0.00000000
     The Hubbard contrib.    to forces
     atom    1 type  1   force =     0.00000000    0.00000000    0.00000000
     atom    2 type  2   force =     0.00000000    0.00000000    0.00000000
     atom    3 type  3   force =     0.00000000    0.00000000    0.00000000
     atom    4 type  3   force =     0.00000000    0.00000000    0.00000000
     atom    5 type  3   force =     0.00000000    0.00000000    0.00000000
     The SCF correction term to forces
     atom    1 type  1   force =     0.00025122    0.00003097   -0.00004018
     atom    2 type  2   force =     0.00011622   -0.00000426    0.00002459
     atom    3 type  3   force =    -0.00008349   -0.00001501   -0.00004624
     atom    4 type  3   force =    -0.00010625   -0.00001913    0.00013472
     atom    5 type  3   force =     0.00009953   -0.00012826   -0.00003737

     Total force =     0.021187     Total SCF correction =     0.000383

     Computing stress (Cartesian axis) and pressure

     negative rho (up, down):  5.189E-02 0.000E+00
          total   stress  (Ry/bohr**3)                   (kbar)     P=     -242.14
  -0.00163599  -0.00000397  -0.00002008         -240.66       -0.58       -2.95
  -0.00000397  -0.00164862  -0.00001406           -0.58     -242.52       -2.07
  -0.00002008  -0.00001406  -0.00165350           -2.95       -2.07     -243.24

     kinetic stress (kbar)  17016.31      0.07     -0.24
                                0.07  17014.17     -1.91
                               -0.24     -1.91  17013.88

     local   stress (kbar)  -2515.54     -5.76     32.04
                               -5.76  -2601.86    -59.01
                               32.04    -59.01  -2503.30

     nonloc. stress (kbar)   2251.68     -0.35     -1.80
                               -0.35   2252.02     -0.30
                               -1.80     -0.30   2251.78

     hartree stress (kbar)   8435.48      2.63    -12.70
                                2.63   8467.71     21.35
                              -12.70     21.35   8425.92

     exc-cor stress (kbar)  12042.75      0.00     -0.02
                                0.00  12042.89      0.08
                               -0.02      0.08  12042.86

     corecor stress (kbar) -17775.13     -0.01     -0.05
                               -0.01 -17775.19     -0.08
                               -0.05     -0.08 -17775.21

     ewald   stress (kbar) -19696.19      2.84    -20.18
                                2.84 -19642.25     37.79
                              -20.18     37.79 -19699.18

     hubbard stress (kbar)      0.00      0.00      0.00
                                0.00      0.00      0.00
                                0.00      0.00      0.00

     DFT-D   stress (kbar)      0.00      0.00      0.00
                                0.00      0.00      0.00
                                0.00      0.00      0.00

     XDM     stress (kbar)      0.00      0.00      0.00
                                0.00      0.00      0.00
                                0.00      0.00      0.00

     dft-nl  stress (kbar)      0.00      0.00      0.00
                                0.00      0.00      0.00
                                0.00      0.00      0.00

     TS-vdW  stress (kbar)      0.00      0.00      0.00
                                0.00      0.00      0.00
                                0.00      0.00      0.00

[...]

                                0.00      0.00      0.00

     Writing all to output data dir new_calculations/myprefix.save/

     General routines

     Parallel routines

   This run was terminated on:   4:47: 0  21May2023

   JOB DONE.