     Program PWSCF v.7.0 starts on 21May2023 at  5:16: 8

     Reading input from espresso_14098.pwi
Warning: card &CELL ignored
Warning: card / ignored

     Current dimensions of program PWSCF are:
     Max number of different atomic species (ntypx) = 10
     Max number of k-points (npk) =  40000
     Max angular momentum in pseudopotentials (lmaxx) =  4

     gamma-point specific algorithms are used
     Message from routine setup:
     using ibrav=0 with symmetry is DISCOURAGED, use correct ibrav instead

     Subspace diagonalization in iterative solution of the eigenvalue problem:
     a serial algorithm will be used

     Using Slab Decomposition

     bravais-lattice index     =            0
     lattice parameter (alat)  =      14.0909  a.u.
     unit-cell volume          =    1980.3319 (a.u.)^3
     number of atoms/cell      =           14
     number of atomic types    =            4
     number of electrons       =       142.00
     number of Kohn-Sham states=           85
     kinetic-energy cutoff     =      30.0000  Ry
     charge density cutoff     =     240.0000  Ry
     scf convergence threshold =      1.0E-06
     mixing beta               =       0.7000
     number of iterations used =            8  plain     mixing
     Exchange-correlation=  SLA  PW   PBX  PBC
                           (   1   4   3   4   0   0   0)

     celldm(1)=  14.090935  celldm(2)=   0.000000  celldm(3)=   0.000000
     celldm(4)=   0.000000  celldm(5)=   0.000000  celldm(6)=   0.000000

     crystal axes: (cart. coord. in units of alat)
               a(1) = (   1.000000   0.000000   0.000000 )
               a(2) = (  -0.002873   0.999996   0.000000 )
               a(3) = (  -0.483829  -0.514690   0.707816 )

     reciprocal axes: (cart. coord. in units 2 pi/alat)
               b(1) = (  1.000000  0.002873  0.685641 )
               b(2) = (  0.000000  1.000004  0.727155 )
               b(3) = (  0.000000  0.000000  1.412797 )

     PseudoPot. # 1 for Cr read from file:
     /home/pragov/projects/rrg-bengioy-ad/pragov/crystal_structure_design/SSSP/cr_pbe_v1.5.uspp.F.UPF
     MD5 check sum: 0d52af634a40206e4dee301ad30da4bf
     Pseudo is Ultrasoft + core correction, Zval = 14.0
     Generated by new atomic code, or converted to UPF format
     Using radial grid of  857 points,  6 beta functions with:
                l(1) =   0
                l(2) =   0
                l(3) =   1
                l(4) =   1
                l(5) =   2
                l(6) =   2
     Q(r) pseudized with  8 coefficients,  rinner =    0.950   0.950   0.950
                                                       0.950   0.950

     PseudoPot. # 2 for Ag read from file:
     /home/pragov/projects/rrg-bengioy-ad/pragov/crystal_structure_design/SSSP/Ag_ONCV_PBE-1.0.oncvpsp.upf
     MD5 check sum: 94f47bd0669c641108e45594df92fabc
     Pseudo is Norm-conserving, Zval = 19.0
     Generated using ONCVPSP code by D. R. Hamann
     Using radial grid of 1398 points,  6 beta functions with:
                l(1) =   0
                l(2) =   0
                l(3) =   1
                l(4) =   1
                l(5) =   2
                l(6) =   2

     PseudoPot. # 3 for Sn read from file:
     /home/pragov/projects/rrg-bengioy-ad/pragov/crystal_structure_design/SSSP/Sn_pbe_v1.uspp.F.UPF
     MD5 check sum: 4cf58ce39ec5d5d420df3dd08604eb00
     Pseudo is Ultrasoft + core correction, Zval = 14.0
     Generated by new atomic code, or converted to UPF format
     Using radial grid of  891 points,  6 beta functions with:
                l(1) =   0
                l(2) =   0
                l(3) =   1
                l(4) =   1
                l(5) =   2
                l(6) =   2
     Q(r) pseudized with  6 coefficients,  rinner =    1.200   1.200   1.200
                                                       1.200   1.200

     PseudoPot. # 4 for S  read from file:
     /home/pragov/projects/rrg-bengioy-ad/pragov/crystal_structure_design/SSSP/s_pbe_v1.4.uspp.F.UPF
     MD5 check sum: 88d86576ff6df21479756cfb9bdac1df
     Pseudo is Ultrasoft + core correction, Zval =  6.0
     Generated by new atomic code, or converted to UPF format
     Using radial grid of  907 points,  6 beta functions with:
                l(1) =   0
                l(2) =   0
                l(3) =   1
                l(4) =   1
                l(5) =   2
                l(6) =   2
     Q(r) pseudized with  8 coefficients,  rinner =    1.300   1.300   1.300
                                                       1.300   1.300

     atomic species   valence    mass     pseudopotential
        Cr            14.00    51.99610     Cr( 1.00)
        Ag            19.00   107.86820     Ag( 1.00)
        Sn            14.00   118.71000     Sn( 1.00)
        S              6.00    32.06000     S ( 1.00)

      2 Sym. Ops., with inversion, found

                                    s                        frac. trans.

      isym =  1     identity

 cryst.   s( 1) = (     1          0          0      )
                  (     0          1          0      )
                  (     0          0          1      )

 cart.    s( 1) = (  1.0000000 -0.0000000 -0.0000000 )
                  (  0.0000000  1.0000000 -0.0000000 )
                  (  0.0000000  0.0000000  1.0000000 )

      isym =  2     inversion

 cryst.   s( 2) = (    -1          0          0      )
                  (     0         -1          0      )
                  (     0          0         -1      )

 cart.    s( 2) = ( -1.0000000  0.0000000  0.0000000 )
                  (  0.0000000 -1.0000000  0.0000000 )
                  (  0.0000000  0.0000000 -1.0000000 )

   Cartesian axes

     site n.     atom                  positions (alat units)
         1           Cr  tau(   1) = (   0.5000000   0.0000000   0.0000000  )
         2           Cr  tau(   2) = (   0.2566490   0.2426530   0.3539080  )
         3           Ag  tau(   3) = (   0.7620380   0.5061439   0.1769540  )
         4           Ag  tau(   4) = (  -0.2487401  -0.0208380   0.5308619  )
         5           Sn  tau(   5) = (   0.2580853  -0.2573450   0.3539080  )
         6           Sn  tau(   6) = (   0.0000000   0.0000000   0.0000000  )
         7           S   tau(   7) = (   0.4811154   0.4775109   0.3609946  )
         8           S   tau(   8) = (   0.2503828  -0.2895498   0.7007293  )
         9           S   tau(   9) = (   0.2501581   0.2591733   0.6819240  )
        10           S   tau(  10) = (   0.0298369   0.4788636   0.3797999  )
        11           S   tau(  11) = (   0.0321825   0.0077950   0.3468213  )
        12           S   tau(  12) = (   0.2629152   0.7748557   0.0070867  )
        13           S   tau(  13) = (   0.2631398   0.2261326   0.0258919  )
        14           S   tau(  14) = (   0.4834611   0.0064424   0.3280161  )

   Crystallographic axes

     site n.     atom                  positions (cryst. coord.)
         1           Cr  tau(   1) = (  0.5000000  0.0000000  0.0000000  )
         2           Cr  tau(   2) = (  0.5000000  0.5000000  0.5000000  )
         3           Ag  tau(   3) = (  0.8848190  0.6348190  0.2500000  )
         4           Ag  tau(   4) = (  0.1151810  0.3651810  0.7500000  )
         5           Sn  tau(   5) = (  0.5000000 -0.0000000  0.5000000  )
         6           Sn  tau(   6) = (  0.0000000  0.0000000  0.0000000  )
         7           S   tau(   7) = (  0.7300000  0.7400120  0.5100120  )
         8           S   tau(   8) = (  0.7300000  0.2199880  0.9899880  )
         9           S   tau(   9) = (  0.7184580  0.7550390  0.9634200  )
        10           S   tau(  10) = (  0.2916190  0.7550390  0.5365800  )
        11           S   tau(  11) = (  0.2700000  0.2599880  0.4899880  )
        12           S   tau(  12) = (  0.2700000  0.7800120  0.0100120  )
        13           S   tau(  13) = (  0.2815420  0.2449610  0.0365800  )
        14           S   tau(  14) = (  0.7083810  0.2449610  0.4634200  )

     number of k points=     1  Methfessel-Paxton smearing, width (Ry)=  0.0010
                       cart. coord. in units 2pi/alat
        k(    1) = (   0.0000000   0.0000000   0.0000000), wk =   2.0000000

                       cryst. coord.
        k(    1) = (   0.0000000   0.0000000   0.0000000), wk =   2.0000000

     Check: negative core charge=   -0.000004

     Initial potential from superposition of free atoms

     starting charge     137.9990, renormalised to     142.0000

     negative rho (up, down):  3.500E-03 0.000E+00
     Starting wfcs are   90 randomized atomic wfcs

     Self-consistent Calculation

     iteration #  1     ecut=    30.00 Ry     beta= 0.70
     Davidson diagonalization with overlap

     ethr =  1.00E-02,  avg # of iterations =  3.0

     total energy              =   -1379.75709457 Ry
     estimated scf accuracy    <      76.99813258 Ry

[...]

     negative rho (up, down):  1.056E-03 0.000E+00

[...]

     total energy              =   -1444.38345537 Ry
     estimated scf accuracy    <       0.00000158 Ry

     iteration # 24     ecut=    30.00 Ry     beta= 0.70
     Davidson diagonalization with overlap

     ethr =  1.11E-09,  avg # of iterations =  2.0

[...]

     End of self-consistent calculation

          k = 0.0000 0.0000 0.0000 (  2767 PWs)   bands (ev):

   -84.3318 -84.3313 -63.7134 -63.7130 -47.4092 -47.4088 -47.3775 -47.3761
   -47.3698 -47.3679 -35.2177 -35.2042 -34.9798 -34.9775 -34.8416 -34.8403
   -12.9881 -12.9303 -12.9220 -12.8826 -12.8785 -12.8516 -12.8412 -12.8313
   -12.8274 -12.8223  -5.6987  -4.4524  -4.2127  -3.9793  -3.8570  -3.7784
    -3.7651  -3.7193   0.6230   1.0775   2.8606   2.8689   3.0627   3.0952
     3.3414   3.7536   3.8115   3.8782   3.8813   3.8820   3.9936   4.2922
     4.3344   4.8436   4.9248   5.1812   5.5316   5.6116   5.6276   5.7345
     5.7794   5.8865   6.1335   6.2482   6.2633   6.4469   6.9877   7.0195
     7.1156   7.6163   7.9344   7.9560   7.9783   8.0300   8.1017   8.3157
     8.6107   8.6446   9.3918   9.4843  10.5668  10.6219  10.6327  10.6664
    11.4575  11.4853  11.7045  11.7593  12.4600

     occupation numbers
     1.0000   1.0000   1.0000   1.0000   1.0000   1.0000   1.0000   1.0000
     1.0000   1.0000   1.0000   1.0000   1.0000   1.0000   1.0000   1.0000
     1.0000   1.0000   1.0000   1.0000   1.0000   1.0000   1.0000   1.0000
     1.0000   1.0000   1.0000   1.0000   1.0000   1.0000   1.0000   1.0000
     1.0000   1.0000   1.0000   1.0000   1.0000   1.0000   1.0000   1.0000
     1.0000   1.0000   1.0000   1.0000   1.0000   1.0000   1.0000   1.0000
     1.0000   1.0000   1.0000   1.0000   1.0000   1.0000   1.0000   1.0000
     1.0000   1.0000   1.0000   1.0000   1.0000   1.0000   1.0000   1.0000
     1.0000   1.0000   1.0000   1.0000   1.0000   1.0000   1.0000  -0.0000
    -0.0000  -0.0000  -0.0000  -0.0000  -0.0000  -0.0000  -0.0000  -0.0000
    -0.0000  -0.0000  -0.0000  -0.0000  -0.0000

     the Fermi energy is     8.2357 ev

!    total energy              =   -1444.38345524 Ry
     estimated scf accuracy    <       0.00000050 Ry
     smearing contrib. (-TS)   =       0.00000000 Ry
     internal energy E=F+TS    =   -1444.38345524 Ry

     The total energy is F=E-TS. E is the sum of the following terms:
     one-electron contribution =    -753.23253061 Ry
     hartree contribution      =     434.01388934 Ry
     xc contribution           =    -261.73563835 Ry
     ewald contribution        =    -863.42917562 Ry

     convergence has been achieved in  24 iterations

     negative rho (up, down):  3.465E-03 0.000E+00

     Forces acting on atoms (cartesian axes, Ry/au):

     atom    1 type  1   force =     0.00000000    0.00000000    0.00000000
     atom    2 type  1   force =     0.00000000    0.00000000    0.00000000
     atom    3 type  2   force =     0.00816140    0.00815621   -0.00002580
     atom    4 type  2   force =    -0.00816140   -0.00815621    0.00002580
     atom    5 type  3   force =     0.00000000    0.00000000    0.00000000
     atom    6 type  3   force =     0.00000000    0.00000000    0.00000000
     atom    7 type  4   force =    -0.04778618   -0.07070226   -0.01656569
     atom    8 type  4   force =    -0.07054177   -0.04795126    0.01657433
     atom    9 type  4   force =    -0.00702048    0.02578700   -0.02254176
     atom   10 type  4   force =     0.02582940   -0.00696756    0.02250629
     atom   11 type  4   force =     0.04778618    0.07070226    0.01656569
     atom   12 type  4   force =     0.07054177    0.04795126   -0.01657433
     atom   13 type  4   force =     0.00702048   -0.02578700    0.02254176
     atom   14 type  4   force =    -0.02582940    0.00696756   -0.02250629
     The non-local contrib.  to forces
     atom    1 type  1   force =     0.00000000    0.00000000    0.00000000
     atom    2 type  1   force =     0.00000000    0.00000000    0.00000000
     atom    3 type  2   force =    -0.00173321   -0.00176493   -0.00000922
     atom    4 type  2   force =     0.00173321    0.00176493    0.00000922
     atom    5 type  3   force =     0.00000000    0.00000000    0.00000000
     atom    6 type  3   force =     0.00000000    0.00000000    0.00000000
     atom    7 type  4   force =     0.03205447    0.06024887    0.02043215
     atom    8 type  4   force =     0.06014456    0.03225210   -0.02041104
     atom    9 type  4   force =     0.12022720    0.07024461    0.03447973
     atom   10 type  4   force =     0.06991734    0.12039802   -0.03449998
     atom   11 type  4   force =    -0.03205447   -0.06024887   -0.02043215
     atom   12 type  4   force =    -0.06014456   -0.03225210    0.02041104
     atom   13 type  4   force =    -0.12022720   -0.07024461   -0.03447973
     atom   14 type  4   force =    -0.06991734   -0.12039802    0.03449998
     The ionic contribution  to forces
     atom    1 type  1   force =    -0.00000000   -0.00000000   -0.00000000
     atom    2 type  1   force =    -0.00000000   -0.00000000   -0.00000000
     atom    3 type  2   force =     0.74396563    0.74607763   -0.00000422
     atom    4 type  2   force =    -0.74396563   -0.74607763    0.00000422
     atom    5 type  3   force =    -0.00000000   -0.00000000    0.00000000
     atom    6 type  3   force =    -0.00000000    0.00000000    0.00000000
     atom    7 type  4   force =     1.89908435    0.67523402   -0.89388692
     atom    8 type  4   force =     0.66979128    1.90101597    0.89389762
     atom    9 type  4   force =     0.50549399   -2.02318651    1.73473117
     atom   10 type  4   force =    -2.02461796    0.49965200   -1.73474127
     atom   11 type  4   force =    -1.89908435   -0.67523402    0.89388692
     atom   12 type  4   force =    -0.66979128   -1.90101597   -0.89389762
     atom   13 type  4   force =    -0.50549399    2.02318651   -1.73473117
     atom   14 type  4   force =     2.02461796   -0.49965200    1.73474127
     The local contribution  to forces
     atom    1 type  1   force =    -0.00006876   -0.00017153   -0.00039660
     atom    2 type  1   force =    -0.00028078    0.00031658    0.00008874
     atom    3 type  2   force =    -0.73400185   -0.73645922    0.00005735
     atom    4 type  2   force =     0.73417037    0.73657181    0.00038425
     atom    5 type  3   force =     0.00001108   -0.00022745   -0.00010042
     atom    6 type  3   force =     0.00010371   -0.00001352   -0.00015137
     atom    7 type  4   force =    -1.97667447   -0.80268926    0.85778228
     atom    8 type  4   force =    -0.79671008   -1.97867580   -0.85780284
     atom    9 type  4   force =    -0.62577949    1.98210764   -1.78971215
     atom   10 type  4   force =     1.98417280   -0.62032228    1.78922237
     atom   11 type  4   force =     1.97660176    0.80280374   -0.85769013
     atom   12 type  4   force =     0.79674370    1.97858778    0.85770333
     atom   13 type  4   force =     0.62566877   -1.98204918    1.78958737
     atom   14 type  4   force =    -1.98411636    0.62026989   -1.78917503
     The core correction contribution to forces
     atom    1 type  1   force =     0.00000020    0.00000009   -0.00000240
     atom    2 type  1   force =    -0.00000175    0.00000224    0.00000006
     atom    3 type  2   force =     0.00000000    0.00000000    0.00000000
     atom    4 type  2   force =     0.00000000    0.00000000    0.00000000
     atom    5 type  3   force =     0.00000141    0.00000111   -0.00000123
     atom    6 type  3   force =     0.00000148    0.00000009   -0.00000014
     atom    7 type  4   force =    -0.00235163   -0.00341186   -0.00076577
     atom    8 type  4   force =    -0.00340405   -0.00236215    0.00076508
     atom    9 type  4   force =    -0.00672885   -0.00351961   -0.00221319
     atom   10 type  4   force =    -0.00349985   -0.00673670    0.00221287
     atom   11 type  4   force =     0.00235164    0.00341369    0.00076725
     atom   12 type  4   force =     0.00340461    0.00236161   -0.00076525
     atom   13 type  4   force =     0.00672824    0.00351972    0.00221275
     atom   14 type  4   force =     0.00350145    0.00673817   -0.00221275
     The Hubbard contrib.    to forces
     atom    1 type  1   force =     0.00000000    0.00000000    0.00000000
     atom    2 type  1   force =     0.00000000    0.00000000    0.00000000
     atom    3 type  2   force =     0.00000000    0.00000000    0.00000000
     atom    4 type  2   force =     0.00000000    0.00000000    0.00000000
     atom    5 type  3   force =     0.00000000    0.00000000    0.00000000
     atom    6 type  3   force =     0.00000000    0.00000000    0.00000000
     atom    7 type  4   force =     0.00000000    0.00000000    0.00000000
     atom    8 type  4   force =     0.00000000    0.00000000    0.00000000
     atom    9 type  4   force =     0.00000000    0.00000000    0.00000000
     atom   10 type  4   force =     0.00000000    0.00000000    0.00000000
     atom   11 type  4   force =     0.00000000    0.00000000    0.00000000
     atom   12 type  4   force =     0.00000000    0.00000000    0.00000000
     atom   13 type  4   force =     0.00000000    0.00000000    0.00000000
     atom   14 type  4   force =     0.00000000    0.00000000    0.00000000
     The SCF correction term to forces
     atom    1 type  1   force =     0.00007170    0.00020906    0.00042505
     atom    2 type  1   force =     0.00031556   -0.00032369   -0.00010863
     atom    3 type  2   force =    -0.00011739    0.00028930   -0.00011730
     atom    4 type  2   force =    -0.00014758   -0.00042876   -0.00041948
     atom    5 type  3   force =    -0.00000540    0.00025431    0.00011376
     atom    6 type  3   force =    -0.00011829    0.00000684    0.00016383
     atom    7 type  4   force =     0.00010812   -0.00008001   -0.00013072
     atom    8 type  4   force =    -0.00037457   -0.00018004    0.00013564
     atom    9 type  4   force =    -0.00023242    0.00013435    0.00017549
     atom   10 type  4   force =    -0.00013816    0.00005921    0.00030209
     atom   11 type  4   force =    -0.00002138   -0.00002826    0.00003049
     atom   12 type  4   force =     0.00031821    0.00027127   -0.00001571
     atom   13 type  4   force =     0.00034559   -0.00020597   -0.00004465
     atom   14 type  4   force =     0.00008965    0.00002734   -0.00036998

     Total force =     0.188067     Total SCF correction =     0.001410

     Computing stress (Cartesian axis) and pressure

     negative rho (up, down):  3.465E-03 0.000E+00
          total   stress  (Ry/bohr**3)                   (kbar)     P=     -204.09
  -0.00144838  -0.00020259   0.00021091         -213.06      -29.80       31.03
  -0.00020259  -0.00144980  -0.00021052          -29.80     -213.27      -30.97
   0.00021091  -0.00021052  -0.00126403           31.03      -30.97     -185.94

     kinetic stress (kbar)  18473.85    -10.34     65.73
                              -10.34  18473.79    -65.55
                               65.73    -65.55  18478.71

     local   stress (kbar)  -7881.37   -243.17    205.37
                             -243.17  -7882.93   -204.90
                              205.37   -204.90  -7655.99

     nonloc. stress (kbar)   4370.92     14.31      6.05
                               14.31   4371.00     -6.04
                                6.05     -6.04   4356.14

     hartree stress (kbar)  10767.59     74.27   -127.07
                               74.27  10768.15    126.82
                             -127.07    126.82  10704.14

     exc-cor stress (kbar)   2369.18      0.70      1.01
                                0.70   2369.18     -1.01
                                1.01     -1.01   2368.39

     corecor stress (kbar)  -6975.19     -0.67     -0.19
                               -0.67  -6975.19      0.18
                               -0.19      0.18  -6974.50

     ewald   stress (kbar) -21338.05    135.10   -119.88
                              135.10 -21337.27    119.53
                             -119.88    119.53 -21462.83

     hubbard stress (kbar)      0.00      0.00      0.00
                                0.00      0.00      0.00
                                0.00      0.00      0.00

     DFT-D   stress (kbar)      0.00      0.00      0.00
                                0.00      0.00      0.00
                                0.00      0.00      0.00

     XDM     stress (kbar)      0.00      0.00      0.00
                                0.00      0.00      0.00
                                0.00      0.00      0.00

     dft-nl  stress (kbar)      0.00      0.00      0.00
                                0.00      0.00      0.00
                                0.00      0.00      0.00

     TS-vdW  stress (kbar)      0.00      0.00      0.00
                                0.00      0.00      0.00
                                0.00      0.00      0.00

[...]

                                0.00      0.00      0.00

     Writing all to output data dir new_calculations/myprefix.save/

     General routines

     Parallel routines

   This run was terminated on:   5:16:55  21May2023

   JOB DONE.