     Program PWSCF v.7.0 starts on 21May2023 at 20:59:35

     Reading input from espresso_24054.pwi
Warning: card &CELL ignored
Warning: card / ignored

     Current dimensions of program PWSCF are:
     Max number of different atomic species (ntypx) = 10
     Max number of k-points (npk) =  40000
     Max angular momentum in pseudopotentials (lmaxx) =  4
     file C.pbe-n-kjpaw_psl.1.0.0.UPF: wavefunction(s)  2S 2P renormalized

     gamma-point specific algorithms are used
     Message from routine setup:
     using ibrav=0 with symmetry is DISCOURAGED, use correct ibrav instead

     Subspace diagonalization in iterative solution of the eigenvalue problem:
     a serial algorithm will be used

     Using Slab Decomposition

     bravais-lattice index     =            0
     lattice parameter (alat)  =       7.1473  a.u.
     unit-cell volume          =     714.6524 (a.u.)^3
     number of atoms/cell      =           10
     number of atomic types    =            3
     number of electrons       =        76.00
     number of Kohn-Sham states=           46
     kinetic-energy cutoff     =      30.0000  Ry
     charge density cutoff     =     240.0000  Ry
     scf convergence threshold =      1.0E-06
     mixing beta               =       0.7000
     number of iterations used =            8  plain     mixing
     Exchange-correlation= SLA  PW   PBX  PBC
                           (   1   4   3   4   0   0   0)

     celldm(1)=   7.147267  celldm(2)=   0.000000  celldm(3)=   0.000000
     celldm(4)=   0.000000  celldm(5)=   0.000000  celldm(6)=   0.000000

     crystal axes: (cart. coord. in units of alat)
               a(1) = (   1.000000   0.000000   0.000000 )
               a(2) = (   0.000000   1.000000   0.000000 )
               a(3) = (   0.000000   0.000000   1.957378 )

     reciprocal axes: (cart. coord. in units 2 pi/alat)
               b(1) = (  1.000000  0.000000  0.000000 )
               b(2) = (  0.000000  1.000000  0.000000 )
               b(3) = (  0.000000  0.000000  0.510887 )

     PseudoPot. # 1 for Yb read from file:
     /home/pragov/projects/rrg-bengioy-ad/pragov/crystal_structure_design/SSSP/Yb.GGA-PBE-paw-v1.0.UPF
     MD5 check sum: 43b6465ad8021f06e3edb42ae292e187
     Pseudo is Projector augmented-wave + core cor, Zval = 24.0
     Generated using ATOMPAW code
     Shape of augmentation charge: BESSEL
     Using radial grid of 1117 points,  8 beta functions with:
                l(1) =   0
                l(2) =   0
                l(3) =   1
                l(4) =   1
                l(5) =   2
                l(6) =   2
                l(7) =   3
                l(8) =   3
     Q(r) pseudized with 0 coefficients

     PseudoPot. # 2 for B  read from file:
     /home/pragov/projects/rrg-bengioy-ad/pragov/crystal_structure_design/SSSP/b_pbe_v1.4.uspp.F.UPF
     MD5 check sum: cc6de2960df11db49a60e589f9ebb39b
     Pseudo is Ultrasoft + core correction, Zval =  3.0
     Generated by new atomic code, or converted to UPF format
     Using radial grid of  781 points,  4 beta functions with:
                l(1) =   0
                l(2) =   0
                l(3) =   1
                l(4) =   1
     Q(r) pseudized with  8 coefficients,  rinner =    1.100   1.100   1.100

     PseudoPot. # 3 for C  read from file:
     /home/pragov/projects/rrg-bengioy-ad/pragov/crystal_structure_design/SSSP/C.pbe-n-kjpaw_psl.1.0.0.UPF
     MD5 check sum: 5d2aebdfa2cae82b50a7e79e9516da0f
     Pseudo is Projector augmented-wave + core cor, Zval =  4.0
     Generated using "atomic" code by A. Dal Corso  v.5.1
     Shape of augmentation charge: PSQ
     Using radial grid of 1073 points,  4 beta functions with:
                l(1) =   0
                l(2) =   0
                l(3) =   1
                l(4) =   1
     Q(r) pseudized with 0 coefficients

     atomic species   valence    mass     pseudopotential
        Yb            24.00   173.05400     Yb( 1.00)
        B              3.00    10.81000     B ( 1.00)
        C              4.00    12.01100     C ( 1.00)

     16 Sym. Ops., with inversion, found ( 8 have fractional translation)

                                    s                        frac. trans.

      isym =  1     identity

 cryst.   s( 1) = (     1          0          0      )
                  (     0          1          0      )
                  (     0          0          1      )

 cart.    s( 1) = (  1.0000000  0.0000000  0.0000000 )
                  (  0.0000000  1.0000000  0.0000000 )
                  (  0.0000000  0.0000000  1.0000000 )

      isym =  2     180 deg rotation - cart. axis [0,0,1]

[...]

 cryst.   s( 5) = (     0          1          0      )    f =(  0.0000000 )
                  (     1          0          0      )       (  0.0000000 )
                  (     0          0         -1      )       (  0.5000000 )

 cart.    s( 5) = (  0.0000000  1.0000000  0.0000000 )    f =(  0.0000000 )
                  (  1.0000000  0.0000000  0.0000000 )       (  0.0000000 )
                  (  0.0000000  0.0000000 -1.0000000 )       (  0.9786892 )

[...]

      isym =  8      90 deg rotation - cart. axis [0,0,1]

 cryst.   s( 8) = (     0          1          0      )    f =(  0.0000000 )
                  (    -1          0          0      )       (  0.0000000 )
                  (     0          0          1      )       (  0.5000000 )

 cart.    s( 8) = (  0.0000000 -1.0000000  0.0000000 )    f =(  0.0000000 )
                  (  1.0000000  0.0000000  0.0000000 )       (  0.0000000 )
                  (  0.0000000  0.0000000  1.0000000 )       (  0.9786892 )

      isym =  9     inversion

 cryst.   s( 9) = (    -1          0          0      )
                  (     0         -1          0      )
                  (     0          0         -1      )

 cart.    s( 9) = ( -1.0000000  0.0000000  0.0000000 )
                  (  0.0000000 -1.0000000  0.0000000 )
                  (  0.0000000  0.0000000 -1.0000000 )

      isym = 10     inv. 180 deg rotation - cart. axis [0,0,1]

 cryst.   s(10) = (     1          0          0      )
                  (     0          1          0      )
                  (     0          0         -1      )

 cart.    s(10) = (  1.0000000  0.0000000  0.0000000 )
                  (  0.0000000  1.0000000  0.0000000 )
                  (  0.0000000  0.0000000 -1.0000000 )

[...]

 cryst.   s(12) = (    -1          0          0      )
                  (     0          1          0      )
                  (     0          0          1      )

 cart.    s(12) = ( -1.0000000  0.0000000  0.0000000 )
                  (  0.0000000  1.0000000  0.0000000 )
                  (  0.0000000  0.0000000  1.0000000 )

[...]

 cryst.   s(13) = (     0         -1          0      )    f =(  0.0000000 )
                  (    -1          0          0      )       (  0.0000000 )
                  (     0          0          1      )       (  0.5000000 )

 cart.    s(13) = (  0.0000000 -1.0000000  0.0000000 )    f =(  0.0000000 )
                  ( -1.0000000  0.0000000  0.0000000 )       (  0.0000000 )
                  (  0.0000000  0.0000000  1.0000000 )       (  0.9786892 )

[...]

      isym = 16     inv.  90 deg rotation - cart. axis [0,0,1]

 cryst.   s(16) = (     0         -1          0      )    f =(  0.0000000 )
                  (     1          0          0      )       (  0.0000000 )
                  (     0          0         -1      )       (  0.5000000 )

 cart.    s(16) = (  0.0000000  1.0000000  0.0000000 )    f =(  0.0000000 )
                  ( -1.0000000  0.0000000  0.0000000 )       (  0.0000000 )
                  (  0.0000000  0.0000000 -1.0000000 )       (  0.9786892 )

   Cartesian axes

     site n.     atom                  positions (alat units)
         1           Yb  tau(   1) = (   0.0000000   0.0000000   1.4680338  )
         2           Yb  tau(   2) = (   0.0000000   0.0000000   0.4893446  )
         3           B   tau(   3) = (   0.2190060   0.5000000   0.0000000  )
         4           B   tau(   4) = (   0.7809940   0.5000000   0.0000000  )
         5           B   tau(   5) = (   0.5000000   0.2190060   0.9786892  )
         6           B   tau(   6) = (   0.5000000   0.7809940   0.9786892  )
         7           C   tau(   7) = (   0.5000000   0.1843700   0.0000000  )
         8           C   tau(   8) = (   0.5000000   0.8156300   0.0000000  )
         9           C   tau(   9) = (   0.8156300   0.5000000   0.9786892  )
        10           C   tau(  10) = (   0.1843700   0.5000000   0.9786892  )

   Crystallographic axes

     site n.     atom                  positions (cryst. coord.)
         1           Yb  tau(   1) = (  0.0000000  0.0000000  0.7500000  )
         2           Yb  tau(   2) = (  0.0000000  0.0000000  0.2500000  )
         3           B   tau(   3) = (  0.2190060  0.5000000  0.0000000  )
         4           B   tau(   4) = (  0.7809940  0.5000000  0.0000000  )
         5           B   tau(   5) = (  0.5000000  0.2190060  0.5000000  )
         6           B   tau(   6) = (  0.5000000  0.7809940  0.5000000  )
         7           C   tau(   7) = (  0.5000000  0.1843700  0.0000000  )
         8           C   tau(   8) = (  0.5000000  0.8156300  0.0000000  )
         9           C   tau(   9) = (  0.8156300  0.5000000  0.5000000  )
        10           C   tau(  10) = (  0.1843700  0.5000000  0.5000000  )

     number of k points=     1  Methfessel-Paxton smearing, width (Ry)=  0.0010
                       cart. coord. in units 2pi/alat
        k(    1) = (   0.0000000   0.0000000   0.0000000), wk =   2.0000000

                       cryst. coord.
        k(    1) = (   0.0000000   0.0000000   0.0000000), wk =   2.0000000

     Check: negative core charge=   -0.000018

     Initial potential from superposition of free atoms

     starting charge      75.9907, renormalised to      76.0000
     Starting wfcs are   96 randomized atomic wfcs
     Checking if some PAW data can be deallocated...

     Self-consistent Calculation

     iteration #  1     ecut=    30.00 Ry     beta= 0.70
     Davidson diagonalization with overlap

     ethr =  1.00E-02,  avg # of iterations =  2.0

     total energy              =   -2120.46612760 Ry
     estimated scf accuracy    <       1.32337332 Ry

[...]

     total energy              =   -2121.48845083 Ry
     estimated scf accuracy    <       0.00000421 Ry

     iteration # 18     ecut=    30.00 Ry     beta= 0.70
     Davidson diagonalization with overlap

     ethr =  5.23E-09,  avg # of iterations =  2.0

     End of self-consistent calculation

          k = 0.0000 0.0000 0.0000 (  1001 PWs)   bands (ev):

   -37.9997 -37.9930 -10.6646 -10.3110 -10.1994 -10.1994 -10.1597 -10.1597
    -4.0215  -3.3804   2.3904   2.4101   3.9086   3.9087   5.1993   6.0365
     6.0365   6.0524   6.3551   7.3810  10.7026  10.8797  11.7584  12.6649
    12.9326  12.9326  13.0232  13.0232  13.1401  13.1539  13.2816  13.2816
    13.2821  13.3146  13.3146  13.3411  13.3650  13.4728  14.5584  14.5584
    14.6090  16.3250  16.3250  16.8492  17.1090  17.1090

     occupation numbers
     1.0000   1.0000   1.0000   1.0000   1.0000   1.0000   1.0000   1.0000
     1.0000   1.0000   1.0000   1.0000   1.0000   1.0000   1.0000   1.0000
     1.0000   1.0000   1.0000   1.0000   1.0000   1.0000   1.0000   1.0000
     1.0000   1.0000   1.0000   1.0000   1.0000   1.0000   1.0000   1.0000
     1.0000   1.0000   1.0000   1.0000   1.0000   1.0000  -0.0000  -0.0000
    -0.0000  -0.0000  -0.0000  -0.0000  -0.0000  -0.0000

     the Fermi energy is    13.7838 ev

!    total energy              =   -2121.48845090 Ry
     estimated scf accuracy    <       0.00000053 Ry
     smearing contrib. (-TS)   =       0.00000000 Ry
     internal energy E=F+TS    =   -2121.48845090 Ry

     The total energy is F=E-TS. E is the sum of the following terms:
     one-electron contribution =    -742.55040531 Ry
     hartree contribution      =     348.72266539 Ry
     xc contribution           =    -106.86026589 Ry
     ewald contribution        =    -626.76449353 Ry
     one-center paw contrib.   =    -994.03595156 Ry
      -> PAW hartree energy AE =     937.20239866 Ry
      -> PAW hartree energy PS =    -811.39672529 Ry
      -> PAW xc energy AE      =   -1211.39639480 Ry
      -> PAW xc energy PS      =      91.55476988 Ry
      -> total E_H with PAW    =     474.52833876 Ry
      -> total E_XC with PAW   =   -1226.70189081 Ry

     convergence has been achieved in  18 iterations

     Forces acting on atoms (cartesian axes, Ry/au):

     atom    1 type  1   force =     0.00000000    0.00000000    0.00000000
     atom    2 type  1   force =     0.00000000    0.00000000    0.00000000
     atom    3 type  2   force =     0.11515607    0.00000000    0.00000000
     atom    4 type  2   force =    -0.11515607    0.00000000    0.00000000
     atom    5 type  2   force =     0.00000000    0.11515607   -0.00000000
     atom    6 type  2   force =     0.00000000   -0.11515607   -0.00000000
     atom    7 type  3   force =     0.00000000    0.19956926    0.00000000
     atom    8 type  3   force =     0.00000000   -0.19956926   -0.00000000
     atom    9 type  3   force =    -0.19956926    0.00000000   -0.00000000
     atom   10 type  3   force =     0.19956926    0.00000000   -0.00000000
     The non-local contrib.  to forces
     atom    1 type  1   force =     0.00000000    0.00000000   -0.00000000
     atom    2 type  1   force =     0.00000000    0.00000000    0.00000000
     atom    3 type  2   force =     0.23895798    0.00000000   -0.00000000
     atom    4 type  2   force =    -0.23895798    0.00000000   -0.00000000
     atom    5 type  2   force =     0.00000000    0.23895798    0.00000000
     atom    6 type  2   force =     0.00000000   -0.23895798    0.00000000
     atom    7 type  3   force =     0.00000000   -0.05272960    0.00000000
     atom    8 type  3   force =    -0.00000000    0.05272960    0.00000000
     atom    9 type  3   force =     0.05272960   -0.00000000    0.00000000
     atom   10 type  3   force =    -0.05272960    0.00000000    0.00000000
     The ionic contribution  to forces
     atom    1 type  1   force =    -0.00000000   -0.00000000    0.00000000
     atom    2 type  1   force =    -0.00000000   -0.00000000   -0.00000000
     atom    3 type  2   force =     0.16488305   -0.00000000   -0.00000000
     atom    4 type  2   force =    -0.16488305    0.00000000   -0.00000000
     atom    5 type  2   force =     0.00000000    0.16488305    0.00000000
     atom    6 type  2   force =     0.00000000   -0.16488305    0.00000000
     atom    7 type  3   force =    -0.00000000    2.93234047   -0.00000000
     atom    8 type  3   force =     0.00000000   -2.93234047   -0.00000000
     atom    9 type  3   force =    -2.93234047    0.00000000    0.00000000
     atom   10 type  3   force =     2.93234047    0.00000000    0.00000000
     The local contribution  to forces
     atom    1 type  1   force =    -0.00004955    0.00000328   -0.00000004
     atom    2 type  1   force =    -0.00003445    0.00005176    0.00014537
     atom    3 type  2   force =    -0.28614023   -0.00002461    0.00001064
     atom    4 type  2   force =     0.28613912   -0.00002342    0.00001193
     atom    5 type  2   force =     0.00000762   -0.28611346   -0.00001937
     atom    6 type  2   force =     0.00000832    0.28611367   -0.00001703
     atom    7 type  3   force =    -0.00000158   -2.67939549    0.00003197
     atom    8 type  3   force =     0.00000835    2.67944430    0.00002379
     atom    9 type  3   force =     2.67940780   -0.00000222   -0.00002552
     atom   10 type  3   force =    -2.67942179   -0.00000431   -0.00002501
     The core correction contribution to forces
     atom    1 type  1   force =    -0.00000000   -0.00000000   -0.00000000
     atom    2 type  1   force =    -0.00000000    0.00000000    0.00000000
     atom    3 type  2   force =    -0.00262683   -0.00000012   -0.00000017
     atom    4 type  2   force =     0.00262684   -0.00000004   -0.00000007
     atom    5 type  2   force =    -0.00000005   -0.00262700   -0.00000005
     atom    6 type  2   force =     0.00000013    0.00262694   -0.00000021
     atom    7 type  3   force =    -0.00000012   -0.00065047    0.00000024
     atom    8 type  3   force =     0.00000012    0.00065059    0.00000020
     atom    9 type  3   force =     0.00065051    0.00000004   -0.00000014
     atom   10 type  3   force =    -0.00065046    0.00000001   -0.00000015
     The Hubbard contrib.    to forces
     atom    1 type  1   force =     0.00000000    0.00000000    0.00000000
     atom    2 type  1   force =     0.00000000    0.00000000    0.00000000
     atom    3 type  2   force =     0.00000000    0.00000000    0.00000000
     atom    4 type  2   force =     0.00000000    0.00000000    0.00000000
     atom    5 type  2   force =     0.00000000    0.00000000    0.00000000
     atom    6 type  2   force =     0.00000000    0.00000000    0.00000000
     atom    7 type  3   force =     0.00000000    0.00000000    0.00000000
     atom    8 type  3   force =     0.00000000    0.00000000    0.00000000
     atom    9 type  3   force =     0.00000000    0.00000000    0.00000000
     atom   10 type  3   force =     0.00000000    0.00000000    0.00000000
     The SCF correction term to forces
     atom    1 type  1   force =     0.00003066   -0.00004002   -0.00003082
     atom    2 type  1   force =     0.00002097   -0.00006433   -0.00004254
     atom    3 type  2   force =     0.00008106    0.00001982   -0.00001030
     atom    4 type  2   force =    -0.00008029    0.00001968   -0.00000968
     atom    5 type  2   force =    -0.00000689    0.00005586    0.00001463
     atom    6 type  2   force =    -0.00000714   -0.00005702    0.00001358
     atom    7 type  3   force =    -0.00000268    0.00000569   -0.00001918
     atom    8 type  3   force =    -0.00000296   -0.00004662   -0.00001482
     atom    9 type  3   force =    -0.00001889    0.00000379    0.00001937
     atom   10 type  3   force =     0.00003380    0.00000411    0.00001983

     Total force =     0.460820     Total SCF correction =     0.000189

     Computing stress (Cartesian axis) and pressure

          total   stress  (Ry/bohr**3)                   (kbar)     P=      -41.09
  -0.00029949   0.00000000   0.00000000          -44.06        0.00        0.00
   0.00000000  -0.00029949   0.00000000            0.00      -44.06        0.00
   0.00000000   0.00000000  -0.00023905            0.00        0.00      -35.17

     kinetic stress (kbar)  11647.55      0.00      0.00
                                0.00  11647.55      0.00
                                0.00      0.00  11504.96

     local   stress (kbar)   6528.91     -0.00     -0.00
                               -0.00   6528.79      0.00
                               -0.00      0.00  -4137.17

     nonloc. stress (kbar)  11116.94      0.00      0.00
                                0.00  11116.94      0.00
                                0.00      0.00  10968.68

     hartree stress (kbar)  21881.38      0.00      0.00
                                0.00  21881.48     -0.00
                                0.00     -0.00  28018.72

     exc-cor stress (kbar)  -5030.70      0.00      0.00
                                0.00  -5030.70     -0.00
                                0.00     -0.00  -5082.93

     corecor stress (kbar)  -1572.84      0.00     -0.00
                                0.00  -1572.84     -0.00
                               -0.00     -0.00  -1523.88

     ewald   stress (kbar) -44615.28      0.00     -0.00
                                0.00 -44615.28      0.00
                               -0.00      0.00 -39783.54

     hubbard stress (kbar)      0.00      0.00      0.00
                                0.00      0.00      0.00
                                0.00      0.00      0.00

     DFT-D   stress (kbar)      0.00      0.00      0.00
                                0.00      0.00      0.00
                                0.00      0.00      0.00

     XDM     stress (kbar)      0.00      0.00      0.00
                                0.00      0.00      0.00
                                0.00      0.00      0.00

     dft-nl  stress (kbar)      0.00      0.00      0.00
                                0.00      0.00      0.00
                                0.00      0.00      0.00

     TS-vdW  stress (kbar)      0.00      0.00      0.00
                                0.00      0.00      0.00
                                0.00      0.00      0.00

[...]

                                0.00      0.00      0.00

     Writing all to output data dir new_calculations/myprefix.save/

     General routines

     Parallel routines

     PAW routines

   This run was terminated on:  21: 0: 1  21May2023

   JOB DONE.