     Program PWSCF v.7.0 starts on 20May2023 at 10:41:27

     Reading input from espresso_5353.pwi
Warning: card &CELL ignored
Warning: card / ignored

     Current dimensions of program PWSCF are:
     Max number of different atomic species (ntypx) = 10
     Max number of k-points (npk) =  40000
     Max angular momentum in pseudopotentials (lmaxx) =  4
     file Nb.pbe-spn-kjpaw_psl.0.3.0.UPF: wavefunction(s)  4S 4P renormalized
     file O.pbe-n-kjpaw_psl.0.1.UPF: wavefunction(s)  2P renormalized

     gamma-point specific algorithms are used
     Message from routine setup:
     using ibrav=0 with symmetry is DISCOURAGED, use correct ibrav instead

     Subspace diagonalization in iterative solution of the eigenvalue problem:
     a serial algorithm will be used

     Using Slab Decomposition

     bravais-lattice index     =            0
     lattice parameter (alat)  =      12.6502  a.u.
     unit-cell volume          =    1133.5463 (a.u.)^3
     number of atoms/cell      =           12
     number of atomic types    =            3
     number of electrons       =        96.00
     number of Kohn-Sham states=           58
     kinetic-energy cutoff     =      30.0000  Ry
     charge density cutoff     =     240.0000  Ry
     scf convergence threshold =      1.0E-06
     mixing beta               =       0.7000
     number of iterations used =            8  plain     mixing
     Exchange-correlation= SLA  PW   PBX  PBC
                           (   1   4   3   4   0   0   0)

     celldm(1)=  12.650181  celldm(2)=   0.000000  celldm(3)=   0.000000
     celldm(4)=   0.000000  celldm(5)=   0.000000  celldm(6)=   0.000000

     crystal axes: (cart. coord. in units of alat)
               a(1) = (   1.000000   0.000000   0.000000 )
               a(2) = (   0.820696   0.571365   0.000000 )
               a(3) = (   0.274427   0.086120   0.980021 )

     reciprocal axes: (cart. coord. in units 2 pi/alat)
               b(1) = (  1.000000 -1.436378 -0.153799 )
               b(2) = (  0.000000  1.750195 -0.153799 )
               b(3) = (  0.000000  0.000000  1.020386 )

     PseudoPot. # 1 for Nb read from file:
     /home/pragov/projects/rrg-bengioy-ad/pragov/crystal_structure_design/SSSP/Nb.pbe-spn-kjpaw_psl.0.3.0.UPF
     MD5 check sum: 411d72ad547312f8017e2943ceca08cc
     Pseudo is Projector augmented-wave + core cor, Zval = 13.0
     Generated using "atomic" code by A. Dal Corso  v.5.0.99 svn rev. 10869
     Shape of augmentation charge: PSQ
     Using radial grid of 1227 points,  6 beta functions with:
                l(1) =   0
                l(2) =   0
                l(3) =   1
                l(4) =   1
                l(5) =   2
                l(6) =   2
     Q(r) pseudized with 0 coefficients

     PseudoPot. # 2 for N  read from file:
     /home/pragov/projects/rrg-bengioy-ad/pragov/crystal_structure_design/SSSP/N.pbe-n-radius_5.UPF
     MD5 check sum: 16739722b17309cd8fe442a2ace49922
     Pseudo is Ultrasoft + core correction, Zval =  5.0
     Generated using "atomic" code by A. Dal Corso  v.5.1
     Using radial grid of 1085 points,  4 beta functions with:
                l(1) =   0
                l(2) =   0
                l(3) =   1
                l(4) =   1
     Q(r) pseudized with 0 coefficients

     PseudoPot. # 3 for O  read from file:
     /home/pragov/projects/rrg-bengioy-ad/pragov/crystal_structure_design/SSSP/O.pbe-n-kjpaw_psl.0.1.UPF
     MD5 check sum: 0234752ac141de4415c5fc33072bef88
     Pseudo is Projector augmented-wave + core cor, Zval =  6.0
     Generated using "atomic" code by A. Dal Corso  v.5.0.99 svn rev. 10869
     Shape of augmentation charge: BESSEL
     Using radial grid of 1095 points,  4 beta functions with:
                l(1) =   0
                l(2) =   0
                l(3) =   1
                l(4) =   1
     Q(r) pseudized with 0 coefficients

     atomic species   valence    mass     pseudopotential
        Nb            13.00    92.90637     Nb( 1.00)
        N              5.00    14.00700     N ( 1.00)
        O              6.00    15.99900     O ( 1.00)

      2 Sym. Ops., with inversion, found

                                    s                        frac. trans.

      isym =  1     identity

 cryst.   s( 1) = (     1          0          0      )
                  (     0          1          0      )
                  (     0          0          1      )

 cart.    s( 1) = (  1.0000000 -0.0000000 -0.0000000 )
                  (  0.0000000  1.0000000 -0.0000000 )
                  (  0.0000000  0.0000000  1.0000000 )

      isym =  2     inversion

 cryst.   s( 2) = (    -1          0          0      )
                  (     0         -1          0      )
                  (     0          0         -1      )

 cart.    s( 2) = ( -1.0000000  0.0000000  0.0000000 )
                  (  0.0000000 -1.0000000  0.0000000 )
                  (  0.0000000  0.0000000 -1.0000000 )

   Cartesian axes

     site n.     atom                  positions (alat units)
         1           Nb  tau(   1) = (   1.8266543   0.5732346   0.6987267  )
         2           Nb  tau(   2) = (   1.5216308   0.4775132   0.2876627  )
         3           Nb  tau(   3) = (   0.5734920   0.1799714   0.6923586  )
         4           Nb  tau(   4) = (   0.2684686   0.0842499   0.2812945  )
         5           N   tau(   5) = (   0.8576180   0.2691349   0.7155998  )
         6           N   tau(   6) = (   1.5249040   0.4785404   0.6295686  )
         7           N   tau(   7) = (   0.5702188   0.1789442   0.3504527  )
         8           N   tau(   8) = (   1.2375049   0.3883497   0.2644215  )
         9           O   tau(   9) = (   1.8203008   0.5712408   0.3685517  )
        10           O   tau(  10) = (   1.5896156   0.4988479   0.0087986  )
        11           O   tau(  11) = (   0.5055072   0.1586366   0.9712226  )
        12           O   tau(  12) = (   0.2748220   0.0862438   0.6114696  )

   Crystallographic axes

     site n.     atom                  positions (cryst. coord.)
         1           Nb  tau(   1) = (  0.8958090  0.8958090  0.7129710  )
         2           Nb  tau(   2) = (  0.7914990  0.7914990  0.2935270  )
         3           Nb  tau(   3) = (  0.2085010  0.2085010  0.7064730  )
         4           Nb  tau(   4) = (  0.1041910  0.1041910  0.2870290  )
         5           N   tau(   5) = (  0.3609800  0.3609800  0.7301880  )
         6           N   tau(   6) = (  0.7407120  0.7407120  0.6424030  )
         7           N   tau(   7) = (  0.2592880  0.2592880  0.3575970  )
         8           N   tau(   8) = (  0.6390200  0.6390200  0.2698120  )
         9           O   tau(   9) = (  0.9431000  0.9431000  0.3760650  )
        10           O   tau(  10) = (  0.8717280  0.8717280  0.0089780  )
        11           O   tau(  11) = (  0.1282720  0.1282720  0.9910220  )
        12           O   tau(  12) = (  0.0569000  0.0569000  0.6239350  )

     number of k points=     1  Methfessel-Paxton smearing, width (Ry)=  0.0010
                       cart. coord. in units 2pi/alat
        k(    1) = (   0.0000000   0.0000000   0.0000000), wk =   2.0000000

                       cryst. coord.
        k(    1) = (   0.0000000   0.0000000   0.0000000), wk =   2.0000000

     Check: negative core charge=   -0.000019

     Initial potential from superposition of free atoms

     starting charge      95.9915, renormalised to      96.0000
     Starting wfcs are   72 randomized atomic wfcs
     Checking if some PAW data can be deallocated...

     Self-consistent Calculation

     iteration #  1     ecut=    30.00 Ry     beta= 0.70
     Davidson diagonalization with overlap

     ethr =  1.00E-02,  avg # of iterations =  2.0

     total energy              =   -1579.81207515 Ry
     estimated scf accuracy    <       8.81372370 Ry

[...]

     total energy              =   -1584.56525620 Ry
     estimated scf accuracy    <       0.00000635 Ry

     iteration # 14     ecut=    30.00 Ry     beta= 0.70
     Davidson diagonalization with overlap

     ethr =  6.62E-09,  avg # of iterations =  2.0

     End of self-consistent calculation

          k = 0.0000 0.0000 0.0000 (  1577 PWs)   bands (ev):

   -47.0138 -47.0031 -46.5269 -46.5121 -23.2257 -23.2192 -23.2137 -23.1285
   -23.0211 -22.9776 -22.6983 -22.6387 -22.6229 -22.5474 -22.5461 -22.4945
    -9.2771  -8.9367  -8.5862  -8.5190  -4.8698  -4.6866  -4.4873  -4.2810
     3.1848   3.4113   3.5113   4.0583   4.3235   4.5009   4.9335   5.0435
     5.0559   5.3357   5.3607   5.8278   5.8842   6.0564   6.1903   6.3077
     6.5410   6.8811   7.2680   7.5926   7.9234   7.9463   8.2914   8.4907
    10.3384  10.4457  11.0742  11.1624  11.5661  11.9022  12.0990  12.1468
    12.3816  12.4158

     occupation numbers
     1.0000   1.0000   1.0000   1.0000   1.0000   1.0000   1.0000   1.0000
     1.0000   1.0000   1.0000   1.0000   1.0000   1.0000   1.0000   1.0000
     1.0000   1.0000   1.0000   1.0000   1.0000   1.0000   1.0000   1.0000
     1.0000   1.0000   1.0000   1.0000   1.0000   1.0000   1.0000   1.0000
     1.0000   1.0000   1.0000   1.0000   1.0000   1.0000   1.0000   1.0000
     1.0000   1.0000   1.0000   1.0000   1.0000   1.0000   1.0000   1.0000
    -0.0000  -0.0000  -0.0000  -0.0000  -0.0000  -0.0000  -0.0000  -0.0000
    -0.0000  -0.0000

     the Fermi energy is     8.8205 ev

!    total energy              =   -1584.56525674 Ry
     estimated scf accuracy    <       0.00000038 Ry
     smearing contrib. (-TS)   =       0.00000000 Ry
     internal energy E=F+TS    =   -1584.56525674 Ry

     The total energy is F=E-TS. E is the sum of the following terms:
     one-electron contribution =    -285.60572065 Ry
     hartree contribution      =     189.99356958 Ry
     xc contribution           =    -166.58748733 Ry
     ewald contribution        =    -450.32998918 Ry
     one-center paw contrib.   =    -872.03562914 Ry
      -> PAW hartree energy AE =     381.16333098 Ry
      -> PAW hartree energy PS =    -379.28020585 Ry
      -> PAW xc energy AE      =   -1010.98442147 Ry
      -> PAW xc energy PS      =     137.06566720 Ry
      -> total E_H with PAW    =     191.87669471 Ry
      -> total E_XC with PAW   =   -1040.50624161 Ry

     convergence has been achieved in  14 iterations

     Forces acting on atoms (cartesian axes, Ry/au):

     atom    1 type  1   force =     0.25955642    0.08145319   -0.03792391
     atom    2 type  1   force =     0.04653680    0.01460285   -0.17313412
     atom    3 type  1   force =    -0.04653680   -0.01460285    0.17313412
     atom    4 type  1   force =    -0.25955642   -0.08145319    0.03792391
     atom    5 type  2   force =    -0.32200959   -0.10105195    0.10283446
     atom    6 type  2   force =     0.15850789    0.04974224   -0.24334818
     atom    7 type  2   force =    -0.15850789   -0.04974224    0.24334818
     atom    8 type  2   force =     0.32200959    0.10105195   -0.10283446
     atom    9 type  3   force =     0.00638265    0.00200327    0.01970909
     atom   10 type  3   force =    -0.01651651   -0.00518327   -0.07770788
     atom   11 type  3   force =     0.01651651    0.00518327    0.07770788
     atom   12 type  3   force =    -0.00638265   -0.00200327   -0.01970909
     The non-local contrib.  to forces
     atom    1 type  1   force =    -0.45544663   -0.14292647    0.09884190
     atom    2 type  1   force =    -0.29489529   -0.09254342    0.41156983
     atom    3 type  1   force =     0.29489529    0.09254342   -0.41156983
     atom    4 type  1   force =     0.45544663    0.14292647   -0.09884190
     atom    5 type  2   force =     0.25660614    0.08052739   -0.18390515
     atom    6 type  2   force =     0.05129408    0.01609599    0.40253412
     atom    7 type  2   force =    -0.05129408   -0.01609599   -0.40253412
     atom    8 type  2   force =    -0.25660614   -0.08052739    0.18390515
     atom    9 type  3   force =     0.24018056    0.07537303    0.04071758
     atom   10 type  3   force =    -0.19628825   -0.06159687   -0.03150809
     atom   11 type  3   force =     0.19628825    0.06159687    0.03150809
     atom   12 type  3   force =    -0.24018056   -0.07537303   -0.04071758
     The ionic contribution  to forces
     atom    1 type  1   force =     6.76928977    2.12431626    6.48953154
     atom    2 type  1   force =     6.42817664    2.01726926   -8.25258169
     atom    3 type  1   force =    -6.42817664   -2.01726926    8.25258169
     atom    4 type  1   force =    -6.76928977   -2.12431626   -6.48953154
     atom    5 type  2   force =     6.05835777    1.90121392    3.09754825
     atom    6 type  2   force =    -4.06558989   -1.27585006    3.32724913
     atom    7 type  2   force =     4.06558989    1.27585006   -3.32724913
     atom    8 type  2   force =    -6.05835777   -1.90121392   -3.09754825
     atom    9 type  3   force =    -0.84109381   -0.26394930   -5.62380567
     atom   10 type  3   force =     6.16562815    1.93487716   -0.32395134
     atom   11 type  3   force =    -6.16562815   -1.93487716    0.32395134
     atom   12 type  3   force =     0.84109381    0.26394930    5.62380567
     The local contribution  to forces
     atom    1 type  1   force =    -6.09226675   -1.91185965   -6.61507167
     atom    2 type  1   force =    -6.11633790   -1.91941267    7.70034861
     atom    3 type  1   force =     6.11604213    1.91931671   -7.70077878
     atom    4 type  1   force =     6.09258259    1.91194710    6.61490848
     atom    5 type  2   force =    -6.63328454   -2.08163169   -2.81233262
     atom    6 type  2   force =     4.17228605    1.30933329   -3.96907325
     atom    7 type  2   force =    -4.17264466   -1.30944655    3.96884817
     atom    8 type  2   force =     6.63324134    2.08162847    2.81229766
     atom    9 type  3   force =     0.60920582    0.19117638    5.60242170
     atom   10 type  3   force =    -5.98705411   -1.87883904    0.27799349
     atom   11 type  3   force =     5.98697739    1.87881430   -0.27715192
     atom   12 type  3   force =    -0.60887930   -0.19107698   -5.60306958
     The core correction contribution to forces
     atom    1 type  1   force =     0.03833358    0.01202964   -0.01108262
     atom    2 type  1   force =     0.02970778    0.00932259   -0.03331713
     atom    3 type  1   force =    -0.02969483   -0.00931890    0.03331207
     atom    4 type  1   force =    -0.03833420   -0.01203001    0.01108397
     atom    5 type  2   force =    -0.00378924   -0.00118911    0.00161254
     atom    6 type  2   force =     0.00035087    0.00011012   -0.00407430
     atom    7 type  2   force =    -0.00035072   -0.00011008    0.00407547
     atom    8 type  2   force =     0.00378886    0.00118904   -0.00161288
     atom    9 type  3   force =    -0.00183967   -0.00057733   -0.00015123
     atom   10 type  3   force =     0.00106684    0.00033474    0.00048335
     atom   11 type  3   force =    -0.00106807   -0.00033514   -0.00048474
     atom   12 type  3   force =     0.00183922    0.00057719    0.00015142
     The Hubbard contrib.    to forces
     atom    1 type  1   force =     0.00000000    0.00000000    0.00000000
     atom    2 type  1   force =     0.00000000    0.00000000    0.00000000
     atom    3 type  1   force =     0.00000000    0.00000000    0.00000000
     atom    4 type  1   force =     0.00000000    0.00000000    0.00000000
     atom    5 type  2   force =     0.00000000    0.00000000    0.00000000
     atom    6 type  2   force =     0.00000000    0.00000000    0.00000000
     atom    7 type  2   force =     0.00000000    0.00000000    0.00000000
     atom    8 type  2   force =     0.00000000    0.00000000    0.00000000
     atom    9 type  3   force =     0.00000000    0.00000000    0.00000000
     atom   10 type  3   force =     0.00000000    0.00000000    0.00000000
     atom   11 type  3   force =     0.00000000    0.00000000    0.00000000
     atom   12 type  3   force =     0.00000000    0.00000000    0.00000000
     The SCF correction term to forces
     atom    1 type  1   force =    -0.00037576   -0.00011271   -0.00012625
     atom    2 type  1   force =     0.00003778    0.00001299    0.00081658
     atom    3 type  1   force =     0.00054945    0.00017108   -0.00044071
     atom    4 type  1   force =     0.00001612    0.00001340    0.00032169
     atom    5 type  2   force =     0.00007762    0.00002189   -0.00011407
     atom    6 type  2   force =     0.00018031    0.00005759    0.00006082
     atom    7 type  2   force =     0.00020522    0.00006500    0.00025247
     atom    8 type  2   force =    -0.00007937   -0.00002991    0.00009835
     atom    9 type  3   force =    -0.00009568   -0.00002728    0.00054942
     atom   10 type  3   force =     0.00009713    0.00002955   -0.00077872
     atom   11 type  3   force =    -0.00008664   -0.00002679   -0.00016832
     atom   12 type  3   force =    -0.00028123   -0.00008750    0.00014370

     Total force =     0.807294     Total SCF correction =     0.001651

     Computing stress (Cartesian axis) and pressure

          total   stress  (Ry/bohr**3)                   (kbar)     P=     -264.39
  -0.00210674  -0.00032295  -0.00033352         -309.91      -47.51      -49.06
  -0.00032295  -0.00117898  -0.00010466          -47.51     -173.43      -15.40
  -0.00033352  -0.00010466  -0.00210615          -49.06      -15.40     -309.83

     kinetic stress (kbar)  24899.54    156.96     13.19
                              156.96  24448.63      4.14
                               13.19      4.14  24844.62

     local   stress (kbar) -17634.19  -1183.12  -2486.22
                            -1183.12 -14235.37   -780.22
                            -2486.22   -780.22 -18057.19

     nonloc. stress (kbar)   8010.35    -61.58      0.23
                              -61.58   8187.26      0.07
                                0.23      0.07   8063.29

     hartree stress (kbar)   8509.60    359.16   1160.42
                              359.16   7477.82    364.16
                             1160.42    364.16   8668.85

     exc-cor stress (kbar)   3133.82      2.65     -0.21
                                2.65   3126.21     -0.06
                               -0.21     -0.06   3134.55

     corecor stress (kbar)  -8308.27      1.09      0.60
                                1.09  -8311.41      0.19
                                0.60      0.19  -8310.06

     ewald   stress (kbar) -18920.76    677.33   1262.92
                              677.33 -20866.57    396.33
                             1262.92    396.33 -18653.90

     hubbard stress (kbar)      0.00      0.00      0.00
                                0.00      0.00      0.00
                                0.00      0.00      0.00

     DFT-D   stress (kbar)      0.00      0.00      0.00
                                0.00      0.00      0.00
                                0.00      0.00      0.00

     XDM     stress (kbar)      0.00      0.00      0.00
                                0.00      0.00      0.00
                                0.00      0.00      0.00

     dft-nl  stress (kbar)      0.00      0.00      0.00
                                0.00      0.00      0.00
                                0.00      0.00      0.00

     TS-vdW  stress (kbar)      0.00      0.00      0.00
                                0.00      0.00      0.00
                                0.00      0.00      0.00

[...]

                                0.00      0.00      0.00

     Writing all to output data dir new_calculations/myprefix.save/

     General routines

     Parallel routines

     PAW routines

   This run was terminated on:  10:42:38  20May2023

   JOB DONE.