     Program PWSCF v.7.0 starts on 20May2023 at 19:44:20

     Reading input from espresso_22182.pwi
Warning: card &CELL ignored
Warning: card / ignored

     Current dimensions of program PWSCF are:
     Max number of different atomic species (ntypx) = 10
     Max number of k-points (npk) =  40000
     Max angular momentum in pseudopotentials (lmaxx) =  4
     file Al.pbe-n-kjpaw_psl.1.0.0.UPF: wavefunction(s)  3S 3P renormalized

     gamma-point specific algorithms are used
     Message from routine setup:
     using ibrav=0 with symmetry is DISCOURAGED, use correct ibrav instead

     Subspace diagonalization in iterative solution of the eigenvalue problem:
     a serial algorithm will be used

     Using Slab Decomposition

     bravais-lattice index     =            0
     lattice parameter (alat)  =       8.4788  a.u.
     unit-cell volume          =    1628.6208 (a.u.)^3
     number of atoms/cell      =           12
     number of atomic types    =            3
     number of electrons       =       128.00
     number of Kohn-Sham states=           77
     kinetic-energy cutoff     =      30.0000  Ry
     charge density cutoff     =     240.0000  Ry
     scf convergence threshold =      1.0E-06
     mixing beta               =       0.7000
     number of iterations used =            8  plain     mixing
     Exchange-correlation= PBE
                           (   1   4   3   4   0   0   0)

     celldm(1)=   8.478829  celldm(2)=   0.000000  celldm(3)=   0.000000
     celldm(4)=   0.000000  celldm(5)=   0.000000  celldm(6)=   0.000000

     crystal axes: (cart. coord. in units of alat)
               a(1) = (   1.000000   0.000000   0.000000 )
               a(2) = (   0.000000   1.537529   0.000000 )
               a(3) = (   0.000000   0.000000   1.737757 )

     reciprocal axes: (cart. coord. in units 2 pi/alat)
               b(1) = (  1.000000  0.000000  0.000000 )
               b(2) = (  0.000000  0.650394  0.000000 )
               b(3) = (  0.000000  0.000000  0.575454 )

     PseudoPot. # 1 for Y  read from file:
     /home/pragov/projects/rrg-bengioy-ad/pragov/crystal_structure_design/SSSP/Y_pbe_v1.uspp.F.UPF
     MD5 check sum: 2cf71db95cafeb975fc457bd7f14888e
     Pseudo is Ultrasoft + core correction, Zval = 11.0
     Generated by new atomic code, or converted to UPF format
     Using radial grid of  885 points,  6 beta functions with:
                l(1) =   0
                l(2) =   0
                l(3) =   1
                l(4) =   1
                l(5) =   2
                l(6) =   2
     Q(r) pseudized with  6 coefficients,  rinner =    1.200   1.200   1.200
                                                       1.200   1.200

     PseudoPot. # 2 for Al read from file:
     /home/pragov/projects/rrg-bengioy-ad/pragov/crystal_structure_design/SSSP/Al.pbe-n-kjpaw_psl.1.0.0.UPF
     MD5 check sum: cfc449ca30b5f3223ec38ddd88ac046d
     Pseudo is Projector augmented-wave + core cor, Zval =  3.0
     Generated using "atomic" code by A. Dal Corso  v.5.1
     Shape of augmentation charge: PSQ
     Using radial grid of 1135 points,  6 beta functions with:
                l(1) =   0
                l(2) =   0
                l(3) =   1
                l(4) =   1
                l(5) =   2
                l(6) =   2
     Q(r) pseudized with 0 coefficients

     PseudoPot. # 3 for Pd read from file:
     /home/pragov/projects/rrg-bengioy-ad/pragov/crystal_structure_design/SSSP/Pd_ONCV_PBE-1.0.oncvpsp.upf
     MD5 check sum: eb77f42b51d86fb18e25f68156a31cf1
     Pseudo is Norm-conserving, Zval = 18.0
     Generated using ONCVPSP code by D. R. Hamann
     Using radial grid of 1410 points,  6 beta functions with:
                l(1) =   0
                l(2) =   0
                l(3) =   1
                l(4) =   1
                l(5) =   2
                l(6) =   2

     atomic species   valence    mass     pseudopotential
        Y             11.00    88.90584     Y ( 1.00)
        Al             3.00    26.98154     Al( 1.00)
        Pd            18.00   106.42000     Pd( 1.00)

      8 Sym. Ops., with inversion, found ( 6 have fractional translation)

                                    s                        frac. trans.

      isym =  1     identity

 cryst.   s( 1) = (     1          0          0      )
                  (     0          1          0      )
                  (     0          0          1      )

 cart.    s( 1) = (  1.0000000  0.0000000  0.0000000 )
                  (  0.0000000  1.0000000  0.0000000 )
                  (  0.0000000  0.0000000  1.0000000 )

      isym =  2     180 deg rotation - cart. axis [0,0,1]

 cryst.   s( 2) = (    -1          0          0      )    f =(  0.0000000 )
                  (     0         -1          0      )       ( -0.5000000 )
                  (     0          0          1      )       (  0.5000000 )

 cart.    s( 2) = ( -1.0000000  0.0000000  0.0000000 )    f =(  0.0000000 )
                  (  0.0000000 -1.0000000  0.0000000 )       ( -0.7687645 )
                  (  0.0000000  0.0000000  1.0000000 )       (  0.8688785 )

[...]

      isym =  4     180 deg rotation - cart. axis [1,0,0]

[...]

      isym =  5     inversion

 cryst.   s( 5) = (    -1          0          0      )
                  (     0         -1          0      )
                  (     0          0         -1      )

 cart.    s( 5) = ( -1.0000000  0.0000000  0.0000000 )
                  (  0.0000000 -1.0000000  0.0000000 )
                  (  0.0000000  0.0000000 -1.0000000 )

      isym =  6     inv. 180 deg rotation - cart. axis [0,0,1]

[...]

      isym =  8     inv. 180 deg rotation - cart. axis [1,0,0]

 cryst.   s( 8) = (    -1          0          0      )    f =(  0.5000000 )
                  (     0          1          0      )       (  0.0000000 )
                  (     0          0          1      )       (  0.0000000 )

 cart.    s( 8) = ( -1.0000000  0.0000000  0.0000000 )    f =(  0.5000000 )
                  (  0.0000000  1.0000000  0.0000000 )       (  0.0000000 )
                  (  0.0000000  0.0000000  1.0000000 )       (  0.0000000 )

   Cartesian axes

     site n.     atom                  positions (alat units)
         1           Y   tau(   1) = (   0.2500000   0.0508753   0.5566001  )
         2           Y   tau(   2) = (   0.2500000   0.8196398   0.3122784  )
         3           Y   tau(   3) = (   0.7500000   1.4866538   1.1811569  )
         4           Y   tau(   4) = (   0.7500000   0.7178892   1.4254785  )
         5           Al  tau(   5) = (   0.2500000   0.2238658   1.6326122  )
         6           Al  tau(   6) = (   0.2500000   0.9926303   0.9740232  )
         7           Al  tau(   7) = (   0.7500000   1.3136633   0.1051447  )
         8           Al  tau(   8) = (   0.7500000   0.5448988   0.7637337  )
         9           Pd  tau(   9) = (   0.2500000   0.4209539   1.0772529  )
        10           Pd  tau(  10) = (   0.2500000   1.1897185   1.5293825  )
        11           Pd  tau(  11) = (   0.7500000   1.1165751   0.6605040  )
        12           Pd  tau(  12) = (   0.7500000   0.3478106   0.2083744  )

   Crystallographic axes

     site n.     atom                  positions (cryst. coord.)
         1           Y   tau(   1) = (  0.2500000  0.0330890  0.3202980  )
         2           Y   tau(   2) = (  0.2500000  0.5330890  0.1797020  )
         3           Y   tau(   3) = (  0.7500000  0.9669110  0.6797020  )
         4           Y   tau(   4) = (  0.7500000  0.4669110  0.8202980  )
         5           Al  tau(   5) = (  0.2500000  0.1456010  0.9394940  )
         6           Al  tau(   6) = (  0.2500000  0.6456010  0.5605060  )
         7           Al  tau(   7) = (  0.7500000  0.8543990  0.0605060  )
         8           Al  tau(   8) = (  0.7500000  0.3543990  0.4394940  )
         9           Pd  tau(   9) = (  0.2500000  0.2737860  0.6199100  )
        10           Pd  tau(  10) = (  0.2500000  0.7737860  0.8800900  )
        11           Pd  tau(  11) = (  0.7500000  0.7262140  0.3800900  )
        12           Pd  tau(  12) = (  0.7500000  0.2262140  0.1199100  )

     number of k points=     1  Methfessel-Paxton smearing, width (Ry)=  0.0010
                       cart. coord. in units 2pi/alat
        k(    1) = (   0.0000000   0.0000000   0.0000000), wk =   2.0000000

                       cryst. coord.
        k(    1) = (   0.0000000   0.0000000   0.0000000), wk =   2.0000000

     Check: negative core charge=   -0.000004

     Initial potential from superposition of free atoms

     starting charge     127.9715, renormalised to     128.0000

     negative rho (up, down):  1.762E-01 0.000E+00
     Starting wfcs are  108 randomized atomic wfcs
     Checking if some PAW data can be deallocated...

     Self-consistent Calculation

     iteration #  1     ecut=    30.00 Ry     beta= 0.70
     Davidson diagonalization with overlap

     ethr =  1.00E-02,  avg # of iterations =  4.0

     Threshold (ethr) on eigenvalues was too large:
     Diagonalizing with lowered threshold

     Davidson diagonalization with overlap

[...]

     negative rho (up, down):  1.771E-01 0.000E+00

     total energy              =   -1520.38690191 Ry
     estimated scf accuracy    <       0.85954047 Ry

[...]

     total energy              =   -1520.77446091 Ry
     estimated scf accuracy    <       0.00000611 Ry

     iteration # 11     ecut=    30.00 Ry     beta= 0.70
     Davidson diagonalization with overlap

     ethr =  4.77E-09,  avg # of iterations =  3.0

[...]

     End of self-consistent calculation

          k = 0.0000 0.0000 0.0000 (  2259 PWs)   bands (ev):

   -73.7689 -73.7677 -73.7675 -73.7671 -39.2885 -39.2873 -39.2871 -39.2851
   -39.1263 -39.1251 -39.1250 -39.1242 -39.0003 -38.9990 -38.9976 -38.9964
   -30.0139 -29.9936 -29.9920 -29.9740 -10.2882 -10.2555 -10.2148 -10.2008
   -10.0620 -10.0485 -10.0023  -9.9900  -9.8968  -9.8698  -9.8084  -9.7770
     4.4517   5.8453   6.9462   6.9596   7.8199   8.0275   8.1190   8.1521
     8.5145   8.5698   8.5726   8.5868   8.6727   8.7344   8.8321   8.8896
     8.9426   8.9749   8.9808   9.0286   9.0537   9.1606   9.2511   9.9142
     9.9503   9.9534  11.1628  11.4758  11.9142  12.0011  12.0836  12.2200
    13.0880  13.5192  13.6594  13.6933  13.9527  14.0280  14.2231  14.4823
    14.7712  14.8845  15.0809  15.3864  15.6556

     occupation numbers
     1.0000   1.0000   1.0000   1.0000   1.0000   1.0000   1.0000   1.0000
     1.0000   1.0000   1.0000   1.0000   1.0000   1.0000   1.0000   1.0000
     1.0000   1.0000   1.0000   1.0000   1.0000   1.0000   1.0000   1.0000
     1.0000   1.0000   1.0000   1.0000   1.0000   1.0000   1.0000   1.0000
     1.0000   1.0000   1.0000   1.0000   1.0000   1.0000   1.0000   1.0000
     1.0000   1.0000   1.0000   1.0000   1.0000   1.0000   1.0000   1.0000
     1.0000   1.0000   1.0000   1.0000   1.0000   1.0000   1.0000   1.0000
     1.0000   1.0000   1.0000   1.0000   1.0000   1.0000   1.0000   1.0000
    -0.0000  -0.0000  -0.0000  -0.0000  -0.0000  -0.0000  -0.0000  -0.0000
    -0.0000  -0.0000  -0.0000  -0.0000  -0.0000

     the Fermi energy is    12.9887 ev

!    total energy              =   -1520.77446125 Ry
     estimated scf accuracy    <       0.00000083 Ry
     smearing contrib. (-TS)   =       0.00000000 Ry
     internal energy E=F+TS    =   -1520.77446125 Ry

     The total energy is F=E-TS. E is the sum of the following terms:
     one-electron contribution =    -656.14304868 Ry
     hartree contribution      =     373.26060092 Ry
     xc contribution           =    -197.25094569 Ry
     ewald contribution        =    -901.91793413 Ry
     one-center paw contrib.   =    -138.72313366 Ry
      -> PAW hartree energy AE =       5.31976716 Ry
      -> PAW hartree energy PS =      -5.30020861 Ry
      -> PAW xc energy AE      =    -146.22405830 Ry
      -> PAW xc energy PS      =       7.48136609 Ry
      -> total E_H with PAW    =     373.28015947 Ry
      -> total E_XC with PAW   =    -335.99363791 Ry

     convergence has been achieved in  11 iterations

     negative rho (up, down):  1.777E-01 0.000E+00

     Forces acting on atoms (cartesian axes, Ry/au):

     atom    1 type  1   force =     0.00000000   -0.02181079   -0.00856136
     atom    2 type  1   force =     0.00000000   -0.02181079    0.00856136
     atom    3 type  1   force =     0.00000000    0.02181079    0.00856136
     atom    4 type  1   force =     0.00000000    0.02181079   -0.00856136
     atom    5 type  2   force =     0.00000000   -0.01499887   -0.05494306
     atom    6 type  2   force =    -0.00000000   -0.01499887    0.05494306
     atom    7 type  2   force =     0.00000000    0.01499887    0.05494306
     atom    8 type  2   force =     0.00000000    0.01499887   -0.05494306
     atom    9 type  3   force =     0.00000000   -0.00531330    0.00451135
     atom   10 type  3   force =    -0.00000000   -0.00531330   -0.00451135
     atom   11 type  3   force =     0.00000000    0.00531330   -0.00451135
     atom   12 type  3   force =     0.00000000    0.00531330    0.00451135
     The non-local contrib.  to forces
     atom    1 type  1   force =     0.00000000    0.00045180   -0.05558989
     atom    2 type  1   force =     0.00000000    0.00045180    0.05558989
     atom    3 type  1   force =     0.00000000   -0.00045180    0.05558989
     atom    4 type  1   force =    -0.00000000   -0.00045180   -0.05558989
     atom    5 type  2   force =    -0.00000000   -0.00888860    0.01770345
     atom    6 type  2   force =     0.00000000   -0.00888860   -0.01770345
     atom    7 type  2   force =     0.00000000    0.00888860   -0.01770345
     atom    8 type  2   force =     0.00000000    0.00888860    0.01770345
     atom    9 type  3   force =    -0.00000000   -0.00608985   -0.18750506
     atom   10 type  3   force =     0.00000000   -0.00608985    0.18750506
     atom   11 type  3   force =     0.00000000    0.00608985    0.18750506
     atom   12 type  3   force =     0.00000000    0.00608985   -0.18750506
     The ionic contribution  to forces
     atom    1 type  1   force =    -0.00000000   -1.20651762   -1.01907378
     atom    2 type  1   force =    -0.00000000   -1.20651762    1.01907378
     atom    3 type  1   force =     0.00000000    1.20651762    1.01907378
     atom    4 type  1   force =     0.00000000    1.20651762   -1.01907378
     atom    5 type  2   force =    -0.00000000    0.30423888    0.28368666
     atom    6 type  2   force =    -0.00000000    0.30423888   -0.28368666
     atom    7 type  2   force =    -0.00000000   -0.30423888   -0.28368666
     atom    8 type  2   force =    -0.00000000   -0.30423888    0.28368666
     atom    9 type  3   force =    -0.00000000    1.67762303   -0.49021052
     atom   10 type  3   force =    -0.00000000    1.67762303    0.49021052
     atom   11 type  3   force =    -0.00000000   -1.67762303    0.49021052
     atom   12 type  3   force =     0.00000000   -1.67762303   -0.49021052
     The local contribution  to forces
     atom    1 type  1   force =     0.00001272    1.18543632    1.06355586
     atom    2 type  1   force =    -0.00000336    1.18449402   -1.06096610
     atom    3 type  1   force =    -0.00000101   -1.18573460   -1.06385225
     atom    4 type  1   force =     0.00000313   -1.18456762    1.06092374
     atom    5 type  2   force =     0.00000417   -0.31039917   -0.35410628
     atom    6 type  2   force =     0.00000212   -0.31066805    0.35411290
     atom    7 type  2   force =     0.00000184    0.31046084    0.35421693
     atom    8 type  2   force =    -0.00000387    0.31071298   -0.35410654
     atom    9 type  3   force =    -0.00000715   -1.67467892    0.67942166
     atom   10 type  3   force =    -0.00001223   -1.67858466   -0.68428297
     atom   11 type  3   force =    -0.00000999    1.67543874   -0.67896855
     atom   12 type  3   force =    -0.00002708    1.67814421    0.68387957
     The core correction contribution to forces
     atom    1 type  1   force =     0.00000044   -0.00075803    0.00374808
     atom    2 type  1   force =    -0.00000032   -0.00076191   -0.00372756
     atom    3 type  1   force =    -0.00000006    0.00075762   -0.00375007
     atom    4 type  1   force =    -0.00000005    0.00075796    0.00372620
     atom    5 type  2   force =     0.00000029    0.00020134   -0.00216913
     atom    6 type  2   force =     0.00000016    0.00019629    0.00217760
     atom    7 type  2   force =     0.00000015   -0.00019783    0.00217038
     atom    8 type  2   force =    -0.00000036   -0.00019731   -0.00217490
     atom    9 type  3   force =     0.00000000    0.00000000    0.00000000
     atom   10 type  3   force =     0.00000000    0.00000000    0.00000000
     atom   11 type  3   force =     0.00000000    0.00000000    0.00000000
     atom   12 type  3   force =     0.00000000    0.00000000    0.00000000
     The Hubbard contrib.    to forces
     atom    1 type  1   force =     0.00000000    0.00000000    0.00000000
     atom    2 type  1   force =     0.00000000    0.00000000    0.00000000
     atom    3 type  1   force =     0.00000000    0.00000000    0.00000000
     atom    4 type  1   force =     0.00000000    0.00000000    0.00000000
     atom    5 type  2   force =     0.00000000    0.00000000    0.00000000
     atom    6 type  2   force =     0.00000000    0.00000000    0.00000000
     atom    7 type  2   force =     0.00000000    0.00000000    0.00000000
     atom    8 type  2   force =     0.00000000    0.00000000    0.00000000
     atom    9 type  3   force =     0.00000000    0.00000000    0.00000000
     atom   10 type  3   force =     0.00000000    0.00000000    0.00000000
     atom   11 type  3   force =     0.00000000    0.00000000    0.00000000
     atom   12 type  3   force =     0.00000000    0.00000000    0.00000000
     The SCF correction term to forces
     atom    1 type  1   force =    -0.00000506   -0.00039267   -0.00112192
     atom    2 type  1   force =    -0.00000623    0.00047788   -0.00132380
     atom    3 type  1   force =     0.00000471    0.00069809    0.00138894
     atom    4 type  1   force =    -0.00000393   -0.00043595    0.00134646
     atom    5 type  2   force =    -0.00000131   -0.00012078    0.00000107
     atom    6 type  2   force =    -0.00000072    0.00010203    0.00010432
     atom    7 type  2   force =     0.00000013    0.00009514   -0.00009119
     atom    8 type  2   force =     0.00000093   -0.00016558   -0.00008598
     atom    9 type  3   force =    -0.00000083   -0.00227019    0.00293315
     atom   10 type  3   force =     0.00000680    0.00181108    0.00221593
     atom   11 type  3   force =     0.00000477    0.00149279   -0.00341467
     atom   12 type  3   force =     0.00003385   -0.00141253   -0.00177696

     Total force =     0.123956     Total SCF correction =     0.006992

     Computing stress (Cartesian axis) and pressure

     negative rho (up, down):  1.777E-01 0.000E+00
          total   stress  (Ry/bohr**3)                   (kbar)     P=     -457.65
  -0.00320549   0.00000000   0.00000000         -471.54        0.00        0.00
   0.00000000  -0.00254217   0.00000000            0.00     -373.97        0.00
   0.00000000   0.00000000  -0.00358556            0.00        0.00     -527.45

     kinetic stress (kbar)  25906.49      0.00      0.00
                                0.00  26233.15      0.00
                                0.00      0.00  25862.60

     local   stress (kbar) -15273.73      0.00      0.00
                                0.00 -14888.53     -0.06
                                0.00     -0.06 -12813.61

     nonloc. stress (kbar)   8591.74      0.00      0.00
                                0.00   8474.44      0.00
                                0.00      0.00   8524.11

     hartree stress (kbar)  11582.68      0.00     -0.00
                                0.00  11594.49      0.04
                               -0.00      0.04  10537.57

     exc-cor stress (kbar)     45.26      0.00     -0.00
                                0.00     43.18     -0.00
                               -0.00     -0.00     42.78

     corecor stress (kbar)  -4789.87     -0.00     -0.00
                               -0.00  -4790.10      0.00
                               -0.00      0.00  -4789.94

     ewald   stress (kbar) -26534.12     -0.00     -0.00
                               -0.00 -27040.60      0.00
                               -0.00      0.00 -27890.97

     hubbard stress (kbar)      0.00      0.00      0.00
                                0.00      0.00      0.00
                                0.00      0.00      0.00

     DFT-D   stress (kbar)      0.00      0.00      0.00
                                0.00      0.00      0.00
                                0.00      0.00      0.00

     XDM     stress (kbar)      0.00      0.00      0.00
                                0.00      0.00      0.00
                                0.00      0.00      0.00

     dft-nl  stress (kbar)      0.00      0.00      0.00
                                0.00      0.00      0.00
                                0.00      0.00      0.00

     TS-vdW  stress (kbar)      0.00      0.00      0.00
                                0.00      0.00      0.00
                                0.00      0.00      0.00

[...]

                                0.00      0.00      0.00

     Writing all to output data dir new_calculations/myprefix.save/

     General routines

     Parallel routines

     PAW routines

   This run was terminated on:  19:44:47  20May2023

   JOB DONE.