     Program PWSCF v.7.0 starts on 21May2023 at 17: 7: 9

     Reading input from espresso_24887.pwi
Warning: card &CELL ignored
Warning: card / ignored

     Current dimensions of program PWSCF are:
     Max number of different atomic species (ntypx) = 10
     Max number of k-points (npk) =  40000
     Max angular momentum in pseudopotentials (lmaxx) =  4
     file K.pbe-spn-kjpaw_psl.1.0.0.UPF: wavefunction(s)  3S renormalized

     gamma-point specific algorithms are used
     Message from routine setup:
     using ibrav=0 with symmetry is DISCOURAGED, use correct ibrav instead

     Subspace diagonalization in iterative solution of the eigenvalue problem:
     a serial algorithm will be used

     Using Slab Decomposition

     bravais-lattice index     =            0
     lattice parameter (alat)  =      14.8469  a.u.
     unit-cell volume          =     888.9302 (a.u.)^3
     number of atoms/cell      =           12
     number of atomic types    =            4
     number of electrons       =        32.00
     number of Kohn-Sham states=           20
     kinetic-energy cutoff     =      30.0000  Ry
     charge density cutoff     =     240.0000  Ry
     scf convergence threshold =      1.0E-06
     mixing beta               =       0.7000
     number of iterations used =            8  plain     mixing
     Exchange-correlation= PBE
                           (   1   4   3   4   0   0   0)

     celldm(1)=  14.846919  celldm(2)=   0.000000  celldm(3)=   0.000000
     celldm(4)=   0.000000  celldm(5)=   0.000000  celldm(6)=   0.000000

     crystal axes: (cart. coord. in units of alat)
               a(1) = (   1.000000   0.000000   0.000000 )
               a(2) = (   0.833691   0.552231   0.000000 )
               a(3) = (   0.833691   0.251073   0.491856 )

     reciprocal axes: (cart. coord. in units 2 pi/alat)
               b(1) = (  1.000000 -1.509676 -0.924361 )
               b(2) = (  0.000000  1.810835 -0.924361 )
               b(3) = (  0.000000  0.000000  2.033117 )

     PseudoPot. # 1 for K  read from file:
     /home/pragov/projects/rrg-bengioy-ad/pragov/crystal_structure_design/SSSP/K.pbe-spn-kjpaw_psl.1.0.0.UPF
     MD5 check sum: 7d58810084cac21f60fbe77ea2b688fd
     Pseudo is Projector augmented-wave + core cor, Zval =  9.0
     Generated using "atomic" code by A. Dal Corso  v.5.1
     Shape of augmentation charge: PSQ
     Using radial grid of 1165 points,  6 beta functions with:
                l(1) =   0
                l(2) =   0
                l(3) =   1
                l(4) =   1
                l(5) =   2
                l(6) =   2
     Q(r) pseudized with 0 coefficients

     PseudoPot. # 2 for Na read from file:
     /home/pragov/projects/rrg-bengioy-ad/pragov/crystal_structure_design/SSSP/na_pbe_v1.5.uspp.F.UPF
     MD5 check sum: 44600605ef58000f06b90626533354dc
     Pseudo is Ultrasoft, Zval =  9.0
     Generated by new atomic code, or converted to UPF format
     Using radial grid of  819 points,  5 beta functions with:
                l(1) =   0
                l(2) =   0
                l(3) =   1
                l(4) =   1
                l(5) =   2
     Q(r) pseudized with  8 coefficients,  rinner =    1.250   1.250   1.250
                                                       1.250   1.250

     PseudoPot. # 3 for B  read from file:
     /home/pragov/projects/rrg-bengioy-ad/pragov/crystal_structure_design/SSSP/b_pbe_v1.4.uspp.F.UPF
     MD5 check sum: cc6de2960df11db49a60e589f9ebb39b
     Pseudo is Ultrasoft + core correction, Zval =  3.0
     Generated by new atomic code, or converted to UPF format
     Using radial grid of  781 points,  4 beta functions with:
                l(1) =   0
                l(2) =   0
                l(3) =   1
                l(4) =   1
     Q(r) pseudized with  8 coefficients,  rinner =    1.100   1.100   1.100

     PseudoPot. # 4 for H  read from file:
     /home/pragov/projects/rrg-bengioy-ad/pragov/crystal_structure_design/SSSP/H.pbe-rrkjus_psl.1.0.0.UPF
     MD5 check sum: f52b6d4d1c606e5624b1dc7b2218f220
     Pseudo is Ultrasoft, Zval =  1.0
     Generated using "atomic" code by A. Dal Corso  v.5.1
     Using radial grid of  929 points,  2 beta functions with:
                l(1) =   0
                l(2) =   0
     Q(r) pseudized with 0 coefficients

     atomic species   valence    mass     pseudopotential
        K              9.00    39.09830     K ( 1.00)
        Na             9.00    22.98977     Na( 1.00)
        B              3.00    10.81000     B ( 1.00)
        H              1.00     1.00800     H ( 1.00)

      2 Sym. Ops., with inversion, found

                                    s                        frac. trans.

      isym =  1     identity

 cryst.   s( 1) = (     1          0          0      )
                  (     0          1          0      )
                  (     0          0          1      )

 cart.    s( 1) = (  1.0000000 -0.0000000  0.0000000 )
                  (  0.0000000  1.0000000  0.0000000 )
                  (  0.0000000  0.0000000  1.0000000 )

      isym =  2     inversion

 cryst.   s( 2) = (    -1          0          0      )
                  (     0         -1          0      )
                  (     0          0         -1      )

 cart.    s( 2) = ( -1.0000000  0.0000000 -0.0000000 )
                  (  0.0000000 -1.0000000 -0.0000000 )
                  (  0.0000000  0.0000000 -1.0000000 )

   Cartesian axes

     site n.     atom                  positions (alat units)
         1           K   tau(   1) = (   1.3336909   0.4016523   0.2459278  )
         2           Na  tau(   2) = (   0.0000000   0.0000000   0.0000000  )
         3           B   tau(   3) = (   0.6822842   0.2054757   0.1258107  )
         4           B   tau(   4) = (   1.9850975   0.5978289   0.3660448  )
         5           H   tau(   5) = (   2.1331505   0.6424163   0.3933452  )
         6           H   tau(   6) = (   0.9846718   0.4512112   0.3123337  )
         7           H   tau(   7) = (   1.6827099   0.3520933   0.1795218  )
         8           H   tau(   8) = (   1.5972969   0.4489206   0.4845859  )
         9           H   tau(   9) = (   1.0700848   0.3543839   0.0072696  )
        10           H   tau(  10) = (   0.5342312   0.1608882   0.0985103  )
        11           H   tau(  11) = (   1.0878219   0.1408189   0.2598768  )
        12           H   tau(  12) = (   1.5795599   0.6624856   0.2319787  )

   Crystallographic axes

     site n.     atom                  positions (cryst. coord.)
         1           K   tau(   1) = (  0.5000000  0.5000000  0.5000000  )
         2           Na  tau(   2) = (  0.0000000  0.0000000  0.0000000  )
         3           B   tau(   3) = (  0.2557880  0.2557880  0.2557880  )
         4           B   tau(   4) = (  0.7442120  0.7442120  0.7442120  )
         5           H   tau(   5) = (  0.7997170  0.7997170  0.7997170  )
         6           H   tau(   6) = (  0.0147800  0.5283600  0.6350110  )
         7           H   tau(   7) = (  0.9852200  0.4716400  0.3649890  )
         8           H   tau(   8) = (  0.4716400  0.3649890  0.9852200  )
         9           H   tau(   9) = (  0.5283600  0.6350110  0.0147800  )
        10           H   tau(  10) = (  0.2002830  0.2002830  0.2002830  )
        11           H   tau(  11) = (  0.6350110  0.0147800  0.5283600  )
        12           H   tau(  12) = (  0.3649890  0.9852200  0.4716400  )

     number of k points=     1  Methfessel-Paxton smearing, width (Ry)=  0.0010
                       cart. coord. in units 2pi/alat
        k(    1) = (   0.0000000   0.0000000   0.0000000), wk =   2.0000000

                       cryst. coord.
        k(    1) = (   0.0000000   0.0000000   0.0000000), wk =   2.0000000

     Check: negative core charge=   -0.000002

     Initial potential from superposition of free atoms

     starting charge      31.9742, renormalised to      32.0000
     Starting wfcs are   29 randomized atomic wfcs
     Checking if some PAW data can be deallocated...

     Self-consistent Calculation

     iteration #  1     ecut=    30.00 Ry     beta= 0.70
     Davidson diagonalization with overlap

     ethr =  1.00E-02,  avg # of iterations =  4.0

     total energy              =    -230.22524762 Ry
     estimated scf accuracy    <       1.38068297 Ry

[...]

     total energy              =    -230.55625160 Ry
     estimated scf accuracy    <       0.00001301 Ry

     iteration #  7     ecut=    30.00 Ry     beta= 0.70
     Davidson diagonalization with overlap

     ethr =  4.07E-08,  avg # of iterations =  2.0

     End of self-consistent calculation

          k = 0.0000 0.0000 0.0000 (  1234 PWs)   bands (ev):

   -50.7523 -28.4457 -22.6641 -22.6394 -22.6393 -11.9932 -11.9137 -11.9136
    -7.2200  -6.4389  -2.7183  -1.2761  -1.2758  -1.1654  -0.8328  -0.8326
     5.4304   6.1497   6.9371   7.0190

     occupation numbers
     1.0000   1.0000   1.0000   1.0000   1.0000   1.0000   1.0000   1.0000
     1.0000   1.0000   1.0000   1.0000   1.0000   1.0000   1.0000   1.0000
    -0.0000  -0.0000  -0.0000  -0.0000

     the Fermi energy is    -0.1004 ev

!    total energy              =    -230.55625306 Ry
     estimated scf accuracy    <       0.00000036 Ry
     smearing contrib. (-TS)   =       0.00000000 Ry
     internal energy E=F+TS    =    -230.55625306 Ry

     The total energy is F=E-TS. E is the sum of the following terms:
     one-electron contribution =    -113.88778393 Ry
     hartree contribution      =      64.38491214 Ry
     xc contribution           =     -37.52982544 Ry
     ewald contribution        =     -88.10612081 Ry
     one-center paw contrib.   =     -55.41743502 Ry
      -> PAW hartree energy AE =      37.68876103 Ry
      -> PAW hartree energy PS =     -37.47866971 Ry
      -> PAW xc energy AE      =     -66.21682567 Ry
      -> PAW xc energy PS      =      10.58929932 Ry
      -> total E_H with PAW    =      64.59500346 Ry
      -> total E_XC with PAW   =     -93.15735178 Ry

     convergence has been achieved in   7 iterations

     Forces acting on atoms (cartesian axes, Ry/au):

     atom    1 type  1   force =     0.00000000    0.00000000    0.00000000
     atom    2 type  2   force =     0.00000000    0.00000000    0.00000000
     atom    3 type  3   force =     0.03495642    0.01053072    0.00647079
     atom    4 type  3   force =    -0.03495642   -0.01053072   -0.00647079
     atom    5 type  4   force =    -0.00186517   -0.00056434   -0.00034642
     atom    6 type  4   force =     0.00652634    0.02796371    0.01285256
     atom    7 type  4   force =    -0.00652634   -0.02796371   -0.01285256
     atom    8 type  4   force =    -0.02088015   -0.00249406    0.02340025
     atom    9 type  4   force =     0.02088015    0.00249406   -0.02340025
     atom   10 type  4   force =     0.00186517    0.00056434    0.00034642
     atom   11 type  4   force =     0.01878681   -0.01654587    0.01905187
     atom   12 type  4   force =    -0.01878681    0.01654587   -0.01905187
     The non-local contrib.  to forces
     atom    1 type  1   force =     0.00000000    0.00000000    0.00000000
     atom    2 type  2   force =     0.00000000    0.00000000    0.00000000
     atom    3 type  3   force =     0.07732485    0.02328558    0.01426601
     atom    4 type  3   force =    -0.07732485   -0.02328558   -0.01426601
     atom    5 type  4   force =    -0.03873191   -0.01166485   -0.00714271
     atom    6 type  4   force =     0.00036476    0.04228360    0.01690039
     atom    7 type  4   force =    -0.00036476   -0.04228360   -0.01690039
     atom    8 type  4   force =    -0.02365432    0.00088242    0.03890257
     atom    9 type  4   force =     0.02365432   -0.00088242   -0.03890257
     atom   10 type  4   force =     0.03873191    0.01166485    0.00714271
     atom   11 type  4   force =     0.01923312   -0.02837565    0.02997600
     atom   12 type  4   force =    -0.01923312    0.02837565   -0.02997600
     The ionic contribution  to forces
     atom    1 type  1   force =    -0.00000000   -0.00000000    0.00000000
     atom    2 type  2   force =     0.00000000   -0.00000000    0.00000000
     atom    3 type  3   force =    -0.42644276   -0.12842659   -0.07863416
     atom    4 type  3   force =     0.42644276    0.12842659    0.07863416
     atom    5 type  4   force =     0.97330423    0.29311877    0.17947358
     atom    6 type  4   force =     0.18431452   -0.79411923   -0.38991501
     atom    7 type  4   force =    -0.18431452    0.79411923    0.38991501
     atom    8 type  4   force =     0.28487669    0.00000675   -0.85759955
     atom    9 type  4   force =    -0.28487669   -0.00000675    0.85759955
     atom   10 type  4   force =    -0.97330423   -0.29311877   -0.17947358
     atom   11 type  4   force =    -0.23750259    0.69231524   -0.53002203
     atom   12 type  4   force =     0.23750259   -0.69231524    0.53002203
     The local contribution  to forces
     atom    1 type  1   force =     0.00014951    0.00004419    0.00002129
     atom    2 type  2   force =     0.00000548   -0.00003884   -0.00000007
     atom    3 type  3   force =     0.38549316    0.11611127    0.07115161
     atom    4 type  3   force =    -0.38546386   -0.11611554   -0.07116753
     atom    5 type  4   force =    -0.93641864   -0.28202008   -0.17268926
     atom    6 type  4   force =    -0.17817612    0.77976233    0.38583546
     atom    7 type  4   force =     0.17817757   -0.77969655   -0.38581547
     atom    8 type  4   force =    -0.28201582   -0.00337453    0.84201547
     atom    9 type  4   force =     0.28206197    0.00337047   -0.84207036
     atom   10 type  4   force =     0.93633972    0.28199428    0.17267554
     atom   11 type  4   force =     0.23701796   -0.68047501    0.51906213
     atom   12 type  4   force =    -0.23698300    0.68042967   -0.51902325
     The core correction contribution to forces
     atom    1 type  1   force =     0.00000549    0.00000163    0.00000146
     atom    2 type  2   force =     0.00000000    0.00000000    0.00000000
     atom    3 type  3   force =    -0.00132037   -0.00039733   -0.00024337
     atom    4 type  3   force =     0.00132074    0.00039750    0.00024324
     atom    5 type  4   force =     0.00000000    0.00000000    0.00000000
     atom    6 type  4   force =     0.00000000    0.00000000    0.00000000
     atom    7 type  4   force =     0.00000000    0.00000000    0.00000000
     atom    8 type  4   force =     0.00000000    0.00000000    0.00000000
     atom    9 type  4   force =     0.00000000    0.00000000    0.00000000
     atom   10 type  4   force =     0.00000000    0.00000000    0.00000000
     atom   11 type  4   force =     0.00000000    0.00000000    0.00000000
     atom   12 type  4   force =     0.00000000    0.00000000    0.00000000
     The Hubbard contrib.    to forces
     atom    1 type  1   force =     0.00000000    0.00000000    0.00000000
     atom    2 type  2   force =     0.00000000    0.00000000    0.00000000
     atom    3 type  3   force =     0.00000000    0.00000000    0.00000000
     atom    4 type  3   force =     0.00000000    0.00000000    0.00000000
     atom    5 type  4   force =     0.00000000    0.00000000    0.00000000
     atom    6 type  4   force =     0.00000000    0.00000000    0.00000000
     atom    7 type  4   force =     0.00000000    0.00000000    0.00000000
     atom    8 type  4   force =     0.00000000    0.00000000    0.00000000
     atom    9 type  4   force =     0.00000000    0.00000000    0.00000000
     atom   10 type  4   force =     0.00000000    0.00000000    0.00000000
     atom   11 type  4   force =     0.00000000    0.00000000    0.00000000
     atom   12 type  4   force =     0.00000000    0.00000000    0.00000000
     The SCF correction term to forces
     atom    1 type  1   force =     0.00004296    0.00001143    0.00007321
     atom    2 type  2   force =    -0.00005433   -0.00003286   -0.00001032
     atom    3 type  3   force =    -0.00009098   -0.00004056   -0.00006841
     atom    4 type  3   force =     0.00007626    0.00004797    0.00008623
     atom    5 type  4   force =    -0.00003099   -0.00000195    0.00001051
     atom    6 type  4   force =     0.00002217    0.00004792    0.00003358
     atom    7 type  4   force =    -0.00002565   -0.00009187   -0.00004987
     atom    8 type  4   force =    -0.00008101   -0.00000991    0.00007280
     atom    9 type  4   force =     0.00004623    0.00001157   -0.00003583
     atom   10 type  4   force =     0.00008563    0.00002022    0.00000029
     atom   11 type  4   force =     0.00004315   -0.00001856    0.00004207
     atom   12 type  4   force =    -0.00006845    0.00004769   -0.00006835

     Total force =     0.093251     Total SCF correction =     0.000312

     Computing stress (Cartesian axis) and pressure

          total   stress  (Ry/bohr**3)                   (kbar)     P=       10.81
  -0.00023841  -0.00015022  -0.00009201          -35.07      -22.10      -13.54
  -0.00015022   0.00021517  -0.00002769          -22.10       31.65       -4.07
  -0.00009201  -0.00002769   0.00024368          -13.54       -4.07       35.85

     kinetic stress (kbar)   6181.65    -39.47    -24.17
                              -39.47   6300.81     -7.27
                              -24.17     -7.27   6308.28

     local   stress (kbar)   3055.83    169.67    103.88
                              169.67   2543.53     31.28
                              103.88     31.28   2511.58

     nonloc. stress (kbar)  -5784.16      1.85      1.14
                                1.85  -5789.74      0.34
                                1.14      0.34  -5790.09

     hartree stress (kbar)   3384.64    -80.43    -49.24
                              -80.43   3627.49    -14.83
                              -49.24    -14.83   3642.64

     exc-cor stress (kbar)  -1154.81      0.02      0.01
                                0.02  -1154.88      0.00
                                0.01      0.00  -1154.89

     corecor stress (kbar)   -703.46      0.77      0.47
                                0.77   -705.77      0.14
                                0.47      0.14   -705.92

     ewald   stress (kbar)  -5014.75    -74.51    -45.62
                              -74.51  -4789.78    -13.74
                              -45.62    -13.74  -4775.75

     hubbard stress (kbar)      0.00      0.00      0.00
                                0.00      0.00      0.00
                                0.00      0.00      0.00

     DFT-D   stress (kbar)      0.00      0.00      0.00
                                0.00      0.00      0.00
                                0.00      0.00      0.00

     XDM     stress (kbar)      0.00      0.00      0.00
                                0.00      0.00      0.00
                                0.00      0.00      0.00

     dft-nl  stress (kbar)      0.00      0.00      0.00
                                0.00      0.00      0.00
                                0.00      0.00      0.00

     TS-vdW  stress (kbar)      0.00      0.00      0.00
                                0.00      0.00      0.00
                                0.00      0.00      0.00

[...]

                                0.00      0.00      0.00

     Writing all to output data dir new_calculations/myprefix.save/

     General routines

     Parallel routines

     PAW routines

   This run was terminated on:  17: 7:21  21May2023

   JOB DONE.