     Program PWSCF v.7.0 starts on 20May2023 at 10: 0:50

     Reading input from espresso_6243.pwi
Warning: card &CELL ignored
Warning: card / ignored

     Current dimensions of program PWSCF are:
     Max number of different atomic species (ntypx) = 10
     Max number of k-points (npk) =  40000
     Max angular momentum in pseudopotentials (lmaxx) =  4

     gamma-point specific algorithms are used
     Message from routine setup:
     using ibrav=0 with symmetry is DISCOURAGED, use correct ibrav instead

     Subspace diagonalization in iterative solution of the eigenvalue problem:
     a serial algorithm will be used

     Using Slab Decomposition

     bravais-lattice index     =            0
     lattice parameter (alat)  =      14.5035  a.u.
     unit-cell volume          =    1871.7589 (a.u.)^3
     number of atoms/cell      =           20
     number of atomic types    =            3
     number of electrons       =       186.00
     number of Kohn-Sham states=          112
     kinetic-energy cutoff     =      30.0000  Ry
     charge density cutoff     =     240.0000  Ry
     scf convergence threshold =      1.0E-06
     mixing beta               =       0.7000
     number of iterations used =            8  plain     mixing
     Exchange-correlation= PBE
                           (   1   4   3   4   0   0   0)

     celldm(1)=  14.503474  celldm(2)=   0.000000  celldm(3)=   0.000000
     celldm(4)=   0.000000  celldm(5)=   0.000000  celldm(6)=   0.000000

     crystal axes: (cart. coord. in units of alat)
               a(1) = (   1.000000   0.000000   0.000000 )
               a(2) = (  -0.068780   0.997632   0.000000 )
               a(3) = (   0.223412   0.239346   0.614984 )

     reciprocal axes: (cart. coord. in units 2 pi/alat)
               b(1) = (  1.000000  0.068944 -0.390114 )
               b(2) = (  0.000000  1.002374 -0.390114 )
               b(3) = (  0.000000  0.000000  1.626060 )

     PseudoPot. # 1 for Sc read from file:
     /home/pragov/projects/rrg-bengioy-ad/pragov/crystal_structure_design/SSSP/Sc_ONCV_PBE-1.0.oncvpsp.upf
     MD5 check sum: e21af8023abb52e52cb7cd3133e4a229
     Pseudo is Norm-conserving, Zval = 11.0
     Generated using ONCVPSP code by D. R. Hamann
     Using radial grid of 1662 points,  6 beta functions with:
                l(1) =   0
                l(2) =   0
                l(3) =   1
                l(4) =   1
                l(5) =   2
                l(6) =   2

     PseudoPot. # 2 for Co read from file:
     /home/pragov/projects/rrg-bengioy-ad/pragov/crystal_structure_design/SSSP/Co_pbe_v1.2.uspp.F.UPF
     MD5 check sum: 5f91765df6ddd3222702df6e7b74a16d
     Pseudo is Ultrasoft + core correction, Zval = 17.0
     Generated by new atomic code, or converted to UPF format
     Using radial grid of  863 points,  6 beta functions with:
                l(1) =   0
                l(2) =   0
                l(3) =   1
                l(4) =   1
                l(5) =   2
                l(6) =   2
     Q(r) pseudized with  8 coefficients,  rinner =    1.200   1.200   1.200
                                                       1.200   1.200

     PseudoPot. # 3 for Si read from file:
     /home/pragov/projects/rrg-bengioy-ad/pragov/crystal_structure_design/SSSP/Si.pbe-n-rrkjus_psl.1.0.0.UPF
     MD5 check sum: 0b0bb1205258b0d07b9f9672cf965d36
     Pseudo is Ultrasoft + core correction, Zval =  4.0
     Generated using "atomic" code by A. Dal Corso  v.5.1
     Using radial grid of 1141 points,  6 beta functions with:
                l(1) =   0
                l(2) =   0
                l(3) =   1
                l(4) =   1
                l(5) =   2
                l(6) =   2
     Q(r) pseudized with 0 coefficients

     atomic species   valence    mass     pseudopotential
        Sc            11.00    44.95591     Sc( 1.00)
        Co            17.00    58.93319     Co( 1.00)
        Si             4.00    28.08500     Si( 1.00)

      2 Sym. Ops., with inversion, found

                                    s                        frac. trans.

      isym =  1     identity

 cryst.   s( 1) = (     1          0          0      )
                  (     0          1          0      )
                  (     0          0          1      )

 cart.    s( 1) = (  1.0000000  0.0000000  0.0000000 )
                  (  0.0000000  1.0000000 -0.0000000 )
                  (  0.0000000  0.0000000  1.0000000 )

      isym =  2     inversion

 cryst.   s( 2) = (    -1          0          0      )
                  (     0         -1          0      )
                  (     0          0         -1      )

 cart.    s( 2) = ( -1.0000000 -0.0000000 -0.0000000 )
                  (  0.0000000 -1.0000000  0.0000000 )
                  (  0.0000000  0.0000000 -1.0000000 )

   Cartesian axes

     site n.     atom                  positions (alat units)
         1           Sc  tau(   1) = (   1.0012193   0.7754284   0.4703320  )
         2           Sc  tau(   2) = (   0.5616103   0.3044677   0.4521433  )
         3           Sc  tau(   3) = (   0.1534127   0.4615490   0.1446515  )
         4           Sc  tau(   4) = (   0.5930216   0.9325097   0.1628403  )
         5           Co  tau(   5) = (   0.3654090   0.6912322   0.3853721  )
         6           Co  tau(   6) = (   0.6018759   0.9445633   0.5371032  )
         7           Co  tau(   7) = (   0.7892230   0.5457452   0.2296115  )
         8           Co  tau(   8) = (   0.5527561   0.2924141   0.0778803  )
         9           Co  tau(   9) = (   0.1019211   1.1742080   0.4612376  )
        10           Co  tau(  10) = (   1.0527109   0.0627694   0.1537459  )
        11           Si  tau(  11) = (   0.2394390   0.4635226   0.5104812  )
        12           Si  tau(  12) = (   0.8203820   1.0858970   0.4119941  )
        13           Si  tau(  13) = (   0.9151930   0.7734548   0.1045023  )
        14           Si  tau(  14) = (   0.3342500   0.1510804   0.2029895  )
        15           Si  tau(  15) = (   0.3238256   0.9670757   0.4612376  )
        16           Si  tau(  16) = (   0.8308064   0.2699017   0.1537459  )
        17           Si  tau(  17) = (   0.6473443   0.6650935   0.4612376  )
        18           Si  tau(  18) = (   0.5072877   0.5718839   0.1537459  )
        19           Si  tau(  19) = (   0.9246939   0.4062070   0.4612376  )
        20           Si  tau(  20) = (   0.2299381   0.8307704   0.1537459  )

   Crystallographic axes

     site n.     atom                  positions (cryst. coord.)
         1           Sc  tau(   1) = (  0.8711970  0.5937860  0.7647880  )
         2           Sc  tau(   2) = (  0.4062140  0.1288030  0.7352120  )
         3           Sc  tau(   3) = (  0.1288030  0.4062140  0.2352120  )
         4           Sc  tau(   4) = (  0.5937860  0.8711970  0.2647880  )
         5           Co  tau(   5) = (  0.2627260  0.5425340  0.6266380  )
         6           Co  tau(   6) = (  0.4574660  0.7372740  0.8733620  )
         7           Co  tau(   7) = (  0.7372740  0.4574660  0.3733620  )
         8           Co  tau(   8) = (  0.5425340  0.2627260  0.1266380  )
         9           Co  tau(   9) = (  0.0029400  0.9970600  0.7500000  )
        10           Co  tau(  10) = (  0.9970600  0.0029400  0.2500000  )
        11           Si  tau(  11) = (  0.0722500  0.2654770  0.8300730  )
        12           Si  tau(  12) = (  0.7345230  0.9277500  0.6699270  )
        13           Si  tau(  13) = (  0.9277500  0.7345230  0.1699270  )
        14           Si  tau(  14) = (  0.2654770  0.0722500  0.3300730  )
        15           Si  tau(  15) = (  0.2105640  0.7894360  0.7500000  )
        16           Si  tau(  16) = (  0.7894360  0.2105640  0.2500000  )
        17           Si  tau(  17) = (  0.5132630  0.4867370  0.7500000  )
        18           Si  tau(  18) = (  0.4867370  0.5132630  0.2500000  )
        19           Si  tau(  19) = (  0.7727640  0.2272360  0.7500000  )
        20           Si  tau(  20) = (  0.2272360  0.7727640  0.2500000  )

     number of k points=     1  Methfessel-Paxton smearing, width (Ry)=  0.0010
                       cart. coord. in units 2pi/alat
        k(    1) = (   0.0000000   0.0000000   0.0000000), wk =   2.0000000

                       cryst. coord.
        k(    1) = (   0.0000000   0.0000000   0.0000000), wk =   2.0000000

     Check: negative core charge=   -0.000010

     Initial potential from superposition of free atoms

     starting charge     179.9838, renormalised to     186.0000
     Starting wfcs are  158 randomized atomic wfcs

     Self-consistent Calculation

     iteration #  1     ecut=    30.00 Ry     beta= 0.70
     Davidson diagonalization with overlap

     ethr =  1.00E-02,  avg # of iterations =  4.0

     total energy              =   -2222.97151284 Ry
     estimated scf accuracy    <      66.54756660 Ry

[...]

     c_bands:  4 eigenvalues not converged
     ethr =  2.11E-05,  avg # of iterations = 20.0

[...]

     c_bands:  1 eigenvalues not converged
     ethr =  9.27E-06,  avg # of iterations = 20.0

[...]

     total energy              =   -2273.28115635 Ry
     estimated scf accuracy    <       0.00000937 Ry

     iteration # 34     ecut=    30.00 Ry     beta= 0.70
     Davidson diagonalization with overlap

     ethr =  1.92E-09,  avg # of iterations =  1.0

     End of self-consistent calculation

          k = 0.0000 0.0000 0.0000 (  2603 PWs)   bands (ev):

   -81.6862 -81.6860 -81.6851 -81.6847 -81.5816 -81.5748 -45.1911 -45.1903
   -45.1873 -45.1858 -44.9546 -44.9494 -44.9481 -44.9435 -44.9119 -44.9078
   -44.8966 -44.8963 -44.8007 -44.7992 -44.7965 -44.7953 -44.6943 -44.6140
   -36.2779 -36.2766 -36.2732 -36.2722 -14.9781 -14.9656 -14.9485 -14.9364
   -14.9024 -14.8997 -14.8888 -14.8864 -14.8419 -14.8417 -14.8312 -14.8242
     0.8930   2.1129   3.2924   4.1065   4.3824   5.3673   5.6030   5.8462
     6.3898   6.7945   7.2356   7.2394   7.8760   8.1831   8.4649   8.6279
     9.0509   9.2329   9.4172   9.5329   9.7201   9.7687   9.9086  10.0085
    10.2184  10.3742  10.5424  10.6291  10.6304  10.6645  10.7364  10.9011
    11.0337  11.1303  11.2480  11.2564  11.3748  11.5855  11.6228  11.7459
    11.7818  11.9886  12.0297  12.0701  12.2494  12.2781  12.3342  12.4232
    12.4541  12.8993  12.9866  12.9946  13.4790  13.4850  13.5567  13.8099
    14.0243  14.1201  14.5082  14.7965  14.9593  15.0520  15.0679  15.4407
    15.4759  15.5406  15.6505  16.0198  16.0550  16.2680  16.3438  16.5123

     occupation numbers
     1.0000   1.0000   1.0000   1.0000   1.0000   1.0000   1.0000   1.0000
     1.0000   1.0000   1.0000   1.0000   1.0000   1.0000   1.0000   1.0000
     1.0000   1.0000   1.0000   1.0000   1.0000   1.0000   1.0000   1.0000
     1.0000   1.0000   1.0000   1.0000   1.0000   1.0000   1.0000   1.0000
     1.0000   1.0000   1.0000   1.0000   1.0000   1.0000   1.0000   1.0000
     1.0000   1.0000   1.0000   1.0000   1.0000   1.0000   1.0000   1.0000
     1.0000   1.0000   1.0000   1.0000   1.0000   1.0000   1.0000   1.0000
     1.0000   1.0000   1.0000   1.0000   1.0000   1.0000   1.0000   1.0000
     1.0000   1.0000   1.0000   1.0000   1.0000   1.0000   1.0000   1.0000
     1.0000   1.0000   1.0000   1.0000   1.0000   1.0000   1.0000   1.0000
     1.0000   1.0000   1.0000   1.0000   1.0000   1.0000   1.0000   1.0000
     1.0000   1.0000   1.0000   1.0000   0.6823   0.3177  -0.0000  -0.0000
    -0.0000  -0.0000  -0.0000  -0.0000  -0.0000  -0.0000  -0.0000  -0.0000
    -0.0000  -0.0000  -0.0000  -0.0000  -0.0000  -0.0000  -0.0000  -0.0000

     the Fermi energy is    13.4820 ev

!    total energy              =   -2273.28115552 Ry
     estimated scf accuracy    <       0.00000092 Ry
     smearing contrib. (-TS)   =      -0.00048461 Ry
     internal energy E=F+TS    =   -2273.28067092 Ry

     The total energy is F=E-TS. E is the sum of the following terms:
     one-electron contribution =   -1521.06937085 Ry
     hartree contribution      =     848.03854774 Ry
     xc contribution           =    -306.79729238 Ry
     ewald contribution        =   -1293.45255542 Ry

     convergence has been achieved in  34 iterations

     Forces acting on atoms (cartesian axes, Ry/au):

     atom    1 type  1   force =    -0.02085680   -0.00575431   -0.01198812
     atom    2 type  1   force =     0.00429610    0.02120866    0.01199408
     atom    3 type  1   force =     0.02085680    0.00575431    0.01198812
     atom    4 type  1   force =    -0.00429610   -0.02120866   -0.01199408
     atom    5 type  2   force =    -0.01412315   -0.00015638    0.01128807
     atom    6 type  2   force =    -0.00078026    0.01427145   -0.01140578
     atom    7 type  2   force =     0.01412315    0.00015638   -0.01128807
     atom    8 type  2   force =     0.00078026   -0.01427145    0.01140578
     atom    9 type  2   force =     0.00986547   -0.00920196   -0.00000050
     atom   10 type  2   force =    -0.00986547    0.00920196    0.00000050
     atom   11 type  3   force =     0.02374425   -0.04667895   -0.00326108
     atom   12 type  3   force =     0.04821134   -0.02048607    0.00326581
     atom   13 type  3   force =    -0.02374425    0.04667895    0.00326108
     atom   14 type  3   force =    -0.04821134    0.02048607   -0.00326581
     atom   15 type  3   force =    -0.01022937    0.00954363    0.00001354
     atom   16 type  3   force =     0.01022937   -0.00954363   -0.00001354
     atom   17 type  3   force =    -0.01383564    0.01292744    0.00001288
     atom   18 type  3   force =     0.01383564   -0.01292744   -0.00001288
     atom   19 type  3   force =     0.00507916   -0.00472550    0.00000703
     atom   20 type  3   force =    -0.00507916    0.00472550   -0.00000703
     The non-local contrib.  to forces
     atom    1 type  1   force =    -0.02207105    0.01545040   -0.01230122
     atom    2 type  1   force =    -0.01693719    0.02096360    0.01230070
     atom    3 type  1   force =     0.02207105   -0.01545040    0.01230122
     atom    4 type  1   force =     0.01693719   -0.02096360   -0.01230070
     atom    5 type  2   force =    -0.04681236   -0.07038282   -0.05642060
     atom    6 type  2   force =     0.06704010    0.05168240    0.05631248
     atom    7 type  2   force =     0.04681236    0.07038282    0.05642060
     atom    8 type  2   force =    -0.06704010   -0.05168240   -0.05631248
     atom    9 type  2   force =    -0.00362301    0.00338792   -0.00000299
     atom   10 type  2   force =     0.00362301   -0.00338792    0.00000299
     atom   11 type  3   force =    -0.05391649    0.03074677    0.03664328
     atom   12 type  3   force =    -0.03439060    0.05166690   -0.03664458
     atom   13 type  3   force =     0.05391649   -0.03074677   -0.03664328
     atom   14 type  3   force =     0.03439060   -0.05166690    0.03664458
     atom   15 type  3   force =    -0.05425261    0.05064181    0.00000520
     atom   16 type  3   force =     0.05425261   -0.05064181   -0.00000520
     atom   17 type  3   force =     0.01739313   -0.01623515    0.00001034
     atom   18 type  3   force =    -0.01739313    0.01623515   -0.00001034
     atom   19 type  3   force =     0.04057931   -0.03788687   -0.00000375
     atom   20 type  3   force =    -0.04057931    0.03788687    0.00000375
     The ionic contribution  to forces
     atom    1 type  1   force =     1.76077322   -0.22362306   -2.56987822
     atom    2 type  1   force =     0.34420017   -1.74122251    2.56987822
     atom    3 type  1   force =    -1.76077322    0.22362306    2.56987822
     atom    4 type  1   force =    -0.34420017    1.74122251   -2.56987822
     atom    5 type  2   force =    -7.62146932   -3.16391989   -0.33380526
     atom    6 type  2   force =     2.63221948    7.82103602    0.33380525
     atom    7 type  2   force =     7.62146932    3.16391989    0.33380525
     atom    8 type  2   force =    -2.63221947   -7.82103601   -0.33380525
     atom    9 type  2   force =    -0.91297209    0.85219566    0.00000000
     atom   10 type  2   force =     0.91297209   -0.85219566    0.00000000
     atom   11 type  3   force =    -1.37356958    1.65500915   -0.57390132
     atom   12 type  3   force =    -1.74556446    1.25648453    0.57390132
     atom   13 type  3   force =     1.37356958   -1.65500915    0.57390132
     atom   14 type  3   force =     1.74556446   -1.25648454   -0.57390132
     atom   15 type  3   force =    -1.72107092    1.60649945   -0.00000000
     atom   16 type  3   force =     1.72107092   -1.60649945    0.00000000
     atom   17 type  3   force =     0.89853753   -0.83872200    0.00000000
     atom   18 type  3   force =    -0.89853753    0.83872200   -0.00000000
     atom   19 type  3   force =     1.61453600   -1.50705654    0.00000000
     atom   20 type  3   force =    -1.61453600    1.50705654    0.00000000
     The local contribution  to forces
     atom    1 type  1   force =    -1.75923246    0.20279486    2.56993107
     atom    2 type  1   force =    -0.32358210    1.74121139   -2.56982032
     atom    3 type  1   force =     1.75933323   -0.20283054   -2.56993834
     atom    4 type  1   force =     0.32337118   -1.74130300    2.56995544
     atom    5 type  2   force =     7.65250938    3.22840415    0.40143397
     atom    6 type  2   force =    -2.69480627   -7.85691399   -0.40096099
     atom    7 type  2   force =    -7.65238440   -3.22850430   -0.40147377
     atom    8 type  2   force =     2.69440840    7.85687976    0.40119965
     atom    9 type  2   force =     0.92673175   -0.86472416   -0.00009896
     atom   10 type  2   force =    -0.92628730    0.86495969   -0.00013172
     atom   11 type  3   force =     1.44527979   -1.72912824    0.53797447
     atom   12 type  3   force =     1.82447491   -1.32298453   -0.53795708
     atom   13 type  3   force =    -1.44521525    1.72912157   -0.53796240
     atom   14 type  3   force =    -1.82453694    1.32298434    0.53792779
     atom   15 type  3   force =     1.75853175   -1.64144363    0.00008346
     atom   16 type  3   force =    -1.75841657    1.64147433   -0.00007473
     atom   17 type  3   force =    -0.92772224    0.86603360    0.00008981
     atom   18 type  3   force =     0.92762631   -0.86598963   -0.00008728
     atom   19 type  3   force =    -1.64458073    1.53525168   -0.00001630
     atom   20 type  3   force =     1.64461405   -1.53524305   -0.00007742
     The core correction contribution to forces
     atom    1 type  1   force =     0.00000000    0.00000000    0.00000000
     atom    2 type  1   force =     0.00000000    0.00000000    0.00000000
     atom    3 type  1   force =     0.00000000    0.00000000    0.00000000
     atom    4 type  1   force =     0.00000000    0.00000000    0.00000000
     atom    5 type  2   force =     0.00096545    0.00561638    0.00040313
     atom    6 type  2   force =    -0.00553645   -0.00134936   -0.00040397
     atom    7 type  2   force =    -0.00096564   -0.00561626   -0.00040355
     atom    8 type  2   force =     0.00553753    0.00134888    0.00040329
     atom    9 type  2   force =    -0.00006620    0.00006200   -0.00000018
     atom   10 type  2   force =     0.00006610   -0.00006148    0.00000009
     atom   11 type  3   force =     0.00586116   -0.00367124   -0.00379131
     atom   12 type  3   force =     0.00406704   -0.00559437    0.00379138
     atom   13 type  3   force =    -0.00586180    0.00367053    0.00379086
     atom   14 type  3   force =    -0.00406631    0.00559513   -0.00379150
     atom   15 type  3   force =     0.00631568   -0.00589542   -0.00000087
     atom   16 type  3   force =    -0.00631608    0.00589637   -0.00000080
     atom   17 type  3   force =    -0.00203923    0.00190398   -0.00000066
     atom   18 type  3   force =     0.00203895   -0.00190375    0.00000038
     atom   19 type  3   force =    -0.00513642    0.00479690    0.00000066
     atom   20 type  3   force =     0.00513719   -0.00479616   -0.00000067
     The Hubbard contrib.    to forces
     atom    1 type  1   force =     0.00000000    0.00000000    0.00000000
     atom    2 type  1   force =     0.00000000    0.00000000    0.00000000
     atom    3 type  1   force =     0.00000000    0.00000000    0.00000000
     atom    4 type  1   force =     0.00000000    0.00000000    0.00000000
     atom    5 type  2   force =     0.00000000    0.00000000    0.00000000
     atom    6 type  2   force =     0.00000000    0.00000000    0.00000000
     atom    7 type  2   force =     0.00000000    0.00000000    0.00000000
     atom    8 type  2   force =     0.00000000    0.00000000    0.00000000
     atom    9 type  2   force =     0.00000000    0.00000000    0.00000000
     atom   10 type  2   force =     0.00000000    0.00000000    0.00000000
     atom   11 type  3   force =     0.00000000    0.00000000    0.00000000
     atom   12 type  3   force =     0.00000000    0.00000000    0.00000000
     atom   13 type  3   force =     0.00000000    0.00000000    0.00000000
     atom   14 type  3   force =     0.00000000    0.00000000    0.00000000
     atom   15 type  3   force =     0.00000000    0.00000000    0.00000000
     atom   16 type  3   force =     0.00000000    0.00000000    0.00000000
     atom   17 type  3   force =     0.00000000    0.00000000    0.00000000
     atom   18 type  3   force =     0.00000000    0.00000000    0.00000000
     atom   19 type  3   force =     0.00000000    0.00000000    0.00000000
     atom   20 type  3   force =     0.00000000    0.00000000    0.00000000
     The SCF correction term to forces
     atom    1 type  1   force =    -0.00032373   -0.00037428    0.00026176
     atom    2 type  1   force =     0.00061370    0.00025334   -0.00036053
     atom    3 type  1   force =     0.00022851    0.00041444   -0.00025150
     atom    4 type  1   force =    -0.00040584   -0.00016741    0.00023341
     atom    5 type  2   force =     0.00068503    0.00013315   -0.00032840
     atom    6 type  2   force =     0.00032055   -0.00019730   -0.00016374
     atom    7 type  2   force =    -0.00080716   -0.00001841    0.00035815
     atom    8 type  2   force =     0.00011158    0.00020464   -0.00008461
     atom    9 type  2   force =    -0.00022226   -0.00012829    0.00010923
     atom   10 type  2   force =    -0.00025665   -0.00011760    0.00013675
     atom   11 type  3   force =     0.00008419    0.00036290   -0.00018946
     atom   12 type  3   force =    -0.00037473   -0.00005612    0.00017232
     atom   13 type  3   force =    -0.00015845   -0.00035894    0.00017133
     atom   14 type  3   force =     0.00043767    0.00006052   -0.00014779
     atom   15 type  3   force =     0.00025210   -0.00025308   -0.00008098
     atom   16 type  3   force =    -0.00035613    0.00023243    0.00006048
     atom   17 type  3   force =    -0.00000951   -0.00004667   -0.00008937
     atom   18 type  3   force =     0.00009636    0.00001512    0.00008161
     atom   19 type  3   force =    -0.00031154    0.00017338    0.00001907
     atom   20 type  3   force =     0.00029236   -0.00017465    0.00005996

     Total force =     0.127888     Total SCF correction =     0.002131

     Computing stress (Cartesian axis) and pressure

          total   stress  (Ry/bohr**3)                   (kbar)     P=     -183.59
  -0.00127678  -0.00026751   0.00020198         -187.82      -39.35       29.71
  -0.00026751  -0.00131367   0.00021643          -39.35     -193.25       31.84
   0.00020198   0.00021643  -0.00115359           29.71       31.84     -169.70

     kinetic stress (kbar)  21861.79     51.66      0.20
                               51.66  21868.91      0.21
                                0.20      0.21  22104.99

     local   stress (kbar)  -7011.78  -4324.13  -3859.59
                            -4324.13  -7608.04  -4134.83
                            -3859.59  -4134.83 -15053.37

     nonloc. stress (kbar)   6142.59     33.39     14.95
                               33.39   6147.20     16.03
                               14.95     16.03   6239.83

     hartree stress (kbar)  20738.53   2186.44   1884.05
                             2186.44  21040.03   2018.40
                             1884.05   2018.40  24870.39

     exc-cor stress (kbar)  -2836.43      0.45     -0.79
                                0.45  -2836.37     -0.84
                               -0.79     -0.84  -2837.50

     corecor stress (kbar)  -3909.54     -0.51      1.46
                               -0.51  -3909.61      1.56
                                1.46      1.56  -3907.50

     ewald   stress (kbar) -35172.98   2013.34   1989.43
                             2013.34 -34895.37   2131.31
                             1989.43   2131.31 -31586.53

     hubbard stress (kbar)      0.00      0.00      0.00
                                0.00      0.00      0.00
                                0.00      0.00      0.00

     DFT-D   stress (kbar)      0.00      0.00      0.00
                                0.00      0.00      0.00
                                0.00      0.00      0.00

     XDM     stress (kbar)      0.00      0.00      0.00
                                0.00      0.00      0.00
                                0.00      0.00      0.00

     dft-nl  stress (kbar)      0.00      0.00      0.00
                                0.00      0.00      0.00
                                0.00      0.00      0.00

     TS-vdW  stress (kbar)      0.00      0.00      0.00
                                0.00      0.00      0.00
                                0.00      0.00      0.00

[...]

                                0.00      0.00      0.00

     Writing all to output data dir new_calculations/myprefix.save/

     General routines

     Parallel routines

   This run was terminated on:  10: 2: 5  20May2023

   JOB DONE.