     Program PWSCF v.7.0 starts on 20May2023 at 14:50:36

     Reading input from espresso_2508.pwi
Warning: card &CELL ignored
Warning: card / ignored

     Current dimensions of program PWSCF are:
     Max number of different atomic species (ntypx) = 10
     Max number of k-points (npk) =  40000
     Max angular momentum in pseudopotentials (lmaxx) =  4

     gamma-point specific algorithms are used
     Message from routine setup:
     using ibrav=0 with symmetry is DISCOURAGED, use correct ibrav instead

     Subspace diagonalization in iterative solution of the eigenvalue problem:
     a serial algorithm will be used

     Using Slab Decomposition

     bravais-lattice index     =            0
     lattice parameter (alat)  =      15.3993  a.u.
     unit-cell volume          =    1855.2209 (a.u.)^3
     number of atoms/cell      =           10
     number of atomic types    =            2
     number of electrons       =        86.00
     number of Kohn-Sham states=           52
     kinetic-energy cutoff     =      30.0000  Ry
     charge density cutoff     =     240.0000  Ry
     scf convergence threshold =      1.0E-06
     mixing beta               =       0.7000
     number of iterations used =            8  plain     mixing
     Exchange-correlation=  SLA  PW   PBX  PBC
                           (   1   4   3   4   0   0   0)

     celldm(1)=  15.399336  celldm(2)=   0.000000  celldm(3)=   0.000000
     celldm(4)=   0.000000  celldm(5)=   0.000000  celldm(6)=   0.000000

     crystal axes: (cart. coord. in units of alat)
               a(1) = (   1.000000   0.000000   0.000000 )
               a(2) = (   0.887812   0.460206   0.000000 )
               a(3) = (   0.615570   0.150062   1.103919 )

     reciprocal axes: (cart. coord. in units 2 pi/alat)
               b(1) = (  1.000000 -1.929161 -0.295381 )
               b(2) = (  0.000000  2.172938 -0.295381 )
               b(3) = (  0.000000  0.000000  0.905864 )

     PseudoPot. # 1 for Y  read from file:
     /home/pragov/projects/rrg-bengioy-ad/pragov/crystal_structure_design/SSSP/Y_pbe_v1.uspp.F.UPF
     MD5 check sum: 2cf71db95cafeb975fc457bd7f14888e
     Pseudo is Ultrasoft + core correction, Zval = 11.0
     Generated by new atomic code, or converted to UPF format
     Using radial grid of  885 points,  6 beta functions with:
                l(1) =   0
                l(2) =   0
                l(3) =   1
                l(4) =   1
                l(5) =   2
                l(6) =   2
     Q(r) pseudized with  6 coefficients,  rinner =    1.200   1.200   1.200
                                                       1.200   1.200

     PseudoPot. # 2 for Cl read from file:
     /home/pragov/projects/rrg-bengioy-ad/pragov/crystal_structure_design/SSSP/cl_pbe_v1.4.uspp.F.UPF
     MD5 check sum: fc6f6913ecf08c9257cb748ef0700058
     Pseudo is Ultrasoft + core correction, Zval =  7.0
     Generated by new atomic code, or converted to UPF format
     Using radial grid of  909 points,  6 beta functions with:
                l(1) =   0
                l(2) =   0
                l(3) =   1
                l(4) =   1
                l(5) =   2
                l(6) =   2
     Q(r) pseudized with  8 coefficients,  rinner =    1.300   1.300   1.300
                                                       1.300   1.300

     atomic species   valence    mass     pseudopotential
        Y             11.00    88.90584     Y ( 1.00)
        Cl             7.00    35.45000     Cl( 1.00)

      2 Sym. Ops., with inversion, found

                                    s                        frac. trans.

      isym =  1     identity

 cryst.   s( 1) = (     1          0          0      )
                  (     0          1          0      )
                  (     0          0          1      )

 cart.    s( 1) = (  1.0000000 -0.0000000  0.0000000 )
                  (  0.0000000  1.0000000 -0.0000000 )
                  (  0.0000000  0.0000000  1.0000000 )

      isym =  2     inversion

 cryst.   s( 2) = (    -1          0          0      )
                  (     0         -1          0      )
                  (     0          0         -1      )

 cart.    s( 2) = ( -1.0000000  0.0000000 -0.0000000 )
                  (  0.0000000 -1.0000000  0.0000000 )
                  (  0.0000000  0.0000000 -1.0000000 )

   Cartesian axes

     site n.     atom                  positions (alat units)
         1           Y   tau(   1) = (   1.8065556   0.4403978   0.3204996  )
         2           Y   tau(   2) = (   0.6968268   0.1698708   0.7834190  )
         3           Y   tau(   3) = (   1.1338446   0.2764059   0.0533281  )
         4           Y   tau(   4) = (   1.3695378   0.3338627   1.0505905  )
         5           Cl  tau(   5) = (   0.2418837   0.0589658   0.2885941  )
         6           Cl  tau(   6) = (   2.2614988   0.5513028   0.8153245  )
         7           Cl  tau(   7) = (   0.9659237   0.2354706   0.9740724  )
         8           Cl  tau(   8) = (   1.5374587   0.3747980   0.1298462  )
         9           Cl  tau(   9) = (   1.5531950   0.3786342   0.5446491  )
        10           Cl  tau(  10) = (   0.9501874   0.2316344   0.5592694  )

   Crystallographic axes

     site n.     atom                  positions (cryst. coord.)
         1           Y   tau(   1) = (  0.8622880  0.8622880  0.2903290  )
         2           Y   tau(   2) = (  0.1377120  0.1377120  0.7096710  )
         3           Y   tau(   3) = (  0.5848610  0.5848610  0.0483080  )
         4           Y   tau(   4) = (  0.4151390  0.4151390  0.9516920  )
         5           Cl  tau(   5) = (  0.0428840  0.0428840  0.2614270  )
         6           Cl  tau(   6) = (  0.9571160  0.9571160  0.7385730  )
         7           Cl  tau(   7) = (  0.2239410  0.2239410  0.8823770  )
         8           Cl  tau(   8) = (  0.7760590  0.7760590  0.1176230  )
         9           Cl  tau(   9) = (  0.6618700  0.6618700  0.4933780  )
        10           Cl  tau(  10) = (  0.3381300  0.3381300  0.5066220  )

     number of k points=     1  Methfessel-Paxton smearing, width (Ry)=  0.0010
                       cart. coord. in units 2pi/alat
        k(    1) = (   0.0000000   0.0000000   0.0000000), wk =   2.0000000

                       cryst. coord.
        k(    1) = (   0.0000000   0.0000000   0.0000000), wk =   2.0000000

     Check: negative core charge=   -0.000004

     Initial potential from superposition of free atoms

     starting charge      85.9821, renormalised to      86.0000

     negative rho (up, down):  2.637E-01 0.000E+00
     Starting wfcs are   76 randomized atomic wfcs

     Self-consistent Calculation

     iteration #  1     ecut=    30.00 Ry     beta= 0.70
     Davidson diagonalization with overlap

     ethr =  1.00E-02,  avg # of iterations =  2.0

     Threshold (ethr) on eigenvalues was too large:
     Diagonalizing with lowered threshold

     Davidson diagonalization with overlap

[...]

     negative rho (up, down):  2.677E-01 0.000E+00

     total energy              =    -550.78610410 Ry
     estimated scf accuracy    <       0.40209722 Ry

[...]

     total energy              =    -550.90113485 Ry
     estimated scf accuracy    <       0.00000354 Ry

     iteration # 11     ecut=    30.00 Ry     beta= 0.70
     Davidson diagonalization with overlap

     ethr =  4.12E-09,  avg # of iterations =  2.0

[...]

     End of self-consistent calculation

          k = 0.0000 0.0000 0.0000 (  2583 PWs)   bands (ev):

   -36.0463 -36.0396 -36.0014 -35.9796 -16.2462 -16.2104 -16.2048 -16.1435
   -16.0727 -15.9916 -15.9541 -15.9170 -15.9085 -15.8674 -15.7911 -15.7763
    -9.7468  -9.3645  -9.3113  -9.2093  -8.8226  -8.5999   0.9686   1.1975
     1.2089   1.5484   1.8312   2.1647   2.3103   2.3143   2.3386   2.5048
     2.5472   2.5621   2.9050   2.9790   3.0981   3.2158   3.5550   3.7726
     5.8090   6.8380   7.3055   8.3485   8.4778   8.7025   8.8283   9.3680
     9.3869   9.5294   9.7671   9.7891

     occupation numbers
     1.0000   1.0000   1.0000   1.0000   1.0000   1.0000   1.0000   1.0000
     1.0000   1.0000   1.0000   1.0000   1.0000   1.0000   1.0000   1.0000
     1.0000   1.0000   1.0000   1.0000   1.0000   1.0000   1.0000   1.0000
     1.0000   1.0000   1.0000   1.0000   1.0000   1.0000   1.0000   1.0000
     1.0000   1.0000   1.0000   1.0000   1.0000   1.0000   1.0000   1.0000
     1.0000   1.0000   1.0000  -0.0000  -0.0000  -0.0000  -0.0000  -0.0000
    -0.0000  -0.0000  -0.0000  -0.0000

     the Fermi energy is     7.7639 ev

!    total energy              =    -550.90113538 Ry
     estimated scf accuracy    <       0.00000008 Ry
     smearing contrib. (-TS)   =       0.00000000 Ry
     internal energy E=F+TS    =    -550.90113538 Ry

     The total energy is F=E-TS. E is the sum of the following terms:
     one-electron contribution =    -165.96834181 Ry
     hartree contribution      =     110.92310078 Ry
     xc contribution           =    -144.83359555 Ry
     ewald contribution        =    -351.02229879 Ry

     convergence has been achieved in  11 iterations

     negative rho (up, down):  2.662E-01 0.000E+00

     Forces acting on atoms (cartesian axes, Ry/au):

     atom    1 type  1   force =    -0.00725623   -0.00177112    0.01957432
     atom    2 type  1   force =     0.00725623    0.00177112   -0.01957432
     atom    3 type  1   force =     0.04137337    0.01008651    0.03087992
     atom    4 type  1   force =    -0.04137337   -0.01008651   -0.03087992
     atom    5 type  2   force =    -0.00807015   -0.00196760   -0.02947694
     atom    6 type  2   force =     0.00807015    0.00196760    0.02947694
     atom    7 type  2   force =    -0.01198391   -0.00291889    0.02452840
     atom    8 type  2   force =     0.01198391    0.00291889   -0.02452840
     atom    9 type  2   force =     0.01128182    0.00274687    0.00159394
     atom   10 type  2   force =    -0.01128182   -0.00274687   -0.00159394
     The non-local contrib.  to forces
     atom    1 type  1   force =     0.01152221    0.00281162    0.16768401
     atom    2 type  1   force =    -0.01152221   -0.00281162   -0.16768401
     atom    3 type  1   force =     0.07145883    0.01741989    0.00152201
     atom    4 type  1   force =    -0.07145883   -0.01741989   -0.00152201
     atom    5 type  2   force =    -0.07158786   -0.01744963   -0.04439856
     atom    6 type  2   force =     0.07158786    0.01744963    0.04439856
     atom    7 type  2   force =    -0.10544155   -0.02570212    0.00973565
     atom    8 type  2   force =     0.10544155    0.02570212   -0.00973565
     atom    9 type  2   force =     0.05882449    0.01433677   -0.02441700
     atom   10 type  2   force =    -0.05882449   -0.01433677    0.02441700
     The ionic contribution  to forces
     atom    1 type  1   force =    -0.50137283   -0.12222348    2.78089359
     atom    2 type  1   force =     0.50137283    0.12222348   -2.78089359
     atom    3 type  1   force =     2.36341360    0.57614738    1.46825778
     atom    4 type  1   force =    -2.36341360   -0.57614738   -1.46825778
     atom    5 type  2   force =     5.60498362    1.36636964    7.03632835
     atom    6 type  2   force =    -5.60498362   -1.36636964   -7.03632835
     atom    7 type  2   force =     4.79955017    1.17002299   -3.12391374
     atom    8 type  2   force =    -4.79955017   -1.17002298    3.12391374
     atom    9 type  2   force =    -5.83552340   -1.42257009   -2.60719662
     atom   10 type  2   force =     5.83552340    1.42257009    2.60719662
     The local contribution  to forces
     atom    1 type  1   force =     0.48416027    0.11803045   -2.91769406
     atom    2 type  1   force =    -0.48394816   -0.11796499    2.91755942
     atom    3 type  1   force =    -2.39132741   -0.58295673   -1.43967402
     atom    4 type  1   force =     2.39136149    0.58295455    1.43999298
     atom    5 type  2   force =    -5.54211086   -1.35104649   -7.02122045
     atom    6 type  2   force =     5.54204583    1.35102947    7.02118818
     atom    7 type  2   force =    -4.70799043   -1.14769946    3.13860206
     atom    8 type  2   force =     4.70785920    1.14767183   -3.13850090
     atom    9 type  2   force =     5.78823714    1.41104179    2.63185203
     atom   10 type  2   force =    -5.78819159   -1.41103165   -2.63176887
     The core correction contribution to forces
     atom    1 type  1   force =    -0.00129895   -0.00031616   -0.01151095
     atom    2 type  1   force =     0.00129459    0.00031741    0.01150315
     atom    3 type  1   force =    -0.00215268   -0.00052532    0.00102640
     atom    4 type  1   force =     0.00215231    0.00052438   -0.00102239
     atom    5 type  2   force =     0.00067682    0.00016491   -0.00031482
     atom    6 type  2   force =    -0.00067127   -0.00016367    0.00031956
     atom    7 type  2   force =     0.00196686    0.00047909    0.00035791
     atom    8 type  2   force =    -0.00196714   -0.00047950   -0.00036311
     atom    9 type  2   force =    -0.00035352   -0.00008582    0.00138037
     atom   10 type  2   force =     0.00035277    0.00008564   -0.00136724
     The Hubbard contrib.    to forces
     atom    1 type  1   force =     0.00000000    0.00000000    0.00000000
     atom    2 type  1   force =     0.00000000    0.00000000    0.00000000
     atom    3 type  1   force =     0.00000000    0.00000000    0.00000000
     atom    4 type  1   force =     0.00000000    0.00000000    0.00000000
     atom    5 type  2   force =     0.00000000    0.00000000    0.00000000
     atom    6 type  2   force =     0.00000000    0.00000000    0.00000000
     atom    7 type  2   force =     0.00000000    0.00000000    0.00000000
     atom    8 type  2   force =     0.00000000    0.00000000    0.00000000
     atom    9 type  2   force =     0.00000000    0.00000000    0.00000000
     atom   10 type  2   force =     0.00000000    0.00000000    0.00000000
     The SCF correction term to forces
     atom    1 type  1   force =    -0.00031088   -0.00007602    0.00015468
     atom    2 type  1   force =     0.00001524    0.00000436   -0.00010634
     atom    3 type  1   force =    -0.00002540   -0.00000342   -0.00028434
     atom    4 type  1   force =    -0.00002118   -0.00000290   -0.00010282
     atom    5 type  2   force =     0.00002900    0.00000816    0.00019539
     atom    6 type  2   force =     0.00015220    0.00003603   -0.00003416
     atom    7 type  2   force =    -0.00005882   -0.00001638   -0.00031014
     atom    8 type  2   force =     0.00021062    0.00005042    0.00010087
     atom    9 type  2   force =     0.00008579    0.00002104    0.00014409
     atom   10 type  2   force =    -0.00015323   -0.00003736    0.00009747

     Total force =     0.100350     Total SCF correction =     0.000718

     Computing stress (Cartesian axis) and pressure

     negative rho (up, down):  2.662E-01 0.000E+00
          total   stress  (Ry/bohr**3)                   (kbar)     P=       27.98
   0.00002107  -0.00016129   0.00003061            3.10      -23.73        4.50
  -0.00016129   0.00064339   0.00000746          -23.73       94.65        1.10
   0.00003061   0.00000746  -0.00009385            4.50        1.10      -13.81

     kinetic stress (kbar)   8180.99    -67.94     -6.12
                              -67.94   8443.11     -1.49
                               -6.12     -1.49   8222.68

     local   stress (kbar)  -4941.97   1228.40   2719.03
                             1228.40  -9681.53    662.84
                             2719.03    662.84  -6344.67

     nonloc. stress (kbar)   7672.79      3.24     -1.69
                                3.24   7660.30     -0.41
                               -1.69     -0.41   7702.24

     hartree stress (kbar)   2046.09   -546.84  -1159.29
                             -546.84   4155.97   -282.61
                            -1159.29   -282.61   2593.31

     exc-cor stress (kbar)   3086.99      0.04     -0.62
                                0.04   3086.85     -0.15
                               -0.62     -0.15   3089.18

     corecor stress (kbar)  -5684.45     -0.04      0.10
                               -0.04  -5684.30      0.02
                                0.10      0.02  -5686.20

     ewald   stress (kbar) -10357.34   -640.59  -1546.90
                             -640.59  -7885.75   -377.10
                            -1546.90   -377.10  -9590.34

     hubbard stress (kbar)      0.00      0.00      0.00
                                0.00      0.00      0.00
                                0.00      0.00      0.00

     DFT-D   stress (kbar)      0.00      0.00      0.00
                                0.00      0.00      0.00
                                0.00      0.00      0.00

     XDM     stress (kbar)      0.00      0.00      0.00
                                0.00      0.00      0.00
                                0.00      0.00      0.00

     dft-nl  stress (kbar)      0.00      0.00      0.00
                                0.00      0.00      0.00
                                0.00      0.00      0.00

     TS-vdW  stress (kbar)      0.00      0.00      0.00
                                0.00      0.00      0.00
                                0.00      0.00      0.00

[...]

                                0.00      0.00      0.00

     Writing all to output data dir new_calculations/myprefix.save/

     General routines

     Parallel routines

   This run was terminated on:  14:51:27  20May2023

   JOB DONE.