     Program PWSCF v.7.0 starts on 20May2023 at 19:29: 6

     Reading input from espresso_18547.pwi
Warning: card &CELL ignored
Warning: card / ignored

     Current dimensions of program PWSCF are:
     Max number of different atomic species (ntypx) = 10
     Max number of k-points (npk) =  40000
     Max angular momentum in pseudopotentials (lmaxx) =  4

     gamma-point specific algorithms are used
     Message from routine setup:
     using ibrav=0 with symmetry is DISCOURAGED, use correct ibrav instead

     Subspace diagonalization in iterative solution of the eigenvalue problem:
     a serial algorithm will be used

     Using Slab Decomposition

     bravais-lattice index     =            0
     lattice parameter (alat)  =      15.1900  a.u.
     unit-cell volume          =    4480.3412 (a.u.)^3
     number of atoms/cell      =           14
     number of atomic types    =            3
     number of electrons       =       112.00
     number of Kohn-Sham states=           67
     kinetic-energy cutoff     =      30.0000  Ry
     charge density cutoff     =     240.0000  Ry
     scf convergence threshold =      1.0E-06
     mixing beta               =       0.7000
     number of iterations used =            8  plain     mixing
     Exchange-correlation= SLA  PW   PBX  PBC
                           (   1   4   3   4   0   0   0)

     celldm(1)=  15.190002  celldm(2)=   0.000000  celldm(3)=   0.000000
     celldm(4)=   0.000000  celldm(5)=   0.000000  celldm(6)=   0.000000

     crystal axes: (cart. coord. in units of alat)
               a(1) = (   1.000000   0.000000   0.000000 )
               a(2) = (  -0.844589   0.535415   0.000000 )
               a(3) = (   0.000000   0.000000   2.387520 )

     reciprocal axes: (cart. coord. in units 2 pi/alat)
               b(1) = (  1.000000  1.577448  0.000000 )
               b(2) = (  0.000000  1.867710  0.000000 )
               b(3) = (  0.000000  0.000000  0.418845 )

     PseudoPot. # 1 for Ca read from file:
     /home/pragov/projects/rrg-bengioy-ad/pragov/crystal_structure_design/SSSP/Ca_pbe_v1.uspp.F.UPF
     MD5 check sum: 403a4c14b9e4d4dfdc3024c9a3812218
     Pseudo is Ultrasoft + core correction, Zval = 10.0
     Generated by new atomic code, or converted to UPF format
     Using radial grid of  845 points,  6 beta functions with:
                l(1) =   0
                l(2) =   0
                l(3) =   1
                l(4) =   1
                l(5) =   2
                l(6) =   2
     Q(r) pseudized with  8 coefficients,  rinner =    1.500   1.500   1.500
                                                       1.500   1.500

     PseudoPot. # 2 for La read from file:
     /home/pragov/projects/rrg-bengioy-ad/pragov/crystal_structure_design/SSSP/La.GGA-PBE-paw-v1.0.UPF
     MD5 check sum: 436541e95c1ad8901025bd0b0ed42ae2
     Pseudo is Projector augmented-wave + core cor, Zval = 11.0
     Generated using ATOMPAW code
     Shape of augmentation charge: BESSEL
     Using radial grid of 1101 points,  8 beta functions with:
                l(1) =   0
                l(2) =   0
                l(3) =   1
                l(4) =   1
                l(5) =   2
                l(6) =   2
                l(7) =   3
                l(8) =   3
     Q(r) pseudized with 0 coefficients

     PseudoPot. # 3 for I  read from file:
     /home/pragov/projects/rrg-bengioy-ad/pragov/crystal_structure_design/SSSP/I.pbe-n-kjpaw_psl.0.2.UPF
     MD5 check sum: d4ef18d9c8f18dc85e5843bca1e50dc0
     Pseudo is Projector augmented-wave + core cor, Zval =  7.0
     Generated using "atomic" code by A. Dal Corso  v.5.0.99 svn rev. 10869
     Shape of augmentation charge: PSQ
     Using radial grid of 1247 points,  4 beta functions with:
                l(1) =   0
                l(2) =   0
                l(3) =   1
                l(4) =   1
     Q(r) pseudized with 0 coefficients

     atomic species   valence    mass     pseudopotential
        Ca            10.00    40.07800     Ca( 1.00)
        La            11.00   138.90547     La( 1.00)
        I              7.00   126.90447     I ( 1.00)

      4 Sym. Ops., with inversion, found ( 2 have fractional translation)

                                    s                        frac. trans.

      isym =  1     identity

 cryst.   s( 1) = (     1          0          0      )
                  (     0          1          0      )
                  (     0          0          1      )

 cart.    s( 1) = (  1.0000000 -0.0000000  0.0000000 )
                  (  0.0000000  1.0000000  0.0000000 )
                  (  0.0000000  0.0000000  1.0000000 )

      isym =  2     180 deg rotation - cart. axis [0,0,1]

 cryst.   s( 2) = (    -1          0          0      )    f =(  0.0000000 )
                  (     0         -1          0      )       (  0.0000000 )
                  (     0          0          1      )       (  0.5000000 )

 cart.    s( 2) = ( -1.0000000  0.0000000  0.0000000 )    f =(  0.0000000 )
                  (  0.0000000 -1.0000000  0.0000000 )       (  0.0000000 )
                  (  0.0000000  0.0000000  1.0000000 )       (  1.1937601 )

      isym =  3     inversion

 cryst.   s( 3) = (    -1          0          0      )
                  (     0         -1          0      )
                  (     0          0         -1      )

 cart.    s( 3) = ( -1.0000000  0.0000000  0.0000000 )
                  (  0.0000000 -1.0000000  0.0000000 )
                  (  0.0000000  0.0000000 -1.0000000 )

      isym =  4     inv. 180 deg rotation - cart. axis [0,0,1]

 cryst.   s( 4) = (     1          0          0      )    f =(  0.0000000 )
                  (     0          1          0      )       (  0.0000000 )
                  (     0          0         -1      )       ( -0.5000000 )

 cart.    s( 4) = (  1.0000000 -0.0000000  0.0000000 )    f =(  0.0000000 )
                  (  0.0000000  1.0000000  0.0000000 )       (  0.0000000 )
                  (  0.0000000  0.0000000 -1.0000000 )       ( -1.1937601 )

   Cartesian axes

     site n.     atom                  positions (alat units)
         1           Ca  tau(   1) = (   0.0961569   0.2623517   0.5968801  )
         2           Ca  tau(   2) = (   0.0592540   0.2730633   1.7906402  )
         3           La  tau(   3) = (   0.0000000   0.0000000   0.0000000  )
         4           La  tau(   4) = (   0.0000000   0.0000000   1.1937601  )
         5           I   tau(   5) = (   0.8250186   0.0507905   0.3535440  )
         6           I   tau(   6) = (   0.7284101   0.0788324   1.7906402  )
         7           I   tau(   7) = (   0.8250186   0.0507905   0.8402161  )
         8           I   tau(   8) = (   0.3126083   0.1995240   0.1359836  )
         9           I   tau(   9) = (   0.3126083   0.1995240   1.0577765  )
        10           I   tau(  10) = (  -0.1571974   0.3358910   1.3297437  )
        11           I   tau(  11) = (  -0.1571974   0.3358910   2.2515366  )
        12           I   tau(  12) = (  -0.5729992   0.4565826   0.5968801  )
        13           I   tau(  13) = (  -0.6696077   0.4846245   1.5473041  )
        14           I   tau(  14) = (  -0.6696077   0.4846245   2.0339762  )

   Crystallographic axes

     site n.     atom                  positions (cryst. coord.)
         1           Ca  tau(   1) = (  0.5100030  0.4899970  0.2500000  )
         2           Ca  tau(   2) = (  0.4899970  0.5100030  0.7500000  )
         3           La  tau(   3) = (  0.0000000  0.0000000  0.0000000  )
         4           La  tau(   4) = (  0.0000000  0.0000000  0.5000000  )
         5           I   tau(   5) = (  0.9051380  0.0948620  0.1480800  )
         6           I   tau(   6) = (  0.8527640  0.1472360  0.7500000  )
         7           I   tau(   7) = (  0.9051380  0.0948620  0.3519200  )
         8           I   tau(   8) = (  0.6273470  0.3726530  0.0569560  )
         9           I   tau(   9) = (  0.6273470  0.3726530  0.4430440  )
        10           I   tau(  10) = (  0.3726530  0.6273470  0.5569560  )
        11           I   tau(  11) = (  0.3726530  0.6273470  0.9430440  )
        12           I   tau(  12) = (  0.1472360  0.8527640  0.2500000  )
        13           I   tau(  13) = (  0.0948620  0.9051380  0.6480800  )
        14           I   tau(  14) = (  0.0948620  0.9051380  0.8519200  )

     number of k points=     1  Methfessel-Paxton smearing, width (Ry)=  0.0010
                       cart. coord. in units 2pi/alat
        k(    1) = (   0.0000000   0.0000000   0.0000000), wk =   2.0000000

                       cryst. coord.
        k(    1) = (   0.0000000   0.0000000   0.0000000), wk =   2.0000000

     Check: negative core charge=   -0.000001

     Initial potential from superposition of free atoms

     starting charge     111.9713, renormalised to     112.0000
     Starting wfcs are  124 randomized atomic wfcs
     Checking if some PAW data can be deallocated...

     Self-consistent Calculation

     iteration #  1     ecut=    30.00 Ry     beta= 0.70
     Davidson diagonalization with overlap

     ethr =  1.00E-02,  avg # of iterations =  1.0

     Threshold (ethr) on eigenvalues was too large:
     Diagonalizing with lowered threshold

     Davidson diagonalization with overlap

[...]

     total energy              =   -4856.39129247 Ry
     estimated scf accuracy    <       0.35599637 Ry

[...]

     negative rho (up, down):  3.845E-06 0.000E+00

[...]

     c_bands:  4 eigenvalues not converged
     ethr =  1.37E-06,  avg # of iterations = 20.0

[...]

     total energy              =   -4856.49679524 Ry
     estimated scf accuracy    <       0.00000398 Ry

     iteration # 11     ecut=    30.00 Ry     beta= 0.70
     Davidson diagonalization with overlap

     ethr =  2.31E-09,  avg # of iterations =  2.0

[...]

     End of self-consistent calculation

          k = 0.0000 0.0000 0.0000 (  6237 PWs)   bands (ev):

   -38.0615 -38.0603 -29.5987 -29.5985 -19.0988 -19.0976 -19.0639 -19.0627
   -18.9410 -18.9398 -13.5332 -13.5330 -13.3980 -13.3974 -13.1931 -13.1930
    -9.1564  -9.1362  -8.7754  -8.7723  -8.7469  -8.6543  -8.5795  -8.4478
    -8.1082  -8.0953  -0.1587  -0.1220  -0.0616   0.1696   0.2778   0.3747
     0.5451   0.5785   0.5864   0.6680   0.9673   1.0084   1.0859   1.1780
     1.3966   1.4246   1.5113   1.5870   1.6581   1.7430   1.7916   1.8272
     1.9272   1.9541   2.0489   2.1028   2.1811   2.2217   2.2285   2.4262
     4.8290   4.8370   5.2636   5.2686   5.2877   5.3016   5.3141   5.3159
     5.3936   5.3988   5.4047

     occupation numbers
     1.0000   1.0000   1.0000   1.0000   1.0000   1.0000   1.0000   1.0000
     1.0000   1.0000   1.0000   1.0000   1.0000   1.0000   1.0000   1.0000
     1.0000   1.0000   1.0000   1.0000   1.0000   1.0000   1.0000   1.0000
     1.0000   1.0000   1.0000   1.0000   1.0000   1.0000   1.0000   1.0000
     1.0000   1.0000   1.0000   1.0000   1.0000   1.0000   1.0000   1.0000
     1.0000   1.0000   1.0000   1.0000   1.0000   1.0000   1.0000   1.0000
     1.0000   1.0000   1.0000   1.0000   1.0000   1.0000   1.0000   1.0000
    -0.0000  -0.0000  -0.0000  -0.0000  -0.0000  -0.0000  -0.0000  -0.0000
    -0.0000  -0.0000  -0.0000

     the Fermi energy is     2.8071 ev

!    total energy              =   -4856.49679501 Ry
     estimated scf accuracy    <       0.00000068 Ry
     smearing contrib. (-TS)   =       0.00000000 Ry
     internal energy E=F+TS    =   -4856.49679501 Ry

     The total energy is F=E-TS. E is the sum of the following terms:
     one-electron contribution =    -190.11456779 Ry
     hartree contribution      =     134.94502977 Ry
     xc contribution           =    -459.14070379 Ry
     ewald contribution        =    -340.66829928 Ry
     one-center paw contrib.   =   -4001.51825392 Ry
      -> PAW hartree energy AE =     168.83119756 Ry
      -> PAW hartree energy PS =    -169.55118189 Ry
      -> PAW xc energy AE      =   -4420.78279808 Ry
      -> PAW xc energy PS      =     419.98452849 Ry
      -> total E_H with PAW    =     134.22504543 Ry
      -> total E_XC with PAW   =   -4459.93897338 Ry

     convergence has been achieved in  11 iterations

     negative rho (up, down):  6.909E-05 0.000E+00

     Forces acting on atoms (cartesian axes, Ry/au):

     atom    1 type  1   force =     0.01817581   -0.00528356    0.00000000
     atom    2 type  1   force =    -0.01817581    0.00528356    0.00000000
     atom    3 type  2   force =    -0.00000000    0.00000000    0.00000000
     atom    4 type  2   force =     0.00000000    0.00000000    0.00000000
     atom    5 type  3   force =     0.00335745   -0.00097488   -0.00251232
     atom    6 type  3   force =     0.02285876   -0.00663493    0.00000000
     atom    7 type  3   force =     0.00335745   -0.00097488    0.00251232
     atom    8 type  3   force =    -0.03469421    0.01006500   -0.02211742
     atom    9 type  3   force =    -0.03469421    0.01006500    0.02211742
     atom   10 type  3   force =     0.03469421   -0.01006500   -0.02211742
     atom   11 type  3   force =     0.03469421   -0.01006500    0.02211742
     atom   12 type  3   force =    -0.02285876    0.00663493    0.00000000
     atom   13 type  3   force =    -0.00335745    0.00097488   -0.00251232
     atom   14 type  3   force =    -0.00335745    0.00097488    0.00251232
     The non-local contrib.  to forces
     atom    1 type  1   force =    -0.00646059    0.00187512    0.00000000
     atom    2 type  1   force =     0.00646059   -0.00187512    0.00000000
     atom    3 type  2   force =     0.00000000   -0.00000000    0.00000000
     atom    4 type  2   force =     0.00000000    0.00000000    0.00000000
     atom    5 type  3   force =     0.08607988   -0.02498724   -0.02901329
     atom    6 type  3   force =     0.10394253   -0.03017072    0.00000000
     atom    7 type  3   force =     0.08607988   -0.02498724    0.02901329
     atom    8 type  3   force =    -0.10980789    0.03187156   -0.05966316
     atom    9 type  3   force =    -0.10980789    0.03187156    0.05966316
     atom   10 type  3   force =     0.10980789   -0.03187156   -0.05966316
     atom   11 type  3   force =     0.10980789   -0.03187156    0.05966316
     atom   12 type  3   force =    -0.10394253    0.03017072    0.00000000
     atom   13 type  3   force =    -0.08607988    0.02498724   -0.02901329
     atom   14 type  3   force =    -0.08607988    0.02498724    0.02901329
     The ionic contribution  to forces
     atom    1 type  1   force =    -0.60373420    0.17524138   -0.00000000
     atom    2 type  1   force =     0.60373420   -0.17524138    0.00000000
     atom    3 type  2   force =    -0.00000000   -0.00000000   -0.00000000
     atom    4 type  2   force =    -0.00000000   -0.00000000    0.00000000
     atom    5 type  3   force =    -4.55615602    1.32248113    0.15300528
     atom    6 type  3   force =    -5.24460119    1.52231094    0.00000000
     atom    7 type  3   force =    -4.55615602    1.32248113   -0.15300528
     atom    8 type  3   force =     5.04424446   -1.46415490    0.80102204
     atom    9 type  3   force =     5.04424446   -1.46415490   -0.80102204
     atom   10 type  3   force =    -5.04424446    1.46415490    0.80102204
     atom   11 type  3   force =    -5.04424446    1.46415490   -0.80102204
     atom   12 type  3   force =     5.24460119   -1.52231094   -0.00000000
     atom   13 type  3   force =     4.55615602   -1.32248113    0.15300528
     atom   14 type  3   force =     4.55615602   -1.32248113   -0.15300528
     The local contribution  to forces
     atom    1 type  1   force =     0.62980657   -0.18281059    0.00004821
     atom    2 type  1   force =    -0.62973422    0.18280477   -0.00004098
     atom    3 type  2   force =    -0.00001506    0.00001485   -0.00011589
     atom    4 type  2   force =    -0.00002204    0.00000638    0.00012086
     atom    5 type  3   force =     4.48119410   -1.30072003   -0.12447631
     atom    6 type  3   force =     5.17077713   -1.50088370   -0.00000617
     atom    7 type  3   force =     4.48117681   -1.30072125    0.12450266
     atom    8 type  3   force =    -4.96972355    1.44251849   -0.76520178
     atom    9 type  3   force =    -4.96975463    1.44252246    0.76522774
     atom   10 type  3   force =     4.96971695   -1.44250522   -0.76504008
     atom   11 type  3   force =     4.96969449   -1.44250537    0.76497831
     atom   12 type  3   force =    -5.17074864    1.50087325    0.00002005
     atom   13 type  3   force =    -4.48118998    1.30072185   -0.12433972
     atom   14 type  3   force =    -4.48119327    1.30072015    0.12429349
     The core correction contribution to forces
     atom    1 type  1   force =    -0.00142430    0.00041318    0.00000015
     atom    2 type  1   force =     0.00142618   -0.00041341   -0.00000055
     atom    3 type  2   force =     0.00000000    0.00000000   -0.00000003
     atom    4 type  2   force =     0.00000000    0.00000001    0.00000004
     atom    5 type  3   force =    -0.00807201    0.00234333   -0.00187793
     atom    6 type  3   force =    -0.00751951    0.00218278   -0.00000055
     atom    7 type  3   force =    -0.00807495    0.00234318    0.00188073
     atom    8 type  3   force =     0.00110351   -0.00032057    0.00180817
     atom    9 type  3   force =     0.00109634   -0.00032006   -0.00180635
     atom   10 type  3   force =    -0.00109873    0.00032073    0.00180996
     atom   11 type  3   force =    -0.00110369    0.00032249   -0.00181664
     atom   12 type  3   force =     0.00751919   -0.00218262    0.00000184
     atom   13 type  3   force =     0.00807418   -0.00234323   -0.00187671
     atom   14 type  3   force =     0.00807303   -0.00234399    0.00187281
     The Hubbard contrib.    to forces
     atom    1 type  1   force =     0.00000000    0.00000000    0.00000000
     atom    2 type  1   force =     0.00000000    0.00000000    0.00000000
     atom    3 type  2   force =     0.00000000    0.00000000    0.00000000
     atom    4 type  2   force =     0.00000000    0.00000000    0.00000000
     atom    5 type  3   force =     0.00000000    0.00000000    0.00000000
     atom    6 type  3   force =     0.00000000    0.00000000    0.00000000
     atom    7 type  3   force =     0.00000000    0.00000000    0.00000000
     atom    8 type  3   force =     0.00000000    0.00000000    0.00000000
     atom    9 type  3   force =     0.00000000    0.00000000    0.00000000
     atom   10 type  3   force =     0.00000000    0.00000000    0.00000000
     atom   11 type  3   force =     0.00000000    0.00000000    0.00000000
     atom   12 type  3   force =     0.00000000    0.00000000    0.00000000
     atom   13 type  3   force =     0.00000000    0.00000000    0.00000000
     atom   14 type  3   force =     0.00000000    0.00000000    0.00000000
     The SCF correction term to forces
     atom    1 type  1   force =    -0.00000174   -0.00000567   -0.00005761
     atom    2 type  1   force =    -0.00005263    0.00000570    0.00004705
     atom    3 type  2   force =     0.00000993   -0.00000763    0.00018379
     atom    4 type  2   force =     0.00002011   -0.00000644   -0.00017537
     atom    5 type  3   force =     0.00031571   -0.00009302   -0.00013629
     atom    6 type  3   force =     0.00026292   -0.00007497    0.00001385
     atom    7 type  3   force =     0.00032936   -0.00009010    0.00010204
     atom    8 type  3   force =    -0.00051121    0.00015633   -0.00004161
     atom    9 type  3   force =    -0.00048393    0.00014760    0.00001794
     atom   10 type  3   force =     0.00051319   -0.00016254   -0.00029274
     atom   11 type  3   force =     0.00052747   -0.00015918    0.00034613
     atom   12 type  3   force =    -0.00028487    0.00008378   -0.00002486
     atom   13 type  3   force =    -0.00031535    0.00009007   -0.00030621
     atom   14 type  3   force =    -0.00031394    0.00009236    0.00035235

     Total force =     0.095396     Total SCF correction =     0.001505

     Computing stress (Cartesian axis) and pressure

     negative rho (up, down):  6.909E-05 0.000E+00
          total   stress  (Ry/bohr**3)                   (kbar)     P=       22.20
  -0.00011036   0.00020837   0.00000000          -16.24       30.65        0.00
   0.00020837   0.00054705   0.00000000           30.65       80.47        0.00
   0.00000000   0.00000000   0.00001607            0.00        0.00        2.36

     kinetic stress (kbar)   3052.53     37.27      0.00
                               37.27   3170.11      0.00
                                0.00      0.00   3061.94

     local   stress (kbar)   3682.46  -1891.18     -0.00
                            -1891.18  -2284.00     -0.00
                               -0.00     -0.00  -1412.37

     nonloc. stress (kbar)    433.58     -8.85      0.00
                               -8.85    405.65      0.00
                                0.00      0.00    434.68

     hartree stress (kbar)   -155.82    823.18      0.00
                              823.18   2441.24     -0.00
                                0.00     -0.00   2145.29

     exc-cor stress (kbar)  10871.51      0.34      0.00
                                0.34  10872.57     -0.00
                                0.00     -0.00  10871.71

     corecor stress (kbar) -12110.89     -2.63     -0.00
                               -2.63 -12119.18     -0.00
                               -0.00     -0.00 -12109.10

     ewald   stress (kbar)  -5789.61   1072.52      0.00
                             1072.52  -2405.91     -0.00
                                0.00     -0.00  -2989.79

     hubbard stress (kbar)      0.00      0.00      0.00
                                0.00      0.00      0.00
                                0.00      0.00      0.00

     DFT-D   stress (kbar)      0.00      0.00      0.00
                                0.00      0.00      0.00
                                0.00      0.00      0.00

     XDM     stress (kbar)      0.00      0.00      0.00
                                0.00      0.00      0.00
                                0.00      0.00      0.00

     dft-nl  stress (kbar)      0.00      0.00      0.00
                                0.00      0.00      0.00
                                0.00      0.00      0.00

     TS-vdW  stress (kbar)      0.00      0.00      0.00
                                0.00      0.00      0.00
                                0.00      0.00      0.00

[...]

                                0.00      0.00      0.00

     Writing all to output data dir new_calculations/myprefix.save/

     General routines

     Parallel routines

     PAW routines

   This run was terminated on:  19:30:10  20May2023

   JOB DONE.