     Program PWSCF v.7.0 starts on 20May2023 at 21:40:24

     Reading input from espresso_14771.pwi
Warning: card &CELL ignored
Warning: card / ignored

     Current dimensions of program PWSCF are:
     Max number of different atomic species (ntypx) = 10
     Max number of k-points (npk) =  40000
     Max angular momentum in pseudopotentials (lmaxx) =  4
     file Mg.pbe-n-kjpaw_psl.0.3.0.UPF: wavefunction(s)  3S renormalized
     file O.pbe-n-kjpaw_psl.0.1.UPF: wavefunction(s)  2P renormalized

     gamma-point specific algorithms are used
     Message from routine setup:
     using ibrav=0 with symmetry is DISCOURAGED, use correct ibrav instead

     Subspace diagonalization in iterative solution of the eigenvalue problem:
     a serial algorithm will be used

     Using Slab Decomposition

     bravais-lattice index     =            0
     lattice parameter (alat)  =      12.0000  a.u.
     unit-cell volume          =     677.0876 (a.u.)^3
     number of atoms/cell      =            8
     number of atomic types    =            3
     number of electrons       =        66.00
     number of Kohn-Sham states=           40
     kinetic-energy cutoff     =      30.0000  Ry
     charge density cutoff     =     240.0000  Ry
     scf convergence threshold =      1.0E-06
     mixing beta               =       0.7000
     number of iterations used =            8  plain     mixing
     Exchange-correlation= SLA  PW   PBX  PBC
                           (   1   4   3   4   0   0   0)

     celldm(1)=  11.999971  celldm(2)=   0.000000  celldm(3)=   0.000000
     celldm(4)=   0.000000  celldm(5)=   0.000000  celldm(6)=   0.000000

     crystal axes: (cart. coord. in units of alat)
               a(1) = (   1.000000   0.000000   0.000000 )
               a(2) = (  -0.590235   0.807232   0.000000 )
               a(3) = (   0.000000   0.000000   0.485407 )

     reciprocal axes: (cart. coord. in units 2 pi/alat)
               b(1) = (  1.000000  0.731184  0.000000 )
               b(2) = (  0.000000  1.238802  0.000000 )
               b(3) = (  0.000000  0.000000  2.060126 )

     PseudoPot. # 1 for Mg read from file:
     /home/pragov/projects/rrg-bengioy-ad/pragov/crystal_structure_design/SSSP/Mg.pbe-n-kjpaw_psl.0.3.0.UPF
     MD5 check sum: 24ecedc7f3e3cbe212e682f4413594e4
     Pseudo is Projector augmented-wave + core cor, Zval =  2.0
     Generated using "atomic" code by A. Dal Corso  v.5.0.99 svn rev. 10869
     Shape of augmentation charge: PSQ
     Using radial grid of 1129 points,  4 beta functions with:
                l(1) =   0
                l(2) =   0
                l(3) =   1
                l(4) =   1
     Q(r) pseudized with 0 coefficients

     PseudoPot. # 2 for Au read from file:
     /home/pragov/projects/rrg-bengioy-ad/pragov/crystal_structure_design/SSSP/Au_ONCV_PBE-1.0.oncvpsp.upf
     MD5 check sum: d14007822ba0e19f0206237467fc06c2
     Pseudo is Norm-conserving, Zval = 19.0
     Generated using ONCVPSP code by D. R. Hamann
     Using radial grid of 1278 points,  8 beta functions with:
                l(1) =   0
                l(2) =   0
                l(3) =   1
                l(4) =   1
                l(5) =   2
                l(6) =   2
                l(7) =   3
                l(8) =   3

     PseudoPot. # 3 for O  read from file:
     /home/pragov/projects/rrg-bengioy-ad/pragov/crystal_structure_design/SSSP/O.pbe-n-kjpaw_psl.0.1.UPF
     MD5 check sum: 0234752ac141de4415c5fc33072bef88
     Pseudo is Projector augmented-wave + core cor, Zval =  6.0
     Generated using "atomic" code by A. Dal Corso  v.5.0.99 svn rev. 10869
     Shape of augmentation charge: BESSEL
     Using radial grid of 1095 points,  4 beta functions with:
                l(1) =   0
                l(2) =   0
                l(3) =   1
                l(4) =   1
     Q(r) pseudized with 0 coefficients

     atomic species   valence    mass     pseudopotential
        Mg             2.00    24.30500     Mg( 1.00)
        Au            19.00   196.96657     Au( 1.00)
        O              6.00    15.99900     O ( 1.00)

      4 Sym. Ops., with inversion, found

                                    s                        frac. trans.

      isym =  1     identity

 cryst.   s( 1) = (     1          0          0      )
                  (     0          1          0      )
                  (     0          0          1      )

 cart.    s( 1) = (  1.0000000 -0.0000000  0.0000000 )
                  (  0.0000000  1.0000000  0.0000000 )
                  (  0.0000000  0.0000000  1.0000000 )

      isym =  2     180 deg rotation - cart. axis [0,0,1]

[...]

      isym =  3     inversion

[...]

      isym =  4     inv. 180 deg rotation - cart. axis [0,0,1]

 cryst.   s( 4) = (     1          0          0      )
                  (     0          1          0      )
                  (     0          0         -1      )

 cart.    s( 4) = (  1.0000000 -0.0000000  0.0000000 )
                  (  0.0000000  1.0000000  0.0000000 )
                  (  0.0000000  0.0000000 -1.0000000 )

   Cartesian axes

     site n.     atom                  positions (alat units)
         1           Mg  tau(   1) = (  -0.2951174   0.4036158   0.2427035  )
         2           Mg  tau(   2) = (   0.5000000   0.0000000   0.2427035  )
         3           Au  tau(   3) = (   0.0000000   0.0000000   0.0000000  )
         4           Au  tau(   4) = (   0.2048826   0.4036158   0.0000000  )
         5           O   tau(   5) = (  -0.4016154   0.7114851   0.2427035  )
         6           O   tau(   6) = (  -0.0934152   0.5550372   0.0000000  )
         7           O   tau(   7) = (   0.8113807   0.0957466   0.2427035  )
         8           O   tau(   8) = (   0.5031805   0.2521945   0.0000000  )

   Crystallographic axes

     site n.     atom                  positions (cryst. coord.)
         1           Mg  tau(   1) = ( -0.0000000  0.5000000  0.5000000  )
         2           Mg  tau(   2) = (  0.5000000  0.0000000  0.5000000  )
         3           Au  tau(   3) = (  0.0000000  0.0000000  0.0000000  )
         4           Au  tau(   4) = (  0.5000000  0.5000000  0.0000000  )
         5           O   tau(   5) = (  0.1186110  0.8813890  0.5000000  )
         6           O   tau(   6) = (  0.3124190  0.6875810  0.0000000  )
         7           O   tau(   7) = (  0.8813890  0.1186110  0.5000000  )
         8           O   tau(   8) = (  0.6875810  0.3124190  0.0000000  )

     number of k points=     1  Methfessel-Paxton smearing, width (Ry)=  0.0010
                       cart. coord. in units 2pi/alat
        k(    1) = (   0.0000000   0.0000000   0.0000000), wk =   2.0000000

                       cryst. coord.
        k(    1) = (   0.0000000   0.0000000   0.0000000), wk =   2.0000000

     Check: negative core charge=   -0.000008

     Initial potential from superposition of free atoms

     starting charge      65.9980, renormalised to      66.0000
     Starting wfcs are   44 randomized atomic wfcs
     Checking if some PAW data can be deallocated...

     Self-consistent Calculation

     iteration #  1     ecut=    30.00 Ry     beta= 0.70
     Davidson diagonalization with overlap

     ethr =  1.00E-02,  avg # of iterations =  4.0

     total energy              =    -781.63405902 Ry
     estimated scf accuracy    <       2.02319675 Ry

[...]

     total energy              =    -782.74982003 Ry
     estimated scf accuracy    <       0.00000210 Ry

     iteration # 12     ecut=    30.00 Ry     beta= 0.70
     Davidson diagonalization with overlap

     ethr =  3.18E-09,  avg # of iterations =  2.0

     End of self-consistent calculation

          k = 0.0000 0.0000 0.0000 (   939 PWs)   bands (ev):

   -97.0806 -94.8400 -48.4903 -48.3521 -47.4122 -46.2809 -45.7378 -45.5664
    -9.6897  -8.7057  -7.3051  -6.8689   1.8743   2.2903   3.5360   4.5082
     4.9557   5.2843   5.7689   6.1153   6.2118   6.2884   6.3965   6.6767
     7.3402   7.7769   7.9397   8.0435   8.6349   8.7013   8.8687   9.6677
    10.3309  11.4614  11.7497  13.6713  15.4529  16.4104  17.1653  18.7280

     occupation numbers
     1.0000   1.0000   1.0000   1.0000   1.0000   1.0000   1.0000   1.0000
     1.0000   1.0000   1.0000   1.0000   1.0000   1.0000   1.0000   1.0000
     1.0000   1.0000   1.0000   1.0000   1.0000   1.0000   1.0000   1.0000
     1.0000   1.0000   1.0000   1.0000   1.0000   1.0000   1.0000   1.0000
     1.0000  -0.0000  -0.0000  -0.0000  -0.0000  -0.0000  -0.0000  -0.0000

     the Fermi energy is    10.7022 ev

!    total energy              =    -782.74982048 Ry
     estimated scf accuracy    <       0.00000004 Ry
     smearing contrib. (-TS)   =       0.00000000 Ry
     internal energy E=F+TS    =    -782.74982048 Ry

     The total energy is F=E-TS. E is the sum of the following terms:
     one-electron contribution =    -392.94928621 Ry
     hartree contribution      =     222.71252402 Ry
     xc contribution           =     -83.90005871 Ry
     ewald contribution        =    -428.02105004 Ry
     one-center paw contrib.   =    -100.59194954 Ry
      -> PAW hartree energy AE =     119.06712515 Ry
      -> PAW hartree energy PS =    -118.62518020 Ry
      -> PAW xc energy AE      =    -133.56762905 Ry
      -> PAW xc energy PS      =      32.53373457 Ry
      -> total E_H with PAW    =     223.15446897 Ry
      -> total E_XC with PAW   =    -184.93395319 Ry

     convergence has been achieved in  12 iterations

     Forces acting on atoms (cartesian axes, Ry/au):

     atom    1 type  1   force =     0.00000000    0.00000000    0.00000000
     atom    2 type  1   force =     0.00000000    0.00000000    0.00000000
     atom    3 type  2   force =     0.00000000    0.00000000    0.00000000
     atom    4 type  2   force =     0.00000000    0.00000000    0.00000000
     atom    5 type  3   force =    -0.04146419    0.02104949    0.00000000
     atom    6 type  3   force =     0.02019072   -0.01024642    0.00000000
     atom    7 type  3   force =     0.04146419   -0.02104949    0.00000000
     atom    8 type  3   force =    -0.02019072    0.01024642    0.00000000
     The non-local contrib.  to forces
     atom    1 type  1   force =     0.00000000    0.00000000    0.00000000
     atom    2 type  1   force =     0.00000000    0.00000000    0.00000000
     atom    3 type  2   force =     0.00000000    0.00000000    0.00000000
     atom    4 type  2   force =     0.00000000    0.00000000    0.00000000
     atom    5 type  3   force =    -0.44428330    0.22552523    0.00000000
     atom    6 type  3   force =     0.78490625   -0.39843769    0.00000000
     atom    7 type  3   force =     0.44428330   -0.22552523   -0.00000000
     atom    8 type  3   force =    -0.78490625    0.39843769    0.00000000
     The ionic contribution  to forces
     atom    1 type  1   force =     0.00000000    0.00000000    0.00000000
     atom    2 type  1   force =    -0.00000000    0.00000000    0.00000000
     atom    3 type  2   force =     0.00000000    0.00000000   -0.00000000
     atom    4 type  2   force =     0.00000000   -0.00000000    0.00000000
     atom    5 type  3   force =    14.33292745   -7.27565120    0.00000000
     atom    6 type  3   force =    -8.05610182    4.08942186   -0.00000000
     atom    7 type  3   force =   -14.33292745    7.27565120    0.00000000
     atom    8 type  3   force =     8.05610181   -4.08942186    0.00000000
     The local contribution  to forces
     atom    1 type  1   force =    -0.00000092    0.00000121   -0.00000001
     atom    2 type  1   force =    -0.00000276   -0.00000019   -0.00000003
     atom    3 type  2   force =     0.00011433   -0.00006466    0.00000370
     atom    4 type  2   force =    -0.00008799    0.00005831    0.00001885
     atom    5 type  3   force =   -13.93517912    7.07373754    0.00000158
     atom    6 type  3   force =     7.30194117   -3.70660373    0.00000315
     atom    7 type  3   force =    13.93518533   -7.07373768   -0.00000152
     atom    8 type  3   force =    -7.30190075    3.70658588   -0.00000163
     The core correction contribution to forces
     atom    1 type  1   force =     0.00000017   -0.00000001   -0.00000001
     atom    2 type  1   force =    -0.00000022   -0.00000015    0.00000000
     atom    3 type  2   force =     0.00000000    0.00000000    0.00000000
     atom    4 type  2   force =     0.00000000    0.00000000    0.00000000
     atom    5 type  3   force =     0.00526084   -0.00267048    0.00000001
     atom    6 type  3   force =    -0.01059760    0.00537960    0.00000010
     atom    7 type  3   force =    -0.00526085    0.00267053    0.00000002
     atom    8 type  3   force =     0.01059753   -0.00537954   -0.00000003
     The Hubbard contrib.    to forces
     atom    1 type  1   force =     0.00000000    0.00000000    0.00000000
     atom    2 type  1   force =     0.00000000    0.00000000    0.00000000
     atom    3 type  2   force =     0.00000000    0.00000000    0.00000000
     atom    4 type  2   force =     0.00000000    0.00000000    0.00000000
     atom    5 type  3   force =     0.00000000    0.00000000    0.00000000
     atom    6 type  3   force =     0.00000000    0.00000000    0.00000000
     atom    7 type  3   force =     0.00000000    0.00000000    0.00000000
     atom    8 type  3   force =     0.00000000    0.00000000    0.00000000
     The SCF correction term to forces
     atom    1 type  1   force =     0.00000170   -0.00000154    0.00000008
     atom    2 type  1   force =     0.00000177   -0.00000045   -0.00000001
     atom    3 type  2   force =    -0.00015039    0.00008692   -0.00000598
     atom    4 type  2   force =     0.00011436   -0.00007646   -0.00002786
     atom    5 type  3   force =    -0.00018214    0.00010510   -0.00000034
     atom    6 type  3   force =     0.00003875   -0.00000597   -0.00000146
     atom    7 type  3   force =     0.00019177   -0.00011160    0.00000172
     atom    8 type  3   force =    -0.00008703    0.00002473    0.00000020

     Total force =     0.073144     Total SCF correction =     0.000391

     Computing stress (Cartesian axis) and pressure

          total   stress  (Ry/bohr**3)                   (kbar)     P=     -590.69
  -0.00419475   0.00059887   0.00000000         -617.07       88.10        0.00
   0.00059887  -0.00331895   0.00000000           88.10     -488.23        0.00
   0.00000000   0.00000000  -0.00453261            0.00        0.00     -666.77

     kinetic stress (kbar)  33903.31    727.21      0.00
                              727.21  34966.76      0.00
                                0.00      0.00  34352.57

     local   stress (kbar)  -2946.15  -9185.27      0.00
                            -9185.27 -16378.39     -0.00
                                0.00     -0.00 -37730.53

     nonloc. stress (kbar)   4564.42    -33.73      0.00
                              -33.73   4515.11      0.00
                                0.00      0.00   4542.45

     hartree stress (kbar)   8347.95   4828.61     -0.00
                             4828.61  15409.15      0.00
                               -0.00      0.00  24629.75

     exc-cor stress (kbar)  -4964.79     -6.50      0.00
                               -6.50  -4974.30      0.00
                                0.00      0.00  -4968.97

     corecor stress (kbar)   -679.92     -2.80     -0.00
                               -2.80   -684.02     -0.00
                               -0.00     -0.00   -683.97

     ewald   stress (kbar) -38841.89   3760.58      0.00
                             3760.58 -33342.54      0.00
                                0.00      0.00 -20808.07

     hubbard stress (kbar)      0.00      0.00      0.00
                                0.00      0.00      0.00
                                0.00      0.00      0.00

     DFT-D   stress (kbar)      0.00      0.00      0.00
                                0.00      0.00      0.00
                                0.00      0.00      0.00

     XDM     stress (kbar)      0.00      0.00      0.00
                                0.00      0.00      0.00
                                0.00      0.00      0.00

     dft-nl  stress (kbar)      0.00      0.00      0.00
                                0.00      0.00      0.00
                                0.00      0.00      0.00

     TS-vdW  stress (kbar)      0.00      0.00      0.00
                                0.00      0.00      0.00
                                0.00      0.00      0.00

[...]

                                0.00      0.00      0.00

     Writing all to output data dir new_calculations/myprefix.save/

     General routines

     Parallel routines

     PAW routines

   This run was terminated on:  21:40:33  20May2023

   JOB DONE.