     Program PWSCF v.7.0 starts on 20May2023 at  5:54:38

     Reading input from espresso_3184.pwi
Warning: card &CELL ignored
Warning: card / ignored

     Current dimensions of program PWSCF are:
     Max number of different atomic species (ntypx) = 10
     Max number of k-points (npk) =  40000
     Max angular momentum in pseudopotentials (lmaxx) =  4
     file Cd.pbe-dn-rrkjus_psl.0.3.1.UPF: wavefunction(s)  4D renormalized

     gamma-point specific algorithms are used
     Message from routine setup:
     using ibrav=0 with symmetry is DISCOURAGED, use correct ibrav instead

     Subspace diagonalization in iterative solution of the eigenvalue problem:
     a serial algorithm will be used

     Using Slab Decomposition

     bravais-lattice index     =            0
     lattice parameter (alat)  =      13.7034  a.u.
     unit-cell volume          =    1484.2203 (a.u.)^3
     number of atoms/cell      =           10
     number of atomic types    =            3
     number of electrons       =       168.00
     number of Kohn-Sham states=          101
     kinetic-energy cutoff     =      30.0000  Ry
     charge density cutoff     =     240.0000  Ry
     scf convergence threshold =      1.0E-06
     mixing beta               =       0.7000
     number of iterations used =            8  plain     mixing
     Exchange-correlation=  SLA  PW   PBX  PBC
                           (   1   4   3   4   0   0   0)

     celldm(1)=  13.703377  celldm(2)=   0.000000  celldm(3)=   0.000000
     celldm(4)=   0.000000  celldm(5)=   0.000000  celldm(6)=   0.000000

     crystal axes: (cart. coord. in units of alat)
               a(1) = (   1.000000   0.000000   0.000000 )
               a(2) = (   0.000000   1.000000   0.000000 )
               a(3) = (   0.000000   0.000000   0.576787 )

     reciprocal axes: (cart. coord. in units 2 pi/alat)
               b(1) = (  1.000000  0.000000  0.000000 )
               b(2) = (  0.000000  1.000000  0.000000 )
               b(3) = (  0.000000  0.000000  1.733742 )

     PseudoPot. # 1 for Er read from file:
     /home/pragov/projects/rrg-bengioy-ad/pragov/crystal_structure_design/SSSP/Er.GGA-PBE-paw-v1.0.UPF
     MD5 check sum: 5952a841f12bc97f67d25f9d1b2e7e35
     Pseudo is Projector augmented-wave + core cor, Zval = 22.0
     Generated using ATOMPAW code
     Shape of augmentation charge: BESSEL
     Using radial grid of 1114 points,  8 beta functions with:
                l(1) =   0
                l(2) =   0
                l(3) =   1
                l(4) =   1
                l(5) =   2
                l(6) =   2
                l(7) =   3
                l(8) =   3
     Q(r) pseudized with 0 coefficients

     PseudoPot. # 2 for Cd read from file:
     /home/pragov/projects/rrg-bengioy-ad/pragov/crystal_structure_design/SSSP/Cd.pbe-dn-rrkjus_psl.0.3.1.UPF
     MD5 check sum: 558e9f355611b531a870a69ef6ace9e2
     Pseudo is Ultrasoft + core correction, Zval = 12.0
     Generated using "atomic" code by A. Dal Corso  v.5.0.99 svn rev. 10869
     Using radial grid of 1239 points,  6 beta functions with:
                l(1) =   0
                l(2) =   0
                l(3) =   1
                l(4) =   1
                l(5) =   2
                l(6) =   2
     Q(r) pseudized with 0 coefficients

     PseudoPot. # 3 for Ge read from file:
     /home/pragov/projects/rrg-bengioy-ad/pragov/crystal_structure_design/SSSP/ge_pbe_v1.4.uspp.F.UPF
     MD5 check sum: 9c9eaa91e581c3f09632fb3098b2c6b2
     Pseudo is Ultrasoft + core correction, Zval = 14.0
     Generated by new atomic code, or converted to UPF format
     Using radial grid of  873 points,  6 beta functions with:
                l(1) =   0
                l(2) =   0
                l(3) =   1
                l(4) =   1
                l(5) =   2
                l(6) =   2
     Q(r) pseudized with  8 coefficients,  rinner =    1.400   1.400   1.400
                                                       1.400   1.400

     atomic species   valence    mass     pseudopotential
        Er            22.00   167.25900     Er( 1.00)
        Cd            12.00   112.41400     Cd( 1.00)
        Ge            14.00    72.63000     Ge( 1.00)

     16 Sym. Ops., with inversion, found ( 8 have fractional translation)

                                    s                        frac. trans.

      isym =  1     identity

 cryst.   s( 1) = (     1          0          0      )
                  (     0          1          0      )
                  (     0          0          1      )

 cart.    s( 1) = (  1.0000000  0.0000000  0.0000000 )
                  (  0.0000000  1.0000000  0.0000000 )
                  (  0.0000000  0.0000000  1.0000000 )

      isym =  2     180 deg rotation - cart. axis [0,0,1]

[...]

 cryst.   s( 3) = (    -1          0          0      )    f =(  0.5000000 )
                  (     0          1          0      )       ( -0.5000000 )
                  (     0          0         -1      )       (  0.0000000 )

 cart.    s( 3) = ( -1.0000000  0.0000000  0.0000000 )    f =(  0.5000000 )
                  (  0.0000000  1.0000000  0.0000000 )       ( -0.5000000 )
                  (  0.0000000  0.0000000 -1.0000000 )       (  0.0000000 )

[...]

 cryst.   s( 6) = (     0         -1          0      )    f =(  0.5000000 )
                  (    -1          0          0      )       (  0.5000000 )
                  (     0          0         -1      )       (  0.0000000 )

 cart.    s( 6) = (  0.0000000 -1.0000000  0.0000000 )    f =(  0.5000000 )
                  ( -1.0000000  0.0000000  0.0000000 )       (  0.5000000 )
                  (  0.0000000  0.0000000 -1.0000000 )       (  0.0000000 )

[...]

      isym =  8      90 deg rotation - cart. axis [0,0,1]

[...]

      isym =  9     inversion

 cryst.   s( 9) = (    -1          0          0      )
                  (     0         -1          0      )
                  (     0          0         -1      )

 cart.    s( 9) = ( -1.0000000  0.0000000  0.0000000 )
                  (  0.0000000 -1.0000000  0.0000000 )
                  (  0.0000000  0.0000000 -1.0000000 )

      isym = 10     inv. 180 deg rotation - cart. axis [0,0,1]

 cryst.   s(10) = (     1          0          0      )
                  (     0          1          0      )
                  (     0          0         -1      )

 cart.    s(10) = (  1.0000000  0.0000000  0.0000000 )
                  (  0.0000000  1.0000000  0.0000000 )
                  (  0.0000000  0.0000000 -1.0000000 )

[...]

 cryst.   s(11) = (     1          0          0      )    f =(  0.5000000 )
                  (     0         -1          0      )       (  0.5000000 )
                  (     0          0          1      )       (  0.0000000 )

 cart.    s(11) = (  1.0000000  0.0000000  0.0000000 )    f =(  0.5000000 )
                  (  0.0000000 -1.0000000  0.0000000 )       (  0.5000000 )
                  (  0.0000000  0.0000000  1.0000000 )       (  0.0000000 )

[...]

 cryst.   s(14) = (     0          1          0      )    f =(  0.5000000 )
                  (     1          0          0      )       ( -0.5000000 )
                  (     0          0          1      )       (  0.0000000 )

 cart.    s(14) = (  0.0000000  1.0000000  0.0000000 )    f =(  0.5000000 )
                  (  1.0000000  0.0000000  0.0000000 )       ( -0.5000000 )
                  (  0.0000000  0.0000000  1.0000000 )       (  0.0000000 )

[...]

      isym = 16     inv.  90 deg rotation - cart. axis [0,0,1]

 cryst.   s(16) = (     0         -1          0      )
                  (     1          0          0      )
                  (     0          0         -1      )

 cart.    s(16) = (  0.0000000  1.0000000  0.0000000 )
                  ( -1.0000000  0.0000000  0.0000000 )
                  (  0.0000000  0.0000000 -1.0000000 )

   Cartesian axes

     site n.     atom                  positions (alat units)
         1           Er  tau(   1) = (   0.6775750   0.1775750   0.2883935  )
         2           Er  tau(   2) = (   0.3224250   0.8224250   0.2883935  )
         3           Er  tau(   3) = (   0.1775750   0.3224250   0.2883935  )
         4           Er  tau(   4) = (   0.8224250   0.6775750   0.2883935  )
         5           Cd  tau(   5) = (   0.5000000   0.5000000   0.0000000  )
         6           Cd  tau(   6) = (   0.0000000   0.0000000   0.0000000  )
         7           Ge  tau(   7) = (   0.1229160   0.6229160   0.0000000  )
         8           Ge  tau(   8) = (   0.8770840   0.3770840   0.0000000  )
         9           Ge  tau(   9) = (   0.6229160   0.8770840   0.0000000  )
        10           Ge  tau(  10) = (   0.3770840   0.1229160   0.0000000  )

   Crystallographic axes

     site n.     atom                  positions (cryst. coord.)
         1           Er  tau(   1) = (  0.6775750  0.1775750  0.5000000  )
         2           Er  tau(   2) = (  0.3224250  0.8224250  0.5000000  )
         3           Er  tau(   3) = (  0.1775750  0.3224250  0.5000000  )
         4           Er  tau(   4) = (  0.8224250  0.6775750  0.5000000  )
         5           Cd  tau(   5) = (  0.5000000  0.5000000  0.0000000  )
         6           Cd  tau(   6) = (  0.0000000  0.0000000  0.0000000  )
         7           Ge  tau(   7) = (  0.1229160  0.6229160  0.0000000  )
         8           Ge  tau(   8) = (  0.8770840  0.3770840  0.0000000  )
         9           Ge  tau(   9) = (  0.6229160  0.8770840  0.0000000  )
        10           Ge  tau(  10) = (  0.3770840  0.1229160  0.0000000  )

     number of k points=     1  Methfessel-Paxton smearing, width (Ry)=  0.0010
                       cart. coord. in units 2pi/alat
        k(    1) = (   0.0000000   0.0000000   0.0000000), wk =   2.0000000

                       cryst. coord.
        k(    1) = (   0.0000000   0.0000000   0.0000000), wk =   2.0000000

     Check: negative core charge=   -0.000001

     Initial potential from superposition of free atoms

     starting charge     167.9699, renormalised to     168.0000
     Starting wfcs are  182 randomized atomic wfcs
     Checking if some PAW data can be deallocated...

     Self-consistent Calculation

     iteration #  1     ecut=    30.00 Ry     beta= 0.70
     Davidson diagonalization with overlap

     ethr =  1.00E-02,  avg # of iterations =  2.0

     total energy              =   -4622.55247917 Ry
     estimated scf accuracy    <      15.59919213 Ry

[...]

     WARNING: integrated charge=   167.99921328, expected=   168.00000000

[...]

     WARNING: integrated charge=   167.99998287, expected=   168.00000000

[...]

     total energy              =   -4642.34924521 Ry
     estimated scf accuracy    <       0.00000319 Ry

     iteration # 58     ecut=    30.00 Ry     beta= 0.70
     Davidson diagonalization with overlap

     ethr =  7.95E-10,  avg # of iterations =  1.0

     End of self-consistent calculation

          k = 0.0000 0.0000 0.0000 (  2049 PWs)   bands (ev):

   -34.4080 -34.3955 -34.3955 -34.3942 -11.1679 -11.1584 -11.1110 -11.1109
   -11.0494 -11.0402 -11.0358 -11.0341 -11.0254 -11.0253 -11.0076 -11.0076
   -10.9875 -10.9872 -10.9858 -10.9854 -10.9658 -10.9657 -10.9261 -10.9261
    -8.9995  -8.9275  -8.8989  -8.8988  -8.7860  -8.7406  -8.7258  -8.6742
    -8.6742  -8.6736  -8.6736  -8.6591   2.5176   3.3152   4.0276   4.0358
     4.0832   4.1117   4.1118   4.1211   4.1395   4.1395   4.2036   4.9981
     5.6419   5.6420   8.0700   8.7320   9.7907   9.7907  10.3755  11.4305
    12.4349  13.0957  13.1060  13.1060  13.3190  13.4108  13.4355  13.4355
    13.4958  13.5806  13.5865  13.5865  13.6162  13.6366  13.6388  13.6495
    13.6495  13.6636  13.6653  13.7033  13.7108  13.7109  13.7310  13.7503
    13.7574  13.7574  13.7751  13.7751  13.7852  13.9571  14.0228  14.0902
    14.0902  14.1881  14.1881  14.3580  14.6148  15.8481  16.1116  16.3293
    16.3293  16.7978  17.5402  17.5403  17.5740

     occupation numbers
     1.0000   1.0000   1.0000   1.0000   1.0000   1.0000   1.0000   1.0000
     1.0000   1.0000   1.0000   1.0000   1.0000   1.0000   1.0000   1.0000
     1.0000   1.0000   1.0000   1.0000   1.0000   1.0000   1.0000   1.0000
     1.0000   1.0000   1.0000   1.0000   1.0000   1.0000   1.0000   1.0000
     1.0000   1.0000   1.0000   1.0000   1.0000   1.0000   1.0000   1.0000
     1.0000   1.0000   1.0000   1.0000   1.0000   1.0000   1.0000   1.0000
     1.0000   1.0000   1.0000   1.0000   1.0000   1.0000   1.0000   1.0000
     1.0000   1.0000   1.0000   1.0000   1.0000   1.0000   1.0000   1.0000
     1.0000   1.0000   1.0000   1.0000   1.0000   1.0000   1.0000   1.0000
     1.0000   1.0000   1.0000   1.0000   1.0000   1.0000   1.0000   1.0029
     1.0158   1.0159   0.8473   0.8464   0.2718  -0.0000  -0.0000  -0.0000
    -0.0000  -0.0000  -0.0000  -0.0000  -0.0000  -0.0000  -0.0000  -0.0000
    -0.0000  -0.0000  -0.0000  -0.0000  -0.0000

     the Fermi energy is    13.7814 ev

!    total energy              =   -4642.34924419 Ry
     estimated scf accuracy    <       0.00000096 Ry
     smearing contrib. (-TS)   =      -0.00033798 Ry
     internal energy E=F+TS    =   -4642.34890621 Ry

     The total energy is F=E-TS. E is the sum of the following terms:
     one-electron contribution =   -1509.00871089 Ry
     hartree contribution      =     838.58790577 Ry
     xc contribution           =    -450.90835646 Ry
     ewald contribution        =   -1577.08542897 Ry
     one-center paw contrib.   =   -1943.93431566 Ry
      -> PAW hartree energy AE =    1386.67030521 Ry
      -> PAW hartree energy PS =   -1240.21238536 Ry
      -> PAW xc energy AE      =   -2217.97099774 Ry
      -> PAW xc energy PS      =     127.57876223 Ry
      -> total E_H with PAW    =     985.04582562 Ry
      -> total E_XC with PAW   =   -2541.30059197 Ry

     convergence has been achieved in  58 iterations

     Forces acting on atoms (cartesian axes, Ry/au):

     atom    1 type  1   force =    -0.00315715   -0.00315715   -0.00000000
     atom    2 type  1   force =     0.00315715    0.00315715    0.00000000
     atom    3 type  1   force =    -0.00315715    0.00315715    0.00000000
     atom    4 type  1   force =     0.00315715   -0.00315715   -0.00000000
     atom    5 type  2   force =     0.00000000    0.00000000    0.00000000
     atom    6 type  2   force =     0.00000000    0.00000000    0.00000000
     atom    7 type  3   force =     0.01529364    0.01529364   -0.00000000
     atom    8 type  3   force =    -0.01529364   -0.01529364    0.00000000
     atom    9 type  3   force =     0.01529364   -0.01529364   -0.00000000
     atom   10 type  3   force =    -0.01529364    0.01529364    0.00000000
     The non-local contrib.  to forces
     atom    1 type  1   force =    -0.14975158   -0.14975158   -0.00000000
     atom    2 type  1   force =     0.14975158    0.14975158   -0.00000000
     atom    3 type  1   force =    -0.14975158    0.14975158    0.00000000
     atom    4 type  1   force =     0.14975158   -0.14975158    0.00000000
     atom    5 type  2   force =     0.00000000    0.00000000    0.00000000
     atom    6 type  2   force =     0.00000000    0.00000000   -0.00000000
     atom    7 type  3   force =    -0.16877804   -0.16877804    0.00000000
     atom    8 type  3   force =     0.16877804    0.16877804    0.00000000
     atom    9 type  3   force =    -0.16877804    0.16877804    0.00000000
     atom   10 type  3   force =     0.16877804   -0.16877804    0.00000000
     The ionic contribution  to forces
     atom    1 type  1   force =     3.54017421    3.54017421   -0.00000000
     atom    2 type  1   force =    -3.54017421   -3.54017421   -0.00000000
     atom    3 type  1   force =     3.54017421   -3.54017421   -0.00000000
     atom    4 type  1   force =    -3.54017421    3.54017421   -0.00000000
     atom    5 type  2   force =     0.00000000    0.00000000   -0.00000000
     atom    6 type  2   force =     0.00000000    0.00000000   -0.00000000
     atom    7 type  3   force =     4.19715548    4.19715548   -0.00000000
     atom    8 type  3   force =    -4.19715548   -4.19715548   -0.00000000
     atom    9 type  3   force =     4.19715548   -4.19715548   -0.00000000
     atom   10 type  3   force =    -4.19715548    4.19715548   -0.00000000
     The local contribution  to forces
     atom    1 type  1   force =    -3.39350725   -3.39292800   -0.00001450
     atom    2 type  1   force =     3.39341954    3.39299610   -0.00000192
     atom    3 type  1   force =    -3.39402549    3.39447341   -0.00000516
     atom    4 type  1   force =     3.39401967   -3.39461888   -0.00000436
     atom    5 type  2   force =     0.00008670   -0.00006578    0.00000074
     atom    6 type  2   force =    -0.00006826    0.00001093    0.00000042
     atom    7 type  3   force =    -4.01589584   -4.01593803    0.00000052
     atom    8 type  3   force =     4.01568969    4.01593264    0.00000124
     atom    9 type  3   force =    -4.01443316    4.01443274    0.00000118
     atom   10 type  3   force =     4.01461367   -4.01433226    0.00000061
     The core correction contribution to forces
     atom    1 type  1   force =     0.00000320    0.00000320   -0.00000000
     atom    2 type  1   force =    -0.00000320   -0.00000320   -0.00000000
     atom    3 type  1   force =     0.00000320   -0.00000320   -0.00000000
     atom    4 type  1   force =    -0.00000320    0.00000320   -0.00000000
     atom    5 type  2   force =    -0.00000009   -0.00000034    0.00000001
     atom    6 type  2   force =     0.00000053    0.00000027   -0.00000001
     atom    7 type  3   force =     0.00205868    0.00205811   -0.00000000
     atom    8 type  3   force =    -0.00205854   -0.00205782    0.00000000
     atom    9 type  3   force =     0.00205751   -0.00205831   -0.00000000
     atom   10 type  3   force =    -0.00205785    0.00205833   -0.00000000
     The Hubbard contrib.    to forces
     atom    1 type  1   force =     0.00000000    0.00000000    0.00000000
     atom    2 type  1   force =     0.00000000    0.00000000    0.00000000
     atom    3 type  1   force =     0.00000000    0.00000000    0.00000000
     atom    4 type  1   force =     0.00000000    0.00000000    0.00000000
     atom    5 type  2   force =     0.00000000    0.00000000    0.00000000
     atom    6 type  2   force =     0.00000000    0.00000000    0.00000000
     atom    7 type  3   force =     0.00000000    0.00000000    0.00000000
     atom    8 type  3   force =     0.00000000    0.00000000    0.00000000
     atom    9 type  3   force =     0.00000000    0.00000000    0.00000000
     atom   10 type  3   force =     0.00000000    0.00000000    0.00000000
     The SCF correction term to forces
     atom    1 type  1   force =    -0.00010369   -0.00063449    0.00001416
     atom    2 type  1   force =     0.00018697    0.00058414    0.00000233
     atom    3 type  1   force =     0.00046508   -0.00088481    0.00000577
     atom    4 type  1   force =    -0.00047070    0.00101321    0.00000573
     atom    5 type  2   force =    -0.00008527    0.00006068   -0.00000118
     atom    6 type  2   force =     0.00006660   -0.00000698   -0.00000051
     atom    7 type  3   force =     0.00074867    0.00079021   -0.00000064
     atom    8 type  3   force =    -0.00054469   -0.00079528   -0.00000135
     atom    9 type  3   force =    -0.00070131    0.00071237   -0.00000165
     atom   10 type  3   force =     0.00052700   -0.00080565   -0.00000085

     Total force =     0.044169     Total SCF correction =     0.002663

     Computing stress (Cartesian axis) and pressure

          total   stress  (Ry/bohr**3)                   (kbar)     P=     -117.79
  -0.00110199   0.00000000   0.00000000         -162.11        0.00        0.00
   0.00000000  -0.00110199   0.00000000            0.00     -162.11        0.00
   0.00000000   0.00000000  -0.00019827            0.00        0.00      -29.17

     kinetic stress (kbar)  15164.85      0.00      0.00
                                0.00  15164.85      0.00
                                0.00      0.00  15416.18

     local   stress (kbar)  12660.69      0.25      0.00
                                0.25  12660.69      0.00
                                0.00      0.00   4560.57

     nonloc. stress (kbar)   8517.11      0.00      0.00
                                0.00   8517.11      0.00
                                0.00      0.00   8695.39

     hartree stress (kbar)  26414.99     -0.35     -0.00
                               -0.35  26414.99     -0.00
                               -0.00     -0.00  30284.74

     exc-cor stress (kbar)   7780.92      0.00      0.00
                                0.00   7780.92     -0.00
                                0.00     -0.00   7784.44

     corecor stress (kbar) -17287.15     -0.00      0.00
                               -0.00 -17287.15     -0.00
                                0.00     -0.00 -17288.34

     ewald   stress (kbar) -53413.52     -0.00      0.00
                               -0.00 -53413.52     -0.00
                                0.00     -0.00 -49482.16

     hubbard stress (kbar)      0.00      0.00      0.00
                                0.00      0.00      0.00
                                0.00      0.00      0.00

     DFT-D   stress (kbar)      0.00      0.00      0.00
                                0.00      0.00      0.00
                                0.00      0.00      0.00

     XDM     stress (kbar)      0.00      0.00      0.00
                                0.00      0.00      0.00
                                0.00      0.00      0.00

     dft-nl  stress (kbar)      0.00      0.00      0.00
                                0.00      0.00      0.00
                                0.00      0.00      0.00

     TS-vdW  stress (kbar)      0.00      0.00      0.00
                                0.00      0.00      0.00
                                0.00      0.00      0.00

[...]

                                0.00      0.00      0.00

     Writing all to output data dir new_calculations/myprefix.save/

     General routines

     Parallel routines

     PAW routines

   This run was terminated on:   5:58:17  20May2023

   JOB DONE.