     Program PWSCF v.7.0 starts on 20May2023 at 17:31:51

     Reading input from espresso_15256.pwi
Warning: card &CELL ignored
Warning: card / ignored

     Current dimensions of program PWSCF are:
     Max number of different atomic species (ntypx) = 10
     Max number of k-points (npk) =  40000
     Max angular momentum in pseudopotentials (lmaxx) =  4

     gamma-point specific algorithms are used
     Message from routine setup:
     using ibrav=0 with symmetry is DISCOURAGED, use correct ibrav instead

     Subspace diagonalization in iterative solution of the eigenvalue problem:
     a serial algorithm will be used

     Using Slab Decomposition

     bravais-lattice index     =            0
     lattice parameter (alat)  =       7.3948  a.u.
     unit-cell volume          =    2152.4073 (a.u.)^3
     number of atoms/cell      =           14
     number of atomic types    =            3
     number of electrons       =       136.00
     number of Kohn-Sham states=           82
     kinetic-energy cutoff     =      30.0000  Ry
     charge density cutoff     =     240.0000  Ry
     scf convergence threshold =      1.0E-06
     mixing beta               =       0.7000
     number of iterations used =            8  plain     mixing
     Exchange-correlation= PBE
                           (   1   4   3   4   0   0   0)

     celldm(1)=   7.394801  celldm(2)=   0.000000  celldm(3)=   0.000000
     celldm(4)=   0.000000  celldm(5)=   0.000000  celldm(6)=   0.000000

     crystal axes: (cart. coord. in units of alat)
               a(1) = (   1.000000   0.000000   0.000000 )
               a(2) = (   0.000000   2.326294   0.000000 )
               a(3) = (   0.000000   0.950574   2.288128 )

     reciprocal axes: (cart. coord. in units 2 pi/alat)
               b(1) = (  1.000000  0.000000  0.000000 )
               b(2) = (  0.000000  0.429868 -0.178583 )
               b(3) = (  0.000000  0.000000  0.437038 )

     PseudoPot. # 1 for Sr read from file:
     /home/pragov/projects/rrg-bengioy-ad/pragov/crystal_structure_design/SSSP/Sr_pbe_v1.uspp.F.UPF
     MD5 check sum: 6b418c05fbe9db5448babca5e47b7a5b
     Pseudo is Ultrasoft + core correction, Zval = 10.0
     Generated by new atomic code, or converted to UPF format
     Using radial grid of  883 points,  6 beta functions with:
                l(1) =   0
                l(2) =   0
                l(3) =   1
                l(4) =   1
                l(5) =   2
                l(6) =   2
     Q(r) pseudized with  6 coefficients,  rinner =    1.400   1.400   1.400
                                                       1.400   1.400

     PseudoPot. # 2 for Ge read from file:
     /home/pragov/projects/rrg-bengioy-ad/pragov/crystal_structure_design/SSSP/ge_pbe_v1.4.uspp.F.UPF
     MD5 check sum: 9c9eaa91e581c3f09632fb3098b2c6b2
     Pseudo is Ultrasoft + core correction, Zval = 14.0
     Generated by new atomic code, or converted to UPF format
     Using radial grid of  873 points,  6 beta functions with:
                l(1) =   0
                l(2) =   0
                l(3) =   1
                l(4) =   1
                l(5) =   2
                l(6) =   2
     Q(r) pseudized with  8 coefficients,  rinner =    1.400   1.400   1.400
                                                       1.400   1.400

     PseudoPot. # 3 for N  read from file:
     /home/pragov/projects/rrg-bengioy-ad/pragov/crystal_structure_design/SSSP/N.pbe-n-radius_5.UPF
     MD5 check sum: 16739722b17309cd8fe442a2ace49922
     Pseudo is Ultrasoft + core correction, Zval =  5.0
     Generated using "atomic" code by A. Dal Corso  v.5.1
     Using radial grid of 1085 points,  4 beta functions with:
                l(1) =   0
                l(2) =   0
                l(3) =   1
                l(4) =   1
     Q(r) pseudized with 0 coefficients

     atomic species   valence    mass     pseudopotential
        Sr            10.00    87.62000     Sr( 1.00)
        Ge            14.00    72.63000     Ge( 1.00)
        N              5.00    14.00700     N ( 1.00)

      4 Sym. Ops., with inversion, found ( 2 have fractional translation)

                                    s                        frac. trans.

      isym =  1     identity

 cryst.   s( 1) = (     1          0          0      )
                  (     0          1          0      )
                  (     0          0          1      )

 cart.    s( 1) = (  1.0000000  0.0000000  0.0000000 )
                  (  0.0000000  1.0000000  0.0000000 )
                  (  0.0000000  0.0000000  1.0000000 )

      isym =  2     180 deg rotation - cart. axis [1,0,0]

 cryst.   s( 2) = (     1          0          0      )    f =( -0.5000000 )
                  (     0         -1          0      )       (  0.0000000 )
                  (     0          0         -1      )       ( -0.0000000 )

 cart.    s( 2) = (  1.0000000  0.0000000  0.0000000 )    f =( -0.5000000 )
                  (  0.0000000 -1.0000000 -0.0000000 )       ( -0.0000000 )
                  (  0.0000000  0.0000000 -1.0000000 )       ( -0.0000000 )

      isym =  3     inversion

 cryst.   s( 3) = (    -1          0          0      )
                  (     0         -1          0      )
                  (     0          0         -1      )

 cart.    s( 3) = ( -1.0000000  0.0000000  0.0000000 )
                  (  0.0000000 -1.0000000 -0.0000000 )
                  (  0.0000000  0.0000000 -1.0000000 )

      isym =  4     inv. 180 deg rotation - cart. axis [1,0,0]

 cryst.   s( 4) = (    -1          0          0      )    f =(  0.5000000 )
                  (     0          1          0      )       (  0.0000000 )
                  (     0          0          1      )       (  0.0000000 )

 cart.    s( 4) = ( -1.0000000  0.0000000  0.0000000 )    f =(  0.5000000 )
                  (  0.0000000  1.0000000  0.0000000 )       (  0.0000000 )
                  (  0.0000000  0.0000000  1.0000000 )       (  0.0000000 )

   Cartesian axes

     site n.     atom                  positions (alat units)
         1           Sr  tau(   1) = (   0.2500000   2.3857512   0.8080800  )
         2           Sr  tau(   2) = (   0.7500000   0.8911171   1.4800483  )
         3           Sr  tau(   3) = (   0.2500000   1.7556189   1.5322359  )
         4           Sr  tau(   4) = (   0.7500000   1.5212494   0.7558923  )
         5           Sr  tau(   5) = (   0.2500000   2.4842860   2.1587941  )
         6           Sr  tau(   6) = (   0.7500000   0.7925823   0.1293342  )
         7           Ge  tau(   7) = (   0.2500000   1.0960408   2.1577050  )
         8           Ge  tau(   8) = (   0.7500000   2.1808275   0.1304233  )
         9           Ge  tau(   9) = (   0.7500000   2.3833215   1.4886059  )
        10           Ge  tau(  10) = (   0.2500000   0.8935468   0.7995224  )
        11           N   tau(  11) = (   0.2500000   1.1653386   0.3981000  )
        12           N   tau(  12) = (   0.7500000   2.1115297   1.8900283  )
        13           N   tau(  13) = (   0.2500000   1.2163348   1.1630464  )
        14           N   tau(  14) = (   0.7500000   2.0605335   1.1250818  )

   Crystallographic axes

     site n.     atom                  positions (cryst. coord.)
         1           Sr  tau(   1) = (  0.2500000  0.8812490  0.3531620  )
         2           Sr  tau(   2) = (  0.7500000  0.1187510  0.6468380  )
         3           Sr  tau(   3) = (  0.2500000  0.4810530  0.6696460  )
         4           Sr  tau(   4) = (  0.7500000  0.5189470  0.3303540  )
         5           Sr  tau(   5) = (  0.2500000  0.6823910  0.9434760  )
         6           Sr  tau(   6) = (  0.7500000  0.3176090  0.0565240  )
         7           Ge  tau(   7) = (  0.2500000  0.0858230  0.9430000  )
         8           Ge  tau(   8) = (  0.7500000  0.9141770  0.0570000  )
         9           Ge  tau(   9) = (  0.7500000  0.7586740  0.6505780  )
        10           Ge  tau(  10) = (  0.2500000  0.2413260  0.3494220  )
        11           N   tau(  11) = (  0.2500000  0.4298480  0.1739850  )
        12           N   tau(  12) = (  0.7500000  0.5701520  0.8260150  )
        13           N   tau(  13) = (  0.2500000  0.3151630  0.5082960  )
        14           N   tau(  14) = (  0.7500000  0.6848370  0.4917040  )

     number of k points=     1  Methfessel-Paxton smearing, width (Ry)=  0.0010
                       cart. coord. in units 2pi/alat
        k(    1) = (   0.0000000   0.0000000   0.0000000), wk =   2.0000000

                       cryst. coord.
        k(    1) = (   0.0000000   0.0000000   0.0000000), wk =   2.0000000

     Check: negative core charge=   -0.000004

     Initial potential from superposition of free atoms

     starting charge     135.7946, renormalised to     136.0000

     negative rho (up, down):  3.792E-01 0.000E+00
     Starting wfcs are  130 randomized atomic wfcs

     Self-consistent Calculation

     iteration #  1     ecut=    30.00 Ry     beta= 0.70
     Davidson diagonalization with overlap

     ethr =  1.00E-02,  avg # of iterations =  2.0

     negative rho (up, down):  3.880E-01 0.000E+00

     total energy              =   -1353.17757167 Ry
     estimated scf accuracy    <       5.66583663 Ry

[...]

     total energy              =   -1356.41231008 Ry
     estimated scf accuracy    <       0.00000254 Ry

     iteration # 25     ecut=    30.00 Ry     beta= 0.70
     Davidson diagonalization with overlap

     ethr =  7.98E-10,  avg # of iterations =  2.0

[...]

     End of self-consistent calculation

          k = 0.0000 0.0000 0.0000 (  3001 PWs)   bands (ev):

   -26.5527 -26.5496 -26.3263 -26.2959 -26.0128 -25.9730 -16.5613 -16.5600
   -16.4763 -16.4749 -16.4733 -16.4718 -16.4216 -16.4211 -16.3401 -16.3389
   -15.4128 -15.3665 -15.3476 -15.3347 -15.2846 -15.2820 -15.2041 -15.2005
   -15.1881 -15.1318  -9.0685  -8.9165  -8.8323  -8.6932  -8.6583  -8.6109
    -8.5149  -8.4535  -8.4418  -8.4234  -8.3533  -8.2643  -8.1881  -8.1658
    -8.1201  -7.9773  -7.9230  -7.8179  -5.5666  -5.1902  -4.1891  -4.0483
    -1.4380   0.9896   1.1030   3.1960   4.6995   4.8965   5.2029   5.3499
     5.7213   5.9100   6.0395   6.3301   6.6412   6.7611   6.8394   7.1139
     7.2817   7.7958   7.8193   9.5123   9.5368  10.1071  10.1809  10.3945
    10.4399  11.0556  11.2150  11.5944  11.5997  11.6073  11.7412  12.1615
    12.2284  12.2610

     occupation numbers
     1.0000   1.0000   1.0000   1.0000   1.0000   1.0000   1.0000   1.0000
     1.0000   1.0000   1.0000   1.0000   1.0000   1.0000   1.0000   1.0000
     1.0000   1.0000   1.0000   1.0000   1.0000   1.0000   1.0000   1.0000
     1.0000   1.0000   1.0000   1.0000   1.0000   1.0000   1.0000   1.0000
     1.0000   1.0000   1.0000   1.0000   1.0000   1.0000   1.0000   1.0000
     1.0000   1.0000   1.0000   1.0000   1.0000   1.0000   1.0000   1.0000
     1.0000   1.0000   1.0000   1.0000   1.0000   1.0000   1.0000   1.0000
     1.0000   1.0000   1.0000   1.0000   1.0000   1.0000   1.0000   1.0000
     1.0000   1.0000   1.0000   1.0117  -0.0117  -0.0000  -0.0000  -0.0000
    -0.0000  -0.0000  -0.0000  -0.0000  -0.0000  -0.0000  -0.0000  -0.0000
    -0.0000  -0.0000

     the Fermi energy is     9.5246 ev

!    total energy              =   -1356.41231019 Ry
     estimated scf accuracy    <       0.00000009 Ry
     smearing contrib. (-TS)   =       0.00015663 Ry
     internal energy E=F+TS    =   -1356.41246682 Ry

     The total energy is F=E-TS. E is the sum of the following terms:
     one-electron contribution =    -726.58096007 Ry
     hartree contribution      =     447.83760527 Ry
     xc contribution           =    -364.77177613 Ry
     ewald contribution        =    -712.89733589 Ry

     convergence has been achieved in  25 iterations

     negative rho (up, down):  3.972E-01 0.000E+00

     Forces acting on atoms (cartesian axes, Ry/au):

     atom    1 type  1   force =    -0.00000000   -0.02827695    0.02187653
     atom    2 type  1   force =     0.00000000    0.02827695   -0.02187653
     atom    3 type  1   force =    -0.00000000    0.03061071    0.00993207
     atom    4 type  1   force =     0.00000000   -0.03061071   -0.00993207
     atom    5 type  1   force =     0.00000000   -0.04445598   -0.01369463
     atom    6 type  1   force =    -0.00000000    0.04445598    0.01369463
     atom    7 type  2   force =     0.00000000    0.05811323   -0.01729575
     atom    8 type  2   force =     0.00000000   -0.05811323    0.01729575
     atom    9 type  2   force =     0.00000000   -0.04315331    0.01672214
     atom   10 type  2   force =     0.00000000    0.04315331   -0.01672214
     atom   11 type  3   force =     0.00000000   -0.03451872    0.02369666
     atom   12 type  3   force =     0.00000000    0.03451872   -0.02369666
     atom   13 type  3   force =     0.00000000   -0.03761353   -0.02254362
     atom   14 type  3   force =     0.00000000    0.03761353    0.02254362
     The non-local contrib.  to forces
     atom    1 type  1   force =     0.00000000    0.00615518    0.01270474
     atom    2 type  1   force =     0.00000000   -0.00615518   -0.01270474
     atom    3 type  1   force =     0.00000000    0.02684342    0.00544969
     atom    4 type  1   force =     0.00000000   -0.02684342   -0.00544969
     atom    5 type  1   force =     0.00000000   -0.06297110   -0.07143821
     atom    6 type  1   force =     0.00000000    0.06297110    0.07143821
     atom    7 type  2   force =    -0.00000000   -0.33529456    0.34066757
     atom    8 type  2   force =     0.00000000    0.33529456   -0.34066757
     atom    9 type  2   force =     0.00000000   -0.04908037   -0.11306320
     atom   10 type  2   force =     0.00000000    0.04908037    0.11306320
     atom   11 type  3   force =     0.00000000   -0.18823288    0.60114123
     atom   12 type  3   force =     0.00000000    0.18823288   -0.60114123
     atom   13 type  3   force =     0.00000000   -0.39903426   -0.50760666
     atom   14 type  3   force =     0.00000000    0.39903426    0.50760666
     The ionic contribution  to forces
     atom    1 type  1   force =    -0.00000000    1.74209356   -1.64424038
     atom    2 type  1   force =     0.00000000   -1.74209356    1.64424038
     atom    3 type  1   force =     0.00000000   -5.08149493    1.67931401
     atom    4 type  1   force =     0.00000000    5.08149493   -1.67931401
     atom    5 type  1   force =     0.00000000    1.90066873    1.41110006
     atom    6 type  1   force =     0.00000000   -1.90066874   -1.41110006
     atom    7 type  2   force =     0.00000000    8.05950396   -7.83742160
     atom    8 type  2   force =    -0.00000000   -8.05950396    7.83742160
     atom    9 type  2   force =    -0.00000000   13.28379264   -1.89090381
     atom   10 type  2   force =     0.00000000  -13.28379264    1.89090381
     atom   11 type  3   force =    -0.00000000    3.96566451   -5.62507175
     atom   12 type  3   force =     0.00000000   -3.96566451    5.62507175
     atom   13 type  3   force =     0.00000000    3.97806097    5.84326864
     atom   14 type  3   force =    -0.00000000   -3.97806097   -5.84326864
     The local contribution  to forces
     atom    1 type  1   force =     0.00000015   -1.77607566    1.65494889
     atom    2 type  1   force =     0.00000015    1.77604345   -1.65475782
     atom    3 type  1   force =     0.00000013    5.08723709   -1.67453749
     atom    4 type  1   force =     0.00000002   -5.08735478    1.67472612
     atom    5 type  1   force =     0.00000045   -1.88713615   -1.35829596
     atom    6 type  1   force =     0.00000010    1.88725144    1.35825470
     atom    7 type  2   force =     0.00000021   -7.66710943    7.48106376
     atom    8 type  2   force =    -0.00000059    7.66634384   -7.48222429
     atom    9 type  2   force =    -0.00000015  -13.26535661    2.01735457
     atom   10 type  2   force =    -0.00000022   13.26548428   -2.01719510
     atom   11 type  3   force =     0.00000004   -3.81340052    5.05277552
     atom   12 type  3   force =    -0.00000031    3.81325959   -5.05276435
     atom   13 type  3   force =    -0.00000012   -3.62003020   -5.36253590
     atom   14 type  3   force =    -0.00000016    3.62007833    5.36257200
     The core correction contribution to forces
     atom    1 type  1   force =    -0.00000000   -0.00009534   -0.00124179
     atom    2 type  1   force =    -0.00000000    0.00009516    0.00124169
     atom    3 type  1   force =    -0.00000000   -0.00178876   -0.00018207
     atom    4 type  1   force =    -0.00000000    0.00178838    0.00018624
     atom    5 type  1   force =     0.00000001    0.00511871    0.00468583
     atom    6 type  1   force =     0.00000000   -0.00512018   -0.00468220
     atom    7 type  2   force =    -0.00000000    0.00109059   -0.00240866
     atom    8 type  2   force =    -0.00000001   -0.00110406    0.00239439
     atom    9 type  2   force =    -0.00000000   -0.01206442    0.00336528
     atom   10 type  2   force =    -0.00000000    0.01206415   -0.00336508
     atom   11 type  3   force =     0.00000000    0.00119629   -0.00508621
     atom   12 type  3   force =    -0.00000000   -0.00119680    0.00508668
     atom   13 type  3   force =    -0.00000000    0.00321587    0.00426039
     atom   14 type  3   force =    -0.00000000   -0.00321540   -0.00426075
     The Hubbard contrib.    to forces
     atom    1 type  1   force =     0.00000000    0.00000000    0.00000000
     atom    2 type  1   force =     0.00000000    0.00000000    0.00000000
     atom    3 type  1   force =     0.00000000    0.00000000    0.00000000
     atom    4 type  1   force =     0.00000000    0.00000000    0.00000000
     atom    5 type  1   force =     0.00000000    0.00000000    0.00000000
     atom    6 type  1   force =     0.00000000    0.00000000    0.00000000
     atom    7 type  2   force =     0.00000000    0.00000000    0.00000000
     atom    8 type  2   force =     0.00000000    0.00000000    0.00000000
     atom    9 type  2   force =     0.00000000    0.00000000    0.00000000
     atom   10 type  2   force =     0.00000000    0.00000000    0.00000000
     atom   11 type  3   force =     0.00000000    0.00000000    0.00000000
     atom   12 type  3   force =     0.00000000    0.00000000    0.00000000
     atom   13 type  3   force =     0.00000000    0.00000000    0.00000000
     atom   14 type  3   force =     0.00000000    0.00000000    0.00000000
     The SCF correction term to forces
     atom    1 type  1   force =    -0.00000013   -0.00036596   -0.00028710
     atom    2 type  1   force =    -0.00000004    0.00037582    0.00011181
     atom    3 type  1   force =    -0.00000012   -0.00018619   -0.00008078
     atom    4 type  1   force =    -0.00000002    0.00030409   -0.00004944
     atom    5 type  1   force =    -0.00000034   -0.00012882    0.00029516
     atom    6 type  1   force =    -0.00000008    0.00002972   -0.00017451
     atom    7 type  2   force =    -0.00000016   -0.00011206    0.00080868
     atom    8 type  2   force =     0.00000064    0.00082167    0.00037710
     atom    9 type  2   force =     0.00000026   -0.00042196   -0.00003459
     atom   10 type  2   force =     0.00000036    0.00033974   -0.00013287
     atom   11 type  3   force =     0.00000003    0.00022629   -0.00004763
     atom   12 type  3   force =     0.00000019   -0.00014002    0.00006497
     atom   13 type  3   force =     0.00000003    0.00020456    0.00004323
     atom   14 type  3   force =     0.00000005   -0.00019223   -0.00013234

     Total force =     0.167164     Total SCF correction =     0.001616

     Computing stress (Cartesian axis) and pressure

     negative rho (up, down):  3.972E-01 0.000E+00
          total   stress  (Ry/bohr**3)                   (kbar)     P=      -37.24
   0.00011466   0.00000000   0.00000000           16.87        0.00        0.00
   0.00000000  -0.00037917  -0.00007234            0.00      -55.78      -10.64
   0.00000000  -0.00007234  -0.00049497            0.00      -10.64      -72.81

     kinetic stress (kbar)  10746.15      0.00      0.00
                                0.00  10534.37      1.24
                                0.00      1.24  10489.53

     local   stress (kbar)  -8382.59     -0.00      0.00
                               -0.00  -2680.35    318.30
                                0.00    318.30  -7313.16

     nonloc. stress (kbar)   6434.08      0.00      0.00
                                0.00   6506.88     -2.86
                                0.00     -2.86   6507.12

     hartree stress (kbar)  11356.60     -0.00     -0.00
                               -0.00   8640.75   -127.09
                               -0.00   -127.09  10609.86

     exc-cor stress (kbar)   7659.52      0.00     -0.00
                                0.00   7663.00      0.16
                               -0.00      0.16   7664.76

     corecor stress (kbar) -12606.57      0.00      0.00
                                0.00 -12609.56      0.18
                                0.00      0.18 -12609.55

     ewald   stress (kbar) -15190.33      0.00      0.00
                                0.00 -18110.87   -200.56
                                0.00   -200.56 -15421.37

     hubbard stress (kbar)      0.00      0.00      0.00
                                0.00      0.00      0.00
                                0.00      0.00      0.00

     DFT-D   stress (kbar)      0.00      0.00      0.00
                                0.00      0.00      0.00
                                0.00      0.00      0.00

     XDM     stress (kbar)      0.00      0.00      0.00
                                0.00      0.00      0.00
                                0.00      0.00      0.00

     dft-nl  stress (kbar)      0.00      0.00      0.00
                                0.00      0.00      0.00
                                0.00      0.00      0.00

     TS-vdW  stress (kbar)      0.00      0.00      0.00
                                0.00      0.00      0.00
                                0.00      0.00      0.00

[...]

                                0.00      0.00      0.00

     Writing all to output data dir new_calculations/myprefix.save/

     General routines

     Parallel routines

   This run was terminated on:  17:32:37  20May2023

   JOB DONE.