     Program PWSCF v.7.0 starts on 21May2023 at 18:41:14

     Reading input from espresso_24972.pwi
Warning: card &CELL ignored
Warning: card / ignored

     Current dimensions of program PWSCF are:
     Max number of different atomic species (ntypx) = 10
     Max number of k-points (npk) =  40000
     Max angular momentum in pseudopotentials (lmaxx) =  4
     file O.pbe-n-kjpaw_psl.0.1.UPF: wavefunction(s)  2P renormalized

     gamma-point specific algorithms are used
     Message from routine setup:
     using ibrav=0 with symmetry is DISCOURAGED, use correct ibrav instead

     Subspace diagonalization in iterative solution of the eigenvalue problem:
     a serial algorithm will be used

     Using Slab Decomposition

     bravais-lattice index     =            0
     lattice parameter (alat)  =      13.7023  a.u.
     unit-cell volume          =    1707.7160 (a.u.)^3
     number of atoms/cell      =           18
     number of atomic types    =            3
     number of electrons       =       128.00
     number of Kohn-Sham states=           77
     kinetic-energy cutoff     =      30.0000  Ry
     charge density cutoff     =     240.0000  Ry
     scf convergence threshold =      1.0E-06
     mixing beta               =       0.7000
     number of iterations used =            8  plain     mixing
     Exchange-correlation= SLA  PW   PBX  PBC
                           (   1   4   3   4   0   0   0)

     celldm(1)=  13.702260  celldm(2)=   0.000000  celldm(3)=   0.000000
     celldm(4)=   0.000000  celldm(5)=   0.000000  celldm(6)=   0.000000

     crystal axes: (cart. coord. in units of alat)
               a(1) = (   1.000000   0.000000   0.000000 )
               a(2) = (  -0.500000   0.866025   0.000000 )
               a(3) = (   0.000000   0.000000   0.766493 )

     reciprocal axes: (cart. coord. in units 2 pi/alat)
               b(1) = (  1.000000  0.577350  0.000000 )
               b(2) = (  0.000000  1.154701  0.000000 )
               b(3) = (  0.000000  0.000000  1.304643 )

     PseudoPot. # 1 for Ca read from file:
     /home/pragov/projects/rrg-bengioy-ad/pragov/crystal_structure_design/SSSP/Ca_pbe_v1.uspp.F.UPF
     MD5 check sum: 403a4c14b9e4d4dfdc3024c9a3812218
     Pseudo is Ultrasoft + core correction, Zval = 10.0
     Generated by new atomic code, or converted to UPF format
     Using radial grid of  845 points,  6 beta functions with:
                l(1) =   0
                l(2) =   0
                l(3) =   1
                l(4) =   1
                l(5) =   2
                l(6) =   2
     Q(r) pseudized with  8 coefficients,  rinner =    1.500   1.500   1.500
                                                       1.500   1.500

     PseudoPot. # 2 for Si read from file:
     /home/pragov/projects/rrg-bengioy-ad/pragov/crystal_structure_design/SSSP/Si.pbe-n-rrkjus_psl.1.0.0.UPF
     MD5 check sum: 0b0bb1205258b0d07b9f9672cf965d36
     Pseudo is Ultrasoft + core correction, Zval =  4.0
     Generated using "atomic" code by A. Dal Corso  v.5.1
     Using radial grid of 1141 points,  6 beta functions with:
                l(1) =   0
                l(2) =   0
                l(3) =   1
                l(4) =   1
                l(5) =   2
                l(6) =   2
     Q(r) pseudized with 0 coefficients

     PseudoPot. # 3 for O  read from file:
     /home/pragov/projects/rrg-bengioy-ad/pragov/crystal_structure_design/SSSP/O.pbe-n-kjpaw_psl.0.1.UPF
     MD5 check sum: 0234752ac141de4415c5fc33072bef88
     Pseudo is Projector augmented-wave + core cor, Zval =  6.0
     Generated using "atomic" code by A. Dal Corso  v.5.0.99 svn rev. 10869
     Shape of augmentation charge: BESSEL
     Using radial grid of 1095 points,  4 beta functions with:
                l(1) =   0
                l(2) =   0
                l(3) =   1
                l(4) =   1
     Q(r) pseudized with 0 coefficients

     atomic species   valence    mass     pseudopotential
        Ca            10.00    40.07800     Ca( 1.00)
        Si             4.00    28.08500     Si( 1.00)
        O              6.00    15.99900     O ( 1.00)

     12 Sym. Ops. (no inversion) found ( 6 have fractional translation)

                                    s                        frac. trans.

      isym =  1     identity

 cryst.   s( 1) = (     1          0          0      )
                  (     0          1          0      )
                  (     0          0          1      )

 cart.    s( 1) = (  1.0000000 -0.0000000  0.0000000 )
                  (  0.0000000  1.0000000  0.0000000 )
                  (  0.0000000  0.0000000  1.0000000 )

      isym =  2     180 deg rotation - cart. axis [0,0,1]

 cryst.   s( 2) = (    -1          0          0      )    f =(  0.0000000 )
                  (     0         -1          0      )       ( -0.0000000 )
                  (     0          0          1      )       (  0.5000000 )

 cart.    s( 2) = ( -1.0000000  0.0000000  0.0000000 )    f =(  0.0000000 )
                  (  0.0000000 -1.0000000  0.0000000 )       ( -0.0000000 )
                  (  0.0000000  0.0000000  1.0000000 )       (  0.3832467 )

      isym =  3      60 deg rotation - cryst. axis [0,0,1]

[...]

      isym =  6     120 deg rotation - cryst. axis [0,0,-1]

[...]

      isym =  7     inv. 180 deg rotation - cart. axis [0,1,0]

[...]

      isym =  8     inv. 180 deg rotation - cart. axis [1,0,0]

 cryst.   s( 8) = (    -1          0          0      )
                  (     1          1          0      )
                  (     0          0          1      )

 cart.    s( 8) = ( -1.0000000  0.0000001  0.0000000 )
                  (  0.0000000  1.0000000  0.0000000 )
                  (  0.0000000  0.0000000  1.0000000 )

      isym =  9     inv. 180 deg rotation - cryst. axis [1,-1,0]

 cryst.   s( 9) = (     0          1          0      )    f =(  0.0000000 )
                  (     1          0          0      )       ( -0.0000000 )
                  (     0          0          1      )       (  0.5000000 )

 cart.    s( 9) = ( -0.5000000  0.8660254  0.0000000 )    f =(  0.0000000 )
                  (  0.8660254  0.5000000  0.0000000 )       ( -0.0000000 )
                  (  0.0000000  0.0000000  1.0000000 )       (  0.3832467 )

[...]

 cryst.   s(10) = (    -1         -1          0      )    f =(  0.0000000 )
                  (     0          1          0      )       (  0.0000000 )
                  (     0          0          1      )       (  0.5000000 )

 cart.    s(10) = ( -0.5000000 -0.8660253  0.0000000 )    f =(  0.0000000 )
                  ( -0.8660254  0.5000000  0.0000000 )       (  0.0000000 )
                  (  0.0000000  0.0000000  1.0000000 )       (  0.3832467 )

[...]

 cryst.   s(11) = (     1          1          0      )
                  (     0         -1          0      )
                  (     0          0          1      )

 cart.    s(11) = (  0.5000000  0.8660253  0.0000000 )
                  (  0.8660254 -0.5000000  0.0000000 )
                  (  0.0000000  0.0000000  1.0000000 )

      isym = 12     inv. 180 deg rotation - cryst. axis [1,1,0]

 cryst.   s(12) = (     0         -1          0      )
                  (    -1          0          0      )
                  (     0          0          1      )

 cart.    s(12) = (  0.5000000 -0.8660254  0.0000000 )
                  ( -0.8660254 -0.5000000  0.0000000 )
                  (  0.0000000  0.0000000  1.0000000 )

   Cartesian axes

     site n.     atom                  positions (alat units)
         1           Ca  tau(   1) = (  -0.2734610   0.7352331   0.5869070  )
         2           Ca  tau(   2) = (   0.0000000   0.2615847   0.5869070  )
         3           Ca  tau(   3) = (   0.2265390   0.1307924   0.2036604  )
         4           Ca  tau(   4) = (   0.2734610   0.7352331   0.5869070  )
         5           Ca  tau(   5) = (   0.5000000   0.6044407   0.2036604  )
         6           Ca  tau(   6) = (   0.7734610   0.1307924   0.2036604  )
         7           Si  tau(   7) = (  -0.0000005   0.5773506   0.1805935  )
         8           Si  tau(   8) = (   0.5000005   0.2886749   0.5638402  )
         9           O   tau(   9) = (  -0.1860335   0.6847568   0.2572681  )
        10           O   tau(  10) = (   0.0000000   0.0000000   0.4019185  )
        11           O   tau(  11) = (   0.0000000   0.0000000   0.0186718  )
        12           O   tau(  12) = (   0.0000000   0.3625373   0.2572681  )
        13           O   tau(  13) = (  -0.0000005   0.5773506   0.7164015  )
        14           O   tau(  14) = (   0.1860335   0.6847568   0.2572681  )
        15           O   tau(  15) = (   0.3139665   0.1812686   0.6405148  )
        16           O   tau(  16) = (   0.5000005   0.2886749   0.3331548  )
        17           O   tau(  17) = (   0.5000000   0.5034881   0.6405148  )
        18           O   tau(  18) = (   0.6860335   0.1812686   0.6405148  )

   Crystallographic axes

     site n.     atom                  positions (cryst. coord.)
         1           Ca  tau(   1) = (  0.1510260  0.8489740  0.7657040  )
         2           Ca  tau(   2) = (  0.1510260  0.3020520  0.7657040  )
         3           Ca  tau(   3) = (  0.3020520  0.1510260  0.2657040  )
         4           Ca  tau(   4) = (  0.6979480  0.8489740  0.7657040  )
         5           Ca  tau(   5) = (  0.8489740  0.6979480  0.2657040  )
         6           Ca  tau(   6) = (  0.8489740  0.1510260  0.2657040  )
         7           Si  tau(   7) = (  0.3333330  0.6666670  0.2356100  )
         8           Si  tau(   8) = (  0.6666670  0.3333330  0.7356100  )
         9           O   tau(   9) = (  0.2093110  0.7906890  0.3356430  )
        10           O   tau(  10) = (  0.0000000  0.0000000  0.5243600  )
        11           O   tau(  11) = (  0.0000000  0.0000000  0.0243600  )
        12           O   tau(  12) = (  0.2093110  0.4186220  0.3356430  )
        13           O   tau(  13) = (  0.3333330  0.6666670  0.9346480  )
        14           O   tau(  14) = (  0.5813780  0.7906890  0.3356430  )
        15           O   tau(  15) = (  0.4186220  0.2093110  0.8356430  )
        16           O   tau(  16) = (  0.6666670  0.3333330  0.4346480  )
        17           O   tau(  17) = (  0.7906890  0.5813780  0.8356430  )
        18           O   tau(  18) = (  0.7906890  0.2093110  0.8356430  )

     number of k points=     1  Methfessel-Paxton smearing, width (Ry)=  0.0010
                       cart. coord. in units 2pi/alat
        k(    1) = (   0.0000000   0.0000000   0.0000000), wk =   2.0000000

                       cryst. coord.
        k(    1) = (   0.0000000   0.0000000   0.0000000), wk =   2.0000000

     Check: negative core charge=   -0.000011

     Initial potential from superposition of free atoms

     starting charge     127.9661, renormalised to     128.0000
     Starting wfcs are  108 randomized atomic wfcs
     Checking if some PAW data can be deallocated...

     Self-consistent Calculation

     iteration #  1     ecut=    30.00 Ry     beta= 0.70
     Davidson diagonalization with overlap

     ethr =  1.00E-02,  avg # of iterations =  2.0

     total energy              =    -888.74596532 Ry
     estimated scf accuracy    <       4.49904763 Ry

[...]

     total energy              =    -890.84841766 Ry
     estimated scf accuracy    <       0.00000108 Ry

     iteration # 11     ecut=    30.00 Ry     beta= 0.70
     Davidson diagonalization with overlap

     ethr =  8.40E-10,  avg # of iterations =  3.0

     End of self-consistent calculation

          k = 0.0000 0.0000 0.0000 (  2359 PWs)   bands (ev):

   -31.7841 -31.7253 -31.7253 -31.7113 -31.6909 -31.6909 -13.4643 -13.3619
   -13.1859 -13.1859 -13.1229 -13.0866 -13.0866 -12.9359 -12.9359 -12.8186
   -12.7153 -12.7153 -12.6812 -12.6696 -12.6430 -12.6430 -12.5902 -12.5902
   -11.7992 -11.5068 -10.3503 -10.3047 -10.2022 -10.2022 -10.1464 -10.1464
    -8.2137  -8.1294   0.6472   0.7204   2.1949   2.3482   2.3482   2.4655
     2.5074   2.5074   3.7275   3.7275   4.0527   4.0527   4.3015   4.3015
     4.3652   4.3652   4.5344   4.6855   4.8330   5.2482   5.2482   5.4602
     5.4602   5.6075   5.6939   5.8637   5.8637   6.0009   6.0009   7.1483
    10.0452  11.5911  11.5912  12.1134  12.1134  12.2049  12.3273  12.6998
    12.6998  12.7630  13.0973  13.0974  13.2583

     occupation numbers
     1.0000   1.0000   1.0000   1.0000   1.0000   1.0000   1.0000   1.0000
     1.0000   1.0000   1.0000   1.0000   1.0000   1.0000   1.0000   1.0000
     1.0000   1.0000   1.0000   1.0000   1.0000   1.0000   1.0000   1.0000
     1.0000   1.0000   1.0000   1.0000   1.0000   1.0000   1.0000   1.0000
     1.0000   1.0000   1.0000   1.0000   1.0000   1.0000   1.0000   1.0000
     1.0000   1.0000   1.0000   1.0000   1.0000   1.0000   1.0000   1.0000
     1.0000   1.0000   1.0000   1.0000   1.0000   1.0000   1.0000   1.0000
     1.0000   1.0000   1.0000   1.0000   1.0000   1.0000   1.0000   1.0000
    -0.0000  -0.0000  -0.0000  -0.0000  -0.0000  -0.0000  -0.0000  -0.0000
    -0.0000  -0.0000  -0.0000  -0.0000  -0.0000

     the Fermi energy is     7.7301 ev

!    total energy              =    -890.84841777 Ry
     estimated scf accuracy    <       0.00000016 Ry
     smearing contrib. (-TS)   =       0.00000000 Ry
     internal energy E=F+TS    =    -890.84841777 Ry

     The total energy is F=E-TS. E is the sum of the following terms:
     one-electron contribution =    -283.00348601 Ry
     hartree contribution      =     205.01058922 Ry
     xc contribution           =    -160.00652051 Ry
     ewald contribution        =    -557.71221775 Ry
     one-center paw contrib.   =     -95.13678273 Ry
      -> PAW hartree energy AE =     305.89683302 Ry
      -> PAW hartree energy PS =    -304.79436493 Ry
      -> PAW xc energy AE      =    -173.10823566 Ry
      -> PAW xc energy PS      =      76.86898484 Ry
      -> total E_H with PAW    =     206.11305731 Ry
      -> total E_XC with PAW   =    -256.24577133 Ry

     convergence has been achieved in  11 iterations

     Forces acting on atoms (cartesian axes, Ry/au):

     atom    1 type  1   force =    -0.00683299    0.00394503   -0.00460785
     atom    2 type  1   force =     0.00000000   -0.00789006   -0.00460785
     atom    3 type  1   force =    -0.00683299   -0.00394503   -0.00460785
     atom    4 type  1   force =     0.00683299    0.00394503   -0.00460785
     atom    5 type  1   force =    -0.00000000    0.00789006   -0.00460785
     atom    6 type  1   force =     0.00683299   -0.00394503   -0.00460785
     atom    7 type  2   force =     0.00000000    0.00000000   -0.00069628
     atom    8 type  2   force =     0.00000000    0.00000000   -0.00069628
     atom    9 type  3   force =    -0.00423682    0.00244613    0.00816305
     atom   10 type  3   force =     0.00000000    0.00000000   -0.00837677
     atom   11 type  3   force =     0.00000000    0.00000000   -0.00837677
     atom   12 type  3   force =     0.00000000   -0.00489226    0.00816305
     atom   13 type  3   force =     0.00000000   -0.00000000   -0.00159256
     atom   14 type  3   force =     0.00423682    0.00244613    0.00816305
     atom   15 type  3   force =    -0.00423682   -0.00244613    0.00816305
     atom   16 type  3   force =    -0.00000000    0.00000000   -0.00159256
     atom   17 type  3   force =    -0.00000000    0.00489226    0.00816305
     atom   18 type  3   force =     0.00423682   -0.00244613    0.00816305
     The non-local contrib.  to forces
     atom    1 type  1   force =     0.05399547   -0.03117430    0.01486384
     atom    2 type  1   force =    -0.00000000    0.06234860    0.01486384
     atom    3 type  1   force =     0.05399547    0.03117430    0.01486384
     atom    4 type  1   force =    -0.05399547   -0.03117430    0.01486384
     atom    5 type  1   force =     0.00000000   -0.06234860    0.01486384
     atom    6 type  1   force =    -0.05399547    0.03117430    0.01486384
     atom    7 type  2   force =     0.00000000    0.00000000   -0.01497924
     atom    8 type  2   force =    -0.00000000    0.00000000   -0.01497924
     atom    9 type  3   force =     0.76122739   -0.43949486   -0.38458167
     atom   10 type  3   force =     0.00000000    0.00000000    0.04068906
     atom   11 type  3   force =     0.00000000    0.00000000    0.04068906
     atom   12 type  3   force =    -0.00000000    0.87898965   -0.38458167
     atom   13 type  3   force =     0.00000000    0.00000000    0.98293246
     atom   14 type  3   force =    -0.76122739   -0.43949478   -0.38458167
     atom   15 type  3   force =     0.76122739    0.43949478   -0.38458167
     atom   16 type  3   force =     0.00000000   -0.00000000    0.98293246
     atom   17 type  3   force =    -0.00000000   -0.87898965   -0.38458167
     atom   18 type  3   force =    -0.76122739    0.43949486   -0.38458167
     The ionic contribution  to forces
     atom    1 type  1   force =     8.25219330   -4.76440632   -0.09160500
     atom    2 type  1   force =     0.00002178    9.52884702   -0.09159069
     atom    3 type  1   force =     8.25221295    4.76444193   -0.09159069
     atom    4 type  1   force =    -8.25221295   -4.76444193   -0.09159069
     atom    5 type  1   force =    -0.00002177   -9.52884702   -0.09159069
     atom    6 type  1   force =    -8.25219330    4.76440632   -0.09160500
     atom    7 type  2   force =     0.00003124   -0.00001804    0.09832236
     atom    8 type  2   force =    -0.00003124    0.00001804    0.09832236
     atom    9 type  3   force =     1.96485572   -1.13441005    1.13793860
     atom   10 type  3   force =     0.00000091   -0.00000053   -0.09248807
     atom   11 type  3   force =    -0.00000091    0.00000053   -0.09248807
     atom   12 type  3   force =     0.00002164    2.26885641    1.13791531
     atom   13 type  3   force =     0.00003207   -0.00001852   -3.14481713
     atom   14 type  3   force =    -1.96487653   -1.13444684    1.13791531
     atom   15 type  3   force =     1.96487653    1.13444684    1.13791531
     atom   16 type  3   force =    -0.00003207    0.00001852   -3.14481713
     atom   17 type  3   force =    -0.00002164   -2.26885641    1.13791531
     atom   18 type  3   force =    -1.96485573    1.13441005    1.13793860
     The local contribution  to forces
     atom    1 type  1   force =    -8.31485336    4.80058039    0.07246017
     atom    2 type  1   force =    -0.00001978   -9.60118864    0.07244779
     atom    3 type  1   force =    -8.31484084   -4.80061885    0.07266061
     atom    4 type  1   force =     8.31486214    4.80062558    0.07246958
     atom    5 type  1   force =     0.00002414    9.60118399    0.07265909
     atom    6 type  1   force =     8.31480838   -4.80057416    0.07267586
     atom    7 type  2   force =    -0.00002800    0.00001949   -0.08641951
     atom    8 type  2   force =     0.00002899   -0.00002460   -0.08645939
     atom    9 type  3   force =    -2.72375013    1.57256983   -0.74874628
     atom   10 type  3   force =     0.00000751   -0.00000190    0.04374201
     atom   11 type  3   force =     0.00000041    0.00000169    0.04376876
     atom   12 type  3   force =    -0.00002401   -3.14514030   -0.74872417
     atom   13 type  3   force =    -0.00003164    0.00002345    2.16910252
     atom   14 type  3   force =     2.72376564    1.57259863   -0.74873159
     atom   15 type  3   force =    -2.72375803   -1.57259356   -0.74876022
     atom   16 type  3   force =     0.00003003   -0.00002248    2.16913484
     atom   17 type  3   force =     0.00002270    3.14513711   -0.74875454
     atom   18 type  3   force =     2.72373581   -1.57256022   -0.74877186
     The core correction contribution to forces
     atom    1 type  1   force =     0.00134350   -0.00077602   -0.00041347
     atom    2 type  1   force =    -0.00000002    0.00155213   -0.00041323
     atom    3 type  1   force =     0.00134427    0.00077613   -0.00041018
     atom    4 type  1   force =    -0.00134386   -0.00077587   -0.00041302
     atom    5 type  1   force =    -0.00000003   -0.00155227   -0.00041022
     atom    6 type  1   force =    -0.00134457    0.00077621   -0.00041029
     atom    7 type  2   force =    -0.00000028    0.00000013    0.00236741
     atom    8 type  2   force =     0.00000085   -0.00000075    0.00236607
     atom    9 type  3   force =    -0.00676829    0.00390768    0.00352539
     atom   10 type  3   force =     0.00000002    0.00000006   -0.00033320
     atom   11 type  3   force =    -0.00000005    0.00000011   -0.00033242
     atom   12 type  3   force =     0.00000002   -0.00781545    0.00352536
     atom   13 type  3   force =     0.00000009   -0.00000009   -0.00874368
     atom   14 type  3   force =     0.00676845    0.00390769    0.00352537
     atom   15 type  3   force =    -0.00676848   -0.00390764    0.00352597
     atom   16 type  3   force =    -0.00000003    0.00000012   -0.00874410
     atom   17 type  3   force =    -0.00000004    0.00781539    0.00352592
     atom   18 type  3   force =     0.00676840   -0.00390769    0.00352598
     The Hubbard contrib.    to forces
     atom    1 type  1   force =     0.00000000    0.00000000    0.00000000
     atom    2 type  1   force =     0.00000000    0.00000000    0.00000000
     atom    3 type  1   force =     0.00000000    0.00000000    0.00000000
     atom    4 type  1   force =     0.00000000    0.00000000    0.00000000
     atom    5 type  1   force =     0.00000000    0.00000000    0.00000000
     atom    6 type  1   force =     0.00000000    0.00000000    0.00000000
     atom    7 type  2   force =     0.00000000    0.00000000    0.00000000
     atom    8 type  2   force =     0.00000000    0.00000000    0.00000000
     atom    9 type  3   force =     0.00000000    0.00000000    0.00000000
     atom   10 type  3   force =     0.00000000    0.00000000    0.00000000
     atom   11 type  3   force =     0.00000000    0.00000000    0.00000000
     atom   12 type  3   force =     0.00000000    0.00000000    0.00000000
     atom   13 type  3   force =     0.00000000    0.00000000    0.00000000
     atom   14 type  3   force =     0.00000000    0.00000000    0.00000000
     atom   15 type  3   force =     0.00000000    0.00000000    0.00000000
     atom   16 type  3   force =     0.00000000    0.00000000    0.00000000
     atom   17 type  3   force =     0.00000000    0.00000000    0.00000000
     atom   18 type  3   force =     0.00000000    0.00000000    0.00000000
     The SCF correction term to forces
     atom    1 type  1   force =     0.00049331   -0.00028225    0.00010469
     atom    2 type  1   force =    -0.00000175    0.00055495    0.00010373
     atom    3 type  1   force =     0.00045118    0.00027849   -0.00013138
     atom    4 type  1   force =    -0.00048063   -0.00028911    0.00008254
     atom    5 type  1   force =    -0.00000243   -0.00053893   -0.00013008
     atom    6 type  1   force =    -0.00044013    0.00027170   -0.00013307
     atom    7 type  2   force =    -0.00000012   -0.00000338    0.00002052
     atom    8 type  2   force =     0.00000160    0.00000389    0.00006492
     atom    9 type  3   force =     0.00019588   -0.00012641    0.00001309
     atom   10 type  3   force =    -0.00000795    0.00000534   -0.00000077
     atom   11 type  3   force =     0.00000214    0.00000187    0.00001894
     atom   12 type  3   force =     0.00000552    0.00022372    0.00000853
     atom   13 type  3   force =     0.00000041   -0.00001197   -0.00005082
     atom   14 type  3   force =    -0.00019264   -0.00012501    0.00001571
     atom   15 type  3   force =     0.00018058    0.00012142    0.00009992
     atom   16 type  3   force =    -0.00000107    0.00000587   -0.00009568
     atom   17 type  3   force =    -0.00000286   -0.00021905    0.00009002
     atom   18 type  3   force =    -0.00017221    0.00011584    0.00009376

     Total force =     0.034507     Total SCF correction =     0.001485

     Computing stress (Cartesian axis) and pressure

          total   stress  (Ry/bohr**3)                   (kbar)     P=     -274.94
  -0.00194411   0.00000000   0.00000000         -285.99        0.00        0.00
   0.00000000  -0.00194411   0.00000000            0.00     -285.99        0.00
   0.00000000  -0.00000000  -0.00171874            0.00       -0.00     -252.84

     kinetic stress (kbar)  17493.99     -0.00      0.00
                               -0.00  17493.99      0.00
                                0.00      0.00  17520.35

     local   stress (kbar)  -6554.10      0.05     -0.00
                                0.05  -6554.04     -0.00
                               -0.00     -0.00 -10148.35

     nonloc. stress (kbar)   4204.42     -0.00      0.00
                               -0.00   4204.42      0.00
                                0.00      0.00   4202.65

     hartree stress (kbar)   5284.39     -0.02      0.00
                               -0.02   5284.36     -0.00
                                0.00     -0.00   7091.16

     exc-cor stress (kbar)  -2233.48     -0.00      0.00
                               -0.00  -2233.48     -0.00
                                0.00     -0.00  -2237.02

     corecor stress (kbar)  -1867.48      0.00     -0.00
                                0.00  -1867.48      0.00
                               -0.00      0.00  -1867.01

     ewald   stress (kbar) -16613.74     -0.03     -0.00
                               -0.03 -16613.77      0.00
                               -0.00      0.00 -14814.61

     hubbard stress (kbar)      0.00      0.00      0.00
                                0.00      0.00      0.00
                                0.00      0.00      0.00

     DFT-D   stress (kbar)      0.00      0.00      0.00
                                0.00      0.00      0.00
                                0.00      0.00      0.00

     XDM     stress (kbar)      0.00      0.00      0.00
                                0.00      0.00      0.00
                                0.00      0.00      0.00

     dft-nl  stress (kbar)      0.00      0.00      0.00
                                0.00      0.00      0.00
                                0.00      0.00      0.00

     TS-vdW  stress (kbar)      0.00      0.00      0.00
                                0.00      0.00      0.00
                                0.00      0.00      0.00

[...]

                                0.00      0.00      0.00

     Writing all to output data dir new_calculations/myprefix.save/

     General routines

     Parallel routines

     PAW routines

   This run was terminated on:  18:41:41  21May2023

   JOB DONE.