     Program PWSCF v.7.0 starts on 20May2023 at 19:51:25

     Reading input from espresso_2692.pwi
Warning: card &CELL ignored
Warning: card / ignored

     Current dimensions of program PWSCF are:
     Max number of different atomic species (ntypx) = 10
     Max number of k-points (npk) =  40000
     Max angular momentum in pseudopotentials (lmaxx) =  4

     gamma-point specific algorithms are used
     Message from routine setup:
     using ibrav=0 with symmetry is DISCOURAGED, use correct ibrav instead

     Subspace diagonalization in iterative solution of the eigenvalue problem:
     a serial algorithm will be used

     Using Slab Decomposition

     bravais-lattice index     =            0
     lattice parameter (alat)  =      14.1883  a.u.
     unit-cell volume          =    1679.0082 (a.u.)^3
     number of atoms/cell      =           14
     number of atomic types    =            3
     number of electrons       =       118.00
     number of Kohn-Sham states=           71
     kinetic-energy cutoff     =      30.0000  Ry
     charge density cutoff     =     240.0000  Ry
     scf convergence threshold =      1.0E-06
     mixing beta               =       0.7000
     number of iterations used =            8  plain     mixing
     Exchange-correlation= PBE
                           (   1   4   3   4   0   0   0)

     celldm(1)=  14.188311  celldm(2)=   0.000000  celldm(3)=   0.000000
     celldm(4)=   0.000000  celldm(5)=   0.000000  celldm(6)=   0.000000

     crystal axes: (cart. coord. in units of alat)
               a(1) = (   1.000000   0.000000   0.000000 )
               a(2) = (  -0.500000   0.866025   0.000000 )
               a(3) = (   0.000000   0.000000   0.678782 )

     reciprocal axes: (cart. coord. in units 2 pi/alat)
               b(1) = (  1.000000  0.577350  0.000000 )
               b(2) = (  0.000000  1.154701  0.000000 )
               b(3) = (  0.000000  0.000000  1.473228 )

     PseudoPot. # 1 for Ca read from file:
     /home/pragov/projects/rrg-bengioy-ad/pragov/crystal_structure_design/SSSP/Ca_pbe_v1.uspp.F.UPF
     MD5 check sum: 403a4c14b9e4d4dfdc3024c9a3812218
     Pseudo is Ultrasoft + core correction, Zval = 10.0
     Generated by new atomic code, or converted to UPF format
     Using radial grid of  845 points,  6 beta functions with:
                l(1) =   0
                l(2) =   0
                l(3) =   1
                l(4) =   1
                l(5) =   2
                l(6) =   2
     Q(r) pseudized with  8 coefficients,  rinner =    1.500   1.500   1.500
                                                       1.500   1.500

     PseudoPot. # 2 for Mo read from file:
     /home/pragov/projects/rrg-bengioy-ad/pragov/crystal_structure_design/SSSP/Mo_ONCV_PBE-1.0.oncvpsp.upf
     MD5 check sum: 1b5d28e075c9ccadda658a603575cd1f
     Pseudo is Norm-conserving, Zval = 14.0
     Generated using ONCVPSP code by D. R. Hamann
     Using radial grid of 1526 points,  6 beta functions with:
                l(1) =   0
                l(2) =   0
                l(3) =   1
                l(4) =   1
                l(5) =   2
                l(6) =   2

     PseudoPot. # 3 for N  read from file:
     /home/pragov/projects/rrg-bengioy-ad/pragov/crystal_structure_design/SSSP/N.pbe-n-radius_5.UPF
     MD5 check sum: 16739722b17309cd8fe442a2ace49922
     Pseudo is Ultrasoft + core correction, Zval =  5.0
     Generated using "atomic" code by A. Dal Corso  v.5.1
     Using radial grid of 1085 points,  4 beta functions with:
                l(1) =   0
                l(2) =   0
                l(3) =   1
                l(4) =   1
     Q(r) pseudized with 0 coefficients

     atomic species   valence    mass     pseudopotential
        Ca            10.00    40.07800     Ca( 1.00)
        Mo            14.00    95.95000     Mo( 1.00)
        N              5.00    14.00700     N ( 1.00)

     12 Sym. Ops., with inversion, found ( 6 have fractional translation)

                                    s                        frac. trans.

      isym =  1     identity

 cryst.   s( 1) = (     1          0          0      )
                  (     0          1          0      )
                  (     0          0          1      )

 cart.    s( 1) = (  1.0000000 -0.0000000  0.0000000 )
                  (  0.0000000  1.0000000  0.0000000 )
                  (  0.0000000  0.0000000  1.0000000 )

      isym =  2     180 deg rotation - cart. axis [0,0,1]

 cryst.   s( 2) = (    -1          0          0      )    f =(  0.0000000 )
                  (     0         -1          0      )       ( -0.0000000 )
                  (     0          0          1      )       (  0.5000000 )

 cart.    s( 2) = ( -1.0000000  0.0000000  0.0000000 )    f =(  0.0000000 )
                  (  0.0000000 -1.0000000  0.0000000 )       ( -0.0000000 )
                  (  0.0000000  0.0000000  1.0000000 )       (  0.3393909 )

      isym =  3      60 deg rotation - cryst. axis [0,0,1]

[...]

      isym =  6     120 deg rotation - cryst. axis [0,0,-1]

[...]

      isym =  7     inversion

 cryst.   s( 7) = (    -1          0          0      )
                  (     0         -1          0      )
                  (     0          0         -1      )

 cart.    s( 7) = ( -1.0000000  0.0000000  0.0000000 )
                  (  0.0000000 -1.0000000  0.0000000 )
                  (  0.0000000  0.0000000 -1.0000000 )

      isym =  8     inv. 180 deg rotation - cart. axis [0,0,1]

[...]

      isym =  9     inv.  60 deg rotation - cryst. axis [0,0,1]

 cryst.   s( 9) = (    -1         -1          0      )    f =(  0.0000000 )
                  (     1          0          0      )       (  0.0000000 )
                  (     0          0         -1      )       (  0.5000000 )

 cart.    s( 9) = ( -0.4999999  0.8660254  0.0000000 )    f =(  0.0000000 )
                  ( -0.8660254 -0.5000001  0.0000000 )       (  0.0000000 )
                  (  0.0000000  0.0000000 -1.0000000 )       (  0.3393909 )

[...]

 cryst.   s(10) = (     0          1          0      )    f =( -0.0000000 )
                  (    -1         -1          0      )       ( -0.0000000 )
                  (     0          0         -1      )       (  0.5000000 )

 cart.    s(10) = ( -0.5000001 -0.8660254  0.0000000 )    f =(  0.0000000 )
                  (  0.8660254 -0.4999999  0.0000000 )       ( -0.0000000 )
                  (  0.0000000  0.0000000 -1.0000000 )       (  0.3393909 )

[...]

 cryst.   s(11) = (     0         -1          0      )
                  (     1          1          0      )
                  (     0          0         -1      )

 cart.    s(11) = (  0.5000001  0.8660254  0.0000000 )
                  ( -0.8660254  0.4999999  0.0000000 )
                  (  0.0000000  0.0000000 -1.0000000 )

      isym = 12     inv. 120 deg rotation - cryst. axis [0,0,-1]

 cryst.   s(12) = (     1          1          0      )
                  (    -1          0          0      )
                  (     0          0         -1      )

 cart.    s(12) = (  0.4999999 -0.8660254  0.0000000 )
                  (  0.8660254  0.5000001  0.0000000 )
                  (  0.0000000  0.0000000 -1.0000000 )

   Cartesian axes

     site n.     atom                  positions (alat units)
         1           Ca  tau(   1) = (   0.5726539   0.5622791   0.1696954  )
         2           Ca  tau(   2) = (   0.7006210   0.0889529   0.1696954  )
         3           Ca  tau(   3) = (   0.2267250   0.2147933   0.1696954  )
         4           Ca  tau(   4) = (  -0.0726540   0.3037463   0.5090863  )
         5           Ca  tau(   5) = (  -0.2006211   0.7770724   0.5090863  )
         6           Ca  tau(   6) = (   0.2732749   0.6512320   0.5090863  )
         7           Mo  tau(   7) = (   0.5000005   0.2886748   0.5090863  )
         8           Mo  tau(   8) = (  -0.0000006   0.5773505   0.1696954  )
         9           N   tau(   9) = (   0.5827680   0.5245671   0.5090863  )
        10           N   tau(  10) = (   0.6629055   0.0990499   0.5090863  )
        11           N   tau(  11) = (   0.2543280   0.2424074   0.5090863  )
        12           N   tau(  12) = (  -0.0827680   0.3414582   0.1696954  )
        13           N   tau(  13) = (  -0.1629056   0.7669754   0.1696954  )
        14           N   tau(  14) = (   0.2456719   0.6236179   0.1696954  )

   Crystallographic axes

     site n.     atom                  positions (cryst. coord.)
         1           Ca  tau(   1) = (  0.8972860  0.6492640  0.2500000  )
         2           Ca  tau(   2) = (  0.7519780  0.1027140  0.2500000  )
         3           Ca  tau(   3) = (  0.3507360  0.2480220  0.2500000  )
         4           Ca  tau(   4) = (  0.1027140  0.3507360  0.7500000  )
         5           Ca  tau(   5) = (  0.2480220  0.8972860  0.7500000  )
         6           Ca  tau(   6) = (  0.6492640  0.7519780  0.7500000  )
         7           Mo  tau(   7) = (  0.6666670  0.3333330  0.7500000  )
         8           Mo  tau(   8) = (  0.3333330  0.6666670  0.2500000  )
         9           N   tau(   9) = (  0.8856270  0.6057180  0.7500000  )
        10           N   tau(  10) = (  0.7200920  0.1143730  0.7500000  )
        11           N   tau(  11) = (  0.3942820  0.2799080  0.7500000  )
        12           N   tau(  12) = (  0.1143730  0.3942820  0.2500000  )
        13           N   tau(  13) = (  0.2799080  0.8856270  0.2500000  )
        14           N   tau(  14) = (  0.6057180  0.7200920  0.2500000  )

     number of k points=     1  Methfessel-Paxton smearing, width (Ry)=  0.0010
                       cart. coord. in units 2pi/alat
        k(    1) = (   0.0000000   0.0000000   0.0000000), wk =   2.0000000

                       cryst. coord.
        k(    1) = (   0.0000000   0.0000000   0.0000000), wk =   2.0000000

     Check: negative core charge=   -0.000002

     Initial potential from superposition of free atoms

     starting charge     117.9652, renormalised to     118.0000
     Starting wfcs are  104 randomized atomic wfcs

     Self-consistent Calculation

     iteration #  1     ecut=    30.00 Ry     beta= 0.70
     Davidson diagonalization with overlap

     ethr =  1.00E-02,  avg # of iterations =  2.0

     total energy              =    -843.06649775 Ry
     estimated scf accuracy    <       4.66377655 Ry

[...]

     total energy              =    -845.56330955 Ry
     estimated scf accuracy    <       0.00000222 Ry

     iteration # 25     ecut=    30.00 Ry     beta= 0.70
     Davidson diagonalization with overlap

     ethr =  1.88E-09,  avg # of iterations =  4.0

     End of self-consistent calculation

          k = 0.0000 0.0000 0.0000 (  2319 PWs)   bands (ev):

   -52.0886 -52.0885 -31.4346 -31.4101 -31.4100 -31.3889 -31.3888 -31.3849
   -26.4459 -26.4457 -26.4452 -26.4449 -26.0766 -26.0760 -12.6422 -12.5517
   -12.5516 -12.5427 -12.5328 -12.5328 -12.5326 -12.4898 -12.4898 -12.4401
   -12.4401 -12.4211 -12.3774 -12.3773 -12.3733 -12.3491 -12.3491 -12.3438
    -4.8411  -4.5267  -4.0086  -4.0084  -3.9739  -3.9738   4.6166   4.6166
     5.1548   5.1548   5.2474   5.4049   5.4050   5.5662   5.7237   5.7238
     6.2098   6.6238   6.6239   6.7220   6.7221   6.8487   7.1062   7.2123
     7.6384   7.7655  10.1935  10.2068  10.2069  10.6086  10.9011  10.9011
    11.2605  11.2607  11.2608  11.7972  11.7973  12.0719  12.0720

     occupation numbers
     1.0000   1.0000   1.0000   1.0000   1.0000   1.0000   1.0000   1.0000
     1.0000   1.0000   1.0000   1.0000   1.0000   1.0000   1.0000   1.0000
     1.0000   1.0000   1.0000   1.0000   1.0000   1.0000   1.0000   1.0000
     1.0000   1.0000   1.0000   1.0000   1.0000   1.0000   1.0000   1.0000
     1.0000   1.0000   1.0000   1.0000   1.0000   1.0000   1.0000   1.0000
     1.0000   1.0000   1.0000   1.0000   1.0000   1.0000   1.0000   1.0000
     1.0000   1.0000   1.0000   1.0000   1.0000   1.0000   1.0000   1.0000
     1.0000   1.0000   0.8152   0.0940   0.0908  -0.0000  -0.0000  -0.0000
    -0.0000  -0.0000  -0.0000  -0.0000  -0.0000  -0.0000  -0.0000

     the Fermi energy is    10.1991 ev

!    total energy              =    -845.56330936 Ry
     estimated scf accuracy    <       0.00000045 Ry
     smearing contrib. (-TS)   =      -0.00029878 Ry
     internal energy E=F+TS    =    -845.56301058 Ry

     The total energy is F=E-TS. E is the sum of the following terms:
     one-electron contribution =    -332.39865912 Ry
     hartree contribution      =     205.95954866 Ry
     xc contribution           =    -135.27481416 Ry
     ewald contribution        =    -583.84908596 Ry

     convergence has been achieved in  25 iterations

     Forces acting on atoms (cartesian axes, Ry/au):

     atom    1 type  1   force =    -0.00348493    0.04657748   -0.00000000
     atom    2 type  1   force =     0.04207975   -0.02027070   -0.00000000
     atom    3 type  1   force =    -0.03859481   -0.02630678   -0.00000000
     atom    4 type  1   force =     0.00348493   -0.04657748    0.00000000
     atom    5 type  1   force =    -0.04207975    0.02027070    0.00000000
     atom    6 type  1   force =     0.03859481    0.02630678    0.00000000
     atom    7 type  2   force =     0.00000000   -0.00000000    0.00000000
     atom    8 type  2   force =    -0.00000000    0.00000000    0.00000000
     atom    9 type  3   force =    -0.01268992   -0.07732669   -0.00000000
     atom   10 type  3   force =    -0.06062192    0.04965313    0.00000000
     atom   11 type  3   force =     0.07331183    0.02767356    0.00000000
     atom   12 type  3   force =     0.01268992    0.07732669   -0.00000000
     atom   13 type  3   force =     0.06062192   -0.04965313    0.00000000
     atom   14 type  3   force =    -0.07331183   -0.02767356    0.00000000
     The non-local contrib.  to forces
     atom    1 type  1   force =     0.01297914   -0.02511660   -0.00000000
     atom    2 type  1   force =    -0.02824118    0.00131803   -0.00000000
     atom    3 type  1   force =     0.01526204    0.02379857    0.00000000
     atom    4 type  1   force =    -0.01297914    0.02511660    0.00000000
     atom    5 type  1   force =     0.02824118   -0.00131803    0.00000000
     atom    6 type  1   force =    -0.01526204   -0.02379857    0.00000000
     atom    7 type  2   force =     0.00000000    0.00000000    0.00000000
     atom    8 type  2   force =     0.00000000    0.00000000   -0.00000000
     atom    9 type  3   force =    -0.14897345   -0.35224275   -0.00000000
     atom   10 type  3   force =    -0.23056441    0.30513615   -0.00000000
     atom   11 type  3   force =     0.37953787    0.04710660    0.00000000
     atom   12 type  3   force =     0.14897345    0.35224275    0.00000000
     atom   13 type  3   force =     0.23056441   -0.30513615    0.00000000
     atom   14 type  3   force =    -0.37953787   -0.04710660    0.00000000
     The ionic contribution  to forces
     atom    1 type  1   force =    -2.00931922    3.81533697   -0.00000000
     atom    2 type  1   force =     4.30881172   -0.16762549   -0.00000000
     atom    3 type  1   force =    -2.29958640   -3.64765777   -0.00000000
     atom    4 type  1   force =     2.00931922   -3.81533697    0.00000000
     atom    5 type  1   force =    -4.30881172    0.16762549    0.00000000
     atom    6 type  1   force =     2.29958640    3.64765777    0.00000000
     atom    7 type  2   force =    -0.00006099    0.00003350    0.00000000
     atom    8 type  2   force =     0.00006099   -0.00003350   -0.00000000
     atom    9 type  3   force =     2.34505024    7.20263000    0.00000000
     atom   10 type  3   force =     5.06511918   -5.63221976    0.00000000
     atom   11 type  3   force =    -7.41021901   -1.57038049    0.00000000
     atom   12 type  3   force =    -2.34505024   -7.20263000    0.00000000
     atom   13 type  3   force =    -5.06511918    5.63221976    0.00000000
     atom   14 type  3   force =     7.41021901    1.57038049    0.00000000
     The local contribution  to forces
     atom    1 type  1   force =     1.99245741   -3.74471537    0.00000238
     atom    2 type  1   force =    -4.23890419    0.14661408   -0.00000098
     atom    3 type  1   force =     2.24658483    3.59816038    0.00000401
     atom    4 type  1   force =    -1.99230479    3.74462049   -0.00000157
     atom    5 type  1   force =     4.23905890   -0.14631522   -0.00000248
     atom    6 type  1   force =    -2.24678257   -3.59816310   -0.00000009
     atom    7 type  2   force =    -0.00005143   -0.00032183   -0.00000130
     atom    8 type  2   force =    -0.00023881   -0.00037915   -0.00000234
     atom    9 type  3   force =    -2.20974451   -6.92975557    0.00000618
     atom   10 type  3   force =    -4.89648604    5.37847598    0.00000228
     atom   11 type  3   force =     7.10564408    1.55112376   -0.00000694
     atom   12 type  3   force =     2.20972084    6.92960142    0.00000680
     atom   13 type  3   force =     4.89648137   -5.37840727   -0.00000142
     atom   14 type  3   force =    -7.10572288   -1.55115487   -0.00000704
     The core correction contribution to forces
     atom    1 type  1   force =     0.00016674    0.00109270    0.00000022
     atom    2 type  1   force =     0.00087164   -0.00068776   -0.00000001
     atom    3 type  1   force =    -0.00102192   -0.00040761    0.00000017
     atom    4 type  1   force =    -0.00016508   -0.00109210   -0.00000002
     atom    5 type  1   force =    -0.00087043    0.00068879   -0.00000014
     atom    6 type  1   force =     0.00102200    0.00040705   -0.00000015
     atom    7 type  2   force =     0.00000000    0.00000000    0.00000000
     atom    8 type  2   force =     0.00000000    0.00000000    0.00000000
     atom    9 type  3   force =     0.00081092    0.00192396    0.00000003
     atom   10 type  3   force =     0.00126011   -0.00166461    0.00000005
     atom   11 type  3   force =    -0.00207241   -0.00025926   -0.00000004
     atom   12 type  3   force =    -0.00081137   -0.00192354    0.00000003
     atom   13 type  3   force =    -0.00126013    0.00166405   -0.00000001
     atom   14 type  3   force =     0.00207220    0.00025934   -0.00000005
     The Hubbard contrib.    to forces
     atom    1 type  1   force =     0.00000000    0.00000000    0.00000000
     atom    2 type  1   force =     0.00000000    0.00000000    0.00000000
     atom    3 type  1   force =     0.00000000    0.00000000    0.00000000
     atom    4 type  1   force =     0.00000000    0.00000000    0.00000000
     atom    5 type  1   force =     0.00000000    0.00000000    0.00000000
     atom    6 type  1   force =     0.00000000    0.00000000    0.00000000
     atom    7 type  2   force =     0.00000000    0.00000000    0.00000000
     atom    8 type  2   force =     0.00000000    0.00000000    0.00000000
     atom    9 type  3   force =     0.00000000    0.00000000    0.00000000
     atom   10 type  3   force =     0.00000000    0.00000000    0.00000000
     atom   11 type  3   force =     0.00000000    0.00000000    0.00000000
     atom   12 type  3   force =     0.00000000    0.00000000    0.00000000
     atom   13 type  3   force =     0.00000000    0.00000000    0.00000000
     atom   14 type  3   force =     0.00000000    0.00000000    0.00000000
     The SCF correction term to forces
     atom    1 type  1   force =     0.00028245   -0.00004110   -0.00000006
     atom    2 type  1   force =    -0.00034572    0.00008171   -0.00000067
     atom    3 type  1   force =     0.00025396   -0.00017230   -0.00000391
     atom    4 type  1   force =    -0.00042061    0.00014609    0.00000333
     atom    5 type  1   force =     0.00019514   -0.00037955    0.00000267
     atom    6 type  1   force =    -0.00004099    0.00017260   -0.00000074
     atom    7 type  2   force =     0.00037322    0.00027621    0.00000228
     atom    8 type  2   force =    -0.00011043    0.00038665   -0.00000036
     atom    9 type  3   force =     0.00007493    0.00006476    0.00000142
     atom   10 type  3   force =    -0.00005011   -0.00004199    0.00000042
     atom   11 type  3   force =     0.00024576    0.00005243   -0.00000095
     atom   12 type  3   force =    -0.00010922    0.00008289    0.00000013
     atom   13 type  3   force =     0.00004952   -0.00005626    0.00000048
     atom   14 type  3   force =    -0.00018936   -0.00002145   -0.00000137

     Total force =     0.223455     Total SCF correction =     0.001109

     Computing stress (Cartesian axis) and pressure

          total   stress  (Ry/bohr**3)                   (kbar)     P=       -7.97
  -0.00016609  -0.00000000  -0.00000000          -24.43       -0.00       -0.00
  -0.00000000  -0.00016609  -0.00000000           -0.00      -24.43       -0.00
  -0.00000000  -0.00000000   0.00016974           -0.00       -0.00       24.97

     kinetic stress (kbar)  16203.98      0.00      0.00
                                0.00  16203.98      0.00
                                0.00      0.00  16129.29

     local   stress (kbar)  -8460.38     -0.33      0.00
                               -0.33  -8459.41      0.00
                                0.00      0.00  -5209.26

     nonloc. stress (kbar)   5885.15      0.00      0.00
                                0.00   5885.16      0.00
                                0.00      0.00   5908.78

     hartree stress (kbar)   6250.98     -0.02     -0.00
                               -0.02   6250.55     -0.00
                               -0.00     -0.00   5543.47

     exc-cor stress (kbar)  -2573.24      0.00     -0.00
                                0.00  -2573.24     -0.00
                               -0.00     -0.00  -2587.71

     corecor stress (kbar)  -1089.75     -0.00      0.00
                               -0.00  -1089.75      0.00
                                0.00      0.00  -1088.96

     ewald   stress (kbar) -16241.46      0.02     -0.00
                                0.02 -16241.42     -0.00
                               -0.00     -0.00 -18670.63

     hubbard stress (kbar)      0.00      0.00      0.00
                                0.00      0.00      0.00
                                0.00      0.00      0.00

     DFT-D   stress (kbar)      0.00      0.00      0.00
                                0.00      0.00      0.00
                                0.00      0.00      0.00

     XDM     stress (kbar)      0.00      0.00      0.00
                                0.00      0.00      0.00
                                0.00      0.00      0.00

     dft-nl  stress (kbar)      0.00      0.00      0.00
                                0.00      0.00      0.00
                                0.00      0.00      0.00

     TS-vdW  stress (kbar)      0.00      0.00      0.00
                                0.00      0.00      0.00
                                0.00      0.00      0.00

[...]

                                0.00      0.00      0.00

     Writing all to output data dir new_calculations/myprefix.save/

     General routines

     Parallel routines

   This run was terminated on:  19:53: 9  20May2023

   JOB DONE.