     Program PWSCF v.7.0 starts on 21May2023 at 12:32:59

     Reading input from espresso_25572.pwi
Warning: card &CELL ignored
Warning: card / ignored

     Current dimensions of program PWSCF are:
     Max number of different atomic species (ntypx) = 10
     Max number of k-points (npk) =  40000
     Max angular momentum in pseudopotentials (lmaxx) =  4
     file O.pbe-n-kjpaw_psl.0.1.UPF: wavefunction(s)  2P renormalized

     gamma-point specific algorithms are used

     Subspace diagonalization in iterative solution of the eigenvalue problem:
     a serial algorithm will be used

     Using Slab Decomposition

     bravais-lattice index     =            0
     lattice parameter (alat)  =      10.9507  a.u.
     unit-cell volume          =     932.0808 (a.u.)^3
     number of atoms/cell      =           16
     number of atomic types    =            4
     number of electrons       =       131.00
     number of Kohn-Sham states=           79
     kinetic-energy cutoff     =      30.0000  Ry
     charge density cutoff     =     240.0000  Ry
     scf convergence threshold =      1.0E-06
     mixing beta               =       0.7000
     number of iterations used =            8  plain     mixing
     Exchange-correlation= SLA  PW   PBX  PBC
                           (   1   4   3   4   0   0   0)

     celldm(1)=  10.950699  celldm(2)=   0.000000  celldm(3)=   0.000000
     celldm(4)=   0.000000  celldm(5)=   0.000000  celldm(6)=   0.000000

     crystal axes: (cart. coord. in units of alat)
               a(1) = (   1.000000   0.000000   0.000000 )
               a(2) = (   0.505141   0.869124   0.000000 )
               a(3) = (   0.492207   0.294800   0.816669 )

     reciprocal axes: (cart. coord. in units 2 pi/alat)
               b(1) = (  1.000000 -0.581206 -0.392898 )
               b(2) = (  0.000000  1.150583 -0.415336 )
               b(3) = (  0.000000  0.000000  1.224486 )

     PseudoPot. # 1 for Li read from file:
     /home/pragov/projects/rrg-bengioy-ad/pragov/crystal_structure_design/SSSP/li_pbe_v1.4.uspp.F.UPF
     MD5 check sum: e912e257baa3777c20ea3d68f190483c
     Pseudo is Ultrasoft, Zval =  3.0
     Generated by new atomic code, or converted to UPF format
     Using radial grid of  751 points,  5 beta functions with:
                l(1) =   0
                l(2) =   0
                l(3) =   0
                l(4) =   1
                l(5) =   1
     Q(r) pseudized with 10 coefficients,  rinner =    1.150   1.150   1.150

     PseudoPot. # 2 for Co read from file:
     /home/pragov/projects/rrg-bengioy-ad/pragov/crystal_structure_design/SSSP/Co_pbe_v1.2.uspp.F.UPF
     MD5 check sum: 5f91765df6ddd3222702df6e7b74a16d
     Pseudo is Ultrasoft + core correction, Zval = 17.0
     Generated by new atomic code, or converted to UPF format
     Using radial grid of  863 points,  6 beta functions with:
                l(1) =   0
                l(2) =   0
                l(3) =   1
                l(4) =   1
                l(5) =   2
                l(6) =   2
     Q(r) pseudized with  8 coefficients,  rinner =    1.200   1.200   1.200
                                                       1.200   1.200

     PseudoPot. # 3 for Ni read from file:
     /home/pragov/projects/rrg-bengioy-ad/pragov/crystal_structure_design/SSSP/ni_pbe_v1.4.uspp.F.UPF
     MD5 check sum: 1ee80287db30b12d2bc1f57a5b5d6409
     Pseudo is Ultrasoft + core correction, Zval = 18.0
     Generated by new atomic code, or converted to UPF format
     Using radial grid of  865 points,  6 beta functions with:
                l(1) =   0
                l(2) =   0
                l(3) =   1
                l(4) =   1
                l(5) =   2
                l(6) =   2
     Q(r) pseudized with 10 coefficients,  rinner =    0.980   0.980   0.980
                                                       0.980   0.980

     PseudoPot. # 4 for O  read from file:
     /home/pragov/projects/rrg-bengioy-ad/pragov/crystal_structure_design/SSSP/O.pbe-n-kjpaw_psl.0.1.UPF
     MD5 check sum: 0234752ac141de4415c5fc33072bef88
     Pseudo is Projector augmented-wave + core cor, Zval =  6.0
     Generated using "atomic" code by A. Dal Corso  v.5.0.99 svn rev. 10869
     Shape of augmentation charge: BESSEL
     Using radial grid of 1095 points,  4 beta functions with:
                l(1) =   0
                l(2) =   0
                l(3) =   1
                l(4) =   1
     Q(r) pseudized with 0 coefficients

     atomic species   valence    mass     pseudopotential
        Li             3.00     6.94000     Li( 1.00)
        Co            17.00    58.93319     Co( 1.00)
        Ni            18.00    58.69340     Ni( 1.00)
        O              6.00    15.99900     O ( 1.00)

     No symmetry found

                                    s                        frac. trans.

      isym =  1     identity

 cryst.   s( 1) = (     1          0          0      )
                  (     0          1          0      )
                  (     0          0          1      )

 cart.    s( 1) = (  1.0000000  0.0000000 -0.0000000 )
                  (  0.0000000  1.0000000 -0.0000000 )
                  (  0.0000000  0.0000000  1.0000000 )

   Cartesian axes

     site n.     atom                  positions (alat units)
         1           Li  tau(   1) = (   0.9986584   0.5819673   0.4083337  )
         2           Li  tau(   2) = (   0.4986868   0.5819571   0.4083321  )
         3           Li  tau(   3) = (   0.7461025   0.1474095   0.4083435  )
         4           Li  tau(   4) = (   1.7512361   1.0165165   0.4083288  )
         5           Co  tau(   5) = (   1.4922046   0.2948028   0.8166641  )
         6           Ni  tau(   6) = (   0.7447788   0.7293500   0.8166657  )
         7           Ni  tau(   7) = (   0.7525677   0.4345573   0.0000008  )
         8           Ni  tau(   8) = (   1.0051430   0.8691266   0.0000106  )
         9           O   tau(   9) = (   1.2606593   0.7422408   0.1791290  )
        10           O   tau(  10) = (   0.7361171   0.7335253   0.2003820  )
        11           O   tau(  11) = (   0.9911179   0.2743681   0.1799971  )
        12           O   tau(  12) = (   0.5147162   0.2826250   0.1725050  )
        13           O   tau(  13) = (   1.4826420   0.8813000   0.6441599  )
        14           O   tau(  14) = (   1.0062249   0.8895595   0.6366605  )
        15           O   tau(  15) = (   1.2612337   0.4303947   0.6162739  )
        16           O   tau(  16) = (   0.7366957   0.4216872   0.6375490  )

   Crystallographic axes

     site n.     atom                  positions (cryst. coord.)
         1           Li  tau(   1) = (  0.4999820  0.5000060  0.4999990  )
         2           Li  tau(   2) = (  0.0000170  0.4999950  0.4999970  )
         3           Li  tau(   3) = (  0.4999900  0.0000070  0.5000110  )
         4           Li  tau(   4) = (  0.9999990  0.9999930  0.4999930  )
         5           Co  tau(   5) = (  0.9999980  0.0000050  0.9999940  )
         6           Ni  tau(   6) = (  0.0000100  0.4999870  0.9999960  )
         7           Ni  tau(   7) = (  0.5000000  0.4999940  0.0000010  )
         8           Ni  tau(   8) = (  0.4999970  0.9999980  0.0000130  )
         9           O   tau(   9) = (  0.7588850  0.7796110  0.2193410  )
        10           O   tau(  10) = (  0.2310580  0.7607560  0.2453650  )
        11           O   tau(  11) = (  0.7609330  0.2409240  0.2204040  )
        12           O   tau(  12) = (  0.2826760  0.2535360  0.2112300  )
        13           O   tau(  13) = (  0.7173360  0.7464660  0.7887650  )
        14           O   tau(  14) = (  0.2390650  0.7590840  0.7795820  )
        15           O   tau(  15) = (  0.7689530  0.2392440  0.7546190  )
        16           O   tau(  16) = (  0.2411170  0.2203890  0.7806700  )

     number of k points=     1  Methfessel-Paxton smearing, width (Ry)=  0.0010
                       cart. coord. in units 2pi/alat
        k(    1) = (   0.0000000   0.0000000   0.0000000), wk =   2.0000000

                       cryst. coord.
        k(    1) = (   0.0000000   0.0000000   0.0000000), wk =   2.0000000

     Check: negative core charge=   -0.000020

     Initial potential from superposition of free atoms

     starting charge     122.1970, renormalised to     131.0000
     Starting wfcs are  104 randomized atomic wfcs
     Checking if some PAW data can be deallocated...

     Self-consistent Calculation

     iteration #  1     ecut=    30.00 Ry     beta= 0.70
     Davidson diagonalization with overlap

     ethr =  1.00E-02,  avg # of iterations =  5.0

     total energy              =   -1601.68572289 Ry
     estimated scf accuracy    <     160.07214804 Ry

[...]

     total energy              =   -1718.99130663 Ry
     estimated scf accuracy    <       0.00000554 Ry

     iteration # 66     ecut=    30.00 Ry     beta= 0.70
     Davidson diagonalization with overlap

     ethr =  4.23E-09,  avg # of iterations =  1.0

     End of self-consistent calculation

          k = 0.0000 0.0000 0.0000 (  1326 PWs)   bands (ev):

   -94.2993 -94.2787 -93.8363 -85.6852 -54.9023 -54.8811 -54.7130 -54.7008
   -54.3423 -54.2826 -54.2290 -54.1264 -54.0745 -48.9738 -48.9386 -48.8795
   -35.5508 -35.0934 -35.0784 -34.8817 -10.0761  -8.9531  -8.7566  -8.6756
    -8.6545  -8.5416  -8.1448  -8.0470   2.5789   2.7552   2.9192   3.1495
     3.6507   3.6754   3.6821   4.5974   4.7232   4.8159   5.2575   5.4330
     5.6066   5.8888   6.0305   6.0392   6.1498   6.2576   6.4027   6.5616
     6.6223   7.7002   7.7462   7.7577   7.7673   7.8229   7.9487   8.0265
     8.0961   8.4037   8.5164   8.5578   8.6880   8.9442   8.9676   9.0967
    10.6477  10.6506  10.6538  10.6611  10.8191  10.9453  11.7215  11.8048
    14.4330  16.3623  16.6227  16.6549  16.9516  19.0047  19.8649

     occupation numbers
     1.0000   1.0000   1.0000   1.0000   1.0000   1.0000   1.0000   1.0000
     1.0000   1.0000   1.0000   1.0000   1.0000   1.0000   1.0000   1.0000
     1.0000   1.0000   1.0000   1.0000   1.0000   1.0000   1.0000   1.0000
     1.0000   1.0000   1.0000   1.0000   1.0000   1.0000   1.0000   1.0000
     1.0000   1.0000   1.0000   1.0000   1.0000   1.0000   1.0000   1.0000
     1.0000   1.0000   1.0000   1.0000   1.0000   1.0000   1.0000   1.0000
     1.0000   1.0000   1.0000   1.0000   1.0000   1.0000   1.0000   1.0000
     1.0000   1.0000   1.0000   1.0000   1.0000   1.0000   1.0000   1.0000
     0.6781   0.4979   0.3073   0.0168  -0.0000  -0.0000  -0.0000  -0.0000
    -0.0000  -0.0000  -0.0000  -0.0000  -0.0000  -0.0000  -0.0000

     the Fermi energy is    10.6506 ev

!    total energy              =   -1718.99130613 Ry
     estimated scf accuracy    <       0.00000075 Ry
     smearing contrib. (-TS)   =      -0.00073285 Ry
     internal energy E=F+TS    =   -1718.99057328 Ry

     The total energy is F=E-TS. E is the sum of the following terms:
     one-electron contribution =   -1213.79089907 Ry
     hartree contribution      =     668.68786589 Ry
     xc contribution           =    -212.31655706 Ry
     ewald contribution        =    -885.41752323 Ry
     one-center paw contrib.   =     -76.15345982 Ry
      -> PAW hartree energy AE =     230.52777531 Ry
      -> PAW hartree energy PS =    -229.67111201 Ry
      -> PAW xc energy AE      =    -136.36157681 Ry
      -> PAW xc energy PS      =      59.35145369 Ry
      -> total E_H with PAW    =     669.54452919 Ry
      -> total E_XC with PAW   =    -289.32668017 Ry

     convergence has been achieved in  66 iterations

     Forces acting on atoms (cartesian axes, Ry/au):

     atom    1 type  1   force =     0.00000699    0.00000095   -0.00000369
     atom    2 type  1   force =    -0.00000649    0.00000611   -0.00000406
     atom    3 type  1   force =     0.00000033   -0.00001093   -0.00000290
     atom    4 type  1   force =    -0.00000047    0.00000373    0.00000113
     atom    5 type  2   force =    -0.00002748    0.00000839    0.00003259
     atom    6 type  3   force =    -0.00002527    0.00006570    0.00004047
     atom    7 type  3   force =     0.00005910   -0.00000352   -0.00003141
     atom    8 type  3   force =     0.00004284   -0.00003470   -0.00004558
     atom    9 type  4   force =    -0.00686991   -0.01647359   -0.02856183
     atom   10 type  4   force =    -0.00466551    0.00039419   -0.01429028
     atom   11 type  4   force =     0.01115595    0.01579064   -0.02939143
     atom   12 type  4   force =    -0.02130147    0.01278080   -0.03783279
     atom   13 type  4   force =     0.02126979   -0.01278420    0.03786749
     atom   14 type  4   force =    -0.01115111   -0.01580945    0.02939792
     atom   15 type  4   force =     0.00464884   -0.00039170    0.01431209
     atom   16 type  4   force =     0.00686388    0.01645757    0.02851228
     The non-local contrib.  to forces
     atom    1 type  1   force =     0.00000405   -0.00001086    0.00000346
     atom    2 type  1   force =     0.00001167   -0.00000328    0.00000643
     atom    3 type  1   force =     0.00000328    0.00000920   -0.00000855
     atom    4 type  1   force =     0.00000664    0.00000818   -0.00001308
     atom    5 type  2   force =    -0.00004882    0.00007915    0.00000452
     atom    6 type  3   force =     0.00000777    0.00001387    0.00006838
     atom    7 type  3   force =    -0.00000376   -0.00006134   -0.00000714
     atom    8 type  3   force =     0.00004277    0.00002544    0.00002079
     atom    9 type  4   force =    -0.03389178    0.00920063   -0.60749414
     atom   10 type  4   force =    -0.03719390    0.01118561   -0.52819200
     atom   11 type  4   force =    -0.01568413    0.02630746   -0.60711826
     atom   12 type  4   force =    -0.00227242    0.00817449   -0.64836736
     atom   13 type  4   force =     0.00228699   -0.00824890    0.64829244
     atom   14 type  4   force =     0.01567076   -0.02633866    0.60708686
     atom   15 type  4   force =     0.03728874   -0.01117163    0.52839511
     atom   16 type  4   force =     0.03377600   -0.00905116    0.60735179
     The ionic contribution  to forces
     atom    1 type  1   force =     0.00046445   -0.00023195   -0.00004091
     atom    2 type  1   force =    -0.00033235    0.00022182   -0.00001415
     atom    3 type  1   force =     0.00031685   -0.00019161   -0.00031670
     atom    4 type  1   force =    -0.00015229    0.00017567    0.00049981
     atom    5 type  2   force =    -0.00028213   -0.00255977   -0.00056500
     atom    6 type  3   force =    -0.00051327    0.00490168    0.00045810
     atom    7 type  3   force =     0.00099463    0.00300791   -0.00207947
     atom    8 type  3   force =     0.00048679   -0.00382272    0.00073997
     atom    9 type  4   force =    -0.53846412   -1.73174579   18.33196263
     atom   10 type  4   force =     1.26723933   -0.68672136   17.93382726
     atom   11 type  4   force =     1.11602606    1.39953217   18.30033560
     atom   12 type  4   force =    -1.25569107    0.69179414   18.29571481
     atom   13 type  4   force =     1.25477793   -0.69038801  -18.29397583
     atom   14 type  4   force =    -1.11554107   -1.39934203  -18.29891228
     atom   15 type  4   force =    -1.26880157    0.68646390  -17.93495873
     atom   16 type  4   force =     0.53947182    1.72890596  -18.33267511
     The local contribution  to forces
     atom    1 type  1   force =    -0.00046918    0.00025409    0.00004560
     atom    2 type  1   force =     0.00032270   -0.00021104    0.00000889
     atom    3 type  1   force =    -0.00032893    0.00017035    0.00034287
     atom    4 type  1   force =     0.00015367   -0.00019085   -0.00047431
     atom    5 type  2   force =     0.00037964    0.00236478    0.00052215
     atom    6 type  3   force =     0.00055160   -0.00482251   -0.00056146
     atom    7 type  3   force =    -0.00101584   -0.00284278    0.00200206
     atom    8 type  3   force =    -0.00055300    0.00374685   -0.00081548
     atom    9 type  4   force =     0.56439305    1.70610308  -17.75973733
     atom   10 type  4   force =    -1.23430630    0.67619042  -17.42598879
     atom   11 type  4   force =    -1.08912392   -1.40946689  -17.72889354
     atom   12 type  4   force =     1.23625111   -0.68755307  -17.69219630
     atom   13 type  4   force =    -1.23539572    0.68622818   17.69057339
     atom   14 type  4   force =     1.08866540    1.40929179   17.72752191
     atom   15 type  4   force =     1.23576280   -0.67595376   17.42694059
     atom   16 type  4   force =    -0.56528877   -1.70344363   17.76054471
     The core correction contribution to forces
     atom    1 type  1   force =     0.00000000    0.00000000    0.00000000
     atom    2 type  1   force =     0.00000000    0.00000000    0.00000000
     atom    3 type  1   force =     0.00000000    0.00000000    0.00000000
     atom    4 type  1   force =     0.00000000    0.00000000    0.00000000
     atom    5 type  2   force =     0.00000143   -0.00000081    0.00000064
     atom    6 type  3   force =    -0.00000001    0.00000013   -0.00000014
     atom    7 type  3   force =     0.00000058    0.00000080   -0.00000017
     atom    8 type  3   force =    -0.00000062   -0.00000004   -0.00000118
     atom    9 type  4   force =     0.00064856    0.00027444    0.00656003
     atom   10 type  4   force =     0.00005588    0.00008573    0.00592465
     atom   11 type  4   force =     0.00001632   -0.00075023    0.00657334
     atom   12 type  4   force =     0.00032500   -0.00026289    0.00696597
     atom   13 type  4   force =    -0.00032494    0.00026374   -0.00696546
     atom   14 type  4   force =    -0.00001619    0.00075066   -0.00657327
     atom   15 type  4   force =    -0.00005673   -0.00008597   -0.00592693
     atom   16 type  4   force =    -0.00064721   -0.00027596   -0.00655829
     The Hubbard contrib.    to forces
     atom    1 type  1   force =     0.00000000    0.00000000    0.00000000
     atom    2 type  1   force =     0.00000000    0.00000000    0.00000000
     atom    3 type  1   force =     0.00000000    0.00000000    0.00000000
     atom    4 type  1   force =     0.00000000    0.00000000    0.00000000
     atom    5 type  2   force =     0.00000000    0.00000000    0.00000000
     atom    6 type  3   force =     0.00000000    0.00000000    0.00000000
     atom    7 type  3   force =     0.00000000    0.00000000    0.00000000
     atom    8 type  3   force =     0.00000000    0.00000000    0.00000000
     atom    9 type  4   force =     0.00000000    0.00000000    0.00000000
     atom   10 type  4   force =     0.00000000    0.00000000    0.00000000
     atom   11 type  4   force =     0.00000000    0.00000000    0.00000000
     atom   12 type  4   force =     0.00000000    0.00000000    0.00000000
     atom   13 type  4   force =     0.00000000    0.00000000    0.00000000
     atom   14 type  4   force =     0.00000000    0.00000000    0.00000000
     atom   15 type  4   force =     0.00000000    0.00000000    0.00000000
     atom   16 type  4   force =     0.00000000    0.00000000    0.00000000
     The SCF correction term to forces
     atom    1 type  1   force =     0.00000768   -0.00001036   -0.00000634
     atom    2 type  1   force =    -0.00000850   -0.00000142    0.00000028
     atom    3 type  1   force =     0.00000914    0.00000110   -0.00001501
     atom    4 type  1   force =    -0.00000847    0.00001070   -0.00000579
     atom    5 type  2   force =    -0.00007758    0.00012501    0.00007579
     atom    6 type  3   force =    -0.00007134   -0.00002750    0.00008110
     atom    7 type  3   force =     0.00008351   -0.00010814    0.00005882
     atom    8 type  3   force =     0.00006691    0.00001575    0.00001583
     atom    9 type  4   force =     0.00044439   -0.00030597    0.00015248
     atom   10 type  4   force =    -0.00046051   -0.00034624    0.00014411
     atom   11 type  4   force =    -0.00007836    0.00016811   -0.00028307
     atom   12 type  4   force =     0.00008592    0.00062810    0.00005560
     atom   13 type  4   force =    -0.00007445   -0.00063923   -0.00005153
     atom   14 type  4   force =     0.00007000   -0.00017123    0.00028020
     atom   15 type  4   force =     0.00045561    0.00035574   -0.00013244
     atom   16 type  4   force =    -0.00044794    0.00032234   -0.00014531

     Total force =     0.096397     Total SCF correction =     0.001569

     Computing stress (Cartesian axis) and pressure

          total   stress  (Ry/bohr**3)                   (kbar)     P=     -877.84
  -0.00586487  -0.00001620  -0.00000064         -862.75       -2.38       -0.09
  -0.00001620  -0.00589958  -0.00003071           -2.38     -867.86       -4.52
  -0.00000064  -0.00003071  -0.00613788           -0.09       -4.52     -902.91

     kinetic stress (kbar)  34890.49     84.71   -101.35
                               84.71  34983.96     56.96
                             -101.35     56.96  35239.82

     local   stress (kbar) -63978.01    571.63   -626.96
                              571.63 -63362.63    338.98
                             -626.96    338.98  52889.10

     nonloc. stress (kbar)  10853.12      1.11    -40.55
                                1.11  10860.18     18.97
                              -40.55     18.97  10848.99

     hartree stress (kbar)  53202.37   -240.67    232.73
                             -240.67  52945.49   -126.61
                              232.73   -126.61   -612.61

     exc-cor stress (kbar)  -8809.24      0.08     -0.06
                                0.08  -8809.15      0.03
                               -0.06      0.03  -8817.65

     corecor stress (kbar)  -1738.52     -0.43      0.66
                               -0.43  -1739.05     -0.37
                                0.66     -0.37  -1739.71

     ewald   stress (kbar) -25282.96   -418.82    535.42
                             -418.82 -25746.65   -292.47
                              535.42   -292.47 -88710.86

     hubbard stress (kbar)      0.00      0.00      0.00
                                0.00      0.00      0.00
                                0.00      0.00      0.00

     DFT-D   stress (kbar)      0.00      0.00      0.00
                                0.00      0.00      0.00
                                0.00      0.00      0.00

     XDM     stress (kbar)      0.00      0.00      0.00
                                0.00      0.00      0.00
                                0.00      0.00      0.00

     dft-nl  stress (kbar)      0.00      0.00      0.00
                                0.00      0.00      0.00
                                0.00      0.00      0.00

     TS-vdW  stress (kbar)      0.00      0.00      0.00
                                0.00      0.00      0.00
                                0.00      0.00      0.00

[...]

                                0.00      0.00      0.00

     Writing all to output data dir new_calculations/myprefix.save/

     General routines

     Parallel routines

     PAW routines

   This run was terminated on:  12:34:20  21May2023

   JOB DONE.