     Program PWSCF v.7.0 starts on 20May2023 at 14: 0:26

     Reading input from espresso_8516.pwi
Warning: card &CELL ignored
Warning: card / ignored

     Current dimensions of program PWSCF are:
     Max number of different atomic species (ntypx) = 10
     Max number of k-points (npk) =  40000
     Max angular momentum in pseudopotentials (lmaxx) =  4
     file Ga.pbe-dn-kjpaw_psl.1.0.0.UPF: wavefunction(s)  4S renormalized
     file O.pbe-n-kjpaw_psl.0.1.UPF: wavefunction(s)  2P renormalized

     gamma-point specific algorithms are used
     Message from routine setup:
     using ibrav=0 with symmetry is DISCOURAGED, use correct ibrav instead

     Subspace diagonalization in iterative solution of the eigenvalue problem:
     a serial algorithm will be used

     Using Slab Decomposition

     bravais-lattice index     =            0
     lattice parameter (alat)  =       5.7008  a.u.
     unit-cell volume          =     922.7198 (a.u.)^3
     number of atoms/cell      =           16
     number of atomic types    =            3
     number of electrons       =       104.00
     number of Kohn-Sham states=           62
     kinetic-energy cutoff     =      30.0000  Ry
     charge density cutoff     =     240.0000  Ry
     scf convergence threshold =      1.0E-06
     mixing beta               =       0.7000
     number of iterations used =            8  plain     mixing
     Exchange-correlation= SLA  PW   PBX  PBC
                           (   1   4   3   4   0   0   0)

     celldm(1)=   5.700776  celldm(2)=   0.000000  celldm(3)=   0.000000
     celldm(4)=   0.000000  celldm(5)=   0.000000  celldm(6)=   0.000000

     crystal axes: (cart. coord. in units of alat)
               a(1) = (   1.000000   0.000000   0.000000 )
               a(2) = (   0.000000   1.514151   0.000000 )
               a(3) = (   0.000000   0.000000   3.289264 )

     reciprocal axes: (cart. coord. in units 2 pi/alat)
               b(1) = (  1.000000  0.000000  0.000000 )
               b(2) = (  0.000000  0.660436  0.000000 )
               b(3) = (  0.000000  0.000000  0.304019 )

     PseudoPot. # 1 for Ga read from file:
     /home/pragov/projects/rrg-bengioy-ad/pragov/crystal_structure_design/SSSP/Ga.pbe-dn-kjpaw_psl.1.0.0.UPF
     MD5 check sum: a27b4342b1af7e5f338de752e9ed7044
     Pseudo is Projector augmented-wave + core cor, Zval = 13.0
     Generated using "atomic" code by A. Dal Corso  v.5.1
     Shape of augmentation charge: PSQ
     Using radial grid of 1205 points,  6 beta functions with:
                l(1) =   0
                l(2) =   0
                l(3) =   1
                l(4) =   1
                l(5) =   2
                l(6) =   2
     Q(r) pseudized with 0 coefficients

     PseudoPot. # 2 for H  read from file:
     /home/pragov/projects/rrg-bengioy-ad/pragov/crystal_structure_design/SSSP/H.pbe-rrkjus_psl.1.0.0.UPF
     MD5 check sum: f52b6d4d1c606e5624b1dc7b2218f220
     Pseudo is Ultrasoft, Zval =  1.0
     Generated using "atomic" code by A. Dal Corso  v.5.1
     Using radial grid of  929 points,  2 beta functions with:
                l(1) =   0
                l(2) =   0
     Q(r) pseudized with 0 coefficients

     PseudoPot. # 3 for O  read from file:
     /home/pragov/projects/rrg-bengioy-ad/pragov/crystal_structure_design/SSSP/O.pbe-n-kjpaw_psl.0.1.UPF
     MD5 check sum: 0234752ac141de4415c5fc33072bef88
     Pseudo is Projector augmented-wave + core cor, Zval =  6.0
     Generated using "atomic" code by A. Dal Corso  v.5.0.99 svn rev. 10869
     Shape of augmentation charge: BESSEL
     Using radial grid of 1095 points,  4 beta functions with:
                l(1) =   0
                l(2) =   0
                l(3) =   1
                l(4) =   1
     Q(r) pseudized with 0 coefficients

     atomic species   valence    mass     pseudopotential
        Ga            13.00    69.72300     Ga( 1.00)
        H              1.00     1.00800     H ( 1.00)
        O              6.00    15.99900     O ( 1.00)

      8 Sym. Ops., with inversion, found ( 6 have fractional translation)

                                    s                        frac. trans.

      isym =  1     identity

 cryst.   s( 1) = (     1          0          0      )
                  (     0          1          0      )
                  (     0          0          1      )

 cart.    s( 1) = (  1.0000000  0.0000000  0.0000000 )
                  (  0.0000000  1.0000000  0.0000000 )
                  (  0.0000000  0.0000000  1.0000000 )

      isym =  2     180 deg rotation - cart. axis [0,0,1]

 cryst.   s( 2) = (    -1          0          0      )    f =(  0.5000000 )
                  (     0         -1          0      )       (  0.5000000 )
                  (     0          0          1      )       ( -0.5000000 )

 cart.    s( 2) = ( -1.0000000  0.0000000  0.0000000 )    f =(  0.5000000 )
                  (  0.0000000 -1.0000000  0.0000000 )       (  0.7570753 )
                  (  0.0000000  0.0000000  1.0000000 )       ( -1.6446319 )

[...]

      isym =  4     180 deg rotation - cart. axis [1,0,0]

[...]

      isym =  5     inversion

 cryst.   s( 5) = (    -1          0          0      )
                  (     0         -1          0      )
                  (     0          0         -1      )

 cart.    s( 5) = ( -1.0000000  0.0000000  0.0000000 )
                  (  0.0000000 -1.0000000  0.0000000 )
                  (  0.0000000  0.0000000 -1.0000000 )

      isym =  6     inv. 180 deg rotation - cart. axis [0,0,1]

[...]

      isym =  8     inv. 180 deg rotation - cart. axis [1,0,0]

 cryst.   s( 8) = (    -1          0          0      )    f =(  0.5000000 )
                  (     0          1          0      )       (  0.0000000 )
                  (     0          0          1      )       (  0.0000000 )

 cart.    s( 8) = ( -1.0000000  0.0000000  0.0000000 )    f =(  0.5000000 )
                  (  0.0000000  1.0000000  0.0000000 )       (  0.0000000 )
                  (  0.0000000  0.0000000  1.0000000 )       (  0.0000000 )

   Cartesian axes

     site n.     atom                  positions (alat units)
         1           Ga  tau(   1) = (   0.2500000   0.6793979   1.1678136  )
         2           Ga  tau(   2) = (   0.2500000   0.0776774   2.8124455  )
         3           Ga  tau(   3) = (   0.7500000   0.8347528   2.1214501  )
         4           Ga  tau(   4) = (   0.7500000   1.4364732   0.4768183  )
         5           H   tau(   5) = (   0.2500000   0.1432856   1.9339325  )
         6           H   tau(   6) = (   0.2500000   0.6137897   0.2893006  )
         7           H   tau(   7) = (   0.7500000   1.3708650   1.3553313  )
         8           H   tau(   8) = (   0.7500000   0.9003609   2.9999631  )
         9           O   tau(   9) = (   0.2500000   1.2121730   2.2832983  )
        10           O   tau(  10) = (   0.2500000   1.0590530   0.6386665  )
        11           O   tau(  11) = (   0.7500000   0.3019777   1.0059654  )
        12           O   tau(  12) = (   0.7500000   0.4550977   2.6505973  )
        13           O   tau(  13) = (   0.2500000   0.4609029   1.8260841  )
        14           O   tau(  14) = (   0.2500000   0.2961724   0.1814522  )
        15           O   tau(  15) = (   0.7500000   1.0532477   1.4631796  )
        16           O   tau(  16) = (   0.7500000   1.2179782   3.1078115  )

   Crystallographic axes

     site n.     atom                  positions (cryst. coord.)
         1           Ga  tau(   1) = (  0.2500000  0.4486990  0.3550380  )
         2           Ga  tau(   2) = (  0.2500000  0.0513010  0.8550380  )
         3           Ga  tau(   3) = (  0.7500000  0.5513010  0.6449620  )
         4           Ga  tau(   4) = (  0.7500000  0.9486990  0.1449620  )
         5           H   tau(   5) = (  0.2500000  0.0946310  0.5879530  )
         6           H   tau(   6) = (  0.2500000  0.4053690  0.0879530  )
         7           H   tau(   7) = (  0.7500000  0.9053690  0.4120470  )
         8           H   tau(   8) = (  0.7500000  0.5946310  0.9120470  )
         9           O   tau(   9) = (  0.2500000  0.8005630  0.6941670  )
        10           O   tau(  10) = (  0.2500000  0.6994370  0.1941670  )
        11           O   tau(  11) = (  0.7500000  0.1994370  0.3058330  )
        12           O   tau(  12) = (  0.7500000  0.3005630  0.8058330  )
        13           O   tau(  13) = (  0.2500000  0.3043970  0.5551650  )
        14           O   tau(  14) = (  0.2500000  0.1956030  0.0551650  )
        15           O   tau(  15) = (  0.7500000  0.6956030  0.4448350  )
        16           O   tau(  16) = (  0.7500000  0.8043970  0.9448350  )

     number of k points=     1  Methfessel-Paxton smearing, width (Ry)=  0.0010
                       cart. coord. in units 2pi/alat
        k(    1) = (   0.0000000   0.0000000   0.0000000), wk =   2.0000000

                       cryst. coord.
        k(    1) = (   0.0000000   0.0000000   0.0000000), wk =   2.0000000

     Check: negative core charge=   -0.000012

     Initial potential from superposition of free atoms

     starting charge     103.9881, renormalised to     104.0000
     Starting wfcs are   72 randomized atomic wfcs
     Checking if some PAW data can be deallocated...

     Self-consistent Calculation

     iteration #  1     ecut=    30.00 Ry     beta= 0.70
     Davidson diagonalization with overlap

     ethr =  1.00E-02,  avg # of iterations =  2.0

     total energy              =   -1446.74005925 Ry
     estimated scf accuracy    <       3.47288773 Ry

[...]

     total energy              =   -1448.31597784 Ry
     estimated scf accuracy    <       0.00000269 Ry

     iteration #  9     ecut=    30.00 Ry     beta= 0.70
     Davidson diagonalization with overlap

     ethr =  2.59E-09,  avg # of iterations =  4.0

     End of self-consistent calculation

          k = 0.0000 0.0000 0.0000 (  1268 PWs)   bands (ev):

   -12.1952 -11.8184 -11.2509 -10.8408  -9.9402  -9.7894  -9.6310  -9.6098
    -6.7505  -6.7379  -6.7078  -6.7047  -6.7043  -6.6920  -6.6916  -6.6769
    -6.6622  -6.6130  -6.5871  -6.5097  -6.4959  -6.4454  -6.4355  -6.4353
    -6.4155  -6.4047  -5.9384  -5.7647  -0.7375  -0.2654   0.3411   2.2813
     2.5711   2.8067   2.8608   3.2110   4.5967   4.6560   4.8114   4.9509
     5.2924   5.3463   5.4505   6.4948   6.7567   6.8639   6.9701   6.9932
     7.2262   7.3479   7.4015   7.4946   9.7854  12.3607  13.2767  14.1774
    14.5981  15.9019  15.9966  16.4092  17.2576  17.9795

     occupation numbers
     1.0000   1.0000   1.0000   1.0000   1.0000   1.0000   1.0000   1.0000
     1.0000   1.0000   1.0000   1.0000   1.0000   1.0000   1.0000   1.0000
     1.0000   1.0000   1.0000   1.0000   1.0000   1.0000   1.0000   1.0000
     1.0000   1.0000   1.0000   1.0000   1.0000   1.0000   1.0000   1.0000
     1.0000   1.0000   1.0000   1.0000   1.0000   1.0000   1.0000   1.0000
     1.0000   1.0000   1.0000   1.0000   1.0000   1.0000   1.0000   1.0000
     1.0000   1.0000   1.0000   1.0000  -0.0000  -0.0000  -0.0000  -0.0000
    -0.0000  -0.0000  -0.0000  -0.0000  -0.0000  -0.0000

     the Fermi energy is     8.6009 ev

!    total energy              =   -1448.31597876 Ry
     estimated scf accuracy    <       0.00000050 Ry
     smearing contrib. (-TS)   =       0.00000000 Ry
     internal energy E=F+TS    =   -1448.31597876 Ry

     The total energy is F=E-TS. E is the sum of the following terms:
     one-electron contribution =    -472.94382587 Ry
     hartree contribution      =     330.24766442 Ry
     xc contribution           =    -216.21789063 Ry
     ewald contribution        =    -569.28298067 Ry
     one-center paw contrib.   =    -520.11894601 Ry
      -> PAW hartree energy AE =     800.07476130 Ry
      -> PAW hartree energy PS =    -790.72064881 Ry
      -> PAW xc energy AE      =    -742.10971792 Ry
      -> PAW xc energy PS      =     212.63665942 Ry
      -> total E_H with PAW    =     339.60177691 Ry
      -> total E_XC with PAW   =    -745.69094913 Ry

     convergence has been achieved in   9 iterations

     Forces acting on atoms (cartesian axes, Ry/au):

     atom    1 type  1   force =    -0.00000000    0.01409958   -0.01154803
     atom    2 type  1   force =     0.00000000   -0.01409958   -0.01154803
     atom    3 type  1   force =     0.00000000   -0.01409958    0.01154803
     atom    4 type  1   force =     0.00000000    0.01409958    0.01154803
     atom    5 type  2   force =     0.00000000   -0.00691201    0.00264282
     atom    6 type  2   force =     0.00000000    0.00691201    0.00264282
     atom    7 type  2   force =     0.00000000    0.00691201   -0.00264282
     atom    8 type  2   force =     0.00000000   -0.00691201   -0.00264282
     atom    9 type  3   force =     0.00000000    0.07706668   -0.00646773
     atom   10 type  3   force =     0.00000000   -0.07706668   -0.00646773
     atom   11 type  3   force =     0.00000000   -0.07706668    0.00646773
     atom   12 type  3   force =     0.00000000    0.07706668    0.00646773
     atom   13 type  3   force =    -0.00000000   -0.06399325   -0.02666144
     atom   14 type  3   force =     0.00000000    0.06399325   -0.02666144
     atom   15 type  3   force =     0.00000000    0.06399325    0.02666144
     atom   16 type  3   force =     0.00000000   -0.06399325    0.02666144
     The non-local contrib.  to forces
     atom    1 type  1   force =    -0.00000000   -0.06740624    0.24677804
     atom    2 type  1   force =     0.00000000    0.06740624    0.24677804
     atom    3 type  1   force =    -0.00000000    0.06740624   -0.24677804
     atom    4 type  1   force =     0.00000000   -0.06740624   -0.24677804
     atom    5 type  2   force =     0.00000000    0.08627125   -0.02889433
     atom    6 type  2   force =     0.00000000   -0.08627125   -0.02889433
     atom    7 type  2   force =     0.00000000   -0.08627125    0.02889433
     atom    8 type  2   force =     0.00000000    0.08627125    0.02889433
     atom    9 type  3   force =     0.00000000   -0.54815881    0.11820716
     atom   10 type  3   force =     0.00000000    0.54815881    0.11820716
     atom   11 type  3   force =     0.00000000    0.54815881   -0.11820716
     atom   12 type  3   force =     0.00000000   -0.54815881   -0.11820716
     atom   13 type  3   force =     0.00000000   -0.73105790    0.55260426
     atom   14 type  3   force =    -0.00000000    0.73105790    0.55260426
     atom   15 type  3   force =     0.00000000    0.73105790   -0.55260426
     atom   16 type  3   force =    -0.00000000   -0.73105790   -0.55260426
     The ionic contribution  to forces
     atom    1 type  1   force =     0.00000000   -1.02822468   -0.00646214
     atom    2 type  1   force =    -0.00000000    1.02822468   -0.00646214
     atom    3 type  1   force =    -0.00000000    1.02822468    0.00646214
     atom    4 type  1   force =    -0.00000000   -1.02822468    0.00646214
     atom    5 type  2   force =     0.00000000   -2.67425196    0.00821811
     atom    6 type  2   force =     0.00000000    2.67425196    0.00821811
     atom    7 type  2   force =    -0.00000000    2.67425196   -0.00821811
     atom    8 type  2   force =    -0.00000000   -2.67425196   -0.00821811
     atom    9 type  3   force =    -0.00000000    4.24532051   -2.42911520
     atom   10 type  3   force =    -0.00000000   -4.24532051   -2.42911520
     atom   11 type  3   force =    -0.00000000   -4.24532051    2.42911520
     atom   12 type  3   force =     0.00000000    4.24532051    2.42911520
     atom   13 type  3   force =    -0.00000000   -7.13521289   -1.29775887
     atom   14 type  3   force =     0.00000000    7.13521289   -1.29775887
     atom   15 type  3   force =     0.00000000    7.13521289    1.29775887
     atom   16 type  3   force =     0.00000000   -7.13521289    1.29775887
     The local contribution  to forces
     atom    1 type  1   force =    -0.00000132    1.10565495   -0.24682049
     atom    2 type  1   force =    -0.00024236   -1.10595681   -0.24791329
     atom    3 type  1   force =     0.00031950   -1.10602563    0.24718371
     atom    4 type  1   force =    -0.00035525    1.10566317    0.24777103
     atom    5 type  2   force =     0.00000109    2.58121131    0.02328017
     atom    6 type  2   force =    -0.00000024   -2.58103720    0.02334219
     atom    7 type  2   force =     0.00000003   -2.58099726   -0.02329116
     atom    8 type  2   force =    -0.00000032    2.58098828   -0.02336690
     atom    9 type  3   force =     0.00001263   -3.62631854    2.30560642
     atom   10 type  3   force =    -0.00003129    3.62634427    2.30577911
     atom   11 type  3   force =    -0.00001057    3.62631179   -2.30579105
     atom   12 type  3   force =    -0.00002845   -3.62614911   -2.30580366
     atom   13 type  3   force =     0.00003715    7.79583214    0.72432800
     atom   14 type  3   force =    -0.00000651   -7.79557559    0.72418120
     atom   15 type  3   force =    -0.00000882   -7.79548487   -0.72387003
     atom   16 type  3   force =    -0.00001639    7.79544939   -0.72418613
     The core correction contribution to forces
     atom    1 type  1   force =    -0.00000014    0.00397757   -0.00445992
     atom    2 type  1   force =    -0.00000650   -0.00398507   -0.00446001
     atom    3 type  1   force =     0.00000842   -0.00397944    0.00446803
     atom    4 type  1   force =    -0.00000961    0.00397814    0.00446279
     atom    5 type  2   force =     0.00000000    0.00000000    0.00000000
     atom    6 type  2   force =     0.00000000    0.00000000    0.00000000
     atom    7 type  2   force =     0.00000000    0.00000000    0.00000000
     atom    8 type  2   force =     0.00000000    0.00000000    0.00000000
     atom    9 type  3   force =    -0.00000003    0.00605379   -0.00129143
     atom   10 type  3   force =    -0.00000018   -0.00605323   -0.00129465
     atom   11 type  3   force =    -0.00000019   -0.00605383    0.00129031
     atom   12 type  3   force =    -0.00000007    0.00605449    0.00129834
     atom   13 type  3   force =     0.00000023    0.00670013   -0.00561174
     atom   14 type  3   force =    -0.00000004   -0.00669811   -0.00561325
     atom   15 type  3   force =    -0.00000005   -0.00669553    0.00561173
     atom   16 type  3   force =    -0.00000022    0.00669694    0.00561361
     The Hubbard contrib.    to forces
     atom    1 type  1   force =     0.00000000    0.00000000    0.00000000
     atom    2 type  1   force =     0.00000000    0.00000000    0.00000000
     atom    3 type  1   force =     0.00000000    0.00000000    0.00000000
     atom    4 type  1   force =     0.00000000    0.00000000    0.00000000
     atom    5 type  2   force =     0.00000000    0.00000000    0.00000000
     atom    6 type  2   force =     0.00000000    0.00000000    0.00000000
     atom    7 type  2   force =     0.00000000    0.00000000    0.00000000
     atom    8 type  2   force =     0.00000000    0.00000000    0.00000000
     atom    9 type  3   force =     0.00000000    0.00000000    0.00000000
     atom   10 type  3   force =     0.00000000    0.00000000    0.00000000
     atom   11 type  3   force =     0.00000000    0.00000000    0.00000000
     atom   12 type  3   force =     0.00000000    0.00000000    0.00000000
     atom   13 type  3   force =     0.00000000    0.00000000    0.00000000
     atom   14 type  3   force =     0.00000000    0.00000000    0.00000000
     atom   15 type  3   force =     0.00000000    0.00000000    0.00000000
     atom   16 type  3   force =     0.00000000    0.00000000    0.00000000
     The SCF correction term to forces
     atom    1 type  1   force =     0.00001033    0.00021911   -0.00088458
     atom    2 type  1   force =     0.00038074    0.00027252    0.00068974
     atom    3 type  1   force =    -0.00047001    0.00041032    0.00019265
     atom    4 type  1   force =     0.00052809    0.00016497   -0.00047108
     atom    5 type  2   force =    -0.00000112   -0.00010699    0.00003203
     atom    6 type  2   force =     0.00000056   -0.00003111   -0.00002646
     atom    7 type  2   force =     0.00000017   -0.00005060   -0.00003886
     atom    8 type  2   force =     0.00000078    0.00006605    0.00004867
     atom    9 type  3   force =    -0.00001938    0.00015213    0.00027124
     atom   10 type  3   force =     0.00002027   -0.00017714   -0.00009657
     atom   11 type  3   force =     0.00000366   -0.00018012   -0.00015217
     atom   12 type  3   force =     0.00001976    0.00001892    0.00037113
     atom   13 type  3   force =    -0.00002366   -0.00011684   -0.00020884
     atom   14 type  3   force =     0.00001237   -0.00003115   -0.00009988
     atom   15 type  3   force =     0.00000498    0.00002556   -0.00031931
     atom   16 type  3   force =     0.00000679    0.00008871    0.00015291

     Total force =     0.211414     Total SCF correction =     0.001744

     Computing stress (Cartesian axis) and pressure

          total   stress  (Ry/bohr**3)                   (kbar)     P=     -221.86
  -0.00131382   0.00000000   0.00000000         -193.27        0.00        0.00
   0.00000000  -0.00165187   0.00000000            0.00     -243.00        0.00
   0.00000000   0.00000000  -0.00155879            0.00        0.00     -229.31

     kinetic stress (kbar)  23160.51      0.00      0.00
                                0.00  21229.60      0.00
                                0.00      0.00  21725.44

     local   stress (kbar) -20209.92     -0.00     -0.00
                               -0.00  10371.22      0.03
                               -0.00      0.03  -5671.12

     nonloc. stress (kbar)   3719.91      0.00      0.00
                                0.00   3757.35      0.00
                                0.00      0.00   3808.53

     hartree stress (kbar)  23814.09      0.00      0.00
                                0.00  10636.65     -0.03
                                0.00     -0.03  18199.16

     exc-cor stress (kbar)   1627.20     -0.00      0.00
                               -0.00   1644.31     -0.00
                                0.00     -0.00   1633.34

     corecor stress (kbar)  -9787.89     -0.00     -0.00
                               -0.00  -9782.18      0.00
                               -0.00      0.00  -9783.53

     ewald   stress (kbar) -22517.16      0.00      0.00
                                0.00 -38099.94     -0.00
                                0.00     -0.00 -30141.13

     hubbard stress (kbar)      0.00      0.00      0.00
                                0.00      0.00      0.00
                                0.00      0.00      0.00

     DFT-D   stress (kbar)      0.00      0.00      0.00
                                0.00      0.00      0.00
                                0.00      0.00      0.00

     XDM     stress (kbar)      0.00      0.00      0.00
                                0.00      0.00      0.00
                                0.00      0.00      0.00

     dft-nl  stress (kbar)      0.00      0.00      0.00
                                0.00      0.00      0.00
                                0.00      0.00      0.00

     TS-vdW  stress (kbar)      0.00      0.00      0.00
                                0.00      0.00      0.00
                                0.00      0.00      0.00

[...]

                                0.00      0.00      0.00

     Writing all to output data dir new_calculations/myprefix.save/

     General routines

     Parallel routines

     PAW routines

   This run was terminated on:  14: 0:37  20May2023

   JOB DONE.