     Program PWSCF v.7.0 starts on 20May2023 at 22:55: 7

     Reading input from espresso_4713.pwi
Warning: card &CELL ignored
Warning: card / ignored

     Current dimensions of program PWSCF are:
     Max number of different atomic species (ntypx) = 10
     Max number of k-points (npk) =  40000
     Max angular momentum in pseudopotentials (lmaxx) =  4
     file O.pbe-n-kjpaw_psl.0.1.UPF: wavefunction(s)  2P renormalized

     gamma-point specific algorithms are used

     Subspace diagonalization in iterative solution of the eigenvalue problem:
     a serial algorithm will be used

     Using Slab Decomposition

     bravais-lattice index     =            0
     lattice parameter (alat)  =      10.5403  a.u.
     unit-cell volume          =    1461.4590 (a.u.)^3
     number of atoms/cell      =           18
     number of atomic types    =            3
     number of electrons       =        96.00
     number of Kohn-Sham states=           58
     kinetic-energy cutoff     =      30.0000  Ry
     charge density cutoff     =     240.0000  Ry
     scf convergence threshold =      1.0E-06
     mixing beta               =       0.7000
     number of iterations used =            8  plain     mixing
     Exchange-correlation= SLA  PW   PBX  PBC
                           (   1   4   3   4   0   0   0)

     celldm(1)=  10.540320  celldm(2)=   0.000000  celldm(3)=   0.000000
     celldm(4)=   0.000000  celldm(5)=   0.000000  celldm(6)=   0.000000

     crystal axes: (cart. coord. in units of alat)
               a(1) = (   1.000000   0.000000   0.000000 )
               a(2) = (   0.002426   1.004895   0.000000 )
               a(3) = (  -0.474933  -0.411849   1.241951 )

     reciprocal axes: (cart. coord. in units 2 pi/alat)
               b(1) = (  1.000000 -0.002414  0.381608 )
               b(2) = (  0.000000  0.995128  0.329999 )
               b(3) = (  0.000000  0.000000  0.805185 )

     PseudoPot. # 1 for Re read from file:
     /home/pragov/projects/rrg-bengioy-ad/pragov/crystal_structure_design/SSSP/Re_pbe_v1.2.uspp.F.UPF
     MD5 check sum: 85f993410f3e006da9d71c142b4ad953
     Pseudo is Ultrasoft + core correction, Zval = 15.0
     Generated by new atomic code, or converted to UPF format
     Using radial grid of  981 points,  8 beta functions with:
                l(1) =   0
                l(2) =   0
                l(3) =   1
                l(4) =   1
                l(5) =   2
                l(6) =   2
                l(7) =   3
                l(8) =   3
     Q(r) pseudized with  8 coefficients,  rinner =    1.150   1.150   1.150
                                                       1.150   1.150   1.150
                                                       1.150

     PseudoPot. # 2 for H  read from file:
     /home/pragov/projects/rrg-bengioy-ad/pragov/crystal_structure_design/SSSP/H.pbe-rrkjus_psl.1.0.0.UPF
     MD5 check sum: f52b6d4d1c606e5624b1dc7b2218f220
     Pseudo is Ultrasoft, Zval =  1.0
     Generated using "atomic" code by A. Dal Corso  v.5.1
     Using radial grid of  929 points,  2 beta functions with:
                l(1) =   0
                l(2) =   0
     Q(r) pseudized with 0 coefficients

     PseudoPot. # 3 for O  read from file:
     /home/pragov/projects/rrg-bengioy-ad/pragov/crystal_structure_design/SSSP/O.pbe-n-kjpaw_psl.0.1.UPF
     MD5 check sum: 0234752ac141de4415c5fc33072bef88
     Pseudo is Projector augmented-wave + core cor, Zval =  6.0
     Generated using "atomic" code by A. Dal Corso  v.5.0.99 svn rev. 10869
     Shape of augmentation charge: BESSEL
     Using radial grid of 1095 points,  4 beta functions with:
                l(1) =   0
                l(2) =   0
                l(3) =   1
                l(4) =   1
     Q(r) pseudized with 0 coefficients

     atomic species   valence    mass     pseudopotential
        Re            15.00   186.20700     Re( 1.00)
        H              1.00     1.00800     H ( 1.00)
        O              6.00    15.99900     O ( 1.00)

     No symmetry found

                                    s                        frac. trans.

      isym =  1     identity

 cryst.   s( 1) = (     1          0          0      )
                  (     0          1          0      )
                  (     0          0          1      )

 cart.    s( 1) = (  1.0000000 -0.0000000 -0.0000000 )
                  (  0.0000000  1.0000000  0.0000000 )
                  (  0.0000000  0.0000000  1.0000000 )

   Cartesian axes

     site n.     atom                  positions (alat units)
         1           Re  tau(   1) = (   0.5350231   0.3164754   0.9261675  )
         2           Re  tau(   2) = (   0.0237066   0.3041905   0.3035961  )
         3           H   tau(   3) = (  -0.0802793   0.6479410   1.0032169  )
         4           H   tau(   4) = (  -0.0498383  -0.1202048   0.8135002  )
         5           H   tau(   5) = (   0.0376687  -0.0924876   1.0866127  )
         6           H   tau(   6) = (   0.6794904   0.6911200   0.3762552  )
         7           H   tau(   7) = (   0.4187746   0.8029091   0.4633570  )
         8           H   tau(   8) = (   0.4391254   0.6873220   0.2003230  )
         9           O   tau(   9) = (   0.0281843  -0.2045525   0.9497335  )
        10           O   tau(  10) = (   0.5242556   0.7888622   0.3219609  )
        11           O   tau(  11) = (   0.6409129   0.0626000   0.7747749  )
        12           O   tau(  12) = (   0.4082828   0.5115375   0.7185493  )
        13           O   tau(  13) = (   0.2700971   0.4103196   0.1342437  )
        14           O   tau(  14) = (   0.8186413   0.1705501   0.1129207  )
        15           O   tau(  15) = (  -0.1186389   0.5461488   0.4555128  )
        16           O   tau(  16) = (   0.1193285   0.0845368   0.5068017  )
        17           O   tau(  17) = (   0.3147922   0.2292029   1.1308572  )
        18           O   tau(  18) = (  -0.2217948   0.4626783   1.0752600  )

   Crystallographic axes

     site n.     atom                  positions (cryst. coord.)
         1           Re  tau(   1) = (  0.8876920  0.6205680  0.7457360  )
         2           Re  tau(   2) = (  0.1388270  0.4028950  0.2444510  )
         3           H   tau(   3) = (  0.3009920  0.9758450  0.8077750  )
         4           H   tau(   4) = (  0.2608900  0.1488350  0.6550180  )
         5           H   tau(   5) = (  0.4525520  0.2665440  0.8749240  )
         6           H   tau(   6) = (  0.8214040  0.8119170  0.3029550  )
         7           H   tau(   7) = (  0.5936570  0.9519050  0.3730880  )
         8           H   tau(   8) = (  0.5139110  0.7500800  0.1612970  )
         9           O   tau(   9) = (  0.3911040  0.1098550  0.7647110  )
        10           O   tau(  10) = (  0.6452140  0.8912660  0.2592380  )
        11           O   tau(  11) = (  0.9364220  0.3179700  0.6238370  )
        12           O   tau(  12) = (  0.6812520  0.7461660  0.5785650  )
        13           O   tau(  13) = (  0.3203350  0.4526210  0.1080910  )
        14           O   tau(  14) = (  0.8613210  0.2069830  0.0909220  )
        15           O   tau(  15) = (  0.0538700  0.6938070  0.3667720  )
        16           O   tau(  16) = (  0.3125240  0.2513690  0.4080690  )
        17           O   tau(  17) = (  0.7457830  0.6012680  0.9105490  )
        18           O   tau(  18) = (  0.1874160  0.8152590  0.8657830  )

     number of k points=     1  Methfessel-Paxton smearing, width (Ry)=  0.0010
                       cart. coord. in units 2pi/alat
        k(    1) = (   0.0000000   0.0000000   0.0000000), wk =   2.0000000

                       cryst. coord.
        k(    1) = (   0.0000000   0.0000000   0.0000000), wk =   2.0000000

     Check: negative core charge=   -0.000012

     Initial potential from superposition of free atoms

     starting charge      94.9998, renormalised to      96.0000

     negative rho (up, down):  2.597E-01 0.000E+00
     Starting wfcs are   72 randomized atomic wfcs
     Checking if some PAW data can be deallocated...

     Self-consistent Calculation

     iteration #  1     ecut=    30.00 Ry     beta= 0.70
     Davidson diagonalization with overlap

     ethr =  1.00E-02,  avg # of iterations =  2.0

     negative rho (up, down):  2.966E-01 0.000E+00

     total energy              =    -802.26272193 Ry
     estimated scf accuracy    <       3.95991101 Ry

[...]

     total energy              =    -804.54908926 Ry
     estimated scf accuracy    <       0.00000224 Ry

     iteration # 12     ecut=    30.00 Ry     beta= 0.70
     Davidson diagonalization with overlap

     ethr =  2.33E-09,  avg # of iterations =  2.0

[...]

     End of self-consistent calculation

          k = 0.0000 0.0000 0.0000 (  2017 PWs)   bands (ev):

   -78.7156 -78.6698 -40.7017 -40.6651 -40.6581 -40.6558 -40.6275 -40.6166
   -19.3081 -19.0509 -15.3074 -15.1187 -14.7683 -14.7536 -14.5743 -14.5402
   -14.5035 -14.4384  -6.2321  -6.0825  -5.9053  -5.7910  -2.6392  -2.4583
    -2.3556  -2.1676  -2.1195  -2.0645  -2.0121  -1.9865  -1.9295  -1.7744
    -1.2802  -1.2051  -1.0106  -0.8509   0.2568   0.4164   0.5188   0.7024
     0.7715   0.8674   1.0236   1.2174   1.2652   1.3898   1.5596   1.6738
     5.5671   5.6981   5.9309   5.9977   7.1704   7.4642   7.6103   7.7160
     7.8132   7.8956

     occupation numbers
     1.0000   1.0000   1.0000   1.0000   1.0000   1.0000   1.0000   1.0000
     1.0000   1.0000   1.0000   1.0000   1.0000   1.0000   1.0000   1.0000
     1.0000   1.0000   1.0000   1.0000   1.0000   1.0000   1.0000   1.0000
     1.0000   1.0000   1.0000   1.0000   1.0000   1.0000   1.0000   1.0000
     1.0000   1.0000   1.0000   1.0000   1.0000   1.0000   1.0000   1.0000
     1.0000   1.0000   1.0000   1.0000   1.0000   1.0000   1.0000   1.0000
    -0.0000  -0.0000  -0.0000  -0.0000  -0.0000  -0.0000  -0.0000  -0.0000
    -0.0000  -0.0000

     the Fermi energy is     2.6015 ev

!    total energy              =    -804.54908954 Ry
     estimated scf accuracy    <       0.00000018 Ry
     smearing contrib. (-TS)   =       0.00000000 Ry
     internal energy E=F+TS    =    -804.54908954 Ry

     The total energy is F=E-TS. E is the sum of the following terms:
     one-electron contribution =    -406.76433896 Ry
     hartree contribution      =     234.18188280 Ry
     xc contribution           =    -182.59322199 Ry
     ewald contribution        =    -354.09684933 Ry
     one-center paw contrib.   =     -95.27656206 Ry
      -> PAW hartree energy AE =     299.95829350 Ry
      -> PAW hartree energy PS =    -298.94742441 Ry
      -> PAW xc energy AE      =    -172.27687390 Ry
      -> PAW xc energy PS      =      75.98944276 Ry
      -> total E_H with PAW    =     235.19275188 Ry
      -> total E_XC with PAW   =    -278.88065314 Ry

     convergence has been achieved in  12 iterations

     negative rho (up, down):  2.754E-01 0.000E+00

     Forces acting on atoms (cartesian axes, Ry/au):

     atom    1 type  1   force =    -0.00667885    0.00658640   -0.00380885
     atom    2 type  1   force =    -0.00494614   -0.01136530    0.00270848
     atom    3 type  2   force =    -0.00715559   -0.00427790    0.00323839
     atom    4 type  2   force =    -0.00519396    0.00911076   -0.00377863
     atom    5 type  2   force =     0.00096265    0.00708949    0.01059740
     atom    6 type  2   force =     0.00273004   -0.00542761    0.00291165
     atom    7 type  2   force =    -0.00753801    0.00136786    0.01367885
     atom    8 type  2   force =    -0.00748545   -0.00890267   -0.00143559
     atom    9 type  3   force =     0.00979549   -0.00968198   -0.00447050
     atom   10 type  3   force =     0.01176019    0.00889315   -0.01080100
     atom   11 type  3   force =    -0.00913455    0.01442380    0.01259416
     atom   12 type  3   force =     0.00876453   -0.01378749    0.01276666
     atom   13 type  3   force =    -0.01376230   -0.00772680    0.01200821
     atom   14 type  3   force =     0.01899258    0.01308735    0.01042821
     atom   15 type  3   force =     0.01410716   -0.01522815   -0.00906937
     atom   16 type  3   force =    -0.00738206    0.01868244   -0.01853066
     atom   17 type  3   force =     0.01717397    0.00787506   -0.01651851
     atom   18 type  3   force =    -0.01500969   -0.01071843   -0.01251892
     The non-local contrib.  to forces
     atom    1 type  1   force =     0.04370118    0.01996819    0.03867342
     atom    2 type  1   force =     0.01479018    0.04928642    0.03079022
     atom    3 type  2   force =     0.02620342    0.04076430   -0.01365199
     atom    4 type  2   force =     0.04483255   -0.04973946    0.08373323
     atom    5 type  2   force =    -0.00900979   -0.06824431   -0.08561715
     atom    6 type  2   force =    -0.05523690    0.03138100   -0.01813358
     atom    7 type  2   force =     0.06513222   -0.01191960   -0.08876591
     atom    8 type  2   force =     0.04749864    0.05590594    0.07162484
     atom    9 type  3   force =    -1.52217298    1.04379151    0.37718352
     atom   10 type  3   force =    -0.80384328   -1.63258796    0.67509642
     atom   11 type  3   force =    -0.39890289    1.20655601    0.70665493
     atom   12 type  3   force =     0.62485066   -0.94730382    0.95349598
     atom   13 type  3   force =    -1.05798531   -0.33252333    0.72723163
     atom   14 type  3   force =     1.07527986    0.69781058    0.95210689
     atom   15 type  3   force =     0.28462782   -0.89742485   -0.80105651
     atom   16 type  3   force =    -0.42935851    1.02842273   -0.92881196
     atom   17 type  3   force =     1.08124530    0.36596292   -0.95120759
     atom   18 type  3   force =    -0.81997343   -0.22700895   -0.82582367
     The ionic contribution  to forces
     atom    1 type  1   force =    -0.10389981    0.69541742    0.40696130
     atom    2 type  1   force =     1.02194977   -1.12201335    1.13851400
     atom    3 type  2   force =    -0.24007213   -0.79096919    0.35826035
     atom    4 type  2   force =    -0.93438977    1.14703941   -2.33873150
     atom    5 type  2   force =     0.32549015    1.81597971    2.17370146
     atom    6 type  2   force =     1.19908084   -0.24470030    0.43828392
     atom    7 type  2   force =    -1.86829724    0.57592623    2.38337970
     atom    8 type  2   force =    -1.11912306   -1.01052188   -2.00099559
     atom    9 type  3   force =     3.61509271   -1.07850432   -1.24742939
     atom   10 type  3   force =     0.48390827    4.64035601   -1.50213361
     atom   11 type  3   force =     3.71063496  -11.68370318   -6.76070296
     atom   12 type  3   force =    -5.78550736    9.58352081   -7.82148515
     atom   13 type  3   force =    10.83908400    2.99294284   -6.29973881
     atom   14 type  3   force =   -10.05662150   -6.88541593   -8.12642230
     atom   15 type  3   force =    -3.67110060    9.94077521    6.65397763
     atom   16 type  3   force =     4.10469530  -10.60673607    8.24581967
     atom   17 type  3   force =   -10.82724219   -2.57870526    7.61309784
     atom   18 type  3   force =     9.30631765    4.60931185    6.68564342
     The local contribution  to forces
     atom    1 type  1   force =     0.04535274   -0.71389142   -0.45269218
     atom    2 type  1   force =    -1.04149816    1.05256919   -1.16955988
     atom    3 type  2   force =     0.20673525    0.74594930   -0.34138685
     atom    4 type  2   force =     0.88438005   -1.08820077    2.25124042
     atom    5 type  2   force =    -0.31551857   -1.74067333   -2.07751949
     atom    6 type  2   force =    -1.14115182    0.20792632   -0.41726867
     atom    7 type  2   force =     1.79566229   -0.56263990   -2.28097573
     atom    8 type  2   force =     1.06415313    0.94573123    1.92793955
     atom    9 type  3   force =    -2.09786982    0.03528633    0.86934664
     atom   10 type  3   force =     0.32381655   -3.01459044    0.82254022
     atom   11 type  3   force =    -3.32408817   10.50206214    6.07260867
     atom   12 type  3   force =     5.17473426   -8.65810800    6.88882463
     atom   13 type  3   force =    -9.80402241   -2.67081604    5.59062694
     atom   14 type  3   force =     9.00964021    6.20655776    7.19271475
     atom   15 type  3   force =     3.40264456   -9.06638644   -5.86910631
     atom   16 type  3   force =    -3.68626709    9.60589860   -7.34348632
     atom   17 type  3   force =     9.77259209    2.22365479   -6.68650778
     atom   18 type  3   force =    -8.50844861   -4.39453865   -5.87976020
     The core correction contribution to forces
     atom    1 type  1   force =     0.00871822    0.00523572    0.00296845
     atom    2 type  1   force =     0.00004030    0.00882038    0.00262941
     atom    3 type  2   force =     0.00000000    0.00000000    0.00000000
     atom    4 type  2   force =     0.00000000    0.00000000    0.00000000
     atom    5 type  2   force =     0.00000000    0.00000000    0.00000000
     atom    6 type  2   force =     0.00000000    0.00000000    0.00000000
     atom    7 type  2   force =     0.00000000    0.00000000    0.00000000
     atom    8 type  2   force =     0.00000000    0.00000000    0.00000000
     atom    9 type  3   force =     0.01469216   -0.01029865   -0.00351244
     atom   10 type  3   force =     0.00782488    0.01573819   -0.00635697
     atom   11 type  3   force =     0.00321859   -0.01035461   -0.00585992
     atom   12 type  3   force =    -0.00519118    0.00802721   -0.00795399
     atom   13 type  3   force =     0.00907911    0.00263306   -0.00605677
     atom   14 type  3   force =    -0.00918554   -0.00582377   -0.00792067
     atom   15 type  3   force =    -0.00196423    0.00765454    0.00701158
     atom   16 type  3   force =     0.00354655   -0.00875167    0.00777332
     atom   17 type  3   force =    -0.00921264   -0.00296273    0.00791542
     atom   18 type  3   force =     0.00702403    0.00149342    0.00733346
     The Hubbard contrib.    to forces
     atom    1 type  1   force =     0.00000000    0.00000000    0.00000000
     atom    2 type  1   force =     0.00000000    0.00000000    0.00000000
     atom    3 type  2   force =     0.00000000    0.00000000    0.00000000
     atom    4 type  2   force =     0.00000000    0.00000000    0.00000000
     atom    5 type  2   force =     0.00000000    0.00000000    0.00000000
     atom    6 type  2   force =     0.00000000    0.00000000    0.00000000
     atom    7 type  2   force =     0.00000000    0.00000000    0.00000000
     atom    8 type  2   force =     0.00000000    0.00000000    0.00000000
     atom    9 type  3   force =     0.00000000    0.00000000    0.00000000
     atom   10 type  3   force =     0.00000000    0.00000000    0.00000000
     atom   11 type  3   force =     0.00000000    0.00000000    0.00000000
     atom   12 type  3   force =     0.00000000    0.00000000    0.00000000
     atom   13 type  3   force =     0.00000000    0.00000000    0.00000000
     atom   14 type  3   force =     0.00000000    0.00000000    0.00000000
     atom   15 type  3   force =     0.00000000    0.00000000    0.00000000
     atom   16 type  3   force =     0.00000000    0.00000000    0.00000000
     atom   17 type  3   force =     0.00000000    0.00000000    0.00000000
     atom   18 type  3   force =     0.00000000    0.00000000    0.00000000
     The SCF correction term to forces
     atom    1 type  1   force =    -0.00053356   -0.00014071    0.00026546
     atom    2 type  1   force =    -0.00021061   -0.00002515    0.00032004
     atom    3 type  2   force =    -0.00000450   -0.00001952    0.00000219
     atom    4 type  2   force =     0.00000082    0.00001438   -0.00003548
     atom    5 type  2   force =     0.00001849    0.00003023    0.00001788
     atom    6 type  2   force =     0.00005554   -0.00003183    0.00001529
     atom    7 type  2   force =    -0.00001767    0.00000393    0.00002609
     atom    8 type  2   force =     0.00000345   -0.00001517   -0.00001909
     atom    9 type  3   force =     0.00007104    0.00004595   -0.00007354
     atom   10 type  3   force =     0.00007140   -0.00001986    0.00003824
     atom   11 type  3   force =     0.00002057   -0.00013377   -0.00012127
     atom   12 type  3   force =    -0.00010424    0.00007911   -0.00012951
     atom   13 type  3   force =     0.00009993    0.00003946   -0.00006949
     atom   14 type  3   force =    -0.00010282   -0.00003850   -0.00006515
     atom   15 type  3   force =    -0.00008277    0.00015618    0.00008953
     atom   16 type  3   force =     0.00001932   -0.00014836    0.00015993
     atom   17 type  3   force =    -0.00019097   -0.00007186    0.00016890
     atom   18 type  3   force =     0.00008828    0.00002670    0.00007337

     Total force =     0.076840     Total SCF correction =     0.000907

     Computing stress (Cartesian axis) and pressure

     negative rho (up, down):  2.754E-01 0.000E+00
          total   stress  (Ry/bohr**3)                   (kbar)     P=     -350.73
  -0.00236457   0.00002320   0.00001637         -347.84        3.41        2.41
   0.00002320  -0.00236418   0.00002267            3.41     -347.78        3.34
   0.00001637   0.00002267  -0.00242379            2.41        3.34     -356.55

     kinetic stress (kbar)  18606.26    -14.56    -60.89
                              -14.56  18596.58    -61.97
                              -60.89    -61.97  18443.48

     local   stress (kbar)  -8011.12   -174.49   -315.59
                             -174.49  -7373.27   2202.18
                             -315.59   2202.18 -10369.68

     nonloc. stress (kbar)  -1939.32      1.22     -0.68
                                1.22  -1941.46      3.22
                               -0.68      3.22  -1943.61

     hartree stress (kbar)   7615.98     56.76     89.27
                               56.76   7301.99   -926.70
                               89.27   -926.70   8653.91

     exc-cor stress (kbar)   3351.63      0.58      1.12
                                0.58   3352.24     -1.64
                                1.12     -1.64   3350.98

     corecor stress (kbar)  -7701.63      0.01      0.13
                                0.01  -7701.65      0.30
                                0.13      0.30  -7701.41

     ewald   stress (kbar) -12269.65    133.89    289.05
                              133.89 -12582.21  -1212.04
                              289.05  -1212.04 -10790.22

     hubbard stress (kbar)      0.00      0.00      0.00
                                0.00      0.00      0.00
                                0.00      0.00      0.00

     DFT-D   stress (kbar)      0.00      0.00      0.00
                                0.00      0.00      0.00
                                0.00      0.00      0.00

     XDM     stress (kbar)      0.00      0.00      0.00
                                0.00      0.00      0.00
                                0.00      0.00      0.00

     dft-nl  stress (kbar)      0.00      0.00      0.00
                                0.00      0.00      0.00
                                0.00      0.00      0.00

     TS-vdW  stress (kbar)      0.00      0.00      0.00
                                0.00      0.00      0.00
                                0.00      0.00      0.00

[...]

                                0.00      0.00      0.00

     Writing all to output data dir new_calculations/myprefix.save/

     General routines

     Parallel routines

     PAW routines

   This run was terminated on:  22:55:39  20May2023

   JOB DONE.