     Program PWSCF v.7.0 starts on 21May2023 at 17:24: 1

     Reading input from espresso_2993.pwi
Warning: card &CELL ignored
Warning: card / ignored

     Current dimensions of program PWSCF are:
     Max number of different atomic species (ntypx) = 10
     Max number of k-points (npk) =  40000
     Max angular momentum in pseudopotentials (lmaxx) =  4
     file O.pbe-n-kjpaw_psl.0.1.UPF: wavefunction(s)  2P renormalized

     gamma-point specific algorithms are used
     Message from routine setup:
     using ibrav=0 with symmetry is DISCOURAGED, use correct ibrav instead

     Subspace diagonalization in iterative solution of the eigenvalue problem:
     a serial algorithm will be used

     Using Slab Decomposition

     bravais-lattice index     =            0
     lattice parameter (alat)  =      10.6114  a.u.
     unit-cell volume          =    1367.5991 (a.u.)^3
     number of atoms/cell      =           14
     number of atomic types    =            4
     number of electrons       =       116.00
     number of Kohn-Sham states=           70
     kinetic-energy cutoff     =      30.0000  Ry
     charge density cutoff     =     240.0000  Ry
     scf convergence threshold =      1.0E-06
     mixing beta               =       0.7000
     number of iterations used =            8  plain     mixing
     Exchange-correlation= SLA  PW   PBX  PBC
                           (   1   4   3   4   0   0   0)

     celldm(1)=  10.611436  celldm(2)=   0.000000  celldm(3)=   0.000000
     celldm(4)=   0.000000  celldm(5)=   0.000000  celldm(6)=   0.000000

     crystal axes: (cart. coord. in units of alat)
               a(1) = (   1.000000   0.000000   0.000000 )
               a(2) = (  -0.439265   0.898357   0.000000 )
               a(3) = (   0.000000   0.000000   1.274052 )

     reciprocal axes: (cart. coord. in units 2 pi/alat)
               b(1) = (  1.000000  0.488965  0.000000 )
               b(2) = (  0.000000  1.113143  0.000000 )
               b(3) = (  0.000000  0.000000  0.784897 )

     PseudoPot. # 1 for Ca read from file:
     /home/pragov/projects/rrg-bengioy-ad/pragov/crystal_structure_design/SSSP/Ca_pbe_v1.uspp.F.UPF
     MD5 check sum: 403a4c14b9e4d4dfdc3024c9a3812218
     Pseudo is Ultrasoft + core correction, Zval = 10.0
     Generated by new atomic code, or converted to UPF format
     Using radial grid of  845 points,  6 beta functions with:
                l(1) =   0
                l(2) =   0
                l(3) =   1
                l(4) =   1
                l(5) =   2
                l(6) =   2
     Q(r) pseudized with  8 coefficients,  rinner =    1.500   1.500   1.500
                                                       1.500   1.500

     PseudoPot. # 2 for Ag read from file:
     /home/pragov/projects/rrg-bengioy-ad/pragov/crystal_structure_design/SSSP/Ag_ONCV_PBE-1.0.oncvpsp.upf
     MD5 check sum: 94f47bd0669c641108e45594df92fabc
     Pseudo is Norm-conserving, Zval = 19.0
     Generated using ONCVPSP code by D. R. Hamann
     Using radial grid of 1398 points,  6 beta functions with:
                l(1) =   0
                l(2) =   0
                l(3) =   1
                l(4) =   1
                l(5) =   2
                l(6) =   2

     PseudoPot. # 3 for As read from file:
     /home/pragov/projects/rrg-bengioy-ad/pragov/crystal_structure_design/SSSP/As.pbe-n-rrkjus_psl.0.2.UPF
     MD5 check sum: 767315de957beeeb34f87d97bf945c8f
     Pseudo is Ultrasoft + core correction, Zval =  5.0
     Generated using "atomic" code by A. Dal Corso  v.5.0.99 svn rev. 10869
     Using radial grid of 1209 points,  4 beta functions with:
                l(1) =   0
                l(2) =   0
                l(3) =   1
                l(4) =   1
     Q(r) pseudized with 0 coefficients

     PseudoPot. # 4 for O  read from file:
     /home/pragov/projects/rrg-bengioy-ad/pragov/crystal_structure_design/SSSP/O.pbe-n-kjpaw_psl.0.1.UPF
     MD5 check sum: 0234752ac141de4415c5fc33072bef88
     Pseudo is Projector augmented-wave + core cor, Zval =  6.0
     Generated using "atomic" code by A. Dal Corso  v.5.0.99 svn rev. 10869
     Shape of augmentation charge: BESSEL
     Using radial grid of 1095 points,  4 beta functions with:
                l(1) =   0
                l(2) =   0
                l(3) =   1
                l(4) =   1
     Q(r) pseudized with 0 coefficients

     atomic species   valence    mass     pseudopotential
        Ca            10.00    40.07800     Ca( 1.00)
        Ag            19.00   107.86820     Ag( 1.00)
        As             5.00    74.92159     As( 1.00)
        O              6.00    15.99900     O ( 1.00)

      4 Sym. Ops., with inversion, found ( 2 have fractional translation)

                                    s                        frac. trans.

      isym =  1     identity

 cryst.   s( 1) = (     1          0          0      )
                  (     0          1          0      )
                  (     0          0          1      )

 cart.    s( 1) = (  1.0000000 -0.0000000  0.0000000 )
                  (  0.0000000  1.0000000  0.0000000 )
                  (  0.0000000  0.0000000  1.0000000 )

      isym =  2     180 deg rotation - cart. axis [0,0,1]

 cryst.   s( 2) = (    -1          0          0      )    f =(  0.0000000 )
                  (     0         -1          0      )       (  0.0000000 )
                  (     0          0          1      )       (  0.5000000 )

 cart.    s( 2) = ( -1.0000000  0.0000000  0.0000000 )    f =(  0.0000000 )
                  (  0.0000000 -1.0000000  0.0000000 )       (  0.0000000 )
                  (  0.0000000  0.0000000  1.0000000 )       (  0.6370260 )

      isym =  3     inversion

 cryst.   s( 3) = (    -1          0          0      )
                  (     0         -1          0      )
                  (     0          0         -1      )

 cart.    s( 3) = ( -1.0000000  0.0000000  0.0000000 )
                  (  0.0000000 -1.0000000  0.0000000 )
                  (  0.0000000  0.0000000 -1.0000000 )

      isym =  4     inv. 180 deg rotation - cart. axis [0,0,1]

 cryst.   s( 4) = (     1          0          0      )    f =(  0.0000000 )
                  (     0          1          0      )       (  0.0000000 )
                  (     0          0         -1      )       (  0.5000000 )

 cart.    s( 4) = (  1.0000000 -0.0000000  0.0000000 )    f =(  0.0000000 )
                  (  0.0000000  1.0000000  0.0000000 )       (  0.0000000 )
                  (  0.0000000  0.0000000 -1.0000000 )       (  0.6370260 )

   Cartesian axes

     site n.     atom                  positions (alat units)
         1           Ca  tau(   1) = (   0.0000000   0.0000000   0.6370260  )
         2           Ca  tau(   2) = (   0.0000000   0.0000000   0.0000000  )
         3           Ag  tau(   3) = (   0.0095192   0.6182361   0.9555390  )
         4           Ag  tau(   4) = (   0.5512155   0.2801213   0.3185130  )
         5           As  tau(   5) = (   0.4984736   0.3130416   0.9555390  )
         6           As  tau(   6) = (   0.0622611   0.5853158   0.3185130  )
         7           O   tau(   7) = (   0.6521670   0.2171096   0.7105197  )
         8           O   tau(   8) = (  -0.0914323   0.6812478   0.5635323  )
         9           O   tau(   9) = (  -0.0914323   0.6812478   0.0734937  )
        10           O   tau(  10) = (   0.6521670   0.2171096   1.2005584  )
        11           O   tau(  11) = (   0.4707869   0.6222553   0.9555390  )
        12           O   tau(  12) = (   0.0899478   0.2761021   0.3185130  )
        13           O   tau(  13) = (   0.2085274   0.2020873   0.9555390  )
        14           O   tau(  14) = (   0.3522063   0.6962701   0.3185130  )

   Crystallographic axes

     site n.     atom                  positions (cryst. coord.)
         1           Ca  tau(   1) = (  0.0000000  0.0000000  0.5000000  )
         2           Ca  tau(   2) = (  0.0000000  0.0000000  0.0000000  )
         3           Ag  tau(   3) = (  0.3118150  0.6881850  0.7500000  )
         4           Ag  tau(   4) = (  0.6881850  0.3118150  0.2500000  )
         5           As  tau(   5) = (  0.6515400  0.3484600  0.7500000  )
         6           As  tau(   6) = (  0.3484600  0.6515400  0.2500000  )
         7           O   tau(   7) = (  0.7583260  0.2416740  0.5576850  )
         8           O   tau(   8) = (  0.2416740  0.7583260  0.4423150  )
         9           O   tau(   9) = (  0.2416740  0.7583260  0.0576850  )
        10           O   tau(  10) = (  0.7583260  0.2416740  0.9423150  )
        11           O   tau(  11) = (  0.7750480  0.6926590  0.7500000  )
        12           O   tau(  12) = (  0.2249520  0.3073410  0.2500000  )
        13           O   tau(  13) = (  0.3073410  0.2249520  0.7500000  )
        14           O   tau(  14) = (  0.6926580  0.7750480  0.2500000  )

     number of k points=     1  Methfessel-Paxton smearing, width (Ry)=  0.0010
                       cart. coord. in units 2pi/alat
        k(    1) = (   0.0000000   0.0000000   0.0000000), wk =   2.0000000

                       cryst. coord.
        k(    1) = (   0.0000000   0.0000000   0.0000000), wk =   2.0000000

     Check: negative core charge=   -0.000010

     Initial potential from superposition of free atoms

     starting charge     115.9880, renormalised to     116.0000
     Starting wfcs are   80 randomized atomic wfcs
     Checking if some PAW data can be deallocated...

     Self-consistent Calculation

     iteration #  1     ecut=    30.00 Ry     beta= 0.70
     Davidson diagonalization with overlap

     ethr =  1.00E-02,  avg # of iterations =  2.0

     total energy              =   -1092.16136683 Ry
     estimated scf accuracy    <       3.15879506 Ry

[...]

     total energy              =   -1093.65615734 Ry
     estimated scf accuracy    <       0.00000714 Ry

     iteration #  9     ecut=    30.00 Ry     beta= 0.70
     Davidson diagonalization with overlap

     ethr =  6.15E-09,  avg # of iterations =  2.0

     End of self-consistent calculation

          k = 0.0000 0.0000 0.0000 (  1893 PWs)   bands (ev):

   -83.9485 -83.9483 -47.0102 -47.0087 -46.9885 -46.9850 -46.9645 -46.9640
   -31.7982 -31.7800 -13.4501 -13.0353 -13.0342 -12.9557 -12.8013 -12.7985
   -12.7756 -12.1612 -10.7754 -10.6969 -10.6920 -10.4545 -10.4093 -10.2901
    -2.0162  -1.6940   1.3564   1.4067   1.5971   1.8083   1.9960   2.1638
     3.5245   3.6033   3.6570   3.8307   4.2094   4.2955   4.4289   4.5580
     4.5880   4.7588   4.8409   4.8445   4.8824   4.9357   4.9371   5.0549
     5.3394   5.3587   5.7717   5.8348   5.8523   6.0042   6.0863   6.1287
     6.1495   6.2490   8.4569  11.1333  11.6901  11.6946  12.7351  12.7883
    13.2190  13.2378  13.6605  13.6778  14.0412  14.0664

     occupation numbers
     1.0000   1.0000   1.0000   1.0000   1.0000   1.0000   1.0000   1.0000
     1.0000   1.0000   1.0000   1.0000   1.0000   1.0000   1.0000   1.0000
     1.0000   1.0000   1.0000   1.0000   1.0000   1.0000   1.0000   1.0000
     1.0000   1.0000   1.0000   1.0000   1.0000   1.0000   1.0000   1.0000
     1.0000   1.0000   1.0000   1.0000   1.0000   1.0000   1.0000   1.0000
     1.0000   1.0000   1.0000   1.0000   1.0000   1.0000   1.0000   1.0000
     1.0000   1.0000   1.0000   1.0000   1.0000   1.0000   1.0000   1.0000
     1.0000   1.0000  -0.0000  -0.0000  -0.0000  -0.0000  -0.0000  -0.0000
    -0.0000  -0.0000  -0.0000  -0.0000  -0.0000  -0.0000

     the Fermi energy is     8.0595 ev

!    total energy              =   -1093.65615764 Ry
     estimated scf accuracy    <       0.00000062 Ry
     smearing contrib. (-TS)   =       0.00000000 Ry
     internal energy E=F+TS    =   -1093.65615764 Ry

     The total energy is F=E-TS. E is the sum of the following terms:
     one-electron contribution =    -481.41566994 Ry
     hartree contribution      =     292.29228406 Ry
     xc contribution           =    -156.16742263 Ry
     ewald contribution        =    -672.17870703 Ry
     one-center paw contrib.   =     -76.18664210 Ry
      -> PAW hartree energy AE =     237.98975577 Ry
      -> PAW hartree energy PS =    -237.16072126 Ry
      -> PAW xc energy AE      =    -137.51062779 Ry
      -> PAW xc energy PS      =      60.49495118 Ry
      -> total E_H with PAW    =     293.12131857 Ry
      -> total E_XC with PAW   =    -233.18309924 Ry

     convergence has been achieved in   9 iterations

     Forces acting on atoms (cartesian axes, Ry/au):

     atom    1 type  1   force =     0.00000000    0.00000000   -0.00000000
     atom    2 type  1   force =     0.00000000    0.00000000   -0.00000000
     atom    3 type  2   force =    -0.01151953    0.00722430    0.00000000
     atom    4 type  2   force =     0.01151953   -0.00722430    0.00000000
     atom    5 type  3   force =    -0.01506798    0.00940931    0.00000000
     atom    6 type  3   force =     0.01506798   -0.00940931    0.00000000
     atom    7 type  4   force =     0.00707921   -0.00442055   -0.03776305
     atom    8 type  4   force =    -0.00707921    0.00442055    0.03776305
     atom    9 type  4   force =    -0.00707921    0.00442055   -0.03776305
     atom   10 type  4   force =     0.00707921   -0.00442055    0.03776305
     atom   11 type  4   force =     0.00149203    0.00503821    0.00000000
     atom   12 type  4   force =    -0.00149203   -0.00503821    0.00000000
     atom   13 type  4   force =    -0.00386782   -0.00355340    0.00000000
     atom   14 type  4   force =     0.00386782    0.00355340    0.00000000
     The non-local contrib.  to forces
     atom    1 type  1   force =     0.00000000    0.00000000    0.00000000
     atom    2 type  1   force =    -0.00000000   -0.00000000   -0.00000000
     atom    3 type  2   force =    -0.02441704    0.01523088    0.00000000
     atom    4 type  2   force =     0.02441704   -0.01523088    0.00000000
     atom    5 type  3   force =    -0.01984435    0.01239602    0.00000000
     atom    6 type  3   force =     0.01984435   -0.01239602    0.00000000
     atom    7 type  4   force =    -0.85682672    0.53482491    0.92380397
     atom    8 type  4   force =     0.85682672   -0.53482491   -0.92380397
     atom    9 type  4   force =     0.85682672   -0.53482491    0.92380397
     atom   10 type  4   force =    -0.85682672    0.53482491   -0.92380397
     atom   11 type  4   force =     0.11927101   -1.30649869    0.00000000
     atom   12 type  4   force =    -0.11927101    1.30649869    0.00000000
     atom   13 type  4   force =     1.22610769    0.46678185    0.00000000
     atom   14 type  4   force =    -1.22610769   -0.46678185    0.00000000
     The ionic contribution  to forces
     atom    1 type  1   force =    -0.00000050   -0.00000887   -0.00001260
     atom    2 type  1   force =    -0.00000050   -0.00000887    0.00001260
     atom    3 type  2   force =     2.23302776   -1.39380959    0.00000000
     atom    4 type  2   force =    -2.23303013    1.39384247   -0.00000000
     atom    5 type  3   force =    -0.26325057    0.16431614   -0.00000000
     atom    6 type  3   force =     0.26321842   -0.16433290   -0.00000000
     atom    7 type  4   force =     1.48422676   -0.92641862    1.69893805
     atom    8 type  4   force =    -1.48423755    0.92642061   -1.69893469
     atom    9 type  4   force =    -1.48423755    0.92642061    1.69893469
     atom   10 type  4   force =     1.48422676   -0.92641862   -1.69893805
     atom   11 type  4   force =     0.12865656    1.85624765    0.00000000
     atom   12 type  4   force =    -0.12865793   -1.85625680    0.00000000
     atom   13 type  4   force =    -1.61106025   -0.93096391    0.00000000
     atom   14 type  4   force =     1.61111870    0.93097068    0.00000000
     The local contribution  to forces
     atom    1 type  1   force =    -0.00000439    0.00004376    0.00000919
     atom    2 type  1   force =    -0.00008066    0.00008616   -0.00002866
     atom    3 type  2   force =    -2.22027985    1.38576701    0.00014448
     atom    4 type  2   force =     2.22033424   -1.38584981   -0.00024456
     atom    5 type  3   force =     0.25923403   -0.16178797    0.00005317
     atom    6 type  3   force =    -0.25917642    0.16177116   -0.00002696
     atom    7 type  4   force =    -0.62982289    0.39313783   -2.65152476
     atom    8 type  4   force =     0.62984437   -0.39314115    2.65149576
     atom    9 type  4   force =     0.62985895   -0.39313379   -2.65153754
     atom   10 type  4   force =    -0.62985636    0.39315366    2.65159959
     atom   11 type  4   force =    -0.24540810   -0.55858461    0.00001323
     atom   12 type  4   force =     0.24539094    0.55862882   -0.00002837
     atom   13 type  4   force =     0.39397015    0.46581337    0.00001232
     atom   14 type  4   force =    -0.39407316   -0.46580703   -0.00002827
     The core correction contribution to forces
     atom    1 type  1   force =    -0.00000023    0.00000048   -0.00000015
     atom    2 type  1   force =    -0.00000079    0.00000048   -0.00000020
     atom    3 type  2   force =     0.00000000    0.00000000    0.00000000
     atom    4 type  2   force =     0.00000000    0.00000000    0.00000000
     atom    5 type  3   force =     0.00875426   -0.00546311   -0.00000609
     atom    6 type  3   force =    -0.00875334    0.00546709    0.00000011
     atom    7 type  4   force =     0.00930609   -0.00580871   -0.00867230
     atom    8 type  4   force =    -0.00930602    0.00580884    0.00867194
     atom    9 type  4   force =    -0.00930600    0.00580894   -0.00867195
     atom   10 type  4   force =     0.00930529   -0.00580827    0.00867199
     atom   11 type  4   force =    -0.00096373    0.01348438   -0.00000037
     atom   12 type  4   force =     0.00096369   -0.01348390    0.00000022
     atom   13 type  4   force =    -0.01253704   -0.00505768   -0.00000046
     atom   14 type  4   force =     0.01253688    0.00505796    0.00000016
     The Hubbard contrib.    to forces
     atom    1 type  1   force =     0.00000000    0.00000000    0.00000000
     atom    2 type  1   force =     0.00000000    0.00000000    0.00000000
     atom    3 type  2   force =     0.00000000    0.00000000    0.00000000
     atom    4 type  2   force =     0.00000000    0.00000000    0.00000000
     atom    5 type  3   force =     0.00000000    0.00000000    0.00000000
     atom    6 type  3   force =     0.00000000    0.00000000    0.00000000
     atom    7 type  4   force =     0.00000000    0.00000000    0.00000000
     atom    8 type  4   force =     0.00000000    0.00000000    0.00000000
     atom    9 type  4   force =     0.00000000    0.00000000    0.00000000
     atom   10 type  4   force =     0.00000000    0.00000000    0.00000000
     atom   11 type  4   force =     0.00000000    0.00000000    0.00000000
     atom   12 type  4   force =     0.00000000    0.00000000    0.00000000
     atom   13 type  4   force =     0.00000000    0.00000000    0.00000000
     atom   14 type  4   force =     0.00000000    0.00000000    0.00000000
     The SCF correction term to forces
     atom    1 type  1   force =     0.00000448   -0.00003442   -0.00000014
     atom    2 type  1   force =     0.00007776   -0.00007947    0.00001630
     atom    3 type  2   force =     0.00014079    0.00004793   -0.00016833
     atom    4 type  2   force =    -0.00021043    0.00002584    0.00031379
     atom    5 type  3   force =     0.00003629   -0.00003904   -0.00009401
     atom    6 type  3   force =    -0.00006738    0.00009409    0.00003339
     atom    7 type  4   force =     0.00020627   -0.00015518   -0.00032251
     atom    8 type  4   force =    -0.00021545    0.00016708    0.00032683
     atom    9 type  4   force =    -0.00023123    0.00016310   -0.00028445
     atom   10 type  4   force =     0.00020130   -0.00014968    0.00023395
     atom   11 type  4   force =    -0.00006792    0.00039954   -0.00003849
     atom   12 type  4   force =     0.00007808   -0.00041495    0.00004392
     atom   13 type  4   force =    -0.00034982   -0.00011892   -0.00004167
     atom   14 type  4   force =     0.00039166    0.00012176    0.00004211

     Total force =     0.084227     Total SCF correction =     0.001232

     Computing stress (Cartesian axis) and pressure

          total   stress  (Ry/bohr**3)                   (kbar)     P=     -585.39
  -0.00413341   0.00022247   0.00000000         -608.05       32.73        0.00
   0.00022247  -0.00391595   0.00000000           32.73     -576.06        0.00
   0.00000000   0.00000000  -0.00388884            0.00        0.00     -572.07

     kinetic stress (kbar)  27222.76    141.17      0.00
                              141.17  27360.81      0.00
                                0.00      0.00  27049.84

     local   stress (kbar) -11554.70   3330.54      0.01
                             3330.54  -8297.63     -0.00
                                0.01     -0.00 -13544.22

     nonloc. stress (kbar)   1903.26      2.12      0.00
                                2.12   1905.33      0.00
                                0.00      0.00   1985.96

     hartree stress (kbar)  10632.99  -1221.04     -0.01
                            -1221.04   9438.87      0.00
                               -0.01      0.00  11368.41

     exc-cor stress (kbar)  -2943.83     -4.02     -0.00
                               -4.02  -2947.76      0.00
                               -0.00      0.00  -2944.39

     corecor stress (kbar)  -2029.43      0.54      0.00
                                0.54  -2028.90     -0.00
                                0.00     -0.00  -2031.00

     ewald   stress (kbar) -23839.10  -2216.58     -0.00
                            -2216.58 -26006.78     -0.00
                               -0.00     -0.00 -22456.66

     hubbard stress (kbar)      0.00      0.00      0.00
                                0.00      0.00      0.00
                                0.00      0.00      0.00

     DFT-D   stress (kbar)      0.00      0.00      0.00
                                0.00      0.00      0.00
                                0.00      0.00      0.00

     XDM     stress (kbar)      0.00      0.00      0.00
                                0.00      0.00      0.00
                                0.00      0.00      0.00

     dft-nl  stress (kbar)      0.00      0.00      0.00
                                0.00      0.00      0.00
                                0.00      0.00      0.00

     TS-vdW  stress (kbar)      0.00      0.00      0.00
                                0.00      0.00      0.00
                                0.00      0.00      0.00

[...]

                                0.00      0.00      0.00

     Writing all to output data dir new_calculations/myprefix.save/

     General routines

     Parallel routines

     PAW routines

   This run was terminated on:  17:24:25  21May2023

   JOB DONE.