     Program PWSCF v.7.0 starts on 20May2023 at 11:45:28

     Reading input from espresso_1378.pwi
Warning: card &CELL ignored
Warning: card / ignored

     Current dimensions of program PWSCF are:
     Max number of different atomic species (ntypx) = 10
     Max number of k-points (npk) =  40000
     Max angular momentum in pseudopotentials (lmaxx) =  4

     gamma-point specific algorithms are used
     Message from routine setup:
     using ibrav=0 with symmetry is DISCOURAGED, use correct ibrav instead

     Subspace diagonalization in iterative solution of the eigenvalue problem:
     a serial algorithm will be used

     Using Slab Decomposition

     bravais-lattice index     =            0
     lattice parameter (alat)  =      10.8412  a.u.
     unit-cell volume          =     928.3307 (a.u.)^3
     number of atoms/cell      =           16
     number of atomic types    =            3
     number of electrons       =        96.00
     number of Kohn-Sham states=           58
     kinetic-energy cutoff     =      30.0000  Ry
     charge density cutoff     =     240.0000  Ry
     scf convergence threshold =      1.0E-06
     mixing beta               =       0.7000
     number of iterations used =            8  plain     mixing
     Exchange-correlation= PBE
                           (   1   4   3   4   0   0   0)

     celldm(1)=  10.841196  celldm(2)=   0.000000  celldm(3)=   0.000000
     celldm(4)=   0.000000  celldm(5)=   0.000000  celldm(6)=   0.000000

     crystal axes: (cart. coord. in units of alat)
               a(1) = (   1.000000   0.000000   0.000000 )
               a(2) = (   0.797615   0.603167   0.000000 )
               a(3) = (   0.750910   0.251959   1.207906 )

     reciprocal axes: (cart. coord. in units 2 pi/alat)
               b(1) = (  1.000000 -1.322377 -0.345826 )
               b(2) = (  0.000000  1.657915 -0.345826 )
               b(3) = (  0.000000  0.000000  0.827879 )

     PseudoPot. # 1 for Zr read from file:
     /home/pragov/projects/rrg-bengioy-ad/pragov/crystal_structure_design/SSSP/Zr_pbe_v1.uspp.F.UPF
     MD5 check sum: 5db81b1e868ab7776c4564c113de050b
     Pseudo is Ultrasoft + core correction, Zval = 12.0
     Generated by new atomic code, or converted to UPF format
     Using radial grid of  887 points,  6 beta functions with:
                l(1) =   0
                l(2) =   0
                l(3) =   1
                l(4) =   1
                l(5) =   2
                l(6) =   2
     Q(r) pseudized with  6 coefficients,  rinner =    1.200   1.200   1.200
                                                       1.200   1.200

     PseudoPot. # 2 for Cu read from file:
     /home/pragov/projects/rrg-bengioy-ad/pragov/crystal_structure_design/SSSP/Cu_pbe_v1.2.uspp.F.UPF
     MD5 check sum: 6e991ff952a84172a2a52a1c1e996048
     Pseudo is Ultrasoft + core correction, Zval = 19.0
     Generated by new atomic code, or converted to UPF format
     Using radial grid of  867 points,  6 beta functions with:
                l(1) =   0
                l(2) =   0
                l(3) =   1
                l(4) =   1
                l(5) =   2
                l(6) =   2
     Q(r) pseudized with  8 coefficients,  rinner =    1.150   1.150   1.150
                                                       1.150   1.150

     PseudoPot. # 3 for H  read from file:
     /home/pragov/projects/rrg-bengioy-ad/pragov/crystal_structure_design/SSSP/H.pbe-rrkjus_psl.1.0.0.UPF
     MD5 check sum: f52b6d4d1c606e5624b1dc7b2218f220
     Pseudo is Ultrasoft, Zval =  1.0
     Generated using "atomic" code by A. Dal Corso  v.5.1
     Using radial grid of  929 points,  2 beta functions with:
                l(1) =   0
                l(2) =   0
     Q(r) pseudized with 0 coefficients

     atomic species   valence    mass     pseudopotential
        Zr            12.00    91.22400     Zr( 1.00)
        Cu            19.00    63.54600     Cu( 1.00)
        H              1.00     1.00800     H ( 1.00)

      2 Sym. Ops., with inversion, found

                                    s                        frac. trans.

      isym =  1     identity

 cryst.   s( 1) = (     1          0          0      )
                  (     0          1          0      )
                  (     0          0          1      )

 cart.    s( 1) = (  1.0000000 -0.0000000  0.0000000 )
                  (  0.0000000  1.0000000  0.0000000 )
                  (  0.0000000  0.0000000  1.0000000 )

      isym =  2     inversion

 cryst.   s( 2) = (    -1          0          0      )
                  (     0         -1          0      )
                  (     0          0         -1      )

 cart.    s( 2) = ( -1.0000000  0.0000000 -0.0000000 )
                  (  0.0000000 -1.0000000 -0.0000000 )
                  (  0.0000000  0.0000000 -1.0000000 )

   Cartesian axes

     site n.     atom                  positions (alat units)
         1           Zr  tau(   1) = (   2.2859919   0.7670363   1.0189379  )
         2           Zr  tau(   2) = (   0.2625332   0.0880898   0.1889685  )
         3           Zr  tau(   3) = (   1.0173010   0.3413428   0.6933685  )
         4           Zr  tau(   4) = (   1.5312241   0.5137833   0.5145379  )
         5           Cu  tau(   5) = (   1.7572003   0.5896068   1.0255802  )
         6           Cu  tau(   6) = (   0.7913248   0.2655192   0.1823262  )
         7           H   tau(   7) = (   1.8723039   0.6282284   0.5115979  )
         8           H   tau(   8) = (   0.6762212   0.2268976   0.6963085  )
         9           H   tau(   9) = (   1.2070968   0.4050264   0.3962658  )
        10           H   tau(  10) = (   1.3414283   0.4500997   0.8116406  )
        11           H   tau(  11) = (   1.2448355   0.4176892   0.0235493  )
        12           H   tau(  12) = (   1.3036895   0.4374369   1.1843571  )
        13           H   tau(  13) = (   1.9939620   0.6690493   0.8490084  )
        14           H   tau(  14) = (   0.5545631   0.1860768   0.3588980  )
        15           H   tau(  15) = (   0.8579614   0.2878783   1.0386038  )
        16           H   tau(  16) = (   1.6905637   0.5672477   0.1693026  )

   Crystallographic axes

     site n.     atom                  positions (cryst. coord.)
         1           Zr  tau(   1) = (  0.9193050  0.9193050  0.8435570  )
         2           Zr  tau(   2) = (  0.0806950  0.0806950  0.1564430  )
         3           Zr  tau(   3) = (  0.3261320  0.3261320  0.5740250  )
         4           Zr  tau(   4) = (  0.6738680  0.6738680  0.4259750  )
         5           Cu  tau(   5) = (  0.6228450  0.6228450  0.8490560  )
         6           Cu  tau(   6) = (  0.3771550  0.3771550  0.1509440  )
         7           H   tau(   7) = (  0.8646250  0.8646250  0.4235410  )
         8           H   tau(   8) = (  0.1353750  0.1353750  0.5764590  )
         9           H   tau(   9) = (  0.5344600  0.5344600  0.3280600  )
        10           H   tau(  10) = (  0.4655400  0.4655400  0.6719400  )
        11           H   tau(  11) = (  0.6843490  0.6843490  0.0194960  )
        12           H   tau(  12) = (  0.3156510  0.3156510  0.9805040  )
        13           H   tau(  13) = (  0.8156170  0.8156170  0.7028760  )
        14           H   tau(  14) = (  0.1843830  0.1843830  0.2971240  )
        15           H   tau(  15) = (  0.1181010  0.1181010  0.8598380  )
        16           H   tau(  16) = (  0.8818990  0.8818990  0.1401620  )

     number of k points=     1  Methfessel-Paxton smearing, width (Ry)=  0.0010
                       cart. coord. in units 2pi/alat
        k(    1) = (   0.0000000   0.0000000   0.0000000), wk =   2.0000000

                       cryst. coord.
        k(    1) = (   0.0000000   0.0000000   0.0000000), wk =   2.0000000

     Check: negative core charge=   -0.000004

     Initial potential from superposition of free atoms

     starting charge      93.9913, renormalised to      96.0000

     negative rho (up, down):  2.471E-01 0.000E+00
     Starting wfcs are   88 randomized atomic wfcs

     Self-consistent Calculation

     iteration #  1     ecut=    30.00 Ry     beta= 0.70
     Davidson diagonalization with overlap

     ethr =  1.00E-02,  avg # of iterations =  2.0

     negative rho (up, down):  2.467E-01 0.000E+00

     total energy              =   -1213.44893020 Ry
     estimated scf accuracy    <       3.76486382 Ry

[...]

     ethr =  4.59E-05,  avg # of iterations =  1.0
     Minimization algorithm failed to find Fermi energy: reverting to bisection
     Possible cause: smearing is larger than the electronic band-gap.

[...]

     total energy              =   -1215.53242882 Ry
     estimated scf accuracy    <       0.00000742 Ry

     iteration # 46     ecut=    30.00 Ry     beta= 0.70
     Davidson diagonalization with overlap

     ethr =  6.21E-09,  avg # of iterations =  1.0

[...]

     End of self-consistent calculation

          k = 0.0000 0.0000 0.0000 (  1276 PWs)   bands (ev):

   -99.7623 -99.7594 -57.3556 -57.3533 -57.0493 -57.0365 -57.0210 -56.9915
   -35.6808 -35.6644 -35.4404 -35.3565 -14.0654 -13.9167 -13.8225 -13.7939
   -13.7558 -13.5683 -13.5507 -13.4754 -13.4700 -13.3734 -13.3117 -13.3007
     3.1242   5.3356   6.1159   6.4640   6.8842   6.8882   8.0321   8.4590
     9.1553   9.5836   9.9066   9.9353   9.9636  10.0362  10.1192  10.2286
    11.0685  11.0925  11.2153  12.2734  13.1696  13.1807  13.3004  13.3102
    13.3126  13.8828  14.0352  14.3277  15.0605  15.3685  16.1389  16.3162
    16.3289  16.4233

     occupation numbers
     1.0000   1.0000   1.0000   1.0000   1.0000   1.0000   1.0000   1.0000
     1.0000   1.0000   1.0000   1.0000   1.0000   1.0000   1.0000   1.0000
     1.0000   1.0000   1.0000   1.0000   1.0000   1.0000   1.0000   1.0000
     1.0000   1.0000   1.0000   1.0000   1.0000   1.0000   1.0000   1.0000
     1.0000   1.0000   1.0000   1.0000   1.0000   1.0000   1.0000   1.0000
     1.0000   1.0000   1.0000   1.0000   1.0000   1.0000   0.9932   0.5775
     0.4293  -0.0000  -0.0000  -0.0000  -0.0000  -0.0000  -0.0000  -0.0000
    -0.0000  -0.0000

     the Fermi energy is    13.3114 ev

!    total energy              =   -1215.53242873 Ry
     estimated scf accuracy    <       0.00000038 Ry
     smearing contrib. (-TS)   =      -0.00050435 Ry
     internal energy E=F+TS    =   -1215.53192438 Ry

     The total energy is F=E-TS. E is the sum of the following terms:
     one-electron contribution =    -838.11642202 Ry
     hartree contribution      =     461.46137119 Ry
     xc contribution           =    -156.41356835 Ry
     ewald contribution        =    -682.46330519 Ry

     convergence has been achieved in  46 iterations

     negative rho (up, down):  2.479E-01 0.000E+00

     Forces acting on atoms (cartesian axes, Ry/au):

     atom    1 type  1   force =    -0.06593219   -0.02210929    0.02138499
     atom    2 type  1   force =     0.06593219    0.02210929   -0.02138499
     atom    3 type  1   force =    -0.04301942   -0.01443475   -0.06348949
     atom    4 type  1   force =     0.04301942    0.01443475    0.06348949
     atom    5 type  2   force =     0.00569271    0.00191358    0.01260229
     atom    6 type  2   force =    -0.00569271   -0.00191358   -0.01260229
     atom    7 type  3   force =    -0.01886852   -0.00632098    0.02968000
     atom    8 type  3   force =     0.01886852    0.00632098   -0.02968000
     atom    9 type  3   force =    -0.03468532   -0.01163274    0.00491197
     atom   10 type  3   force =     0.03468532    0.01163274   -0.00491197
     atom   11 type  3   force =    -0.01287487   -0.00431055    0.03342541
     atom   12 type  3   force =     0.01287487    0.00431055   -0.03342541
     atom   13 type  3   force =     0.01589225    0.00534058   -0.00966417
     atom   14 type  3   force =    -0.01589225   -0.00534058    0.00966417
     atom   15 type  3   force =     0.02358731    0.00791371    0.01055121
     atom   16 type  3   force =    -0.02358731   -0.00791371   -0.01055121
     The non-local contrib.  to forces
     atom    1 type  1   force =     0.05615119    0.01887067   -0.02240456
     atom    2 type  1   force =    -0.05615119   -0.01887067    0.02240456
     atom    3 type  1   force =    -0.04196910   -0.01409226    0.03415175
     atom    4 type  1   force =     0.04196910    0.01409226   -0.03415175
     atom    5 type  2   force =     0.04892837    0.01642255   -0.20101945
     atom    6 type  2   force =    -0.04892837   -0.01642255    0.20101945
     atom    7 type  3   force =    -0.00590332   -0.00197951    0.00301462
     atom    8 type  3   force =     0.00590332    0.00197951   -0.00301462
     atom    9 type  3   force =     0.00066660    0.00022437    0.00914112
     atom   10 type  3   force =    -0.00066660   -0.00022437   -0.00914112
     atom   11 type  3   force =    -0.00107178   -0.00035896   -0.00086733
     atom   12 type  3   force =     0.00107178    0.00035896    0.00086733
     atom   13 type  3   force =     0.00207372    0.00069659    0.00409965
     atom   14 type  3   force =    -0.00207372   -0.00069659   -0.00409965
     atom   15 type  3   force =     0.00034640    0.00011619   -0.00116743
     atom   16 type  3   force =    -0.00034640   -0.00011619    0.00116743
     The ionic contribution  to forces
     atom    1 type  1   force =    -9.27789784   -3.11308391  -11.23551807
     atom    2 type  1   force =     9.27789785    3.11308392   11.23551807
     atom    3 type  1   force =     8.46992774    2.84197954   -6.95460954
     atom    4 type  1   force =    -8.46992774   -2.84197954    6.95460954
     atom    5 type  2   force =     8.32144515    2.79215804  -18.20020313
     atom    6 type  2   force =    -8.32144515   -2.79215804   18.20020313
     atom    7 type  3   force =     0.88968535    0.29852292    0.35617437
     atom    8 type  3   force =    -0.88968535   -0.29852292   -0.35617437
     atom    9 type  3   force =     0.33970355    0.11398333    0.60134421
     atom   10 type  3   force =    -0.33970355   -0.11398333   -0.60134421
     atom   11 type  3   force =     1.61997854    0.54356377    0.99591896
     atom   12 type  3   force =    -1.61997854   -0.54356377   -0.99591896
     atom   13 type  3   force =     1.88953354    0.63400962   -1.71558331
     atom   14 type  3   force =    -1.88953354   -0.63400962    1.71558331
     atom   15 type  3   force =     0.45763596    0.15355409   -0.49971665
     atom   16 type  3   force =    -0.45763596   -0.15355409    0.49971665
     The local contribution  to forces
     atom    1 type  1   force =     9.15804683    3.07284910   11.27821928
     atom    2 type  1   force =    -9.15874643   -3.07318726  -11.27847393
     atom    3 type  1   force =    -8.47329839   -2.84316611    6.85897058
     atom    4 type  1   force =     8.47389139    2.84322796   -6.85902843
     atom    5 type  2   force =    -8.36309005   -2.80604170   18.41349120
     atom    6 type  2   force =     8.36743698    2.80768719  -18.41270124
     atom    7 type  3   force =    -0.90254128   -0.30281311   -0.32945724
     atom    8 type  3   force =     0.90272122    0.30290636    0.32957515
     atom    9 type  3   force =    -0.37526257   -0.12589470   -0.60556210
     atom   10 type  3   force =     0.37486832    0.12579181    0.60552444
     atom   11 type  3   force =    -1.63187580   -0.54752973   -0.96165470
     atom   12 type  3   force =     1.63170580    0.54749546    0.96159290
     atom   13 type  3   force =    -1.87582537   -0.62937838    1.70183308
     atom   14 type  3   force =     1.87560956    0.62935156   -1.70177164
     atom   15 type  3   force =    -0.43430431   -0.14573279    0.51146912
     atom   16 type  3   force =     0.43450139    0.14578723   -0.51138204
     The core correction contribution to forces
     atom    1 type  1   force =    -0.00239848   -0.00080652    0.00072673
     atom    2 type  1   force =     0.00241373    0.00081156   -0.00073236
     atom    3 type  1   force =     0.00278128    0.00093463   -0.00209763
     atom    4 type  1   force =    -0.00278531   -0.00093460    0.00209703
     atom    5 type  2   force =     0.00044504    0.00014936    0.00027872
     atom    6 type  2   force =    -0.00044132   -0.00014806   -0.00027840
     atom    7 type  3   force =     0.00000000    0.00000000    0.00000000
     atom    8 type  3   force =     0.00000000    0.00000000    0.00000000
     atom    9 type  3   force =     0.00000000    0.00000000    0.00000000
     atom   10 type  3   force =     0.00000000    0.00000000    0.00000000
     atom   11 type  3   force =     0.00000000    0.00000000    0.00000000
     atom   12 type  3   force =     0.00000000    0.00000000    0.00000000
     atom   13 type  3   force =     0.00000000    0.00000000    0.00000000
     atom   14 type  3   force =     0.00000000    0.00000000    0.00000000
     atom   15 type  3   force =     0.00000000    0.00000000    0.00000000
     atom   16 type  3   force =     0.00000000    0.00000000    0.00000000
     The Hubbard contrib.    to forces
     atom    1 type  1   force =     0.00000000    0.00000000    0.00000000
     atom    2 type  1   force =     0.00000000    0.00000000    0.00000000
     atom    3 type  1   force =     0.00000000    0.00000000    0.00000000
     atom    4 type  1   force =     0.00000000    0.00000000    0.00000000
     atom    5 type  2   force =     0.00000000    0.00000000    0.00000000
     atom    6 type  2   force =     0.00000000    0.00000000    0.00000000
     atom    7 type  3   force =     0.00000000    0.00000000    0.00000000
     atom    8 type  3   force =     0.00000000    0.00000000    0.00000000
     atom    9 type  3   force =     0.00000000    0.00000000    0.00000000
     atom   10 type  3   force =     0.00000000    0.00000000    0.00000000
     atom   11 type  3   force =     0.00000000    0.00000000    0.00000000
     atom   12 type  3   force =     0.00000000    0.00000000    0.00000000
     atom   13 type  3   force =     0.00000000    0.00000000    0.00000000
     atom   14 type  3   force =     0.00000000    0.00000000    0.00000000
     atom   15 type  3   force =     0.00000000    0.00000000    0.00000000
     atom   16 type  3   force =     0.00000000    0.00000000    0.00000000
     The SCF correction term to forces
     atom    1 type  1   force =     0.00023153    0.00006548    0.00033054
     atom    2 type  1   force =     0.00058364    0.00027585   -0.00013239
     atom    3 type  1   force =    -0.00039157   -0.00008144   -0.00003060
     atom    4 type  1   force =    -0.00005863    0.00003777   -0.00016286
     atom    5 type  2   force =    -0.00171291   -0.00067597    0.00022385
     atom    6 type  2   force =    -0.00199195   -0.00077342   -0.00067633
     atom    7 type  3   force =    -0.00009129   -0.00003020   -0.00001931
     atom    8 type  3   force =    -0.00005267   -0.00002091   -0.00003372
     atom    9 type  3   force =     0.00012240    0.00003907   -0.00003445
     atom   10 type  3   force =     0.00010244    0.00003344    0.00002574
     atom   11 type  3   force =     0.00008089    0.00001911    0.00001508
     atom   12 type  3   force =     0.00006254    0.00002462    0.00001992
     atom   13 type  3   force =     0.00006635    0.00001414    0.00003197
     atom   14 type  3   force =     0.00006144    0.00001545   -0.00000228
     atom   15 type  3   force =    -0.00007874   -0.00002181    0.00001113
     atom   16 type  3   force =    -0.00009434   -0.00002871   -0.00000828

     Total force =     0.182339     Total SCF correction =     0.003056

     Computing stress (Cartesian axis) and pressure

     negative rho (up, down):  2.479E-01 0.000E+00
          total   stress  (Ry/bohr**3)                   (kbar)     P=     -130.16
  -0.00101911   0.00002753  -0.00047804         -149.92        4.05      -70.32
   0.00002753  -0.00109272  -0.00016045            4.05     -160.75      -23.60
  -0.00047804  -0.00016045  -0.00054256          -70.32      -23.60      -79.81

     kinetic stress (kbar)  21616.77    -66.59    -11.35
                              -66.59  21792.96     -3.81
                              -11.35     -3.81  22104.74

     local   stress (kbar) -11916.87   4765.83   9297.73
                             4765.83 -24521.82   3119.70
                             9297.73   3119.70 -18726.76

     nonloc. stress (kbar)  15620.12     92.19     -8.02
                               92.19  15376.40     -2.69
                               -8.02     -2.69  15666.77

     hartree stress (kbar)  21376.21  -2218.53  -4271.61
                            -2218.53  27243.87  -1433.25
                            -4271.61  -1433.25  24503.97

     exc-cor stress (kbar)  -3352.61     -1.15     -0.78
                               -1.15  -3349.57     -0.26
                               -0.78     -0.26  -3346.26

     corecor stress (kbar)  -4113.42     -2.54     -0.27
                               -2.54  -4106.70     -0.09
                               -0.27     -0.09  -4113.84

     ewald   stress (kbar) -39380.11  -2565.16  -5076.02
                            -2565.16 -32595.90  -1703.19
                            -5076.02  -1703.19 -36168.44

     hubbard stress (kbar)      0.00      0.00      0.00
                                0.00      0.00      0.00
                                0.00      0.00      0.00

     DFT-D   stress (kbar)      0.00      0.00      0.00
                                0.00      0.00      0.00
                                0.00      0.00      0.00

     XDM     stress (kbar)      0.00      0.00      0.00
                                0.00      0.00      0.00
                                0.00      0.00      0.00

     dft-nl  stress (kbar)      0.00      0.00      0.00
                                0.00      0.00      0.00
                                0.00      0.00      0.00

     TS-vdW  stress (kbar)      0.00      0.00      0.00
                                0.00      0.00      0.00
                                0.00      0.00      0.00

[...]

                                0.00      0.00      0.00

     Writing all to output data dir new_calculations/myprefix.save/

     General routines

     Parallel routines

   This run was terminated on:  11:45:58  20May2023

   JOB DONE.