     Program PWSCF v.7.0 starts on 20May2023 at 14:20:42

     Reading input from espresso_17413.pwi
Warning: card &CELL ignored
Warning: card / ignored

     Current dimensions of program PWSCF are:
     Max number of different atomic species (ntypx) = 10
     Max number of k-points (npk) =  40000
     Max angular momentum in pseudopotentials (lmaxx) =  4
     file Nb.pbe-spn-kjpaw_psl.0.3.0.UPF: wavefunction(s)  4S 4P renormalized
     file O.pbe-n-kjpaw_psl.0.1.UPF: wavefunction(s)  2P renormalized

     gamma-point specific algorithms are used

     Subspace diagonalization in iterative solution of the eigenvalue problem:
     a serial algorithm will be used

     Using Slab Decomposition

     bravais-lattice index     =            0
     lattice parameter (alat)  =      11.1390  a.u.
     unit-cell volume          =     905.9191 (a.u.)^3
     number of atoms/cell      =           14
     number of atomic types    =            3
     number of electrons       =        70.00
     number of Kohn-Sham states=           42
     kinetic-energy cutoff     =      30.0000  Ry
     charge density cutoff     =     240.0000  Ry
     scf convergence threshold =      1.0E-06
     mixing beta               =       0.7000
     number of iterations used =            8  plain     mixing
     Exchange-correlation= SLA  PW   PBX  PBC
                           (   1   4   3   4   0   0   0)

     celldm(1)=  11.138989  celldm(2)=   0.000000  celldm(3)=   0.000000
     celldm(4)=   0.000000  celldm(5)=   0.000000  celldm(6)=   0.000000

     crystal axes: (cart. coord. in units of alat)
               a(1) = (   1.000000   0.000000   0.000000 )
               a(2) = (   0.547046   0.837103   0.000000 )
               a(3) = (   0.547046   0.296005   0.783021 )

     reciprocal axes: (cart. coord. in units 2 pi/alat)
               b(1) = (  1.000000 -0.653499 -0.451593 )
               b(2) = (  0.000000  1.194597 -0.451593 )
               b(3) = (  0.000000  0.000000  1.277105 )

     PseudoPot. # 1 for Li read from file:
     /home/pragov/projects/rrg-bengioy-ad/pragov/crystal_structure_design/SSSP/li_pbe_v1.4.uspp.F.UPF
     MD5 check sum: e912e257baa3777c20ea3d68f190483c
     Pseudo is Ultrasoft, Zval =  3.0
     Generated by new atomic code, or converted to UPF format
     Using radial grid of  751 points,  5 beta functions with:
                l(1) =   0
                l(2) =   0
                l(3) =   0
                l(4) =   1
                l(5) =   1
     Q(r) pseudized with 10 coefficients,  rinner =    1.150   1.150   1.150

     PseudoPot. # 2 for Nb read from file:
     /home/pragov/projects/rrg-bengioy-ad/pragov/crystal_structure_design/SSSP/Nb.pbe-spn-kjpaw_psl.0.3.0.UPF
     MD5 check sum: 411d72ad547312f8017e2943ceca08cc
     Pseudo is Projector augmented-wave + core cor, Zval = 13.0
     Generated using "atomic" code by A. Dal Corso  v.5.0.99 svn rev. 10869
     Shape of augmentation charge: PSQ
     Using radial grid of 1227 points,  6 beta functions with:
                l(1) =   0
                l(2) =   0
                l(3) =   1
                l(4) =   1
                l(5) =   2
                l(6) =   2
     Q(r) pseudized with 0 coefficients

     PseudoPot. # 3 for O  read from file:
     /home/pragov/projects/rrg-bengioy-ad/pragov/crystal_structure_design/SSSP/O.pbe-n-kjpaw_psl.0.1.UPF
     MD5 check sum: 0234752ac141de4415c5fc33072bef88
     Pseudo is Projector augmented-wave + core cor, Zval =  6.0
     Generated using "atomic" code by A. Dal Corso  v.5.0.99 svn rev. 10869
     Shape of augmentation charge: BESSEL
     Using radial grid of 1095 points,  4 beta functions with:
                l(1) =   0
                l(2) =   0
                l(3) =   1
                l(4) =   1
     Q(r) pseudized with 0 coefficients

     atomic species   valence    mass     pseudopotential
        Li             3.00     6.94000     Li( 1.00)
        Nb            13.00    92.90637     Nb( 1.00)
        O              6.00    15.99900     O ( 1.00)

     No symmetry found

                                    s                        frac. trans.

      isym =  1     identity

 cryst.   s( 1) = (     1          0          0      )
                  (     0          1          0      )
                  (     0          0          1      )

 cart.    s( 1) = (  1.0000000  0.0000000  0.0000000 )
                  (  0.0000000  1.0000000  0.0000000 )
                  (  0.0000000  0.0000000  1.0000000 )

   Cartesian axes

     site n.     atom                  positions (alat units)
         1           Li  tau(   1) = (   0.7905752   0.6278128   0.5681067  )
         2           Li  tau(   2) = (   1.1277246   0.4729460   0.7293706  )
         3           Li  tau(   3) = (   1.0128214   0.9245751   0.3831133  )
         4           Li  tau(   4) = (   1.3708470   0.7417619   0.5125858  )
         5           Li  tau(   5) = (   1.0631562   0.2496468   0.3863660  )
         6           Li  tau(   6) = (   0.9580246   0.6439745   0.0968965  )
         7           Li  tau(   7) = (   1.3280240   0.4793134   0.1844805  )
         8           Nb  tau(   8) = (   0.0004439   0.0002402   0.0001660  )
         9           O   tau(   9) = (   1.0642653   0.7969312   0.6923807  )
        10           O   tau(  10) = (   0.8499614   0.2953529   0.6227498  )
        11           O   tau(  11) = (   0.7122084   0.7769767   0.2941958  )
        12           O   tau(  12) = (   1.3602463   0.3824479   0.5006142  )
        13           O   tau(  13) = (   1.2493150   0.8085193   0.1807189  )
        14           O   tau(  14) = (   1.0400199   0.3357087   0.0560627  )

   Crystallographic axes

     site n.     atom                  positions (cryst. coord.)
         1           Li  tau(   1) = (  0.1237470  0.4934300  0.7255320  )
         2           Li  tau(   2) = (  0.4892760  0.2356010  0.9314830  )
         3           Li  tau(   3) = (  0.2356010  0.9314830  0.4892760  )
         4           Li  tau(   4) = (  0.6546260  0.6546260  0.6546260  )
         5           Li  tau(   5) = (  0.7255320  0.1237470  0.4934300  )
         6           Li  tau(   6) = (  0.4934300  0.7255320  0.1237470  )
         7           Li  tau(   7) = (  0.9314830  0.4892760  0.2356010  )
         8           Nb  tau(   8) = (  0.0002120  0.0002120  0.0002120  )
         9           O   tau(   9) = (  0.2307970  0.6393370  0.8842430  )
        10           O   tau(  10) = (  0.3757190  0.0715980  0.7953170  )
        11           O   tau(  11) = (  0.0715980  0.7953170  0.3757190  )
        12           O   tau(  12) = (  0.8842430  0.2307970  0.6393370  )
        13           O   tau(  13) = (  0.6393370  0.8842430  0.2307970  )
        14           O   tau(  14) = (  0.7953170  0.3757190  0.0715980  )

     number of k points=     1  Methfessel-Paxton smearing, width (Ry)=  0.0010
                       cart. coord. in units 2pi/alat
        k(    1) = (   0.0000000   0.0000000   0.0000000), wk =   2.0000000

                       cryst. coord.
        k(    1) = (   0.0000000   0.0000000   0.0000000), wk =   2.0000000

     Check: negative core charge=   -0.000017

     Initial potential from superposition of free atoms

     starting charge      66.8427, renormalised to      70.0000
     Starting wfcs are   69 randomized atomic wfcs
     Checking if some PAW data can be deallocated...

     Self-consistent Calculation

     iteration #  1     ecut=    30.00 Ry     beta= 0.70
     Davidson diagonalization with overlap

     ethr =  1.00E-02,  avg # of iterations =  2.0

     total energy              =    -684.74717064 Ry
     estimated scf accuracy    <       3.79111861 Ry

[...]

     total energy              =    -686.49404565 Ry
     estimated scf accuracy    <       0.00000666 Ry

     iteration # 12     ecut=    30.00 Ry     beta= 0.70
     Davidson diagonalization with overlap

     ethr =  9.51E-09,  avg # of iterations =  2.0

     End of self-consistent calculation

          k = 0.0000 0.0000 0.0000 (  1266 PWs)   bands (ev):

   -50.3348 -39.1180 -38.6243 -38.5886 -38.5883 -38.4432 -38.4426 -38.4424
   -26.4500 -26.4197 -26.4196 -12.0025 -11.6166 -11.6162 -11.1146 -11.1143
   -11.0737   0.6809   1.0899   1.0899   1.2662   1.4145   1.4147   2.0041
     2.5422   2.5423   2.7974   2.9468   3.7699   3.7699   4.0122   4.0126
     4.1506   4.1511   4.4232   8.1059   8.1989   8.1989   9.8714  12.0750
    12.0750  12.2270

     occupation numbers
     1.0000   1.0000   1.0000   1.0000   1.0000   1.0000   1.0000   1.0000
     1.0000   1.0000   1.0000   1.0000   1.0000   1.0000   1.0000   1.0000
     1.0000   1.0000   1.0000   1.0000   1.0000   1.0000   1.0000   1.0000
     1.0000   1.0000   1.0000   1.0000   1.0000   1.0000   1.0000   1.0000
     1.0000   1.0000   1.0000  -0.0000  -0.0000  -0.0000  -0.0000  -0.0000
    -0.0000  -0.0000

     the Fermi energy is     4.5089 ev

!    total energy              =    -686.49404717 Ry
     estimated scf accuracy    <       0.00000023 Ry
     smearing contrib. (-TS)   =       0.00000000 Ry
     internal energy E=F+TS    =    -686.49404717 Ry

     The total energy is F=E-TS. E is the sum of the following terms:
     one-electron contribution =    -177.16076611 Ry
     hartree contribution      =     112.47036705 Ry
     xc contribution           =     -98.13631172 Ry
     ewald contribution        =    -258.09082594 Ry
     one-center paw contrib.   =    -265.57651045 Ry
      -> PAW hartree energy AE =     243.68969397 Ry
      -> PAW hartree energy PS =    -242.66828511 Ry
      -> PAW xc energy AE      =    -338.65195350 Ry
      -> PAW xc energy PS      =      72.05403419 Ry
      -> total E_H with PAW    =     113.49177590 Ry
      -> total E_XC with PAW   =    -364.73423103 Ry

     convergence has been achieved in  12 iterations

     Forces acting on atoms (cartesian axes, Ry/au):

     atom    1 type  1   force =     0.00237214    0.00246460    0.00279444
     atom    2 type  1   force =    -0.00358107   -0.00466778   -0.00208179
     atom    3 type  1   force =    -0.00588396   -0.00207645    0.00034062
     atom    4 type  1   force =    -0.00351090   -0.00189620   -0.00129276
     atom    5 type  1   force =     0.00421821    0.00007507    0.00132119
     atom    6 type  1   force =     0.00336766    0.00281777   -0.00038722
     atom    7 type  1   force =    -0.00497819   -0.00103224   -0.00362645
     atom    8 type  2   force =     0.00091357    0.00059744    0.00035769
     atom    9 type  3   force =    -0.00124500    0.01899342    0.00582553
     atom   10 type  3   force =    -0.01293763    0.00065731    0.01265662
     atom   11 type  3   force =    -0.00654275    0.00784928   -0.01493968
     atom   12 type  3   force =     0.00948960   -0.00771365    0.01567004
     atom   13 type  3   force =     0.01530970    0.00148530   -0.01277580
     atom   14 type  3   force =     0.00300861   -0.01755388   -0.00386242
     The non-local contrib.  to forces
     atom    1 type  1   force =     0.01485938   -0.02451309    0.00704546
     atom    2 type  1   force =    -0.02179296    0.02118929    0.02072717
     atom    3 type  1   force =     0.00583385    0.00888817   -0.03519030
     atom    4 type  1   force =     0.05212836    0.02821131    0.01951115
     atom    5 type  1   force =     0.00637788    0.01357690   -0.02539591
     atom    6 type  1   force =    -0.01241533    0.01571466    0.02167033
     atom    7 type  1   force =     0.01060067   -0.03292337    0.01249201
     atom    8 type  2   force =     0.00297321    0.00160043    0.00115050
     atom    9 type  3   force =    -0.03841421    0.30164638    0.04074790
     atom   10 type  3   force =    -0.26019030    0.06017963    0.25268750
     atom   11 type  3   force =    -0.09200006    0.14764970   -0.32388162
     atom   12 type  3   force =     0.10009493   -0.11142359    0.26778858
     atom   13 type  3   force =     0.23164734   -0.03157805   -0.19893606
     atom   14 type  3   force =     0.07333086   -0.35879556   -0.03303320
     The ionic contribution  to forces
     atom    1 type  1   force =     0.51127015    0.23237066   -1.26601128
     atom    2 type  1   force =    -0.90661939    1.05510856    0.49906048
     atom    3 type  1   force =     0.38727094   -0.00564464   -1.42627537
     atom    4 type  1   force =     0.36200814    0.19588160    0.13536224
     atom    5 type  1   force =    -0.64284146    1.03085750    0.66502759
     atom    6 type  1   force =     0.47420584   -1.07783076    0.72909991
     atom    7 type  1   force =     0.20712922   -1.21840378    0.81047140
     atom    8 type  2   force =    -0.53813674   -0.29118432   -0.20122037
     atom    9 type  3   force =     0.39002157   -6.18555649   -0.84901215
     atom   10 type  3   force =     5.11785302   -0.08400400   -4.62234960
     atom   11 type  3   force =     2.72938074   -2.79255695    5.68486320
     atom   12 type  3   force =    -2.28239151    1.95745792   -5.48571704
     atom   13 type  3   force =    -4.96458816    0.51781563    3.77078372
     atom   14 type  3   force =    -0.84456237    6.66568907    1.55591729
     The local contribution  to forces
     atom    1 type  1   force =    -0.52371138   -0.20535142    1.26167198
     atom    2 type  1   force =     0.92476623   -1.08093734   -0.52191561
     atom    3 type  1   force =    -0.39901053   -0.00536913    1.46187488
     atom    4 type  1   force =    -0.41767160   -0.22596399   -0.15616063
     atom    5 type  1   force =     0.64063979   -1.04436714   -0.63823396
     atom    6 type  1   force =    -0.45850865    1.06495349   -0.75115618
     atom    7 type  1   force =    -0.22267244    1.25032542   -0.82662354
     atom    8 type  2   force =     0.53761030    0.29052401    0.20117711
     atom    9 type  3   force =    -0.35319665    5.90521661    0.81421826
     atom   10 type  3   force =    -4.87212797    0.02504585    4.38420984
     atom   11 type  3   force =    -2.64439568    2.65380178   -5.37821082
     atom   12 type  3   force =     2.19229464   -1.85465930    5.23560010
     atom   13 type  3   force =     4.75003642   -0.48513932   -3.58617880
     atom   14 type  3   force =     0.77489588   -6.32695645   -1.52692820
     The core correction contribution to forces
     atom    1 type  1   force =     0.00000000    0.00000000    0.00000000
     atom    2 type  1   force =     0.00000000    0.00000000    0.00000000
     atom    3 type  1   force =     0.00000000    0.00000000    0.00000000
     atom    4 type  1   force =     0.00000000    0.00000000    0.00000000
     atom    5 type  1   force =     0.00000000    0.00000000    0.00000000
     atom    6 type  1   force =     0.00000000    0.00000000    0.00000000
     atom    7 type  1   force =     0.00000000    0.00000000    0.00000000
     atom    8 type  2   force =    -0.00165772   -0.00089740   -0.00062279
     atom    9 type  3   force =     0.00035311   -0.00225965   -0.00020399
     atom   10 type  3   force =     0.00181445   -0.00058891   -0.00195040
     atom   11 type  3   force =     0.00049992   -0.00117272    0.00241204
     atom   12 type  3   force =    -0.00063419    0.00083763   -0.00204265
     atom   13 type  3   force =    -0.00170040    0.00035069    0.00150602
     atom   14 type  3   force =    -0.00070937    0.00263066    0.00013788
     The Hubbard contrib.    to forces
     atom    1 type  1   force =     0.00000000    0.00000000    0.00000000
     atom    2 type  1   force =     0.00000000    0.00000000    0.00000000
     atom    3 type  1   force =     0.00000000    0.00000000    0.00000000
     atom    4 type  1   force =     0.00000000    0.00000000    0.00000000
     atom    5 type  1   force =     0.00000000    0.00000000    0.00000000
     atom    6 type  1   force =     0.00000000    0.00000000    0.00000000
     atom    7 type  1   force =     0.00000000    0.00000000    0.00000000
     atom    8 type  2   force =     0.00000000    0.00000000    0.00000000
     atom    9 type  3   force =     0.00000000    0.00000000    0.00000000
     atom   10 type  3   force =     0.00000000    0.00000000    0.00000000
     atom   11 type  3   force =     0.00000000    0.00000000    0.00000000
     atom   12 type  3   force =     0.00000000    0.00000000    0.00000000
     atom   13 type  3   force =     0.00000000    0.00000000    0.00000000
     atom   14 type  3   force =     0.00000000    0.00000000    0.00000000
     The SCF correction term to forces
     atom    1 type  1   force =    -0.00005263   -0.00004073    0.00008302
     atom    2 type  1   force =     0.00005844   -0.00002747    0.00004092
     atom    3 type  1   force =     0.00001517    0.00004997   -0.00007383
     atom    4 type  1   force =     0.00001759   -0.00002430   -0.00001077
     atom    5 type  1   force =     0.00003539    0.00000863   -0.00008177
     atom    6 type  1   force =     0.00007918   -0.00001880   -0.00000653
     atom    7 type  1   force =    -0.00004226   -0.00002969    0.00002843
     atom    8 type  2   force =     0.00011790    0.00055555   -0.00013200
     atom    9 type  3   force =    -0.00001542   -0.00005261    0.00007026
     atom   10 type  3   force =    -0.00029344    0.00002556    0.00005403
     atom   11 type  3   force =    -0.00003429    0.00012829   -0.00012772
     atom   12 type  3   force =     0.00011912    0.00007451    0.00003580
     atom   13 type  3   force =    -0.00009211    0.00003717    0.00004407
     atom   14 type  3   force =     0.00004699   -0.00012078    0.00003856

     Total force =     0.048716     Total SCF correction =     0.000753

     Computing stress (Cartesian axis) and pressure

          total   stress  (Ry/bohr**3)                   (kbar)     P=     -344.26
  -0.00234184  -0.00000182  -0.00000119         -344.50       -0.27       -0.18
  -0.00000182  -0.00233968  -0.00000062           -0.27     -344.18       -0.09
  -0.00000119  -0.00000062  -0.00233909           -0.18       -0.09     -344.09

     kinetic stress (kbar)  18387.41     67.22     46.45
                               67.22  18299.51     25.16
                               46.45     25.16  18280.51

     local   stress (kbar)  -9812.66   -978.21   -675.95
                             -978.21  -8534.12   -365.78
                             -675.95   -365.78  -8257.60

     nonloc. stress (kbar)   2589.33    -11.40     -7.88
                              -11.40   2604.25     -4.27
                               -7.88     -4.27   2607.48

     hartree stress (kbar)   6524.68    452.52    312.70
                              452.52   5933.20    169.22
                              312.70    169.22   5805.30

     exc-cor stress (kbar)  -1636.13     -0.83     -0.57
                               -0.83  -1635.04     -0.31
                               -0.57     -0.31  -1634.81

     corecor stress (kbar)  -2881.56      0.02      0.01
                                0.02  -2881.58      0.01
                                0.01      0.01  -2881.59

     ewald   stress (kbar) -13515.57    470.41    325.07
                              470.41 -14130.39    175.89
                              325.07    175.89 -14263.38

     hubbard stress (kbar)      0.00      0.00      0.00
                                0.00      0.00      0.00
                                0.00      0.00      0.00

     DFT-D   stress (kbar)      0.00      0.00      0.00
                                0.00      0.00      0.00
                                0.00      0.00      0.00

     XDM     stress (kbar)      0.00      0.00      0.00
                                0.00      0.00      0.00
                                0.00      0.00      0.00

     dft-nl  stress (kbar)      0.00      0.00      0.00
                                0.00      0.00      0.00
                                0.00      0.00      0.00

     TS-vdW  stress (kbar)      0.00      0.00      0.00
                                0.00      0.00      0.00
                                0.00      0.00      0.00

[...]

                                0.00      0.00      0.00

     Writing all to output data dir new_calculations/myprefix.save/

     General routines

     Parallel routines

     PAW routines

   This run was terminated on:  14:20:57  20May2023

   JOB DONE.