     Program PWSCF v.7.0 starts on 20May2023 at 22: 8:22

     Reading input from espresso_25137.pwi
Warning: card &CELL ignored
Warning: card / ignored

     Current dimensions of program PWSCF are:
     Max number of different atomic species (ntypx) = 10
     Max number of k-points (npk) =  40000
     Max angular momentum in pseudopotentials (lmaxx) =  4

     gamma-point specific algorithms are used
     Message from routine setup:
     using ibrav=0 with symmetry is DISCOURAGED, use correct ibrav instead

     Subspace diagonalization in iterative solution of the eigenvalue problem:
     a serial algorithm will be used

     Using Slab Decomposition

     bravais-lattice index     =            0
     lattice parameter (alat)  =      10.6110  a.u.
     unit-cell volume          =     339.4810 (a.u.)^3
     number of atoms/cell      =            5
     number of atomic types    =            3
     number of electrons       =        26.00
     number of Kohn-Sham states=           17
     kinetic-energy cutoff     =      30.0000  Ry
     charge density cutoff     =     240.0000  Ry
     scf convergence threshold =      1.0E-06
     mixing beta               =       0.7000
     number of iterations used =            8  plain     mixing
     Exchange-correlation= PBE
                           (   1   4   3   4   0   0   0)

     celldm(1)=  10.610980  celldm(2)=   0.000000  celldm(3)=   0.000000
     celldm(4)=   0.000000  celldm(5)=   0.000000  celldm(6)=   0.000000

     crystal axes: (cart. coord. in units of alat)
               a(1) = (   1.000000   0.000000   0.000000 )
               a(2) = (   0.690974   0.722880   0.000000 )
               a(3) = (  -0.845487  -0.361440   0.393082 )

     reciprocal axes: (cart. coord. in units 2 pi/alat)
               b(1) = (  1.000000 -0.955862  1.272000 )
               b(2) = (  0.000000  1.383355  1.272000 )
               b(3) = (  0.000000  0.000000  2.544000 )

     PseudoPot. # 1 for Li read from file:
     /home/pragov/projects/rrg-bengioy-ad/pragov/crystal_structure_design/SSSP/li_pbe_v1.4.uspp.F.UPF
     MD5 check sum: e912e257baa3777c20ea3d68f190483c
     Pseudo is Ultrasoft, Zval =  3.0
     Generated by new atomic code, or converted to UPF format
     Using radial grid of  751 points,  5 beta functions with:
                l(1) =   0
                l(2) =   0
                l(3) =   0
                l(4) =   1
                l(5) =   1
     Q(r) pseudized with 10 coefficients,  rinner =    1.150   1.150   1.150

     PseudoPot. # 2 for H  read from file:
     /home/pragov/projects/rrg-bengioy-ad/pragov/crystal_structure_design/SSSP/H.pbe-rrkjus_psl.1.0.0.UPF
     MD5 check sum: f52b6d4d1c606e5624b1dc7b2218f220
     Pseudo is Ultrasoft, Zval =  1.0
     Generated using "atomic" code by A. Dal Corso  v.5.1
     Using radial grid of  929 points,  2 beta functions with:
                l(1) =   0
                l(2) =   0
     Q(r) pseudized with 0 coefficients

     PseudoPot. # 3 for Pd read from file:
     /home/pragov/projects/rrg-bengioy-ad/pragov/crystal_structure_design/SSSP/Pd_ONCV_PBE-1.0.oncvpsp.upf
     MD5 check sum: eb77f42b51d86fb18e25f68156a31cf1
     Pseudo is Norm-conserving, Zval = 18.0
     Generated using ONCVPSP code by D. R. Hamann
     Using radial grid of 1410 points,  6 beta functions with:
                l(1) =   0
                l(2) =   0
                l(3) =   1
                l(4) =   1
                l(5) =   2
                l(6) =   2

     atomic species   valence    mass     pseudopotential
        Li             3.00     6.94000     Li( 1.00)
        H              1.00     1.00800     H ( 1.00)
        Pd            18.00   106.42000     Pd( 1.00)

      4 Sym. Ops., with inversion, found

                                    s                        frac. trans.

      isym =  1     identity

 cryst.   s( 1) = (     1          0          0      )
                  (     0          1          0      )
                  (     0          0          1      )

 cart.    s( 1) = (  1.0000000 -0.0000000  0.0000000 )
                  (  0.0000000  1.0000000  0.0000000 )
                  (  0.0000000  0.0000000  1.0000000 )

      isym =  2     180 deg rotation - cart. axis [0,0,1]

[...]

      isym =  3     inversion

[...]

      isym =  4     inv. 180 deg rotation - cart. axis [0,0,1]

 cryst.   s( 4) = (     1          0          0      )
                  (     0          1          0      )
                  (    -1         -1         -1      )

 cart.    s( 4) = (  1.0000000 -0.0000000  0.0000000 )
                  (  0.0000000  1.0000000  0.0000000 )
                  (  0.0000000  0.0000000 -1.0000000 )

   Cartesian axes

     site n.     atom                  positions (alat units)
         1           Li  tau(   1) = (   1.0935864   0.4675010   0.0000000  )
         2           Li  tau(   2) = (   0.5973871   0.2553791   0.0000000  )
         3           H   tau(   3) = (   1.4138501   0.6044116   0.0000000  )
         4           H   tau(   4) = (   0.2771235   0.1184685   0.0000000  )
         5           Pd  tau(   5) = (   0.0000000   0.0000000   0.0000000  )

   Crystallographic axes

     site n.     atom                  positions (cryst. coord.)
         1           Li  tau(   1) = (  0.6467200  0.6467200  0.0000000  )
         2           Li  tau(   2) = (  0.3532800  0.3532800  0.0000000  )
         3           H   tau(   3) = (  0.8361160  0.8361160  0.0000000  )
         4           H   tau(   4) = (  0.1638840  0.1638840  0.0000000  )
         5           Pd  tau(   5) = (  0.0000000  0.0000000  0.0000000  )

     number of k points=     1  Methfessel-Paxton smearing, width (Ry)=  0.0010
                       cart. coord. in units 2pi/alat
        k(    1) = (   0.0000000   0.0000000   0.0000000), wk =   2.0000000

                       cryst. coord.
        k(    1) = (   0.0000000   0.0000000   0.0000000), wk =   2.0000000

     Initial potential from superposition of free atoms

     starting charge      25.0981, renormalised to      26.0000
     Starting wfcs are   22 randomized atomic wfcs

     Self-consistent Calculation

     iteration #  1     ecut=    30.00 Ry     beta= 0.70
     Davidson diagonalization with overlap

     ethr =  1.00E-02,  avg # of iterations =  3.0

     total energy              =    -282.75507428 Ry
     estimated scf accuracy    <       2.83674957 Ry

[...]

     total energy              =    -284.66367229 Ry
     estimated scf accuracy    <       0.00000214 Ry

     iteration # 11     ecut=    30.00 Ry     beta= 0.70
     Davidson diagonalization with overlap

     ethr =  8.25E-09,  avg # of iterations =  2.0

     End of self-consistent calculation

          k = 0.0000 0.0000 0.0000 (   479 PWs)   bands (ev):

   -76.9022 -43.0410 -42.3017 -42.0490 -38.9251 -38.9086  -0.7455   3.4639
     3.7226   5.2856   5.8555   6.0118   7.2465   7.6418  15.3418  16.1375
    16.1745

     occupation numbers
     1.0000   1.0000   1.0000   1.0000   1.0000   1.0000   1.0000   1.0000
     1.0000   1.0000   1.0000   1.0000   1.0000  -0.0000  -0.0000  -0.0000
    -0.0000

     the Fermi energy is     7.5591 ev

!    total energy              =    -284.66367275 Ry
     estimated scf accuracy    <       0.00000006 Ry
     smearing contrib. (-TS)   =       0.00000000 Ry
     internal energy E=F+TS    =    -284.66367275 Ry

     The total energy is F=E-TS. E is the sum of the following terms:
     one-electron contribution =    -197.00583371 Ry
     hartree contribution      =     101.60234513 Ry
     xc contribution           =     -33.17171540 Ry
     ewald contribution        =    -156.08846877 Ry

     convergence has been achieved in  11 iterations

     Forces acting on atoms (cartesian axes, Ry/au):

     atom    1 type  1   force =    -0.01703365   -0.00651282   -0.00000000
     atom    2 type  1   force =     0.01703365    0.00651282    0.00000000
     atom    3 type  2   force =     0.02031374    0.00868989    0.00000000
     atom    4 type  2   force =    -0.02031374   -0.00868989   -0.00000000
     atom    5 type  3   force =     0.00000000    0.00000000    0.00000000
     The non-local contrib.  to forces
     atom    1 type  1   force =     0.13977002    0.05962156    0.00000000
     atom    2 type  1   force =    -0.13977002   -0.05962156   -0.00000000
     atom    3 type  2   force =     0.01385194    0.00590060    0.00000000
     atom    4 type  2   force =    -0.01385194   -0.00590060   -0.00000000
     atom    5 type  3   force =     0.00000000    0.00000000    0.00000000
     The ionic contribution  to forces
     atom    1 type  1   force =     4.16145229    1.77899335    0.00000000
     atom    2 type  1   force =    -4.16145229   -1.77899335   -0.00000000
     atom    3 type  2   force =    -2.78242341   -1.18946762   -0.00000000
     atom    4 type  2   force =     2.78242341    1.18946762    0.00000000
     atom    5 type  3   force =    -0.00000000   -0.00000000   -0.00000000
     The local contribution  to forces
     atom    1 type  1   force =    -4.31831865   -1.84515037    0.00066688
     atom    2 type  1   force =     4.31836003    1.84518989   -0.00067174
     atom    3 type  2   force =     2.78897328    1.19228959    0.00018491
     atom    4 type  2   force =    -2.78888327   -1.19225878   -0.00018200
     atom    5 type  3   force =    -0.00150054   -0.00101680   -0.00008314
     The core correction contribution to forces
     atom    1 type  1   force =     0.00000000    0.00000000    0.00000000
     atom    2 type  1   force =     0.00000000    0.00000000    0.00000000
     atom    3 type  2   force =     0.00000000    0.00000000    0.00000000
     atom    4 type  2   force =     0.00000000    0.00000000    0.00000000
     atom    5 type  3   force =     0.00000000    0.00000000    0.00000000
     The Hubbard contrib.    to forces
     atom    1 type  1   force =     0.00000000    0.00000000    0.00000000
     atom    2 type  1   force =     0.00000000    0.00000000    0.00000000
     atom    3 type  2   force =     0.00000000    0.00000000    0.00000000
     atom    4 type  2   force =     0.00000000    0.00000000    0.00000000
     atom    5 type  3   force =     0.00000000    0.00000000    0.00000000
     The SCF correction term to forces
     atom    1 type  1   force =     0.00008461    0.00002300    0.00000934
     atom    2 type  1   force =    -0.00008215   -0.00006180    0.00000524
     atom    3 type  2   force =    -0.00007437   -0.00002571   -0.00000157
     atom    4 type  2   force =     0.00001174    0.00000883   -0.00000266
     atom    5 type  3   force =     0.00168889    0.00114190   -0.00008691

     Total force =     0.040515     Total SCF correction =     0.002047

     Computing stress (Cartesian axis) and pressure

          total   stress  (Ry/bohr**3)                   (kbar)     P=     -558.76
  -0.00275562   0.00090716  -0.00000000         -405.37      133.45       -0.00
   0.00090716  -0.00400587  -0.00000000          133.45     -589.28       -0.00
  -0.00000000  -0.00000000  -0.00463358           -0.00       -0.00     -681.62

     kinetic stress (kbar)  25962.00   -634.08      0.00
                             -634.08  27234.42      0.00
                                0.00      0.00  27494.95

     local   stress (kbar)   5091.70  16320.64     15.10
                            16320.64 -26109.85     20.15
                               15.10     20.15 -33073.02

     nonloc. stress (kbar)   3206.49    152.05      0.00
                              152.05   2940.42      0.00
                                0.00      0.00   2837.45

     hartree stress (kbar)   3561.81  -7849.09     -0.14
                            -7849.09  18555.06     -2.17
                               -0.14     -2.17  21909.80

     exc-cor stress (kbar)  -4550.01     -0.09      0.12
                               -0.09  -4550.43      0.14
                                0.12      0.14  -4550.28

     corecor stress (kbar)      0.00      0.00      0.00
                                0.00      0.00      0.00
                                0.00      0.00      0.00

     ewald   stress (kbar) -33677.36  -7855.98     -0.00
                            -7855.98 -18658.90     -0.00
                               -0.00     -0.00 -15300.52

     hubbard stress (kbar)      0.00      0.00      0.00
                                0.00      0.00      0.00
                                0.00      0.00      0.00

     DFT-D   stress (kbar)      0.00      0.00      0.00
                                0.00      0.00      0.00
                                0.00      0.00      0.00

     XDM     stress (kbar)      0.00      0.00      0.00
                                0.00      0.00      0.00
                                0.00      0.00      0.00

     dft-nl  stress (kbar)      0.00      0.00      0.00
                                0.00      0.00      0.00
                                0.00      0.00      0.00

     TS-vdW  stress (kbar)      0.00      0.00      0.00
                                0.00      0.00      0.00
                                0.00      0.00      0.00

[...]

                                0.00      0.00      0.00

     Writing all to output data dir new_calculations/myprefix.save/

     General routines

     Parallel routines

   This run was terminated on:  22: 8:43  20May2023

   JOB DONE.