     Program PWSCF v.7.0 starts on 20May2023 at  8:54:40

     Reading input from espresso_7201.pwi
Warning: card &CELL ignored
Warning: card / ignored

     Current dimensions of program PWSCF are:
     Max number of different atomic species (ntypx) = 10
     Max number of k-points (npk) =  40000
     Max angular momentum in pseudopotentials (lmaxx) =  4
     file K.pbe-spn-kjpaw_psl.1.0.0.UPF: wavefunction(s)  3S renormalized

     gamma-point specific algorithms are used
     Message from routine setup:
     using ibrav=0 with symmetry is DISCOURAGED, use correct ibrav instead

     Subspace diagonalization in iterative solution of the eigenvalue problem:
     a serial algorithm will be used

     Using Slab Decomposition

     bravais-lattice index     =            0
     lattice parameter (alat)  =      17.0901  a.u.
     unit-cell volume          =    3392.4038 (a.u.)^3
     number of atoms/cell      =            8
     number of atomic types    =            2
     number of electrons       =        72.00
     number of Kohn-Sham states=           43
     kinetic-energy cutoff     =      30.0000  Ry
     charge density cutoff     =     240.0000  Ry
     scf convergence threshold =      1.0E-06
     mixing beta               =       0.7000
     number of iterations used =            8  plain     mixing
     Exchange-correlation=  SLA  PW   PBX  PBC
                           (   1   4   3   4   0   0   0)

     celldm(1)=  17.090086  celldm(2)=   0.000000  celldm(3)=   0.000000
     celldm(4)=   0.000000  celldm(5)=   0.000000  celldm(6)=   0.000000

     crystal axes: (cart. coord. in units of alat)
               a(1) = (   1.000000   0.000000   0.000000 )
               a(2) = (  -0.500000   0.866025   0.000000 )
               a(3) = (   0.000000   0.000000   0.784773 )

     reciprocal axes: (cart. coord. in units 2 pi/alat)
               b(1) = (  1.000000  0.577350  0.000000 )
               b(2) = (  0.000000  1.154701  0.000000 )
               b(3) = (  0.000000  0.000000  1.274253 )

     PseudoPot. # 1 for K  read from file:
     /home/pragov/projects/rrg-bengioy-ad/pragov/crystal_structure_design/SSSP/K.pbe-spn-kjpaw_psl.1.0.0.UPF
     MD5 check sum: 7d58810084cac21f60fbe77ea2b688fd
     Pseudo is Projector augmented-wave + core cor, Zval =  9.0
     Generated using "atomic" code by A. Dal Corso  v.5.1
     Shape of augmentation charge: PSQ
     Using radial grid of 1165 points,  6 beta functions with:
                l(1) =   0
                l(2) =   0
                l(3) =   1
                l(4) =   1
                l(5) =   2
                l(6) =   2
     Q(r) pseudized with 0 coefficients

     PseudoPot. # 2 for Na read from file:
     /home/pragov/projects/rrg-bengioy-ad/pragov/crystal_structure_design/SSSP/na_pbe_v1.5.uspp.F.UPF
     MD5 check sum: 44600605ef58000f06b90626533354dc
     Pseudo is Ultrasoft, Zval =  9.0
     Generated by new atomic code, or converted to UPF format
     Using radial grid of  819 points,  5 beta functions with:
                l(1) =   0
                l(2) =   0
                l(3) =   1
                l(4) =   1
                l(5) =   2
     Q(r) pseudized with  8 coefficients,  rinner =    1.250   1.250   1.250
                                                       1.250   1.250

     atomic species   valence    mass     pseudopotential
        K              9.00    39.09830     K ( 1.00)
        Na             9.00    22.98977     Na( 1.00)

     24 Sym. Ops., with inversion, found (12 have fractional translation)

                                    s                        frac. trans.

      isym =  1     identity

 cryst.   s( 1) = (     1          0          0      )
                  (     0          1          0      )
                  (     0          0          1      )

 cart.    s( 1) = (  1.0000000  0.0000000  0.0000000 )
                  (  0.0000000  1.0000000  0.0000000 )
                  (  0.0000000  0.0000000  1.0000000 )

      isym =  2     180 deg rotation - cart. axis [0,0,1]

 cryst.   s( 2) = (    -1          0          0      )    f =( -0.0000000 )
                  (     0         -1          0      )       (  0.0000000 )
                  (     0          0          1      )       (  0.5000000 )

 cart.    s( 2) = ( -1.0000000 -0.0000000  0.0000000 )    f =( -0.0000000 )
                  (  0.0000000 -1.0000000  0.0000000 )       (  0.0000000 )
                  (  0.0000000  0.0000000  1.0000000 )       (  0.3923866 )

[...]

      isym =  4     180 deg rotation - cart. axis [1,0,0]

[...]

      isym =  5      60 deg rotation - cryst. axis [0,0,1]

[...]

 cryst.   s( 8) = (    -1         -1          0      )
                  (     1          0          0      )
                  (     0          0          1      )

 cart.    s( 8) = ( -0.5000000  0.8660254  0.0000000 )
                  ( -0.8660254 -0.5000000  0.0000000 )
                  (  0.0000000  0.0000000  1.0000000 )

[...]

 cryst.   s( 9) = (     0         -1          0      )    f =(  0.0000000 )
                  (    -1          0          0      )       (  0.0000000 )
                  (     0          0         -1      )       (  0.5000000 )

 cart.    s( 9) = (  0.5000000 -0.8660254  0.0000000 )    f =(  0.0000000 )
                  ( -0.8660254 -0.5000000  0.0000000 )       (  0.0000000 )
                  (  0.0000000  0.0000000 -1.0000000 )       (  0.3923866 )

[...]

 cryst.   s(10) = (     1          1          0      )    f =(  0.0000000 )
                  (     0         -1          0      )       (  0.0000000 )
                  (     0          0         -1      )       (  0.5000000 )

 cart.    s(10) = (  0.5000000  0.8660254  0.0000000 )    f =(  0.0000000 )
                  (  0.8660254 -0.5000000  0.0000000 )       (  0.0000000 )
                  (  0.0000000  0.0000000 -1.0000000 )       (  0.3923866 )

[...]

 cryst.   s(11) = (    -1         -1          0      )
                  (     0          1          0      )
                  (     0          0         -1      )

 cart.    s(11) = ( -0.5000000 -0.8660254  0.0000000 )
                  ( -0.8660254  0.5000000  0.0000000 )
                  (  0.0000000  0.0000000 -1.0000000 )

      isym = 12     180 deg rotation - cryst. axis [1,1,0]

[...]

      isym = 13     inversion

[...]

      isym = 14     inv. 180 deg rotation - cart. axis [0,0,1]

[...]

      isym = 16     inv. 180 deg rotation - cart. axis [1,0,0]

[...]

      isym = 17     inv.  60 deg rotation - cryst. axis [0,0,1]

[...]

 cryst.   s(22) = (    -1         -1          0      )    f =( -0.0000000 )
                  (     0          1          0      )       (  0.0000000 )
                  (     0          0          1      )       (  0.5000000 )

 cart.    s(22) = ( -0.5000000 -0.8660254  0.0000000 )    f =( -0.0000000 )
                  ( -0.8660254  0.5000000  0.0000000 )       (  0.0000000 )
                  (  0.0000000  0.0000000  1.0000000 )       (  0.3923866 )

[...]

      isym = 24     inv. 180 deg rotation - cryst. axis [1,1,0]

 cryst.   s(24) = (     0         -1          0      )
                  (    -1          0          0      )
                  (     0          0          1      )

 cart.    s(24) = (  0.5000000 -0.8660254  0.0000000 )
                  ( -0.8660254 -0.5000000  0.0000000 )
                  (  0.0000000  0.0000000  1.0000000 )

   Cartesian axes

     site n.     atom                  positions (alat units)
         1           K   tau(   1) = (   0.7424635   0.1486888   0.5885799  )
         2           K   tau(   2) = (   0.2575365   0.1486888   0.5885799  )
         3           K   tau(   3) = (   0.5000000   0.5686479   0.5885799  )
         4           K   tau(   4) = (  -0.2424635   0.7173366   0.1961933  )
         5           K   tau(   5) = (   0.2424635   0.7173366   0.1961933  )
         6           K   tau(   6) = (   0.0000000   0.2973775   0.1961933  )
         7           Na  tau(   7) = (   0.5000005   0.2886748   0.1961933  )
         8           Na  tau(   8) = (  -0.0000005   0.5773506   0.5885799  )

   Crystallographic axes

     site n.     atom                  positions (cryst. coord.)
         1           K   tau(   1) = (  0.8283090  0.1716910  0.7500000  )
         2           K   tau(   2) = (  0.3433820  0.1716910  0.7500000  )
         3           K   tau(   3) = (  0.8283090  0.6566180  0.7500000  )
         4           K   tau(   4) = (  0.1716910  0.8283090  0.2500000  )
         5           K   tau(   5) = (  0.6566180  0.8283090  0.2500000  )
         6           K   tau(   6) = (  0.1716910  0.3433820  0.2500000  )
         7           Na  tau(   7) = (  0.6666670  0.3333330  0.2500000  )
         8           Na  tau(   8) = (  0.3333330  0.6666670  0.7500000  )

     number of k points=     1  Methfessel-Paxton smearing, width (Ry)=  0.0010
                       cart. coord. in units 2pi/alat
        k(    1) = (   0.0000000   0.0000000   0.0000000), wk =   2.0000000

                       cryst. coord.
        k(    1) = (   0.0000000   0.0000000   0.0000000), wk =   2.0000000

     Check: negative core charge=   -0.000003

     Initial potential from superposition of free atoms

     starting charge      71.8744, renormalised to      72.0000
     Starting wfcs are   58 randomized atomic wfcs
     Checking if some PAW data can be deallocated...

     Self-consistent Calculation

     iteration #  1     ecut=    30.00 Ry     beta= 0.70
     Davidson diagonalization with overlap

     ethr =  1.00E-02,  avg # of iterations =  5.0

     Threshold (ethr) on eigenvalues was too large:
     Diagonalizing with lowered threshold

     Davidson diagonalization with overlap

[...]

     total energy              =    -868.42558726 Ry
     estimated scf accuracy    <       0.15638562 Ry

[...]

     ethr =  2.35E-05,  avg # of iterations =  2.0
     Minimization algorithm failed to find Fermi energy: reverting to bisection
     Possible cause: smearing is larger than the electronic band-gap.

[...]

     total energy              =    -868.50724371 Ry
     estimated scf accuracy    <       0.00000239 Ry

     iteration # 87     ecut=    30.00 Ry     beta= 0.70
     Davidson diagonalization with overlap

     ethr =  3.00E-09,  avg # of iterations =  2.0

     End of self-consistent calculation

          k = 0.0000 0.0000 0.0000 (  4671 PWs)   bands (ev):

   -50.8392 -50.8387 -30.3926 -30.3916 -30.3789 -30.3770 -30.3762 -30.3738
   -22.7548 -22.7522 -22.7514 -22.7499 -22.7436 -22.7421 -13.9376 -13.9160
   -13.9067 -13.8904 -13.8853 -13.8829 -13.8801 -13.8736 -13.8722 -13.8680
   -13.8658 -13.8641 -13.8523 -13.8280 -13.8086 -13.8060 -13.8055 -13.8039
    -0.4880   1.6096   2.0736   2.0851   2.0876   2.1138   2.1330   2.5073
     2.6113   3.5390   4.1170

     occupation numbers
     1.0000   1.0000   1.0000   1.0000   1.0000   1.0000   1.0000   1.0000
     1.0000   1.0000   1.0000   1.0000   1.0000   1.0000   1.0000   1.0000
     1.0000   1.0000   1.0000   1.0000   1.0000   1.0000   1.0000   1.0000
     1.0000   1.0000   1.0000   1.0000   1.0000   1.0000   1.0000   1.0000
     1.0000   1.0000   1.0168   0.5751   0.4156  -0.0074  -0.0000  -0.0000
    -0.0000  -0.0000  -0.0000

     the Fermi energy is     2.0863 ev

!    total energy              =    -868.50724396 Ry
     estimated scf accuracy    <       0.00000099 Ry
     smearing contrib. (-TS)   =      -0.00042751 Ry
     internal energy E=F+TS    =    -868.50681645 Ry

     The total energy is F=E-TS. E is the sum of the following terms:
     one-electron contribution =    -398.95500318 Ry
     hartree contribution      =     207.39214873 Ry
     xc contribution           =     -95.65098097 Ry
     ewald contribution        =    -248.78912165 Ry
     one-center paw contrib.   =    -332.50385937 Ry
      -> PAW hartree energy AE =     225.56495876 Ry
      -> PAW hartree energy PS =    -224.30396245 Ry
      -> PAW xc energy AE      =    -397.22582347 Ry
      -> PAW xc energy PS      =      63.46096779 Ry
      -> total E_H with PAW    =     208.65314504 Ry
      -> total E_XC with PAW   =    -429.41583665 Ry

     convergence has been achieved in  87 iterations

     Forces acting on atoms (cartesian axes, Ry/au):

     atom    1 type  1   force =    -0.00012821    0.00007402    0.00000000
     atom    2 type  1   force =     0.00012821    0.00007402    0.00000000
     atom    3 type  1   force =     0.00000000   -0.00014804    0.00000000
     atom    4 type  1   force =     0.00012821   -0.00007402   -0.00000000
     atom    5 type  1   force =    -0.00012821   -0.00007402   -0.00000000
     atom    6 type  1   force =     0.00000000    0.00014804    0.00000000
     atom    7 type  2   force =     0.00000000   -0.00000000    0.00000000
     atom    8 type  2   force =     0.00000000    0.00000000    0.00000000
     The non-local contrib.  to forces
     atom    1 type  1   force =    -0.00032001    0.00018476    0.00000000
     atom    2 type  1   force =     0.00032001    0.00018476    0.00000000
     atom    3 type  1   force =     0.00000000   -0.00036952   -0.00000000
     atom    4 type  1   force =     0.00032001   -0.00018476   -0.00000000
     atom    5 type  1   force =    -0.00032001   -0.00018476    0.00000000
     atom    6 type  1   force =    -0.00000000    0.00036952    0.00000000
     atom    7 type  2   force =     0.00000000   -0.00000000    0.00000000
     atom    8 type  2   force =     0.00000000    0.00000000    0.00000000
     The ionic contribution  to forces
     atom    1 type  1   force =     0.51216488   -0.29569854    0.00000000
     atom    2 type  1   force =    -0.51216487   -0.29568443    0.00000000
     atom    3 type  1   force =    -0.00001220    0.59139000    0.00000000
     atom    4 type  1   force =    -0.51216488    0.29569854   -0.00000000
     atom    5 type  1   force =     0.51216487    0.29568443   -0.00000000
     atom    6 type  1   force =     0.00001220   -0.59139000   -0.00000000
     atom    7 type  2   force =    -0.00001343    0.00000775   -0.00000000
     atom    8 type  2   force =     0.00001343   -0.00000775    0.00000000
     The local contribution  to forces
     atom    1 type  1   force =    -0.51708804    0.27044781   -0.00003338
     atom    2 type  1   force =     0.50939460    0.27734966   -0.00003060
     atom    3 type  1   force =     0.00675785   -0.61183803   -0.00003161
     atom    4 type  1   force =     0.50892494   -0.27808949    0.00002956
     atom    5 type  1   force =    -0.51799792   -0.26947405    0.00002974
     atom    6 type  1   force =     0.00454376    0.61167321    0.00003096
     atom    7 type  2   force =     0.00143815    0.04843972    0.00001211
     atom    8 type  2   force =     0.00179229   -0.04853549   -0.00001440
     The core correction contribution to forces
     atom    1 type  1   force =    -0.00016272   -0.00099899   -0.00000016
     atom    2 type  1   force =    -0.00016311   -0.00063471   -0.00000013
     atom    3 type  1   force =     0.00024726   -0.00065199   -0.00000011
     atom    4 type  1   force =    -0.00018631    0.00063144    0.00000009
     atom    5 type  1   force =    -0.00018762    0.00100348    0.00000009
     atom    6 type  1   force =     0.00021647    0.00064889    0.00000009
     atom    7 type  2   force =     0.00000000    0.00000000    0.00000000
     atom    8 type  2   force =     0.00000000    0.00000000    0.00000000
     The Hubbard contrib.    to forces
     atom    1 type  1   force =     0.00000000    0.00000000    0.00000000
     atom    2 type  1   force =     0.00000000    0.00000000    0.00000000
     atom    3 type  1   force =     0.00000000    0.00000000    0.00000000
     atom    4 type  1   force =     0.00000000    0.00000000    0.00000000
     atom    5 type  1   force =     0.00000000    0.00000000    0.00000000
     atom    6 type  1   force =     0.00000000    0.00000000    0.00000000
     atom    7 type  2   force =     0.00000000    0.00000000    0.00000000
     atom    8 type  2   force =     0.00000000    0.00000000    0.00000000
     The SCF correction term to forces
     atom    1 type  1   force =    -0.00011521   -0.00129219    0.00002994
     atom    2 type  1   force =    -0.00023318    0.00078183    0.00002815
     atom    3 type  1   force =    -0.00053206    0.00064071    0.00002944
     atom    4 type  1   force =    -0.00052102   -0.00015685   -0.00002813
     atom    5 type  1   force =    -0.00000796    0.00047368   -0.00002802
     atom    6 type  1   force =     0.00065093   -0.00053439   -0.00002940
     atom    7 type  2   force =    -0.00036684   -0.00037315   -0.00002975
     atom    8 type  2   force =     0.00092432    0.00047719    0.00003100

     Total force =     0.000363     Total SCF correction =     0.002374
     SCF correction compared to forces is large: reduce conv_thr to get better values

     Computing stress (Cartesian axis) and pressure

          total   stress  (Ry/bohr**3)                   (kbar)     P=       -8.33
   0.00001771  -0.00000000   0.00000000            2.60       -0.00        0.00
  -0.00000000   0.00001771  -0.00000000           -0.00        2.60       -0.00
   0.00000000  -0.00000000  -0.00020525            0.00       -0.00      -30.19

     kinetic stress (kbar)   4925.41     -0.00      0.00
                               -0.00   4925.41      0.00
                                0.00      0.00   4867.36

     local   stress (kbar)   -716.32     -0.24     -0.00
                               -0.24   -738.00     -0.00
                               -0.00     -0.00   -996.14

     nonloc. stress (kbar)  -2258.91      0.00      0.00
                                0.00  -2258.91     -0.00
                                0.00     -0.00  -2262.61

     hartree stress (kbar)   2953.27      0.17      0.00
                                0.17   2966.77      0.00
                                0.00      0.00   3073.11

     exc-cor stress (kbar)   -537.17      0.00      0.00
                                0.00   -537.13      0.00
                                0.00      0.00   -537.26

     corecor stress (kbar)   -701.99     -0.00     -0.00
                               -0.00   -702.15      0.00
                               -0.00      0.00   -701.48

     ewald   stress (kbar)  -3657.54     -0.00      0.00
                               -0.00  -3657.54     -0.00
                                0.00     -0.00  -3473.18

     hubbard stress (kbar)      0.00      0.00      0.00
                                0.00      0.00      0.00
                                0.00      0.00      0.00

     DFT-D   stress (kbar)      0.00      0.00      0.00
                                0.00      0.00      0.00
                                0.00      0.00      0.00

     XDM     stress (kbar)      0.00      0.00      0.00
                                0.00      0.00      0.00
                                0.00      0.00      0.00

     dft-nl  stress (kbar)      0.00      0.00      0.00
                                0.00      0.00      0.00
                                0.00      0.00      0.00

     TS-vdW  stress (kbar)      0.00      0.00      0.00
                                0.00      0.00      0.00
                                0.00      0.00      0.00

[...]

                                0.00      0.00      0.00

     Writing all to output data dir new_calculations/myprefix.save/

     General routines

     Parallel routines

     PAW routines

   This run was terminated on:   8:57:43  20May2023

   JOB DONE.