     Program PWSCF v.7.0 starts on 20May2023 at  8: 8:47

     Reading input from espresso_11190.pwi
Warning: card &CELL ignored
Warning: card / ignored

     Current dimensions of program PWSCF are:
     Max number of different atomic species (ntypx) = 10
     Max number of k-points (npk) =  40000
     Max angular momentum in pseudopotentials (lmaxx) =  4
     file Mg.pbe-n-kjpaw_psl.0.3.0.UPF: wavefunction(s)  3S renormalized
     file Nb.pbe-spn-kjpaw_psl.0.3.0.UPF: wavefunction(s)  4S 4P renormalized

     gamma-point specific algorithms are used
     Message from routine setup:
     using ibrav=0 with symmetry is DISCOURAGED, use correct ibrav instead

     Subspace diagonalization in iterative solution of the eigenvalue problem:
     a serial algorithm will be used

     Using Slab Decomposition

     bravais-lattice index     =            0
     lattice parameter (alat)  =      11.1831  a.u.
     unit-cell volume          =    1096.4113 (a.u.)^3
     number of atoms/cell      =           12
     number of atomic types    =            3
     number of electrons       =        64.00
     number of Kohn-Sham states=           38
     kinetic-energy cutoff     =      30.0000  Ry
     charge density cutoff     =     240.0000  Ry
     scf convergence threshold =      1.0E-06
     mixing beta               =       0.7000
     number of iterations used =            8  plain     mixing
     Exchange-correlation= PBE
                           (   1   4   3   4   0   0   0)

     celldm(1)=  11.183120  celldm(2)=   0.000000  celldm(3)=   0.000000
     celldm(4)=   0.000000  celldm(5)=   0.000000  celldm(6)=   0.000000

     crystal axes: (cart. coord. in units of alat)
               a(1) = (   1.000000   0.000000   0.000000 )
               a(2) = (  -0.484899   0.874570   0.000000 )
               a(3) = (   0.000000   0.000000   0.896375 )

     reciprocal axes: (cart. coord. in units 2 pi/alat)
               b(1) = (  1.000000  0.554443  0.000000 )
               b(2) = (  0.000000  1.143419  0.000000 )
               b(3) = (  0.000000  0.000000  1.115604 )

     PseudoPot. # 1 for Mg read from file:
     /home/pragov/projects/rrg-bengioy-ad/pragov/crystal_structure_design/SSSP/Mg.pbe-n-kjpaw_psl.0.3.0.UPF
     MD5 check sum: 24ecedc7f3e3cbe212e682f4413594e4
     Pseudo is Projector augmented-wave + core cor, Zval =  2.0
     Generated using "atomic" code by A. Dal Corso  v.5.0.99 svn rev. 10869
     Shape of augmentation charge: PSQ
     Using radial grid of 1129 points,  4 beta functions with:
                l(1) =   0
                l(2) =   0
                l(3) =   1
                l(4) =   1
     Q(r) pseudized with 0 coefficients

     PseudoPot. # 2 for Nb read from file:
     /home/pragov/projects/rrg-bengioy-ad/pragov/crystal_structure_design/SSSP/Nb.pbe-spn-kjpaw_psl.0.3.0.UPF
     MD5 check sum: 411d72ad547312f8017e2943ceca08cc
     Pseudo is Projector augmented-wave + core cor, Zval = 13.0
     Generated using "atomic" code by A. Dal Corso  v.5.0.99 svn rev. 10869
     Shape of augmentation charge: PSQ
     Using radial grid of 1227 points,  6 beta functions with:
                l(1) =   0
                l(2) =   0
                l(3) =   1
                l(4) =   1
                l(5) =   2
                l(6) =   2
     Q(r) pseudized with 0 coefficients

     PseudoPot. # 3 for N  read from file:
     /home/pragov/projects/rrg-bengioy-ad/pragov/crystal_structure_design/SSSP/N.pbe-n-radius_5.UPF
     MD5 check sum: 16739722b17309cd8fe442a2ace49922
     Pseudo is Ultrasoft + core correction, Zval =  5.0
     Generated using "atomic" code by A. Dal Corso  v.5.1
     Using radial grid of 1085 points,  4 beta functions with:
                l(1) =   0
                l(2) =   0
                l(3) =   1
                l(4) =   1
     Q(r) pseudized with 0 coefficients

     atomic species   valence    mass     pseudopotential
        Mg             2.00    24.30500     Mg( 1.00)
        Nb            13.00    92.90637     Nb( 1.00)
        N              5.00    14.00700     N ( 1.00)

      2 Sym. Ops. (no inversion) found ( 1 have fractional translation)

                                    s                        frac. trans.

      isym =  1     identity

 cryst.   s( 1) = (     1          0          0      )
                  (     0          1          0      )
                  (     0          0          1      )

 cart.    s( 1) = (  1.0000000 -0.0000000  0.0000000 )
                  (  0.0000000  1.0000000  0.0000000 )
                  (  0.0000000  0.0000000  1.0000000 )

      isym =  2     180 deg rotation - cart. axis [0,0,1]

 cryst.   s( 2) = (    -1          0          0      )    f =( -0.0000000 )
                  (     0         -1          0      )       ( -0.0000000 )
                  (     0          0          1      )       (  0.5000000 )

 cart.    s( 2) = ( -1.0000000  0.0000000  0.0000000 )    f =( -0.0000000 )
                  (  0.0000000 -1.0000000  0.0000000 )       ( -0.0000000 )
                  (  0.0000000  0.0000000  1.0000000 )       (  0.4481877 )

   Cartesian axes

     site n.     atom                  positions (alat units)
         1           Mg  tau(   1) = (   0.8322012   0.2891853   0.8807569  )
         2           Mg  tau(   2) = (  -0.1506209   0.8680440   0.8807569  )
         3           Mg  tau(   3) = (  -0.3171004   0.5853847   0.4325692  )
         4           Mg  tau(   4) = (   0.6657217   0.0065260   0.4325692  )
         5           Nb  tau(   5) = (   0.3440755   0.5841927   0.8798121  )
         6           Nb  tau(   6) = (   0.1710253   0.2903774   0.4316244  )
         7           N   tau(   7) = (  -0.1418311   0.2898588   0.3425705  )
         8           N   tau(   8) = (   0.3222756   0.0165110   0.3425705  )
         9           N   tau(   9) = (   0.6569319   0.5847113   0.7907581  )
        10           N   tau(  10) = (   0.1928252   0.8580590   0.7907581  )
        11           N   tau(  11) = (   0.3364458   0.5712385   0.3235736  )
        12           N   tau(  12) = (   0.1786550   0.3033315   0.7717612  )

   Crystallographic axes

     site n.     atom                  positions (cryst. coord.)
         1           Mg  tau(   1) = (  0.9925380  0.3306600  0.9825760  )
         2           Mg  tau(   2) = (  0.3306600  0.9925380  0.9825760  )
         3           Mg  tau(   3) = (  0.0074620  0.6693400  0.4825760  )
         4           Mg  tau(   4) = (  0.6693400  0.0074620  0.4825760  )
         5           Nb  tau(   5) = (  0.6679770  0.6679770  0.9815220  )
         6           Nb  tau(   6) = (  0.3320230  0.3320230  0.4815220  )
         7           N   tau(   7) = (  0.0188790  0.3314300  0.3821730  )
         8           N   tau(   8) = (  0.3314300  0.0188790  0.3821730  )
         9           N   tau(   9) = (  0.9811210  0.6685700  0.8821730  )
        10           N   tau(  10) = (  0.6685700  0.9811210  0.8821730  )
        11           N   tau(  11) = (  0.6531650  0.6531650  0.3609800  )
        12           N   tau(  12) = (  0.3468350  0.3468350  0.8609800  )

     number of k points=     1  Methfessel-Paxton smearing, width (Ry)=  0.0010
                       cart. coord. in units 2pi/alat
        k(    1) = (   0.0000000   0.0000000   0.0000000), wk =   2.0000000

                       cryst. coord.
        k(    1) = (   0.0000000   0.0000000   0.0000000), wk =   2.0000000

     Check: negative core charge=   -0.000007

     Initial potential from superposition of free atoms

     starting charge      63.9920, renormalised to      64.0000
     Starting wfcs are   60 randomized atomic wfcs
     Checking if some PAW data can be deallocated...

     Self-consistent Calculation

     iteration #  1     ecut=    30.00 Ry     beta= 0.70
     Davidson diagonalization with overlap

     ethr =  1.00E-02,  avg # of iterations =  2.0

     total energy              =    -921.37189199 Ry
     estimated scf accuracy    <       6.56416895 Ry

[...]

     total energy              =    -924.92931381 Ry
     estimated scf accuracy    <       0.00000864 Ry

     iteration # 11     ecut=    30.00 Ry     beta= 0.70
     Davidson diagonalization with overlap

     ethr =  1.35E-08,  avg # of iterations =  2.0

     End of self-consistent calculation

          k = 0.0000 0.0000 0.0000 (  1507 PWs)   bands (ev):

   -47.4524 -47.4316 -23.8333 -23.6838 -23.6361 -23.6275 -23.6028 -23.5810
    -6.6331  -5.7508  -5.4836  -5.3638  -5.2512  -5.2475   3.2420   3.4005
     3.6317   3.6503   3.8353   4.1008   4.1240   4.4421   4.5219   4.6867
     4.9041   5.1103   5.1362   5.1651   5.2714   5.5879   5.6335   5.6369
     9.2917   9.8837  10.0281  10.2212  10.3705  11.1165

     occupation numbers
     1.0000   1.0000   1.0000   1.0000   1.0000   1.0000   1.0000   1.0000
     1.0000   1.0000   1.0000   1.0000   1.0000   1.0000   1.0000   1.0000
     1.0000   1.0000   1.0000   1.0000   1.0000   1.0000   1.0000   1.0000
     1.0000   1.0000   1.0000   1.0000   1.0000   1.0000   1.0000   1.0000
    -0.0000  -0.0000  -0.0000  -0.0000  -0.0000  -0.0000

     the Fermi energy is     7.5750 ev

!    total energy              =    -924.92931519 Ry
     estimated scf accuracy    <       0.00000051 Ry
     smearing contrib. (-TS)   =       0.00000000 Ry
     internal energy E=F+TS    =    -924.92931519 Ry

     The total energy is F=E-TS. E is the sum of the following terms:
     one-electron contribution =    -163.14109417 Ry
     hartree contribution      =     112.08315080 Ry
     xc contribution           =     -97.19751933 Ry
     ewald contribution        =    -234.46953353 Ry
     one-center paw contrib.   =    -542.20431896 Ry
      -> PAW hartree energy AE =     141.14304691 Ry
      -> PAW hartree energy PS =    -140.39593192 Ry
      -> PAW xc energy AE      =    -602.78633025 Ry
      -> PAW xc energy PS      =      59.83489630 Ry
      -> total E_H with PAW    =     112.83026578 Ry
      -> total E_XC with PAW   =    -640.14895327 Ry

     convergence has been achieved in  11 iterations

     Forces acting on atoms (cartesian axes, Ry/au):

     atom    1 type  1   force =    -0.00099828   -0.00116416   -0.00077584
     atom    2 type  1   force =    -0.00052856   -0.00143379   -0.00077147
     atom    3 type  1   force =     0.00099828    0.00116416   -0.00077584
     atom    4 type  1   force =     0.00052856    0.00143379   -0.00077147
     atom    5 type  2   force =     0.00541361    0.00923374    0.00521721
     atom    6 type  2   force =    -0.00541361   -0.00923374    0.00521721
     atom    7 type  3   force =     0.03862740   -0.00158939   -0.00120678
     atom    8 type  3   force =    -0.02011762    0.03301176   -0.00120355
     atom    9 type  3   force =    -0.03862740    0.00158939   -0.00120678
     atom   10 type  3   force =     0.02011762   -0.03301176   -0.00120355
     atom   11 type  3   force =    -0.01822399   -0.03093558   -0.00125957
     atom   12 type  3   force =     0.01822399    0.03093558   -0.00125957
     The non-local contrib.  to forces
     atom    1 type  1   force =     0.00345673   -0.00235052   -0.01420995
     atom    2 type  1   force =    -0.00372213    0.00188941   -0.01420314
     atom    3 type  1   force =    -0.00345673    0.00235052   -0.01420995
     atom    4 type  1   force =     0.00372213   -0.00188941   -0.01420314
     atom    5 type  2   force =     0.07346036    0.12477549   -0.04110714
     atom    6 type  2   force =    -0.07346036   -0.12477549   -0.04110714
     atom    7 type  3   force =     0.13797387    0.03355567   -0.06403386
     atom    8 type  3   force =    -0.03755847    0.13699632   -0.06401263
     atom    9 type  3   force =    -0.13797387   -0.03355567   -0.06403386
     atom   10 type  3   force =     0.03755847   -0.13699632   -0.06401263
     atom   11 type  3   force =    -0.01080434   -0.01832686   -0.12678668
     atom   12 type  3   force =     0.01080434    0.01832686   -0.12678668
     The ionic contribution  to forces
     atom    1 type  1   force =    -0.53337836    0.00158861   -0.06105612
     atom    2 type  1   force =     0.26002409   -0.46570642   -0.06105612
     atom    3 type  1   force =     0.53337836   -0.00158861   -0.06105612
     atom    4 type  1   force =    -0.26002409    0.46570642   -0.06105612
     atom    5 type  2   force =     1.45806850    2.47559901    0.01834165
     atom    6 type  2   force =    -1.45806850   -2.47559901    0.01834165
     atom    7 type  3   force =    -6.96789013   -0.00585647   -1.57639200
     atom    8 type  3   force =     3.37360242   -6.09674780   -1.57639200
     atom    9 type  3   force =     6.96789013    0.00585647   -1.57639200
     atom   10 type  3   force =    -3.37360242    6.09674780   -1.57639200
     atom   11 type  3   force =     2.77021618    4.70344459    3.25655459
     atom   12 type  3   force =    -2.77021618   -4.70344459    3.25655459
     The local contribution  to forces
     atom    1 type  1   force =     0.52933215   -0.00063625    0.07221080
     atom    2 type  1   force =    -0.25724484    0.46260951    0.07223260
     atom    3 type  1   force =    -0.52936526    0.00069100    0.07214423
     atom    4 type  1   force =     0.25722961   -0.46267917    0.07213784
     atom    5 type  2   force =    -1.51833145   -2.57818481    0.02619598
     atom    6 type  2   force =     1.51905650    2.57811006    0.02543821
     atom    7 type  3   force =     6.86834735   -0.02917032    1.63807159
     atom    8 type  3   force =    -3.35586593    5.99251947    1.63807848
     atom    9 type  3   force =    -6.86859847    0.02920628    1.63834944
     atom   10 type  3   force =     3.35613277   -5.99299399    1.63830895
     atom   11 type  3   force =    -2.77701753   -4.71500267   -3.13170617
     atom   12 type  3   force =     2.77730057    4.71540270   -3.13129896
     The core correction contribution to forces
     atom    1 type  1   force =    -0.00043511    0.00021934    0.00229724
     atom    2 type  1   force =     0.00040432   -0.00027469    0.00229524
     atom    3 type  1   force =     0.00043704   -0.00022102    0.00229420
     atom    4 type  1   force =    -0.00040214    0.00027550    0.00229494
     atom    5 type  2   force =    -0.00714329   -0.01213107    0.00213983
     atom    6 type  2   force =     0.00715233    0.01213113    0.00213249
     atom    7 type  3   force =    -0.00010200   -0.00030105    0.00094786
     atom    8 type  3   force =    -0.00021290   -0.00023651    0.00094778
     atom    9 type  3   force =     0.00010384    0.00030080    0.00094800
     atom   10 type  3   force =     0.00021360    0.00023663    0.00094749
     atom   11 type  3   force =    -0.00027034   -0.00045954    0.00057562
     atom   12 type  3   force =     0.00027038    0.00045885    0.00057373
     The Hubbard contrib.    to forces
     atom    1 type  1   force =     0.00000000    0.00000000    0.00000000
     atom    2 type  1   force =     0.00000000    0.00000000    0.00000000
     atom    3 type  1   force =     0.00000000    0.00000000    0.00000000
     atom    4 type  1   force =     0.00000000    0.00000000    0.00000000
     atom    5 type  2   force =     0.00000000    0.00000000    0.00000000
     atom    6 type  2   force =     0.00000000    0.00000000    0.00000000
     atom    7 type  3   force =     0.00000000    0.00000000    0.00000000
     atom    8 type  3   force =     0.00000000    0.00000000    0.00000000
     atom    9 type  3   force =     0.00000000    0.00000000    0.00000000
     atom   10 type  3   force =     0.00000000    0.00000000    0.00000000
     atom   11 type  3   force =     0.00000000    0.00000000    0.00000000
     atom   12 type  3   force =     0.00000000    0.00000000    0.00000000
     The SCF correction term to forces
     atom    1 type  1   force =     0.00003534    0.00000999   -0.00001275
     atom    2 type  1   force =     0.00001704    0.00005312   -0.00004079
     atom    3 type  1   force =     0.00001392   -0.00007239    0.00002164
     atom    4 type  1   force =     0.00001008    0.00002517    0.00003064
     atom    5 type  2   force =    -0.00065326   -0.00084333   -0.00034280
     atom    6 type  2   force =    -0.00010634    0.00088111    0.00037660
     atom    7 type  3   force =     0.00037396    0.00015119    0.00018786
     atom    8 type  3   force =    -0.00003259    0.00049533    0.00017810
     atom    9 type  3   force =     0.00002664   -0.00025009   -0.00009171
     atom   10 type  3   force =    -0.00013465    0.00000917   -0.00008374
     atom   11 type  3   force =    -0.00034934   -0.00060885    0.00016940
     atom   12 type  3   force =     0.00006350    0.00017401   -0.00039369

     Total force =     0.094132     Total SCF correction =     0.001866

     Computing stress (Cartesian axis) and pressure

          total   stress  (Ry/bohr**3)                   (kbar)     P=      -81.01
  -0.00078369   0.00003409   0.00000000         -115.29        5.01        0.00
   0.00003409  -0.00074609   0.00000000            5.01     -109.75        0.00
   0.00000000   0.00000000  -0.00012240            0.00        0.00      -18.01

     kinetic stress (kbar)  14131.32    -38.76      0.00
                              -38.76  14088.34      0.00
                                0.00      0.00  14093.82

     local   stress (kbar)  -7733.34  -2283.72      0.01
                            -2283.72 -10265.86     -0.03
                                0.01     -0.03 -14964.66

     nonloc. stress (kbar)   5417.67     15.81      0.00
                               15.81   5435.19      0.00
                                0.00      0.00   5471.14

     hartree stress (kbar)   3462.84   1088.47     -0.03
                             1088.47   4669.95      0.02
                               -0.03      0.02   6905.36

     exc-cor stress (kbar)   1618.20     -1.04      0.00
                               -1.04   1617.05      0.00
                                0.00      0.00   1612.75

     corecor stress (kbar)  -4781.73     -0.55     -0.00
                               -0.55  -4782.34      0.00
                               -0.00      0.00  -4780.04

     ewald   stress (kbar) -12230.24   1224.80     -0.00
                             1224.80 -10872.08      0.00
                               -0.00      0.00  -8356.37

     hubbard stress (kbar)      0.00      0.00      0.00
                                0.00      0.00      0.00
                                0.00      0.00      0.00

     DFT-D   stress (kbar)      0.00      0.00      0.00
                                0.00      0.00      0.00
                                0.00      0.00      0.00

     XDM     stress (kbar)      0.00      0.00      0.00
                                0.00      0.00      0.00
                                0.00      0.00      0.00

     dft-nl  stress (kbar)      0.00      0.00      0.00
                                0.00      0.00      0.00
                                0.00      0.00      0.00

     TS-vdW  stress (kbar)      0.00      0.00      0.00
                                0.00      0.00      0.00
                                0.00      0.00      0.00

[...]

                                0.00      0.00      0.00

     Writing all to output data dir new_calculations/myprefix.save/

     General routines

     Parallel routines

     PAW routines

   This run was terminated on:   8: 9: 8  20May2023

   JOB DONE.