     Program PWSCF v.7.0 starts on 21May2023 at  7:42: 8

     Reading input from espresso_17952.pwi
Warning: card &CELL ignored
Warning: card / ignored

     Current dimensions of program PWSCF are:
     Max number of different atomic species (ntypx) = 10
     Max number of k-points (npk) =  40000
     Max angular momentum in pseudopotentials (lmaxx) =  4
     file K.pbe-spn-kjpaw_psl.1.0.0.UPF: wavefunction(s)  3S renormalized

     gamma-point specific algorithms are used
     Message from routine setup:
     using ibrav=0 with symmetry is DISCOURAGED, use correct ibrav instead

     Subspace diagonalization in iterative solution of the eigenvalue problem:
     a serial algorithm will be used

     Using Slab Decomposition

     bravais-lattice index     =            0
     lattice parameter (alat)  =      14.4627  a.u.
     unit-cell volume          =    2065.6174 (a.u.)^3
     number of atoms/cell      =           10
     number of atomic types    =            3
     number of electrons       =        80.00
     number of Kohn-Sham states=           48
     kinetic-energy cutoff     =      30.0000  Ry
     charge density cutoff     =     240.0000  Ry
     scf convergence threshold =      1.0E-06
     mixing beta               =       0.7000
     number of iterations used =            8  plain     mixing
     Exchange-correlation=  SLA  PW   PBX  PBC
                           (   1   4   3   4   0   0   0)

     celldm(1)=  14.462734  celldm(2)=   0.000000  celldm(3)=   0.000000
     celldm(4)=   0.000000  celldm(5)=   0.000000  celldm(6)=   0.000000

     crystal axes: (cart. coord. in units of alat)
               a(1) = (   1.000000   0.000000   0.000000 )
               a(2) = (  -0.662722   0.748866   0.000000 )
               a(3) = (  -0.168639  -0.374433   0.911790 )

     reciprocal axes: (cart. coord. in units 2 pi/alat)
               b(1) = (  1.000000  0.884968  0.548372 )
               b(2) = (  0.000000  1.335353  0.548372 )
               b(3) = (  0.000000  0.000000  1.096744 )

     PseudoPot. # 1 for K  read from file:
     /home/pragov/projects/rrg-bengioy-ad/pragov/crystal_structure_design/SSSP/K.pbe-spn-kjpaw_psl.1.0.0.UPF
     MD5 check sum: 7d58810084cac21f60fbe77ea2b688fd
     Pseudo is Projector augmented-wave + core cor, Zval =  9.0
     Generated using "atomic" code by A. Dal Corso  v.5.1
     Shape of augmentation charge: PSQ
     Using radial grid of 1165 points,  6 beta functions with:
                l(1) =   0
                l(2) =   0
                l(3) =   1
                l(4) =   1
                l(5) =   2
                l(6) =   2
     Q(r) pseudized with 0 coefficients

     PseudoPot. # 2 for Na read from file:
     /home/pragov/projects/rrg-bengioy-ad/pragov/crystal_structure_design/SSSP/na_pbe_v1.5.uspp.F.UPF
     MD5 check sum: 44600605ef58000f06b90626533354dc
     Pseudo is Ultrasoft, Zval =  9.0
     Generated by new atomic code, or converted to UPF format
     Using radial grid of  819 points,  5 beta functions with:
                l(1) =   0
                l(2) =   0
                l(3) =   1
                l(4) =   1
                l(5) =   2
     Q(r) pseudized with  8 coefficients,  rinner =    1.250   1.250   1.250
                                                       1.250   1.250

     PseudoPot. # 3 for Cl read from file:
     /home/pragov/projects/rrg-bengioy-ad/pragov/crystal_structure_design/SSSP/cl_pbe_v1.4.uspp.F.UPF
     MD5 check sum: fc6f6913ecf08c9257cb748ef0700058
     Pseudo is Ultrasoft + core correction, Zval =  7.0
     Generated by new atomic code, or converted to UPF format
     Using radial grid of  909 points,  6 beta functions with:
                l(1) =   0
                l(2) =   0
                l(3) =   1
                l(4) =   1
                l(5) =   2
                l(6) =   2
     Q(r) pseudized with  8 coefficients,  rinner =    1.300   1.300   1.300
                                                       1.300   1.300

     atomic species   valence    mass     pseudopotential
        K              9.00    39.09830     K ( 1.00)
        Na             9.00    22.98977     Na( 1.00)
        Cl             7.00    35.45000     Cl( 1.00)

      2 Sym. Ops., with inversion, found

                                    s                        frac. trans.

      isym =  1     identity

 cryst.   s( 1) = (     1          0          0      )
                  (     0          1          0      )
                  (     0          0          1      )

 cart.    s( 1) = (  1.0000000  0.0000000  0.0000000 )
                  (  0.0000000  1.0000000 -0.0000000 )
                  (  0.0000000  0.0000000  1.0000000 )

      isym =  2     inversion

 cryst.   s( 2) = (    -1          0          0      )
                  (     0         -1          0      )
                  (     0          0         -1      )

 cart.    s( 2) = ( -1.0000000 -0.0000000 -0.0000000 )
                  (  0.0000000 -1.0000000  0.0000000 )
                  (  0.0000000  0.0000000 -1.0000000 )

   Cartesian axes

     site n.     atom                  positions (alat units)
         1           K   tau(   1) = (   0.3306572  -0.1489231   0.7295469  )
         2           K   tau(   2) = (  -0.1661674   0.0748394   0.5491438  )
         3           K   tau(   3) = (   0.3348065   0.2995934   0.3626462  )
         4           K   tau(   4) = (  -0.1620182   0.5233559   0.1822431  )
         5           Na  tau(   5) = (   0.0000000   0.0000000   0.0000000  )
         6           Cl  tau(   6) = (   0.0092206   0.4462325   0.5658259  )
         7           Cl  tau(   7) = (   0.1594185  -0.0717997   0.3459641  )
         8           Cl  tau(   8) = (   0.6845534   0.1420725   0.1748412  )
         9           Cl  tau(   9) = (   0.1686390   0.3744328   0.0000000  )
        10           Cl  tau(  10) = (  -0.5159144   0.2323602   0.7369488  )

   Crystallographic axes

     site n.     atom                  positions (cryst. coord.)
         1           K   tau(   1) = (  0.5989280  0.2011980  0.8001260  )
         2           K   tau(   2) = (  0.2011980  0.4010720  0.6022700  )
         3           K   tau(   3) = (  0.7988020  0.5989280  0.3977300  )
         4           K   tau(   4) = (  0.4010720  0.7988020  0.1998740  )
         5           Na  tau(   5) = (  0.0000000  0.0000000  0.0000000  )
         6           Cl  tau(   6) = (  0.7144050  0.9061610  0.6205660  )
         7           Cl  tau(   7) = (  0.2855950  0.0938390  0.3794340  )
         8           Cl  tau(   8) = (  0.9061610  0.2855950  0.1917560  )
         9           Cl  tau(   9) = (  0.5000000  0.5000000  0.0000000  )
        10           Cl  tau(  10) = (  0.0938390  0.7144050  0.8082440  )

     number of k points=     1  Methfessel-Paxton smearing, width (Ry)=  0.0010
                       cart. coord. in units 2pi/alat
        k(    1) = (   0.0000000   0.0000000   0.0000000), wk =   2.0000000

                       cryst. coord.
        k(    1) = (   0.0000000   0.0000000   0.0000000), wk =   2.0000000

     Check: negative core charge=   -0.000003

     Initial potential from superposition of free atoms

     starting charge      79.9183, renormalised to      80.0000

     negative rho (up, down):  7.464E-02 0.000E+00
     Starting wfcs are   57 randomized atomic wfcs
     Checking if some PAW data can be deallocated...

     Self-consistent Calculation

     iteration #  1     ecut=    30.00 Ry     beta= 0.70
     Davidson diagonalization with overlap

     ethr =  1.00E-02,  avg # of iterations =  5.0

     negative rho (up, down):  6.264E-02 0.000E+00

     total energy              =    -720.78125539 Ry
     estimated scf accuracy    <       1.13275873 Ry

[...]

     total energy              =    -721.20789220 Ry
     estimated scf accuracy    <       0.00000306 Ry

     iteration #  7     ecut=    30.00 Ry     beta= 0.70
     Davidson diagonalization with overlap

     ethr =  3.82E-09,  avg # of iterations =  4.0

[...]

     End of self-consistent calculation

          k = 0.0000 0.0000 0.0000 (  2860 PWs)   bands (ev):

   -55.1481 -37.7876 -33.4777 -28.7821 -28.0023 -27.6486 -26.8297 -26.4769
   -12.4534 -12.0355 -11.6520 -11.2191 -11.0888 -10.0583 -10.0289 -10.0021
    -9.8975  -9.8390  -9.7754  -9.7031  -9.6514  -9.6166  -9.3748  -9.3138
    -9.2566  -0.4769  -0.4630  -0.2612  -0.1615  -0.0210   0.2227   0.2595
     0.2868   0.4329   0.5456   0.5594   0.6034   0.9237   0.9444   1.0318
     5.1968   7.9607   8.2017   8.3473   8.4609   8.5926   8.6129   8.6372

     occupation numbers
     1.0000   1.0000   1.0000   1.0000   1.0000   1.0000   1.0000   1.0000
     1.0000   1.0000   1.0000   1.0000   1.0000   1.0000   1.0000   1.0000
     1.0000   1.0000   1.0000   1.0000   1.0000   1.0000   1.0000   1.0000
     1.0000   1.0000   1.0000   1.0000   1.0000   1.0000   1.0000   1.0000
     1.0000   1.0000   1.0000   1.0000   1.0000   1.0000   1.0000   1.0000
    -0.0000  -0.0000  -0.0000  -0.0000  -0.0000  -0.0000  -0.0000  -0.0000

     the Fermi energy is     4.7697 ev

!    total energy              =    -721.20789308 Ry
     estimated scf accuracy    <       0.00000018 Ry
     smearing contrib. (-TS)   =       0.00000000 Ry
     internal energy E=F+TS    =    -721.20789308 Ry

     The total energy is F=E-TS. E is the sum of the following terms:
     one-electron contribution =    -211.07203621 Ry
     hartree contribution      =     128.57219283 Ry
     xc contribution           =    -107.54969521 Ry
     ewald contribution        =    -309.68595285 Ry
     one-center paw contrib.   =    -221.47240164 Ry
      -> PAW hartree energy AE =     138.83731687 Ry
      -> PAW hartree energy PS =    -138.06874631 Ry
      -> PAW xc energy AE      =    -262.78382935 Ry
      -> PAW xc energy PS      =      40.54285715 Ry
      -> total E_H with PAW    =     129.34076340 Ry
      -> total E_XC with PAW   =    -329.79066742 Ry

     convergence has been achieved in   7 iterations

     negative rho (up, down):  5.085E-02 0.000E+00

     Forces acting on atoms (cartesian axes, Ry/au):

     atom    1 type  1   force =     0.04382233    0.02940597    0.00556246
     atom    2 type  1   force =     0.04141744    0.06263923   -0.18148312
     atom    3 type  1   force =    -0.04141744   -0.06263923    0.18148312
     atom    4 type  1   force =    -0.04382233   -0.02940597   -0.00556246
     atom    5 type  2   force =     0.00000000    0.00000000    0.00000000
     atom    6 type  3   force =     0.06124966    0.06810580   -0.17348811
     atom    7 type  3   force =    -0.06124966   -0.06810580    0.17348811
     atom    8 type  3   force =     0.02893623   -0.12987561   -0.08834900
     atom    9 type  3   force =     0.00000000    0.00000000    0.00000000
     atom   10 type  3   force =    -0.02893623    0.12987561    0.08834900
     The non-local contrib.  to forces
     atom    1 type  1   force =     0.05309234    0.01656486   -0.03344530
     atom    2 type  1   force =    -0.00452635    0.05901748   -0.06928073
     atom    3 type  1   force =     0.00452635   -0.05901748    0.06928073
     atom    4 type  1   force =    -0.05309234   -0.01656486    0.03344530
     atom    5 type  2   force =     0.00000000    0.00000000    0.00000000
     atom    6 type  3   force =     0.02263072    0.01243714    0.02800582
     atom    7 type  3   force =    -0.02263072   -0.01243714   -0.02800582
     atom    8 type  3   force =    -0.04453632   -0.00863703    0.04123864
     atom    9 type  3   force =     0.00000000    0.00000000    0.00000000
     atom   10 type  3   force =     0.04453632    0.00863703   -0.04123864
     The ionic contribution  to forces
     atom    1 type  1   force =     0.06204144   -0.02794255   -0.54848292
     atom    2 type  1   force =    -0.50010124    0.22523825   -0.06804356
     atom    3 type  1   force =     0.50010124   -0.22523825    0.06804356
     atom    4 type  1   force =    -0.06204144    0.02794255    0.54848292
     atom    5 type  2   force =     0.00000000    0.00000000   -0.00000000
     atom    6 type  3   force =    -0.42462558    0.19124512   -0.65564619
     atom    7 type  3   force =     0.42462558   -0.19124512    0.65564619
     atom    8 type  3   force =    -0.59781163    0.26924557    0.46570547
     atom    9 type  3   force =     0.00000000   -0.00000000   -0.00000000
     atom   10 type  3   force =     0.59781163   -0.26924557   -0.46570547
     The local contribution  to forces
     atom    1 type  1   force =    -0.07096222    0.03776153    0.58406866
     atom    2 type  1   force =     0.54311084   -0.22621064   -0.02503946
     atom    3 type  1   force =    -0.54312360    0.22621997    0.02507133
     atom    4 type  1   force =     0.07095181   -0.03775768   -0.58404643
     atom    5 type  2   force =    -0.00000040    0.00000659   -0.00000332
     atom    6 type  3   force =     0.45571492   -0.14727695    0.47774756
     atom    7 type  3   force =    -0.45571331    0.14725690   -0.47770907
     atom    8 type  3   force =     0.66423575   -0.37171000   -0.58128882
     atom    9 type  3   force =    -0.00002127   -0.00000541   -0.00001506
     atom   10 type  3   force =    -0.66426658    0.37171470    0.58126634
     The core correction contribution to forces
     atom    1 type  1   force =    -0.00006880    0.00296999    0.00380151
     atom    2 type  1   force =     0.00283909    0.00462800   -0.01853716
     atom    3 type  1   force =    -0.00283947   -0.00462780    0.01853775
     atom    4 type  1   force =     0.00006865   -0.00296982   -0.00380094
     atom    5 type  2   force =     0.00000000    0.00000000    0.00000000
     atom    6 type  3   force =     0.00732108    0.01173596   -0.02343685
     atom    7 type  3   force =    -0.00732087   -0.01173595    0.02343713
     atom    8 type  3   force =     0.00671323   -0.01858486   -0.01442831
     atom    9 type  3   force =    -0.00000265    0.00000073   -0.00000063
     atom   10 type  3   force =    -0.00671436    0.01858374    0.01442790
     The Hubbard contrib.    to forces
     atom    1 type  1   force =     0.00000000    0.00000000    0.00000000
     atom    2 type  1   force =     0.00000000    0.00000000    0.00000000
     atom    3 type  1   force =     0.00000000    0.00000000    0.00000000
     atom    4 type  1   force =     0.00000000    0.00000000    0.00000000
     atom    5 type  2   force =     0.00000000    0.00000000    0.00000000
     atom    6 type  3   force =     0.00000000    0.00000000    0.00000000
     atom    7 type  3   force =     0.00000000    0.00000000    0.00000000
     atom    8 type  3   force =     0.00000000    0.00000000    0.00000000
     atom    9 type  3   force =     0.00000000    0.00000000    0.00000000
     atom   10 type  3   force =     0.00000000    0.00000000    0.00000000
     The SCF correction term to forces
     atom    1 type  1   force =    -0.00028721    0.00005176   -0.00038225
     atom    2 type  1   force =     0.00009836   -0.00002886   -0.00057830
     atom    3 type  1   force =    -0.00007868    0.00002932    0.00055365
     atom    4 type  1   force =     0.00028420   -0.00005655    0.00035393
     atom    5 type  2   force =     0.00001628   -0.00001072    0.00000682
     atom    6 type  3   force =     0.00020722   -0.00003683   -0.00015333
     atom    7 type  3   force =    -0.00021163    0.00005417    0.00012480
     atom    8 type  3   force =     0.00032714   -0.00018776    0.00041809
     atom    9 type  3   force =     0.00001446    0.00000153    0.00001070
     atom   10 type  3   force =    -0.00031131    0.00018723   -0.00040705

     Total force =     0.459107     Total SCF correction =     0.001359

     Computing stress (Cartesian axis) and pressure

     negative rho (up, down):  5.085E-02 0.000E+00
          total   stress  (Ry/bohr**3)                   (kbar)     P=      199.27
   0.00212133  -0.00114472  -0.00062965          312.06     -168.39      -92.62
  -0.00114472   0.00118035   0.00020473         -168.39      173.64       30.12
  -0.00062965   0.00020473   0.00076219          -92.62       30.12      112.12

     kinetic stress (kbar)   8130.25    -65.76    -74.37
                              -65.76   8154.93     23.38
                              -74.37     23.38   8060.12

     local   stress (kbar)  -2489.16     60.97     -4.83
                               60.97  -2367.99      1.78
                               -4.83      1.78  -2646.90

     nonloc. stress (kbar)   1005.23    -51.51    -36.17
                              -51.51    951.63     11.67
                              -36.17     11.67    984.34

     hartree stress (kbar)   3079.32    -40.82     20.92
                              -40.82   2979.45     -5.26
                               20.92     -5.26   3097.64

     exc-cor stress (kbar)     39.10      0.04      0.51
                                0.04     37.68     -0.20
                                0.51     -0.20     38.72

     corecor stress (kbar)  -2132.42     -0.23      1.33
                               -0.23  -2135.97     -1.25
                                1.33     -1.25  -2133.54

     ewald   stress (kbar)  -7320.27    -71.08      0.00
                              -71.08  -7446.08     -0.00
                                0.00     -0.00  -7288.25

     hubbard stress (kbar)      0.00      0.00      0.00
                                0.00      0.00      0.00
                                0.00      0.00      0.00

     DFT-D   stress (kbar)      0.00      0.00      0.00
                                0.00      0.00      0.00
                                0.00      0.00      0.00

     XDM     stress (kbar)      0.00      0.00      0.00
                                0.00      0.00      0.00
                                0.00      0.00      0.00

     dft-nl  stress (kbar)      0.00      0.00      0.00
                                0.00      0.00      0.00
                                0.00      0.00      0.00

     TS-vdW  stress (kbar)      0.00      0.00      0.00
                                0.00      0.00      0.00
                                0.00      0.00      0.00

[...]

                                0.00      0.00      0.00

     Writing all to output data dir new_calculations/myprefix.save/

     General routines

     Parallel routines

     PAW routines

   This run was terminated on:   7:42:29  21May2023

   JOB DONE.