     Program PWSCF v.7.0 starts on 20May2023 at  6:48:45

     Reading input from espresso_7117.pwi
Warning: card &CELL ignored
Warning: card / ignored

     Current dimensions of program PWSCF are:
     Max number of different atomic species (ntypx) = 10
     Max number of k-points (npk) =  40000
     Max angular momentum in pseudopotentials (lmaxx) =  4
     file Al.pbe-n-kjpaw_psl.1.0.0.UPF: wavefunction(s)  3S 3P renormalized
     file In.pbe-dn-rrkjus_psl.0.2.2.UPF: wavefunction(s)  5S renormalized

     gamma-point specific algorithms are used
     Message from routine setup:
     using ibrav=0 with symmetry is DISCOURAGED, use correct ibrav instead

     Subspace diagonalization in iterative solution of the eigenvalue problem:
     a serial algorithm will be used

     Using Slab Decomposition

     bravais-lattice index     =            0
     lattice parameter (alat)  =      12.2473  a.u.
     unit-cell volume          =    1298.9981 (a.u.)^3
     number of atoms/cell      =           10
     number of atomic types    =            4
     number of electrons       =        76.00
     number of Kohn-Sham states=           46
     kinetic-energy cutoff     =      30.0000  Ry
     charge density cutoff     =     240.0000  Ry
     scf convergence threshold =      1.0E-06
     mixing beta               =       0.7000
     number of iterations used =            8  plain     mixing
     Exchange-correlation=  SLA  PW   PBX  PBC
                           (   1   4   3   4   0   0   0)

     celldm(1)=  12.247323  celldm(2)=   0.000000  celldm(3)=   0.000000
     celldm(4)=   0.000000  celldm(5)=   0.000000  celldm(6)=   0.000000

     crystal axes: (cart. coord. in units of alat)
               a(1) = (   1.000000   0.000000   0.000000 )
               a(2) = (   0.500000   0.866025   0.000000 )
               a(3) = (   0.500000   0.288675   0.816497 )

     reciprocal axes: (cart. coord. in units 2 pi/alat)
               b(1) = (  1.000000 -0.577350 -0.408248 )
               b(2) = (  0.000000  1.154701 -0.408248 )
               b(3) = (  0.000000  0.000000  1.224745 )

     PseudoPot. # 1 for Cs read from file:
     /home/pragov/projects/rrg-bengioy-ad/pragov/crystal_structure_design/SSSP/Cs_pbe_v1.uspp.F.UPF
     MD5 check sum: 3476d69cb178dfad3ffaa59df4e07ca4
     Pseudo is Ultrasoft + core correction, Zval =  9.0
     Generated by new atomic code, or converted to UPF format
     Using radial grid of  905 points,  6 beta functions with:
                l(1) =   0
                l(2) =   0
                l(3) =   1
                l(4) =   1
                l(5) =   2
                l(6) =   2
     Q(r) pseudized with  6 coefficients,  rinner =    1.500   1.500   1.500
                                                       1.500   1.500

     PseudoPot. # 2 for Al read from file:
     /home/pragov/projects/rrg-bengioy-ad/pragov/crystal_structure_design/SSSP/Al.pbe-n-kjpaw_psl.1.0.0.UPF
     MD5 check sum: cfc449ca30b5f3223ec38ddd88ac046d
     Pseudo is Projector augmented-wave + core cor, Zval =  3.0
     Generated using "atomic" code by A. Dal Corso  v.5.1
     Shape of augmentation charge: PSQ
     Using radial grid of 1135 points,  6 beta functions with:
                l(1) =   0
                l(2) =   0
                l(3) =   1
                l(4) =   1
                l(5) =   2
                l(6) =   2
     Q(r) pseudized with 0 coefficients

     PseudoPot. # 3 for In read from file:
     /home/pragov/projects/rrg-bengioy-ad/pragov/crystal_structure_design/SSSP/In.pbe-dn-rrkjus_psl.0.2.2.UPF
     MD5 check sum: 25e7c42c3b55b68f4bf926be2e7201a4
     Pseudo is Ultrasoft + core correction, Zval = 13.0
     Generated using "atomic" code by A. Dal Corso  v.5.0.99 svn rev. 10869
     Using radial grid of 1241 points,  6 beta functions with:
                l(1) =   0
                l(2) =   0
                l(3) =   1
                l(4) =   1
                l(5) =   2
                l(6) =   2
     Q(r) pseudized with 0 coefficients

     PseudoPot. # 4 for F  read from file:
     /home/pragov/projects/rrg-bengioy-ad/pragov/crystal_structure_design/SSSP/f_pbe_v1.4.uspp.F.UPF
     MD5 check sum: 4c38b6a325caf53ec0e86aed9459de46
     Pseudo is Ultrasoft, Zval =  7.0
     Generated by new atomic code, or converted to UPF format
     Using radial grid of  799 points,  4 beta functions with:
                l(1) =   0
                l(2) =   0
                l(3) =   1
                l(4) =   1
     Q(r) pseudized with  8 coefficients,  rinner =    0.950   0.950   0.950

     atomic species   valence    mass     pseudopotential
        Cs             9.00   132.90545     Cs( 1.00)
        Al             3.00    26.98154     Al( 1.00)
        In            13.00   114.81800     In( 1.00)
        F              7.00    18.99840     F ( 1.00)

     12 Sym. Ops., with inversion, found

                                    s                        frac. trans.

      isym =  1     identity

 cryst.   s( 1) = (     1          0          0      )
                  (     0          1          0      )
                  (     0          0          1      )

 cart.    s( 1) = (  1.0000000  0.0000000  0.0000000 )
                  (  0.0000000  1.0000000  0.0000000 )
                  (  0.0000000  0.0000000  1.0000000 )

      isym =  2     180 deg rotation - cart. axis [1,0,0]

[...]

      isym =  3     120 deg rotation - cryst. axis [0,0,1]

[...]

      isym =  6     180 deg rotation - cryst. axis [1,1,0]

[...]

      isym =  7     inversion

[...]

      isym =  8     inv. 180 deg rotation - cart. axis [1,0,0]

[...]

      isym =  9     inv. 120 deg rotation - cryst. axis [0,0,1]

 cryst.   s( 9) = (     1         -1          0      )
                  (     1          0          0      )
                  (     1          0         -1      )

 cart.    s( 9) = (  0.5000000  0.8660254  0.0000000 )
                  ( -0.8660254  0.5000000  0.0000000 )
                  (  0.0000000  0.0000000 -1.0000000 )

[...]

 cryst.   s(10) = (     0          1          0      )
                  (    -1          1          0      )
                  (     0          1         -1      )

 cart.    s(10) = (  0.5000000 -0.8660254 -0.0000000 )
                  (  0.8660254  0.5000000  0.0000000 )
                  (  0.0000000  0.0000000 -1.0000000 )

[...]

      isym = 12     inv. 180 deg rotation - cryst. axis [1,1,0]

 cryst.   s(12) = (     1         -1          0      )
                  (     0         -1          0      )
                  (     0         -1          1      )

 cart.    s(12) = (  0.5000000 -0.8660254 -0.0000000 )
                  ( -0.8660254 -0.5000000 -0.0000000 )
                  (  0.0000000  0.0000000  1.0000000 )

   Cartesian axes

     site n.     atom                  positions (alat units)
         1           Cs  tau(   1) = (   1.5000000   0.8660254   0.6123724  )
         2           Cs  tau(   2) = (   0.5000000   0.2886751   0.2041241  )
         3           Al  tau(   3) = (   0.0000000   0.0000000   0.0000000  )
         4           In  tau(   4) = (   1.0000000   0.5773503   0.4082483  )
         5           F   tau(   5) = (   1.0000000   0.2334239   0.1650556  )
         6           F   tau(   6) = (   0.7021510   0.4053871   0.6514410  )
         7           F   tau(   7) = (   1.0000000   0.9212767   0.6514410  )
         8           F   tau(   8) = (   0.7021510   0.7493135   0.1650556  )
         9           F   tau(   9) = (   1.2978490   0.4053871   0.6514410  )
        10           F   tau(  10) = (   1.2978490   0.7493135   0.1650556  )

   Crystallographic axes

     site n.     atom                  positions (cryst. coord.)
         1           Cs  tau(   1) = (  0.7500000  0.7500000  0.7500000  )
         2           Cs  tau(   2) = (  0.2500000  0.2500000  0.2500000  )
         3           Al  tau(   3) = (  0.0000000  0.0000000  0.0000000  )
         4           In  tau(   4) = (  0.5000000  0.5000000  0.5000000  )
         5           F   tau(   5) = (  0.7978490  0.2021510  0.2021510  )
         6           F   tau(   6) = (  0.2021510  0.2021510  0.7978490  )
         7           F   tau(   7) = (  0.2021510  0.7978490  0.7978490  )
         8           F   tau(   8) = (  0.2021510  0.7978490  0.2021510  )
         9           F   tau(   9) = (  0.7978490  0.2021510  0.7978490  )
        10           F   tau(  10) = (  0.7978490  0.7978490  0.2021510  )

     number of k points=     1  Methfessel-Paxton smearing, width (Ry)=  0.0010
                       cart. coord. in units 2pi/alat
        k(    1) = (   0.0000000   0.0000000   0.0000000), wk =   2.0000000

                       cryst. coord.
        k(    1) = (   0.0000000   0.0000000   0.0000000), wk =   2.0000000

     Initial potential from superposition of free atoms

     starting charge      75.9152, renormalised to      76.0000
     Starting wfcs are   63 randomized atomic wfcs
     Checking if some PAW data can be deallocated...

     Self-consistent Calculation

     iteration #  1     ecut=    30.00 Ry     beta= 0.70
     Davidson diagonalization with overlap

     ethr =  1.00E-02,  avg # of iterations =  3.0

     total energy              =    -602.60256279 Ry
     estimated scf accuracy    <       1.27286548 Ry

[...]

     total energy              =    -603.16580100 Ry
     estimated scf accuracy    <       0.00000199 Ry

     iteration #  8     ecut=    30.00 Ry     beta= 0.70
     Davidson diagonalization with overlap

     ethr =  2.62E-09,  avg # of iterations =  2.0

     End of self-consistent calculation

          k = 0.0000 0.0000 0.0000 (  1824 PWs)   bands (ev):

   -17.7366 -17.1199 -17.1194 -17.1192 -16.8913 -16.8908 -15.4050 -15.4017
    -8.7232  -8.7232  -8.7232  -8.6894  -8.6894  -2.6657  -2.6657  -2.6657
    -2.3468  -2.3468  -2.3468  -1.8840   0.0518   0.0521   0.0522   1.2756
     1.2757   1.2759   1.2884   1.2889   1.9428   1.9429   1.9432   2.0837
     2.0837   2.0838   2.5324   2.5325   2.5328   2.8734   8.5420   8.5421
     8.5421  10.3348  10.3348  10.7675  12.7055  12.7056

     occupation numbers
     1.0000   1.0000   1.0000   1.0000   1.0000   1.0000   1.0000   1.0000
     1.0000   1.0000   1.0000   1.0000   1.0000   1.0000   1.0000   1.0000
     1.0000   1.0000   1.0000   1.0000   1.0000   1.0000   1.0000   1.0000
     1.0000   1.0000   1.0000   1.0000   1.0000   1.0000   1.0000   1.0000
     1.0000   1.0000   1.0000   1.0000   1.0000   1.0000  -0.0000  -0.0000
    -0.0000  -0.0000  -0.0000  -0.0000  -0.0000  -0.0000

     the Fermi energy is     5.1631 ev

!    total energy              =    -603.16580135 Ry
     estimated scf accuracy    <       0.00000011 Ry
     smearing contrib. (-TS)   =       0.00000000 Ry
     internal energy E=F+TS    =    -603.16580135 Ry

     The total energy is F=E-TS. E is the sum of the following terms:
     one-electron contribution =    -240.32724227 Ry
     hartree contribution      =     168.34191307 Ry
     xc contribution           =    -167.53079707 Ry
     ewald contribution        =    -329.01037417 Ry
     one-center paw contrib.   =     -34.63930091 Ry
      -> PAW hartree energy AE =       2.06739779 Ry
      -> PAW hartree energy PS =      -2.06477549 Ry
      -> PAW xc energy AE      =     -36.84404948 Ry
      -> PAW xc energy PS      =       2.20212627 Ry
      -> total E_H with PAW    =     168.34453537 Ry
      -> total E_XC with PAW   =    -202.17272028 Ry

     convergence has been achieved in   8 iterations

     Forces acting on atoms (cartesian axes, Ry/au):

     atom    1 type  1   force =     0.00000000    0.00000000   -0.00000822
     atom    2 type  1   force =     0.00000000    0.00000000    0.00000822
     atom    3 type  2   force =     0.00000000    0.00000000    0.00000000
     atom    4 type  3   force =     0.00000000    0.00000000   -0.00000000
     atom    5 type  4   force =     0.00000000   -0.00463811   -0.00327670
     atom    6 type  4   force =    -0.00401672   -0.00231906    0.00327670
     atom    7 type  4   force =     0.00000000    0.00463811    0.00327670
     atom    8 type  4   force =    -0.00401672    0.00231906   -0.00327670
     atom    9 type  4   force =     0.00401672   -0.00231906    0.00327670
     atom   10 type  4   force =     0.00401672    0.00231906   -0.00327670
     The non-local contrib.  to forces
     atom    1 type  1   force =     0.00000000    0.00000000    0.00001293
     atom    2 type  1   force =     0.00000000    0.00000000   -0.00001293
     atom    3 type  2   force =    -0.00000000   -0.00000000    0.00000000
     atom    4 type  3   force =    -0.00000000    0.00000000    0.00000000
     atom    5 type  4   force =     0.00000000   -0.53333369   -0.37712573
     atom    6 type  4   force =    -0.46188052   -0.26666684    0.37712573
     atom    7 type  4   force =     0.00000000    0.53333369    0.37712573
     atom    8 type  4   force =    -0.46188052    0.26666684   -0.37712573
     atom    9 type  4   force =     0.46188052   -0.26666684    0.37712573
     atom   10 type  4   force =     0.46188052    0.26666684   -0.37712573
     The ionic contribution  to forces
     atom    1 type  1   force =     0.00000000   -0.00000000   -0.00000000
     atom    2 type  1   force =    -0.00000000    0.00000000    0.00000000
     atom    3 type  2   force =    -0.00000000   -0.00000000   -0.00000000
     atom    4 type  3   force =    -0.00000000   -0.00000000   -0.00000000
     atom    5 type  4   force =    -0.00000000    3.86072651    2.72994589
     atom    6 type  4   force =     3.34348723    1.93036325   -2.72994589
     atom    7 type  4   force =     0.00000000   -3.86072651   -2.72994589
     atom    8 type  4   force =     3.34348723   -1.93036325    2.72994589
     atom    9 type  4   force =    -3.34348723    1.93036325   -2.72994589
     atom   10 type  4   force =    -3.34348723   -1.93036325    2.72994589
     The local contribution  to forces
     atom    1 type  1   force =     0.00008352   -0.00000931    0.00000001
     atom    2 type  1   force =    -0.00002218   -0.00005360    0.00005975
     atom    3 type  2   force =     0.00000443    0.00000498   -0.00000404
     atom    4 type  3   force =    -0.00010308   -0.00000009   -0.00008308
     atom    5 type  4   force =    -0.00000087   -3.33224923   -2.35625984
     atom    6 type  4   force =    -2.88581807   -1.66612423    2.35626244
     atom    7 type  4   force =    -0.00000913    3.33228252    2.35627003
     atom    8 type  4   force =    -2.88579115    1.66612469   -2.35625189
     atom    9 type  4   force =     2.88583238   -1.66615501    2.35627161
     atom   10 type  4   force =     2.88581414    1.66612895   -2.35628799
     The core correction contribution to forces
     atom    1 type  1   force =     0.00000380   -0.00000140   -0.00000062
     atom    2 type  1   force =    -0.00000224   -0.00000398    0.00000282
     atom    3 type  2   force =     0.00000032    0.00000081   -0.00000027
     atom    4 type  3   force =    -0.00000192    0.00000059   -0.00000254
     atom    5 type  4   force =     0.00000000    0.00000000    0.00000000
     atom    6 type  4   force =     0.00000000    0.00000000    0.00000000
     atom    7 type  4   force =     0.00000000    0.00000000    0.00000000
     atom    8 type  4   force =     0.00000000    0.00000000    0.00000000
     atom    9 type  4   force =     0.00000000    0.00000000    0.00000000
     atom   10 type  4   force =     0.00000000    0.00000000    0.00000000
     The Hubbard contrib.    to forces
     atom    1 type  1   force =     0.00000000    0.00000000    0.00000000
     atom    2 type  1   force =     0.00000000    0.00000000    0.00000000
     atom    3 type  2   force =     0.00000000    0.00000000    0.00000000
     atom    4 type  3   force =     0.00000000    0.00000000    0.00000000
     atom    5 type  4   force =     0.00000000    0.00000000    0.00000000
     atom    6 type  4   force =     0.00000000    0.00000000    0.00000000
     atom    7 type  4   force =     0.00000000    0.00000000    0.00000000
     atom    8 type  4   force =     0.00000000    0.00000000    0.00000000
     atom    9 type  4   force =     0.00000000    0.00000000    0.00000000
     atom   10 type  4   force =     0.00000000    0.00000000    0.00000000
     The SCF correction term to forces
     atom    1 type  1   force =    -0.00003494    0.00000284   -0.00001093
     atom    2 type  1   force =     0.00000178    0.00001125   -0.00003181
     atom    3 type  2   force =    -0.00000511   -0.00000160    0.00000293
     atom    4 type  3   force =     0.00012513    0.00000197    0.00006907
     atom    5 type  4   force =     0.00000320    0.00021651    0.00016002
     atom    6 type  4   force =     0.00019511    0.00010969   -0.00016200
     atom    7 type  4   force =     0.00001151   -0.00026159   -0.00017754
     atom    8 type  4   force =     0.00015538   -0.00010159    0.00015058
     atom    9 type  4   force =    -0.00021428    0.00015174   -0.00016974
     atom   10 type  4   force =    -0.00018692   -0.00010943    0.00020271

     Total force =     0.013910     Total SCF correction =     0.000717

     Computing stress (Cartesian axis) and pressure

          total   stress  (Ry/bohr**3)                   (kbar)     P=      -41.14
  -0.00027970   0.00000000  -0.00000000          -41.15        0.00       -0.00
  -0.00000000  -0.00027970  -0.00000000           -0.00      -41.15       -0.00
   0.00000000  -0.00000000  -0.00027969            0.00       -0.00      -41.14

     kinetic stress (kbar)  12212.78     -0.00      0.00
                               -0.00  12212.78      0.00
                                0.00      0.00  12212.79

     local   stress (kbar)  -6919.32      0.01     -0.01
                                0.01  -6919.32      0.00
                               -0.01      0.00  -6919.32

     nonloc. stress (kbar)   4500.63      0.00      0.00
                                0.00   4500.63      0.00
                                0.00      0.00   4500.63

     hartree stress (kbar)   6354.63     -0.00      0.01
                               -0.00   6354.63     -0.00
                                0.01     -0.00   6354.63

     exc-cor stress (kbar)   5082.26     -0.00     -0.00
                               -0.00   5082.26     -0.00
                               -0.00     -0.00   5082.26

     corecor stress (kbar)  -8852.54      0.00      0.00
                                0.00  -8852.54      0.00
                                0.00      0.00  -8852.54

     ewald   stress (kbar) -12419.60      0.00     -0.00
                                0.00 -12419.60     -0.00
                               -0.00     -0.00 -12419.60

     hubbard stress (kbar)      0.00      0.00      0.00
                                0.00      0.00      0.00
                                0.00      0.00      0.00

     DFT-D   stress (kbar)      0.00      0.00      0.00
                                0.00      0.00      0.00
                                0.00      0.00      0.00

     XDM     stress (kbar)      0.00      0.00      0.00
                                0.00      0.00      0.00
                                0.00      0.00      0.00

     dft-nl  stress (kbar)      0.00      0.00      0.00
                                0.00      0.00      0.00
                                0.00      0.00      0.00

     TS-vdW  stress (kbar)      0.00      0.00      0.00
                                0.00      0.00      0.00
                                0.00      0.00      0.00

[...]

                                0.00      0.00      0.00

     Writing all to output data dir new_calculations/myprefix.save/

     General routines

     Parallel routines

     PAW routines

   This run was terminated on:   6:49: 4  20May2023

   JOB DONE.