     Program PWSCF v.7.0 starts on 21May2023 at  4:13:52

     Reading input from espresso_9996.pwi
Warning: card &CELL ignored
Warning: card / ignored

     Current dimensions of program PWSCF are:
     Max number of different atomic species (ntypx) = 10
     Max number of k-points (npk) =  40000
     Max angular momentum in pseudopotentials (lmaxx) =  4

     gamma-point specific algorithms are used
     Message from routine setup:
     using ibrav=0 with symmetry is DISCOURAGED, use correct ibrav instead

     Subspace diagonalization in iterative solution of the eigenvalue problem:
     a serial algorithm will be used

     Using Slab Decomposition

     bravais-lattice index     =            0
     lattice parameter (alat)  =      11.6834  a.u.
     unit-cell volume          =    1109.2088 (a.u.)^3
     number of atoms/cell      =            9
     number of atomic types    =            3
     number of electrons       =        82.00
     number of Kohn-Sham states=           49
     kinetic-energy cutoff     =      30.0000  Ry
     charge density cutoff     =     240.0000  Ry
     scf convergence threshold =      1.0E-06
     mixing beta               =       0.7000
     number of iterations used =            8  plain     mixing
     Exchange-correlation=  SLA  PW   PBX  PBC
                           (   1   4   3   4   0   0   0)

     celldm(1)=  11.683445  celldm(2)=   0.000000  celldm(3)=   0.000000
     celldm(4)=   0.000000  celldm(5)=   0.000000  celldm(6)=   0.000000

     crystal axes: (cart. coord. in units of alat)
               a(1) = (   1.000000   0.000000   0.000000 )
               a(2) = (  -0.500000   0.866025   0.000000 )
               a(3) = (   0.000000   0.000000   0.803101 )

     reciprocal axes: (cart. coord. in units 2 pi/alat)
               b(1) = (  1.000000  0.577350  0.000000 )
               b(2) = (  0.000000  1.154701  0.000000 )
               b(3) = (  0.000000  0.000000  1.245174 )

     PseudoPot. # 1 for Tl read from file:
     /home/pragov/projects/rrg-bengioy-ad/pragov/crystal_structure_design/SSSP/Tl_pbe_v1.2.uspp.F.UPF
     MD5 check sum: b76cf1f7e72655a2b2c53cf6385d7059
     Pseudo is Ultrasoft + core correction, Zval = 13.0
     Generated by new atomic code, or converted to UPF format
     Using radial grid of  899 points,  6 beta functions with:
                l(1) =   0
                l(2) =   0
                l(3) =   1
                l(4) =   1
                l(5) =   2
                l(6) =   2
     Q(r) pseudized with  6 coefficients,  rinner =    1.100   1.100   1.100
                                                       1.100   1.100

     PseudoPot. # 2 for Sn read from file:
     /home/pragov/projects/rrg-bengioy-ad/pragov/crystal_structure_design/SSSP/Sn_pbe_v1.uspp.F.UPF
     MD5 check sum: 4cf58ce39ec5d5d420df3dd08604eb00
     Pseudo is Ultrasoft + core correction, Zval = 14.0
     Generated by new atomic code, or converted to UPF format
     Using radial grid of  891 points,  6 beta functions with:
                l(1) =   0
                l(2) =   0
                l(3) =   1
                l(4) =   1
                l(5) =   2
                l(6) =   2
     Q(r) pseudized with  6 coefficients,  rinner =    1.200   1.200   1.200
                                                       1.200   1.200

     PseudoPot. # 3 for F  read from file:
     /home/pragov/projects/rrg-bengioy-ad/pragov/crystal_structure_design/SSSP/f_pbe_v1.4.uspp.F.UPF
     MD5 check sum: 4c38b6a325caf53ec0e86aed9459de46
     Pseudo is Ultrasoft, Zval =  7.0
     Generated by new atomic code, or converted to UPF format
     Using radial grid of  799 points,  4 beta functions with:
                l(1) =   0
                l(2) =   0
                l(3) =   1
                l(4) =   1
     Q(r) pseudized with  8 coefficients,  rinner =    0.950   0.950   0.950

     atomic species   valence    mass     pseudopotential
        Tl            13.00   204.38000     Tl( 1.00)
        Sn            14.00   118.71000     Sn( 1.00)
        F              7.00    18.99840     F ( 1.00)

     12 Sym. Ops., with inversion, found

                                    s                        frac. trans.

      isym =  1     identity

 cryst.   s( 1) = (     1          0          0      )
                  (     0          1          0      )
                  (     0          0          1      )

 cart.    s( 1) = (  1.0000000 -0.0000000  0.0000000 )
                  (  0.0000000  1.0000000  0.0000000 )
                  (  0.0000000  0.0000000  1.0000000 )

      isym =  2     180 deg rotation - cart. axis [1,0,0]

[...]

      isym =  3     120 deg rotation - cryst. axis [0,0,1]

[...]

      isym =  6     180 deg rotation - cryst. axis [1,1,0]

[...]

      isym =  7     inversion

[...]

      isym =  8     inv. 180 deg rotation - cart. axis [1,0,0]

[...]

      isym =  9     inv. 120 deg rotation - cryst. axis [0,0,1]

 cryst.   s( 9) = (     0         -1          0      )
                  (     1          1          0      )
                  (     0          0         -1      )

 cart.    s( 9) = (  0.5000001  0.8660255  0.0000000 )
                  ( -0.8660253  0.4999999  0.0000000 )
                  (  0.0000000  0.0000000 -1.0000000 )

[...]

 cryst.   s(10) = (     1          1          0      )
                  (    -1          0          0      )
                  (     0          0         -1      )

 cart.    s(10) = (  0.4999999 -0.8660255  0.0000000 )
                  (  0.8660253  0.5000001  0.0000000 )
                  (  0.0000000  0.0000000 -1.0000000 )

[...]

      isym = 12     inv. 180 deg rotation - cryst. axis [1,1,0]

 cryst.   s(12) = (     0         -1          0      )
                  (    -1          0          0      )
                  (     0          0          1      )

 cart.    s(12) = (  0.5000001 -0.8660253  0.0000000 )
                  ( -0.8660253 -0.5000001  0.0000000 )
                  (  0.0000000  0.0000000  1.0000000 )

   Cartesian axes

     site n.     atom                  positions (alat units)
         1           Tl  tau(   1) = (   0.5000005   0.2886748   0.2502959  )
         2           Tl  tau(   2) = (  -0.0000006   0.5773505   0.5528047  )
         3           Sn  tau(   3) = (   0.0000000   0.0000000   0.0000000  )
         4           F   tau(   4) = (   0.7653265   0.1354888   0.6230711  )
         5           F   tau(   5) = (   0.4999999   0.5950477   0.6230711  )
         6           F   tau(   6) = (   0.2346735   0.1354888   0.6230711  )
         7           F   tau(   7) = (  -0.2653266   0.7305365   0.1800295  )
         8           F   tau(   8) = (  -0.0000000   0.2709776   0.1800295  )
         9           F   tau(   9) = (   0.2653264   0.7305365   0.1800295  )

   Crystallographic axes

     site n.     atom                  positions (cryst. coord.)
         1           Tl  tau(   1) = (  0.6666670  0.3333330  0.3116620  )
         2           Tl  tau(   2) = (  0.3333330  0.6666670  0.6883380  )
         3           Sn  tau(   3) = (  0.0000000  0.0000000  0.0000000  )
         4           F   tau(   4) = (  0.8435510  0.1564490  0.7758320  )
         5           F   tau(   5) = (  0.8435510  0.6871020  0.7758320  )
         6           F   tau(   6) = (  0.3128980  0.1564490  0.7758320  )
         7           F   tau(   7) = (  0.1564490  0.8435510  0.2241680  )
         8           F   tau(   8) = (  0.1564490  0.3128980  0.2241680  )
         9           F   tau(   9) = (  0.6871020  0.8435510  0.2241680  )

     number of k points=     1  Methfessel-Paxton smearing, width (Ry)=  0.0010
                       cart. coord. in units 2pi/alat
        k(    1) = (   0.0000000   0.0000000   0.0000000), wk =   2.0000000

                       cryst. coord.
        k(    1) = (   0.0000000   0.0000000   0.0000000), wk =   2.0000000

     Check: negative core charge=   -0.000005

     Initial potential from superposition of free atoms

     starting charge      80.9902, renormalised to      82.0000

     negative rho (up, down):  1.011E-01 0.000E+00
     Starting wfcs are   51 randomized atomic wfcs

     Self-consistent Calculation

     iteration #  1     ecut=    30.00 Ry     beta= 0.70
     Davidson diagonalization with overlap

     ethr =  1.00E-02,  avg # of iterations =  2.0

     negative rho (up, down):  9.901E-02 0.000E+00

     total energy              =    -744.94876235 Ry
     estimated scf accuracy    <       0.89864514 Ry

[...]

     total energy              =    -745.36849876 Ry
     estimated scf accuracy    <       0.00000159 Ry

     iteration #  8     ecut=    30.00 Ry     beta= 0.70
     Davidson diagonalization with overlap

     ethr =  1.94E-09,  avg # of iterations =  3.0

[...]

     End of self-consistent calculation

          k = 0.0000 0.0000 0.0000 (  1530 PWs)   bands (ev):

   -18.5775 -18.5770 -18.2764 -17.7791 -17.7785 -17.6967 -16.2907 -16.2774
   -16.2774 -15.2008 -15.2005  -5.2416  -5.2416  -5.2079  -5.1932  -5.1932
    -5.1926  -5.1629  -5.1629  -5.1506  -5.1505  -3.1485  -0.7432  -0.5133
    -0.5129   0.3572   0.4576   0.4580   0.6413   1.0894   1.0897   1.2627
     1.3084   1.3090   1.4066   1.4070   1.5199   1.8202   1.8534   1.8539
     1.9849   8.2150   9.3725   9.3727   9.7668  10.6044  10.6044  10.8830
    12.9158

     occupation numbers
     1.0000   1.0000   1.0000   1.0000   1.0000   1.0000   1.0000   1.0000
     1.0000   1.0000   1.0000   1.0000   1.0000   1.0000   1.0000   1.0000
     1.0000   1.0000   1.0000   1.0000   1.0000   1.0000   1.0000   1.0000
     1.0000   1.0000   1.0000   1.0000   1.0000   1.0000   1.0000   1.0000
     1.0000   1.0000   1.0000   1.0000   1.0000   1.0000   1.0000   1.0000
     1.0000  -0.0000  -0.0000  -0.0000  -0.0000  -0.0000  -0.0000  -0.0000
    -0.0000

     the Fermi energy is     5.1105 ev

!    total energy              =    -745.36849911 Ry
     estimated scf accuracy    <       0.00000022 Ry
     smearing contrib. (-TS)   =       0.00000000 Ry
     internal energy E=F+TS    =    -745.36849911 Ry

     The total energy is F=E-TS. E is the sum of the following terms:
     one-electron contribution =    -303.19198415 Ry
     hartree contribution      =     206.48272154 Ry
     xc contribution           =    -227.89025695 Ry
     ewald contribution        =    -420.76897956 Ry

     convergence has been achieved in   8 iterations

     negative rho (up, down):  9.941E-02 0.000E+00

     Forces acting on atoms (cartesian axes, Ry/au):

     atom    1 type  1   force =     0.00000000    0.00000000   -0.01414178
     atom    2 type  1   force =     0.00000000    0.00000000    0.01414178
     atom    3 type  2   force =     0.00000000    0.00000000    0.00000000
     atom    4 type  3   force =    -0.00129017    0.00074488   -0.00787415
     atom    5 type  3   force =     0.00000000   -0.00148976   -0.00787415
     atom    6 type  3   force =     0.00129017    0.00074488   -0.00787415
     atom    7 type  3   force =     0.00129017   -0.00074488    0.00787415
     atom    8 type  3   force =     0.00000000    0.00148976    0.00787415
     atom    9 type  3   force =    -0.00129017   -0.00074488    0.00787415
     The non-local contrib.  to forces
     atom    1 type  1   force =    -0.00000000   -0.00000000    0.02785977
     atom    2 type  1   force =     0.00000000    0.00000000   -0.02785977
     atom    3 type  2   force =     0.00000000    0.00000000    0.00000000
     atom    4 type  3   force =     0.78154787   -0.45122679    0.56748609
     atom    5 type  3   force =    -0.00000000    0.90245383    0.56748609
     atom    6 type  3   force =    -0.78154787   -0.45122703    0.56748609
     atom    7 type  3   force =    -0.78154787    0.45122679   -0.56748609
     atom    8 type  3   force =    -0.00000000   -0.90245383   -0.56748609
     atom    9 type  3   force =     0.78154787    0.45122703   -0.56748609
     The ionic contribution  to forces
     atom    1 type  1   force =    -0.00005140    0.00002968    0.72472866
     atom    2 type  1   force =     0.00005141   -0.00002968   -0.72472866
     atom    3 type  2   force =    -0.00000000   -0.00000000    0.00000000
     atom    4 type  3   force =    -8.36151794    4.82752378   -5.83052957
     atom    5 type  3   force =    -0.00002510   -9.65506837   -5.83053533
     atom    6 type  3   force =     8.36152119    4.82755720   -5.83053533
     atom    7 type  3   force =     8.36151794   -4.82752378    5.83052957
     atom    8 type  3   force =     0.00002510    9.65506837    5.83053533
     atom    9 type  3   force =    -8.36152119   -4.82755720    5.83053533
     The local contribution  to forces
     atom    1 type  1   force =     0.00040917   -0.00008977   -0.76229276
     atom    2 type  1   force =    -0.00026191    0.00035055    0.76235325
     atom    3 type  2   force =    -0.00007752   -0.00007800    0.00000695
     atom    4 type  3   force =     7.57884070   -4.37571344    5.25526070
     atom    5 type  3   force =     0.00009345    8.75138634    5.25522073
     atom    6 type  3   force =    -7.57885911   -4.37582069    5.25530000
     atom    7 type  3   force =    -7.57890312    4.37568284   -5.25528960
     atom    8 type  3   force =    -0.00014065   -8.75140652   -5.25525396
     atom    9 type  3   force =     7.57893531    4.37583764   -5.25526788
     The core correction contribution to forces
     atom    1 type  1   force =     0.00000575   -0.00000080   -0.00400292
     atom    2 type  1   force =    -0.00000555    0.00000521    0.00400225
     atom    3 type  2   force =     0.00000878    0.00000527    0.00000599
     atom    4 type  3   force =     0.00000000    0.00000000    0.00000000
     atom    5 type  3   force =     0.00000000    0.00000000    0.00000000
     atom    6 type  3   force =     0.00000000    0.00000000    0.00000000
     atom    7 type  3   force =     0.00000000    0.00000000    0.00000000
     atom    8 type  3   force =     0.00000000    0.00000000    0.00000000
     atom    9 type  3   force =     0.00000000    0.00000000    0.00000000
     The Hubbard contrib.    to forces
     atom    1 type  1   force =     0.00000000    0.00000000    0.00000000
     atom    2 type  1   force =     0.00000000    0.00000000    0.00000000
     atom    3 type  2   force =     0.00000000    0.00000000    0.00000000
     atom    4 type  3   force =     0.00000000    0.00000000    0.00000000
     atom    5 type  3   force =     0.00000000    0.00000000    0.00000000
     atom    6 type  3   force =     0.00000000    0.00000000    0.00000000
     atom    7 type  3   force =     0.00000000    0.00000000    0.00000000
     atom    8 type  3   force =     0.00000000    0.00000000    0.00000000
     atom    9 type  3   force =     0.00000000    0.00000000    0.00000000
     The SCF correction term to forces
     atom    1 type  1   force =    -0.00041247    0.00004368   -0.00043919
     atom    2 type  1   force =     0.00024820   -0.00036206    0.00037005
     atom    3 type  2   force =     0.00014169    0.00012114    0.00003116
     atom    4 type  3   force =    -0.00010444    0.00015700   -0.00007440
     atom    5 type  3   force =    -0.00009372   -0.00025874   -0.00002231
     atom    6 type  3   force =     0.00014792    0.00028680   -0.00013579
     atom    7 type  3   force =     0.00024083   -0.00011697    0.00013340
     atom    8 type  3   force =     0.00018577    0.00033805    0.00009900
     atom    9 type  3   force =    -0.00021963   -0.00028412    0.00008894

     Total force =     0.028023     Total SCF correction =     0.001164

     Computing stress (Cartesian axis) and pressure

     negative rho (up, down):  9.941E-02 0.000E+00
          total   stress  (Ry/bohr**3)                   (kbar)     P=     -116.14
  -0.00079165  -0.00000000   0.00000000         -116.46       -0.00        0.00
  -0.00000000  -0.00079165   0.00000000           -0.00     -116.46        0.00
   0.00000000  -0.00000000  -0.00078526            0.00       -0.00     -115.52

     kinetic stress (kbar)  13556.67      0.00      0.00
                                0.00  13556.67     -0.00
                                0.00     -0.00  13643.55

     local   stress (kbar)  -4458.73      0.06      0.04
                                0.06  -4458.54      0.07
                                0.04      0.07  -3395.43

     nonloc. stress (kbar)   5606.04      0.00      0.00
                                0.00   5606.04      0.00
                                0.00      0.00   5592.17

     hartree stress (kbar)   9171.86     -0.03     -0.02
                               -0.03   9171.73     -0.05
                               -0.02     -0.05   9040.49

     exc-cor stress (kbar)  10928.82     -0.00      0.00
                               -0.00  10928.82      0.00
                                0.00      0.00  10926.03

     corecor stress (kbar) -16654.02      0.00     -0.00
                                0.00 -16654.02     -0.00
                               -0.00     -0.00 -16653.52

     ewald   stress (kbar) -18267.12     -0.02     -0.01
                               -0.02 -18267.14      0.00
                               -0.01      0.00 -19268.81

     hubbard stress (kbar)      0.00      0.00      0.00
                                0.00      0.00      0.00
                                0.00      0.00      0.00

     DFT-D   stress (kbar)      0.00      0.00      0.00
                                0.00      0.00      0.00
                                0.00      0.00      0.00

     XDM     stress (kbar)      0.00      0.00      0.00
                                0.00      0.00      0.00
                                0.00      0.00      0.00

     dft-nl  stress (kbar)      0.00      0.00      0.00
                                0.00      0.00      0.00
                                0.00      0.00      0.00

     TS-vdW  stress (kbar)      0.00      0.00      0.00
                                0.00      0.00      0.00
                                0.00      0.00      0.00

[...]

                                0.00      0.00      0.00

     Writing all to output data dir new_calculations/myprefix.save/

     General routines

     Parallel routines

   This run was terminated on:   4:14: 3  21May2023

   JOB DONE.