     Program PWSCF v.7.0 starts on 21May2023 at 10:55:26

     Reading input from espresso_22718.pwi
Warning: card &CELL ignored
Warning: card / ignored

     Current dimensions of program PWSCF are:
     Max number of different atomic species (ntypx) = 10
     Max number of k-points (npk) =  40000
     Max angular momentum in pseudopotentials (lmaxx) =  4
     file Ba.pbe-spn-kjpaw_psl.1.0.0.UPF: wavefunction(s)  5S 6S renormalized

     gamma-point specific algorithms are used
     Message from routine setup:
     using ibrav=0 with symmetry is DISCOURAGED, use correct ibrav instead

     Subspace diagonalization in iterative solution of the eigenvalue problem:
     a serial algorithm will be used

     Using Slab Decomposition

     bravais-lattice index     =            0
     lattice parameter (alat)  =      23.6560  a.u.
     unit-cell volume          =    3311.7927 (a.u.)^3
     number of atoms/cell      =           16
     number of atomic types    =            3
     number of electrons       =       144.00
     number of Kohn-Sham states=           86
     kinetic-energy cutoff     =      30.0000  Ry
     charge density cutoff     =     240.0000  Ry
     scf convergence threshold =      1.0E-06
     mixing beta               =       0.7000
     number of iterations used =            8  plain     mixing
     Exchange-correlation=  SLA  PW   PBX  PBC
                           (   1   4   3   4   0   0   0)

     celldm(1)=  23.655994  celldm(2)=   0.000000  celldm(3)=   0.000000
     celldm(4)=   0.000000  celldm(5)=   0.000000  celldm(6)=   0.000000

     crystal axes: (cart. coord. in units of alat)
               a(1) = (   1.000000   0.000000   0.000000 )
               a(2) = (   0.000000   0.494411   0.000000 )
               a(3) = (   0.000000   0.041820   0.506001 )

     reciprocal axes: (cart. coord. in units 2 pi/alat)
               b(1) = (  1.000000  0.000000  0.000000 )
               b(2) = (  0.000000  2.022610 -0.167165 )
               b(3) = (  0.000000  0.000000  1.976280 )

     PseudoPot. # 1 for Ba read from file:
     /home/pragov/projects/rrg-bengioy-ad/pragov/crystal_structure_design/SSSP/Ba.pbe-spn-kjpaw_psl.1.0.0.UPF
     MD5 check sum: c432291d3e53af55f19d5e8866385beb
     Pseudo is Projector augmented-wave + core cor, Zval = 10.0
     Generated using "atomic" code by A. Dal Corso  v.5.1
     Shape of augmentation charge: PSQ
     Using radial grid of 1251 points,  7 beta functions with:
                l(1) =   0
                l(2) =   0
                l(3) =   0
                l(4) =   1
                l(5) =   1
                l(6) =   2
                l(7) =   2
     Q(r) pseudized with 0 coefficients

     PseudoPot. # 2 for Sn read from file:
     /home/pragov/projects/rrg-bengioy-ad/pragov/crystal_structure_design/SSSP/Sn_pbe_v1.uspp.F.UPF
     MD5 check sum: 4cf58ce39ec5d5d420df3dd08604eb00
     Pseudo is Ultrasoft + core correction, Zval = 14.0
     Generated by new atomic code, or converted to UPF format
     Using radial grid of  891 points,  6 beta functions with:
                l(1) =   0
                l(2) =   0
                l(3) =   1
                l(4) =   1
                l(5) =   2
                l(6) =   2
     Q(r) pseudized with  6 coefficients,  rinner =    1.200   1.200   1.200
                                                       1.200   1.200

     PseudoPot. # 3 for S  read from file:
     /home/pragov/projects/rrg-bengioy-ad/pragov/crystal_structure_design/SSSP/s_pbe_v1.4.uspp.F.UPF
     MD5 check sum: 88d86576ff6df21479756cfb9bdac1df
     Pseudo is Ultrasoft + core correction, Zval =  6.0
     Generated by new atomic code, or converted to UPF format
     Using radial grid of  907 points,  6 beta functions with:
                l(1) =   0
                l(2) =   0
                l(3) =   1
                l(4) =   1
                l(5) =   2
                l(6) =   2
     Q(r) pseudized with  8 coefficients,  rinner =    1.300   1.300   1.300
                                                       1.300   1.300

     atomic species   valence    mass     pseudopotential
        Ba            10.00   137.32700     Ba( 1.00)
        Sn            14.00   118.71000     Sn( 1.00)
        S              6.00    32.06000     S ( 1.00)

      4 Sym. Ops., with inversion, found ( 2 have fractional translation)

                                    s                        frac. trans.

      isym =  1     identity

 cryst.   s( 1) = (     1          0          0      )
                  (     0          1          0      )
                  (     0          0          1      )

 cart.    s( 1) = (  1.0000000  0.0000000  0.0000000 )
                  (  0.0000000  1.0000000  0.0000000 )
                  (  0.0000000  0.0000000  1.0000000 )

      isym =  2     180 deg rotation - cart. axis [1,0,0]

 cryst.   s( 2) = (     1          0          0      )    f =( -0.5000000 )
                  (     0         -1          0      )       ( -0.0000000 )
                  (     0          0         -1      )       ( -0.5000000 )

 cart.    s( 2) = (  1.0000000  0.0000000  0.0000000 )    f =( -0.5000000 )
                  (  0.0000000 -1.0000000 -0.0000000 )       ( -0.0209101 )
                  (  0.0000000  0.0000000 -1.0000000 )       ( -0.2530006 )

      isym =  3     inversion

 cryst.   s( 3) = (    -1          0          0      )
                  (     0         -1          0      )
                  (     0          0         -1      )

 cart.    s( 3) = ( -1.0000000  0.0000000  0.0000000 )
                  (  0.0000000 -1.0000000 -0.0000000 )
                  (  0.0000000  0.0000000 -1.0000000 )

      isym =  4     inv. 180 deg rotation - cart. axis [1,0,0]

 cryst.   s( 4) = (    -1          0          0      )    f =(  0.5000000 )
                  (     0          1          0      )       ( -0.0000000 )
                  (     0          0          1      )       ( -0.5000000 )

 cart.    s( 4) = ( -1.0000000  0.0000000  0.0000000 )    f =(  0.5000000 )
                  (  0.0000000  1.0000000  0.0000000 )       ( -0.0209101 )
                  (  0.0000000  0.0000000  1.0000000 )       ( -0.2530006 )

   Cartesian axes

     site n.     atom                  positions (alat units)
         1           Ba  tau(   1) = (   0.8767340   0.0328952   0.1225383  )
         2           Ba  tau(   2) = (   0.3767340   0.4824256   0.1304623  )
         3           Ba  tau(   3) = (   0.1232660   0.5033357   0.3834630  )
         4           Ba  tau(   4) = (   0.6232660   0.0538052   0.3755390  )
         5           Sn  tau(   5) = (   0.8675530   0.2893299   0.3640442  )
         6           Sn  tau(   6) = (   0.1324470   0.2469010   0.1419571  )
         7           Sn  tau(   7) = (   0.3675530   0.2678110   0.3949578  )
         8           Sn  tau(   8) = (   0.6324470   0.2684198   0.1110435  )
         9           S   tau(   9) = (   0.8370130   0.2784413   0.0644165  )
        10           S   tau(  10) = (   0.3370130   0.2368794   0.1885842  )
        11           S   tau(  11) = (   0.1629870   0.2577895   0.4415848  )
        12           S   tau(  12) = (   0.6629870   0.2993514   0.3174171  )
        13           S   tau(  13) = (   0.6231280   0.0621660   0.1206262  )
        14           S   tau(  14) = (   0.8768720   0.0830760   0.3736268  )
        15           S   tau(  15) = (   0.3768720   0.4740649   0.3853751  )
        16           S   tau(  16) = (   0.1231280   0.4531548   0.1323745  )

   Crystallographic axes

     site n.     atom                  positions (cryst. coord.)
         1           Ba  tau(   1) = (  0.8767340  0.0460500  0.2421700  )
         2           Ba  tau(   2) = (  0.3767340  0.9539500  0.2578300  )
         3           Ba  tau(   3) = (  0.1232660  0.9539500  0.7578300  )
         4           Ba  tau(   4) = (  0.6232660  0.0460500  0.7421700  )
         5           Sn  tau(   5) = (  0.8675530  0.5243460  0.7194530  )
         6           Sn  tau(   6) = (  0.1324470  0.4756540  0.2805470  )
         7           Sn  tau(   7) = (  0.3675530  0.4756540  0.7805470  )
         8           Sn  tau(   8) = (  0.6324470  0.5243460  0.2194530  )
         9           S   tau(   9) = (  0.8370130  0.5524100  0.1273050  )
        10           S   tau(  10) = (  0.3370130  0.4475900  0.3726950  )
        11           S   tau(  11) = (  0.1629870  0.4475900  0.8726950  )
        12           S   tau(  12) = (  0.6629870  0.5524100  0.6273050  )
        13           S   tau(  13) = (  0.6231280  0.1055730  0.2383910  )
        14           S   tau(  14) = (  0.8768720  0.1055730  0.7383910  )
        15           S   tau(  15) = (  0.3768720  0.8944270  0.7616090  )
        16           S   tau(  16) = (  0.1231280  0.8944270  0.2616090  )

     number of k points=     1  Methfessel-Paxton smearing, width (Ry)=  0.0010
                       cart. coord. in units 2pi/alat
        k(    1) = (   0.0000000   0.0000000   0.0000000), wk =   2.0000000

                       cryst. coord.
        k(    1) = (   0.0000000   0.0000000   0.0000000), wk =   2.0000000

     Initial potential from superposition of free atoms

     starting charge     139.9315, renormalised to     144.0000
     Starting wfcs are   88 randomized atomic wfcs
     Checking if some PAW data can be deallocated...

     Self-consistent Calculation

     iteration #  1     ecut=    30.00 Ry     beta= 0.70
     Davidson diagonalization with overlap

     ethr =  1.00E-02,  avg # of iterations =  7.0

     negative rho (up, down):  5.766E-04 0.000E+00

     total energy              =   -2591.33755073 Ry
     estimated scf accuracy    <       1.72306734 Ry

[...]

     negative rho (up, down):  1.941E-04 0.000E+00

[...]

     total energy              =   -2592.06989225 Ry
     estimated scf accuracy    <       0.00000111 Ry

     iteration # 22     ecut=    30.00 Ry     beta= 0.70
     Davidson diagonalization with overlap

     ethr =  7.72E-10,  avg # of iterations =  1.0

     End of self-consistent calculation

          k = 0.0000 0.0000 0.0000 (  4596 PWs)   bands (ev):

   -20.8776 -20.8622 -20.8615 -20.8470 -14.3949 -14.3929 -14.3766 -14.3758
   -14.3640 -14.3619 -14.3605 -14.3590 -14.3296 -14.3290 -14.3284 -14.3278
   -14.3172 -14.3158 -14.3154 -14.3139 -14.2919 -14.2914 -14.2908 -14.2903
    -6.5688  -6.4644  -6.3078  -6.3033  -6.2141  -6.1883  -6.1556  -6.1206
    -6.1102  -6.0772  -6.0588  -6.0140  -5.8217  -5.5657  -5.1271  -5.0577
    -4.9421  -4.9211  -4.6478  -4.5622  -0.0213   0.2158   1.1411   1.3268
     2.7904   2.8547   3.0837   3.2236   3.2902   3.5033   3.5268   3.6717
     4.0566   4.1934   4.2533   4.8189   4.8884   4.9476   4.9823   5.1250
     5.1412   5.2319   5.2872   5.3432   5.4363   5.6660   5.6916   6.0148
     8.2910   8.5424   9.0794   9.3427   9.6696   9.7822   9.8146   9.8271
     9.8814  10.1866  10.4268  10.4919  10.5592  10.6950

     occupation numbers
     1.0000   1.0000   1.0000   1.0000   1.0000   1.0000   1.0000   1.0000
     1.0000   1.0000   1.0000   1.0000   1.0000   1.0000   1.0000   1.0000
     1.0000   1.0000   1.0000   1.0000   1.0000   1.0000   1.0000   1.0000
     1.0000   1.0000   1.0000   1.0000   1.0000   1.0000   1.0000   1.0000
     1.0000   1.0000   1.0000   1.0000   1.0000   1.0000   1.0000   1.0000
     1.0000   1.0000   1.0000   1.0000   1.0000   1.0000   1.0000   1.0000
     1.0000   1.0000   1.0000   1.0000   1.0000   1.0000   1.0000   1.0000
     1.0000   1.0000   1.0000   1.0000   1.0000   1.0000   1.0000   1.0000
     1.0000   1.0000   1.0000   1.0000   1.0000   1.0000   1.0000   1.0000
    -0.0000  -0.0000  -0.0000  -0.0000  -0.0000  -0.0000  -0.0000  -0.0000
    -0.0000  -0.0000  -0.0000  -0.0000  -0.0000  -0.0000

     the Fermi energy is     6.8504 ev

!    total energy              =   -2592.06989209 Ry
     estimated scf accuracy    <       0.00000049 Ry
     smearing contrib. (-TS)   =       0.00000000 Ry
     internal energy E=F+TS    =   -2592.06989209 Ry

     The total energy is F=E-TS. E is the sum of the following terms:
     one-electron contribution =    -348.61370646 Ry
     hartree contribution      =     249.69655325 Ry
     xc contribution           =    -339.09880460 Ry
     ewald contribution        =    -654.20926645 Ry
     one-center paw contrib.   =   -1499.84466782 Ry
      -> PAW hartree energy AE =     114.96744694 Ry
      -> PAW hartree energy PS =    -114.49642835 Ry
      -> PAW xc energy AE      =   -1576.97455571 Ry
      -> PAW xc energy PS      =      76.65886930 Ry
      -> total E_H with PAW    =     250.16757183 Ry
      -> total E_XC with PAW   =   -1839.41449101 Ry

     convergence has been achieved in  22 iterations

     Forces acting on atoms (cartesian axes, Ry/au):

     atom    1 type  1   force =     0.02043502   -0.02870405    0.04371320
     atom    2 type  1   force =     0.02043502    0.02870405   -0.04371320
     atom    3 type  1   force =    -0.02043502    0.02870405   -0.04371320
     atom    4 type  1   force =    -0.02043502   -0.02870405    0.04371320
     atom    5 type  2   force =    -0.00339673    0.02354694   -0.01880096
     atom    6 type  2   force =     0.00339673   -0.02354694    0.01880096
     atom    7 type  2   force =    -0.00339673   -0.02354694    0.01880096
     atom    8 type  2   force =     0.00339673    0.02354694   -0.01880096
     atom    9 type  3   force =     0.01292460    0.00103296   -0.00914153
     atom   10 type  3   force =     0.01292460   -0.00103296    0.00914153
     atom   11 type  3   force =    -0.01292460   -0.00103296    0.00914153
     atom   12 type  3   force =    -0.01292460    0.00103296   -0.00914153
     atom   13 type  3   force =    -0.00893037    0.00659739   -0.01640048
     atom   14 type  3   force =     0.00893037    0.00659739   -0.01640048
     atom   15 type  3   force =     0.00893037   -0.00659739    0.01640048
     atom   16 type  3   force =    -0.00893037   -0.00659739    0.01640048
     The non-local contrib.  to forces
     atom    1 type  1   force =    -0.01874951    0.02330779   -0.03060506
     atom    2 type  1   force =    -0.01874951   -0.02330779    0.03060506
     atom    3 type  1   force =     0.01874951   -0.02330779    0.03060506
     atom    4 type  1   force =     0.01874951    0.02330779   -0.03060506
     atom    5 type  2   force =    -0.39577220   -0.21761048    0.21418915
     atom    6 type  2   force =     0.39577220    0.21761048   -0.21418915
     atom    7 type  2   force =    -0.39577220    0.21761048   -0.21418915
     atom    8 type  2   force =     0.39577220   -0.21761048    0.21418915
     atom    9 type  3   force =    -0.07190991   -0.03090714    0.02382056
     atom   10 type  3   force =    -0.07190991    0.03090714   -0.02382056
     atom   11 type  3   force =     0.07190991    0.03090714   -0.02382056
     atom   12 type  3   force =     0.07190991   -0.03090714    0.02382056
     atom   13 type  3   force =     0.01840422    0.01719489    0.02474078
     atom   14 type  3   force =    -0.01840422    0.01719489    0.02474078
     atom   15 type  3   force =    -0.01840422   -0.01719489   -0.02474078
     atom   16 type  3   force =     0.01840422   -0.01719489   -0.02474078
     The ionic contribution  to forces
     atom    1 type  1   force =     1.26631747   -0.99201986    0.48890689
     atom    2 type  1   force =     1.26631747    0.99201986   -0.48890689
     atom    3 type  1   force =    -1.26631747    0.99201986   -0.48890689
     atom    4 type  1   force =    -1.26631747   -0.99201986    0.48890689
     atom    5 type  2   force =     4.91935563    2.97757873   -2.35521056
     atom    6 type  2   force =    -4.91935563   -2.97757873    2.35521056
     atom    7 type  2   force =     4.91935563   -2.97757873    2.35521056
     atom    8 type  2   force =    -4.91935563    2.97757873   -2.35521056
     atom    9 type  3   force =     2.92397264    1.26315000    1.74525158
     atom   10 type  3   force =     2.92397264   -1.26315000   -1.74525158
     atom   11 type  3   force =    -2.92397264   -1.26315000   -1.74525158
     atom   12 type  3   force =    -2.92397264    1.26315000    1.74525158
     atom   13 type  3   force =    -0.95079723   -3.11142649   -0.01044268
     atom   14 type  3   force =     0.95079723   -3.11142649   -0.01044268
     atom   15 type  3   force =     0.95079723    3.11142649    0.01044268
     atom   16 type  3   force =    -0.95079723    3.11142649    0.01044269
     The local contribution  to forces
     atom    1 type  1   force =    -1.22938270    0.94309894   -0.41852487
     atom    2 type  1   force =    -1.22992612   -0.94298266    0.41871665
     atom    3 type  1   force =     1.22982394   -0.94259365    0.41876636
     atom    4 type  1   force =     1.23038712    0.94262138   -0.41888639
     atom    5 type  2   force =    -4.53485378   -2.73901831    2.12528657
     atom    6 type  2   force =     4.53453910    2.73900471   -2.12529671
     atom    7 type  2   force =    -4.53390070    2.73901539   -2.12541842
     atom    8 type  2   force =     4.53421258   -2.73902904    2.12540344
     atom    9 type  3   force =    -2.84313597   -1.23287090   -1.77671254
     atom   10 type  3   force =    -2.84277372    1.23285900    1.77675419
     atom   11 type  3   force =     2.84306328    1.23285278    1.77672609
     atom   12 type  3   force =     2.84285297   -1.23286872   -1.77673680
     atom   13 type  3   force =     0.92439716    3.10154792   -0.02917704
     atom   14 type  3   force =    -0.92465785    3.10153117   -0.02921002
     atom   15 type  3   force =    -0.92428529   -3.10153840    0.02917297
     atom   16 type  3   force =     0.92453880   -3.10151734    0.02920395
     The core correction contribution to forces
     atom    1 type  1   force =     0.00273560   -0.00280083    0.00412602
     atom    2 type  1   force =     0.00271539    0.00278908   -0.00412780
     atom    3 type  1   force =    -0.00271887    0.00280616   -0.00413188
     atom    4 type  1   force =    -0.00269841   -0.00281162    0.00412592
     atom    5 type  2   force =     0.00731210    0.00260326   -0.00310406
     atom    6 type  2   force =    -0.00731599   -0.00260322    0.00310346
     atom    7 type  2   force =     0.00732134   -0.00260323    0.00310229
     atom    8 type  2   force =    -0.00731742    0.00260327   -0.00310300
     atom    9 type  3   force =     0.00380134    0.00165268   -0.00148406
     atom   10 type  3   force =     0.00379996   -0.00165290    0.00148404
     atom   11 type  3   force =    -0.00380187   -0.00165281    0.00148421
     atom   12 type  3   force =    -0.00379925    0.00165290   -0.00148398
     atom   13 type  3   force =    -0.00098830   -0.00070065   -0.00150222
     atom   14 type  3   force =     0.00098805   -0.00070065   -0.00150222
     atom   15 type  3   force =     0.00098830    0.00070065    0.00150229
     atom   16 type  3   force =    -0.00098838    0.00070077    0.00150214
     The Hubbard contrib.    to forces
     atom    1 type  1   force =     0.00000000    0.00000000    0.00000000
     atom    2 type  1   force =     0.00000000    0.00000000    0.00000000
     atom    3 type  1   force =     0.00000000    0.00000000    0.00000000
     atom    4 type  1   force =     0.00000000    0.00000000    0.00000000
     atom    5 type  2   force =     0.00000000    0.00000000    0.00000000
     atom    6 type  2   force =     0.00000000    0.00000000    0.00000000
     atom    7 type  2   force =     0.00000000    0.00000000    0.00000000
     atom    8 type  2   force =     0.00000000    0.00000000    0.00000000
     atom    9 type  3   force =     0.00000000    0.00000000    0.00000000
     atom   10 type  3   force =     0.00000000    0.00000000    0.00000000
     atom   11 type  3   force =     0.00000000    0.00000000    0.00000000
     atom   12 type  3   force =     0.00000000    0.00000000    0.00000000
     atom   13 type  3   force =     0.00000000    0.00000000    0.00000000
     atom   14 type  3   force =     0.00000000    0.00000000    0.00000000
     atom   15 type  3   force =     0.00000000    0.00000000    0.00000000
     atom   16 type  3   force =     0.00000000    0.00000000    0.00000000
     The SCF correction term to forces
     atom    1 type  1   force =     0.00016285   -0.00006530   -0.00004278
     atom    2 type  1   force =    -0.00015747    0.00002256   -0.00002716
     atom    3 type  1   force =    -0.00012489   -0.00002764    0.00000478
     atom    4 type  1   force =     0.00001042    0.00000339    0.00004856
     atom    5 type  2   force =     0.00056887   -0.00000644    0.00003536
     atom    6 type  2   force =    -0.00023924    0.00002057   -0.00003148
     atom    7 type  2   force =    -0.00040825    0.00000955    0.00009435
     atom    8 type  2   force =     0.00008119    0.00000579   -0.00008302
     atom    9 type  3   force =     0.00020087    0.00000638   -0.00001491
     atom   10 type  3   force =    -0.00016689    0.00000321   -0.00002221
     atom   11 type  3   force =    -0.00013446    0.00000941    0.00000347
     atom   12 type  3   force =     0.00009745    0.00000678    0.00000743
     atom   13 type  3   force =     0.00005084   -0.00001764   -0.00001830
     atom   14 type  3   force =     0.00019508   -0.00000023    0.00001171
     atom   15 type  3   force =    -0.00015646    0.00000880    0.00002222
     atom   16 type  3   force =    -0.00008772   -0.00001052   -0.00000734

     Total force =     0.137343     Total SCF correction =     0.000906

     Computing stress (Cartesian axis) and pressure

          total   stress  (Ry/bohr**3)                   (kbar)     P=        5.33
   0.00011766   0.00000000   0.00000000           17.31        0.00        0.00
   0.00000000  -0.00028719  -0.00005845            0.00      -42.25       -8.60
   0.00000000  -0.00005845   0.00027817            0.00       -8.60       40.92

     kinetic stress (kbar)   6435.49      0.00      0.00
                                0.00   6365.52    -17.66
                                0.00    -17.66   6433.03

     local   stress (kbar)  -1334.22      0.00      0.00
                                0.00  -1873.25   -431.79
                                0.00   -431.79  -2581.73

     nonloc. stress (kbar)   4290.23      0.00      0.00
                                0.00   4299.58     -2.84
                                0.00     -2.84   4297.28

     hartree stress (kbar)   3482.47      0.00     -0.00
                                0.00   3598.89    170.62
                               -0.00    170.62   4009.80

     exc-cor stress (kbar)   6011.10     -0.00     -0.00
                               -0.00   6012.96      0.51
                               -0.00      0.51   6011.00

     corecor stress (kbar)  -8794.13      0.00      0.00
                                0.00  -8793.95     -0.01
                                0.00     -0.01  -8795.04

     ewald   stress (kbar) -10073.63     -0.00     -0.00
                               -0.00  -9651.99    272.57
                               -0.00    272.57  -9333.42

     hubbard stress (kbar)      0.00      0.00      0.00
                                0.00      0.00      0.00
                                0.00      0.00      0.00

     DFT-D   stress (kbar)      0.00      0.00      0.00
                                0.00      0.00      0.00
                                0.00      0.00      0.00

     XDM     stress (kbar)      0.00      0.00      0.00
                                0.00      0.00      0.00
                                0.00      0.00      0.00

     dft-nl  stress (kbar)      0.00      0.00      0.00
                                0.00      0.00      0.00
                                0.00      0.00      0.00

     TS-vdW  stress (kbar)      0.00      0.00      0.00
                                0.00      0.00      0.00
                                0.00      0.00      0.00

[...]

                                0.00      0.00      0.00

     Writing all to output data dir new_calculations/myprefix.save/

     General routines

     Parallel routines

     PAW routines

   This run was terminated on:  10:56:42  21May2023

   JOB DONE.