     Program PWSCF v.7.0 starts on 20May2023 at  8:48:14

     Reading input from espresso_19191.pwi
Warning: card &CELL ignored
Warning: card / ignored

     Current dimensions of program PWSCF are:
     Max number of different atomic species (ntypx) = 10
     Max number of k-points (npk) =  40000
     Max angular momentum in pseudopotentials (lmaxx) =  4

     gamma-point specific algorithms are used
     Message from routine setup:
     using ibrav=0 with symmetry is DISCOURAGED, use correct ibrav instead

     Subspace diagonalization in iterative solution of the eigenvalue problem:
     a serial algorithm will be used

     Using Slab Decomposition

     bravais-lattice index     =            0
     lattice parameter (alat)  =      15.4731  a.u.
     unit-cell volume          =    2619.5109 (a.u.)^3
     number of atoms/cell      =           10
     number of atomic types    =            4
     number of electrons       =        95.00
     number of Kohn-Sham states=           58
     kinetic-energy cutoff     =      30.0000  Ry
     charge density cutoff     =     240.0000  Ry
     scf convergence threshold =      1.0E-06
     mixing beta               =       0.7000
     number of iterations used =            8  plain     mixing
     Exchange-correlation=  SLA  PW   PBX  PBC
                           (   1   4   3   4   0   0   0)

     celldm(1)=  15.473138  celldm(2)=   0.000000  celldm(3)=   0.000000
     celldm(4)=   0.000000  celldm(5)=   0.000000  celldm(6)=   0.000000

     crystal axes: (cart. coord. in units of alat)
               a(1) = (   1.000000   0.000000   0.000000 )
               a(2) = (   0.500000   0.866025   0.000000 )
               a(3) = (   0.500000   0.288675   0.816497 )

     reciprocal axes: (cart. coord. in units 2 pi/alat)
               b(1) = (  1.000000 -0.577350 -0.408248 )
               b(2) = (  0.000000  1.154701 -0.408248 )
               b(3) = (  0.000000  0.000000  1.224745 )

     PseudoPot. # 1 for Rb read from file:
     /home/pragov/projects/rrg-bengioy-ad/pragov/crystal_structure_design/SSSP/Rb_ONCV_PBE-1.0.oncvpsp.upf
     MD5 check sum: 55a5172d6bfbce6759a58e35d43f6aa9
     Pseudo is Norm-conserving, Zval =  9.0
     Generated using ONCVPSP code by D. R. Hamann
     Using radial grid of 2308 points,  6 beta functions with:
                l(1) =   0
                l(2) =   0
                l(3) =   1
                l(4) =   1
                l(5) =   2
                l(6) =   2

     PseudoPot. # 2 for Hg read from file:
     /home/pragov/projects/rrg-bengioy-ad/pragov/crystal_structure_design/SSSP/Hg_ONCV_PBE-1.0.oncvpsp.upf
     MD5 check sum: dd5a8773074bfcf4280086d4d95875c4
     Pseudo is Norm-conserving, Zval = 20.0
     Generated using ONCVPSP code by D. R. Hamann
     Using radial grid of 1262 points,  8 beta functions with:
                l(1) =   0
                l(2) =   0
                l(3) =   1
                l(4) =   1
                l(5) =   2
                l(6) =   2
                l(7) =   3
                l(8) =   3

     PseudoPot. # 3 for Sb read from file:
     /home/pragov/projects/rrg-bengioy-ad/pragov/crystal_structure_design/SSSP/sb_pbe_v1.4.uspp.F.UPF
     MD5 check sum: 9bc50dfb53373b713f5709b9110fe27f
     Pseudo is Ultrasoft + core correction, Zval = 15.0
     Generated by new atomic code, or converted to UPF format
     Using radial grid of  891 points,  6 beta functions with:
                l(1) =   0
                l(2) =   0
                l(3) =   1
                l(4) =   1
                l(5) =   2
                l(6) =   2
     Q(r) pseudized with  8 coefficients,  rinner =    1.350   1.350   1.350
                                                       1.350   1.350

     PseudoPot. # 4 for Br read from file:
     /home/pragov/projects/rrg-bengioy-ad/pragov/crystal_structure_design/SSSP/br_pbe_v1.4.uspp.F.UPF
     MD5 check sum: d3ffb7b29f6225aa16fe06858fb2a80b
     Pseudo is Ultrasoft + core correction, Zval =  7.0
     Generated by new atomic code, or converted to UPF format
     Using radial grid of  879 points,  6 beta functions with:
                l(1) =   0
                l(2) =   0
                l(3) =   1
                l(4) =   1
                l(5) =   2
                l(6) =   2
     Q(r) pseudized with  8 coefficients,  rinner =    1.100   1.100   1.100
                                                       1.100   1.100

     atomic species   valence    mass     pseudopotential
        Rb             9.00    85.46780     Rb( 1.00)
        Hg            20.00   200.59200     Hg( 1.00)
        Sb            15.00   121.76000     Sb( 1.00)
        Br             7.00    79.90400     Br( 1.00)

     12 Sym. Ops., with inversion, found

                                    s                        frac. trans.

      isym =  1     identity

 cryst.   s( 1) = (     1          0          0      )
                  (     0          1          0      )
                  (     0          0          1      )

 cart.    s( 1) = (  1.0000000  0.0000000 -0.0000000 )
                  (  0.0000000  1.0000000 -0.0000000 )
                  (  0.0000000  0.0000000  1.0000000 )

      isym =  2     180 deg rotation - cart. axis [1,0,0]

[...]

      isym =  3     120 deg rotation - cryst. axis [0,0,1]

[...]

      isym =  6     180 deg rotation - cryst. axis [1,1,0]

[...]

      isym =  7     inversion

[...]

      isym =  8     inv. 180 deg rotation - cart. axis [1,0,0]

[...]

      isym =  9     inv. 120 deg rotation - cryst. axis [0,0,1]

 cryst.   s( 9) = (     1         -1          0      )
                  (     1          0          0      )
                  (     1          0         -1      )

 cart.    s( 9) = (  0.5000000  0.8660254  0.0000000 )
                  ( -0.8660254  0.5000000  0.0000000 )
                  (  0.0000000  0.0000000 -1.0000000 )

[...]

 cryst.   s(10) = (     0          1          0      )
                  (    -1          1          0      )
                  (     0          1         -1      )

 cart.    s(10) = (  0.5000000 -0.8660254 -0.0000000 )
                  (  0.8660254  0.5000000  0.0000000 )
                  (  0.0000000  0.0000000 -1.0000000 )

[...]

      isym = 12     inv. 180 deg rotation - cryst. axis [1,1,0]

 cryst.   s(12) = (     1         -1          0      )
                  (     0         -1          0      )
                  (     0         -1          1      )

 cart.    s(12) = (  0.5000000 -0.8660254 -0.0000000 )
                  ( -0.8660254 -0.5000000 -0.0000000 )
                  (  0.0000000  0.0000000  1.0000000 )

   Cartesian axes

     site n.     atom                  positions (alat units)
         1           Rb  tau(   1) = (   1.5000000   0.8660254   0.6123724  )
         2           Rb  tau(   2) = (   0.5000000   0.2886751   0.2041241  )
         3           Hg  tau(   3) = (   1.0000000   0.5773503   0.4082483  )
         4           Sb  tau(   4) = (   0.0000000   0.0000000   0.0000000  )
         5           Br  tau(   5) = (   1.0000000   0.2799814   0.1979767  )
         6           Br  tau(   6) = (   0.7424710   0.4286658   0.6185198  )
         7           Br  tau(   7) = (   1.0000000   0.8747191   0.6185198  )
         8           Br  tau(   8) = (   0.7424710   0.7260347   0.1979767  )
         9           Br  tau(   9) = (   1.2575290   0.4286658   0.6185198  )
        10           Br  tau(  10) = (   1.2575290   0.7260347   0.1979767  )

   Crystallographic axes

     site n.     atom                  positions (cryst. coord.)
         1           Rb  tau(   1) = (  0.7500000  0.7500000  0.7500000  )
         2           Rb  tau(   2) = (  0.2500000  0.2500000  0.2500000  )
         3           Hg  tau(   3) = (  0.5000000  0.5000000  0.5000000  )
         4           Sb  tau(   4) = (  0.0000000  0.0000000  0.0000000  )
         5           Br  tau(   5) = (  0.7575290  0.2424710  0.2424710  )
         6           Br  tau(   6) = (  0.2424710  0.2424710  0.7575290  )
         7           Br  tau(   7) = (  0.2424710  0.7575290  0.7575290  )
         8           Br  tau(   8) = (  0.2424710  0.7575290  0.2424710  )
         9           Br  tau(   9) = (  0.7575290  0.2424710  0.7575290  )
        10           Br  tau(  10) = (  0.7575290  0.7575290  0.2424710  )

     number of k points=     1  Methfessel-Paxton smearing, width (Ry)=  0.0010
                       cart. coord. in units 2pi/alat
        k(    1) = (   0.0000000   0.0000000   0.0000000), wk =   2.0000000

                       cryst. coord.
        k(    1) = (   0.0000000   0.0000000   0.0000000), wk =   2.0000000

     Check: negative core charge=   -0.000002

     Initial potential from superposition of free atoms

     starting charge      93.9503, renormalised to      95.0000
     Starting wfcs are   53 randomized atomic wfcs +    5 random wfcs

     Self-consistent Calculation

     iteration #  1     ecut=    30.00 Ry     beta= 0.70
     Davidson diagonalization with overlap

     ethr =  1.00E-02,  avg # of iterations =  9.0

     total energy              =    -873.45821035 Ry
     estimated scf accuracy    <       1.53020364 Ry

[...]

     ethr =  8.61E-06,  avg # of iterations =  1.0
     Minimization algorithm failed to find Fermi energy: reverting to bisection
     Possible cause: smearing is larger than the electronic band-gap.

[...]

     ethr =  8.38E-06,  avg # of iterations =  1.0
     Minimization algorithm failed to find Fermi energy: reverting to bisection
     Possible cause: smearing is larger than the electronic band-gap.

[...]

     total energy              =    -874.29520646 Ry
     estimated scf accuracy    <       0.00002229 Ry

     iteration # 34     ecut=    30.00 Ry     beta= 0.70
     Davidson diagonalization with overlap

     ethr =  4.00E-09,  avg # of iterations =  1.0

     End of self-consistent calculation

          k = 0.0000 0.0000 0.0000 (  3672 PWs)   bands (ev):

  -111.6582 -59.5459 -59.5459 -59.5459 -26.4452 -26.4452 -26.4451 -26.4420
   -26.4419 -23.5451 -23.5446 -11.2594 -10.7657 -10.7656 -10.7656 -10.6091
   -10.6090  -7.6066  -7.6066  -7.6066  -7.5968  -7.5968  -7.5968  -5.8371
    -2.5991  -2.5991  -2.4041  -2.4041  -2.4040  -0.9892  -0.9891  -0.9891
    -0.4068   0.6922   0.6922   0.6923   1.5522   1.5522   1.5522   1.6234
     1.6234   1.6234   1.6726   1.6727   2.0840   2.0840   2.0841   5.1860
     5.1888   5.1889   5.1889   6.3416   7.5560   8.1783   8.1783   8.9087
     8.9087   8.9087

     occupation numbers
     1.0000   1.0000   1.0000   1.0000   1.0000   1.0000   1.0000   1.0000
     1.0000   1.0000   1.0000   1.0000   1.0000   1.0000   1.0000   1.0000
     1.0000   1.0000   1.0000   1.0000   1.0000   1.0000   1.0000   1.0000
     1.0000   1.0000   1.0000   1.0000   1.0000   1.0000   1.0000   1.0000
     1.0000   1.0000   1.0000   1.0000   1.0000   1.0000   1.0000   1.0000
     1.0000   1.0000   1.0000   1.0000   1.0000   1.0000   1.0000   0.2148
     0.0965   0.0946   0.0940  -0.0000  -0.0000  -0.0000  -0.0000  -0.0000
    -0.0000  -0.0000

     the Fermi energy is     5.1811 ev

!    total energy              =    -874.29520647 Ry
     estimated scf accuracy    <       0.00000080 Ry
     smearing contrib. (-TS)   =      -0.00040072 Ry
     internal energy E=F+TS    =    -874.29480575 Ry

     The total energy is F=E-TS. E is the sum of the following terms:
     one-electron contribution =    -486.42201929 Ry
     hartree contribution      =     266.23923565 Ry
     xc contribution           =    -243.40668864 Ry
     ewald contribution        =    -410.70533347 Ry

     convergence has been achieved in  34 iterations

     Forces acting on atoms (cartesian axes, Ry/au):

     atom    1 type  1   force =    -0.00000000   -0.00000000   -0.00000106
     atom    2 type  1   force =    -0.00000000    0.00000000    0.00000106
     atom    3 type  2   force =    -0.00000000   -0.00000000    0.00000000
     atom    4 type  3   force =    -0.00000000   -0.00000000    0.00000000
     atom    5 type  4   force =     0.00000000   -0.01226694   -0.00863178
     atom    6 type  4   force =    -0.01062348   -0.00613347    0.00863178
     atom    7 type  4   force =     0.00000000    0.01226694    0.00863178
     atom    8 type  4   force =    -0.01062348    0.00613347   -0.00863178
     atom    9 type  4   force =     0.01062348   -0.00613347    0.00863178
     atom   10 type  4   force =     0.01062348    0.00613347   -0.00863178
     The non-local contrib.  to forces
     atom    1 type  1   force =    -0.00000000   -0.00000000    0.00000040
     atom    2 type  1   force =     0.00000000    0.00000000   -0.00000040
     atom    3 type  2   force =     0.00000000    0.00000000   -0.00000000
     atom    4 type  3   force =    -0.00000000   -0.00000000    0.00000000
     atom    5 type  4   force =    -0.00000000    0.01119817    0.00791746
     atom    6 type  4   force =     0.00969790    0.00559909   -0.00791746
     atom    7 type  4   force =    -0.00000000   -0.01119817   -0.00791746
     atom    8 type  4   force =     0.00969790   -0.00559909    0.00791746
     atom    9 type  4   force =    -0.00969790    0.00559909   -0.00791746
     atom   10 type  4   force =    -0.00969790   -0.00559909    0.00791746
     The ionic contribution  to forces
     atom    1 type  1   force =     0.00000000    0.00000000   -0.00000000
     atom    2 type  1   force =     0.00000000   -0.00000000    0.00000000
     atom    3 type  2   force =    -0.00000000    0.00000000    0.00000000
     atom    4 type  3   force =    -0.00000000   -0.00000000   -0.00000000
     atom    5 type  4   force =     0.00000000   -0.17347306   -0.12266397
     atom    6 type  4   force =    -0.15023207   -0.08673653    0.12266397
     atom    7 type  4   force =    -0.00000000    0.17347305    0.12266397
     atom    8 type  4   force =    -0.15023207    0.08673653   -0.12266397
     atom    9 type  4   force =     0.15023207   -0.08673653    0.12266397
     atom   10 type  4   force =     0.15023207    0.08673653   -0.12266397
     The local contribution  to forces
     atom    1 type  1   force =    -0.00003422   -0.00001010   -0.00000381
     atom    2 type  1   force =     0.00000710   -0.00003212    0.00001749
     atom    3 type  2   force =     0.00134706    0.00284897   -0.00052163
     atom    4 type  3   force =     0.00154993    0.00336934   -0.00059748
     atom    5 type  4   force =    -0.00001821    0.14155630    0.10014049
     atom    6 type  4   force =     0.12281051    0.07086966   -0.10029951
     atom    7 type  4   force =     0.00003273   -0.14154581   -0.10014273
     atom    8 type  4   force =     0.12250536   -0.07070950    0.10002437
     atom    9 type  4   force =    -0.12251445    0.07073502   -0.10005291
     atom   10 type  4   force =    -0.12279857   -0.07085880    0.10029625
     The core correction contribution to forces
     atom    1 type  1   force =     0.00000000    0.00000000    0.00000000
     atom    2 type  1   force =     0.00000000    0.00000000    0.00000000
     atom    3 type  2   force =     0.00000000    0.00000000    0.00000000
     atom    4 type  3   force =     0.00003739    0.00007727   -0.00001117
     atom    5 type  4   force =    -0.00000267    0.00882903    0.00624623
     atom    6 type  4   force =     0.00761251    0.00439087   -0.00621513
     atom    7 type  4   force =    -0.00000409   -0.00887884   -0.00626812
     atom    8 type  4   force =     0.00768363   -0.00444721    0.00627670
     atom    9 type  4   force =    -0.00768282    0.00442687   -0.00626721
     atom   10 type  4   force =    -0.00765581   -0.00442773    0.00624731
     The Hubbard contrib.    to forces
     atom    1 type  1   force =     0.00000000    0.00000000    0.00000000
     atom    2 type  1   force =     0.00000000    0.00000000    0.00000000
     atom    3 type  2   force =     0.00000000    0.00000000    0.00000000
     atom    4 type  3   force =     0.00000000    0.00000000    0.00000000
     atom    5 type  4   force =     0.00000000    0.00000000    0.00000000
     atom    6 type  4   force =     0.00000000    0.00000000    0.00000000
     atom    7 type  4   force =     0.00000000    0.00000000    0.00000000
     atom    8 type  4   force =     0.00000000    0.00000000    0.00000000
     atom    9 type  4   force =     0.00000000    0.00000000    0.00000000
     atom   10 type  4   force =     0.00000000    0.00000000    0.00000000
     The SCF correction term to forces
     atom    1 type  1   force =     0.00003369    0.00001250    0.00000061
     atom    2 type  1   force =    -0.00000800    0.00003018   -0.00001778
     atom    3 type  2   force =    -0.00089699   -0.00191814    0.00039250
     atom    4 type  3   force =    -0.00102798   -0.00223458    0.00037961
     atom    5 type  4   force =    -0.00000806   -0.00032047   -0.00018423
     atom    6 type  4   force =    -0.00021113   -0.00014141    0.00016728
     atom    7 type  4   force =    -0.00002104    0.00056376    0.00040627
     atom    8 type  4   force =    -0.00043481    0.00023238   -0.00032744
     atom    9 type  4   force =     0.00034261   -0.00024152    0.00029357
     atom   10 type  4   force =     0.00050201    0.00027990   -0.00040976

     Total force =     0.036741     Total SCF correction =     0.003558

     Computing stress (Cartesian axis) and pressure

          total   stress  (Ry/bohr**3)                   (kbar)     P=      -59.55
  -0.00040499   0.00000000   0.00000000          -59.58        0.00        0.00
   0.00000000  -0.00040499  -0.00000000            0.00      -59.58       -0.00
   0.00000000  -0.00000000  -0.00040455            0.00       -0.00      -59.51

     kinetic stress (kbar)   7908.92     -0.00     -0.00
                                0.00   7908.92      0.00
                                0.00      0.00   7908.89

     local   stress (kbar)  -2400.20     -0.40      0.31
                               -0.40  -2400.47      0.20
                                0.31      0.20  -2399.85

     nonloc. stress (kbar)   -780.52     -0.00     -0.00
                               -0.00   -780.52     -0.00
                                0.00     -0.00   -780.64

     hartree stress (kbar)   4983.79      0.24     -0.21
                                0.24   4983.93     -0.12
                               -0.21     -0.12   4983.59

     exc-cor stress (kbar)   6131.79      0.00     -0.00
                                0.00   6131.79     -0.00
                               -0.00     -0.00   6131.78

     corecor stress (kbar)  -8215.23     -0.00      0.00
                               -0.00  -8215.24      0.00
                                0.00      0.00  -8215.23

     ewald   stress (kbar)  -7688.06     -0.00      0.00
                               -0.00  -7688.06      0.00
                                0.00      0.00  -7688.06

     hubbard stress (kbar)      0.00      0.00      0.00
                                0.00      0.00      0.00
                                0.00      0.00      0.00

     DFT-D   stress (kbar)      0.00      0.00      0.00
                                0.00      0.00      0.00
                                0.00      0.00      0.00

     XDM     stress (kbar)      0.00      0.00      0.00
                                0.00      0.00      0.00
                                0.00      0.00      0.00

     dft-nl  stress (kbar)      0.00      0.00      0.00
                                0.00      0.00      0.00
                                0.00      0.00      0.00

     TS-vdW  stress (kbar)      0.00      0.00      0.00
                                0.00      0.00      0.00
                                0.00      0.00      0.00

[...]

                                0.00      0.00      0.00

     Writing all to output data dir new_calculations/myprefix.save/

     General routines

     Parallel routines

   This run was terminated on:   8:49: 7  20May2023

   JOB DONE.