     Program PWSCF v.7.0 starts on 20May2023 at  8: 6:47

     Reading input from espresso_12171.pwi
Warning: card &CELL ignored
Warning: card / ignored

     Current dimensions of program PWSCF are:
     Max number of different atomic species (ntypx) = 10
     Max number of k-points (npk) =  40000
     Max angular momentum in pseudopotentials (lmaxx) =  4
     file O.pbe-n-kjpaw_psl.0.1.UPF: wavefunction(s)  2P renormalized

     gamma-point specific algorithms are used
     Message from routine setup:
     using ibrav=0 with symmetry is DISCOURAGED, use correct ibrav instead

     Subspace diagonalization in iterative solution of the eigenvalue problem:
     a serial algorithm will be used

     Using Slab Decomposition

     bravais-lattice index     =            0
     lattice parameter (alat)  =      12.4430  a.u.
     unit-cell volume          =    1259.7159 (a.u.)^3
     number of atoms/cell      =           13
     number of atomic types    =            3
     number of electrons       =       110.00
     number of Kohn-Sham states=           66
     kinetic-energy cutoff     =      30.0000  Ry
     charge density cutoff     =     240.0000  Ry
     scf convergence threshold =      1.0E-06
     mixing beta               =       0.7000
     number of iterations used =            8  plain     mixing
     Exchange-correlation= SLA  PW   PBX  PBC
                           (   1   4   3   4   0   0   0)

     celldm(1)=  12.443030  celldm(2)=   0.000000  celldm(3)=   0.000000
     celldm(4)=   0.000000  celldm(5)=   0.000000  celldm(6)=   0.000000

     crystal axes: (cart. coord. in units of alat)
               a(1) = (   1.000000   0.000000   0.000000 )
               a(2) = (   0.524333   0.851513   0.000000 )
               a(3) = (   0.254152   0.141973   0.767897 )

     reciprocal axes: (cart. coord. in units 2 pi/alat)
               b(1) = (  1.000000 -0.615767 -0.217125 )
               b(2) = (  0.000000  1.174380 -0.217125 )
               b(3) = (  0.000000  0.000000  1.302258 )

     PseudoPot. # 1 for Ca read from file:
     /home/pragov/projects/rrg-bengioy-ad/pragov/crystal_structure_design/SSSP/Ca_pbe_v1.uspp.F.UPF
     MD5 check sum: 403a4c14b9e4d4dfdc3024c9a3812218
     Pseudo is Ultrasoft + core correction, Zval = 10.0
     Generated by new atomic code, or converted to UPF format
     Using radial grid of  845 points,  6 beta functions with:
                l(1) =   0
                l(2) =   0
                l(3) =   1
                l(4) =   1
                l(5) =   2
                l(6) =   2
     Q(r) pseudized with  8 coefficients,  rinner =    1.500   1.500   1.500
                                                       1.500   1.500

     PseudoPot. # 2 for Sn read from file:
     /home/pragov/projects/rrg-bengioy-ad/pragov/crystal_structure_design/SSSP/Sn_pbe_v1.uspp.F.UPF
     MD5 check sum: 4cf58ce39ec5d5d420df3dd08604eb00
     Pseudo is Ultrasoft + core correction, Zval = 14.0
     Generated by new atomic code, or converted to UPF format
     Using radial grid of  891 points,  6 beta functions with:
                l(1) =   0
                l(2) =   0
                l(3) =   1
                l(4) =   1
                l(5) =   2
                l(6) =   2
     Q(r) pseudized with  6 coefficients,  rinner =    1.200   1.200   1.200
                                                       1.200   1.200

     PseudoPot. # 3 for O  read from file:
     /home/pragov/projects/rrg-bengioy-ad/pragov/crystal_structure_design/SSSP/O.pbe-n-kjpaw_psl.0.1.UPF
     MD5 check sum: 0234752ac141de4415c5fc33072bef88
     Pseudo is Projector augmented-wave + core cor, Zval =  6.0
     Generated using "atomic" code by A. Dal Corso  v.5.0.99 svn rev. 10869
     Shape of augmentation charge: BESSEL
     Using radial grid of 1095 points,  4 beta functions with:
                l(1) =   0
                l(2) =   0
                l(3) =   1
                l(4) =   1
     Q(r) pseudized with 0 coefficients

     atomic species   valence    mass     pseudopotential
        Ca            10.00    40.07800     Ca( 1.00)
        Sn            14.00   118.71000     Sn( 1.00)
        O              6.00    15.99900     O ( 1.00)

      2 Sym. Ops., with inversion, found

                                    s                        frac. trans.

      isym =  1     identity

 cryst.   s( 1) = (     1          0          0      )
                  (     0          1          0      )
                  (     0          0          1      )

 cart.    s( 1) = (  1.0000000 -0.0000000 -0.0000000 )
                  (  0.0000000  1.0000000 -0.0000000 )
                  (  0.0000000  0.0000000  1.0000000 )

      isym =  2     inversion

 cryst.   s( 2) = (    -1          0          0      )
                  (     0         -1          0      )
                  (     0          0         -1      )

 cart.    s( 2) = ( -1.0000000  0.0000000  0.0000000 )
                  (  0.0000000 -1.0000000  0.0000000 )
                  (  0.0000000  0.0000000 -1.0000000 )

   Cartesian axes

     site n.     atom                  positions (alat units)
         1           Ca  tau(   1) = (   1.1845788   0.6617215   0.2629479  )
         2           Ca  tau(   2) = (   0.5939065   0.3317641   0.5049490  )
         3           Sn  tau(   3) = (   0.1270759   0.0709863   0.3839484  )
         4           Sn  tau(   4) = (   0.8751033   0.2235835   0.0000000  )
         5           Sn  tau(   5) = (   0.6492302   0.6279295   0.0000000  )
         6           O   tau(   6) = (   0.8339554   0.4658586   0.7275992  )
         7           O   tau(   7) = (   0.9445298   0.5276270   0.0402977  )
         8           O   tau(   8) = (   1.6013754   0.8945497   0.7027070  )
         9           O   tau(   9) = (   0.1771098   0.0989359   0.0651898  )
        10           O   tau(  10) = (   0.9494433   0.8410216   0.4615175  )
        11           O   tau(  11) = (   1.2139657   0.3674875   0.4615175  )
        12           O   tau(  12) = (   0.5645195   0.6259980   0.3063793  )
        13           O   tau(  13) = (   0.8290419   0.1524640   0.3063793  )

   Crystallographic axes

     site n.     atom                  positions (cryst. coord.)
         1           Ca  tau(   1) = (  0.7200200  0.7200200  0.3424260  )
         2           Ca  tau(   2) = (  0.2799800  0.2799800  0.6575740  )
         3           Sn  tau(   3) = ( -0.0000000  0.0000000  0.5000000  )
         4           Sn  tau(   4) = (  0.7374280  0.2625720  0.0000000  )
         5           Sn  tau(   5) = (  0.2625720  0.7374280  0.0000000  )
         6           O   tau(   6) = (  0.3891150  0.3891150  0.9475220  )
         7           O   tau(   7) = (  0.6108850  0.6108850  0.0524780  )
         8           O   tau(   8) = (  0.8979660  0.8979660  0.9151060  )
         9           O   tau(   9) = (  0.1020340  0.1020340  0.0848940  )
        10           O   tau(  10) = (  0.3313630  0.8874720  0.6010150  )
        11           O   tau(  11) = (  0.8874720  0.3313630  0.6010150  )
        12           O   tau(  12) = (  0.1125280  0.6686370  0.3989850  )
        13           O   tau(  13) = (  0.6686370  0.1125280  0.3989850  )

     number of k points=     1  Methfessel-Paxton smearing, width (Ry)=  0.0010
                       cart. coord. in units 2pi/alat
        k(    1) = (   0.0000000   0.0000000   0.0000000), wk =   2.0000000

                       cryst. coord.
        k(    1) = (   0.0000000   0.0000000   0.0000000), wk =   2.0000000

     Check: negative core charge=   -0.000010

     Initial potential from superposition of free atoms

     starting charge     106.9889, renormalised to     110.0000
     Starting wfcs are   79 randomized atomic wfcs
     Checking if some PAW data can be deallocated...

     Self-consistent Calculation

     iteration #  1     ecut=    30.00 Ry     beta= 0.70
     Davidson diagonalization with overlap

     ethr =  1.00E-02,  avg # of iterations =  4.0

     total energy              =    -971.81412535 Ry
     estimated scf accuracy    <       2.80422429 Ry

[...]

     total energy              =    -973.16275223 Ry
     estimated scf accuracy    <       0.00000127 Ry

     iteration #  9     ecut=    30.00 Ry     beta= 0.70
     Davidson diagonalization with overlap

     ethr =  1.16E-09,  avg # of iterations =  4.0

     End of self-consistent calculation

          k = 0.0000 0.0000 0.0000 (  1742 PWs)   bands (ev):

   -30.7808 -30.7709 -13.5082 -13.4311 -13.2158 -13.0291 -12.9380 -12.8926
   -12.8103 -12.7535 -12.7398 -12.7011 -12.6973 -12.6575 -12.6248 -12.6059
   -12.5566 -12.0286 -12.0023 -11.9091 -11.8606 -11.8489 -11.8278 -10.8552
    -9.5775  -9.3580  -9.1805  -9.0706  -8.4345  -8.1107  -8.0395   0.7294
     0.8793   1.8791   2.6602   3.1451   3.5157   3.6277   4.1142   4.5103
     5.0430   5.2797   5.4536   5.7781   5.8824   5.8984   6.0646   6.1144
     6.1494   6.3067   6.3755   6.4937   6.5033   6.5994   6.6669   9.2549
    12.3594  12.8754  13.0234  13.9013  14.0692  14.1663  14.3820  14.5584
    14.6130  15.0039

     occupation numbers
     1.0000   1.0000   1.0000   1.0000   1.0000   1.0000   1.0000   1.0000
     1.0000   1.0000   1.0000   1.0000   1.0000   1.0000   1.0000   1.0000
     1.0000   1.0000   1.0000   1.0000   1.0000   1.0000   1.0000   1.0000
     1.0000   1.0000   1.0000   1.0000   1.0000   1.0000   1.0000   1.0000
     1.0000   1.0000   1.0000   1.0000   1.0000   1.0000   1.0000   1.0000
     1.0000   1.0000   1.0000   1.0000   1.0000   1.0000   1.0000   1.0000
     1.0000   1.0000   1.0000   1.0000   1.0000   1.0000   1.0000  -0.0000
    -0.0000  -0.0000  -0.0000  -0.0000  -0.0000  -0.0000  -0.0000  -0.0000
    -0.0000  -0.0000

     the Fermi energy is     7.9436 ev

!    total energy              =    -973.16275208 Ry
     estimated scf accuracy    <       0.00000090 Ry
     smearing contrib. (-TS)   =       0.00000000 Ry
     internal energy E=F+TS    =    -973.16275208 Ry

     The total energy is F=E-TS. E is the sum of the following terms:
     one-electron contribution =    -362.88162475 Ry
     hartree contribution      =     252.79163705 Ry
     xc contribution           =    -227.02642798 Ry
     ewald contribution        =    -559.86894825 Ry
     one-center paw contrib.   =     -76.17738815 Ry
      -> PAW hartree energy AE =     236.94444074 Ry
      -> PAW hartree energy PS =    -236.11596252 Ry
      -> PAW xc energy AE      =    -137.32668120 Ry
      -> PAW xc energy PS      =      60.32081482 Ry
      -> total E_H with PAW    =     253.62011528 Ry
      -> total E_XC with PAW   =    -304.03229435 Ry

     convergence has been achieved in   9 iterations

     Forces acting on atoms (cartesian axes, Ry/au):

     atom    1 type  1   force =    -0.00593100   -0.00334926    0.00281071
     atom    2 type  1   force =     0.00593100    0.00334926   -0.00281071
     atom    3 type  2   force =     0.00000000    0.00000000    0.00000000
     atom    4 type  2   force =     0.00080589   -0.00150507    0.00002930
     atom    5 type  2   force =    -0.00080589    0.00150507   -0.00002930
     atom    6 type  3   force =    -0.00082263   -0.00045877   -0.00965246
     atom    7 type  3   force =     0.00082263    0.00045877    0.00965246
     atom    8 type  3   force =     0.00053897    0.00030330   -0.00560001
     atom    9 type  3   force =    -0.00053897   -0.00030330    0.00560001
     atom   10 type  3   force =     0.00285029   -0.00445876    0.00817212
     atom   11 type  3   force =    -0.00229797    0.00478292    0.00816380
     atom   12 type  3   force =     0.00229797   -0.00478292   -0.00816380
     atom   13 type  3   force =    -0.00285029    0.00445876   -0.00817212
     The non-local contrib.  to forces
     atom    1 type  1   force =     0.01193403    0.00664083   -0.00487044
     atom    2 type  1   force =    -0.01193403   -0.00664083    0.00487044
     atom    3 type  2   force =     0.00000000    0.00000000    0.00000000
     atom    4 type  2   force =     0.08411486   -0.15061817   -0.00000248
     atom    5 type  2   force =    -0.08411486    0.15061817    0.00000248
     atom    6 type  3   force =     0.86313710    0.48216416    0.06170592
     atom    7 type  3   force =    -0.86313710   -0.48216416   -0.06170592
     atom    8 type  3   force =     0.67855045    0.37905965   -0.36325476
     atom    9 type  3   force =    -0.67855045   -0.37905965    0.36325476
     atom   10 type  3   force =    -0.65685401    0.05599132    0.47114384
     atom   11 type  3   force =    -0.29670254   -0.58857771    0.47111251
     atom   12 type  3   force =     0.29670254    0.58857771   -0.47111251
     atom   13 type  3   force =     0.65685401   -0.05599132   -0.47114384
     The ionic contribution  to forces
     atom    1 type  1   force =    -2.09106205   -1.16809515   -0.17332567
     atom    2 type  1   force =     2.09106205    1.16809515    0.17332566
     atom    3 type  2   force =     0.00000000    0.00000000    0.00000000
     atom    4 type  2   force =    -2.62671114    4.70219913   -0.00000000
     atom    5 type  2   force =     2.62671114   -4.70219913    0.00000000
     atom    6 type  3   force =    -8.67647999   -4.84679742   -0.01314955
     atom    7 type  3   force =     8.67647999    4.84679742    0.01314955
     atom    8 type  3   force =   -10.14777566   -5.66868281    2.30999430
     atom    9 type  3   force =    10.14777566    5.66868281   -2.30999430
     atom   10 type  3   force =     7.41796853   -1.22495611   -5.61252350
     atom   11 type  3   force =     2.84642318    6.95878219   -5.61252350
     atom   12 type  3   force =    -2.84642318   -6.95878219    5.61252350
     atom   13 type  3   force =    -7.41796853    1.22495611    5.61252350
     The local contribution  to forces
     atom    1 type  1   force =     2.07323857    1.15797836    0.18065781
     atom    2 type  1   force =    -2.07329768   -1.15798522   -0.18062432
     atom    3 type  2   force =     0.00003106    0.00000872   -0.00002600
     atom    4 type  2   force =     2.54840926   -4.56184854   -0.00005807
     atom    5 type  2   force =    -2.54834511    4.56189077    0.00005311
     atom    6 type  3   force =     7.82128100    4.36909260   -0.05747677
     atom    7 type  3   force =    -7.82130970   -4.36910326    0.05748217
     atom    8 type  3   force =     9.47664606    5.29374729   -1.95626548
     atom    9 type  3   force =    -9.47666609   -5.29375733    1.95626745
     atom   10 type  3   force =    -6.76553267    1.16528478    5.15448217
     atom   11 type  3   force =    -2.55512397   -6.37198601    5.15448783
     atom   12 type  3   force =     2.55512112    6.37196980   -5.15447720
     atom   13 type  3   force =     6.76550733   -1.16528052   -5.15447341
     The core correction contribution to forces
     atom    1 type  1   force =     0.00022790    0.00012596    0.00004246
     atom    2 type  1   force =    -0.00022856   -0.00012592   -0.00004221
     atom    3 type  2   force =    -0.00000046   -0.00000001    0.00000107
     atom    4 type  2   force =    -0.00424308    0.00759292    0.00000292
     atom    5 type  2   force =     0.00424139   -0.00759376   -0.00000283
     atom    6 type  3   force =    -0.00913723   -0.00510426   -0.00084320
     atom    7 type  3   force =     0.00913693    0.00510406    0.00084317
     atom    8 type  3   force =    -0.00688611   -0.00384682    0.00395442
     atom    9 type  3   force =     0.00688549    0.00384660   -0.00395426
     atom   10 type  3   force =     0.00702725   -0.00057708   -0.00499477
     atom   11 type  3   force =     0.00319286    0.00628504   -0.00499436
     atom   12 type  3   force =    -0.00319307   -0.00628522    0.00499459
     atom   13 type  3   force =    -0.00702763    0.00057703    0.00499498
     The Hubbard contrib.    to forces
     atom    1 type  1   force =     0.00000000    0.00000000    0.00000000
     atom    2 type  1   force =     0.00000000    0.00000000    0.00000000
     atom    3 type  2   force =     0.00000000    0.00000000    0.00000000
     atom    4 type  2   force =     0.00000000    0.00000000    0.00000000
     atom    5 type  2   force =     0.00000000    0.00000000    0.00000000
     atom    6 type  3   force =     0.00000000    0.00000000    0.00000000
     atom    7 type  3   force =     0.00000000    0.00000000    0.00000000
     atom    8 type  3   force =     0.00000000    0.00000000    0.00000000
     atom    9 type  3   force =     0.00000000    0.00000000    0.00000000
     atom   10 type  3   force =     0.00000000    0.00000000    0.00000000
     atom   11 type  3   force =     0.00000000    0.00000000    0.00000000
     atom   12 type  3   force =     0.00000000    0.00000000    0.00000000
     atom   13 type  3   force =     0.00000000    0.00000000    0.00000000
     The SCF correction term to forces
     atom    1 type  1   force =    -0.00027020    0.00000302    0.00030756
     atom    2 type  1   force =     0.00032848    0.00000835   -0.00033926
     atom    3 type  2   force =    -0.00003843   -0.00000909    0.00004310
     atom    4 type  2   force =    -0.00077822    0.00116064    0.00008686
     atom    5 type  2   force =     0.00068734   -0.00121993   -0.00008213
     atom    6 type  3   force =     0.00036861    0.00018047    0.00011043
     atom    7 type  3   force =    -0.00035537   -0.00018100   -0.00011722
     atom    8 type  3   force =    -0.00001326    0.00001918   -0.00002236
     atom    9 type  3   force =    -0.00000108   -0.00002254    0.00003249
     atom   10 type  3   force =     0.00023163   -0.00020337    0.00007013
     atom   11 type  3   force =    -0.00009491    0.00027444    0.00008628
     atom   12 type  3   force =     0.00008315   -0.00026798   -0.00008723
     atom   13 type  3   force =    -0.00022503    0.00019577   -0.00006762

     Total force =     0.027298     Total SCF correction =     0.002247

     Computing stress (Cartesian axis) and pressure

          total   stress  (Ry/bohr**3)                   (kbar)     P=     -307.94
  -0.00205049  -0.00013919  -0.00007929         -301.64      -20.48      -11.66
  -0.00013919  -0.00187925  -0.00004427          -20.48     -276.45       -6.51
  -0.00007929  -0.00004427  -0.00235018          -11.66       -6.51     -345.72

     kinetic stress (kbar)  18879.75     41.68    -47.02
                               41.68  18828.44    -26.26
                              -47.02    -26.26  18727.63

     local   stress (kbar)    511.84   8482.30  -5300.94
                             8482.30  -9934.55  -2961.16
                            -5300.94  -2961.16 -11465.55

     nonloc. stress (kbar)   5794.40    -27.05      1.81
                              -27.05   5827.71      1.01
                                1.81      1.01   5826.86

     hartree stress (kbar)   6613.99  -3622.12   2301.86
                            -3622.12  11074.86   1285.83
                             2301.86   1285.83  11831.25

     exc-cor stress (kbar)   4855.90     -1.90      1.33
                               -1.90   4858.24      0.74
                                1.33      0.74   4858.03

     corecor stress (kbar) -10876.87      1.09     -0.05
                                1.09 -10878.22     -0.03
                               -0.05     -0.03 -10878.04

     ewald   stress (kbar) -26080.64  -4894.48   3031.35
                            -4894.48 -20052.93   1693.35
                             3031.35   1693.35 -19245.91

     hubbard stress (kbar)      0.00      0.00      0.00
                                0.00      0.00      0.00
                                0.00      0.00      0.00

     DFT-D   stress (kbar)      0.00      0.00      0.00
                                0.00      0.00      0.00
                                0.00      0.00      0.00

     XDM     stress (kbar)      0.00      0.00      0.00
                                0.00      0.00      0.00
                                0.00      0.00      0.00

     dft-nl  stress (kbar)      0.00      0.00      0.00
                                0.00      0.00      0.00
                                0.00      0.00      0.00

     TS-vdW  stress (kbar)      0.00      0.00      0.00
                                0.00      0.00      0.00
                                0.00      0.00      0.00

[...]

                                0.00      0.00      0.00

     Writing all to output data dir new_calculations/myprefix.save/

     General routines

     Parallel routines

     PAW routines

   This run was terminated on:   8: 7:24  20May2023

   JOB DONE.