     Program PWSCF v.7.0 starts on 20May2023 at 16:44: 2

     Reading input from espresso_1534.pwi
Warning: card &CELL ignored
Warning: card / ignored

     Current dimensions of program PWSCF are:
     Max number of different atomic species (ntypx) = 10
     Max number of k-points (npk) =  40000
     Max angular momentum in pseudopotentials (lmaxx) =  4
     file Cd.pbe-dn-rrkjus_psl.0.3.1.UPF: wavefunction(s)  4D renormalized

     gamma-point specific algorithms are used
     Message from routine setup:
     using ibrav=0 with symmetry is DISCOURAGED, use correct ibrav instead

     Subspace diagonalization in iterative solution of the eigenvalue problem:
     a serial algorithm will be used

     Using Slab Decomposition

     bravais-lattice index     =            0
     lattice parameter (alat)  =      14.8215  a.u.
     unit-cell volume          =    1486.1692 (a.u.)^3
     number of atoms/cell      =            9
     number of atomic types    =            3
     number of electrons       =       123.00
     number of Kohn-Sham states=           74
     kinetic-energy cutoff     =      30.0000  Ry
     charge density cutoff     =     240.0000  Ry
     scf convergence threshold =      1.0E-06
     mixing beta               =       0.7000
     number of iterations used =            8  plain     mixing
     Exchange-correlation= PBE
                           (   1   4   3   4   0   0   0)

     celldm(1)=  14.821464  celldm(2)=   0.000000  celldm(3)=   0.000000
     celldm(4)=   0.000000  celldm(5)=   0.000000  celldm(6)=   0.000000

     crystal axes: (cart. coord. in units of alat)
               a(1) = (   1.000000   0.000000   0.000000 )
               a(2) = (  -0.500000   0.866025   0.000000 )
               a(3) = (   0.000000   0.000000   0.527065 )

     reciprocal axes: (cart. coord. in units 2 pi/alat)
               b(1) = (  1.000000  0.577350  0.000000 )
               b(2) = (  0.000000  1.154701  0.000000 )
               b(3) = (  0.000000  0.000000  1.897298 )

     PseudoPot. # 1 for La read from file:
     /home/pragov/projects/rrg-bengioy-ad/pragov/crystal_structure_design/SSSP/La.GGA-PBE-paw-v1.0.UPF
     MD5 check sum: 436541e95c1ad8901025bd0b0ed42ae2
     Pseudo is Projector augmented-wave + core cor, Zval = 11.0
     Generated using ATOMPAW code
     Shape of augmentation charge: BESSEL
     Using radial grid of 1101 points,  8 beta functions with:
                l(1) =   0
                l(2) =   0
                l(3) =   1
                l(4) =   1
                l(5) =   2
                l(6) =   2
                l(7) =   3
                l(8) =   3
     Q(r) pseudized with 0 coefficients

     PseudoPot. # 2 for Cd read from file:
     /home/pragov/projects/rrg-bengioy-ad/pragov/crystal_structure_design/SSSP/Cd.pbe-dn-rrkjus_psl.0.3.1.UPF
     MD5 check sum: 558e9f355611b531a870a69ef6ace9e2
     Pseudo is Ultrasoft + core correction, Zval = 12.0
     Generated using "atomic" code by A. Dal Corso  v.5.0.99 svn rev. 10869
     Using radial grid of 1239 points,  6 beta functions with:
                l(1) =   0
                l(2) =   0
                l(3) =   1
                l(4) =   1
                l(5) =   2
                l(6) =   2
     Q(r) pseudized with 0 coefficients

     PseudoPot. # 3 for Pd read from file:
     /home/pragov/projects/rrg-bengioy-ad/pragov/crystal_structure_design/SSSP/Pd_ONCV_PBE-1.0.oncvpsp.upf
     MD5 check sum: eb77f42b51d86fb18e25f68156a31cf1
     Pseudo is Norm-conserving, Zval = 18.0
     Generated using ONCVPSP code by D. R. Hamann
     Using radial grid of 1410 points,  6 beta functions with:
                l(1) =   0
                l(2) =   0
                l(3) =   1
                l(4) =   1
                l(5) =   2
                l(6) =   2

     atomic species   valence    mass     pseudopotential
        La            11.00   138.90547     La( 1.00)
        Cd            12.00   112.41400     Cd( 1.00)
        Pd            18.00   106.42000     Pd( 1.00)

     12 Sym. Ops. (no inversion) found

                                    s                        frac. trans.

      isym =  1     identity

 cryst.   s( 1) = (     1          0          0      )
                  (     0          1          0      )
                  (     0          0          1      )

 cart.    s( 1) = (  1.0000000 -0.0000000  0.0000000 )
                  (  0.0000000  1.0000000  0.0000000 )
                  (  0.0000000  0.0000000  1.0000000 )

      isym =  2     180 deg rotation - cart. axis [1,0,0]

[...]

      isym =  3     120 deg rotation - cryst. axis [0,0,1]

[...]

      isym =  6     180 deg rotation - cryst. axis [1,1,0]

[...]

      isym =  7     inv. 180 deg rotation - cart. axis [0,0,1]

[...]

      isym =  8     inv. 180 deg rotation - cart. axis [0,1,0]

[...]

      isym =  9     inv.  60 deg rotation - cryst. axis [0,0,1]

 cryst.   s( 9) = (    -1         -1          0      )
                  (     1          0          0      )
                  (     0          0         -1      )

 cart.    s( 9) = ( -0.4999999  0.8660255  0.0000000 )
                  ( -0.8660253 -0.5000001  0.0000000 )
                  (  0.0000000  0.0000000 -1.0000000 )

[...]

 cryst.   s(10) = (     0          1          0      )
                  (    -1         -1          0      )
                  (     0          0         -1      )

 cart.    s(10) = ( -0.5000001 -0.8660255  0.0000000 )
                  (  0.8660253 -0.4999999  0.0000000 )
                  (  0.0000000  0.0000000 -1.0000000 )

[...]

      isym = 12     inv. 180 deg rotation - cryst. axis [2,1,0]

 cryst.   s(12) = (    -1         -1          0      )
                  (     0          1          0      )
                  (     0          0          1      )

 cart.    s(12) = ( -0.4999999 -0.8660256  0.0000000 )
                  ( -0.8660253  0.4999999  0.0000000 )
                  (  0.0000000  0.0000000  1.0000000 )

   Cartesian axes

     site n.     atom                  positions (alat units)
         1           La  tau(   1) = (   0.2042000   0.3536848   0.2635326  )
         2           La  tau(   2) = (   0.5916000   0.0000000   0.2635326  )
         3           La  tau(   3) = (  -0.2958001   0.5123406   0.2635326  )
         4           Cd  tau(   4) = (   0.3757649   0.6508440   0.0000000  )
         5           Cd  tau(   5) = (   0.2484700   0.0000000   0.0000000  )
         6           Cd  tau(   6) = (  -0.1242350   0.2151813   0.0000000  )
         7           Pd  tau(   7) = (   0.5000005   0.2886748   0.0000000  )
         8           Pd  tau(   8) = (  -0.0000006   0.5773505   0.0000000  )
         9           Pd  tau(   9) = (   0.0000000   0.0000000   0.2635326  )

   Crystallographic axes

     site n.     atom                  positions (cryst. coord.)
         1           La  tau(   1) = (  0.4084000  0.4084000  0.5000000  )
         2           La  tau(   2) = (  0.5916000  0.0000000  0.5000000  )
         3           La  tau(   3) = ( -0.0000000  0.5916000  0.5000000  )
         4           Cd  tau(   4) = (  0.7515300  0.7515300  0.0000000  )
         5           Cd  tau(   5) = (  0.2484700  0.0000000  0.0000000  )
         6           Cd  tau(   6) = (  0.0000000  0.2484700  0.0000000  )
         7           Pd  tau(   7) = (  0.6666670  0.3333330  0.0000000  )
         8           Pd  tau(   8) = (  0.3333330  0.6666670  0.0000000  )
         9           Pd  tau(   9) = (  0.0000000  0.0000000  0.5000000  )

     number of k points=     1  Methfessel-Paxton smearing, width (Ry)=  0.0010
                       cart. coord. in units 2pi/alat
        k(    1) = (   0.0000000   0.0000000   0.0000000), wk =   2.0000000

                       cryst. coord.
        k(    1) = (   0.0000000   0.0000000   0.0000000), wk =   2.0000000

     Check: negative core charge=   -0.000001

     Initial potential from superposition of free atoms

     starting charge     122.9587, renormalised to     123.0000
     Starting wfcs are  153 randomized atomic wfcs
     Checking if some PAW data can be deallocated...

     Self-consistent Calculation

     iteration #  1     ecut=    30.00 Ry     beta= 0.70
     Davidson diagonalization with overlap

     ethr =  1.00E-02,  avg # of iterations =  2.0

     Threshold (ethr) on eigenvalues was too large:
     Diagonalizing with lowered threshold

     Davidson diagonalization with overlap

[...]

     total energy              =   -2500.53646461 Ry
     estimated scf accuracy    <       0.91070147 Ry

[...]

     total energy              =   -2501.04645909 Ry
     estimated scf accuracy    <       0.00000423 Ry

     iteration # 16     ecut=    30.00 Ry     beta= 0.70
     Davidson diagonalization with overlap

     ethr =  3.44E-09,  avg # of iterations =  2.0

     End of self-consistent calculation

          k = 0.0000 0.0000 0.0000 (  2074 PWs)   bands (ev):

   -72.6687 -72.6679 -72.4113 -38.2728 -38.2721 -37.9506 -37.9450 -37.9449
   -37.9442 -37.9441 -37.7771 -37.7770 -19.8894 -19.8536 -19.8534  -3.8578
    -3.8041  -3.8040  -3.6439  -3.4373  -3.4248  -3.4247  -3.4078  -3.4076
     4.2996   4.4406   4.4411   4.4427   4.4930   4.4933   4.5406   4.6103
     4.6106   4.6395   4.6493   4.6497   4.8000   4.8006   4.9067   6.4755
     8.8374   8.8376   9.0084   9.5194   9.6344   9.6344   9.6719  10.0508
    10.0509  10.0810  10.0811  10.2236  10.2237  10.3401  10.3402  10.4045
    11.2550  11.2550  11.6487  11.6488  11.8520  13.7749  13.7749  14.0142
    14.1055  14.5011  14.5736  14.5736  14.6462  14.7018  14.7021  14.8017
    14.8021  14.8971

     occupation numbers
     1.0000   1.0000   1.0000   1.0000   1.0000   1.0000   1.0000   1.0000
     1.0000   1.0000   1.0000   1.0000   1.0000   1.0000   1.0000   1.0000
     1.0000   1.0000   1.0000   1.0000   1.0000   1.0000   1.0000   1.0000
     1.0000   1.0000   1.0000   1.0000   1.0000   1.0000   1.0000   1.0000
     1.0000   1.0000   1.0000   1.0000   1.0000   1.0000   1.0000   1.0000
     1.0000   1.0000   1.0000   1.0000   1.0000   1.0000   1.0000   1.0000
     1.0000   1.0000   1.0000   1.0000   1.0000   1.0000   1.0000   1.0000
     1.0000   1.0000   1.0000   1.0000   1.0000   0.2514   0.2486  -0.0000
    -0.0000  -0.0000  -0.0000  -0.0000  -0.0000  -0.0000  -0.0000  -0.0000
    -0.0000  -0.0000

     the Fermi energy is    13.7706 ev

!    total energy              =   -2501.04645904 Ry
     estimated scf accuracy    <       0.00000085 Ry
     smearing contrib. (-TS)   =      -0.00041261 Ry
     internal energy E=F+TS    =   -2501.04604644 Ry

     The total energy is F=E-TS. E is the sum of the following terms:
     one-electron contribution =    -526.71938150 Ry
     hartree contribution      =     342.94164688 Ry
     xc contribution           =    -229.14200503 Ry
     ewald contribution        =    -893.77069274 Ry
     one-center paw contrib.   =   -1194.35561405 Ry
      -> PAW hartree energy AE =     104.34659724 Ry
      -> PAW hartree energy PS =    -104.51374718 Ry
      -> PAW xc energy AE      =   -1216.03808435 Ry
      -> PAW xc energy PS      =      21.84962024 Ry
      -> total E_H with PAW    =     342.77449695 Ry
      -> total E_XC with PAW   =   -1423.33046915 Ry

     convergence has been achieved in  16 iterations

     Forces acting on atoms (cartesian axes, Ry/au):

     atom    1 type  1   force =     0.00964162    0.01669978    0.00000000
     atom    2 type  1   force =    -0.01928324   -0.00000000   -0.00000000
     atom    3 type  1   force =     0.00964162   -0.01669977   -0.00000000
     atom    4 type  2   force =    -0.00857705   -0.01485589    0.00000000
     atom    5 type  2   force =     0.01715410    0.00000000    0.00000000
     atom    6 type  2   force =    -0.00857705    0.01485589    0.00000000
     atom    7 type  3   force =    -0.00000000    0.00000000    0.00000000
     atom    8 type  3   force =     0.00000000   -0.00000000    0.00000000
     atom    9 type  3   force =    -0.00000000    0.00000000    0.00000000
     The non-local contrib.  to forces
     atom    1 type  1   force =     0.00991146    0.01716715    0.00000000
     atom    2 type  1   force =    -0.01982292   -0.00000000    0.00000000
     atom    3 type  1   force =     0.00991146   -0.01716715    0.00000000
     atom    4 type  2   force =    -0.01493030   -0.02586004   -0.00000000
     atom    5 type  2   force =     0.02986060    0.00000000    0.00000000
     atom    6 type  2   force =    -0.01493030    0.02586004   -0.00000000
     atom    7 type  3   force =     0.00000000    0.00000000   -0.00000000
     atom    8 type  3   force =     0.00000000    0.00000000    0.00000000
     atom    9 type  3   force =     0.00000000    0.00000000    0.00000000
     The ionic contribution  to forces
     atom    1 type  1   force =     0.71722356    1.24226781   -0.00000000
     atom    2 type  1   force =    -1.43439390   -0.00002897    0.00000000
     atom    3 type  1   force =     0.71717200   -1.24223596   -0.00000000
     atom    4 type  2   force =    -2.72358412   -4.71738669    0.00000000
     atom    5 type  2   force =     5.44706058    0.00005976    0.00000000
     atom    6 type  2   force =    -2.72347906    4.71732241   -0.00000000
     atom    7 type  3   force =    -0.00012542    0.00007329    0.00000000
     atom    8 type  3   force =     0.00012619   -0.00007197    0.00000000
     atom    9 type  3   force =     0.00000018    0.00000031   -0.00000000
     The local contribution  to forces
     atom    1 type  1   force =    -0.71945130   -1.24199318    0.00002479
     atom    2 type  1   force =     1.43688454    0.00112822   -0.00002619
     atom    3 type  1   force =    -0.71810448    1.24098607   -0.00001632
     atom    4 type  2   force =     2.73002246    4.73026382    0.00005018
     atom    5 type  2   force =    -5.46131351    0.00057713   -0.00000109
     atom    6 type  2   force =     2.73008485   -4.73000728    0.00000197
     atom    7 type  3   force =     0.00175405   -0.00113038    0.00010667
     atom    8 type  3   force =     0.00123748   -0.00066879   -0.00010407
     atom    9 type  3   force =    -0.00094321    0.00073611    0.00003151
     The core correction contribution to forces
     atom    1 type  1   force =     0.00002309    0.00004230    0.00000002
     atom    2 type  1   force =    -0.00004747    0.00000046   -0.00000003
     atom    3 type  1   force =     0.00002375   -0.00004249   -0.00000002
     atom    4 type  2   force =    -0.00054847   -0.00092122    0.00000161
     atom    5 type  2   force =     0.00108066    0.00001063    0.00000019
     atom    6 type  2   force =    -0.00053779    0.00092147    0.00000059
     atom    7 type  3   force =     0.00000000    0.00000000    0.00000000
     atom    8 type  3   force =     0.00000000    0.00000000    0.00000000
     atom    9 type  3   force =     0.00000000    0.00000000    0.00000000
     The Hubbard contrib.    to forces
     atom    1 type  1   force =     0.00000000    0.00000000    0.00000000
     atom    2 type  1   force =     0.00000000    0.00000000    0.00000000
     atom    3 type  1   force =     0.00000000    0.00000000    0.00000000
     atom    4 type  2   force =     0.00000000    0.00000000    0.00000000
     atom    5 type  2   force =     0.00000000    0.00000000    0.00000000
     atom    6 type  2   force =     0.00000000    0.00000000    0.00000000
     atom    7 type  3   force =     0.00000000    0.00000000    0.00000000
     atom    8 type  3   force =     0.00000000    0.00000000    0.00000000
     atom    9 type  3   force =     0.00000000    0.00000000    0.00000000
     The SCF correction term to forces
     atom    1 type  1   force =     0.00096977   -0.00016081   -0.00000541
     atom    2 type  1   force =    -0.00128752   -0.00062920    0.00000917
     atom    3 type  1   force =     0.00039275    0.00097272   -0.00000159
     atom    4 type  2   force =     0.00039144   -0.00091545   -0.00006155
     atom    5 type  2   force =     0.00048306   -0.00063260    0.00000904
     atom    6 type  2   force =     0.00030676    0.00074646   -0.00000873
     atom    7 type  3   force =    -0.00140169    0.00082215   -0.00006909
     atom    8 type  3   force =    -0.00096908    0.00043168    0.00015378
     atom    9 type  3   force =     0.00087751   -0.00082034   -0.00001503

     Total force =     0.044703     Total SCF correction =     0.003411

     Computing stress (Cartesian axis) and pressure

          total   stress  (Ry/bohr**3)                   (kbar)     P=     -396.34
  -0.00234665  -0.00000000   0.00000000         -345.20       -0.00        0.00
  -0.00000000  -0.00234665   0.00000000           -0.00     -345.20        0.00
   0.00000000   0.00000000  -0.00338951            0.00        0.00     -498.61

     kinetic stress (kbar)  28261.18      0.00      0.00
                                0.00  28261.19      0.00
                                0.00      0.00  27854.99

     local   stress (kbar)  -9484.23     -0.13     -0.00
                               -0.13  -9483.68     -0.01
                               -0.00     -0.01  -8637.84

     nonloc. stress (kbar)   4006.76      0.00      0.00
                                0.00   4006.76      0.00
                                0.00      0.00   3781.45

     hartree stress (kbar)  11435.69      0.07      0.00
                                0.07  11435.40      0.00
                                0.00      0.00  11074.21

     exc-cor stress (kbar)   2583.29      0.00     -0.00
                                0.00   2583.29     -0.00
                               -0.00     -0.00   2582.12

     corecor stress (kbar)  -7662.70     -0.00     -0.00
                               -0.00  -7662.70      0.00
                               -0.00      0.00  -7656.34

     ewald   stress (kbar) -29485.32     -0.01      0.00
                               -0.01 -29485.33     -0.00
                                0.00     -0.00 -29497.20

     hubbard stress (kbar)      0.00      0.00      0.00
                                0.00      0.00      0.00
                                0.00      0.00      0.00

     DFT-D   stress (kbar)      0.00      0.00      0.00
                                0.00      0.00      0.00
                                0.00      0.00      0.00

     XDM     stress (kbar)      0.00      0.00      0.00
                                0.00      0.00      0.00
                                0.00      0.00      0.00

     dft-nl  stress (kbar)      0.00      0.00      0.00
                                0.00      0.00      0.00
                                0.00      0.00      0.00

     TS-vdW  stress (kbar)      0.00      0.00      0.00
                                0.00      0.00      0.00
                                0.00      0.00      0.00

[...]

                                0.00      0.00      0.00

     Writing all to output data dir new_calculations/myprefix.save/

     General routines

     Parallel routines

     PAW routines

   This run was terminated on:  16:44:54  20May2023

   JOB DONE.