     Program PWSCF v.7.0 starts on 21May2023 at 16:19:35

     Reading input from espresso_21066.pwi
Warning: card &CELL ignored
Warning: card / ignored

     Current dimensions of program PWSCF are:
     Max number of different atomic species (ntypx) = 10
     Max number of k-points (npk) =  40000
     Max angular momentum in pseudopotentials (lmaxx) =  4
     file Ba.pbe-spn-kjpaw_psl.1.0.0.UPF: wavefunction(s)  5S 6S renormalized
     file Ga.pbe-dn-kjpaw_psl.1.0.0.UPF: wavefunction(s)  4S renormalized

     gamma-point specific algorithms are used
     Message from routine setup:
     using ibrav=0 with symmetry is DISCOURAGED, use correct ibrav instead

     Subspace diagonalization in iterative solution of the eigenvalue problem:
     a serial algorithm will be used

     Using Slab Decomposition

     bravais-lattice index     =            0
     lattice parameter (alat)  =      15.4105  a.u.
     unit-cell volume          =    2253.4879 (a.u.)^3
     number of atoms/cell      =           14
     number of atomic types    =            3
     number of electrons       =       116.00
     number of Kohn-Sham states=           70
     kinetic-energy cutoff     =      30.0000  Ry
     charge density cutoff     =     240.0000  Ry
     scf convergence threshold =      1.0E-06
     mixing beta               =       0.7000
     number of iterations used =            8  plain     mixing
     Exchange-correlation= PBE
                           (   1   4   3   4   0   0   0)

     celldm(1)=  15.410546  celldm(2)=   0.000000  celldm(3)=   0.000000
     celldm(4)=   0.000000  celldm(5)=   0.000000  celldm(6)=   0.000000

     crystal axes: (cart. coord. in units of alat)
               a(1) = (   1.000000   0.000000   0.000000 )
               a(2) = (  -0.500000   0.866025   0.000000 )
               a(3) = (   0.000000   0.000000   0.711001 )

     reciprocal axes: (cart. coord. in units 2 pi/alat)
               b(1) = (  1.000000  0.577350  0.000000 )
               b(2) = (  0.000000  1.154701  0.000000 )
               b(3) = (  0.000000  0.000000  1.406467 )

     PseudoPot. # 1 for Ba read from file:
     /home/pragov/projects/rrg-bengioy-ad/pragov/crystal_structure_design/SSSP/Ba.pbe-spn-kjpaw_psl.1.0.0.UPF
     MD5 check sum: c432291d3e53af55f19d5e8866385beb
     Pseudo is Projector augmented-wave + core cor, Zval = 10.0
     Generated using "atomic" code by A. Dal Corso  v.5.1
     Shape of augmentation charge: PSQ
     Using radial grid of 1251 points,  7 beta functions with:
                l(1) =   0
                l(2) =   0
                l(3) =   0
                l(4) =   1
                l(5) =   1
                l(6) =   2
                l(7) =   2
     Q(r) pseudized with 0 coefficients

     PseudoPot. # 2 for Ga read from file:
     /home/pragov/projects/rrg-bengioy-ad/pragov/crystal_structure_design/SSSP/Ga.pbe-dn-kjpaw_psl.1.0.0.UPF
     MD5 check sum: a27b4342b1af7e5f338de752e9ed7044
     Pseudo is Projector augmented-wave + core cor, Zval = 13.0
     Generated using "atomic" code by A. Dal Corso  v.5.1
     Shape of augmentation charge: PSQ
     Using radial grid of 1205 points,  6 beta functions with:
                l(1) =   0
                l(2) =   0
                l(3) =   1
                l(4) =   1
                l(5) =   2
                l(6) =   2
     Q(r) pseudized with 0 coefficients

     PseudoPot. # 3 for N  read from file:
     /home/pragov/projects/rrg-bengioy-ad/pragov/crystal_structure_design/SSSP/N.pbe-n-radius_5.UPF
     MD5 check sum: 16739722b17309cd8fe442a2ace49922
     Pseudo is Ultrasoft + core correction, Zval =  5.0
     Generated using "atomic" code by A. Dal Corso  v.5.1
     Using radial grid of 1085 points,  4 beta functions with:
                l(1) =   0
                l(2) =   0
                l(3) =   1
                l(4) =   1
     Q(r) pseudized with 0 coefficients

     atomic species   valence    mass     pseudopotential
        Ba            10.00   137.32700     Ba( 1.00)
        Ga            13.00    69.72300     Ga( 1.00)
        N              5.00    14.00700     N ( 1.00)

     12 Sym. Ops., with inversion, found ( 6 have fractional translation)

                                    s                        frac. trans.

      isym =  1     identity

 cryst.   s( 1) = (     1          0          0      )
                  (     0          1          0      )
                  (     0          0          1      )

 cart.    s( 1) = (  1.0000000 -0.0000000  0.0000000 )
                  (  0.0000000  1.0000000  0.0000000 )
                  (  0.0000000  0.0000000  1.0000000 )

      isym =  2     180 deg rotation - cart. axis [0,0,1]

 cryst.   s( 2) = (    -1          0          0      )    f =(  0.0000000 )
                  (     0         -1          0      )       (  0.0000000 )
                  (     0          0          1      )       ( -0.5000000 )

 cart.    s( 2) = ( -1.0000000  0.0000000  0.0000000 )    f =(  0.0000000 )
                  (  0.0000000 -1.0000000  0.0000000 )       (  0.0000000 )
                  (  0.0000000  0.0000000  1.0000000 )       ( -0.3555007 )

      isym =  3      60 deg rotation - cryst. axis [0,0,1]

[...]

      isym =  6     120 deg rotation - cryst. axis [0,0,-1]

[...]

      isym =  7     inversion

 cryst.   s( 7) = (    -1          0          0      )
                  (     0         -1          0      )
                  (     0          0         -1      )

 cart.    s( 7) = ( -1.0000000  0.0000000  0.0000000 )
                  (  0.0000000 -1.0000000  0.0000000 )
                  (  0.0000000  0.0000000 -1.0000000 )

      isym =  8     inv. 180 deg rotation - cart. axis [0,0,1]

[...]

      isym =  9     inv.  60 deg rotation - cryst. axis [0,0,1]

 cryst.   s( 9) = (    -1         -1          0      )    f =( -0.0000010 )
                  (     1          0          0      )       ( -0.0000000 )
                  (     0          0         -1      )       (  0.5000000 )

 cart.    s( 9) = ( -0.5000000  0.8660254  0.0000000 )    f =( -0.0000010 )
                  ( -0.8660254 -0.5000000  0.0000000 )       ( -0.0000000 )
                  (  0.0000000  0.0000000 -1.0000000 )       (  0.3555007 )

[...]

 cryst.   s(10) = (     0          1          0      )    f =(  0.0000000 )
                  (    -1         -1          0      )       (  0.0000010 )
                  (     0          0         -1      )       (  0.5000000 )

 cart.    s(10) = ( -0.5000000 -0.8660254  0.0000000 )    f =( -0.0000005 )
                  (  0.8660254 -0.5000000  0.0000000 )       (  0.0000009 )
                  (  0.0000000  0.0000000 -1.0000000 )       (  0.3555007 )

[...]

 cryst.   s(11) = (     0         -1          0      )
                  (     1          1          0      )
                  (     0          0         -1      )

 cart.    s(11) = (  0.5000000  0.8660254  0.0000000 )
                  ( -0.8660254  0.5000000  0.0000000 )
                  (  0.0000000  0.0000000 -1.0000000 )

      isym = 12     inv. 120 deg rotation - cryst. axis [0,0,-1]

 cryst.   s(12) = (     1          1          0      )
                  (    -1          0          0      )
                  (     0          0         -1      )

 cart.    s(12) = (  0.5000000 -0.8660254  0.0000000 )
                  (  0.8660254  0.5000000  0.0000000 )
                  (  0.0000000  0.0000000 -1.0000000 )

   Cartesian axes

     site n.     atom                  positions (alat units)
         1           Ba  tau(   1) = (   0.6150605   0.5527208   0.1777504  )
         2           Ba  tau(   2) = (   0.6711410   0.0570070   0.1777504  )
         3           Ba  tau(   3) = (   0.2138000   0.2562968   0.1777504  )
         4           Ba  tau(   4) = (  -0.1150605   0.3133046   0.5332511  )
         5           Ba  tau(   5) = (  -0.1711410   0.8090184   0.5332511  )
         6           Ba  tau(   6) = (   0.2862000   0.6097287   0.5332511  )
         7           Ga  tau(   7) = (   0.5000005   0.2886749   0.5332511  )
         8           Ga  tau(   8) = (  -0.0000005   0.5773506   0.1777504  )
         9           N   tau(   9) = (   0.5996520   0.5035782   0.5332511  )
        10           N   tau(  10) = (   0.6362865   0.0949224   0.5332511  )
        11           N   tau(  11) = (   0.2640630   0.2675239   0.5332511  )
        12           N   tau(  12) = (  -0.0996520   0.3624472   0.1777504  )
        13           N   tau(  13) = (  -0.1362865   0.7711030   0.1777504  )
        14           N   tau(  14) = (   0.2359370   0.5985015   0.1777504  )

   Crystallographic axes

     site n.     atom                  positions (cryst. coord.)
         1           Ba  tau(   1) = (  0.9341740  0.6382270  0.2500000  )
         2           Ba  tau(   2) = (  0.7040540  0.0658260  0.2500000  )
         3           Ba  tau(   3) = (  0.3617730  0.2959460  0.2500000  )
         4           Ba  tau(   4) = (  0.0658260  0.3617730  0.7500000  )
         5           Ba  tau(   5) = (  0.2959460  0.9341740  0.7500000  )
         6           Ba  tau(   6) = (  0.6382270  0.7040540  0.7500000  )
         7           Ga  tau(   7) = (  0.6666670  0.3333330  0.7500000  )
         8           Ga  tau(   8) = (  0.3333330  0.6666670  0.2500000  )
         9           N   tau(   9) = (  0.8903930  0.5814820  0.7500000  )
        10           N   tau(  10) = (  0.6910900  0.1096070  0.7500000  )
        11           N   tau(  11) = (  0.4185180  0.3089100  0.7500000  )
        12           N   tau(  12) = (  0.1096070  0.4185180  0.2500000  )
        13           N   tau(  13) = (  0.3089100  0.8903930  0.2500000  )
        14           N   tau(  14) = (  0.5814820  0.6910900  0.2500000  )

     number of k points=     1  Methfessel-Paxton smearing, width (Ry)=  0.0010
                       cart. coord. in units 2pi/alat
        k(    1) = (   0.0000000   0.0000000   0.0000000), wk =   2.0000000

                       cryst. coord.
        k(    1) = (   0.0000000   0.0000000   0.0000000), wk =   2.0000000

     Check: negative core charge=   -0.000002

     Initial potential from superposition of free atoms

     starting charge     115.8920, renormalised to     116.0000
     Starting wfcs are   72 randomized atomic wfcs
     Checking if some PAW data can be deallocated...

     Self-consistent Calculation

     iteration #  1     ecut=    30.00 Ry     beta= 0.70
     Davidson diagonalization with overlap

     ethr =  1.00E-02,  avg # of iterations =  6.0

     negative rho (up, down):  8.665E-02 0.000E+00

     total energy              =   -3290.14360522 Ry
     estimated scf accuracy    <       7.25018272 Ry

[...]

     negative rho (up, down):  6.331E-04 0.000E+00

[...]

     total energy              =   -3294.01505238 Ry
     estimated scf accuracy    <       0.00000252 Ry

     iteration # 36     ecut=    30.00 Ry     beta= 0.70
     Davidson diagonalization with overlap

     ethr =  9.67E-10,  avg # of iterations =  2.0

     End of self-consistent calculation

          k = 0.0000 0.0000 0.0000 (  3163 PWs)   bands (ev):

   -18.7004 -18.5813 -18.5813 -18.5608 -18.5607 -18.5334  -5.9821  -5.9080
    -5.7978  -5.7978  -5.7634  -5.7633  -5.3868  -5.3868  -5.3796  -5.3796
    -4.8903  -4.7378  -4.7377  -4.6174  -4.6174  -4.5532  -4.4333  -4.2922
    -3.9512  -3.9511  -3.8925  -3.8925  -3.8861  -3.8341  -3.8340  -3.7101
    -3.7101  -3.4972  -2.9697  -2.9611  -2.1932  -2.1932  -2.1123  -2.1122
     3.9267   4.1450   6.0727   6.0727   6.0934   6.0934   6.4638   6.8603
     7.8075   7.8808   7.9875   7.9876   8.0285   8.0285   8.1589   8.1590
     8.2913   8.2914   8.6496   9.8288  10.4560  10.8112  10.9881  11.1771
    11.1772  11.9118  11.9118  11.9314  11.9371  11.9371

     occupation numbers
     1.0000   1.0000   1.0000   1.0000   1.0000   1.0000   1.0000   1.0000
     1.0000   1.0000   1.0000   1.0000   1.0000   1.0000   1.0000   1.0000
     1.0000   1.0000   1.0000   1.0000   1.0000   1.0000   1.0000   1.0000
     1.0000   1.0000   1.0000   1.0000   1.0000   1.0000   1.0000   1.0000
     1.0000   1.0000   1.0000   1.0000   1.0000   1.0000   1.0000   1.0000
     1.0000   1.0000   1.0000   1.0000   1.0000   1.0000   1.0000   1.0000
     1.0000   1.0000   1.0000   1.0000   1.0000   1.0000   1.0000   1.0000
     1.0000   1.0000  -0.0000  -0.0000  -0.0000  -0.0000  -0.0000  -0.0000
    -0.0000  -0.0000  -0.0000  -0.0000  -0.0000  -0.0000

     the Fermi energy is     8.4510 ev

!    total energy              =   -3294.01505212 Ry
     estimated scf accuracy    <       0.00000086 Ry
     smearing contrib. (-TS)   =       0.00000000 Ry
     internal energy E=F+TS    =   -3294.01505212 Ry

     The total energy is F=E-TS. E is the sum of the following terms:
     one-electron contribution =    -373.88323794 Ry
     hartree contribution      =     265.17517276 Ry
     xc contribution           =    -230.75299293 Ry
     ewald contribution        =    -482.83835696 Ry
     one-center paw contrib.   =   -2471.71563703 Ry
      -> PAW hartree energy AE =     461.77041428 Ry
      -> PAW hartree energy PS =    -456.79101004 Ry
      -> PAW xc energy AE      =   -2667.64948542 Ry
      -> PAW xc energy PS      =     190.95444415 Ry
      -> total E_H with PAW    =     270.15457700 Ry
      -> total E_XC with PAW   =   -2707.44803421 Ry

     convergence has been achieved in  36 iterations

     Forces acting on atoms (cartesian axes, Ry/au):

     atom    1 type  1   force =     0.03124208    0.03383825   -0.00000000
     atom    2 type  1   force =     0.01368374   -0.04397556    0.00000000
     atom    3 type  1   force =    -0.04492583    0.01013731   -0.00000000
     atom    4 type  1   force =    -0.03124208   -0.03383825    0.00000000
     atom    5 type  1   force =    -0.01368374    0.04397556    0.00000000
     atom    6 type  1   force =     0.04492583   -0.01013731    0.00000000
     atom    7 type  2   force =     0.00000000   -0.00000000   -0.00000000
     atom    8 type  2   force =     0.00000000    0.00000000    0.00000000
     atom    9 type  3   force =     0.01695424    0.02929240   -0.00000000
     atom   10 type  3   force =     0.01689084   -0.02932900    0.00000000
     atom   11 type  3   force =    -0.03384508    0.00003661   -0.00000000
     atom   12 type  3   force =    -0.01695424   -0.02929240    0.00000000
     atom   13 type  3   force =    -0.01689084    0.02932900    0.00000000
     atom   14 type  3   force =     0.03384508   -0.00003661    0.00000000
     The non-local contrib.  to forces
     atom    1 type  1   force =    -0.11001723   -0.08581021    0.00000000
     atom    2 type  1   force =    -0.01930521    0.13818282    0.00000000
     atom    3 type  1   force =     0.12932244   -0.05237261   -0.00000000
     atom    4 type  1   force =     0.11001723    0.08581021    0.00000000
     atom    5 type  1   force =     0.01930521   -0.13818282    0.00000000
     atom    6 type  1   force =    -0.12932244    0.05237261    0.00000000
     atom    7 type  2   force =    -0.00000000   -0.00000000    0.00000000
     atom    8 type  2   force =     0.00000000    0.00000000   -0.00000000
     atom    9 type  3   force =    -0.33922378   -0.49847009    0.00000000
     atom   10 type  3   force =    -0.26207589    0.54301146   -0.00000000
     atom   11 type  3   force =     0.60129967   -0.04454137    0.00000000
     atom   12 type  3   force =     0.33922378    0.49847009    0.00000000
     atom   13 type  3   force =     0.26207589   -0.54301146   -0.00000000
     atom   14 type  3   force =    -0.60129967    0.04454137   -0.00000000
     The ionic contribution  to forces
     atom    1 type  1   force =    -5.02399550    4.55889925    0.00000000
     atom    2 type  1   force =     6.46008499    2.07135497   -0.00000000
     atom    3 type  1   force =    -1.43623747   -6.63016876   -0.00000000
     atom    4 type  1   force =     5.02399550   -4.55889925   -0.00000000
     atom    5 type  1   force =    -6.46008499   -2.07135497   -0.00000000
     atom    6 type  1   force =     1.43623747    6.63016876   -0.00000000
     atom    7 type  2   force =    -0.00007370    0.00004297   -0.00000000
     atom    8 type  2   force =     0.00007370   -0.00004297   -0.00000000
     atom    9 type  3   force =     2.62564942    8.18499860   -0.00000000
     atom   10 type  3   force =     5.77553884   -6.36643558   -0.00000000
     atom   11 type  3   force =    -8.40127620   -1.81851265   -0.00000000
     atom   12 type  3   force =    -2.62564942   -8.18499860   -0.00000000
     atom   13 type  3   force =    -5.77553884    6.36643557   -0.00000000
     atom   14 type  3   force =     8.40127620    1.81851265   -0.00000000
     The local contribution  to forces
     atom    1 type  1   force =     5.15868371   -4.44870174    0.00004110
     atom    2 type  1   force =    -6.43198652   -2.24304026    0.00058208
     atom    3 type  1   force =     1.27397459    6.69174450   -0.00041525
     atom    4 type  1   force =    -5.15856307    4.44911767    0.00009553
     atom    5 type  1   force =     6.43207825    2.24300497    0.00007147
     atom    6 type  1   force =    -1.27277696   -6.69225487    0.00073210
     atom    7 type  2   force =     0.00023983    0.00002159    0.00000634
     atom    8 type  2   force =    -0.00017742   -0.00005055   -0.00000046
     atom    9 type  3   force =    -2.27239797   -7.66167731    0.00000082
     atom   10 type  3   force =    -5.49893851    5.79885237    0.00000150
     atom   11 type  3   force =     7.77145111    1.86277529    0.00000201
     atom   12 type  3   force =     2.27240513    7.66166923   -0.00000383
     atom   13 type  3   force =     5.49893282   -5.79886720    0.00000025
     atom   14 type  3   force =    -7.77145288   -1.86274298    0.00000608
     The core correction contribution to forces
     atom    1 type  1   force =     0.00647276    0.00955668    0.00000119
     atom    2 type  1   force =     0.00504593   -0.01039796    0.00001479
     atom    3 type  1   force =    -0.01151793    0.00081863   -0.00001444
     atom    4 type  1   force =    -0.00646628   -0.00955719   -0.00000062
     atom    5 type  1   force =    -0.00504776    0.01038555    0.00000489
     atom    6 type  1   force =     0.01153247   -0.00084121    0.00002910
     atom    7 type  2   force =    -0.00000076   -0.00000008    0.00000005
     atom    8 type  2   force =     0.00000058    0.00000037   -0.00000001
     atom    9 type  3   force =     0.00294803    0.00444140   -0.00000002
     atom   10 type  3   force =     0.00237206   -0.00477422   -0.00000008
     atom   11 type  3   force =    -0.00532063    0.00033259    0.00000001
     atom   12 type  3   force =    -0.00294801   -0.00444145    0.00000001
     atom   13 type  3   force =    -0.00237231    0.00477430    0.00000001
     atom   14 type  3   force =     0.00532063   -0.00033236    0.00000001
     The Hubbard contrib.    to forces
     atom    1 type  1   force =     0.00000000    0.00000000    0.00000000
     atom    2 type  1   force =     0.00000000    0.00000000    0.00000000
     atom    3 type  1   force =     0.00000000    0.00000000    0.00000000
     atom    4 type  1   force =     0.00000000    0.00000000    0.00000000
     atom    5 type  1   force =     0.00000000    0.00000000    0.00000000
     atom    6 type  1   force =     0.00000000    0.00000000    0.00000000
     atom    7 type  2   force =     0.00000000    0.00000000    0.00000000
     atom    8 type  2   force =     0.00000000    0.00000000    0.00000000
     atom    9 type  3   force =     0.00000000    0.00000000    0.00000000
     atom   10 type  3   force =     0.00000000    0.00000000    0.00000000
     atom   11 type  3   force =     0.00000000    0.00000000    0.00000000
     atom   12 type  3   force =     0.00000000    0.00000000    0.00000000
     atom   13 type  3   force =     0.00000000    0.00000000    0.00000000
     atom   14 type  3   force =     0.00000000    0.00000000    0.00000000
     The SCF correction term to forces
     atom    1 type  1   force =    -0.00001867    0.00000758   -0.00000159
     atom    2 type  1   force =    -0.00006255   -0.00008436   -0.00006431
     atom    3 type  1   force =    -0.00003192    0.00003245    0.00004878
     atom    4 type  1   force =    -0.00000276   -0.00006796   -0.00002083
     atom    5 type  1   force =     0.00002428    0.00011442   -0.00000931
     atom    6 type  1   force =    -0.00009586   -0.00001150   -0.00008090
     atom    7 type  2   force =    -0.00018205   -0.00007538   -0.00000906
     atom    8 type  2   force =     0.00010888    0.00010806    0.00000128
     atom    9 type  3   force =    -0.00003659   -0.00000708   -0.00000223
     atom   10 type  3   force =    -0.00002360    0.00000007   -0.00000691
     atom   11 type  3   force =     0.00000368   -0.00001145   -0.00000063
     atom   12 type  3   force =     0.00003284    0.00000565    0.00000415
     atom   13 type  3   force =     0.00001242    0.00001899    0.00000129
     atom   14 type  3   force =     0.00000035   -0.00000130   -0.00000425

     Total force =     0.139998     Total SCF correction =     0.000348

     Computing stress (Cartesian axis) and pressure

          total   stress  (Ry/bohr**3)                   (kbar)     P=       -6.95
  -0.00026123   0.00000000   0.00000000          -38.43        0.00        0.00
   0.00000000  -0.00026123   0.00000000            0.00      -38.43        0.00
   0.00000000  -0.00000000   0.00038077            0.00       -0.00       56.01

     kinetic stress (kbar)   8830.43     -0.00      0.00
                               -0.00   8830.43     -0.00
                                0.00     -0.00   8991.70

     local   stress (kbar)  -6978.34     -0.08     -0.00
                               -0.08  -6978.42      0.00
                               -0.00      0.00  -1812.18

     nonloc. stress (kbar)   4239.51     -0.00      0.00
                               -0.00   4239.51      0.00
                                0.00      0.00   4244.79

     hartree stress (kbar)   6385.28      0.05      0.00
                                0.05   6385.33     -0.00
                                0.00     -0.00   4539.72

     exc-cor stress (kbar)   3958.30      0.00      0.00
                                0.00   3958.30     -0.00
                                0.00     -0.00   3947.50

     corecor stress (kbar)  -7093.32     -0.00      0.00
                               -0.00  -7093.32      0.00
                                0.00      0.00  -7096.93

     ewald   stress (kbar)  -9380.28      0.03      0.00
                                0.03  -9380.25      0.00
                                0.00      0.00 -12758.60

     hubbard stress (kbar)      0.00      0.00      0.00
                                0.00      0.00      0.00
                                0.00      0.00      0.00

     DFT-D   stress (kbar)      0.00      0.00      0.00
                                0.00      0.00      0.00
                                0.00      0.00      0.00

     XDM     stress (kbar)      0.00      0.00      0.00
                                0.00      0.00      0.00
                                0.00      0.00      0.00

     dft-nl  stress (kbar)      0.00      0.00      0.00
                                0.00      0.00      0.00
                                0.00      0.00      0.00

     TS-vdW  stress (kbar)      0.00      0.00      0.00
                                0.00      0.00      0.00
                                0.00      0.00      0.00

[...]

                                0.00      0.00      0.00

     Writing all to output data dir new_calculations/myprefix.save/

     General routines

     Parallel routines

     PAW routines

   This run was terminated on:  16:21: 3  21May2023

   JOB DONE.