     Program PWSCF v.7.0 starts on 21May2023 at 12:54:14

     Reading input from espresso_21918.pwi
Warning: card &CELL ignored
Warning: card / ignored

     Current dimensions of program PWSCF are:
     Max number of different atomic species (ntypx) = 10
     Max number of k-points (npk) =  40000
     Max angular momentum in pseudopotentials (lmaxx) =  4

     gamma-point specific algorithms are used
     Message from routine setup:
     using ibrav=0 with symmetry is DISCOURAGED, use correct ibrav instead

     Subspace diagonalization in iterative solution of the eigenvalue problem:
     a serial algorithm will be used

     Using Slab Decomposition

     bravais-lattice index     =            0
     lattice parameter (alat)  =       6.5714  a.u.
     unit-cell volume          =    2266.7737 (a.u.)^3
     number of atoms/cell      =            9
     number of atomic types    =            4
     number of electrons       =        78.00
     number of Kohn-Sham states=           47
     kinetic-energy cutoff     =      30.0000  Ry
     charge density cutoff     =     240.0000  Ry
     scf convergence threshold =      1.0E-06
     mixing beta               =       0.7000
     number of iterations used =            8  plain     mixing
     Exchange-correlation= SLA  PW   PBE  PBE
                           (   1   4   3   4   0   0   0)

     celldm(1)=   6.571352  celldm(2)=   0.000000  celldm(3)=   0.000000
     celldm(4)=   0.000000  celldm(5)=   0.000000  celldm(6)=   0.000000

     crystal axes: (cart. coord. in units of alat)
               a(1) = (   1.000000   0.000000   0.000000 )
               a(2) = (  -0.500000   0.866025   0.000000 )
               a(3) = (   0.000000   0.000000   9.223874 )

     reciprocal axes: (cart. coord. in units 2 pi/alat)
               b(1) = (  1.000000  0.577350  0.000000 )
               b(2) = (  0.000000  1.154700  0.000000 )
               b(3) = (  0.000000  0.000000  0.108414 )

     PseudoPot. # 1 for Te read from file:
     /home/pragov/projects/rrg-bengioy-ad/pragov/crystal_structure_design/SSSP/Te_pbe_v1.uspp.F.UPF
     MD5 check sum: c319670d6894cc26e93307826a071b75
     Pseudo is Ultrasoft + core correction, Zval =  6.0
     Generated by new atomic code, or converted to UPF format
     Using radial grid of  891 points,  5 beta functions with:
                l(1) =   0
                l(2) =   0
                l(3) =   1
                l(4) =   1
                l(5) =   2
     Q(r) pseudized with  6 coefficients,  rinner =    1.800   1.800   1.800
                                                       1.800   1.800

     PseudoPot. # 2 for Mo read from file:
     /home/pragov/projects/rrg-bengioy-ad/pragov/crystal_structure_design/SSSP/Mo_ONCV_PBE-1.0.oncvpsp.upf
     MD5 check sum: 1b5d28e075c9ccadda658a603575cd1f
     Pseudo is Norm-conserving, Zval = 14.0
     Generated using ONCVPSP code by D. R. Hamann
     Using radial grid of 1526 points,  6 beta functions with:
                l(1) =   0
                l(2) =   0
                l(3) =   1
                l(4) =   1
                l(5) =   2
                l(6) =   2

     PseudoPot. # 3 for W  read from file:
     /home/pragov/projects/rrg-bengioy-ad/pragov/crystal_structure_design/SSSP/W_pbe_v1.2.uspp.F.UPF
     MD5 check sum: 9c083fa34c2a2ea0f02f1f893e16e1c8
     Pseudo is Ultrasoft + core correction, Zval = 14.0
     Generated by new atomic code, or converted to UPF format
     Using radial grid of  923 points,  8 beta functions with:
                l(1) =   0
                l(2) =   0
                l(3) =   0
                l(4) =   1
                l(5) =   1
                l(6) =   2
                l(7) =   2
                l(8) =   3
     Q(r) pseudized with  6 coefficients,  rinner =    1.350   1.350   1.350
                                                       1.350   1.350   1.350
                                                       1.350

     PseudoPot. # 4 for Se read from file:
     /home/pragov/projects/rrg-bengioy-ad/pragov/crystal_structure_design/SSSP/Se_pbe_v1.uspp.F.UPF
     MD5 check sum: 1b3568f3a8ae88f9a2a0ad0698632c85
     Pseudo is Ultrasoft + core correction, Zval =  6.0
     Generated by new atomic code, or converted to UPF format
     Using radial grid of  877 points,  6 beta functions with:
                l(1) =   0
                l(2) =   0
                l(3) =   1
                l(4) =   1
                l(5) =   2
                l(6) =   2
     Q(r) pseudized with  8 coefficients,  rinner =    1.300   1.300   1.300
                                                       1.300   1.300

     atomic species   valence    mass     pseudopotential
        Te             6.00   127.60000     Te( 1.00)
        Mo            14.00    95.95000     Mo( 1.00)
        W             14.00   183.84000     W ( 1.00)
        Se             6.00    78.97100     Se( 1.00)

      6 Sym. Ops. (no inversion) found

                                    s                        frac. trans.

      isym =  1     identity

 cryst.   s( 1) = (     1          0          0      )
                  (     0          1          0      )
                  (     0          0          1      )

 cart.    s( 1) = (  1.0000000 -0.0000000  0.0000000 )
                  (  0.0000000  1.0000000  0.0000000 )
                  (  0.0000000  0.0000000  1.0000000 )

      isym =  2     120 deg rotation - cryst. axis [0,0,1]

[...]

      isym =  3     120 deg rotation - cryst. axis [0,0,-1]

[...]

      isym =  4     inv. 180 deg rotation - cart. axis [1,0,0]

[...]

      isym =  5     inv. 180 deg rotation - cryst. axis [0,1,0]

[...]

      isym =  6     inv. 180 deg rotation - cryst. axis [1,1,0]

 cryst.   s( 6) = (     0         -1          0      )
                  (    -1          0          0      )
                  (     0          0          1      )

 cart.    s( 6) = (  0.4999999 -0.8660255  0.0000000 )
                  ( -0.8660255 -0.4999999  0.0000000 )
                  (  0.0000000  0.0000000  1.0000000 )

   Cartesian axes

     site n.     atom                  positions (alat units)
         1           Te  tau(   1) = (  -0.0000004   0.5773506   0.5378441  )
         2           Te  tau(   2) = (  -0.0000004   0.5773506   4.8018102  )
         3           Te  tau(   3) = (  -0.0000004   0.5773506   1.5958131  )
         4           Te  tau(   4) = (  -0.0000004   0.5773506   5.8667064  )
         5           Mo  tau(   5) = (   0.0000000   0.0000000   1.0667318  )
         6           W   tau(   6) = (   0.0000000   0.0000000   5.3343137  )
         7           W   tau(   7) = (  -0.0000004   0.5773506   3.2004904  )
         8           Se  tau(   8) = (   0.0000000   0.0000000   3.6692477  )
         9           Se  tau(   9) = (   0.0000000   0.0000000   2.7317240  )

   Crystallographic axes

     site n.     atom                  positions (cryst. coord.)
         1           Te  tau(   1) = (  0.3333330  0.6666670  0.0583100  )
         2           Te  tau(   2) = (  0.3333330  0.6666670  0.5205850  )
         3           Te  tau(   3) = (  0.3333330  0.6666670  0.1730090  )
         4           Te  tau(   4) = (  0.3333330  0.6666670  0.6360350  )
         5           Mo  tau(   5) = (  0.0000000  0.0000000  0.1156490  )
         6           W   tau(   6) = (  0.0000000  0.0000000  0.5783160  )
         7           W   tau(   7) = (  0.3333330  0.6666670  0.3469790  )
         8           Se  tau(   8) = (  0.0000000  0.0000000  0.3977990  )
         9           Se  tau(   9) = (  0.0000000  0.0000000  0.2961580  )

     number of k points=     1  Methfessel-Paxton smearing, width (Ry)=  0.0010
                       cart. coord. in units 2pi/alat
        k(    1) = (   0.0000000   0.0000000   0.0000000), wk =   2.0000000

                       cryst. coord.
        k(    1) = (   0.0000000   0.0000000   0.0000000), wk =   2.0000000

     Initial potential from superposition of free atoms

     starting charge      77.7973, renormalised to      78.0000

     negative rho (up, down):  1.257E-01 0.000E+00
     Starting wfcs are   60 randomized atomic wfcs

     Self-consistent Calculation

     iteration #  1     ecut=    30.00 Ry     beta= 0.70
     Davidson diagonalization with overlap

     ethr =  1.00E-02,  avg # of iterations =  2.0

     negative rho (up, down):  1.328E-01 0.000E+00

     total energy              =    -531.63247932 Ry
     estimated scf accuracy    <     128.86784208 Ry

[...]

     total energy              =    -646.75898728 Ry
     estimated scf accuracy    <       0.00000222 Ry

     iteration # 34     ecut=    30.00 Ry     beta= 0.70
     Davidson diagonalization with overlap

     ethr =  2.85E-09,  avg # of iterations =  5.0

[...]

     End of self-consistent calculation

          k = 0.0000 0.0000 0.0000 (  3143 PWs)   bands (ev):

   -68.3995 -66.7921 -53.8615 -32.7728 -32.7728 -32.4407 -31.1403 -31.0965
   -31.0964 -28.0075 -28.0060 -28.0060 -10.3805  -9.2818  -8.9480  -8.7842
    -8.1196  -8.1143  -1.5150  -0.8563  -0.3523   1.7930   1.7930   1.8194
     2.2290   2.7600   2.7600   2.8146   3.8798   3.8799   3.8841   3.8841
     4.5026   4.5026   4.5541   4.5541   4.6394   4.8806   5.0955   6.8799
     6.8799   6.9751   6.9752   7.6727   7.6728   7.8773   7.8773

     occupation numbers
     1.0000   1.0000   1.0000   1.0000   1.0000   1.0000   1.0000   1.0000
     1.0000   1.0000   1.0000   1.0000   1.0000   1.0000   1.0000   1.0000
     1.0000   1.0000   1.0000   1.0000   1.0000   1.0000   1.0000   1.0000
     1.0000   1.0000   1.0000   1.0000   1.0000   1.0000   1.0000   1.0000
     1.0000   1.0000   1.0000   1.0000   1.0000   1.0000   1.0000  -0.0000
    -0.0000  -0.0000  -0.0000  -0.0000  -0.0000  -0.0000  -0.0000

     the Fermi energy is     5.6212 ev

!    total energy              =    -646.75898675 Ry
     estimated scf accuracy    <       0.00000087 Ry
     smearing contrib. (-TS)   =       0.00000000 Ry
     internal energy E=F+TS    =    -646.75898675 Ry

     The total energy is F=E-TS. E is the sum of the following terms:
     one-electron contribution =   -2586.07098013 Ry
     hartree contribution      =    1310.10503554 Ry
     xc contribution           =    -215.97724418 Ry
     ewald contribution        =     845.18420202 Ry

     convergence has been achieved in  34 iterations

     negative rho (up, down):  1.216E-01 0.000E+00

     Forces acting on atoms (cartesian axes, Ry/au):

     atom    1 type  1   force =     0.00000000    0.00000000    0.10061111
     atom    2 type  1   force =     0.00000000    0.00000000    0.10292070
     atom    3 type  1   force =     0.00000000    0.00000000   -0.11659555
     atom    4 type  1   force =     0.00000000    0.00000000   -0.08682321
     atom    5 type  2   force =     0.00000000    0.00000000   -0.00256903
     atom    6 type  3   force =     0.00000000    0.00000000    0.00222751
     atom    7 type  3   force =     0.00000000    0.00000000    0.00020912
     atom    8 type  4   force =     0.00000000    0.00000000   -0.07809626
     atom    9 type  4   force =     0.00000000    0.00000000    0.07811562
     The non-local contrib.  to forces
     atom    1 type  1   force =     0.00000000    0.00000000    0.26972782
     atom    2 type  1   force =     0.00000000    0.00000000    0.20293577
     atom    3 type  1   force =     0.00000000    0.00000000   -0.24290585
     atom    4 type  1   force =     0.00000000    0.00000000   -0.23113271
     atom    5 type  2   force =     0.00000000   -0.00000000   -0.00175504
     atom    6 type  3   force =     0.00000000    0.00000000    0.00342154
     atom    7 type  3   force =    -0.00000000   -0.00000000    0.00004804
     atom    8 type  4   force =     0.00000000    0.00000000   -0.06457877
     atom    9 type  4   force =     0.00000000    0.00000000    0.06417285
     The ionic contribution  to forces
     atom    1 type  1   force =     0.00000321   -0.00000185  -52.75412166
     atom    2 type  1   force =     0.00000316   -0.00000182   11.48436733
     atom    3 type  1   force =     0.00000323   -0.00000186  -11.40420955
     atom    4 type  1   force =     0.00000314   -0.00000181   52.67119375
     atom    5 type  2   force =    -0.00000641    0.00000370  -74.85866425
     atom    6 type  3   force =    -0.00000627    0.00000362   74.85690372
     atom    7 type  3   force =     0.00000928   -0.00000536    0.00227691
     atom    8 type  4   force =    -0.00000466    0.00000269   21.96661958
     atom    9 type  4   force =    -0.00000466    0.00000269  -21.96436582
     The local contribution  to forces
     atom    1 type  1   force =    -0.00000448   -0.00000393   52.56582597
     atom    2 type  1   force =    -0.00002308    0.00000724  -11.59615253
     atom    3 type  1   force =    -0.00000972   -0.00000095   11.54717960
     atom    4 type  1   force =     0.00000658   -0.00001395  -52.51428093
     atom    5 type  2   force =    -0.00000244   -0.00001874   74.85899640
     atom    6 type  3   force =     0.00002885    0.00001172  -74.86365842
     atom    7 type  3   force =    -0.00001109    0.00000031   -0.00181244
     atom    8 type  4   force =     0.00001081   -0.00000345  -21.98416139
     atom    9 type  4   force =     0.00000313   -0.00000098   21.98256923
     The core correction contribution to forces
     atom    1 type  1   force =     0.00000018    0.00000067    0.01931123
     atom    2 type  1   force =     0.00000330   -0.00000008    0.01059563
     atom    3 type  1   force =     0.00000074    0.00000058   -0.01624778
     atom    4 type  1   force =    -0.00000079    0.00000172   -0.01378013
     atom    5 type  2   force =     0.00000000    0.00000000    0.00000000
     atom    6 type  3   force =     0.00000200    0.00000208    0.00007577
     atom    7 type  3   force =     0.00000019    0.00000036    0.00002099
     atom    8 type  4   force =     0.00000077   -0.00000023    0.00405547
     atom    9 type  4   force =    -0.00000012   -0.00000003   -0.00399842
     The Hubbard contrib.    to forces
     atom    1 type  1   force =     0.00000000    0.00000000    0.00000000
     atom    2 type  1   force =     0.00000000    0.00000000    0.00000000
     atom    3 type  1   force =     0.00000000    0.00000000    0.00000000
     atom    4 type  1   force =     0.00000000    0.00000000    0.00000000
     atom    5 type  2   force =     0.00000000    0.00000000    0.00000000
     atom    6 type  3   force =     0.00000000    0.00000000    0.00000000
     atom    7 type  3   force =     0.00000000    0.00000000    0.00000000
     atom    8 type  4   force =     0.00000000    0.00000000    0.00000000
     atom    9 type  4   force =     0.00000000    0.00000000    0.00000000
     The SCF correction term to forces
     atom    1 type  1   force =    -0.00000054   -0.00000112   -0.00021321
     atom    2 type  1   force =    -0.00000986   -0.00000170    0.00109355
     atom    3 type  1   force =    -0.00000038   -0.00000263   -0.00049293
     atom    4 type  1   force =     0.00000201    0.00000337    0.00109586
     atom    5 type  2   force =     0.00000627    0.00001542   -0.00122709
     atom    6 type  3   force =    -0.00002654   -0.00002596    0.00540394
     atom    7 type  3   force =     0.00000193    0.00000542   -0.00040533
     atom    8 type  4   force =    -0.00000341   -0.00000010   -0.00011211
     atom    9 type  4   force =     0.00000041   -0.00000090   -0.00034317

     Total force =     0.232510     Total SCF correction =     0.005804

     Computing stress (Cartesian axis) and pressure

     negative rho (up, down):  1.216E-01 0.000E+00
          total   stress  (Ry/bohr**3)                   (kbar)     P=       81.01
   0.00113634  -0.00000000   0.00000000          167.16       -0.00        0.00
  -0.00000000   0.00113634   0.00000000           -0.00      167.16        0.00
  -0.00000000  -0.00000000  -0.00062067           -0.00       -0.00      -91.30

     kinetic stress (kbar)   7378.14     -0.00     -0.00
                               -0.00   7378.14     -0.00
                                0.00      0.00   7491.78

     local   stress (kbar)-156951.66      0.00     -0.00
                                0.00-156951.64     -0.01
                               -0.00     -0.01 166138.16

     nonloc. stress (kbar)  -2503.20      0.00      0.00
                                0.00  -2503.20      0.00
                                0.00      0.00  -2514.66

     hartree stress (kbar)  81313.03     -0.00      0.00
                               -0.00  81313.02      0.00
                                0.00      0.00 -77605.17

     exc-cor stress (kbar)   7300.72     -0.00      0.00
                               -0.00   7300.72      0.00
                                0.00      0.00   7308.92

     corecor stress (kbar)  -9497.02      0.00     -0.00
                                0.00  -9497.02     -0.00
                               -0.00     -0.00  -9505.30

     ewald   stress (kbar)  73127.15     -0.01     -0.00
                               -0.01  73127.15      0.00
                               -0.00      0.00 -91405.03

     hubbard stress (kbar)      0.00      0.00      0.00
                                0.00      0.00      0.00
                                0.00      0.00      0.00

     DFT-D   stress (kbar)      0.00      0.00      0.00
                                0.00      0.00      0.00
                                0.00      0.00      0.00

     XDM     stress (kbar)      0.00      0.00      0.00
                                0.00      0.00      0.00
                                0.00      0.00      0.00

     dft-nl  stress (kbar)      0.00      0.00      0.00
                                0.00      0.00      0.00
                                0.00      0.00      0.00

     TS-vdW  stress (kbar)      0.00      0.00      0.00
                                0.00      0.00      0.00
                                0.00      0.00      0.00

[...]

                                0.00      0.00      0.00

     Writing all to output data dir new_calculations/myprefix.save/

     General routines

     Parallel routines

   This run was terminated on:  12:55: 6  21May2023

   JOB DONE.