     Program PWSCF v.7.0 starts on 21May2023 at  5:35:24

     Reading input from espresso_26463.pwi
Warning: card &CELL ignored
Warning: card / ignored

     Current dimensions of program PWSCF are:
     Max number of different atomic species (ntypx) = 10
     Max number of k-points (npk) =  40000
     Max angular momentum in pseudopotentials (lmaxx) =  4
     file O.pbe-n-kjpaw_psl.0.1.UPF: wavefunction(s)  2P renormalized

     gamma-point specific algorithms are used
     Message from routine setup:
     using ibrav=0 with symmetry is DISCOURAGED, use correct ibrav instead

     Subspace diagonalization in iterative solution of the eigenvalue problem:
     a serial algorithm will be used

     Using Slab Decomposition

     bravais-lattice index     =            0
     lattice parameter (alat)  =      11.3967  a.u.
     unit-cell volume          =    1058.8590 (a.u.)^3
     number of atoms/cell      =           16
     number of atomic types    =            4
     number of electrons       =       124.00
     number of Kohn-Sham states=           74
     kinetic-energy cutoff     =      30.0000  Ry
     charge density cutoff     =     240.0000  Ry
     scf convergence threshold =      1.0E-06
     mixing beta               =       0.7000
     number of iterations used =            8  plain     mixing
     Exchange-correlation= SLA  PW   PBX  PBC
                           (   1   4   3   4   0   0   0)

     celldm(1)=  11.396690  celldm(2)=   0.000000  celldm(3)=   0.000000
     celldm(4)=   0.000000  celldm(5)=   0.000000  celldm(6)=   0.000000

     crystal axes: (cart. coord. in units of alat)
               a(1) = (   1.000000   0.000000   0.000000 )
               a(2) = (   0.496241   0.868185   0.000000 )
               a(3) = (   0.509851   0.295838   0.823929 )

     reciprocal axes: (cart. coord. in units 2 pi/alat)
               b(1) = (  1.000000 -0.571585 -0.413573 )
               b(2) = (  0.000000  1.151829 -0.413573 )
               b(3) = (  0.000000  0.000000  1.213697 )

     PseudoPot. # 1 for Li read from file:
     /home/pragov/projects/rrg-bengioy-ad/pragov/crystal_structure_design/SSSP/li_pbe_v1.4.uspp.F.UPF
     MD5 check sum: e912e257baa3777c20ea3d68f190483c
     Pseudo is Ultrasoft, Zval =  3.0
     Generated by new atomic code, or converted to UPF format
     Using radial grid of  751 points,  5 beta functions with:
                l(1) =   0
                l(2) =   0
                l(3) =   0
                l(4) =   1
                l(5) =   1
     Q(r) pseudized with 10 coefficients,  rinner =    1.150   1.150   1.150

     PseudoPot. # 2 for Mn read from file:
     /home/pragov/projects/rrg-bengioy-ad/pragov/crystal_structure_design/SSSP/mn_pbe_v1.5.uspp.F.UPF
     MD5 check sum: 82ef2b46521d7a7d9e736dc3972e4928
     Pseudo is Ultrasoft + core correction, Zval = 15.0
     Generated by new atomic code, or converted to UPF format
     Using radial grid of  859 points,  6 beta functions with:
                l(1) =   0
                l(2) =   0
                l(3) =   1
                l(4) =   1
                l(5) =   2
                l(6) =   2
     Q(r) pseudized with  8 coefficients,  rinner =    0.950   0.950   0.950
                                                       0.950   0.950

     PseudoPot. # 3 for V  read from file:
     /home/pragov/projects/rrg-bengioy-ad/pragov/crystal_structure_design/SSSP/v_pbe_v1.4.uspp.F.UPF
     MD5 check sum: 22b79981416ebb76fdaf5b1b8640f6fb
     Pseudo is Ultrasoft + core correction, Zval = 13.0
     Generated by new atomic code, or converted to UPF format
     Using radial grid of  853 points,  6 beta functions with:
                l(1) =   0
                l(2) =   0
                l(3) =   1
                l(4) =   1
                l(5) =   2
                l(6) =   2
     Q(r) pseudized with  8 coefficients,  rinner =    1.100   1.100   1.100
                                                       1.100   1.100

     PseudoPot. # 4 for O  read from file:
     /home/pragov/projects/rrg-bengioy-ad/pragov/crystal_structure_design/SSSP/O.pbe-n-kjpaw_psl.0.1.UPF
     MD5 check sum: 0234752ac141de4415c5fc33072bef88
     Pseudo is Projector augmented-wave + core cor, Zval =  6.0
     Generated using "atomic" code by A. Dal Corso  v.5.0.99 svn rev. 10869
     Shape of augmentation charge: BESSEL
     Using radial grid of 1095 points,  4 beta functions with:
                l(1) =   0
                l(2) =   0
                l(3) =   1
                l(4) =   1
     Q(r) pseudized with 0 coefficients

     atomic species   valence    mass     pseudopotential
        Li             3.00     6.94000     Li( 1.00)
        Mn            15.00    54.93804     Mn( 1.00)
        V             13.00    50.94150     V ( 1.00)
        O              6.00    15.99900     O ( 1.00)

      2 Sym. Ops., with inversion, found

                                    s                        frac. trans.

      isym =  1     identity

 cryst.   s( 1) = (     1          0          0      )
                  (     0          1          0      )
                  (     0          0          1      )

 cart.    s( 1) = (  1.0000000  0.0000000  0.0000000 )
                  (  0.0000000  1.0000000  0.0000000 )
                  (  0.0000000  0.0000000  1.0000000 )

      isym =  2     inversion

 cryst.   s( 2) = (    -1          0          0      )
                  (     0         -1          0      )
                  (     0          0         -1      )

 cart.    s( 2) = ( -1.0000000 -0.0000000 -0.0000000 )
                  (  0.0000000 -1.0000000 -0.0000000 )
                  (  0.0000000  0.0000000 -1.0000000 )

   Cartesian axes

     site n.     atom                  positions (alat units)
         1           Li  tau(   1) = (   0.2481207   0.4340923   0.0000000  )
         2           Li  tau(   2) = (   0.5000000   0.0000000   0.0000000  )
         3           Li  tau(   3) = (   0.2549255   0.1479189   0.4119645  )
         4           Mn  tau(   4) = (   0.7481207   0.4340923   0.0000000  )
         5           V   tau(   5) = (   1.0030462   0.5820112   0.4119645  )
         6           V   tau(   6) = (   0.0000000   0.0000000   0.0000000  )
         7           V   tau(   7) = (   0.7549255   0.1479189   0.4119645  )
         8           V   tau(   8) = (   0.5030462   0.5820112   0.4119645  )
         9           O   tau(   9) = (   1.4913642   0.8653546   0.5942061  )
        10           O   tau(  10) = (   0.7471970   0.7204009   0.2214425  )
        11           O   tau(  11) = (   0.9962311   0.2912121   0.2214425  )
        12           O   tau(  12) = (   0.5147282   0.2986678   0.2297230  )
        13           O   tau(  13) = (   0.7628817   0.4426573   0.6078314  )
        14           O   tau(  14) = (   1.2588954   0.4436214   0.6024866  )
        15           O   tau(  15) = (   1.0098613   0.8728102   0.6024866  )
        16           O   tau(  16) = (   1.2432106   0.7213651   0.2160976  )

   Crystallographic axes

     site n.     atom                  positions (cryst. coord.)
         1           Li  tau(   1) = ( -0.0000000  0.5000000  0.0000000  )
         2           Li  tau(   2) = (  0.5000000  0.0000000  0.0000000  )
         3           Li  tau(   3) = ( -0.0000000  0.0000000  0.5000000  )
         4           Mn  tau(   4) = (  0.5000000  0.5000000  0.0000000  )
         5           V   tau(   5) = (  0.5000000  0.5000000  0.5000000  )
         6           V   tau(   6) = (  0.0000000  0.0000000  0.0000000  )
         7           V   tau(   7) = (  0.5000000  0.0000000  0.5000000  )
         8           V   tau(   8) = (  0.0000000  0.5000000  0.5000000  )
         9           O   tau(   9) = (  0.7509930  0.7509930  0.7211860  )
        10           O   tau(  10) = (  0.2438440  0.7381960  0.2687640  )
        11           O   tau(  11) = (  0.7381960  0.2438440  0.2687640  )
        12           O   tau(  12) = (  0.2490070  0.2490070  0.2788140  )
        13           O   tau(  13) = (  0.2584830  0.2584830  0.7377230  )
        14           O   tau(  14) = (  0.7561560  0.2618040  0.7312360  )
        15           O   tau(  15) = (  0.2618040  0.7561560  0.7312360  )
        16           O   tau(  16) = (  0.7415170  0.7415170  0.2622770  )

     number of k points=     1  Methfessel-Paxton smearing, width (Ry)=  0.0010
                       cart. coord. in units 2pi/alat
        k(    1) = (   0.0000000   0.0000000   0.0000000), wk =   2.0000000

                       cryst. coord.
        k(    1) = (   0.0000000   0.0000000   0.0000000), wk =   2.0000000

     Check: negative core charge=   -0.000020

     Initial potential from superposition of free atoms

     starting charge     122.1428, renormalised to     124.0000

     negative rho (up, down):  4.443E-03 0.000E+00
     Starting wfcs are  100 randomized atomic wfcs
     Checking if some PAW data can be deallocated...

     Self-consistent Calculation

     iteration #  1     ecut=    30.00 Ry     beta= 0.70
     Davidson diagonalization with overlap

     ethr =  1.00E-02,  avg # of iterations =  2.0

     negative rho (up, down):  6.836E-03 0.000E+00

     total energy              =   -1164.27375515 Ry
     estimated scf accuracy    <       6.75519265 Ry

[...]

     total energy              =   -1168.65966727 Ry
     estimated scf accuracy    <       0.00004523 Ry

     iteration # 45     ecut=    30.00 Ry     beta= 0.70
     Davidson diagonalization with overlap

     ethr =  3.28E-09,  avg # of iterations =  1.0

[...]

     End of self-consistent calculation

          k = 0.0000 0.0000 0.0000 (  1460 PWs)   bands (ev):

   -67.7810 -53.9754 -53.8120 -53.7106 -53.6972 -36.6277 -36.6196 -36.3662
   -34.6619 -34.6546 -34.1894 -27.9660 -27.8455 -27.8387 -27.7797 -27.7150
   -27.6800 -27.6060 -27.5889 -27.5225 -27.5147 -27.3605 -27.3139  -8.8681
    -8.0970  -7.9749  -7.9511  -7.7856  -7.7711  -7.3679  -7.0954   3.6305
     3.9869   4.1209   4.1801   4.9275   4.9330   4.9890   5.4385   5.5175
     6.2918   6.3837   6.4047   6.7647   6.7950   6.9155   6.9610   7.0938
     7.0971   7.1353   7.3064   7.3246   8.2111   8.3175   8.3678   9.7973
     9.8117  10.1104  11.1005  11.1207  11.5601  11.9651  11.9767  12.0199
    12.0396  12.0605  12.1128  12.1824  12.3819  12.3947  12.4912  12.5248
    12.8376  13.1092

     occupation numbers
     1.0000   1.0000   1.0000   1.0000   1.0000   1.0000   1.0000   1.0000
     1.0000   1.0000   1.0000   1.0000   1.0000   1.0000   1.0000   1.0000
     1.0000   1.0000   1.0000   1.0000   1.0000   1.0000   1.0000   1.0000
     1.0000   1.0000   1.0000   1.0000   1.0000   1.0000   1.0000   1.0000
     1.0000   1.0000   1.0000   1.0000   1.0000   1.0000   1.0000   1.0000
     1.0000   1.0000   1.0000   1.0000   1.0000   1.0000   1.0000   1.0000
     1.0000   1.0000   1.0000   1.0000   1.0000   1.0000   1.0000   1.0000
     1.0000   1.0000   1.0000   1.0000   1.0000   0.8277   0.1723  -0.0000
    -0.0000  -0.0000  -0.0000  -0.0000  -0.0000  -0.0000  -0.0000  -0.0000
    -0.0000  -0.0000

     the Fermi energy is    11.9709 ev

!    total energy              =   -1168.65966757 Ry
     estimated scf accuracy    <       0.00000053 Ry
     smearing contrib. (-TS)   =      -0.00029828 Ry
     internal energy E=F+TS    =   -1168.65936929 Ry

     The total energy is F=E-TS. E is the sum of the following terms:
     one-electron contribution =    -483.14522359 Ry
     hartree contribution      =     297.97583273 Ry
     xc contribution           =    -174.56640965 Ry
     ewald contribution        =    -732.78813654 Ry
     one-center paw contrib.   =     -76.13543225 Ry
      -> PAW hartree energy AE =     235.28095582 Ry
      -> PAW hartree energy PS =    -234.43739315 Ry
      -> PAW xc energy AE      =    -137.02434950 Ry
      -> PAW xc energy PS      =      60.04535458 Ry
      -> total E_H with PAW    =     298.81939541 Ry
      -> total E_XC with PAW   =    -251.54540457 Ry

     convergence has been achieved in  45 iterations

     negative rho (up, down):  5.165E-03 0.000E+00

     Forces acting on atoms (cartesian axes, Ry/au):

     atom    1 type  1   force =     0.00000000    0.00000000    0.00000000
     atom    2 type  1   force =     0.00000000    0.00000000    0.00000000
     atom    3 type  1   force =     0.00000000    0.00000000    0.00000000
     atom    4 type  2   force =     0.00000000    0.00000000    0.00000000
     atom    5 type  3   force =     0.00000000    0.00000000    0.00000000
     atom    6 type  3   force =     0.00000000    0.00000000    0.00000000
     atom    7 type  3   force =     0.00000000    0.00000000    0.00000000
     atom    8 type  3   force =     0.00000000    0.00000000    0.00000000
     atom    9 type  4   force =    -0.01585442   -0.00921490    0.02292251
     atom   10 type  4   force =    -0.00630273   -0.02003178   -0.01704674
     atom   11 type  4   force =    -0.02051442    0.00453907   -0.01703012
     atom   12 type  4   force =     0.01585442    0.00921490   -0.02292251
     atom   13 type  4   force =    -0.01198250   -0.00692455    0.00638164
     atom   14 type  4   force =     0.00630273    0.02003178    0.01704674
     atom   15 type  4   force =     0.02051442   -0.00453907    0.01703012
     atom   16 type  4   force =     0.01198250    0.00692455   -0.00638164
     The non-local contrib.  to forces
     atom    1 type  1   force =     0.00000000    0.00000000    0.00000000
     atom    2 type  1   force =     0.00000000    0.00000000    0.00000000
     atom    3 type  1   force =     0.00000000    0.00000000    0.00000000
     atom    4 type  2   force =     0.00000000    0.00000000    0.00000000
     atom    5 type  3   force =     0.00000000    0.00000000    0.00000000
     atom    6 type  3   force =     0.00000000    0.00000000    0.00000000
     atom    7 type  3   force =     0.00000000    0.00000000    0.00000000
     atom    8 type  3   force =     0.00000000    0.00000000    0.00000000
     atom    9 type  4   force =    -0.53721880   -0.31172284   -0.12209285
     atom   10 type  4   force =    -0.19332399   -0.45219492   -0.09325880
     atom   11 type  4   force =    -0.48850443    0.05663355   -0.09319323
     atom   12 type  4   force =     0.53721880    0.31172284    0.12209285
     atom   13 type  4   force =    -0.21985336   -0.12764775   -0.31175686
     atom   14 type  4   force =     0.19332399    0.45219492    0.09325880
     atom   15 type  4   force =     0.48850443   -0.05663355    0.09319323
     atom   16 type  4   force =     0.21985336    0.12764775    0.31175686
     The ionic contribution  to forces
     atom    1 type  1   force =     0.00000000    0.00000000    0.00000000
     atom    2 type  1   force =     0.00000000   -0.00000000    0.00000000
     atom    3 type  1   force =    -0.00000000   -0.00000000   -0.00000000
     atom    4 type  2   force =     0.00000000   -0.00000000    0.00000000
     atom    5 type  3   force =    -0.00000000    0.00000000   -0.00000000
     atom    6 type  3   force =    -0.00000000    0.00000000    0.00000000
     atom    7 type  3   force =     0.00000000   -0.00000000   -0.00000000
     atom    8 type  3   force =    -0.00000000    0.00000000   -0.00000000
     atom    9 type  4   force =     9.72540742    5.64310590    4.42393974
     atom   10 type  4   force =     3.98073361    8.54258068   -1.25419283
     atom   11 type  4   force =     9.39194166   -0.78317077   -1.25419283
     atom   12 type  4   force =    -9.72540742   -5.64310590   -4.42393974
     atom   13 type  4   force =     3.43148943    1.99109995    8.42854768
     atom   14 type  4   force =    -3.98073361   -8.54258068    1.25419283
     atom   15 type  4   force =    -9.39194166    0.78317077    1.25419283
     atom   16 type  4   force =    -3.43148943   -1.99109995   -8.42854768
     The local contribution  to forces
     atom    1 type  1   force =     0.00000560   -0.00000277    0.00000488
     atom    2 type  1   force =     0.00000108    0.00000675    0.00000510
     atom    3 type  1   force =     0.00000677    0.00000473   -0.00000566
     atom    4 type  2   force =    -0.00003846   -0.00002337    0.00002539
     atom    5 type  3   force =     0.00000293   -0.00000442   -0.00000243
     atom    6 type  3   force =    -0.00000321   -0.00000137    0.00000166
     atom    7 type  3   force =    -0.00004330    0.00002564   -0.00003445
     atom    8 type  3   force =    -0.00000487   -0.00004636   -0.00003302
     atom    9 type  4   force =    -9.20998511   -5.34402429   -4.27947772
     atom   10 type  4   force =    -3.79547466   -8.11567990    1.32870719
     atom   11 type  4   force =    -8.92940305    0.73220568    1.32860727
     atom   12 type  4   force =     9.20999769    5.34402578    4.27946935
     atom   13 type  4   force =    -3.22612984   -1.87181658   -8.11360312
     atom   14 type  4   force =     3.79547594    8.11568213   -1.32870592
     atom   15 type  4   force =     8.92940429   -0.73220271   -1.32861105
     atom   16 type  4   force =     3.22612338    1.87181303    8.11359255
     The core correction contribution to forces
     atom    1 type  1   force =     0.00000000    0.00000000    0.00000000
     atom    2 type  1   force =     0.00000000    0.00000000    0.00000000
     atom    3 type  1   force =     0.00000000    0.00000000    0.00000000
     atom    4 type  2   force =    -0.00000012   -0.00000004   -0.00000007
     atom    5 type  3   force =     0.00000001   -0.00000004    0.00000002
     atom    6 type  3   force =     0.00000001    0.00000000    0.00000001
     atom    7 type  3   force =    -0.00000042    0.00000020   -0.00000018
     atom    8 type  3   force =    -0.00000009   -0.00000031   -0.00000031
     atom    9 type  4   force =     0.00576833    0.00334704    0.00046667
     atom   10 type  4   force =     0.00193760    0.00494940    0.00191113
     atom   11 type  4   force =     0.00525827   -0.00077475    0.00191021
     atom   12 type  4   force =    -0.00576808   -0.00334688   -0.00046663
     atom   13 type  4   force =     0.00265810    0.00154368    0.00286346
     atom   14 type  4   force =    -0.00193761   -0.00494939   -0.00191111
     atom   15 type  4   force =    -0.00525822    0.00077479   -0.00191025
     atom   16 type  4   force =    -0.00265816   -0.00154372   -0.00286352
     The Hubbard contrib.    to forces
     atom    1 type  1   force =     0.00000000    0.00000000    0.00000000
     atom    2 type  1   force =     0.00000000    0.00000000    0.00000000
     atom    3 type  1   force =     0.00000000    0.00000000    0.00000000
     atom    4 type  2   force =     0.00000000    0.00000000    0.00000000
     atom    5 type  3   force =     0.00000000    0.00000000    0.00000000
     atom    6 type  3   force =     0.00000000    0.00000000    0.00000000
     atom    7 type  3   force =     0.00000000    0.00000000    0.00000000
     atom    8 type  3   force =     0.00000000    0.00000000    0.00000000
     atom    9 type  4   force =     0.00000000    0.00000000    0.00000000
     atom   10 type  4   force =     0.00000000    0.00000000    0.00000000
     atom   11 type  4   force =     0.00000000    0.00000000    0.00000000
     atom   12 type  4   force =     0.00000000    0.00000000    0.00000000
     atom   13 type  4   force =     0.00000000    0.00000000    0.00000000
     atom   14 type  4   force =     0.00000000    0.00000000    0.00000000
     atom   15 type  4   force =     0.00000000    0.00000000    0.00000000
     atom   16 type  4   force =     0.00000000    0.00000000    0.00000000
     The SCF correction term to forces
     atom    1 type  1   force =    -0.00000587    0.00000216   -0.00000544
     atom    2 type  1   force =    -0.00000115   -0.00000739   -0.00000589
     atom    3 type  1   force =    -0.00000645   -0.00000405    0.00000545
     atom    4 type  2   force =     0.00003724    0.00002376   -0.00002425
     atom    5 type  3   force =    -0.00000381    0.00000383    0.00000352
     atom    6 type  3   force =     0.00000387    0.00000155   -0.00000200
     atom    7 type  3   force =     0.00004341   -0.00002518    0.00003600
     atom    8 type  3   force =     0.00000628    0.00004554    0.00003391
     atom    9 type  4   force =     0.00018002    0.00008454    0.00008904
     atom   10 type  4   force =    -0.00017531    0.00031276   -0.00021309
     atom   11 type  4   force =     0.00019406   -0.00035380   -0.00016283
     atom   12 type  4   force =    -0.00018028   -0.00007569   -0.00007595
     atom   13 type  4   force =    -0.00014798   -0.00010414    0.00032851
     atom   14 type  4   force =     0.00017399   -0.00031541    0.00021248
     atom   15 type  4   force =    -0.00019348    0.00035247    0.00016409
     atom   16 type  4   force =     0.00015220    0.00010715   -0.00032182

     Total force =     0.071513     Total SCF correction =     0.001052

     Computing stress (Cartesian axis) and pressure

     negative rho (up, down):  5.165E-03 0.000E+00
          total   stress  (Ry/bohr**3)                   (kbar)     P=     -671.02
  -0.00433690   0.00033971   0.00016557         -637.98       49.97       24.36
   0.00033971  -0.00472502   0.00009535           49.97     -695.07       14.03
   0.00016557   0.00009535  -0.00462267           24.36       14.03     -680.02

     kinetic stress (kbar)  31049.80     90.69    177.06
                               90.69  30945.93    103.17
                              177.06    103.17  30914.39

     local   stress (kbar)  -1260.72   7314.84   5525.49
                             7314.84  -9622.24   3205.12
                             5525.49   3205.12 -11573.61

     nonloc. stress (kbar)   3559.71      8.74      2.48
                                8.74   3549.43      1.60
                                2.48      1.60   3548.85

     hartree stress (kbar)  10961.58  -3310.00  -2360.51
                            -3310.00  14745.40  -1369.35
                            -2360.51  -1369.35  15690.18

     exc-cor stress (kbar)  -5163.79      0.20     -0.62
                                0.20  -5164.02     -0.35
                               -0.62     -0.35  -5164.78

     corecor stress (kbar)  -2408.39     -0.20     -1.95
                               -0.20  -2408.15     -1.14
                               -1.95     -1.14  -2407.92

     ewald   stress (kbar) -37376.17  -4054.30  -3317.60
                            -4054.30 -32741.42  -1925.02
                            -3317.60  -1925.02 -31687.14

     hubbard stress (kbar)      0.00      0.00      0.00
                                0.00      0.00      0.00
                                0.00      0.00      0.00

     DFT-D   stress (kbar)      0.00      0.00      0.00
                                0.00      0.00      0.00
                                0.00      0.00      0.00

     XDM     stress (kbar)      0.00      0.00      0.00
                                0.00      0.00      0.00
                                0.00      0.00      0.00

     dft-nl  stress (kbar)      0.00      0.00      0.00
                                0.00      0.00      0.00
                                0.00      0.00      0.00

     TS-vdW  stress (kbar)      0.00      0.00      0.00
                                0.00      0.00      0.00
                                0.00      0.00      0.00

[...]

                                0.00      0.00      0.00

     Writing all to output data dir new_calculations/myprefix.save/

     General routines

     Parallel routines

     PAW routines

   This run was terminated on:   5:36:14  21May2023

   JOB DONE.