     Program PWSCF v.7.0 starts on 20May2023 at 11:46:17

     Reading input from espresso_5389.pwi
Warning: card &CELL ignored
Warning: card / ignored

     Current dimensions of program PWSCF are:
     Max number of different atomic species (ntypx) = 10
     Max number of k-points (npk) =  40000
     Max angular momentum in pseudopotentials (lmaxx) =  4
     file Mg.pbe-n-kjpaw_psl.0.3.0.UPF: wavefunction(s)  3S renormalized

     gamma-point specific algorithms are used
     Message from routine setup:
     using ibrav=0 with symmetry is DISCOURAGED, use correct ibrav instead

     Subspace diagonalization in iterative solution of the eigenvalue problem:
     a serial algorithm will be used

     Using Slab Decomposition

     bravais-lattice index     =            0
     lattice parameter (alat)  =      12.6463  a.u.
     unit-cell volume          =     553.7157 (a.u.)^3
     number of atoms/cell      =            4
     number of atomic types    =            3
     number of electrons       =        24.00
     number of Kohn-Sham states=           16
     kinetic-energy cutoff     =      30.0000  Ry
     charge density cutoff     =     240.0000  Ry
     scf convergence threshold =      1.0E-06
     mixing beta               =       0.7000
     number of iterations used =            8  plain     mixing
     Exchange-correlation=  SLA  PW   PBX  PBC
                           (   1   4   3   4   0   0   0)

     celldm(1)=  12.646288  celldm(2)=   0.000000  celldm(3)=   0.000000
     celldm(4)=   0.000000  celldm(5)=   0.000000  celldm(6)=   0.000000

     crystal axes: (cart. coord. in units of alat)
               a(1) = (   1.000000   0.000000   0.000000 )
               a(2) = (   0.832280   0.554356   0.000000 )
               a(3) = (   0.832280   0.251806   0.493866 )

     reciprocal axes: (cart. coord. in units 2 pi/alat)
               b(1) = (  1.000000 -1.501347 -0.919747 )
               b(2) = (  0.000000  1.803896 -0.919747 )
               b(3) = (  0.000000  0.000000  2.024840 )

     PseudoPot. # 1 for Ca read from file:
     /home/pragov/projects/rrg-bengioy-ad/pragov/crystal_structure_design/SSSP/Ca_pbe_v1.uspp.F.UPF
     MD5 check sum: 403a4c14b9e4d4dfdc3024c9a3812218
     Pseudo is Ultrasoft + core correction, Zval = 10.0
     Generated by new atomic code, or converted to UPF format
     Using radial grid of  845 points,  6 beta functions with:
                l(1) =   0
                l(2) =   0
                l(3) =   1
                l(4) =   1
                l(5) =   2
                l(6) =   2
     Q(r) pseudized with  8 coefficients,  rinner =    1.500   1.500   1.500
                                                       1.500   1.500

     PseudoPot. # 2 for Mg read from file:
     /home/pragov/projects/rrg-bengioy-ad/pragov/crystal_structure_design/SSSP/Mg.pbe-n-kjpaw_psl.0.3.0.UPF
     MD5 check sum: 24ecedc7f3e3cbe212e682f4413594e4
     Pseudo is Projector augmented-wave + core cor, Zval =  2.0
     Generated using "atomic" code by A. Dal Corso  v.5.0.99 svn rev. 10869
     Shape of augmentation charge: PSQ
     Using radial grid of 1129 points,  4 beta functions with:
                l(1) =   0
                l(2) =   0
                l(3) =   1
                l(4) =   1
     Q(r) pseudized with 0 coefficients

     PseudoPot. # 3 for S  read from file:
     /home/pragov/projects/rrg-bengioy-ad/pragov/crystal_structure_design/SSSP/s_pbe_v1.4.uspp.F.UPF
     MD5 check sum: 88d86576ff6df21479756cfb9bdac1df
     Pseudo is Ultrasoft + core correction, Zval =  6.0
     Generated by new atomic code, or converted to UPF format
     Using radial grid of  907 points,  6 beta functions with:
                l(1) =   0
                l(2) =   0
                l(3) =   1
                l(4) =   1
                l(5) =   2
                l(6) =   2
     Q(r) pseudized with  8 coefficients,  rinner =    1.300   1.300   1.300
                                                       1.300   1.300

     atomic species   valence    mass     pseudopotential
        Ca            10.00    40.07800     Ca( 1.00)
        Mg             2.00    24.30500     Mg( 1.00)
        S              6.00    32.06000     S ( 1.00)

      2 Sym. Ops., with inversion, found

                                    s                        frac. trans.

      isym =  1     identity

 cryst.   s( 1) = (     1          0          0      )
                  (     0          1          0      )
                  (     0          0          1      )

 cart.    s( 1) = (  1.0000000 -0.0000000  0.0000000 )
                  (  0.0000000  1.0000000 -0.0000000 )
                  (  0.0000000  0.0000000  1.0000000 )

      isym =  2     inversion

 cryst.   s( 2) = (    -1          0          0      )
                  (     0         -1          0      )
                  (     0          0         -1      )

 cart.    s( 2) = ( -1.0000000  0.0000000 -0.0000000 )
                  (  0.0000000 -1.0000000  0.0000000 )
                  (  0.0000000  0.0000000 -1.0000000 )

   Cartesian axes

     site n.     atom                  positions (alat units)
         1           Ca  tau(   1) = (   0.0000000   0.0000000   0.0000000  )
         2           Mg  tau(   2) = (   1.3322800   0.4030808   0.2469331  )
         3           S   tau(   3) = (   0.6472136   0.1958142   0.1199586  )
         4           S   tau(   4) = (   2.0173464   0.6103473   0.3739075  )

   Crystallographic axes

     site n.     atom                  positions (cryst. coord.)
         1           Ca  tau(   1) = (  0.0000000  0.0000000  0.0000000  )
         2           Mg  tau(   2) = (  0.5000000  0.5000000  0.5000000  )
         3           S   tau(   3) = (  0.2428970  0.2428970  0.2428970  )
         4           S   tau(   4) = (  0.7571030  0.7571030  0.7571030  )

     number of k points=     1  Methfessel-Paxton smearing, width (Ry)=  0.0010
                       cart. coord. in units 2pi/alat
        k(    1) = (   0.0000000   0.0000000   0.0000000), wk =   2.0000000

                       cryst. coord.
        k(    1) = (   0.0000000   0.0000000   0.0000000), wk =   2.0000000

     Initial potential from superposition of free atoms

     starting charge      23.9935, renormalised to      24.0000
     Starting wfcs are   22 randomized atomic wfcs
     Checking if some PAW data can be deallocated...

     Self-consistent Calculation

     iteration #  1     ecut=    30.00 Ry     beta= 0.70
     Davidson diagonalization with overlap

     ethr =  1.00E-02,  avg # of iterations =  2.0

     total energy              =    -156.41892334 Ry
     estimated scf accuracy    <       0.56220298 Ry

[...]

     total energy              =    -156.59431785 Ry
     estimated scf accuracy    <       0.00000664 Ry

     iteration #  8     ecut=    30.00 Ry     beta= 0.70
     Davidson diagonalization with overlap

     ethr =  2.77E-08,  avg # of iterations =  2.0

     End of self-consistent calculation

          k = 0.0000 0.0000 0.0000 (   764 PWs)   bands (ev):

   -33.5839 -14.7398 -14.5187 -14.5187  -5.5358  -4.2946   2.3288   5.3264
     5.3264   6.2692   6.2692   6.4918   9.6335  10.5472  10.6212  10.6212

     occupation numbers
     1.0000   1.0000   1.0000   1.0000   1.0000   1.0000   1.0000   1.0000
     1.0000   1.0000   1.0000   1.0000  -0.0000  -0.0000  -0.0000  -0.0000

     the Fermi energy is     7.9774 ev

!    total energy              =    -156.59431840 Ry
     estimated scf accuracy    <       0.00000056 Ry
     smearing contrib. (-TS)   =       0.00000000 Ry
     internal energy E=F+TS    =    -156.59431840 Ry

     The total energy is F=E-TS. E is the sum of the following terms:
     one-electron contribution =     -35.43453297 Ry
     hartree contribution      =      27.71072473 Ry
     xc contribution           =     -31.03515054 Ry
     ewald contribution        =     -86.59012366 Ry
     one-center paw contrib.   =     -31.24523596 Ry
      -> PAW hartree energy AE =       0.33308188 Ry
      -> PAW hartree energy PS =      -0.33232610 Ry
      -> PAW xc energy AE      =     -32.28742751 Ry
      -> PAW xc energy PS      =       1.04143578 Ry
      -> total E_H with PAW    =      27.71148051 Ry
      -> total E_XC with PAW   =     -62.28114228 Ry

     convergence has been achieved in   8 iterations

     Forces acting on atoms (cartesian axes, Ry/au):

     atom    1 type  1   force =     0.00000000    0.00000000    0.00000000
     atom    2 type  2   force =     0.00000000    0.00000000    0.00000000
     atom    3 type  3   force =     0.05763911    0.01740138    0.01067904
     atom    4 type  3   force =    -0.05763911   -0.01740138   -0.01067904
     The non-local contrib.  to forces
     atom    1 type  1   force =     0.00000000    0.00000000    0.00000000
     atom    2 type  2   force =     0.00000000    0.00000000    0.00000000
     atom    3 type  3   force =    -0.05054625   -0.01531816   -0.00934200
     atom    4 type  3   force =     0.05054625    0.01531816    0.00934200
     The ionic contribution  to forces
     atom    1 type  1   force =     0.00000000    0.00000000    0.00000000
     atom    2 type  2   force =    -0.00000000    0.00000000    0.00000000
     atom    3 type  3   force =    -3.51449097   -1.06330780   -0.65139719
     atom    4 type  3   force =     3.51449097    1.06330780    0.65139719
     The local contribution  to forces
     atom    1 type  1   force =     0.00010454    0.00018492    0.00017117
     atom    2 type  2   force =    -0.00000416   -0.00000586    0.00000152
     atom    3 type  3   force =     3.62144811    1.09560632    0.67111595
     atom    4 type  3   force =    -3.62129975   -1.09559113   -0.67122423
     The core correction contribution to forces
     atom    1 type  1   force =     0.00000057    0.00000674    0.00000832
     atom    2 type  2   force =     0.00000142   -0.00000029   -0.00000000
     atom    3 type  3   force =     0.00265666    0.00080506    0.00048892
     atom    4 type  3   force =    -0.00265357   -0.00080487   -0.00049035
     The Hubbard contrib.    to forces
     atom    1 type  1   force =     0.00000000    0.00000000    0.00000000
     atom    2 type  2   force =     0.00000000    0.00000000    0.00000000
     atom    3 type  3   force =     0.00000000    0.00000000    0.00000000
     atom    4 type  3   force =     0.00000000    0.00000000    0.00000000
     The SCF correction term to forces
     atom    1 type  1   force =    -0.00012876   -0.00010342   -0.00009475
     atom    2 type  2   force =     0.00001953    0.00000589    0.00000144
     atom    3 type  3   force =    -0.00137605   -0.00038141   -0.00020926
     atom    4 type  3   force =     0.00132938    0.00037129    0.00027374

     Total force =     0.086477     Total SCF correction =     0.002025

     Computing stress (Cartesian axis) and pressure

          total   stress  (Ry/bohr**3)                   (kbar)     P=      186.10
   0.00025895  -0.00048741  -0.00029864           38.09      -71.70      -43.93
  -0.00048741   0.00172200  -0.00009047          -71.70      253.31      -13.31
  -0.00029864  -0.00009047   0.00181435          -43.93      -13.31      266.90

     kinetic stress (kbar)   6600.26   -131.83    -80.76
                             -131.83   6996.09    -24.43
                              -80.76    -24.43   7021.01

     local   stress (kbar)   -300.15   1300.35    796.61
                             1300.35  -4204.78    240.98
                              796.61    240.98  -4450.54

     nonloc. stress (kbar)   3492.47    -25.65    -15.72
                              -25.65   3569.51     -4.76
                              -15.72     -4.76   3574.38

     hartree stress (kbar)   1224.31   -595.53   -364.83
                             -595.53   3012.51   -110.37
                             -364.83   -110.37   3125.06

     exc-cor stress (kbar)    683.15      0.50      0.30
                                0.50    681.66      0.09
                                0.30      0.09    681.57

     corecor stress (kbar)  -2705.97      4.19      2.57
                                4.19  -2718.57      0.78
                                2.57      0.78  -2719.36

     ewald   stress (kbar)  -8955.98   -623.73   -382.10
                             -623.73  -7083.11   -115.61
                             -382.10   -115.61  -6965.22

     hubbard stress (kbar)      0.00      0.00      0.00
                                0.00      0.00      0.00
                                0.00      0.00      0.00

     DFT-D   stress (kbar)      0.00      0.00      0.00
                                0.00      0.00      0.00
                                0.00      0.00      0.00

     XDM     stress (kbar)      0.00      0.00      0.00
                                0.00      0.00      0.00
                                0.00      0.00      0.00

     dft-nl  stress (kbar)      0.00      0.00      0.00
                                0.00      0.00      0.00
                                0.00      0.00      0.00

     TS-vdW  stress (kbar)      0.00      0.00      0.00
                                0.00      0.00      0.00
                                0.00      0.00      0.00

[...]

                                0.00      0.00      0.00

     Writing all to output data dir new_calculations/myprefix.save/

     General routines

     Parallel routines

     PAW routines

   This run was terminated on:  11:46:48  20May2023

   JOB DONE.