     Program PWSCF v.7.0 starts on 20May2023 at 15:42:14

     Reading input from espresso_620.pwi
Warning: card &CELL ignored
Warning: card / ignored

     Current dimensions of program PWSCF are:
     Max number of different atomic species (ntypx) = 10
     Max number of k-points (npk) =  40000
     Max angular momentum in pseudopotentials (lmaxx) =  4

     gamma-point specific algorithms are used
     Message from routine setup:
     using ibrav=0 with symmetry is DISCOURAGED, use correct ibrav instead

     Subspace diagonalization in iterative solution of the eigenvalue problem:
     a serial algorithm will be used

     Using Slab Decomposition

     bravais-lattice index     =            0
     lattice parameter (alat)  =      15.8601  a.u.
     unit-cell volume          =    1112.5069 (a.u.)^3
     number of atoms/cell      =            7
     number of atomic types    =            3
     number of electrons       =        46.00
     number of Kohn-Sham states=           28
     kinetic-energy cutoff     =      30.0000  Ry
     charge density cutoff     =     240.0000  Ry
     scf convergence threshold =      1.0E-06
     mixing beta               =       0.7000
     number of iterations used =            8  plain     mixing
     Exchange-correlation= PBE
                           (   1   4   3   4   0   0   0)

     celldm(1)=  15.860098  celldm(2)=   0.000000  celldm(3)=   0.000000
     celldm(4)=   0.000000  celldm(5)=   0.000000  celldm(6)=   0.000000

     crystal axes: (cart. coord. in units of alat)
               a(1) = (   1.000000   0.000000   0.000000 )
               a(2) = (   0.697294   0.716786   0.000000 )
               a(3) = (  -0.848647  -0.358393   0.389041 )

     reciprocal axes: (cart. coord. in units 2 pi/alat)
               b(1) = (  1.000000 -0.972806  1.285210 )
               b(2) = (  0.000000  1.395117  1.285210 )
               b(3) = (  0.000000  0.000000  2.570421 )

     PseudoPot. # 1 for Cs read from file:
     /home/pragov/projects/rrg-bengioy-ad/pragov/crystal_structure_design/SSSP/Cs_pbe_v1.uspp.F.UPF
     MD5 check sum: 3476d69cb178dfad3ffaa59df4e07ca4
     Pseudo is Ultrasoft + core correction, Zval =  9.0
     Generated by new atomic code, or converted to UPF format
     Using radial grid of  905 points,  6 beta functions with:
                l(1) =   0
                l(2) =   0
                l(3) =   1
                l(4) =   1
                l(5) =   2
                l(6) =   2
     Q(r) pseudized with  6 coefficients,  rinner =    1.500   1.500   1.500
                                                       1.500   1.500

     PseudoPot. # 2 for Yb read from file:
     /home/pragov/projects/rrg-bengioy-ad/pragov/crystal_structure_design/SSSP/Yb.GGA-PBE-paw-v1.0.UPF
     MD5 check sum: 43b6465ad8021f06e3edb42ae292e187
     Pseudo is Projector augmented-wave + core cor, Zval = 24.0
     Generated using ATOMPAW code
     Shape of augmentation charge: BESSEL
     Using radial grid of 1117 points,  8 beta functions with:
                l(1) =   0
                l(2) =   0
                l(3) =   1
                l(4) =   1
                l(5) =   2
                l(6) =   2
                l(7) =   3
                l(8) =   3
     Q(r) pseudized with 0 coefficients

     PseudoPot. # 3 for H  read from file:
     /home/pragov/projects/rrg-bengioy-ad/pragov/crystal_structure_design/SSSP/H.pbe-rrkjus_psl.1.0.0.UPF
     MD5 check sum: f52b6d4d1c606e5624b1dc7b2218f220
     Pseudo is Ultrasoft, Zval =  1.0
     Generated using "atomic" code by A. Dal Corso  v.5.1
     Using radial grid of  929 points,  2 beta functions with:
                l(1) =   0
                l(2) =   0
     Q(r) pseudized with 0 coefficients

     atomic species   valence    mass     pseudopotential
        Cs             9.00   132.90545     Cs( 1.00)
        Yb            24.00   173.05400     Yb( 1.00)
        H              1.00     1.00800     H ( 1.00)

      4 Sym. Ops., with inversion, found

                                    s                        frac. trans.

      isym =  1     identity

 cryst.   s( 1) = (     1          0          0      )
                  (     0          1          0      )
                  (     0          0          1      )

 cart.    s( 1) = (  1.0000000 -0.0000000 -0.0000000 )
                  (  0.0000000  1.0000000  0.0000000 )
                  (  0.0000000  0.0000000  1.0000000 )

      isym =  2     180 deg rotation - cart. axis [0,0,1]

[...]

      isym =  3     inversion

[...]

      isym =  4     inv. 180 deg rotation - cart. axis [0,0,1]

 cryst.   s( 4) = (     1          0          0      )
                  (     0          1          0      )
                  (    -1         -1         -1      )

 cart.    s( 4) = (  1.0000000 -0.0000000 -0.0000000 )
                  (  0.0000000  1.0000000 -0.0000000 )
                  (  0.0000000  0.0000000 -1.0000000 )

   Cartesian axes

     site n.     atom                  positions (alat units)
         1           Cs  tau(   1) = (   0.5995350   0.2531902   0.0000000  )
         2           Cs  tau(   2) = (   1.0977586   0.4635954   0.0000000  )
         3           Yb  tau(   3) = (   0.0000000   0.0000000   0.0000000  )
         4           H   tau(   4) = (   0.2559196   0.1080777   0.0000000  )
         5           H   tau(   5) = (   1.4413740   0.6087080   0.0000000  )
         6           H   tau(   6) = (   0.0756766  -0.1791964   0.1945207  )
         7           H   tau(   7) = (  -0.0756766   0.1791964   0.1945207  )

   Crystallographic axes

     site n.     atom                  positions (cryst. coord.)
         1           Cs  tau(   1) = (  0.3532300  0.3532300  0.0000000  )
         2           Cs  tau(   2) = (  0.6467700  0.6467700  0.0000000  )
         3           Yb  tau(   3) = (  0.0000000  0.0000000  0.0000000  )
         4           H   tau(   4) = (  0.1507810  0.1507810  0.0000000  )
         5           H   tau(   5) = (  0.8492190  0.8492190  0.0000000  )
         6           H   tau(   6) = (  0.5000000  0.0000000  0.5000000  )
         7           H   tau(   7) = (  0.0000000  0.5000000  0.5000000  )

     number of k points=     1  Methfessel-Paxton smearing, width (Ry)=  0.0010
                       cart. coord. in units 2pi/alat
        k(    1) = (   0.0000000   0.0000000   0.0000000), wk =   2.0000000

                       cryst. coord.
        k(    1) = (   0.0000000   0.0000000   0.0000000), wk =   2.0000000

     Initial potential from superposition of free atoms

     starting charge      45.9172, renormalised to      46.0000
     Starting wfcs are   62 randomized atomic wfcs
     Checking if some PAW data can be deallocated...

     Self-consistent Calculation

     iteration #  1     ecut=    30.00 Ry     beta= 0.70
     Davidson diagonalization with overlap

     ethr =  1.00E-02,  avg # of iterations =  7.0

     total energy              =   -1145.37639692 Ry
     estimated scf accuracy    <       1.42114666 Ry

[...]

     total energy              =   -1145.95676864 Ry
     estimated scf accuracy    <       0.00000110 Ry

     iteration # 32     ecut=    30.00 Ry     beta= 0.70
     Davidson diagonalization with overlap

     ethr =  2.39E-09,  avg # of iterations =  5.0

     End of self-consistent calculation

          k = 0.0000 0.0000 0.0000 (  1561 PWs)   bands (ev):

   -44.7755 -18.0754 -17.7139 -17.2879 -13.6477 -13.5498  -9.5535  -7.2963
    -5.3170  -4.5292  -2.0544  -1.0687   1.1851   2.7231   3.1534   3.3772
     6.7433   6.7874   6.8609   6.8718   6.9531   7.0964   7.1135   8.1238
     8.3812   9.0782   9.2739   9.5668

     occupation numbers
     1.0000   1.0000   1.0000   1.0000   1.0000   1.0000   1.0000   1.0000
     1.0000   1.0000   1.0000   1.0000   1.0000   1.0000   1.0000   1.0000
     1.0000   1.0000   1.0000   1.0000   1.0000   1.0000   1.0000  -0.0000
    -0.0000  -0.0000  -0.0000  -0.0000

     the Fermi energy is     7.9962 ev

!    total energy              =   -1145.95676866 Ry
     estimated scf accuracy    <       0.00000023 Ry
     smearing contrib. (-TS)   =       0.00000000 Ry
     internal energy E=F+TS    =   -1145.95676866 Ry

     The total energy is F=E-TS. E is the sum of the following terms:
     one-electron contribution =    -562.76242020 Ry
     hartree contribution      =     261.24030166 Ry
     xc contribution           =    -103.23716259 Ry
     ewald contribution        =    -257.58458431 Ry
     one-center paw contrib.   =    -483.61290321 Ry
      -> PAW hartree energy AE =     445.39914802 Ry
      -> PAW hartree energy PS =    -381.26593328 Ry
      -> PAW xc energy AE      =    -584.56827360 Ry
      -> PAW xc energy PS      =      36.82215565 Ry
      -> total E_H with PAW    =     325.37351640 Ry
      -> total E_XC with PAW   =    -650.98328054 Ry

     convergence has been achieved in  32 iterations

     Forces acting on atoms (cartesian axes, Ry/au):

     atom    1 type  1   force =     0.10753330   -0.07231080   -0.00000000
     atom    2 type  1   force =    -0.10753330    0.07231080    0.00000000
     atom    3 type  2   force =     0.00000000    0.00000000    0.00000000
     atom    4 type  3   force =    -0.01312715   -0.00577995    0.00000000
     atom    5 type  3   force =     0.01312715    0.00577995   -0.00000000
     atom    6 type  3   force =     0.00000000    0.00000000    0.00000000
     atom    7 type  3   force =     0.00000000    0.00000000   -0.00000000
     The non-local contrib.  to forces
     atom    1 type  1   force =     0.00819087    0.00053911   -0.00000000
     atom    2 type  1   force =    -0.00819087   -0.00053911    0.00000000
     atom    3 type  2   force =     0.00000000    0.00000000    0.00000000
     atom    4 type  3   force =    -0.00552852   -0.00222660    0.00000000
     atom    5 type  3   force =     0.00552852    0.00222660   -0.00000000
     atom    6 type  3   force =     0.00000000   -0.00000000   -0.00000000
     atom    7 type  3   force =     0.00000000    0.00000000    0.00000000
     The ionic contribution  to forces
     atom    1 type  1   force =    -8.30992371   -3.50937156    0.00000000
     atom    2 type  1   force =     8.30992371    3.50937156   -0.00000000
     atom    3 type  2   force =     0.00000000    0.00000000    0.00000000
     atom    4 type  3   force =     2.03791238    0.86063266   -0.00000000
     atom    5 type  3   force =    -2.03791238   -0.86063266    0.00000000
     atom    6 type  3   force =    -0.00000000    0.00000000    0.00000000
     atom    7 type  3   force =     0.00000000   -0.00000000   -0.00000000
     The local contribution  to forces
     atom    1 type  1   force =     8.38228553    3.43015447    0.06438825
     atom    2 type  1   force =    -8.38227225   -3.43016359   -0.06438272
     atom    3 type  2   force =    -0.00008282   -0.00007570   -0.00008443
     atom    4 type  3   force =    -2.04554730   -0.86420009   -0.00003108
     atom    5 type  3   force =     2.04554902    0.86420281    0.00003099
     atom    6 type  3   force =    -0.00000290   -0.00000223   -0.00000003
     atom    7 type  3   force =    -0.00000321    0.00000053    0.00000054
     The core correction contribution to forces
     atom    1 type  1   force =     0.02711162    0.00641537    0.00255363
     atom    2 type  1   force =    -0.02711140   -0.00641534   -0.00255282
     atom    3 type  2   force =    -0.00000000   -0.00000000   -0.00000000
     atom    4 type  3   force =     0.00000000    0.00000000    0.00000000
     atom    5 type  3   force =     0.00000000    0.00000000    0.00000000
     atom    6 type  3   force =     0.00000000    0.00000000    0.00000000
     atom    7 type  3   force =     0.00000000    0.00000000    0.00000000
     The Hubbard contrib.    to forces
     atom    1 type  1   force =     0.00000000    0.00000000    0.00000000
     atom    2 type  1   force =     0.00000000    0.00000000    0.00000000
     atom    3 type  2   force =     0.00000000    0.00000000    0.00000000
     atom    4 type  3   force =     0.00000000    0.00000000    0.00000000
     atom    5 type  3   force =     0.00000000    0.00000000    0.00000000
     atom    6 type  3   force =     0.00000000    0.00000000    0.00000000
     atom    7 type  3   force =     0.00000000    0.00000000    0.00000000
     The SCF correction term to forces
     atom    1 type  1   force =    -0.00013073   -0.00005189    0.00000622
     atom    2 type  1   force =     0.00011780    0.00005358   -0.00000951
     atom    3 type  2   force =     0.00006555    0.00017478    0.00016232
     atom    4 type  3   force =     0.00003610    0.00001476    0.00000104
     atom    5 type  3   force =    -0.00003819   -0.00001609   -0.00000012
     atom    6 type  3   force =     0.00000174    0.00000180   -0.00000036
     atom    7 type  3   force =     0.00000276   -0.00000097   -0.00000091

     Total force =     0.184380     Total SCF correction =     0.000318

     Computing stress (Cartesian axis) and pressure

          total   stress  (Ry/bohr**3)                   (kbar)     P=      248.70
  -0.00118615   0.00184294   0.00000000         -174.49      271.11        0.00
   0.00184294   0.00120300  -0.00000000          271.11      176.97       -0.00
   0.00000000  -0.00000000   0.00505511            0.00       -0.00      743.63

     kinetic stress (kbar)   4506.07    -36.32     -0.00
                              -36.32   5006.09     -0.00
                               -0.00     -0.00   5396.54

     local   stress (kbar)   2141.25   7519.58    -40.86
                             7519.58 -12270.23    -27.77
                              -40.86    -27.77 -15134.21

     nonloc. stress (kbar)   6322.33    164.01     -0.00
                              164.01   6275.94     -0.00
                               -0.00     -0.00   6245.93

     hartree stress (kbar)   6407.61  -3588.81      7.23
                            -3588.81  13337.97      2.69
                                7.23      2.69  14797.82

     exc-cor stress (kbar)   3711.45     -0.70      0.49
                               -0.70   3710.12      0.10
                                0.49      0.10   3706.57

     corecor stress (kbar)  -6416.05     34.21     -0.36
                               34.21  -6469.70     -6.72
                               -0.36     -6.72  -6469.38

     ewald   stress (kbar) -16847.15  -3820.86      0.00
                            -3820.86  -9413.23      0.00
                                0.00      0.00  -7799.64

     hubbard stress (kbar)      0.00      0.00      0.00
                                0.00      0.00      0.00
                                0.00      0.00      0.00

     DFT-D   stress (kbar)      0.00      0.00      0.00
                                0.00      0.00      0.00
                                0.00      0.00      0.00

     XDM     stress (kbar)      0.00      0.00      0.00
                                0.00      0.00      0.00
                                0.00      0.00      0.00

     dft-nl  stress (kbar)      0.00      0.00      0.00
                                0.00      0.00      0.00
                                0.00      0.00      0.00

     TS-vdW  stress (kbar)      0.00      0.00      0.00
                                0.00      0.00      0.00
                                0.00      0.00      0.00

[...]

                                0.00      0.00      0.00

     Writing all to output data dir new_calculations/myprefix.save/

     General routines

     Parallel routines

     PAW routines

   This run was terminated on:  15:43:13  20May2023

   JOB DONE.