     Program PWSCF v.7.0 starts on 20May2023 at 18:21:13

     Reading input from espresso_1596.pwi
Warning: card &CELL ignored
Warning: card / ignored

     Current dimensions of program PWSCF are:
     Max number of different atomic species (ntypx) = 10
     Max number of k-points (npk) =  40000
     Max angular momentum in pseudopotentials (lmaxx) =  4

     gamma-point specific algorithms are used
     Message from routine setup:
     using ibrav=0 with symmetry is DISCOURAGED, use correct ibrav instead

     Subspace diagonalization in iterative solution of the eigenvalue problem:
     a serial algorithm will be used

     Using Slab Decomposition

     bravais-lattice index     =            0
     lattice parameter (alat)  =      14.4761  a.u.
     unit-cell volume          =    2331.5545 (a.u.)^3
     number of atoms/cell      =            9
     number of atomic types    =            4
     number of electrons       =        78.00
     number of Kohn-Sham states=           47
     kinetic-energy cutoff     =      30.0000  Ry
     charge density cutoff     =     240.0000  Ry
     scf convergence threshold =      1.0E-06
     mixing beta               =       0.7000
     number of iterations used =            8  plain     mixing
     Exchange-correlation=  SLA  PW   PBX  PBC
                           (   1   4   3   4   0   0   0)

     celldm(1)=  14.476145  celldm(2)=   0.000000  celldm(3)=   0.000000
     celldm(4)=   0.000000  celldm(5)=   0.000000  celldm(6)=   0.000000

     crystal axes: (cart. coord. in units of alat)
               a(1) = (   1.000000   0.000000   0.000000 )
               a(2) = (  -0.289450   0.957193   0.000000 )
               a(3) = (  -0.355275  -0.478597   0.802948 )

     reciprocal axes: (cart. coord. in units 2 pi/alat)
               b(1) = (  1.000000  0.302394  0.622706 )
               b(2) = (  0.000000  1.044721  0.622706 )
               b(3) = (  0.000000  0.000000  1.245411 )

     PseudoPot. # 1 for Cs read from file:
     /home/pragov/projects/rrg-bengioy-ad/pragov/crystal_structure_design/SSSP/Cs_pbe_v1.uspp.F.UPF
     MD5 check sum: 3476d69cb178dfad3ffaa59df4e07ca4
     Pseudo is Ultrasoft + core correction, Zval =  9.0
     Generated by new atomic code, or converted to UPF format
     Using radial grid of  905 points,  6 beta functions with:
                l(1) =   0
                l(2) =   0
                l(3) =   1
                l(4) =   1
                l(5) =   2
                l(6) =   2
     Q(r) pseudized with  6 coefficients,  rinner =    1.500   1.500   1.500
                                                       1.500   1.500

     PseudoPot. # 2 for Pd read from file:
     /home/pragov/projects/rrg-bengioy-ad/pragov/crystal_structure_design/SSSP/Pd_ONCV_PBE-1.0.oncvpsp.upf
     MD5 check sum: eb77f42b51d86fb18e25f68156a31cf1
     Pseudo is Norm-conserving, Zval = 18.0
     Generated using ONCVPSP code by D. R. Hamann
     Using radial grid of 1410 points,  6 beta functions with:
                l(1) =   0
                l(2) =   0
                l(3) =   1
                l(4) =   1
                l(5) =   2
                l(6) =   2

     PseudoPot. # 3 for I  read from file:
     /home/pragov/projects/rrg-bengioy-ad/pragov/crystal_structure_design/SSSP/I.pbe-n-kjpaw_psl.0.2.UPF
     MD5 check sum: d4ef18d9c8f18dc85e5843bca1e50dc0
     Pseudo is Projector augmented-wave + core cor, Zval =  7.0
     Generated using "atomic" code by A. Dal Corso  v.5.0.99 svn rev. 10869
     Shape of augmentation charge: PSQ
     Using radial grid of 1247 points,  4 beta functions with:
                l(1) =   0
                l(2) =   0
                l(3) =   1
                l(4) =   1
     Q(r) pseudized with 0 coefficients

     PseudoPot. # 4 for Br read from file:
     /home/pragov/projects/rrg-bengioy-ad/pragov/crystal_structure_design/SSSP/br_pbe_v1.4.uspp.F.UPF
     MD5 check sum: d3ffb7b29f6225aa16fe06858fb2a80b
     Pseudo is Ultrasoft + core correction, Zval =  7.0
     Generated by new atomic code, or converted to UPF format
     Using radial grid of  879 points,  6 beta functions with:
                l(1) =   0
                l(2) =   0
                l(3) =   1
                l(4) =   1
                l(5) =   2
                l(6) =   2
     Q(r) pseudized with  8 coefficients,  rinner =    1.100   1.100   1.100
                                                       1.100   1.100

     atomic species   valence    mass     pseudopotential
        Cs             9.00   132.90545     Cs( 1.00)
        Pd            18.00   106.42000     Pd( 1.00)
        I              7.00   126.90447     I ( 1.00)
        Br             7.00    79.90400     Br( 1.00)

      4 Sym. Ops., with inversion, found

                                    s                        frac. trans.

      isym =  1     identity

 cryst.   s( 1) = (     1          0          0      )
                  (     0          1          0      )
                  (     0          0          1      )

 cart.    s( 1) = (  1.0000000  0.0000000  0.0000000 )
                  (  0.0000000  1.0000000  0.0000000 )
                  (  0.0000000  0.0000000  1.0000000 )

      isym =  2     180 deg rotation - cart. axis [0,0,1]

[...]

      isym =  3     inversion

[...]

      isym =  4     inv. 180 deg rotation - cart. axis [0,0,1]

 cryst.   s( 4) = (     1          0          0      )
                  (     0          1          0      )
                  (    -1         -1         -1      )

 cart.    s( 4) = (  1.0000000  0.0000000 -0.0000000 )
                  (  0.0000000  1.0000000 -0.0000000 )
                  (  0.0000000  0.0000000 -1.0000000 )

   Cartesian axes

     site n.     atom                  positions (alat units)
         1           Cs  tau(   1) = (   0.5000000   0.0000000   0.4014738  )
         2           Cs  tau(   2) = (  -0.1447248   0.4785966   0.4014738  )
         3           Pd  tau(   3) = (   0.0000000   0.0000000   0.0000000  )
         4           I   tau(   4) = (   0.2432832   0.3277305   0.0000000  )
         5           I   tau(   5) = (   0.4672671   0.6294627   0.0000000  )
         6           Br  tau(   6) = (   0.0000000   0.0000000   0.3240889  )
         7           Br  tau(   7) = (  -0.0292233   0.7640202   0.0000000  )
         8           Br  tau(   8) = (   0.7397736   0.1931731   0.0000000  )
         9           Br  tau(   9) = (   0.3552752   0.4785966   0.4788587  )

   Crystallographic axes

     site n.     atom                  positions (cryst. coord.)
         1           Cs  tau(   1) = (  0.7500000  0.2500000  0.5000000  )
         2           Cs  tau(   2) = (  0.2500000  0.7500000  0.5000000  )
         3           Pd  tau(   3) = (  0.0000000  0.0000000  0.0000000  )
         4           I   tau(   4) = (  0.3423870  0.3423870  0.0000000  )
         5           I   tau(   5) = (  0.6576130  0.6576130  0.0000000  )
         6           Br  tau(   6) = (  0.2018120  0.2018120  0.4036240  )
         7           Br  tau(   7) = (  0.2018120  0.7981880  0.0000000  )
         8           Br  tau(   8) = (  0.7981880  0.2018120  0.0000000  )
         9           Br  tau(   9) = (  0.7981880  0.7981880  0.5963760  )

     number of k points=     1  Methfessel-Paxton smearing, width (Ry)=  0.0010
                       cart. coord. in units 2pi/alat
        k(    1) = (   0.0000000   0.0000000   0.0000000), wk =   2.0000000

                       cryst. coord.
        k(    1) = (   0.0000000   0.0000000   0.0000000), wk =   2.0000000

     Check: negative core charge=   -0.000001

     Initial potential from superposition of free atoms

     starting charge      77.9206, renormalised to      78.0000
     Starting wfcs are   60 randomized atomic wfcs
     Checking if some PAW data can be deallocated...

     Self-consistent Calculation

     iteration #  1     ecut=    30.00 Ry     beta= 0.70
     Davidson diagonalization with overlap

     ethr =  1.00E-02,  avg # of iterations =  3.0

     Threshold (ethr) on eigenvalues was too large:
     Diagonalizing with lowered threshold

     Davidson diagonalization with overlap

[...]

     negative rho (up, down):  2.754E-04 0.000E+00

     total energy              =   -1324.70928439 Ry
     estimated scf accuracy    <       0.32691609 Ry

[...]

     total energy              =   -1324.82368292 Ry
     estimated scf accuracy    <       0.00000163 Ry

     iteration # 10     ecut=    30.00 Ry     beta= 0.70
     Davidson diagonalization with overlap

     ethr =  2.09E-09,  avg # of iterations =  2.0

[...]

     End of self-consistent calculation

          k = 0.0000 0.0000 0.0000 (  3238 PWs)   bands (ev):

   -80.8675 -46.7028 -46.6272 -45.7380 -17.1694 -17.1452 -10.3994 -10.0411
   -10.0396  -9.9782  -8.8702  -7.5070  -4.2921  -4.0126  -4.0116  -3.9862
    -3.9851  -3.8859  -0.8141  -0.3278   0.1056   0.3433   0.5529   0.5751
     0.8408   0.8711   1.6092   2.1002   2.1007   2.4214   2.6683   2.6926
     2.8229   2.9120   2.9456   2.9608   3.4205   3.4493   3.5731   4.3501
     5.0265   7.3633   8.2551   8.7559   8.9124   8.9173   8.9280

     occupation numbers
     1.0000   1.0000   1.0000   1.0000   1.0000   1.0000   1.0000   1.0000
     1.0000   1.0000   1.0000   1.0000   1.0000   1.0000   1.0000   1.0000
     1.0000   1.0000   1.0000   1.0000   1.0000   1.0000   1.0000   1.0000
     1.0000   1.0000   1.0000   1.0000   1.0000   1.0000   1.0000   1.0000
     1.0000   1.0000   1.0000   1.0000   1.0000   1.0000   1.0000  -0.0000
    -0.0000  -0.0000  -0.0000  -0.0000  -0.0000  -0.0000  -0.0000

     the Fermi energy is     4.1385 ev

!    total energy              =   -1324.82368319 Ry
     estimated scf accuracy    <       0.00000028 Ry
     smearing contrib. (-TS)   =       0.00000000 Ry
     internal energy E=F+TS    =   -1324.82368319 Ry

     The total energy is F=E-TS. E is the sum of the following terms:
     one-electron contribution =    -298.12187623 Ry
     hartree contribution      =     176.28225442 Ry
     xc contribution           =    -273.47061870 Ry
     ewald contribution        =    -288.46536245 Ry
     one-center paw contrib.   =    -641.04808023 Ry
      -> PAW hartree energy AE =      18.51731269 Ry
      -> PAW hartree energy PS =     -18.63266856 Ry
      -> PAW xc energy AE      =    -721.66539661 Ry
      -> PAW xc energy PS      =      80.73267225 Ry
      -> total E_H with PAW    =     176.16689856 Ry
      -> total E_XC with PAW   =    -914.40334307 Ry

     convergence has been achieved in  10 iterations

     negative rho (up, down):  2.265E-04 0.000E+00

     Forces acting on atoms (cartesian axes, Ry/au):

     atom    1 type  1   force =     0.00000000    0.00000000   -0.00005361
     atom    2 type  1   force =     0.00000000    0.00000000    0.00005361
     atom    3 type  2   force =     0.00000000    0.00000000    0.00000000
     atom    4 type  3   force =     0.04603570    0.06006288   -0.00000000
     atom    5 type  3   force =    -0.04603570   -0.06006288    0.00000000
     atom    6 type  4   force =     0.00000000    0.00000000   -0.02421457
     atom    7 type  4   force =    -0.02332741    0.01468854    0.00000000
     atom    8 type  4   force =     0.02332741   -0.01468854   -0.00000000
     atom    9 type  4   force =     0.00000000    0.00000000    0.02421457
     The non-local contrib.  to forces
     atom    1 type  1   force =     0.00000000    0.00000000    0.00019553
     atom    2 type  1   force =     0.00000000    0.00000000   -0.00019553
     atom    3 type  2   force =     0.00000000    0.00000000    0.00000000
     atom    4 type  3   force =     0.06779646    0.08968931   -0.00000000
     atom    5 type  3   force =    -0.06779646   -0.08968931    0.00000000
     atom    6 type  4   force =     0.00000000    0.00000000    0.04902837
     atom    7 type  4   force =     0.03968360   -0.03171959    0.00000000
     atom    8 type  4   force =    -0.03968360    0.03171959   -0.00000000
     atom    9 type  4   force =     0.00000000    0.00000000   -0.04902837
     The ionic contribution  to forces
     atom    1 type  1   force =    -0.00000000    0.00000000    0.00000000
     atom    2 type  1   force =     0.00000000   -0.00000000    0.00000000
     atom    3 type  2   force =     0.00000000   -0.00000000    0.00000000
     atom    4 type  3   force =     2.35850689    3.17718076    0.00000000
     atom    5 type  3   force =    -2.35850689   -3.17718076   -0.00000000
     atom    6 type  4   force =     0.00000000    0.00000000    9.80148994
     atom    7 type  4   force =     7.87008274   -5.84217449   -0.00000000
     atom    8 type  4   force =    -7.87008274    5.84217449   -0.00000000
     atom    9 type  4   force =    -0.00000000   -0.00000000   -9.80148994
     The local contribution  to forces
     atom    1 type  1   force =    -0.00025056    0.00013887   -0.00015693
     atom    2 type  1   force =     0.00028432   -0.00017646    0.00016687
     atom    3 type  2   force =     0.00039475    0.00115145   -0.00001087
     atom    4 type  3   force =    -2.36291948   -3.18352161   -0.00157991
     atom    5 type  3   force =     2.36275700    3.18312653    0.00155177
     atom    6 type  4   force =     0.00140922    0.00277875   -9.89755586
     atom    7 type  4   force =    -7.95225637    5.90253267   -0.00182714
     atom    8 type  4   force =     7.95229520   -5.90236547    0.00182576
     atom    9 type  4   force =    -0.00136066   -0.00261952    9.89758073
     The core correction contribution to forces
     atom    1 type  1   force =    -0.00003234    0.00003655   -0.00009157
     atom    2 type  1   force =     0.00003449   -0.00003970    0.00009156
     atom    3 type  2   force =     0.00000000    0.00000000    0.00000000
     atom    4 type  3   force =    -0.01740277   -0.02346489   -0.00033007
     atom    5 type  3   force =     0.01740650    0.02344170    0.00032690
     atom    6 type  4   force =    -0.00026613   -0.00048432    0.02302100
     atom    7 type  4   force =     0.01931513   -0.01395831    0.00015864
     atom    8 type  4   force =    -0.01931117    0.01396132   -0.00015903
     atom    9 type  4   force =     0.00026781    0.00048871   -0.02301986
     The Hubbard contrib.    to forces
     atom    1 type  1   force =     0.00000000    0.00000000    0.00000000
     atom    2 type  1   force =     0.00000000    0.00000000    0.00000000
     atom    3 type  2   force =     0.00000000    0.00000000    0.00000000
     atom    4 type  3   force =     0.00000000    0.00000000    0.00000000
     atom    5 type  3   force =     0.00000000    0.00000000    0.00000000
     atom    6 type  4   force =     0.00000000    0.00000000    0.00000000
     atom    7 type  4   force =     0.00000000    0.00000000    0.00000000
     atom    8 type  4   force =     0.00000000    0.00000000    0.00000000
     atom    9 type  4   force =     0.00000000    0.00000000    0.00000000
     The SCF correction term to forces
     atom    1 type  1   force =     0.00000168    0.00001294   -0.00000038
     atom    2 type  1   force =    -0.00001706    0.00000308   -0.00000904
     atom    3 type  2   force =    -0.00043189   -0.00128980    0.00000851
     atom    4 type  3   force =     0.00006868    0.00018867    0.00001500
     atom    5 type  3   force =     0.00011824    0.00024833    0.00001531
     atom    6 type  4   force =    -0.00003779   -0.00010027   -0.00020073
     atom    7 type  4   force =    -0.00017321   -0.00000347   -0.00000473
     atom    8 type  4   force =     0.00008902   -0.00019020    0.00000801
     atom    9 type  4   force =    -0.00002666   -0.00010589    0.00016930

     Total force =     0.118938     Total SCF correction =     0.001461

     Computing stress (Cartesian axis) and pressure

     negative rho (up, down):  2.265E-04 0.000E+00
          total   stress  (Ry/bohr**3)                   (kbar)     P=      -37.65
  -0.00030090   0.00005898   0.00000000          -44.26        8.68        0.00
   0.00005898  -0.00018128   0.00000000            8.68      -26.67        0.00
   0.00000000   0.00000000  -0.00028560            0.00        0.00      -42.01

     kinetic stress (kbar)   6584.60     91.97     -0.00
                               91.97   6647.96     -0.00
                               -0.00     -0.00   6521.43

     local   stress (kbar)  -3533.23   1660.33      3.37
                             1660.33  -2514.51      3.78
                                3.37      3.78  -4756.33

     nonloc. stress (kbar)   1241.64     -9.74     -0.00
                               -9.74   1228.10     -0.00
                               -0.00     -0.00   1245.16

     hartree stress (kbar)   3675.96   -703.85     -0.15
                             -703.85   3249.19     -0.22
                               -0.15     -0.22   4197.05

     exc-cor stress (kbar)  10920.39     -1.51      0.04
                               -1.51  10919.66      0.04
                                0.04      0.04  10921.60

     corecor stress (kbar) -12819.49      5.52     -0.31
                                5.52 -12817.55     -0.38
                               -0.31     -0.38 -12824.40

     ewald   stress (kbar)  -6114.14  -1034.06     -0.00
                            -1034.06  -6739.52     -0.00
                               -0.00     -0.00  -5346.53

     hubbard stress (kbar)      0.00      0.00      0.00
                                0.00      0.00      0.00
                                0.00      0.00      0.00

     DFT-D   stress (kbar)      0.00      0.00      0.00
                                0.00      0.00      0.00
                                0.00      0.00      0.00

     XDM     stress (kbar)      0.00      0.00      0.00
                                0.00      0.00      0.00
                                0.00      0.00      0.00

     dft-nl  stress (kbar)      0.00      0.00      0.00
                                0.00      0.00      0.00
                                0.00      0.00      0.00

     TS-vdW  stress (kbar)      0.00      0.00      0.00
                                0.00      0.00      0.00
                                0.00      0.00      0.00

[...]

                                0.00      0.00      0.00

     Writing all to output data dir new_calculations/myprefix.save/

     General routines

     Parallel routines

     PAW routines

   This run was terminated on:  18:21:33  20May2023

   JOB DONE.