     Program PWSCF v.7.0 starts on 21May2023 at  8: 2:50

     Reading input from espresso_24536.pwi
Warning: card &CELL ignored
Warning: card / ignored

     Current dimensions of program PWSCF are:
     Max number of different atomic species (ntypx) = 10
     Max number of k-points (npk) =  40000
     Max angular momentum in pseudopotentials (lmaxx) =  4

     gamma-point specific algorithms are used
     Message from routine setup:
     using ibrav=0 with symmetry is DISCOURAGED, use correct ibrav instead

     Subspace diagonalization in iterative solution of the eigenvalue problem:
     a serial algorithm will be used

     Using Slab Decomposition

     bravais-lattice index     =            0
     lattice parameter (alat)  =       7.2355  a.u.
     unit-cell volume          =    2676.7857 (a.u.)^3
     number of atoms/cell      =           20
     number of atomic types    =            3
     number of electrons       =       172.00
     number of Kohn-Sham states=          103
     kinetic-energy cutoff     =      30.0000  Ry
     charge density cutoff     =     240.0000  Ry
     scf convergence threshold =      1.0E-06
     mixing beta               =       0.7000
     number of iterations used =            8  plain     mixing
     Exchange-correlation=  SLA  PW   PBX  PBC
                           (   1   4   3   4   0   0   0)

     celldm(1)=   7.235516  celldm(2)=   0.000000  celldm(3)=   0.000000
     celldm(4)=   0.000000  celldm(5)=   0.000000  celldm(6)=   0.000000

     crystal axes: (cart. coord. in units of alat)
               a(1) = (   1.000000   0.000000   0.000000 )
               a(2) = (   0.000000   2.059005   0.000000 )
               a(3) = (   0.000000   0.000000   3.432003 )

     reciprocal axes: (cart. coord. in units 2 pi/alat)
               b(1) = (  1.000000  0.000000  0.000000 )
               b(2) = (  0.000000  0.485671  0.000000 )
               b(3) = (  0.000000  0.000000  0.291375 )

     PseudoPot. # 1 for La read from file:
     /home/pragov/projects/rrg-bengioy-ad/pragov/crystal_structure_design/SSSP/La.GGA-PBE-paw-v1.0.UPF
     MD5 check sum: 436541e95c1ad8901025bd0b0ed42ae2
     Pseudo is Projector augmented-wave + core cor, Zval = 11.0
     Generated using ATOMPAW code
     Shape of augmentation charge: BESSEL
     Using radial grid of 1101 points,  8 beta functions with:
                l(1) =   0
                l(2) =   0
                l(3) =   1
                l(4) =   1
                l(5) =   2
                l(6) =   2
                l(7) =   3
                l(8) =   3
     Q(r) pseudized with 0 coefficients

     PseudoPot. # 2 for Cr read from file:
     /home/pragov/projects/rrg-bengioy-ad/pragov/crystal_structure_design/SSSP/cr_pbe_v1.5.uspp.F.UPF
     MD5 check sum: 0d52af634a40206e4dee301ad30da4bf
     Pseudo is Ultrasoft + core correction, Zval = 14.0
     Generated by new atomic code, or converted to UPF format
     Using radial grid of  857 points,  6 beta functions with:
                l(1) =   0
                l(2) =   0
                l(3) =   1
                l(4) =   1
                l(5) =   2
                l(6) =   2
     Q(r) pseudized with  8 coefficients,  rinner =    0.950   0.950   0.950
                                                       0.950   0.950

     PseudoPot. # 3 for S  read from file:
     /home/pragov/projects/rrg-bengioy-ad/pragov/crystal_structure_design/SSSP/s_pbe_v1.4.uspp.F.UPF
     MD5 check sum: 88d86576ff6df21479756cfb9bdac1df
     Pseudo is Ultrasoft + core correction, Zval =  6.0
     Generated by new atomic code, or converted to UPF format
     Using radial grid of  907 points,  6 beta functions with:
                l(1) =   0
                l(2) =   0
                l(3) =   1
                l(4) =   1
                l(5) =   2
                l(6) =   2
     Q(r) pseudized with  8 coefficients,  rinner =    1.300   1.300   1.300
                                                       1.300   1.300

     atomic species   valence    mass     pseudopotential
        La            11.00   138.90547     La( 1.00)
        Cr            14.00    51.99610     Cr( 1.00)
        S              6.00    32.06000     S ( 1.00)

      8 Sym. Ops., with inversion, found ( 6 have fractional translation)

                                    s                        frac. trans.

      isym =  1     identity

 cryst.   s( 1) = (     1          0          0      )
                  (     0          1          0      )
                  (     0          0          1      )

 cart.    s( 1) = (  1.0000000  0.0000000  0.0000000 )
                  (  0.0000000  1.0000000  0.0000000 )
                  (  0.0000000  0.0000000  1.0000000 )

      isym =  2     180 deg rotation - cart. axis [0,0,1]

 cryst.   s( 2) = (    -1          0          0      )    f =(  0.0000000 )
                  (     0         -1          0      )       ( -0.5000000 )
                  (     0          0          1      )       (  0.5000000 )

 cart.    s( 2) = ( -1.0000000  0.0000000  0.0000000 )    f =(  0.0000000 )
                  (  0.0000000 -1.0000000  0.0000000 )       ( -1.0295026 )
                  (  0.0000000  0.0000000  1.0000000 )       (  1.7160017 )

[...]

      isym =  4     180 deg rotation - cart. axis [1,0,0]

[...]

      isym =  5     inversion

 cryst.   s( 5) = (    -1          0          0      )
                  (     0         -1          0      )
                  (     0          0         -1      )

 cart.    s( 5) = ( -1.0000000  0.0000000  0.0000000 )
                  (  0.0000000 -1.0000000  0.0000000 )
                  (  0.0000000  0.0000000 -1.0000000 )

      isym =  6     inv. 180 deg rotation - cart. axis [0,0,1]

[...]

      isym =  8     inv. 180 deg rotation - cart. axis [1,0,0]

 cryst.   s( 8) = (    -1          0          0      )    f =(  0.5000000 )
                  (     0          1          0      )       (  0.0000000 )
                  (     0          0          1      )       (  0.0000000 )

 cart.    s( 8) = ( -1.0000000  0.0000000  0.0000000 )    f =(  0.5000000 )
                  (  0.0000000  1.0000000  0.0000000 )       (  0.0000000 )
                  (  0.0000000  0.0000000  1.0000000 )       (  0.0000000 )

   Cartesian axes

     site n.     atom                  positions (alat units)
         1           La  tau(   1) = (   0.2500000   0.1789399   2.8434046  )
         2           La  tau(   2) = (   0.7500000   1.8800652   0.5885989  )
         3           La  tau(   3) = (   0.2500000   1.2084425   2.3046006  )
         4           La  tau(   4) = (   0.7500000   0.8505627   1.1274028  )
         5           Cr  tau(   5) = (   0.2500000   0.6968229   0.1800807  )
         6           Cr  tau(   6) = (   0.7500000   1.3621822   3.2519228  )
         7           Cr  tau(   7) = (   0.2500000   1.7263255   1.5359211  )
         8           Cr  tau(   8) = (   0.7500000   0.3326796   1.8960824  )
         9           S   tau(   9) = (   0.2500000   1.0064664   3.0740489  )
        10           S   tau(  10) = (   0.7500000   1.0525387   0.3579545  )
        11           S   tau(  11) = (   0.2500000   2.0359690   2.0739562  )
        12           S   tau(  12) = (   0.7500000   0.0230361   1.3580472  )
        13           S   tau(  13) = (   0.2500000   0.6931517   1.6976062  )
        14           S   tau(  14) = (   0.7500000   1.3658534   1.7343973  )
        15           S   tau(  15) = (   0.2500000   1.7226543   0.0183955  )
        16           S   tau(  16) = (   0.7500000   0.3363508   3.4136079  )
        17           S   tau(  17) = (   0.7500000   0.6264482   2.4468297  )
        18           S   tau(  18) = (   0.2500000   1.4325569   0.9851737  )
        19           S   tau(  19) = (   0.7500000   1.6559508   2.7011755  )
        20           S   tau(  20) = (   0.2500000   0.4030544   0.7308280  )

   Crystallographic axes

     site n.     atom                  positions (cryst. coord.)
         1           La  tau(   1) = (  0.2500000  0.0869060  0.8284970  )
         2           La  tau(   2) = (  0.7500000  0.9130940  0.1715030  )
         3           La  tau(   3) = (  0.2500000  0.5869060  0.6715030  )
         4           La  tau(   4) = (  0.7500000  0.4130940  0.3284970  )
         5           Cr  tau(   5) = (  0.2500000  0.3384270  0.0524710  )
         6           Cr  tau(   6) = (  0.7500000  0.6615730  0.9475290  )
         7           Cr  tau(   7) = (  0.2500000  0.8384270  0.4475290  )
         8           Cr  tau(   8) = (  0.7500000  0.1615730  0.5524710  )
         9           S   tau(   9) = (  0.2500000  0.4888120  0.8957010  )
        10           S   tau(  10) = (  0.7500000  0.5111880  0.1042990  )
        11           S   tau(  11) = (  0.2500000  0.9888120  0.6042990  )
        12           S   tau(  12) = (  0.7500000  0.0111880  0.3957010  )
        13           S   tau(  13) = (  0.2500000  0.3366440  0.4946400  )
        14           S   tau(  14) = (  0.7500000  0.6633560  0.5053600  )
        15           S   tau(  15) = (  0.2500000  0.8366440  0.0053600  )
        16           S   tau(  16) = (  0.7500000  0.1633560  0.9946400  )
        17           S   tau(  17) = (  0.7500000  0.3042480  0.7129450  )
        18           S   tau(  18) = (  0.2500000  0.6957520  0.2870550  )
        19           S   tau(  19) = (  0.7500000  0.8042480  0.7870550  )
        20           S   tau(  20) = (  0.2500000  0.1957520  0.2129450  )

     number of k points=     1  Methfessel-Paxton smearing, width (Ry)=  0.0010
                       cart. coord. in units 2pi/alat
        k(    1) = (   0.0000000   0.0000000   0.0000000), wk =   2.0000000

                       cryst. coord.
        k(    1) = (   0.0000000   0.0000000   0.0000000), wk =   2.0000000

     Check: negative core charge=   -0.000004

     Initial potential from superposition of free atoms

     starting charge     167.9654, renormalised to     172.0000

     negative rho (up, down):  7.215E-03 0.000E+00
     Starting wfcs are  216 randomized atomic wfcs
     Checking if some PAW data can be deallocated...

     Self-consistent Calculation

     iteration #  1     ecut=    30.00 Ry     beta= 0.70
     Davidson diagonalization with overlap

     ethr =  1.00E-02,  avg # of iterations =  2.0

     negative rho (up, down):  5.580E-03 0.000E+00

     total energy              =   -2821.90259868 Ry
     estimated scf accuracy    <       4.17899787 Ry

[...]

     total energy              =   -2824.78864587 Ry
     estimated scf accuracy    <       0.00000368 Ry

     iteration # 51     ecut=    30.00 Ry     beta= 0.70
     Davidson diagonalization with overlap

     ethr =  2.14E-09,  avg # of iterations =  1.0

[...]

     End of self-consistent calculation

          k = 0.0000 0.0000 0.0000 (  3712 PWs)   bands (ev):

   -61.5859 -61.5857 -61.5846 -61.5846 -33.2381 -33.2372 -33.2290 -33.2274
   -32.7908 -32.7901 -32.7877 -32.7856 -32.6842 -32.6838 -32.6836 -32.6827
   -21.9497 -21.9470 -21.9377 -21.9351  -6.1982  -6.1974  -6.1519  -6.1236
    -6.0022  -5.9138  -5.7818  -5.7643  -5.3703  -5.3625  -5.3370  -5.3291
    -3.4886  -2.9390  -2.4286  -2.1925  -1.8841  -1.8370  -1.6426  -1.6044
    -1.5272  -1.3973  -1.3638  -1.3390   5.2225   5.4294   5.4484   5.6779
     5.8310   5.8520   5.9423   6.0800   6.6662   6.7395   6.7483   6.7989
     6.9710   6.9951   7.0614   7.1291   7.1899   7.1937   7.2307   7.3113
     7.6859   7.6886   7.6990   7.8161   7.9175   7.9593   8.0555   8.2064
     8.2967   8.5993   8.6512   8.8756   9.6141   9.6151   9.6943   9.9001
     9.9972  10.1444  10.2075  10.2533  10.2669  10.3611  10.3699  10.3805
    10.5895  10.6181  10.6495  10.8165  11.2629  11.6209  11.8044  11.8615
    12.0075  12.1037  12.2320  12.2719  12.3448  12.3717  12.3865

     occupation numbers
     1.0000   1.0000   1.0000   1.0000   1.0000   1.0000   1.0000   1.0000
     1.0000   1.0000   1.0000   1.0000   1.0000   1.0000   1.0000   1.0000
     1.0000   1.0000   1.0000   1.0000   1.0000   1.0000   1.0000   1.0000
     1.0000   1.0000   1.0000   1.0000   1.0000   1.0000   1.0000   1.0000
     1.0000   1.0000   1.0000   1.0000   1.0000   1.0000   1.0000   1.0000
     1.0000   1.0000   1.0000   1.0000   1.0000   1.0000   1.0000   1.0000
     1.0000   1.0000   1.0000   1.0000   1.0000   1.0000   1.0000   1.0000
     1.0000   1.0000   1.0000   1.0000   1.0000   1.0000   1.0000   1.0000
     1.0000   1.0000   1.0000   1.0000   1.0000   1.0000   1.0000   1.0000
     1.0000   1.0000   1.0000   1.0000   1.0000   1.0000   1.0000   1.0000
     1.0000   1.0000   1.0000   1.0000   1.0000   0.7752   0.2564  -0.0316
    -0.0000  -0.0000  -0.0000  -0.0000  -0.0000  -0.0000  -0.0000  -0.0000
    -0.0000  -0.0000  -0.0000  -0.0000  -0.0000  -0.0000  -0.0000

     the Fermi energy is    10.3658 ev

!    total energy              =   -2824.78864553 Ry
     estimated scf accuracy    <       0.00000042 Ry
     smearing contrib. (-TS)   =      -0.00028266 Ry
     internal energy E=F+TS    =   -2824.78836287 Ry

     The total energy is F=E-TS. E is the sum of the following terms:
     one-electron contribution =    -482.42889624 Ry
     hartree contribution      =     325.03454820 Ry
     xc contribution           =    -226.62721504 Ry
     ewald contribution        =    -848.30713125 Ry
     one-center paw contrib.   =   -1592.45966855 Ry
      -> PAW hartree energy AE =     140.18807168 Ry
      -> PAW hartree energy PS =    -140.36774870 Ry
      -> PAW xc energy AE      =   -1621.54782504 Ry
      -> PAW xc energy PS      =      29.26783350 Ry
      -> total E_H with PAW    =     324.85487119 Ry
      -> total E_XC with PAW   =   -1818.90720657 Ry

     convergence has been achieved in  51 iterations

     negative rho (up, down):  7.109E-03 0.000E+00

     Forces acting on atoms (cartesian axes, Ry/au):

     atom    1 type  1   force =     0.00000000   -0.00033017    0.02891083
     atom    2 type  1   force =     0.00000000    0.00033017   -0.02891083
     atom    3 type  1   force =    -0.00000000   -0.00033017   -0.02891083
     atom    4 type  1   force =     0.00000000    0.00033017    0.02891083
     atom    5 type  2   force =     0.00000000    0.03108602   -0.03964340
     atom    6 type  2   force =     0.00000000   -0.03108602    0.03964340
     atom    7 type  2   force =     0.00000000    0.03108602    0.03964340
     atom    8 type  2   force =    -0.00000000   -0.03108602   -0.03964340
     atom    9 type  3   force =     0.00000000    0.01656204    0.01260310
     atom   10 type  3   force =    -0.00000000   -0.01656204   -0.01260310
     atom   11 type  3   force =     0.00000000    0.01656204   -0.01260310
     atom   12 type  3   force =    -0.00000000   -0.01656204    0.01260310
     atom   13 type  3   force =     0.00000000   -0.02148915   -0.00272466
     atom   14 type  3   force =    -0.00000000    0.02148915    0.00272466
     atom   15 type  3   force =     0.00000000   -0.02148915    0.00272466
     atom   16 type  3   force =     0.00000000    0.02148915   -0.00272466
     atom   17 type  3   force =     0.00000000   -0.00941661   -0.00504724
     atom   18 type  3   force =     0.00000000    0.00941661    0.00504724
     atom   19 type  3   force =     0.00000000   -0.00941661    0.00504724
     atom   20 type  3   force =     0.00000000    0.00941661   -0.00504724
     The non-local contrib.  to forces
     atom    1 type  1   force =    -0.00000000    0.00545183   -0.03903560
     atom    2 type  1   force =     0.00000000   -0.00545183    0.03903560
     atom    3 type  1   force =    -0.00000000    0.00545183    0.03903560
     atom    4 type  1   force =     0.00000000   -0.00545183   -0.03903560
     atom    5 type  2   force =     0.00000000    0.04617728    0.00112034
     atom    6 type  2   force =     0.00000000   -0.04617728   -0.00112034
     atom    7 type  2   force =     0.00000000    0.04617728   -0.00112034
     atom    8 type  2   force =     0.00000000   -0.04617728    0.00112034
     atom    9 type  3   force =     0.00000000   -0.00696015    0.06019771
     atom   10 type  3   force =    -0.00000000    0.00696015   -0.06019771
     atom   11 type  3   force =     0.00000000   -0.00696015   -0.06019771
     atom   12 type  3   force =     0.00000000    0.00696015    0.06019771
     atom   13 type  3   force =    -0.00000000   -0.11265537    0.01978588
     atom   14 type  3   force =     0.00000000    0.11265537   -0.01978588
     atom   15 type  3   force =    -0.00000000   -0.11265537   -0.01978588
     atom   16 type  3   force =     0.00000000    0.11265537    0.01978588
     atom   17 type  3   force =    -0.00000000   -0.02452604   -0.05447566
     atom   18 type  3   force =     0.00000000    0.02452604    0.05447566
     atom   19 type  3   force =     0.00000000   -0.02452604    0.05447566
     atom   20 type  3   force =     0.00000000    0.02452604   -0.05447566
     The ionic contribution  to forces
     atom    1 type  1   force =     0.00000000   -0.36909293   -1.77267070
     atom    2 type  1   force =     0.00000000    0.36909293    1.77267070
     atom    3 type  1   force =     0.00000000   -0.36909293    1.77267070
     atom    4 type  1   force =     0.00000000    0.36909293   -1.77267070
     atom    5 type  2   force =     0.00000000   -5.19942882    4.08858235
     atom    6 type  2   force =    -0.00000000    5.19942882   -4.08858235
     atom    7 type  2   force =    -0.00000000   -5.19942882   -4.08858235
     atom    8 type  2   force =    -0.00000000    5.19942882    4.08858235
     atom    9 type  3   force =     0.00000000   -2.67751162   -7.95939626
     atom   10 type  3   force =    -0.00000000    2.67751162    7.95939626
     atom   11 type  3   force =     0.00000000   -2.67751162    7.95939626
     atom   12 type  3   force =     0.00000000    2.67751162   -7.95939626
     atom   13 type  3   force =    -0.00000000    4.89835808   -2.15056926
     atom   14 type  3   force =    -0.00000000   -4.89835808    2.15056926
     atom   15 type  3   force =     0.00000000    4.89835808    2.15056926
     atom   16 type  3   force =    -0.00000000   -4.89835808   -2.15056926
     atom   17 type  3   force =     0.00000000    2.18452789    4.17808242
     atom   18 type  3   force =     0.00000000   -2.18452789   -4.17808242
     atom   19 type  3   force =     0.00000000    2.18452789   -4.17808242
     atom   20 type  3   force =     0.00000000   -2.18452789    4.17808242
     The local contribution  to forces
     atom    1 type  1   force =    -0.00000599    0.36326563    1.84062773
     atom    2 type  1   force =    -0.00000587   -0.36329678   -1.84046419
     atom    3 type  1   force =     0.00000038    0.36316166   -1.84112941
     atom    4 type  1   force =    -0.00000399   -0.36327981    1.84083059
     atom    5 type  2   force =     0.00000368    5.18404854   -4.12662894
     atom    6 type  2   force =     0.00001212   -5.18398245    4.12755102
     atom    7 type  2   force =    -0.00000262    5.18418753    4.12676377
     atom    8 type  2   force =    -0.00001320   -5.18401943   -4.12755363
     atom    9 type  3   force =    -0.00001284    2.70044129    7.91484012
     atom   10 type  3   force =    -0.00000337   -2.70044524   -7.91441653
     atom   11 type  3   force =     0.00000421    2.70068106   -7.91498292
     atom   12 type  3   force =    -0.00000241   -2.70042377    7.91469796
     atom   13 type  3   force =     0.00000123   -4.81345202    2.12896681
     atom   14 type  3   force =    -0.00000040    4.81328294   -2.12941879
     atom   15 type  3   force =     0.00000105   -4.81324314   -2.12887562
     atom   16 type  3   force =     0.00000540    4.81326928    2.12931166
     atom   17 type  3   force =     0.00000313   -2.17080596   -4.13178488
     atom   18 type  3   force =    -0.00000015    2.17066185    4.13153198
     atom   19 type  3   force =     0.00000305   -2.17053836    4.13146978
     atom   20 type  3   force =    -0.00000098    2.17062686   -4.13134401
     The core correction contribution to forces
     atom    1 type  1   force =    -0.00000000    0.00000356    0.00001315
     atom    2 type  1   force =    -0.00000000   -0.00000357   -0.00001318
     atom    3 type  1   force =    -0.00000000    0.00000355   -0.00001318
     atom    4 type  1   force =    -0.00000000   -0.00000357    0.00001317
     atom    5 type  2   force =     0.00000021   -0.00003229   -0.00223550
     atom    6 type  2   force =    -0.00000010    0.00003148    0.00223520
     atom    7 type  2   force =    -0.00000017   -0.00003260    0.00223441
     atom    8 type  2   force =    -0.00000024    0.00003266   -0.00223581
     atom    9 type  3   force =    -0.00000027    0.00044533   -0.00313749
     atom   10 type  3   force =    -0.00000004   -0.00044411    0.00313987
     atom   11 type  3   force =    -0.00000019    0.00044548    0.00313911
     atom   12 type  3   force =    -0.00000015   -0.00044403   -0.00313980
     atom   13 type  3   force =     0.00000006    0.00636696   -0.00115379
     atom   14 type  3   force =     0.00000004   -0.00636810    0.00115102
     atom   15 type  3   force =    -0.00000020    0.00636752    0.00115336
     atom   16 type  3   force =     0.00000031   -0.00636667   -0.00115197
     atom   17 type  3   force =     0.00000010    0.00133224    0.00294303
     atom   18 type  3   force =    -0.00000018   -0.00133335   -0.00294422
     atom   19 type  3   force =     0.00000028    0.00133331   -0.00294284
     atom   20 type  3   force =    -0.00000011   -0.00133243    0.00294397
     The Hubbard contrib.    to forces
     atom    1 type  1   force =     0.00000000    0.00000000    0.00000000
     atom    2 type  1   force =     0.00000000    0.00000000    0.00000000
     atom    3 type  1   force =     0.00000000    0.00000000    0.00000000
     atom    4 type  1   force =     0.00000000    0.00000000    0.00000000
     atom    5 type  2   force =     0.00000000    0.00000000    0.00000000
     atom    6 type  2   force =     0.00000000    0.00000000    0.00000000
     atom    7 type  2   force =     0.00000000    0.00000000    0.00000000
     atom    8 type  2   force =     0.00000000    0.00000000    0.00000000
     atom    9 type  3   force =     0.00000000    0.00000000    0.00000000
     atom   10 type  3   force =     0.00000000    0.00000000    0.00000000
     atom   11 type  3   force =     0.00000000    0.00000000    0.00000000
     atom   12 type  3   force =     0.00000000    0.00000000    0.00000000
     atom   13 type  3   force =     0.00000000    0.00000000    0.00000000
     atom   14 type  3   force =     0.00000000    0.00000000    0.00000000
     atom   15 type  3   force =     0.00000000    0.00000000    0.00000000
     atom   16 type  3   force =     0.00000000    0.00000000    0.00000000
     atom   17 type  3   force =     0.00000000    0.00000000    0.00000000
     atom   18 type  3   force =     0.00000000    0.00000000    0.00000000
     atom   19 type  3   force =     0.00000000    0.00000000    0.00000000
     atom   20 type  3   force =     0.00000000    0.00000000    0.00000000
     The SCF correction term to forces
     atom    1 type  1   force =     0.00000180    0.00004580   -0.00006094
     atom    2 type  1   force =     0.00000333   -0.00002384   -0.00016243
     atom    3 type  1   force =    -0.00000024    0.00013358    0.00052514
     atom    4 type  1   force =     0.00000174   -0.00002239   -0.00021241
     atom    5 type  2   force =    -0.00000241    0.00031970   -0.00048817
     atom    6 type  2   force =    -0.00000667   -0.00039373   -0.00044736
     atom    7 type  2   force =    -0.00000068    0.00018210    0.00034203
     atom    8 type  2   force =     0.00000949   -0.00034579    0.00043673
     atom    9 type  3   force =     0.00000688    0.00014880    0.00013358
     atom   10 type  3   force =     0.00000239   -0.00013076   -0.00050503
     atom   11 type  3   force =     0.00000008   -0.00007194    0.00004102
     atom   12 type  3   force =     0.00000041   -0.00015729    0.00022773
     atom   13 type  3   force =     0.00000059   -0.00011258    0.00022062
     atom   14 type  3   force =     0.00000128    0.00026261    0.00017612
     atom   15 type  3   force =    -0.00000176   -0.00031211   -0.00032345
     atom   16 type  3   force =    -0.00000245    0.00030197   -0.00009580
     atom   17 type  3   force =    -0.00000229    0.00003248    0.00018108
     atom   18 type  3   force =     0.00000022    0.00007720    0.00004726
     atom   19 type  3   force =    -0.00000173   -0.00020180    0.00014093
     atom   20 type  3   force =    -0.00000100    0.00012565   -0.00025232

     Total force =     0.132520     Total SCF correction =     0.001603

     Computing stress (Cartesian axis) and pressure

     negative rho (up, down):  7.109E-03 0.000E+00
          total   stress  (Ry/bohr**3)                   (kbar)     P=       -5.98
   0.00146913   0.00000000   0.00000000          216.12        0.00        0.00
   0.00000000  -0.00079213   0.00000000            0.00     -116.53        0.00
   0.00000000   0.00000000  -0.00079896            0.00        0.00     -117.53

     kinetic stress (kbar)  12120.42      0.00      0.00
                                0.00  11708.84      0.00
                                0.00      0.00  11596.84

     local   stress (kbar) -10966.31      0.00     -0.00
                                0.00  -4803.52     -0.07
                               -0.00     -0.07  -1850.84

     nonloc. stress (kbar)   6974.51      0.00      0.00
                                0.00   6915.25      0.00
                                0.00      0.00   6932.65

     hartree stress (kbar)   8301.42     -0.00     -0.00
                               -0.00   5645.26      0.04
                               -0.00      0.04   3915.87

     exc-cor stress (kbar)   -145.12     -0.00      0.00
                               -0.00   -147.50      0.00
                                0.00      0.00   -145.76

     corecor stress (kbar)  -3154.33     -0.00     -0.00
                               -0.00  -3147.88     -0.00
                               -0.00     -0.00  -3148.29

     ewald   stress (kbar) -12914.48      0.00     -0.00
                                0.00 -16286.97     -0.00
                               -0.00     -0.00 -17418.00

     hubbard stress (kbar)      0.00      0.00      0.00
                                0.00      0.00      0.00
                                0.00      0.00      0.00

     DFT-D   stress (kbar)      0.00      0.00      0.00
                                0.00      0.00      0.00
                                0.00      0.00      0.00

     XDM     stress (kbar)      0.00      0.00      0.00
                                0.00      0.00      0.00
                                0.00      0.00      0.00

     dft-nl  stress (kbar)      0.00      0.00      0.00
                                0.00      0.00      0.00
                                0.00      0.00      0.00

     TS-vdW  stress (kbar)      0.00      0.00      0.00
                                0.00      0.00      0.00
                                0.00      0.00      0.00

[...]

                                0.00      0.00      0.00

     Writing all to output data dir new_calculations/myprefix.save/

     General routines

     Parallel routines

     PAW routines

   This run was terminated on:   8: 5:42  21May2023

   JOB DONE.