     Program PWSCF v.7.0 starts on 21May2023 at  0:18:44

     Reading input from espresso_6635.pwi
Warning: card &CELL ignored
Warning: card / ignored

     Current dimensions of program PWSCF are:
     Max number of different atomic species (ntypx) = 10
     Max number of k-points (npk) =  40000
     Max angular momentum in pseudopotentials (lmaxx) =  4

     gamma-point specific algorithms are used

     Subspace diagonalization in iterative solution of the eigenvalue problem:
     a serial algorithm will be used

     Using Slab Decomposition

     bravais-lattice index     =            0
     lattice parameter (alat)  =      31.7952  a.u.
     unit-cell volume          =    1626.4273 (a.u.)^3
     number of atoms/cell      =           10
     number of atomic types    =            3
     number of electrons       =       125.00
     number of Kohn-Sham states=           76
     kinetic-energy cutoff     =      30.0000  Ry
     charge density cutoff     =     240.0000  Ry
     scf convergence threshold =      1.0E-06
     mixing beta               =       0.7000
     number of iterations used =            8  plain     mixing
     Exchange-correlation= SLA  PW   PBE  PBE
                           (   1   4   3   4   0   0   0)

     celldm(1)=  31.795183  celldm(2)=   0.000000  celldm(3)=   0.000000
     celldm(4)=   0.000000  celldm(5)=   0.000000  celldm(6)=   0.000000

     crystal axes: (cart. coord. in units of alat)
               a(1) = (   1.000000   0.000000   0.000000 )
               a(2) = (   0.970494   0.241124   0.000000 )
               a(3) = (   0.970494   0.118757   0.209851 )

     reciprocal axes: (cart. coord. in units 2 pi/alat)
               b(1) = (  1.000000 -4.024884 -2.346966 )
               b(2) = (  0.000000  4.147251 -2.346966 )
               b(3) = (  0.000000  0.000000  4.765286 )

     PseudoPot. # 1 for Mn read from file:
     /home/pragov/projects/rrg-bengioy-ad/pragov/crystal_structure_design/SSSP/mn_pbe_v1.5.uspp.F.UPF
     MD5 check sum: 82ef2b46521d7a7d9e736dc3972e4928
     Pseudo is Ultrasoft + core correction, Zval = 15.0
     Generated by new atomic code, or converted to UPF format
     Using radial grid of  859 points,  6 beta functions with:
                l(1) =   0
                l(2) =   0
                l(3) =   1
                l(4) =   1
                l(5) =   2
                l(6) =   2
     Q(r) pseudized with  8 coefficients,  rinner =    0.950   0.950   0.950
                                                       0.950   0.950

     PseudoPot. # 2 for Zn read from file:
     /home/pragov/projects/rrg-bengioy-ad/pragov/crystal_structure_design/SSSP/Zn_pbe_v1.uspp.F.UPF
     MD5 check sum: df62231357ef9e81f77b2b3087fa5675
     Pseudo is Ultrasoft, Zval = 20.0
     Generated by new atomic code, or converted to UPF format
     Using radial grid of  943 points,  6 beta functions with:
                l(1) =   0
                l(2) =   0
                l(3) =   1
                l(4) =   1
                l(5) =   2
                l(6) =   2
     Q(r) pseudized with  8 coefficients,  rinner =    1.100   1.100   1.100
                                                       1.100   1.100

     PseudoPot. # 3 for Se read from file:
     /home/pragov/projects/rrg-bengioy-ad/pragov/crystal_structure_design/SSSP/Se_pbe_v1.uspp.F.UPF
     MD5 check sum: 1b3568f3a8ae88f9a2a0ad0698632c85
     Pseudo is Ultrasoft + core correction, Zval =  6.0
     Generated by new atomic code, or converted to UPF format
     Using radial grid of  877 points,  6 beta functions with:
                l(1) =   0
                l(2) =   0
                l(3) =   1
                l(4) =   1
                l(5) =   2
                l(6) =   2
     Q(r) pseudized with  8 coefficients,  rinner =    1.300   1.300   1.300
                                                       1.300   1.300

     atomic species   valence    mass     pseudopotential
        Mn            15.00    54.93804     Mn( 1.00)
        Zn            20.00    65.38000     Zn( 1.00)
        Se             6.00    78.97100     Se( 1.00)

     No symmetry found

                                    s                        frac. trans.

      isym =  1     identity

 cryst.   s( 1) = (     1          0          0      )
                  (     0          1          0      )
                  (     0          0          1      )

 cart.    s( 1) = (  1.0000000 -0.0000000  0.0000000 )
                  (  0.0000000  1.0000000 -0.0000000 )
                  (  0.0000000  0.0000000  1.0000000 )

   Cartesian axes

     site n.     atom                  positions (alat units)
         1           Mn  tau(   1) = (   1.9111957   0.2338674   0.1363712  )
         2           Zn  tau(   2) = (   0.1477494   0.0180797   0.0105425  )
         3           Zn  tau(   3) = (   1.3234420   0.1619457   0.0944327  )
         4           Zn  tau(   4) = (   2.4998434   0.3058984   0.1783736  )
         5           Zn  tau(   5) = (   0.7344943   0.0898779   0.0524090  )
         6           Se  tau(   6) = (   0.0024116   0.0002951   0.0001721  )
         7           Se  tau(   7) = (   1.1765426   0.1439700   0.0839509  )
         8           Se  tau(   8) = (   2.3528616   0.2879127   0.1678858  )
         9           Se  tau(   9) = (   0.5879419   0.0719447   0.0419519  )
        10           Se  tau(  10) = (   1.7627199   0.2156988   0.1257769  )

   Crystallographic axes

     site n.     atom                  positions (cryst. coord.)
         1           Mn  tau(   1) = (  0.6498480  0.6498480  0.6498480  )
         2           Zn  tau(   2) = (  0.0502380  0.0502380  0.0502380  )
         3           Zn  tau(   3) = (  0.4499990  0.4499990  0.4499990  )
         4           Zn  tau(   4) = (  0.8500010  0.8500010  0.8500010  )
         5           Zn  tau(   5) = (  0.2497440  0.2497440  0.2497440  )
         6           Se  tau(   6) = (  0.0008200  0.0008200  0.0008200  )
         7           Se  tau(   7) = (  0.4000500  0.4000500  0.4000500  )
         8           Se  tau(   8) = (  0.8000240  0.8000240  0.8000240  )
         9           Se  tau(   9) = (  0.1999130  0.1999130  0.1999130  )
        10           Se  tau(  10) = (  0.5993630  0.5993630  0.5993630  )

     number of k points=     1  Methfessel-Paxton smearing, width (Ry)=  0.0010
                       cart. coord. in units 2pi/alat
        k(    1) = (   0.0000000   0.0000000   0.0000000), wk =   2.0000000

                       cryst. coord.
        k(    1) = (   0.0000000   0.0000000   0.0000000), wk =   2.0000000

     Check: negative core charge=   -0.000004

     Initial potential from superposition of free atoms

     starting charge     124.4990, renormalised to     125.0000
     Starting wfcs are   85 randomized atomic wfcs

     Self-consistent Calculation

     iteration #  1     ecut=    30.00 Ry     beta= 0.70
     Davidson diagonalization with overlap

     ethr =  1.00E-02,  avg # of iterations =  9.0

     total energy              =   -2157.98549882 Ry
     estimated scf accuracy    <     134.02560604 Ry

[...]

     c_bands:  5 eigenvalues not converged
     ethr =  1.00E-02,  avg # of iterations = 20.0

[...]

     negative rho (up, down):  3.082E-03 0.000E+00

[...]

     negative rho (up, down):  3.766E-04 0.000E+00

[...]

     total energy              =   -2273.65995526 Ry
     estimated scf accuracy    <       0.00000250 Ry

     iteration # 34     ecut=    30.00 Ry     beta= 0.70
     Davidson diagonalization with overlap

     ethr =  2.00E-09,  avg # of iterations =  2.0

     End of self-consistent calculation

          k = 0.0000 0.0000 0.0000 (  2260 PWs)   bands (ev):

  -119.7675-119.5348-119.4440-119.4111 -73.9733 -73.8445 -73.8445 -73.6875
   -73.6422 -73.6422 -73.6178 -73.5928 -73.5432 -73.5432 -73.5059 -73.5059
   -72.1808 -41.0655 -41.0654 -40.7142  -7.6195  -6.1829  -6.0930  -5.7876
    -5.5310  -0.9072  -0.8269  -0.8269  -0.6633  -0.6633  -0.6387  -0.6380
    -0.6380  -0.5457  -0.5457  -0.5281  -0.4852  -0.4852  -0.4054  -0.4054
    -0.3639  -0.3257  -0.3257  -0.2986  -0.2986   1.1928   1.7667   3.0633
     3.0633   3.1913   4.0698   5.6240   5.6240   5.6344   5.8290   5.8290
     6.0718   6.0718   6.4377   6.4377   6.5985   6.5985   7.2112   7.5702
     7.8849   7.8849   8.4434   8.6412   8.6745   9.3705  11.8762  11.8978
    11.8978  12.0635  12.2358  12.2358

     occupation numbers
     1.0000   1.0000   1.0000   1.0000   1.0000   1.0000   1.0000   1.0000
     1.0000   1.0000   1.0000   1.0000   1.0000   1.0000   1.0000   1.0000
     1.0000   1.0000   1.0000   1.0000   1.0000   1.0000   1.0000   1.0000
     1.0000   1.0000   1.0000   1.0000   1.0000   1.0000   1.0000   1.0000
     1.0000   1.0000   1.0000   1.0000   1.0000   1.0000   1.0000   1.0000
     1.0000   1.0000   1.0000   1.0000   1.0000   1.0000   1.0000   1.0000
     1.0000   1.0000   1.0000   1.0000   1.0000   1.0000   1.0000   1.0000
     1.0000   1.0000   1.0000   1.0000   1.0000   1.0000   0.5000  -0.0000
    -0.0000  -0.0000  -0.0000  -0.0000  -0.0000  -0.0000  -0.0000  -0.0000
    -0.0000  -0.0000  -0.0000  -0.0000

     the Fermi energy is     7.2112 ev

!    total energy              =   -2273.65995551 Ry
     estimated scf accuracy    <       0.00000021 Ry
     smearing contrib. (-TS)   =      -0.00028209 Ry
     internal energy E=F+TS    =   -2273.65967341 Ry

     The total energy is F=E-TS. E is the sum of the following terms:
     one-electron contribution =   -2096.28956973 Ry
     hartree contribution      =    1078.78054106 Ry
     xc contribution           =    -344.55314855 Ry
     ewald contribution        =    -911.59749619 Ry

     convergence has been achieved in  34 iterations

     Forces acting on atoms (cartesian axes, Ry/au):

     atom    1 type  1   force =    -0.00404205   -0.00048936   -0.00028388
     atom    2 type  2   force =    -0.00750034   -0.00090718   -0.00054124
     atom    3 type  2   force =    -0.05398881   -0.00660946   -0.00385103
     atom    4 type  2   force =    -0.06616511   -0.00808385   -0.00471986
     atom    5 type  2   force =    -0.05933066   -0.00730983   -0.00424491
     atom    6 type  3   force =    -0.11101600   -0.01357917   -0.00792189
     atom    7 type  3   force =     0.05212830    0.00638345    0.00372100
     atom    8 type  3   force =     0.06427908    0.00786974    0.00459004
     atom    9 type  3   force =     0.07033703    0.00861333    0.00502191
     atom   10 type  3   force =     0.11529856    0.01411232    0.00822986
     The non-local contrib.  to forces
     atom    1 type  1   force =     0.80385019    0.09835486    0.05734516
     atom    2 type  2   force =     0.56317193    0.06891279    0.04018022
     atom    3 type  2   force =     0.89412320    0.10940970    0.06380230
     atom    4 type  2   force =     1.03065573    0.12612258    0.07354443
     atom    5 type  2   force =     0.93310193    0.11417562    0.06657158
     atom    6 type  3   force =    -0.11359592   -0.01390937   -0.00809630
     atom    7 type  3   force =    -0.14674723   -0.01795838   -0.01047247
     atom    8 type  3   force =    -0.09331062   -0.01141367   -0.00665573
     atom    9 type  3   force =    -0.03527769   -0.00431141   -0.00251567
     atom   10 type  3   force =     0.09999520    0.01223620    0.00712695
     The ionic contribution  to forces
     atom    1 type  1   force =    -0.23101868   -0.02826907   -0.01648337
     atom    2 type  2   force =   -14.82664036   -1.81429204   -1.05794054
     atom    3 type  2   force =    -4.84664550   -0.59306965   -0.34582694
     atom    4 type  2   force =     4.89627532    0.59914270    0.34937049
     atom    5 type  2   force =    15.47761172    1.89394948    1.10439232
     atom    6 type  3   force =    -3.92493327   -0.48028245   -0.28006051
     atom    7 type  3   force =    -3.86471030   -0.47291315   -0.27576413
     atom    8 type  3   force =    -0.78598671   -0.09617886   -0.05608450
     atom    9 type  3   force =     2.10970122    0.25815789    0.15053471
     atom   10 type  3   force =     5.99634657    0.73375516    0.42786246
     The local contribution  to forces
     atom    1 type  1   force =    -0.55018286   -0.06737111   -0.03928947
     atom    2 type  2   force =    14.25489171    1.74433414    1.01716192
     atom    3 type  2   force =     3.89822261    0.47702324    0.27814806
     atom    4 type  2   force =    -5.99179228   -0.73320330   -0.42754479
     atom    5 type  2   force =   -16.46882207   -2.01519643   -1.17509414
     atom    6 type  3   force =     3.91287761    0.47881883    0.27918630
     atom    7 type  3   force =     4.04547536    0.49503229    0.28866179
     atom    8 type  3   force =     0.93212523    0.11405217    0.06651003
     atom    9 type  3   force =    -2.00787781   -0.24570281   -0.14327039
     atom   10 type  3   force =    -5.96787977   -0.73028060   -0.42582367
     The core correction contribution to forces
     atom    1 type  1   force =    -0.02789733   -0.00341415   -0.00199159
     atom    2 type  2   force =     0.00000000    0.00000000    0.00000000
     atom    3 type  2   force =     0.00000000    0.00000000    0.00000000
     atom    4 type  2   force =     0.00000000    0.00000000    0.00000000
     atom    5 type  2   force =     0.00000000    0.00000000    0.00000000
     atom    6 type  3   force =     0.01433142    0.00175487    0.00102117
     atom    7 type  3   force =     0.01772929    0.00216966    0.00126505
     atom    8 type  3   force =     0.01141016    0.00139552    0.00081388
     atom    9 type  3   force =     0.00426905    0.00052174    0.00030443
     atom   10 type  3   force =    -0.01312448   -0.00160615   -0.00093525
     The Hubbard contrib.    to forces
     atom    1 type  1   force =     0.00000000    0.00000000    0.00000000
     atom    2 type  2   force =     0.00000000    0.00000000    0.00000000
     atom    3 type  2   force =     0.00000000    0.00000000    0.00000000
     atom    4 type  2   force =     0.00000000    0.00000000    0.00000000
     atom    5 type  2   force =     0.00000000    0.00000000    0.00000000
     atom    6 type  3   force =     0.00000000    0.00000000    0.00000000
     atom    7 type  3   force =     0.00000000    0.00000000    0.00000000
     atom    8 type  3   force =     0.00000000    0.00000000    0.00000000
     atom    9 type  3   force =     0.00000000    0.00000000    0.00000000
     atom   10 type  3   force =     0.00000000    0.00000000    0.00000000
     The SCF correction term to forces
     atom    1 type  1   force =     0.00116872    0.00019999    0.00013004
     atom    2 type  2   force =     0.00103847    0.00012781    0.00005182
     atom    3 type  2   force =     0.00027297    0.00001712    0.00002019
     atom    4 type  2   force =    -0.00134180   -0.00015596   -0.00009535
     atom    5 type  2   force =    -0.00126017   -0.00024861   -0.00012003
     atom    6 type  3   force =     0.00026624    0.00002882    0.00002208
     atom    7 type  3   force =     0.00034326    0.00004290    0.00002540
     atom    8 type  3   force =     0.00000311    0.00000446    0.00000101
     atom    9 type  3   force =    -0.00051566   -0.00006219   -0.00003653
     atom   10 type  3   force =    -0.00007687   -0.00000241   -0.00000598

     Total force =     0.221969     Total SCF correction =     0.002562

     Computing stress (Cartesian axis) and pressure

          total   stress  (Ry/bohr**3)                   (kbar)     P=      -20.12
  -0.00105122  -0.00016956  -0.00009886         -154.64      -24.94      -14.54
  -0.00016956   0.00031360  -0.00001209          -24.94       46.13       -1.78
  -0.00009886  -0.00001209   0.00032729          -14.54       -1.78       48.15

     kinetic stress (kbar)  14175.20    -40.30    -23.50
                              -40.30  14499.59     -2.88
                              -23.50     -2.88  14502.85

     local   stress (kbar) -12195.47    628.45    366.47
                              628.45 -17254.42     44.85
                              366.47     44.85 -17305.17

     nonloc. stress (kbar)   2563.26    -31.69    -18.48
                              -31.69   2818.41     -2.26
                              -18.48     -2.26   2820.97

     hartree stress (kbar)  30895.42   -301.97   -176.09
                             -301.97  33326.20    -21.55
                             -176.09    -21.55  33350.59

     exc-cor stress (kbar)   5084.27     -0.39     -0.23
                               -0.39   5087.40     -0.03
                               -0.23     -0.03   5087.43

     corecor stress (kbar) -11666.23      4.15      2.42
                                4.15 -11699.64      0.30
                                2.42      0.30 -11699.98

     ewald   stress (kbar) -29011.09   -283.20   -165.14
                             -283.20 -26731.41    -20.21
                             -165.14    -20.21 -26708.54

     hubbard stress (kbar)      0.00      0.00      0.00
                                0.00      0.00      0.00
                                0.00      0.00      0.00

     DFT-D   stress (kbar)      0.00      0.00      0.00
                                0.00      0.00      0.00
                                0.00      0.00      0.00

     XDM     stress (kbar)      0.00      0.00      0.00
                                0.00      0.00      0.00
                                0.00      0.00      0.00

     dft-nl  stress (kbar)      0.00      0.00      0.00
                                0.00      0.00      0.00
                                0.00      0.00      0.00

     TS-vdW  stress (kbar)      0.00      0.00      0.00
                                0.00      0.00      0.00
                                0.00      0.00      0.00

[...]

                                0.00      0.00      0.00

     Writing all to output data dir new_calculations/myprefix.save/

     General routines

     Parallel routines

   This run was terminated on:   0:22:13  21May2023

   JOB DONE.