     Program PWSCF v.7.0 starts on 21May2023 at 18:28:30

     Reading input from espresso_26962.pwi
Warning: card &CELL ignored
Warning: card / ignored

     Current dimensions of program PWSCF are:
     Max number of different atomic species (ntypx) = 10
     Max number of k-points (npk) =  40000
     Max angular momentum in pseudopotentials (lmaxx) =  4

     gamma-point specific algorithms are used
     Message from routine setup:
     using ibrav=0 with symmetry is DISCOURAGED, use correct ibrav instead

     Subspace diagonalization in iterative solution of the eigenvalue problem:
     a serial algorithm will be used

     Using Slab Decomposition

     bravais-lattice index     =            0
     lattice parameter (alat)  =      10.4328  a.u.
     unit-cell volume          =    1409.3497 (a.u.)^3
     number of atoms/cell      =           16
     number of atomic types    =            2
     number of electrons       =       128.00
     number of Kohn-Sham states=           77
     kinetic-energy cutoff     =      30.0000  Ry
     charge density cutoff     =     240.0000  Ry
     scf convergence threshold =      1.0E-06
     mixing beta               =       0.7000
     number of iterations used =            8  plain     mixing
     Exchange-correlation= PBE
                           (   1   4   3   4   0   0   0)

     celldm(1)=  10.432756  celldm(2)=   0.000000  celldm(3)=   0.000000
     celldm(4)=   0.000000  celldm(5)=   0.000000  celldm(6)=   0.000000

     crystal axes: (cart. coord. in units of alat)
               a(1) = (   1.000000   0.000000   0.000000 )
               a(2) = (  -0.749873   0.661581   0.000000 )
               a(3) = (   0.000000   0.000000   1.876023 )

     reciprocal axes: (cart. coord. in units 2 pi/alat)
               b(1) = (  1.000000  1.133456  0.000000 )
               b(2) = (  0.000000  1.511530  0.000000 )
               b(3) = (  0.000000  0.000000  0.533042 )

     PseudoPot. # 1 for Ta read from file:
     /home/pragov/projects/rrg-bengioy-ad/pragov/crystal_structure_design/SSSP/Ta_pbe_v1.uspp.F.UPF
     MD5 check sum: f8bbe9446314a3b8ea5d9f3e3836c939
     Pseudo is Ultrasoft + core correction, Zval = 13.0
     Generated by new atomic code, or converted to UPF format
     Using radial grid of  921 points,  7 beta functions with:
                l(1) =   0
                l(2) =   0
                l(3) =   1
                l(4) =   1
                l(5) =   2
                l(6) =   2
                l(7) =   3
     Q(r) pseudized with  6 coefficients,  rinner =    1.300   1.300   1.300
                                                       1.300   1.300   1.300
                                                       1.300

     PseudoPot. # 2 for N  read from file:
     /home/pragov/projects/rrg-bengioy-ad/pragov/crystal_structure_design/SSSP/N.pbe-n-radius_5.UPF
     MD5 check sum: 16739722b17309cd8fe442a2ace49922
     Pseudo is Ultrasoft + core correction, Zval =  5.0
     Generated using "atomic" code by A. Dal Corso  v.5.1
     Using radial grid of 1085 points,  4 beta functions with:
                l(1) =   0
                l(2) =   0
                l(3) =   1
                l(4) =   1
     Q(r) pseudized with 0 coefficients

     atomic species   valence    mass     pseudopotential
        Ta            13.00   180.94788     Ta( 1.00)
        N              5.00    14.00700     N ( 1.00)

      4 Sym. Ops., with inversion, found ( 2 have fractional translation)

                                    s                        frac. trans.

      isym =  1     identity

 cryst.   s( 1) = (     1          0          0      )
                  (     0          1          0      )
                  (     0          0          1      )

 cart.    s( 1) = (  1.0000000 -0.0000000  0.0000000 )
                  (  0.0000000  1.0000000  0.0000000 )
                  (  0.0000000  0.0000000  1.0000000 )

      isym =  2     180 deg rotation - cart. axis [0,0,1]

 cryst.   s( 2) = (    -1          0          0      )    f =(  0.0000000 )
                  (     0         -1          0      )       (  0.0000000 )
                  (     0          0          1      )       (  0.5000000 )

 cart.    s( 2) = ( -1.0000000  0.0000000  0.0000000 )    f =(  0.0000000 )
                  (  0.0000000 -1.0000000  0.0000000 )       (  0.0000000 )
                  (  0.0000000  0.0000000  1.0000000 )       (  0.9380116 )

      isym =  3     inversion

 cryst.   s( 3) = (    -1          0          0      )
                  (     0         -1          0      )
                  (     0          0         -1      )

 cart.    s( 3) = ( -1.0000000  0.0000000  0.0000000 )
                  (  0.0000000 -1.0000000  0.0000000 )
                  (  0.0000000  0.0000000 -1.0000000 )

      isym =  4     inv. 180 deg rotation - cart. axis [0,0,1]

 cryst.   s( 4) = (     1          0          0      )    f =(  0.0000000 )
                  (     0          1          0      )       (  0.0000000 )
                  (     0          0         -1      )       (  0.5000000 )

 cart.    s( 4) = (  1.0000000 -0.0000000  0.0000000 )    f =(  0.0000000 )
                  (  0.0000000  1.0000000  0.0000000 )       (  0.0000000 )
                  (  0.0000000  0.0000000 -1.0000000 )       (  0.9380116 )

   Cartesian axes

     site n.     atom                  positions (alat units)
         1           Ta  tau(   1) = (  -0.4052357   0.5312830   1.4070174  )
         2           Ta  tau(   2) = (   0.7661679   0.0884058   1.7645312  )
         3           Ta  tau(   3) = (  -0.5160412   0.5731757   0.1114921  )
         4           Ta  tau(   4) = (  -0.5160412   0.5731757   0.8265196  )
         5           Ta  tau(   5) = (   0.6553625   0.1302985   0.4690058  )
         6           Ta  tau(   6) = (   0.7661679   0.0884058   1.0495037  )
         7           N   tau(   7) = (  -0.6681525   0.6306850   1.6523000  )
         8           N   tau(   8) = (   0.4605596   0.2039484   0.1389552  )
         9           N   tau(   9) = (  -0.2104329   0.4576331   1.7370681  )
        10           N   tau(  10) = (   0.4605596   0.2039484   0.7990565  )
        11           N   tau(  11) = (  -0.3343904   0.5044982   0.4690058  )
        12           N   tau(  12) = (  -0.2104329   0.4576331   1.0769668  )
        13           N   tau(  13) = (  -0.6681525   0.6306850   1.1617349  )
        14           N   tau(  14) = (   0.9182792   0.0308965   0.7142884  )
        15           N   tau(  15) = (   0.5845171   0.1570833   1.4070174  )
        16           N   tau(  16) = (   0.9182792   0.0308965   0.2237233  )

   Crystallographic axes

     site n.     atom                  positions (cryst. coord.)
         1           Ta  tau(   1) = (  0.1969500  0.8030500  0.7500000  )
         2           Ta  tau(   2) = (  0.8663720  0.1336280  0.9405700  )
         3           Ta  tau(   3) = (  0.1336280  0.8663720  0.0594300  )
         4           Ta  tau(   4) = (  0.1336280  0.8663720  0.4405700  )
         5           Ta  tau(   5) = (  0.8030500  0.1969500  0.2500000  )
         6           Ta  tau(   6) = (  0.8663720  0.1336280  0.5594300  )
         7           N   tau(   7) = (  0.0467010  0.9532990  0.8807460  )
         8           N   tau(   8) = (  0.6917260  0.3082740  0.0740690  )
         9           N   tau(   9) = (  0.3082740  0.6917260  0.9259310  )
        10           N   tau(  10) = (  0.6917260  0.3082740  0.4259310  )
        11           N   tau(  11) = (  0.2374360  0.7625640  0.2500000  )
        12           N   tau(  12) = (  0.3082740  0.6917260  0.5740690  )
        13           N   tau(  13) = (  0.0467010  0.9532990  0.6192540  )
        14           N   tau(  14) = (  0.9532990  0.0467010  0.3807460  )
        15           N   tau(  15) = (  0.7625640  0.2374360  0.7500000  )
        16           N   tau(  16) = (  0.9532990  0.0467010  0.1192540  )

     number of k points=     1  Methfessel-Paxton smearing, width (Ry)=  0.0010
                       cart. coord. in units 2pi/alat
        k(    1) = (   0.0000000   0.0000000   0.0000000), wk =   2.0000000

                       cryst. coord.
        k(    1) = (   0.0000000   0.0000000   0.0000000), wk =   2.0000000

     Check: negative core charge=   -0.000002

     Initial potential from superposition of free atoms

     starting charge     127.9933, renormalised to     128.0000

     negative rho (up, down):  5.642E-01 0.000E+00
     Starting wfcs are  118 randomized atomic wfcs

     Self-consistent Calculation

     iteration #  1     ecut=    30.00 Ry     beta= 0.70
     Davidson diagonalization with overlap

     ethr =  1.00E-02,  avg # of iterations =  2.0

     negative rho (up, down):  5.685E-01 0.000E+00

     total energy              =   -1049.45455695 Ry
     estimated scf accuracy    <       8.50239662 Ry

[...]

     total energy              =   -1053.70533942 Ry
     estimated scf accuracy    <       0.00001051 Ry

     iteration # 14     ecut=    30.00 Ry     beta= 0.70
     Davidson diagonalization with overlap

     ethr =  8.21E-09,  avg # of iterations =  3.0

[...]

     End of self-consistent calculation

          k = 0.0000 0.0000 0.0000 (  1957 PWs)   bands (ev):

   -56.8823 -56.8805 -56.5074 -56.5070 -56.4863 -56.4859 -23.4508 -23.4223
   -23.4089 -23.4037 -23.2637 -23.2084 -23.1074 -23.1062 -23.0812 -23.0719
   -23.0456 -23.0419 -23.0371 -23.0028 -22.9823 -22.9804 -22.7284 -22.7172
    -3.5882  -2.7978  -2.5206  -1.9742  -1.7558  -1.6948  -1.3959  -1.2890
    -1.1060  -1.0623   6.0594   6.4679   6.8352   7.0353   7.1017   7.1264
     7.2622   7.4110   7.4543   7.5307   7.5756   7.6863   7.9404   7.9646
     8.3912   8.5741   8.8086   9.0120   9.2298   9.5232  10.1949  10.2069
    10.3235  10.8223  10.8233  10.8877  10.9524  11.3230  11.4881  11.8508
    13.0165  13.2456  13.7413  13.9321  14.3043  14.5364  14.6030  15.0425
    15.4214  15.4574  15.5212  15.5500  15.9008

     occupation numbers
     1.0000   1.0000   1.0000   1.0000   1.0000   1.0000   1.0000   1.0000
     1.0000   1.0000   1.0000   1.0000   1.0000   1.0000   1.0000   1.0000
     1.0000   1.0000   1.0000   1.0000   1.0000   1.0000   1.0000   1.0000
     1.0000   1.0000   1.0000   1.0000   1.0000   1.0000   1.0000   1.0000
     1.0000   1.0000   1.0000   1.0000   1.0000   1.0000   1.0000   1.0000
     1.0000   1.0000   1.0000   1.0000   1.0000   1.0000   1.0000   1.0000
     1.0000   1.0000   1.0000   1.0000   1.0000   1.0000   1.0000   1.0000
     1.0000   1.0000   1.0000   1.0000   1.0000   1.0000   1.0000   1.0000
    -0.0000  -0.0000  -0.0000  -0.0000  -0.0000  -0.0000  -0.0000  -0.0000
    -0.0000  -0.0000  -0.0000  -0.0000  -0.0000

     the Fermi energy is    12.6123 ev

!    total energy              =   -1053.70534134 Ry
     estimated scf accuracy    <       0.00000073 Ry
     smearing contrib. (-TS)   =       0.00000000 Ry
     internal energy E=F+TS    =   -1053.70534134 Ry

     The total energy is F=E-TS. E is the sum of the following terms:
     one-electron contribution =    -279.54511295 Ry
     hartree contribution      =     197.72030113 Ry
     xc contribution           =    -307.96982273 Ry
     ewald contribution        =    -663.91070679 Ry

     convergence has been achieved in  14 iterations

     negative rho (up, down):  5.772E-01 0.000E+00

     Forces acting on atoms (cartesian axes, Ry/au):

     atom    1 type  1   force =    -0.09882033    0.03736107    0.00000000
     atom    2 type  1   force =     0.15958661   -0.06033532    0.08795776
     atom    3 type  1   force =    -0.15958661    0.06033532   -0.08795776
     atom    4 type  1   force =    -0.15958661    0.06033532    0.08795776
     atom    5 type  1   force =     0.09882033   -0.03736107    0.00000000
     atom    6 type  1   force =     0.15958661   -0.06033532   -0.08795776
     atom    7 type  2   force =    -0.00953157    0.00360332    0.05280024
     atom    8 type  2   force =     0.18644145   -0.07048886    0.08500253
     atom    9 type  2   force =    -0.18644145    0.07048886   -0.08500253
     atom   10 type  2   force =     0.18644145   -0.07048886   -0.08500253
     atom   11 type  2   force =    -0.17051354    0.06446612    0.00000000
     atom   12 type  2   force =    -0.18644145    0.07048886    0.08500253
     atom   13 type  2   force =    -0.00953157    0.00360332   -0.05280024
     atom   14 type  2   force =     0.00953157   -0.00360332    0.05280024
     atom   15 type  2   force =     0.17051354   -0.06446612    0.00000000
     atom   16 type  2   force =     0.00953157   -0.00360332   -0.05280024
     The non-local contrib.  to forces
     atom    1 type  1   force =    -0.09624425    0.03638762    0.00000000
     atom    2 type  1   force =     0.10007431   -0.03783539    0.06239707
     atom    3 type  1   force =    -0.10007431    0.03783539   -0.06239707
     atom    4 type  1   force =    -0.10007431    0.03783539    0.06239707
     atom    5 type  1   force =     0.09624425   -0.03638762    0.00000000
     atom    6 type  1   force =     0.10007431   -0.03783539   -0.06239707
     atom    7 type  2   force =     0.15719394   -0.05943045    0.31199754
     atom    8 type  2   force =    -0.42567824    0.16093832   -0.08491471
     atom    9 type  2   force =     0.42567824   -0.16093832    0.08491471
     atom   10 type  2   force =    -0.42567824    0.16093832    0.08491471
     atom   11 type  2   force =     0.60926404   -0.23034657    0.00000000
     atom   12 type  2   force =     0.42567824   -0.16093832   -0.08491471
     atom   13 type  2   force =     0.15719394   -0.05943045   -0.31199754
     atom   14 type  2   force =    -0.15719394    0.05943045    0.31199754
     atom   15 type  2   force =    -0.60926404    0.23034657    0.00000000
     atom   16 type  2   force =    -0.15719394    0.05943045   -0.31199754
     The ionic contribution  to forces
     atom    1 type  1   force =    -4.85875400    1.83696824   -0.00000000
     atom    2 type  1   force =     4.61253933   -1.74388089   -3.36501408
     atom    3 type  1   force =    -4.61253933    1.74388089    3.36501408
     atom    4 type  1   force =    -4.61253933    1.74388089   -3.36501408
     atom    5 type  1   force =     4.85875400   -1.83696824    0.00000000
     atom    6 type  1   force =     4.61253933   -1.74388089    3.36501408
     atom    7 type  2   force =    -1.51224941    0.57174208   -4.25826527
     atom    8 type  2   force =    -3.78325201    1.43034897   -0.06736294
     atom    9 type  2   force =     3.78325201   -1.43034897    0.06736294
     atom   10 type  2   force =    -3.78325201    1.43034897    0.06736294
     atom   11 type  2   force =     0.38690496   -0.14627868   -0.00000000
     atom   12 type  2   force =     3.78325201   -1.43034897   -0.06736294
     atom   13 type  2   force =    -1.51224941    0.57174208    4.25826527
     atom   14 type  2   force =     1.51224941   -0.57174208   -4.25826527
     atom   15 type  2   force =    -0.38690496    0.14627868   -0.00000000
     atom   16 type  2   force =     1.51224941   -0.57174208    4.25826527
     The local contribution  to forces
     atom    1 type  1   force =     4.90111437   -1.85298532    0.00000343
     atom    2 type  1   force =    -4.57994451    1.73156083    3.38450225
     atom    3 type  1   force =     4.57992392   -1.73154830   -3.38458341
     atom    4 type  1   force =     4.58024051   -1.73166856    3.38451286
     atom    5 type  1   force =    -4.90245739    1.85348978   -0.00003371
     atom    6 type  1   force =    -4.58023524    1.73166484   -3.38439798
     atom    7 type  2   force =     1.34734152   -0.50939492    4.00131369
     atom    8 type  2   force =     4.39034917   -1.65987925    0.23587977
     atom    9 type  2   force =    -4.39073618    1.66002106   -0.23598021
     atom   10 type  2   force =     4.39030247   -1.65986234   -0.23594076
     atom   11 type  2   force =    -1.16082851    0.43887895    0.00002543
     atom   12 type  2   force =    -4.39078070    1.66004103    0.23595539
     atom   13 type  2   force =     1.34749859   -0.50945613   -4.00119103
     atom   14 type  2   force =    -1.34667285    0.50914146    4.00137154
     atom   15 type  2   force =     1.16043011   -0.43872636    0.00008832
     atom   16 type  2   force =    -1.34668142    0.50914666   -4.00150649
     The core correction contribution to forces
     atom    1 type  1   force =    -0.04581242    0.01732058   -0.00000038
     atom    2 type  1   force =     0.02728008   -0.01031344    0.00643643
     atom    3 type  1   force =    -0.02727836    0.01031313   -0.00643882
     atom    4 type  1   force =    -0.02727306    0.01031123    0.00643742
     atom    5 type  1   force =     0.04577842   -0.01730761   -0.00000127
     atom    6 type  1   force =     0.02727665   -0.01031282   -0.00642982
     atom    7 type  2   force =    -0.00161477    0.00061050   -0.00211540
     atom    8 type  2   force =     0.00474066   -0.00179234    0.00113455
     atom    9 type  2   force =    -0.00473922    0.00179178   -0.00113415
     atom   10 type  2   force =     0.00474067   -0.00179236   -0.00113475
     atom   11 type  2   force =    -0.00607162    0.00229551    0.00000019
     atom   12 type  2   force =    -0.00473853    0.00179149    0.00113375
     atom   13 type  2   force =    -0.00161502    0.00061059    0.00211480
     atom   14 type  2   force =     0.00161375   -0.00061013   -0.00211494
     atom   15 type  2   force =     0.00607357   -0.00229627    0.00000000
     atom   16 type  2   force =     0.00161389   -0.00061015    0.00211563
     The Hubbard contrib.    to forces
     atom    1 type  1   force =     0.00000000    0.00000000    0.00000000
     atom    2 type  1   force =     0.00000000    0.00000000    0.00000000
     atom    3 type  1   force =     0.00000000    0.00000000    0.00000000
     atom    4 type  1   force =     0.00000000    0.00000000    0.00000000
     atom    5 type  1   force =     0.00000000    0.00000000    0.00000000
     atom    6 type  1   force =     0.00000000    0.00000000    0.00000000
     atom    7 type  2   force =     0.00000000    0.00000000    0.00000000
     atom    8 type  2   force =     0.00000000    0.00000000    0.00000000
     atom    9 type  2   force =     0.00000000    0.00000000    0.00000000
     atom   10 type  2   force =     0.00000000    0.00000000    0.00000000
     atom   11 type  2   force =     0.00000000    0.00000000    0.00000000
     atom   12 type  2   force =     0.00000000    0.00000000    0.00000000
     atom   13 type  2   force =     0.00000000    0.00000000    0.00000000
     atom   14 type  2   force =     0.00000000    0.00000000    0.00000000
     atom   15 type  2   force =     0.00000000    0.00000000    0.00000000
     atom   16 type  2   force =     0.00000000    0.00000000    0.00000000
     The SCF correction term to forces
     atom    1 type  1   force =     0.00096774   -0.00036483   -0.00001532
     atom    2 type  1   force =    -0.00039815    0.00014611   -0.00041456
     atom    3 type  1   force =     0.00039581   -0.00015098    0.00041573
     atom    4 type  1   force =     0.00002118   -0.00000940   -0.00033038
     atom    5 type  1   force =     0.00059281   -0.00022217    0.00004615
     atom    6 type  1   force =    -0.00005693    0.00002542    0.00027925
     atom    7 type  2   force =    -0.00023388    0.00008816   -0.00015001
     atom    8 type  2   force =     0.00036742   -0.00013801    0.00028261
     atom    9 type  2   force =     0.00015010   -0.00005539   -0.00016240
     atom   10 type  2   force =     0.00040838   -0.00015275   -0.00022034
     atom   11 type  2   force =     0.00031875   -0.00012086   -0.00000087
     atom   12 type  2   force =     0.00026648   -0.00010238    0.00016203
     atom   13 type  2   force =    -0.00041416    0.00015723    0.00000955
     atom   14 type  2   force =    -0.00051180    0.00019401   -0.00015243
     atom   15 type  2   force =     0.00028003   -0.00010651   -0.00009583
     atom   16 type  2   force =    -0.00049486    0.00018680    0.00033811

     Total force =     0.659961     Total SCF correction =     0.002053

     Computing stress (Cartesian axis) and pressure

     negative rho (up, down):  5.772E-01 0.000E+00
          total   stress  (Ry/bohr**3)                   (kbar)     P=      -63.04
  -0.00003901  -0.00015868   0.00000000           -5.74      -23.34        0.00
  -0.00015868  -0.00039871   0.00000000          -23.34      -58.65        0.00
   0.00000000   0.00000000  -0.00084787            0.00        0.00     -124.73

     kinetic stress (kbar)  24920.37   -119.10      0.00
                             -119.10  24650.37      0.00
                                0.00      0.00  24891.68

     local   stress (kbar)   9700.05    437.58     -0.01
                              437.58  10692.00      0.00
                               -0.01      0.00  -1676.55

     nonloc. stress (kbar)  -8401.88     41.06      0.00
                               41.06  -8308.79      0.00
                                0.00      0.00  -8284.11

     hartree stress (kbar)   5217.49      5.56      0.00
                                5.56   5230.09     -0.00
                                0.00     -0.00  10190.07

     exc-cor stress (kbar)  11903.14     -4.01      0.00
                               -4.01  11894.06     -0.00
                                0.00     -0.00  11901.25

     corecor stress (kbar) -18475.74      1.26     -0.00
                                1.26 -18472.88      0.00
                               -0.00      0.00 -18462.07

     ewald   stress (kbar) -24869.17   -385.69     -0.00
                             -385.69 -25743.50      0.00
                               -0.00      0.00 -18684.99

     hubbard stress (kbar)      0.00      0.00      0.00
                                0.00      0.00      0.00
                                0.00      0.00      0.00

     DFT-D   stress (kbar)      0.00      0.00      0.00
                                0.00      0.00      0.00
                                0.00      0.00      0.00

     XDM     stress (kbar)      0.00      0.00      0.00
                                0.00      0.00      0.00
                                0.00      0.00      0.00

     dft-nl  stress (kbar)      0.00      0.00      0.00
                                0.00      0.00      0.00
                                0.00      0.00      0.00

     TS-vdW  stress (kbar)      0.00      0.00      0.00
                                0.00      0.00      0.00
                                0.00      0.00      0.00

[...]

                                0.00      0.00      0.00

     Writing all to output data dir new_calculations/myprefix.save/

     General routines

     Parallel routines

   This run was terminated on:  18:28:50  21May2023

   JOB DONE.