     Program PWSCF v.7.0 starts on 20May2023 at 21:39:28

     Reading input from espresso_10741.pwi
Warning: card &CELL ignored
Warning: card / ignored

     Current dimensions of program PWSCF are:
     Max number of different atomic species (ntypx) = 10
     Max number of k-points (npk) =  40000
     Max angular momentum in pseudopotentials (lmaxx) =  4

     gamma-point specific algorithms are used
     Message from routine setup:
     using ibrav=0 with symmetry is DISCOURAGED, use correct ibrav instead

     Subspace diagonalization in iterative solution of the eigenvalue problem:
     a serial algorithm will be used

     Using Slab Decomposition

     bravais-lattice index     =            0
     lattice parameter (alat)  =      12.7843  a.u.
     unit-cell volume          =    1608.4337 (a.u.)^3
     number of atoms/cell      =           14
     number of atomic types    =            4
     number of electrons       =       220.00
     number of Kohn-Sham states=          132
     kinetic-energy cutoff     =      30.0000  Ry
     charge density cutoff     =     240.0000  Ry
     scf convergence threshold =      1.0E-06
     mixing beta               =       0.7000
     number of iterations used =            8  plain     mixing
     Exchange-correlation= SLA  PW   PBE  PBE
                           (   1   4   3   4   0   0   0)

     celldm(1)=  12.784296  celldm(2)=   0.000000  celldm(3)=   0.000000
     celldm(4)=   0.000000  celldm(5)=   0.000000  celldm(6)=   0.000000

     crystal axes: (cart. coord. in units of alat)
               a(1) = (   1.000000   0.000000   0.000000 )
               a(2) = (  -0.329503   0.944155   0.000000 )
               a(3) = (  -0.335249  -0.472077   0.815323 )

     reciprocal axes: (cart. coord. in units 2 pi/alat)
               b(1) = (  1.000000  0.348992  0.613254 )
               b(2) = (  0.000000  1.059149  0.613254 )
               b(3) = (  0.000000  0.000000  1.226508 )

     PseudoPot. # 1 for Sr read from file:
     /home/pragov/projects/rrg-bengioy-ad/pragov/crystal_structure_design/SSSP/Sr_pbe_v1.uspp.F.UPF
     MD5 check sum: 6b418c05fbe9db5448babca5e47b7a5b
     Pseudo is Ultrasoft + core correction, Zval = 10.0
     Generated by new atomic code, or converted to UPF format
     Using radial grid of  883 points,  6 beta functions with:
                l(1) =   0
                l(2) =   0
                l(3) =   1
                l(4) =   1
                l(5) =   2
                l(6) =   2
     Q(r) pseudized with  6 coefficients,  rinner =    1.400   1.400   1.400
                                                       1.400   1.400

     PseudoPot. # 2 for Ca read from file:
     /home/pragov/projects/rrg-bengioy-ad/pragov/crystal_structure_design/SSSP/Ca_pbe_v1.uspp.F.UPF
     MD5 check sum: 403a4c14b9e4d4dfdc3024c9a3812218
     Pseudo is Ultrasoft + core correction, Zval = 10.0
     Generated by new atomic code, or converted to UPF format
     Using radial grid of  845 points,  6 beta functions with:
                l(1) =   0
                l(2) =   0
                l(3) =   1
                l(4) =   1
                l(5) =   2
                l(6) =   2
     Q(r) pseudized with  8 coefficients,  rinner =    1.500   1.500   1.500
                                                       1.500   1.500

     PseudoPot. # 3 for Ni read from file:
     /home/pragov/projects/rrg-bengioy-ad/pragov/crystal_structure_design/SSSP/ni_pbe_v1.4.uspp.F.UPF
     MD5 check sum: 1ee80287db30b12d2bc1f57a5b5d6409
     Pseudo is Ultrasoft + core correction, Zval = 18.0
     Generated by new atomic code, or converted to UPF format
     Using radial grid of  865 points,  6 beta functions with:
                l(1) =   0
                l(2) =   0
                l(3) =   1
                l(4) =   1
                l(5) =   2
                l(6) =   2
     Q(r) pseudized with 10 coefficients,  rinner =    0.980   0.980   0.980
                                                       0.980   0.980

     PseudoPot. # 4 for Sn read from file:
     /home/pragov/projects/rrg-bengioy-ad/pragov/crystal_structure_design/SSSP/Sn_pbe_v1.uspp.F.UPF
     MD5 check sum: 4cf58ce39ec5d5d420df3dd08604eb00
     Pseudo is Ultrasoft + core correction, Zval = 14.0
     Generated by new atomic code, or converted to UPF format
     Using radial grid of  891 points,  6 beta functions with:
                l(1) =   0
                l(2) =   0
                l(3) =   1
                l(4) =   1
                l(5) =   2
                l(6) =   2
     Q(r) pseudized with  6 coefficients,  rinner =    1.200   1.200   1.200
                                                       1.200   1.200

     atomic species   valence    mass     pseudopotential
        Sr            10.00    87.62000     Sr( 1.00)
        Ca            10.00    40.07800     Ca( 1.00)
        Ni            18.00    58.69340     Ni( 1.00)
        Sn            14.00   118.71000     Sn( 1.00)

      2 Sym. Ops. (no inversion) found

                                    s                        frac. trans.

      isym =  1     identity

 cryst.   s( 1) = (     1          0          0      )
                  (     0          1          0      )
                  (     0          0          1      )

 cart.    s( 1) = (  1.0000000 -0.0000000  0.0000000 )
                  (  0.0000000  1.0000000  0.0000000 )
                  (  0.0000000  0.0000000  1.0000000 )

      isym =  2     180 deg rotation - cart. axis [0,0,1]

 cryst.   s( 2) = (    -1          0          0      )
                  (     0         -1          0      )
                  (     1          1          1      )

 cart.    s( 2) = ( -1.0000000  0.0000000 -0.0000000 )
                  (  0.0000000 -1.0000000 -0.0000000 )
                  (  0.0000000  0.0000000  1.0000000 )

   Cartesian axes

     site n.     atom                  positions (alat units)
         1           Sr  tau(   1) = (   0.0000000   0.0000000   0.0000000  )
         2           Ca  tau(   2) = (   0.3352486   0.4720773   0.0000000  )
         3           Ni  tau(   3) = (   0.5429052   0.4476568   0.4051274  )
         4           Ni  tau(   4) = (  -0.0914802   0.1880133   0.4101955  )
         5           Ni  tau(   5) = (   0.0630272   0.7884451   0.1834468  )
         6           Ni  tau(   6) = (   0.3883978  -0.1527751   0.6318760  )
         7           Ni  tau(   7) = (   0.1275920   0.4964979   0.4051274  )
         8           Ni  tau(   8) = (   0.0914802  -0.1880133   0.4101955  )
         9           Ni  tau(   9) = (  -0.3883978   0.1527751   0.6318760  )
        10           Ni  tau(  10) = (   0.6074701   0.1557095   0.1834468  )
        11           Sn  tau(  11) = (   0.2881610   0.1504388   0.4076614  )
        12           Sn  tau(  12) = (   0.7118390  -0.1504388   0.4076614  )
        13           Sn  tau(  13) = (  -0.1647510   0.4720778   0.1478384  )
        14           Sn  tau(  14) = (  -0.1647517   0.4720768   0.6674844  )

   Crystallographic axes

     site n.     atom                  positions (cryst. coord.)
         1           Sr  tau(   1) = (  0.0000000  0.0000000  0.0000000  )
         2           Ca  tau(   2) = (  0.5000000  0.5000000  0.0000000  )
         3           Ni  tau(   3) = (  0.9475800  0.7225810  0.4968920  )
         4           Ni  tau(   4) = (  0.2256890  0.4506880  0.5031080  )
         5           Ni  tau(   5) = (  0.4506880  0.9475800  0.2249990  )
         6           Ni  tau(   6) = (  0.7225810  0.2256890  0.7750010  )
         7           Ni  tau(   7) = (  0.5493120  0.7743110  0.4968920  )
         8           Ni  tau(   8) = (  0.2774190  0.0524200  0.5031080  )
         9           Ni  tau(   9) = (  0.0524200  0.5493120  0.7750010  )
        10           Ni  tau(  10) = (  0.7743110  0.2774190  0.2249990  )
        11           Sn  tau(  11) = (  0.5906630  0.4093370  0.5000000  )
        12           Sn  tau(  12) = (  0.9093370  0.0906630  0.5000000  )
        13           Sn  tau(  13) = (  0.0906630  0.5906630  0.1813250  )
        14           Sn  tau(  14) = (  0.4093370  0.9093370  0.8186750  )

     number of k points=     1  Methfessel-Paxton smearing, width (Ry)=  0.0010
                       cart. coord. in units 2pi/alat
        k(    1) = (   0.0000000   0.0000000   0.0000000), wk =   2.0000000

                       cryst. coord.
        k(    1) = (   0.0000000   0.0000000   0.0000000), wk =   2.0000000

     Check: negative core charge=   -0.000006

     Initial potential from superposition of free atoms

     starting charge     199.9607, renormalised to     220.0000

     negative rho (up, down):  7.200E-02 0.000E+00
     Starting wfcs are  163 randomized atomic wfcs

     Self-consistent Calculation

     iteration #  1     ecut=    30.00 Ry     beta= 0.70
     Davidson diagonalization with overlap

     ethr =  1.00E-02,  avg # of iterations =  8.0

     negative rho (up, down):  5.634E-02 0.000E+00

     total energy              =   -3248.71528826 Ry
     estimated scf accuracy    <     422.92273788 Ry

[...]

     total energy              =   -3539.51463415 Ry
     estimated scf accuracy    <       0.00002486 Ry

     iteration # 91     ecut=    30.00 Ry     beta= 0.70
     Davidson diagonalization with overlap

     ethr =  4.60E-10,  avg # of iterations =  1.0

[...]

     End of self-consistent calculation

          k = 0.0000 0.0000 0.0000 (  2217 PWs)   bands (ev):

   -90.0082 -89.9821 -89.9702 -89.9533 -89.9495 -89.9336 -89.9127 -89.8429
   -50.1882 -50.1741 -50.1305 -50.0886 -50.0697 -50.0256 -50.0038 -49.9841
   -49.9594 -49.9461 -49.9312 -49.9266 -49.8928 -49.8660 -49.8399 -49.8308
   -49.7181 -49.6452 -49.6318 -49.5076 -49.4265 -49.4189 -49.2278 -49.1443
   -27.4385 -21.0189  -8.6352  -8.5719  -8.4515  -7.4732  -7.4569  -7.4514
    -7.4461  -7.4347  -7.4331  -7.4179  -7.4123  -7.4104  -7.4011  -7.3876
    -7.3702  -7.3687  -7.3499  -7.3294  -7.3267  -7.2987  -7.2851  -7.2493
    -7.2028  -4.0241  -3.5500  -3.3219   3.5117   5.9261   6.2953   6.3212
     8.5185   9.3577   9.5828   9.6047   9.7511   9.7965  10.3081  10.3861
    10.7173  10.9106  11.0149  11.2807  11.3385  11.5837  11.5866  11.6949
    11.7207  11.7345  11.8277  11.8601  11.8664  11.9093  11.9313  12.0048
    12.0578  12.0912  12.1882  12.2008  12.3185  12.3854  12.4650  12.7331
    12.8099  12.8721  12.9176  12.9630  13.0241  13.0882  13.0947  13.1414
    13.1817  13.2687  13.3000  13.4017  13.5091  13.5612  13.5883  13.7737
    14.3121  14.4679  14.7542  16.5176  16.5421  17.1168  17.1435  17.3232
    17.5308  17.5559  18.0144  18.0292  18.0622  18.2851  19.1321  19.1464
    19.1755  19.2837  19.7733  20.2073

     occupation numbers
     1.0000   1.0000   1.0000   1.0000   1.0000   1.0000   1.0000   1.0000
     1.0000   1.0000   1.0000   1.0000   1.0000   1.0000   1.0000   1.0000
     1.0000   1.0000   1.0000   1.0000   1.0000   1.0000   1.0000   1.0000
     1.0000   1.0000   1.0000   1.0000   1.0000   1.0000   1.0000   1.0000
     1.0000   1.0000   1.0000   1.0000   1.0000   1.0000   1.0000   1.0000
     1.0000   1.0000   1.0000   1.0000   1.0000   1.0000   1.0000   1.0000
     1.0000   1.0000   1.0000   1.0000   1.0000   1.0000   1.0000   1.0000
     1.0000   1.0000   1.0000   1.0000   1.0000   1.0000   1.0000   1.0000
     1.0000   1.0000   1.0000   1.0000   1.0000   1.0000   1.0000   1.0000
     1.0000   1.0000   1.0000   1.0000   1.0000   1.0000   1.0000   1.0000
     1.0000   1.0000   1.0000   1.0000   1.0000   1.0000   1.0000   1.0000
     1.0000   1.0000   1.0000   1.0000   1.0000   1.0000   1.0000   1.0000
     1.0000   1.0000   1.0000   1.0000   1.0000   1.0000   1.0000   1.0000
     1.0000   1.0000   1.0000   1.0000   1.0000   1.0246  -0.0246  -0.0000
    -0.0000  -0.0000  -0.0000  -0.0000  -0.0000  -0.0000  -0.0000  -0.0000
    -0.0000  -0.0000  -0.0000  -0.0000  -0.0000  -0.0000  -0.0000  -0.0000
    -0.0000  -0.0000  -0.0000  -0.0000

     the Fermi energy is    13.5747 ev

!    total energy              =   -3539.51463442 Ry
     estimated scf accuracy    <       0.00000023 Ry
     smearing contrib. (-TS)   =       0.00020559 Ry
     internal energy E=F+TS    =   -3539.51484001 Ry

     The total energy is F=E-TS. E is the sum of the following terms:
     one-electron contribution =   -2471.62699764 Ry
     hartree contribution      =    1364.26308364 Ry
     xc contribution           =    -504.80145388 Ry
     ewald contribution        =   -1927.34947213 Ry

     convergence has been achieved in  91 iterations

     negative rho (up, down):  6.402E-02 0.000E+00

     Forces acting on atoms (cartesian axes, Ry/au):

     atom    1 type  1   force =     0.00000000    0.00000000   -0.00289318
     atom    2 type  2   force =     0.00000000    0.00000000    0.00154956
     atom    3 type  3   force =    -0.02264568    0.00034168    0.00439564
     atom    4 type  3   force =    -0.00655539   -0.05616342   -0.00380081
     atom    5 type  3   force =    -0.00076974   -0.01062363   -0.00900373
     atom    6 type  3   force =    -0.00711759   -0.00370492    0.00958205
     atom    7 type  3   force =     0.02264568   -0.00034168    0.00439564
     atom    8 type  3   force =     0.00655539    0.05616342   -0.00380081
     atom    9 type  3   force =     0.00711759    0.00370492    0.00958205
     atom   10 type  3   force =     0.00076974    0.01062363   -0.00900373
     atom   11 type  4   force =     0.00946296   -0.01285316    0.00013669
     atom   12 type  4   force =    -0.00946296    0.01285316    0.00013669
     atom   13 type  4   force =     0.00000000    0.00000000    0.03188310
     atom   14 type  4   force =     0.00000000    0.00000000   -0.03315918
     The non-local contrib.  to forces
     atom    1 type  1   force =     0.00000000    0.00000000    0.00559357
     atom    2 type  2   force =     0.00000000    0.00000000   -0.00052350
     atom    3 type  3   force =    -0.09972336    0.21092517    0.01014522
     atom    4 type  3   force =     0.18018180   -0.01233142   -0.01163140
     atom    5 type  3   force =     0.06431680    0.07163657   -0.25102480
     atom    6 type  3   force =     0.08225054    0.05651420    0.24535456
     atom    7 type  3   force =     0.09972336   -0.21092517    0.01014522
     atom    8 type  3   force =    -0.18018180    0.01233142   -0.01163140
     atom    9 type  3   force =    -0.08225054   -0.05651420    0.24535456
     atom   10 type  3   force =    -0.06431680   -0.07163657   -0.25102480
     atom   11 type  4   force =    -0.00956916   -0.01698250    0.00042265
     atom   12 type  4   force =     0.00956916    0.01698250    0.00042265
     atom   13 type  4   force =     0.00000000    0.00000000    0.00985153
     atom   14 type  4   force =     0.00000000    0.00000000   -0.00718789
     The ionic contribution  to forces
     atom    1 type  1   force =    -0.00002434    0.00001729    0.00000000
     atom    2 type  2   force =     0.00002434   -0.00001729   -0.00000000
     atom    3 type  3   force =   -17.22659263   14.68300402    0.47055816
     atom    4 type  3   force =    19.53923722  -11.42647863   -0.47067454
     atom    5 type  3   force =     0.77256370    1.90067406  -22.54672204
     atom    6 type  3   force =     1.53989579    1.35559181   22.54683203
     atom    7 type  3   force =    17.22659466  -14.68300519    0.47067454
     atom    8 type  3   force =   -19.53923546   11.42647710   -0.47055816
     atom    9 type  3   force =    -1.53996834   -1.35569688   22.54672203
     atom   10 type  3   force =    -0.77248840   -1.90057093  -22.54683204
     atom   11 type  4   force =   -11.90689200    8.45575328    0.00000000
     atom   12 type  4   force =    11.90689199   -8.45575328   -0.00000000
     atom   13 type  4   force =    -0.00010189   -0.00013655  -14.60358953
     atom   14 type  4   force =     0.00009535    0.00014119   14.60358953
     The local contribution  to forces
     atom    1 type  1   force =     0.00378570    0.00143831   -0.00843952
     atom    2 type  2   force =    -0.00268105   -0.00491588    0.00196643
     atom    3 type  3   force =    17.30470011  -14.89649265   -0.45726404
     atom    4 type  3   force =   -19.72979542   11.38699819    0.49119559
     atom    5 type  3   force =    -0.78095888   -2.02239470   22.79026127
     atom    6 type  3   force =    -1.68736424   -1.37614289  -22.78122854
     atom    7 type  3   force =   -17.30219552   14.88779875   -0.49555942
     atom    8 type  3   force =    19.71600223  -11.38007289    0.46489829
     atom    9 type  3   force =     1.56934020    1.45428043  -22.77943662
     atom   10 type  3   force =     0.89361012    1.94179732   22.78220432
     atom   11 type  4   force =    11.92772565   -8.45360494    0.02195879
     atom   12 type  4   force =   -11.92576528    8.45639329   -0.02272999
     atom   13 type  4   force =     0.01270913   -0.01290952   14.62787066
     atom   14 type  4   force =    -0.01124578    0.01411077  -14.63225086
     The core correction contribution to forces
     atom    1 type  1   force =     0.00044241    0.00029053   -0.00023497
     atom    2 type  2   force =    -0.00013811    0.00007114   -0.00013173
     atom    3 type  3   force =     0.00025129   -0.00136945    0.00092209
     atom    4 type  3   force =    -0.00304674   -0.00082942   -0.00186077
     atom    5 type  3   force =    -0.00012908   -0.00124760    0.00199308
     atom    6 type  3   force =    -0.00136117   -0.00038692   -0.00278970
     atom    7 type  3   force =    -0.00028780    0.00116544   -0.00113248
     atom    8 type  3   force =     0.00278919    0.00093378    0.00229767
     atom    9 type  3   force =     0.00060130    0.00092157   -0.00203695
     atom   10 type  3   force =     0.00086616    0.00067121    0.00283962
     atom   11 type  4   force =    -0.00093820    0.00348521    0.00214303
     atom   12 type  4   force =     0.00111653   -0.00343384   -0.00211952
     atom   13 type  4   force =     0.00089910   -0.00062718   -0.00236598
     atom   14 type  4   force =    -0.00097469    0.00044474    0.00225129
     The Hubbard contrib.    to forces
     atom    1 type  1   force =     0.00000000    0.00000000    0.00000000
     atom    2 type  2   force =     0.00000000    0.00000000    0.00000000
     atom    3 type  3   force =     0.00000000    0.00000000    0.00000000
     atom    4 type  3   force =     0.00000000    0.00000000    0.00000000
     atom    5 type  3   force =     0.00000000    0.00000000    0.00000000
     atom    6 type  3   force =     0.00000000    0.00000000    0.00000000
     atom    7 type  3   force =     0.00000000    0.00000000    0.00000000
     atom    8 type  3   force =     0.00000000    0.00000000    0.00000000
     atom    9 type  3   force =     0.00000000    0.00000000    0.00000000
     atom   10 type  3   force =     0.00000000    0.00000000    0.00000000
     atom   11 type  4   force =     0.00000000    0.00000000    0.00000000
     atom   12 type  4   force =     0.00000000    0.00000000    0.00000000
     atom   13 type  4   force =     0.00000000    0.00000000    0.00000000
     atom   14 type  4   force =     0.00000000    0.00000000    0.00000000
     The SCF correction term to forces
     atom    1 type  1   force =     0.00006904   -0.00000225   -0.00000281
     atom    2 type  2   force =    -0.00000382    0.00007006    0.00004779
     atom    3 type  3   force =     0.00006498   -0.00034741    0.00001475
     atom    4 type  3   force =    -0.00041914   -0.00001479    0.00009104
     atom    5 type  3   force =     0.00025851    0.00031307   -0.00035452
     atom    6 type  3   force =     0.00022017    0.00024319    0.00020476
     atom    7 type  3   force =     0.00015702    0.00000251   -0.00009389
     atom    8 type  3   force =    -0.00010567    0.00000138   -0.00010908
     atom    9 type  3   force =     0.00015365    0.00023832   -0.00019318
     atom   10 type  3   force =    -0.00008055   -0.00003238    0.00027131
     atom   11 type  4   force =     0.00028291   -0.00002581   -0.00010165
     atom   12 type  4   force =    -0.00012913    0.00014288   -0.00010371
     atom   13 type  4   force =    -0.00015248   -0.00012976   -0.00007414
     atom   14 type  4   force =    -0.00024783   -0.00032527    0.00024819

     Total force =     0.104047     Total SCF correction =     0.001196

     Computing stress (Cartesian axis) and pressure

     negative rho (up, down):  6.402E-02 0.000E+00
          total   stress  (Ry/bohr**3)                   (kbar)     P=    -1513.77
  -0.01007927   0.00246814  -0.00000000        -1482.71      363.08       -0.00
   0.00246814  -0.00934691  -0.00000000          363.08    -1374.98       -0.00
  -0.00000000  -0.00000000  -0.01144499           -0.00       -0.00    -1683.62

     kinetic stress (kbar)  31441.86     -5.31      0.00
                               -5.31  31385.46      0.00
                                0.00      0.00  31418.88

     local   stress (kbar) -17332.02 -26834.56      6.81
                           -26834.56 -35985.87    -42.81
                                6.81    -42.81   1840.61

     nonloc. stress (kbar)  13475.36    460.37      0.00
                              460.37  13645.32      0.00
                                0.00      0.00  13175.00

     hartree stress (kbar)  41665.39  12279.26     -6.84
                            12279.26  50218.13     21.67
                               -6.84     21.67  32890.06

     exc-cor stress (kbar)    881.59      1.26     -0.43
                                1.26    882.93      0.55
                               -0.43      0.55    879.92

     corecor stress (kbar) -12915.96     -1.73      0.32
                               -1.73 -12917.52      0.07
                                0.32      0.07 -12917.78

     ewald   stress (kbar) -58698.94  14463.78      0.00
                            14463.78 -48603.44      0.01
                                0.00      0.01 -68970.30

     hubbard stress (kbar)      0.00      0.00      0.00
                                0.00      0.00      0.00
                                0.00      0.00      0.00

     DFT-D   stress (kbar)      0.00      0.00      0.00
                                0.00      0.00      0.00
                                0.00      0.00      0.00

     XDM     stress (kbar)      0.00      0.00      0.00
                                0.00      0.00      0.00
                                0.00      0.00      0.00

     dft-nl  stress (kbar)      0.00      0.00      0.00
                                0.00      0.00      0.00
                                0.00      0.00      0.00

     TS-vdW  stress (kbar)      0.00      0.00      0.00
                                0.00      0.00      0.00
                                0.00      0.00      0.00

[...]

                                0.00      0.00      0.00

     Writing all to output data dir new_calculations/myprefix.save/

     General routines

     Parallel routines

   This run was terminated on:  21:42:57  20May2023

   JOB DONE.