     Program PWSCF v.7.0 starts on 20May2023 at 22:28:50

     Reading input from espresso_25149.pwi
Warning: card &CELL ignored
Warning: card / ignored

     Current dimensions of program PWSCF are:
     Max number of different atomic species (ntypx) = 10
     Max number of k-points (npk) =  40000
     Max angular momentum in pseudopotentials (lmaxx) =  4
     file Ba.pbe-spn-kjpaw_psl.1.0.0.UPF: wavefunction(s)  5S 6S renormalized

     gamma-point specific algorithms are used
     Message from routine setup:
     using ibrav=0 with symmetry is DISCOURAGED, use correct ibrav instead

     Subspace diagonalization in iterative solution of the eigenvalue problem:
     a serial algorithm will be used

     Using Slab Decomposition

     bravais-lattice index     =            0
     lattice parameter (alat)  =      25.3356  a.u.
     unit-cell volume          =    2216.2809 (a.u.)^3
     number of atoms/cell      =           12
     number of atomic types    =            3
     number of electrons       =        96.00
     number of Kohn-Sham states=           58
     kinetic-energy cutoff     =      30.0000  Ry
     charge density cutoff     =     240.0000  Ry
     scf convergence threshold =      1.0E-06
     mixing beta               =       0.7000
     number of iterations used =            8  plain     mixing
     Exchange-correlation=  SLA  PW   PBX  PBC
                           (   1   4   3   4   0   0   0)

     celldm(1)=  25.335564  celldm(2)=   0.000000  celldm(3)=   0.000000
     celldm(4)=   0.000000  celldm(5)=   0.000000  celldm(6)=   0.000000

     crystal axes: (cart. coord. in units of alat)
               a(1) = (   1.000000   0.000000   0.000000 )
               a(2) = (   0.858632   0.512593   0.000000 )
               a(3) = (  -0.929316  -0.256296   0.265865 )

     reciprocal axes: (cart. coord. in units 2 pi/alat)
               b(1) = (  1.000000 -1.675077  1.880656 )
               b(2) = (  0.000000  1.950867  1.880656 )
               b(3) = (  0.000000  0.000000  3.761312 )

     PseudoPot. # 1 for Ba read from file:
     /home/pragov/projects/rrg-bengioy-ad/pragov/crystal_structure_design/SSSP/Ba.pbe-spn-kjpaw_psl.1.0.0.UPF
     MD5 check sum: c432291d3e53af55f19d5e8866385beb
     Pseudo is Projector augmented-wave + core cor, Zval = 10.0
     Generated using "atomic" code by A. Dal Corso  v.5.1
     Shape of augmentation charge: PSQ
     Using radial grid of 1251 points,  7 beta functions with:
                l(1) =   0
                l(2) =   0
                l(3) =   0
                l(4) =   1
                l(5) =   1
                l(6) =   2
                l(7) =   2
     Q(r) pseudized with 0 coefficients

     PseudoPot. # 2 for Zr read from file:
     /home/pragov/projects/rrg-bengioy-ad/pragov/crystal_structure_design/SSSP/Zr_pbe_v1.uspp.F.UPF
     MD5 check sum: 5db81b1e868ab7776c4564c113de050b
     Pseudo is Ultrasoft + core correction, Zval = 12.0
     Generated by new atomic code, or converted to UPF format
     Using radial grid of  887 points,  6 beta functions with:
                l(1) =   0
                l(2) =   0
                l(3) =   1
                l(4) =   1
                l(5) =   2
                l(6) =   2
     Q(r) pseudized with  6 coefficients,  rinner =    1.200   1.200   1.200
                                                       1.200   1.200

     PseudoPot. # 3 for S  read from file:
     /home/pragov/projects/rrg-bengioy-ad/pragov/crystal_structure_design/SSSP/s_pbe_v1.4.uspp.F.UPF
     MD5 check sum: 88d86576ff6df21479756cfb9bdac1df
     Pseudo is Ultrasoft + core correction, Zval =  6.0
     Generated by new atomic code, or converted to UPF format
     Using radial grid of  907 points,  6 beta functions with:
                l(1) =   0
                l(2) =   0
                l(3) =   1
                l(4) =   1
                l(5) =   2
                l(6) =   2
     Q(r) pseudized with  8 coefficients,  rinner =    1.300   1.300   1.300
                                                       1.300   1.300

     atomic species   valence    mass     pseudopotential
        Ba            10.00   137.32700     Ba( 1.00)
        Zr            12.00    91.22400     Zr( 1.00)
        S              6.00    32.06000     S ( 1.00)

      4 Sym. Ops., with inversion, found

                                    s                        frac. trans.

      isym =  1     identity

 cryst.   s( 1) = (     1          0          0      )
                  (     0          1          0      )
                  (     0          0          1      )

 cart.    s( 1) = (  1.0000000  0.0000000 -0.0000000 )
                  (  0.0000000  1.0000000 -0.0000000 )
                  (  0.0000000  0.0000000  1.0000000 )

      isym =  2     180 deg rotation - cart. axis [0,0,1]

[...]

      isym =  3     inversion

[...]

      isym =  4     inv. 180 deg rotation - cart. axis [0,0,1]

 cryst.   s( 4) = (     1          0          0      )
                  (     0          1          0      )
                  (    -1         -1         -1      )

 cart.    s( 4) = (  1.0000000  0.0000000  0.0000000 )
                  (  0.0000000  1.0000000  0.0000000 )
                  (  0.0000000  0.0000000 -1.0000000 )

   Cartesian axes

     site n.     atom                  positions (alat units)
         1           Ba  tau(   1) = (   1.5223627   0.4198528   0.0000000  )
         2           Ba  tau(   2) = (   0.3362693   0.0927398   0.0000000  )
         3           Ba  tau(   3) = (   0.0000000   0.0000000   0.0000000  )
         4           Zr  tau(   4) = (   1.1157832   0.3077222   0.0000000  )
         5           Zr  tau(   5) = (   0.7428487   0.2048705   0.0000000  )
         6           S   tau(   6) = (   0.9293160   0.2562963   0.0000000  )
         7           S   tau(   7) = (   1.2977358   0.3579030   0.0000000  )
         8           S   tau(   8) = (   0.5608961   0.1546897   0.0000000  )
         9           S   tau(   9) = (   0.1435439   0.1774832   0.1329324  )
        10           S   tau(  10) = (   0.2142279  -0.0788132   0.1329324  )
        11           S   tau(  11) = (   0.7150881   0.3351095   0.1329324  )
        12           S   tau(  12) = (   0.7857721   0.0788132   0.1329324  )

   Crystallographic axes

     site n.     atom                  positions (cryst. coord.)
         1           Ba  tau(   1) = (  0.8190770  0.8190770  0.0000000  )
         2           Ba  tau(   2) = (  0.1809230  0.1809230  0.0000000  )
         3           Ba  tau(   3) = (  0.0000000  0.0000000  0.0000000  )
         4           Zr  tau(   4) = (  0.6003250  0.6003250  0.0000000  )
         5           Zr  tau(   5) = (  0.3996750  0.3996750  0.0000000  )
         6           S   tau(   6) = (  0.5000000  0.5000000  0.0000000  )
         7           S   tau(   7) = (  0.6982210  0.6982210  0.0000000  )
         8           S   tau(   8) = (  0.3017790  0.3017790  0.0000000  )
         9           S   tau(   9) = (  0.0962460  0.5962460  0.5000000  )
        10           S   tau(  10) = (  0.5962460  0.0962460  0.5000000  )
        11           S   tau(  11) = (  0.4037540  0.9037540  0.5000000  )
        12           S   tau(  12) = (  0.9037540  0.4037540  0.5000000  )

     number of k points=     1  Methfessel-Paxton smearing, width (Ry)=  0.0010
                       cart. coord. in units 2pi/alat
        k(    1) = (   0.0000000   0.0000000   0.0000000), wk =   2.0000000

                       cryst. coord.
        k(    1) = (   0.0000000   0.0000000   0.0000000), wk =   2.0000000

     Check: negative core charge=   -0.000001

     Initial potential from superposition of free atoms

     starting charge      95.9444, renormalised to      96.0000

     negative rho (up, down):  1.208E-01 0.000E+00
     Starting wfcs are   69 randomized atomic wfcs
     Checking if some PAW data can be deallocated...

     Self-consistent Calculation

     iteration #  1     ecut=    30.00 Ry     beta= 0.70
     Davidson diagonalization with overlap

     ethr =  1.00E-02,  avg # of iterations =  3.0

     negative rho (up, down):  1.459E-01 0.000E+00

     total energy              =   -1675.40029245 Ry
     estimated scf accuracy    <       1.60126259 Ry

[...]

     total energy              =   -1676.07301243 Ry
     estimated scf accuracy    <       0.00000549 Ry

     iteration # 23     ecut=    30.00 Ry     beta= 0.70
     Davidson diagonalization with overlap

     ethr =  5.72E-09,  avg # of iterations =  3.0

[...]

     End of self-consistent calculation

          k = 0.0000 0.0000 0.0000 (  3076 PWs)   bands (ev):

   -43.1540 -43.1538 -21.2302 -21.2302 -21.2300 -21.2300 -20.8421 -20.8367
   -20.0450 -19.9775 -19.9708  -5.7147  -5.6113  -5.1975  -5.1663  -5.1662
    -5.1519  -5.1519  -5.1245  -5.1245  -4.7904  -4.0133  -3.9710  -3.9358
    -3.8540  -3.8399  -3.6345   3.7414   4.3969   4.4803   4.4803   4.6331
     4.6331   4.6727   5.2536   5.2536   5.3542   5.3542   5.5268   5.7914
     6.1249   6.1954   6.1955   6.7674   6.7674   6.9249   7.0516   7.0516
     7.1574   7.2085   7.8865   7.8865   9.0503   9.0503   9.1902   9.2325
     9.7010  10.1860

     occupation numbers
     1.0000   1.0000   1.0000   1.0000   1.0000   1.0000   1.0000   1.0000
     1.0000   1.0000   1.0000   1.0000   1.0000   1.0000   1.0000   1.0000
     1.0000   1.0000   1.0000   1.0000   1.0000   1.0000   1.0000   1.0000
     1.0000   1.0000   1.0000   1.0000   1.0000   1.0000   1.0000   1.0000
     1.0000   1.0000   1.0000   1.0000   1.0000   1.0000   1.0000   1.0000
     1.0000   1.0000   1.0000   1.0000   1.0000   1.0000   1.0000   1.0000
    -0.0000  -0.0000  -0.0000  -0.0000  -0.0000  -0.0000  -0.0000  -0.0000
    -0.0000  -0.0000

     the Fermi energy is     7.1052 ev

!    total energy              =   -1676.07301236 Ry
     estimated scf accuracy    <       0.00000073 Ry
     smearing contrib. (-TS)   =       0.00000001 Ry
     internal energy E=F+TS    =   -1676.07301237 Ry

     The total energy is F=E-TS. E is the sum of the following terms:
     one-electron contribution =    -129.83339537 Ry
     hartree contribution      =     104.59182464 Ry
     xc contribution           =    -155.95052194 Ry
     ewald contribution        =    -370.02846844 Ry
     one-center paw contrib.   =   -1124.85245126 Ry
      -> PAW hartree energy AE =      85.39209065 Ry
      -> PAW hartree energy PS =     -85.05767090 Ry
      -> PAW xc energy AE      =   -1182.55774226 Ry
      -> PAW xc energy PS      =      57.37087124 Ry
      -> total E_H with PAW    =     104.92624440 Ry
      -> total E_XC with PAW   =   -1281.13739296 Ry

     convergence has been achieved in  23 iterations

     negative rho (up, down):  1.326E-01 0.000E+00

     Forces acting on atoms (cartesian axes, Ry/au):

     atom    1 type  1   force =     0.08007164    0.02204397    0.00000000
     atom    2 type  1   force =    -0.08007164   -0.02204397   -0.00000000
     atom    3 type  1   force =     0.00000000    0.00000000    0.00000000
     atom    4 type  2   force =     0.12451276    0.03434028    0.00000000
     atom    5 type  2   force =    -0.12451276   -0.03434028   -0.00000000
     atom    6 type  3   force =     0.00000000    0.00000000    0.00000000
     atom    7 type  3   force =    -0.07558954   -0.02084719   -0.00000000
     atom    8 type  3   force =     0.07558954    0.02084719    0.00000000
     atom    9 type  3   force =    -0.02841893   -0.00783731   -0.00000071
     atom   10 type  3   force =    -0.02841893   -0.00783731    0.00000071
     atom   11 type  3   force =     0.02841893    0.00783731   -0.00000071
     atom   12 type  3   force =     0.02841893    0.00783731    0.00000071
     The non-local contrib.  to forces
     atom    1 type  1   force =    -0.00694153   -0.00179680   -0.00000000
     atom    2 type  1   force =     0.00694153    0.00179680    0.00000000
     atom    3 type  1   force =     0.00000000    0.00000000    0.00000000
     atom    4 type  2   force =    -0.11582302   -0.03194311   -0.00000000
     atom    5 type  2   force =     0.11582302    0.03194311    0.00000000
     atom    6 type  3   force =     0.00000000    0.00000000    0.00000000
     atom    7 type  3   force =     0.03755352    0.01035501    0.00000000
     atom    8 type  3   force =    -0.03755352   -0.01035501   -0.00000000
     atom    9 type  3   force =     0.08693287    0.02397661    0.00000062
     atom   10 type  3   force =     0.08693287    0.02397661   -0.00000062
     atom   11 type  3   force =    -0.08693287   -0.02397661    0.00000062
     atom   12 type  3   force =    -0.08693287   -0.02397661   -0.00000062
     The ionic contribution  to forces
     atom    1 type  1   force =    -7.74427169   -2.13579498   -0.00000000
     atom    2 type  1   force =     7.74427169    2.13579498    0.00000000
     atom    3 type  1   force =     0.00000000    0.00000000    0.00000000
     atom    4 type  2   force =     5.05950784    1.39536316    0.00000000
     atom    5 type  2   force =    -5.05950784   -1.39536316   -0.00000000
     atom    6 type  3   force =     0.00000000    0.00000000   -0.00000000
     atom    7 type  3   force =     6.61248191    1.82365834    0.00000000
     atom    8 type  3   force =    -6.61248191   -1.82365834   -0.00000000
     atom    9 type  3   force =     1.85492709    0.51157089   -0.00000000
     atom   10 type  3   force =     1.85492709    0.51157089    0.00000000
     atom   11 type  3   force =    -1.85492709   -0.51157089   -0.00000000
     atom   12 type  3   force =    -1.85492709   -0.51157089   -0.00000000
     The local contribution  to forces
     atom    1 type  1   force =     7.83192612    2.16022671   -0.00012839
     atom    2 type  1   force =    -7.83262593   -2.15965780   -0.00061019
     atom    3 type  1   force =     0.00076298    0.00038456   -0.00014464
     atom    4 type  2   force =    -4.82612653   -1.33096927   -0.00006361
     atom    5 type  2   force =     4.82609437    1.33101598    0.00003144
     atom    6 type  3   force =     0.00002480    0.00001282   -0.00000655
     atom    7 type  3   force =    -6.72333440   -1.85422473   -0.00001919
     atom    8 type  3   force =     6.72333394    1.85423483    0.00001247
     atom    9 type  3   force =    -1.96534051   -0.54204957    0.00002270
     atom   10 type  3   force =    -1.96537423   -0.54201604    0.00000732
     atom   11 type  3   force =     1.96557248    0.54207071   -0.00001894
     atom   12 type  3   force =     1.96556205    0.54209221    0.00000640
     The core correction contribution to forces
     atom    1 type  1   force =    -0.00061955   -0.00016306    0.00000684
     atom    2 type  1   force =     0.00059544    0.00017354   -0.00001882
     atom    3 type  1   force =     0.00000930    0.00000729   -0.00000551
     atom    4 type  2   force =     0.00705735    0.00194683   -0.00000085
     atom    5 type  2   force =    -0.00706611   -0.00194839    0.00000018
     atom    6 type  3   force =    -0.00000290   -0.00000070   -0.00000037
     atom    7 type  3   force =    -0.00260123   -0.00071719   -0.00000016
     atom    8 type  3   force =     0.00260515    0.00071872    0.00000001
     atom    9 type  3   force =    -0.00480551   -0.00132563    0.00000071
     atom   10 type  3   force =    -0.00480614   -0.00132525    0.00000005
     atom   11 type  3   force =     0.00480849    0.00132656   -0.00000045
     atom   12 type  3   force =     0.00480880    0.00132624    0.00000021
     The Hubbard contrib.    to forces
     atom    1 type  1   force =     0.00000000    0.00000000    0.00000000
     atom    2 type  1   force =     0.00000000    0.00000000    0.00000000
     atom    3 type  1   force =     0.00000000    0.00000000    0.00000000
     atom    4 type  2   force =     0.00000000    0.00000000    0.00000000
     atom    5 type  2   force =     0.00000000    0.00000000    0.00000000
     atom    6 type  3   force =     0.00000000    0.00000000    0.00000000
     atom    7 type  3   force =     0.00000000    0.00000000    0.00000000
     atom    8 type  3   force =     0.00000000    0.00000000    0.00000000
     atom    9 type  3   force =     0.00000000    0.00000000    0.00000000
     atom   10 type  3   force =     0.00000000    0.00000000    0.00000000
     atom   11 type  3   force =     0.00000000    0.00000000    0.00000000
     atom   12 type  3   force =     0.00000000    0.00000000    0.00000000
     The SCF correction term to forces
     atom    1 type  1   force =    -0.00023859   -0.00013137    0.00003790
     atom    2 type  1   force =     0.00052873    0.00014505    0.00004804
     atom    3 type  1   force =    -0.00023733   -0.00008161    0.00001181
     atom    4 type  2   force =    -0.00018831   -0.00007025    0.00004339
     atom    5 type  2   force =     0.00005838   -0.00000072   -0.00002592
     atom    6 type  3   force =    -0.00004266   -0.00001511    0.00000318
     atom    7 type  3   force =     0.00033967    0.00009158    0.00001471
     atom    8 type  3   force =    -0.00028511   -0.00008279   -0.00000931
     atom    9 type  3   force =    -0.00007957   -0.00000375   -0.00001052
     atom   10 type  3   force =    -0.00005913   -0.00002922    0.00000005
     atom   11 type  3   force =    -0.00005448   -0.00000384    0.00000989
     atom   12 type  3   force =    -0.00004688   -0.00002212   -0.00000529

     Total force =     0.250865     Total SCF correction =     0.000848

     Computing stress (Cartesian axis) and pressure

     negative rho (up, down):  1.326E-01 0.000E+00
          total   stress  (Ry/bohr**3)                   (kbar)     P=       73.02
  -0.00074336  -0.00053313  -0.00000000         -109.35      -78.43       -0.00
  -0.00053313   0.00104271  -0.00000000          -78.43      153.39       -0.00
  -0.00000000  -0.00000000   0.00118973           -0.00       -0.00      175.02

     kinetic stress (kbar)   7172.88    -27.70      0.00
                              -27.70   7265.67      0.00
                                0.00      0.00   7273.30

     local   stress (kbar)   -855.44   1520.77      0.00
                             1520.77  -5950.24      0.00
                                0.00      0.00  -6369.66

     nonloc. stress (kbar)   5280.68    -16.05      0.00
                              -16.05   5334.46      0.00
                                0.00      0.00   5338.88

     hartree stress (kbar)    589.60   -741.60     -0.00
                             -741.60   3074.06     -0.00
                               -0.00     -0.00   3278.59

     exc-cor stress (kbar)   3006.64      1.85      0.00
                                1.85   3000.45     -0.00
                                0.00     -0.00   2999.94

     corecor stress (kbar)  -5217.12      1.27      0.00
                                1.27  -5221.38     -0.00
                                0.00     -0.00  -5221.73

     ewald   stress (kbar) -10086.60   -816.97     -0.00
                             -816.97  -7349.63     -0.00
                               -0.00     -0.00  -7124.31

     hubbard stress (kbar)      0.00      0.00      0.00
                                0.00      0.00      0.00
                                0.00      0.00      0.00

     DFT-D   stress (kbar)      0.00      0.00      0.00
                                0.00      0.00      0.00
                                0.00      0.00      0.00

     XDM     stress (kbar)      0.00      0.00      0.00
                                0.00      0.00      0.00
                                0.00      0.00      0.00

     dft-nl  stress (kbar)      0.00      0.00      0.00
                                0.00      0.00      0.00
                                0.00      0.00      0.00

     TS-vdW  stress (kbar)      0.00      0.00      0.00
                                0.00      0.00      0.00
                                0.00      0.00      0.00

[...]

                                0.00      0.00      0.00

     Writing all to output data dir new_calculations/myprefix.save/

     General routines

     Parallel routines

     PAW routines

   This run was terminated on:  22:30:57  20May2023

   JOB DONE.