     Program PWSCF v.7.0 starts on 21May2023 at 19: 6:34

     Reading input from espresso_20797.pwi
Warning: card &CELL ignored
Warning: card / ignored

     Current dimensions of program PWSCF are:
     Max number of different atomic species (ntypx) = 10
     Max number of k-points (npk) =  40000
     Max angular momentum in pseudopotentials (lmaxx) =  4
     file C.pbe-n-kjpaw_psl.1.0.0.UPF: wavefunction(s)  2S 2P renormalized

     gamma-point specific algorithms are used
     Message from routine setup:
     using ibrav=0 with symmetry is DISCOURAGED, use correct ibrav instead

     Subspace diagonalization in iterative solution of the eigenvalue problem:
     a serial algorithm will be used

     Using Slab Decomposition

     bravais-lattice index     =            0
     lattice parameter (alat)  =       4.6634  a.u.
     unit-cell volume          =     919.2668 (a.u.)^3
     number of atoms/cell      =            4
     number of atomic types    =            1
     number of electrons       =        16.00
     number of Kohn-Sham states=           12
     kinetic-energy cutoff     =      30.0000  Ry
     charge density cutoff     =     240.0000  Ry
     scf convergence threshold =      1.0E-06
     mixing beta               =       0.7000
     number of iterations used =            8  plain     mixing
     Exchange-correlation= SLA  PW   PBX  PBC
                           (   1   4   3   4   0   0   0)

     celldm(1)=   4.663376  celldm(2)=   0.000000  celldm(3)=   0.000000
     celldm(4)=   0.000000  celldm(5)=   0.000000  celldm(6)=   0.000000

     crystal axes: (cart. coord. in units of alat)
               a(1) = (   1.000000   0.000000   0.000000 )
               a(2) = (  -0.500000   0.866025   0.000000 )
               a(3) = (   0.000000   0.000000  10.466700 )

     reciprocal axes: (cart. coord. in units 2 pi/alat)
               b(1) = (  1.000000  0.577350  0.000000 )
               b(2) = (  0.000000  1.154701  0.000000 )
               b(3) = (  0.000000  0.000000  0.095541 )

     PseudoPot. # 1 for C  read from file:
     /home/pragov/projects/rrg-bengioy-ad/pragov/crystal_structure_design/SSSP/C.pbe-n-kjpaw_psl.1.0.0.UPF
     MD5 check sum: 5d2aebdfa2cae82b50a7e79e9516da0f
     Pseudo is Projector augmented-wave + core cor, Zval =  4.0
     Generated using "atomic" code by A. Dal Corso  v.5.1
     Shape of augmentation charge: PSQ
     Using radial grid of 1073 points,  4 beta functions with:
                l(1) =   0
                l(2) =   0
                l(3) =   1
                l(4) =   1
     Q(r) pseudized with 0 coefficients

     atomic species   valence    mass     pseudopotential
        C              4.00    12.01100     C ( 1.00)

     12 Sym. Ops., with inversion, found

                                    s                        frac. trans.

      isym =  1     identity

 cryst.   s( 1) = (     1          0          0      )
                  (     0          1          0      )
                  (     0          0          1      )

 cart.    s( 1) = (  1.0000000  0.0000000  0.0000000 )
                  (  0.0000000  1.0000000  0.0000000 )
                  (  0.0000000  0.0000000  1.0000000 )

      isym =  2     180 deg rotation - cart. axis [1,0,0]

[...]

      isym =  3     120 deg rotation - cryst. axis [0,0,1]

[...]

      isym =  6     180 deg rotation - cryst. axis [1,1,0]

[...]

      isym =  7     inversion

[...]

      isym =  8     inv. 180 deg rotation - cart. axis [1,0,0]

[...]

      isym =  9     inv. 120 deg rotation - cryst. axis [0,0,1]

 cryst.   s( 9) = (     0         -1          0      )
                  (     1          1          0      )
                  (     0          0         -1      )

 cart.    s( 9) = (  0.5000000  0.8660254  0.0000000 )
                  ( -0.8660254  0.5000000  0.0000000 )
                  (  0.0000000  0.0000000 -1.0000000 )

[...]

 cryst.   s(10) = (     1          1          0      )
                  (    -1          0          0      )
                  (     0          0         -1      )

 cart.    s(10) = (  0.5000000 -0.8660254  0.0000000 )
                  (  0.8660254  0.5000000  0.0000000 )
                  (  0.0000000  0.0000000 -1.0000000 )

[...]

      isym = 12     inv. 180 deg rotation - cryst. axis [1,1,0]

 cryst.   s(12) = (     0         -1          0      )
                  (    -1          0          0      )
                  (     0          0          1      )

 cart.    s(12) = (  0.5000000 -0.8660254  0.0000000 )
                  ( -0.8660254 -0.5000000  0.0000000 )
                  (  0.0000000  0.0000000  1.0000000 )

   Cartesian axes

     site n.     atom                  positions (alat units)
         1           C   tau(   1) = (   0.0000000   0.0000000   5.9784745  )
         2           C   tau(   2) = (   0.0000000   0.0000000   4.4882257  )
         3           C   tau(   3) = (  -0.0000005   0.5773505   4.4883199  )
         4           C   tau(   4) = (   0.5000005   0.2886748   5.9783803  )

   Crystallographic axes

     site n.     atom                  positions (cryst. coord.)
         1           C   tau(   1) = (  0.0000000  0.0000000  0.5711900  )
         2           C   tau(   2) = (  0.0000000  0.0000000  0.4288100  )
         3           C   tau(   3) = (  0.3333330  0.6666670  0.4288190  )
         4           C   tau(   4) = (  0.6666670  0.3333330  0.5711810  )

     number of k points=     1  Methfessel-Paxton smearing, width (Ry)=  0.0010
                       cart. coord. in units 2pi/alat
        k(    1) = (   0.0000000   0.0000000   0.0000000), wk =   2.0000000

                       cryst. coord.
        k(    1) = (   0.0000000   0.0000000   0.0000000), wk =   2.0000000

     Check: negative core charge=   -0.000014

     Initial potential from superposition of free atoms

     starting charge      15.9998, renormalised to      16.0000

     negative rho (up, down):  5.386E-04 0.000E+00
     Starting wfcs are   16 randomized atomic wfcs
     Checking if some PAW data can be deallocated...

     Self-consistent Calculation

     iteration #  1     ecut=    30.00 Ry     beta= 0.70
     Davidson diagonalization with overlap

     ethr =  1.00E-02,  avg # of iterations =  2.0

     negative rho (up, down):  8.901E-04 0.000E+00

     total energy              =     -72.65309624 Ry
     estimated scf accuracy    <       0.70088575 Ry

[...]

     total energy              =     -72.72579600 Ry
     estimated scf accuracy    <       0.00000333 Ry

     iteration #  6     ecut=    30.00 Ry     beta= 0.70
     Davidson diagonalization with overlap

     ethr =  2.08E-08,  avg # of iterations =  2.0

[...]

     End of self-consistent calculation

          k = 0.0000 0.0000 0.0000 (  1246 PWs)   bands (ev):

   -20.7556 -20.6767  -9.3349  -8.6901  -3.9341  -3.9341  -3.9306  -3.9305
     1.6973   2.0807   2.3405   2.9814

     occupation numbers
     1.0000   1.0000   1.0000   1.0000   1.0000   1.0000   1.0000   1.0000
    -0.0000  -0.0000  -0.0000  -0.0000

     the Fermi energy is    -2.8848 ev

!    total energy              =     -72.72579632 Ry

     total all-electron energy =      -303.782188 Ry
     estimated scf accuracy    <       0.00000030 Ry
     smearing contrib. (-TS)   =       0.00000000 Ry
     internal energy E=F+TS    =     -72.72579632 Ry

     The total energy is F=E-TS. E is the sum of the following terms:
     one-electron contribution =    -789.69573870 Ry
     hartree contribution      =     399.05728132 Ry
     xc contribution           =     -18.84239931 Ry
     ewald contribution        =     361.28835810 Ry
     one-center paw contrib.   =     -24.53329772 Ry
      -> PAW hartree energy AE =      37.42832152 Ry
      -> PAW hartree energy PS =     -37.40152907 Ry
      -> PAW xc energy AE      =     -42.49127371 Ry
      -> PAW xc energy PS      =      17.93118354 Ry
      -> total E_H with PAW    =     399.08407377 Ry
      -> total E_XC with PAW   =     -43.40248948 Ry

     convergence has been achieved in   6 iterations

     negative rho (up, down):  1.031E-03 0.000E+00

     Forces acting on atoms (cartesian axes, Ry/au):

     atom    1 type  1   force =    -0.00000000   -0.00000000    0.00207324
     atom    2 type  1   force =     0.00000000    0.00000000   -0.00207324
     atom    3 type  1   force =    -0.00000000   -0.00000000   -0.00256443
     atom    4 type  1   force =     0.00000000    0.00000000    0.00256443
     The non-local contrib.  to forces
     atom    1 type  1   force =     0.00000000    0.00000000    0.00093422
     atom    2 type  1   force =     0.00000000    0.00000000   -0.00093422
     atom    3 type  1   force =    -0.00000000   -0.00000000   -0.00177264
     atom    4 type  1   force =    -0.00000000   -0.00000000    0.00177264
     The ionic contribution  to forces
     atom    1 type  1   force =     0.00000825   -0.00000476   15.27530338
     atom    2 type  1   force =    -0.00000825    0.00000476  -15.27530338
     atom    3 type  1   force =     0.00000825   -0.00000476  -15.26771668
     atom    4 type  1   force =    -0.00000825    0.00000476   15.26771668
     The local contribution  to forces
     atom    1 type  1   force =    -0.00005722   -0.00002248  -15.27495356
     atom    2 type  1   force =     0.00001701   -0.00001800   15.27506141
     atom    3 type  1   force =    -0.00000599    0.00000893   15.26782232
     atom    4 type  1   force =    -0.00004744   -0.00002863  -15.26772685
     The core correction contribution to forces
     atom    1 type  1   force =    -0.00000092   -0.00000030    0.00011378
     atom    2 type  1   force =     0.00000044   -0.00000043   -0.00011252
     atom    3 type  1   force =     0.00000011    0.00000006   -0.00011434
     atom    4 type  1   force =    -0.00000101   -0.00000037    0.00011505
     The Hubbard contrib.    to forces
     atom    1 type  1   force =     0.00000000    0.00000000    0.00000000
     atom    2 type  1   force =     0.00000000    0.00000000    0.00000000
     atom    3 type  1   force =     0.00000000    0.00000000    0.00000000
     atom    4 type  1   force =     0.00000000    0.00000000    0.00000000
     The SCF correction term to forces
     atom    1 type  1   force =     0.00001416    0.00001336    0.00066459
     atom    2 type  1   force =     0.00000215   -0.00000168   -0.00079535
     atom    3 type  1   force =     0.00000236   -0.00000252   -0.00079739
     atom    4 type  1   force =     0.00000561    0.00001209    0.00067260

     Total force =     0.004664     Total SCF correction =     0.001471
     SCF correction compared to forces is large: reduce conv_thr to get better values

     Computing stress (Cartesian axis) and pressure

     negative rho (up, down):  1.031E-03 0.000E+00
          total   stress  (Ry/bohr**3)                   (kbar)     P=       30.92
   0.00037516   0.00000000  -0.00000000           55.19        0.00       -0.00
   0.00000000   0.00037516  -0.00000000            0.00       55.19       -0.00
   0.00000000   0.00000000  -0.00011984            0.00        0.00      -17.63

     kinetic stress (kbar)   3482.30      0.00      0.00
                                0.00   3482.30      0.00
                                0.00      0.00   3365.98

     local   stress (kbar)-130799.01      0.01     -0.01
                                0.01-130799.00      0.01
                               -0.01      0.01 130614.16

     nonloc. stress (kbar)    517.52      0.00     -0.00
                                0.00    517.52     -0.00
                               -0.00     -0.00    444.24

     hartree stress (kbar)  63521.29     -0.00      0.00
                               -0.00  63521.29     -0.00
                                0.00     -0.00 -63183.70

     exc-cor stress (kbar)    -63.40     -0.00      0.00
                               -0.00    -63.40     -0.00
                                0.00     -0.00   -100.59

     corecor stress (kbar)   -739.02      0.00     -0.00
                                0.00   -739.02      0.00
                               -0.00      0.00   -701.65

     ewald   stress (kbar)  64135.51     -0.01     -0.00
                               -0.01  64135.50      0.00
                               -0.00      0.00 -70456.08

     hubbard stress (kbar)      0.00      0.00      0.00
                                0.00      0.00      0.00
                                0.00      0.00      0.00

     DFT-D   stress (kbar)      0.00      0.00      0.00
                                0.00      0.00      0.00
                                0.00      0.00      0.00

     XDM     stress (kbar)      0.00      0.00      0.00
                                0.00      0.00      0.00
                                0.00      0.00      0.00

     dft-nl  stress (kbar)      0.00      0.00      0.00
                                0.00      0.00      0.00
                                0.00      0.00      0.00

     TS-vdW  stress (kbar)      0.00      0.00      0.00
                                0.00      0.00      0.00
                                0.00      0.00      0.00

[...]

                                0.00      0.00      0.00

     Writing all to output data dir new_calculations/myprefix.save/

     General routines

     Parallel routines

     PAW routines

   This run was terminated on:  19: 6:44  21May2023

   JOB DONE.