     Program PWSCF v.7.0 starts on 21May2023 at 17:53:52

     Reading input from espresso_24940.pwi
Warning: card &CELL ignored
Warning: card / ignored

     Current dimensions of program PWSCF are:
     Max number of different atomic species (ntypx) = 10
     Max number of k-points (npk) =  40000
     Max angular momentum in pseudopotentials (lmaxx) =  4
     file Nb.pbe-spn-kjpaw_psl.0.3.0.UPF: wavefunction(s)  4S 4P renormalized

     gamma-point specific algorithms are used

     Subspace diagonalization in iterative solution of the eigenvalue problem:
     a serial algorithm will be used

     Using Slab Decomposition

     bravais-lattice index     =            0
     lattice parameter (alat)  =       9.4456  a.u.
     unit-cell volume          =     842.7357 (a.u.)^3
     number of atoms/cell      =            8
     number of atomic types    =            3
     number of electrons       =       108.00
     number of Kohn-Sham states=           65
     kinetic-energy cutoff     =      30.0000  Ry
     charge density cutoff     =     240.0000  Ry
     scf convergence threshold =      1.0E-06
     mixing beta               =       0.7000
     number of iterations used =            8  plain     mixing
     Exchange-correlation= SLA  PW   PBE  PBE
                           (   1   4   3   4   0   0   0)

     celldm(1)=   9.445640  celldm(2)=   0.000000  celldm(3)=   0.000000
     celldm(4)=   0.000000  celldm(5)=   0.000000  celldm(6)=   0.000000

     crystal axes: (cart. coord. in units of alat)
               a(1) = (   1.000000   0.000000   0.000000 )
               a(2) = (  -0.002040   0.999998   0.000000 )
               a(3) = (  -0.002040   0.002036   0.999996 )

     reciprocal axes: (cart. coord. in units 2 pi/alat)
               b(1) = (  1.000000  0.002040  0.002036 )
               b(2) = (  0.000000  1.000002 -0.002036 )
               b(3) = (  0.000000  0.000000  1.000004 )

     PseudoPot. # 1 for Nb read from file:
     /home/pragov/projects/rrg-bengioy-ad/pragov/crystal_structure_design/SSSP/Nb.pbe-spn-kjpaw_psl.0.3.0.UPF
     MD5 check sum: 411d72ad547312f8017e2943ceca08cc
     Pseudo is Projector augmented-wave + core cor, Zval = 13.0
     Generated using "atomic" code by A. Dal Corso  v.5.0.99 svn rev. 10869
     Shape of augmentation charge: PSQ
     Using radial grid of 1227 points,  6 beta functions with:
                l(1) =   0
                l(2) =   0
                l(3) =   1
                l(4) =   1
                l(5) =   2
                l(6) =   2
     Q(r) pseudized with 0 coefficients

     PseudoPot. # 2 for V  read from file:
     /home/pragov/projects/rrg-bengioy-ad/pragov/crystal_structure_design/SSSP/v_pbe_v1.4.uspp.F.UPF
     MD5 check sum: 22b79981416ebb76fdaf5b1b8640f6fb
     Pseudo is Ultrasoft + core correction, Zval = 13.0
     Generated by new atomic code, or converted to UPF format
     Using radial grid of  853 points,  6 beta functions with:
                l(1) =   0
                l(2) =   0
                l(3) =   1
                l(4) =   1
                l(5) =   2
                l(6) =   2
     Q(r) pseudized with  8 coefficients,  rinner =    1.100   1.100   1.100
                                                       1.100   1.100

     PseudoPot. # 3 for Ir read from file:
     /home/pragov/projects/rrg-bengioy-ad/pragov/crystal_structure_design/SSSP/Ir_pbe_v1.2.uspp.F.UPF
     MD5 check sum: 8836f839c3459d2b385c504ce6d91f2c
     Pseudo is Ultrasoft + core correction, Zval = 15.0
     Generated by new atomic code, or converted to UPF format
     Using radial grid of  983 points,  7 beta functions with:
                l(1) =   0
                l(2) =   0
                l(3) =   1
                l(4) =   1
                l(5) =   1
                l(6) =   2
                l(7) =   2
     Q(r) pseudized with  8 coefficients,  rinner =    1.400   1.400   1.400
                                                       1.400   1.400

     atomic species   valence    mass     pseudopotential
        Nb            13.00    92.90637     Nb( 1.00)
        V             13.00    50.94150     V ( 1.00)
        Ir            15.00   192.21700     Ir( 1.00)

     No symmetry found

                                    s                        frac. trans.

      isym =  1     identity

 cryst.   s( 1) = (     1          0          0      )
                  (     0          1          0      )
                  (     0          0          1      )

 cart.    s( 1) = (  1.0000000 -0.0000000 -0.0000000 )
                  (  0.0000000  1.0000000  0.0000000 )
                  (  0.0000000  0.0000000  1.0000000 )

   Cartesian axes

     site n.     atom                  positions (alat units)
         1           Nb  tau(   1) = (   0.5015040   0.7500046   0.0030400  )
         2           Nb  tau(   2) = (   0.2489802   0.0040516   0.4969579  )
         3           Nb  tau(   3) = (   0.9944166   0.4984856   0.7499969  )
         4           V   tau(   4) = (   0.5022674   0.2500051   0.0027830  )
         5           V   tau(   5) = (   0.7489802   0.0037951   0.4972149  )
         6           V   tau(   6) = (   0.9956929   0.4977248   0.2499990  )
         7           Ir  tau(   7) = (   0.5016262   0.4973583   0.4963469  )
         8           Ir  tau(   8) = (   0.9963341   0.0036584   0.0036510  )

   Crystallographic axes

     site n.     atom                  positions (cryst. coord.)
         1           Nb  tau(   1) = (  0.5030400  0.7500000  0.0030400  )
         2           Nb  tau(   2) = (  0.2500000  0.0030400  0.4969600  )
         3           Nb  tau(   3) = (  0.9969600  0.4969600  0.7500000  )
         4           V   tau(   4) = (  0.5027830  0.2500000  0.0027830  )
         5           V   tau(   5) = (  0.7500000  0.0027830  0.4972170  )
         6           V   tau(   6) = (  0.9972170  0.4972170  0.2500000  )
         7           Ir  tau(   7) = (  0.5036510  0.4963490  0.4963490  )
         8           Ir  tau(   8) = (  0.9963490  0.0036510  0.0036510  )

     number of k points=     1  Methfessel-Paxton smearing, width (Ry)=  0.0010
                       cart. coord. in units 2pi/alat
        k(    1) = (   0.0000000   0.0000000   0.0000000), wk =   2.0000000

                       cryst. coord.
        k(    1) = (   0.0000000   0.0000000   0.0000000), wk =   2.0000000

     Check: negative core charge=   -0.000014

     Initial potential from superposition of free atoms

     starting charge     106.9899, renormalised to     108.0000

     negative rho (up, down):  7.301E-01 0.000E+00
     Starting wfcs are   84 randomized atomic wfcs
     Checking if some PAW data can be deallocated...

     Self-consistent Calculation

     iteration #  1     ecut=    30.00 Ry     beta= 0.70
     Davidson diagonalization with overlap

     ethr =  1.00E-02,  avg # of iterations =  2.0

     negative rho (up, down):  5.657E-01 0.000E+00

     total energy              =   -1799.40505799 Ry
     estimated scf accuracy    <       4.62185537 Ry

[...]

     total energy              =   -1802.11160592 Ry
     estimated scf accuracy    <       0.00000201 Ry

     iteration # 27     ecut=    30.00 Ry     beta= 0.70
     Davidson diagonalization with overlap

     ethr =  1.86E-09,  avg # of iterations =  1.0

[...]

     End of self-consistent calculation

          k = 0.0000 0.0000 0.0000 (  1166 PWs)   bands (ev):

   -45.6137 -45.5953 -45.5952 -35.7738 -35.7065 -35.7062 -29.9003 -29.8990
   -29.8876 -29.8876 -29.8864 -29.8864 -19.6102 -19.5902 -19.5901 -19.5132
   -19.5131 -19.5034 -19.2481 -19.2480 -19.2005 -12.0790 -12.0381 -12.0379
   -11.7773 -11.7772 -11.7019 -11.6734 -11.6731 -11.5538  11.3275  14.3925
    14.3925  14.4425  15.2443  15.2785  15.2785  15.9115  15.9116  15.9780
    15.9956  15.9957  16.6559  16.6616  16.6616  16.7271  16.9980  17.0093
    17.0093  17.2856  17.8151  17.8152  17.9187  17.9225  17.9226  19.3658
    19.3659  19.5609  19.5610  19.7097  20.2410  20.5500  20.5501  21.4148
    21.4150

     occupation numbers
     1.0000   1.0000   1.0000   1.0000   1.0000   1.0000   1.0000   1.0000
     1.0000   1.0000   1.0000   1.0000   1.0000   1.0000   1.0000   1.0000
     1.0000   1.0000   1.0000   1.0000   1.0000   1.0000   1.0000   1.0000
     1.0000   1.0000   1.0000   1.0000   1.0000   1.0000   1.0000   1.0000
     1.0000   1.0000   1.0000   1.0000   1.0000   1.0000   1.0000   1.0000
     1.0000   1.0000   1.0000   1.0000   1.0000   1.0000   1.0000   1.0000
     1.0000   1.0000   1.0000   1.0000   0.8079   0.5970   0.5951  -0.0000
    -0.0000  -0.0000  -0.0000  -0.0000  -0.0000  -0.0000  -0.0000  -0.0000
    -0.0000

     the Fermi energy is    17.9241 ev

!    total energy              =   -1802.11160534 Ry
     estimated scf accuracy    <       0.00000081 Ry
     smearing contrib. (-TS)   =      -0.00070772 Ry
     internal energy E=F+TS    =   -1802.11089763 Ry

     The total energy is F=E-TS. E is the sum of the following terms:
     one-electron contribution =    -215.59771793 Ry
     hartree contribution      =     176.52280892 Ry
     xc contribution           =    -246.40914155 Ry
     ewald contribution        =    -891.17944167 Ry
     one-center paw contrib.   =    -625.44740540 Ry
      -> PAW hartree energy AE =     207.42382122 Ry
      -> PAW hartree energy PS =    -206.31954430 Ry
      -> PAW xc energy AE      =    -707.73859766 Ry
      -> PAW xc energy PS      =      81.18691534 Ry
      -> total E_H with PAW    =     177.62708584 Ry
      -> total E_XC with PAW   =    -872.96082387 Ry

     convergence has been achieved in  27 iterations

     negative rho (up, down):  6.236E-01 0.000E+00

     Forces acting on atoms (cartesian axes, Ry/au):

     atom    1 type  1   force =    -0.00664581   -0.00010986   -0.00638877
     atom    2 type  1   force =    -0.00001587   -0.00663504    0.00646632
     atom    3 type  1   force =     0.00667547    0.00662266   -0.00000282
     atom    4 type  2   force =    -0.00379656    0.00004915   -0.00367769
     atom    5 type  2   force =     0.00000915   -0.00377407    0.00368627
     atom    6 type  2   force =     0.00381846    0.00382089   -0.00002651
     atom    7 type  3   force =    -0.01395058    0.01394739    0.01384396
     atom    8 type  3   force =     0.01390574   -0.01392112   -0.01390076
     The non-local contrib.  to forces
     atom    1 type  1   force =     0.04258482    0.00011891    0.04247282
     atom    2 type  1   force =     0.00003773    0.04262872   -0.04274333
     atom    3 type  1   force =    -0.04273392   -0.04259878   -0.00003931
     atom    4 type  2   force =     0.01139086   -0.00001000    0.01152468
     atom    5 type  2   force =    -0.00002911    0.01141997   -0.01143559
     atom    6 type  2   force =    -0.01136367   -0.01148066    0.00000281
     atom    7 type  3   force =    -0.00143062    0.00140556    0.00143699
     atom    8 type  3   force =     0.00139780   -0.00142770   -0.00144904
     The ionic contribution  to forces
     atom    1 type  1   force =    -1.08797234   -0.00221912   -1.09019147
     atom    2 type  1   force =    -0.00000000   -1.08797461    1.09019147
     atom    3 type  1   force =     1.08797234    1.09019373   -0.00000000
     atom    4 type  2   force =    -1.06777908   -0.00217793   -1.06995702
     atom    5 type  2   force =     0.00000000   -1.06778130    1.06995702
     atom    6 type  2   force =     1.06777908    1.06995924    0.00000000
     atom    7 type  3   force =    -1.21548354    1.21300686    1.21054026
     atom    8 type  3   force =     1.21548354   -1.21300686   -1.21054026
     The local contribution  to forces
     atom    1 type  1   force =     1.04172085    0.00170146    1.04562610
     atom    2 type  1   force =    -0.00020387    1.04177092   -1.04471384
     atom    3 type  1   force =    -1.04136095   -1.04442091   -0.00004306
     atom    4 type  2   force =     1.05505169    0.00247253    1.05798075
     atom    5 type  2   force =     0.00018747    1.05514478   -1.05855966
     atom    6 type  2   force =    -1.05526054   -1.05689469    0.00011488
     atom    7 type  3   force =     1.21059532   -1.20800711   -1.20686647
     atom    8 type  3   force =    -1.21035262    1.20823482    1.20691612
     The core correction contribution to forces
     atom    1 type  1   force =    -0.00365699   -0.00001535   -0.00362767
     atom    2 type  1   force =    -0.00000553   -0.00365944    0.00365543
     atom    3 type  1   force =     0.00367106    0.00365442    0.00000274
     atom    4 type  2   force =    -0.00270102    0.00000062   -0.00268639
     atom    5 type  2   force =     0.00000668   -0.00270102    0.00269342
     atom    6 type  2   force =     0.00270504    0.00270379    0.00000059
     atom    7 type  3   force =    -0.00812835    0.00809127    0.00804804
     atom    8 type  3   force =     0.00810592   -0.00811010   -0.00805323
     The Hubbard contrib.    to forces
     atom    1 type  1   force =     0.00000000    0.00000000    0.00000000
     atom    2 type  1   force =     0.00000000    0.00000000    0.00000000
     atom    3 type  1   force =     0.00000000    0.00000000    0.00000000
     atom    4 type  2   force =     0.00000000    0.00000000    0.00000000
     atom    5 type  2   force =     0.00000000    0.00000000    0.00000000
     atom    6 type  2   force =     0.00000000    0.00000000    0.00000000
     atom    7 type  3   force =     0.00000000    0.00000000    0.00000000
     atom    8 type  3   force =     0.00000000    0.00000000    0.00000000
     The SCF correction term to forces
     atom    1 type  1   force =     0.00068069    0.00028206   -0.00065114
     atom    2 type  1   force =     0.00015864    0.00057718    0.00009401
     atom    3 type  1   force =    -0.00087023   -0.00022799    0.00009423
     atom    4 type  2   force =     0.00024383   -0.00025826   -0.00052230
     atom    5 type  2   force =    -0.00015305    0.00012132    0.00104849
     atom    6 type  2   force =    -0.00003862   -0.00048898   -0.00012736
     atom    7 type  3   force =     0.00049944   -0.00057139    0.00070256
     atom    8 type  3   force =    -0.00072606    0.00036654   -0.00075693

     Total force =     0.038800     Total SCF correction =     0.002500

     Computing stress (Cartesian axis) and pressure

     negative rho (up, down):  6.236E-01 0.000E+00
          total   stress  (Ry/bohr**3)                   (kbar)     P=     -219.30
  -0.00149001  -0.00001725  -0.00001710         -219.19       -2.54       -2.52
  -0.00001725  -0.00149066   0.00001730           -2.54     -219.28        2.55
  -0.00001710   0.00001730  -0.00149166           -2.52        2.55     -219.43

     kinetic stress (kbar)  38736.61      4.02      4.02
                                4.02  38736.75     -3.97
                                4.02     -3.97  38737.49

     local   stress (kbar)   5767.51    -32.78    -32.66
                              -32.78   5767.02     32.65
                              -32.66     32.65   5765.17

     nonloc. stress (kbar)   6586.09      0.02      0.01
                                0.02   6586.12     -0.04
                                0.01     -0.04   6586.45

     hartree stress (kbar)  10270.80      4.14      4.10
                                4.14  10270.93     -4.13
                                4.10     -4.13  10271.49

     exc-cor stress (kbar)  11507.23      0.12      0.12
                                0.12  11507.23     -0.12
                                0.12     -0.12  11507.24

     corecor stress (kbar) -21233.58     -0.37     -0.37
                               -0.37 -21233.58      0.37
                               -0.37      0.37 -21233.61

     ewald   stress (kbar) -51853.84     22.31     22.27
                               22.31 -51853.75    -22.22
                               22.27    -22.22 -51853.66

     hubbard stress (kbar)      0.00      0.00      0.00
                                0.00      0.00      0.00
                                0.00      0.00      0.00

     DFT-D   stress (kbar)      0.00      0.00      0.00
                                0.00      0.00      0.00
                                0.00      0.00      0.00

     XDM     stress (kbar)      0.00      0.00      0.00
                                0.00      0.00      0.00
                                0.00      0.00      0.00

     dft-nl  stress (kbar)      0.00      0.00      0.00
                                0.00      0.00      0.00
                                0.00      0.00      0.00

     TS-vdW  stress (kbar)      0.00      0.00      0.00
                                0.00      0.00      0.00
                                0.00      0.00      0.00

[...]

                                0.00      0.00      0.00

     Writing all to output data dir new_calculations/myprefix.save/

     General routines

     Parallel routines

     PAW routines

   This run was terminated on:  17:54:21  21May2023

   JOB DONE.