     Program PWSCF v.7.0 starts on 20May2023 at 23:13: 7

     Reading input from espresso_14846.pwi
Warning: card &CELL ignored
Warning: card / ignored

     Current dimensions of program PWSCF are:
     Max number of different atomic species (ntypx) = 10
     Max number of k-points (npk) =  40000
     Max angular momentum in pseudopotentials (lmaxx) =  4

     gamma-point specific algorithms are used
     Message from routine setup:
     using ibrav=0 with symmetry is DISCOURAGED, use correct ibrav instead

     Subspace diagonalization in iterative solution of the eigenvalue problem:
     a serial algorithm will be used

     Using Slab Decomposition

     bravais-lattice index     =            0
     lattice parameter (alat)  =      15.7852  a.u.
     unit-cell volume          =     694.7570 (a.u.)^3
     number of atoms/cell      =            8
     number of atomic types    =            3
     number of electrons       =        98.00
     number of Kohn-Sham states=           59
     kinetic-energy cutoff     =      30.0000  Ry
     charge density cutoff     =     240.0000  Ry
     scf convergence threshold =      1.0E-06
     mixing beta               =       0.7000
     number of iterations used =            8  plain     mixing
     Exchange-correlation= PBE
                           (   1   4   3   4   0   0   0)

     celldm(1)=  15.785236  celldm(2)=   0.000000  celldm(3)=   0.000000
     celldm(4)=   0.000000  celldm(5)=   0.000000  celldm(6)=   0.000000

     crystal axes: (cart. coord. in units of alat)
               a(1) = (   1.000000   0.000000   0.000000 )
               a(2) = (  -0.936071   0.351812   0.000000 )
               a(3) = (   0.000000   0.000000   0.502076 )

     reciprocal axes: (cart. coord. in units 2 pi/alat)
               b(1) = (  1.000000  2.660715  0.000000 )
               b(2) = (  0.000000  2.842430  0.000000 )
               b(3) = (  0.000000  0.000000  1.991731 )

     PseudoPot. # 1 for Ti read from file:
     /home/pragov/projects/rrg-bengioy-ad/pragov/crystal_structure_design/SSSP/ti_pbe_v1.4.uspp.F.UPF
     MD5 check sum: 88a00a6731bd790ddea75d31a80cb452
     Pseudo is Ultrasoft + core correction, Zval = 12.0
     Generated by new atomic code, or converted to UPF format
     Using radial grid of  851 points,  6 beta functions with:
                l(1) =   0
                l(2) =   0
                l(3) =   1
                l(4) =   1
                l(5) =   2
                l(6) =   2
     Q(r) pseudized with  6 coefficients,  rinner =    1.000   1.000   1.000
                                                       1.000   1.000

     PseudoPot. # 2 for Zn read from file:
     /home/pragov/projects/rrg-bengioy-ad/pragov/crystal_structure_design/SSSP/Zn_pbe_v1.uspp.F.UPF
     MD5 check sum: df62231357ef9e81f77b2b3087fa5675
     Pseudo is Ultrasoft, Zval = 20.0
     Generated by new atomic code, or converted to UPF format
     Using radial grid of  943 points,  6 beta functions with:
                l(1) =   0
                l(2) =   0
                l(3) =   1
                l(4) =   1
                l(5) =   2
                l(6) =   2
     Q(r) pseudized with  8 coefficients,  rinner =    1.100   1.100   1.100
                                                       1.100   1.100

     PseudoPot. # 3 for N  read from file:
     /home/pragov/projects/rrg-bengioy-ad/pragov/crystal_structure_design/SSSP/N.pbe-n-radius_5.UPF
     MD5 check sum: 16739722b17309cd8fe442a2ace49922
     Pseudo is Ultrasoft + core correction, Zval =  5.0
     Generated using "atomic" code by A. Dal Corso  v.5.1
     Using radial grid of 1085 points,  4 beta functions with:
                l(1) =   0
                l(2) =   0
                l(3) =   1
                l(4) =   1
     Q(r) pseudized with 0 coefficients

     atomic species   valence    mass     pseudopotential
        Ti            12.00    47.86700     Ti( 1.00)
        Zn            20.00    65.38000     Zn( 1.00)
        N              5.00    14.00700     N ( 1.00)

      4 Sym. Ops., with inversion, found ( 2 have fractional translation)

                                    s                        frac. trans.

      isym =  1     identity

 cryst.   s( 1) = (     1          0          0      )
                  (     0          1          0      )
                  (     0          0          1      )

 cart.    s( 1) = (  1.0000000 -0.0000000  0.0000000 )
                  (  0.0000000  1.0000000  0.0000000 )
                  (  0.0000000  0.0000000  1.0000000 )

      isym =  2     180 deg rotation - cart. axis [0,0,1]

 cryst.   s( 2) = (    -1          0          0      )    f =(  0.0000000 )
                  (     0         -1          0      )       ( -0.0000000 )
                  (     0          0          1      )       ( -0.5000000 )

 cart.    s( 2) = ( -1.0000000  0.0000000  0.0000000 )    f =(  0.0000000 )
                  (  0.0000000 -1.0000000  0.0000000 )       ( -0.0000000 )
                  (  0.0000000  0.0000000  1.0000000 )       ( -0.2510379 )

      isym =  3     inversion

 cryst.   s( 3) = (    -1          0          0      )
                  (     0         -1          0      )
                  (     0          0         -1      )

 cart.    s( 3) = ( -1.0000000  0.0000000  0.0000000 )
                  (  0.0000000 -1.0000000  0.0000000 )
                  (  0.0000000  0.0000000 -1.0000000 )

      isym =  4     inv. 180 deg rotation - cart. axis [0,0,1]

 cryst.   s( 4) = (     1          0          0      )    f =(  0.0000000 )
                  (     0          1          0      )       (  0.0000000 )
                  (     0          0         -1      )       (  0.5000000 )

 cart.    s( 4) = (  1.0000000 -0.0000000  0.0000000 )    f =(  0.0000000 )
                  (  0.0000000  1.0000000  0.0000000 )       (  0.0000000 )
                  (  0.0000000  0.0000000 -1.0000000 )       (  0.2510379 )

   Cartesian axes

     site n.     atom                  positions (alat units)
         1           Ti  tau(   1) = (   0.5901745   0.0744712   0.1255190  )
         2           Ti  tau(   2) = (  -0.5262453   0.2773406   0.3765569  )
         3           Ti  tau(   3) = (   0.2505528   0.1361853   0.1255190  )
         4           Ti  tau(   4) = (  -0.1866236   0.2156265   0.3765569  )
         5           Zn  tau(   5) = (   0.9200035   0.0145365   0.1255190  )
         6           Zn  tau(   6) = (  -0.8560743   0.3372752   0.3765569  )
         7           N   tau(   7) = (  -0.5488411   0.2814466   0.1255190  )
         8           N   tau(   8) = (   0.6127704   0.0703652   0.3765569  )

   Crystallographic axes

     site n.     atom                  positions (cryst. coord.)
         1           Ti  tau(   1) = (  0.7883210  0.2116790  0.2500000  )
         2           Ti  tau(   2) = (  0.2116790  0.7883210  0.7500000  )
         3           Ti  tau(   3) = (  0.6129030  0.3870970  0.2500000  )
         4           Ti  tau(   4) = (  0.3870970  0.6129030  0.7500000  )
         5           Zn  tau(   5) = (  0.9586810  0.0413190  0.2500000  )
         6           Zn  tau(   6) = (  0.0413190  0.9586810  0.7500000  )
         7           N   tau(   7) = (  0.2000080  0.7999920  0.2500000  )
         8           N   tau(   8) = (  0.7999920  0.2000080  0.7500000  )

     number of k points=     1  Methfessel-Paxton smearing, width (Ry)=  0.0010
                       cart. coord. in units 2pi/alat
        k(    1) = (   0.0000000   0.0000000   0.0000000), wk =   2.0000000

                       cryst. coord.
        k(    1) = (   0.0000000   0.0000000   0.0000000), wk =   2.0000000

     Check: negative core charge=   -0.000008

     Initial potential from superposition of free atoms

     starting charge      93.9995, renormalised to      98.0000

     negative rho (up, down):  7.141E-03 0.000E+00
     Starting wfcs are   74 randomized atomic wfcs

     Self-consistent Calculation

     iteration #  1     ecut=    30.00 Ry     beta= 0.70
     Davidson diagonalization with overlap

     ethr =  1.00E-02,  avg # of iterations =  7.0

     negative rho (up, down):  1.214E-03 0.000E+00

     total energy              =   -1020.28307698 Ry
     estimated scf accuracy    <     510.08514270 Ry

[...]

     c_bands:  2 eigenvalues not converged
     ethr =  1.00E-02,  avg # of iterations = 20.0

[...]

     total energy              =   -1440.86430095 Ry
     estimated scf accuracy    <       0.00001301 Ry

     iteration # 43     ecut=    30.00 Ry     beta= 0.70
     Davidson diagonalization with overlap

     ethr =  1.33E-08,  avg # of iterations =  1.0

[...]

     End of self-consistent calculation

          k = 0.0000 0.0000 0.0000 (   954 PWs)   bands (ev):

  -112.3260-112.3233 -66.4216 -66.4064 -66.4013 -66.3919 -66.3829 -66.3718
   -41.9724 -41.9627 -41.8062 -41.7028 -18.6094 -18.4564 -18.3916 -18.3530
   -18.3520 -18.1492 -18.0592 -17.9664 -17.8871 -17.8805 -17.8729 -17.7385
    -0.9485  -0.2547   6.0804   6.5076   6.5118   6.5119   6.8218   6.8540
     6.9856   7.0891   7.1231   7.1666   7.2219   8.6574   9.8316  10.0601
    10.6913  10.8795  10.9573  11.2851  12.6613  13.2616  13.3694  14.9689
    15.2335  15.2558  15.9442  16.0503  16.3846  16.5791  16.6451  17.1148
    17.1328  17.1408  17.2646

     occupation numbers
     1.0000   1.0000   1.0000   1.0000   1.0000   1.0000   1.0000   1.0000
     1.0000   1.0000   1.0000   1.0000   1.0000   1.0000   1.0000   1.0000
     1.0000   1.0000   1.0000   1.0000   1.0000   1.0000   1.0000   1.0000
     1.0000   1.0000   1.0000   1.0000   1.0000   1.0000   1.0000   1.0000
     1.0000   1.0000   1.0000   1.0000   1.0000   1.0000   1.0000   1.0000
     1.0000   1.0000   1.0000   1.0000   1.0000   1.0000   1.0000   1.0000
     0.9946   0.0054  -0.0000  -0.0000  -0.0000  -0.0000  -0.0000  -0.0000
    -0.0000  -0.0000  -0.0000

     the Fermi energy is    15.2446 ev

!    total energy              =   -1440.86430100 Ry
     estimated scf accuracy    <       0.00000042 Ry
     smearing contrib. (-TS)   =       0.00009790 Ry
     internal energy E=F+TS    =   -1440.86439890 Ry

     The total energy is F=E-TS. E is the sum of the following terms:
     one-electron contribution =    -940.30398480 Ry
     hartree contribution      =     513.23880603 Ry
     xc contribution           =    -167.97538654 Ry
     ewald contribution        =    -845.82383359 Ry

     convergence has been achieved in  43 iterations

     negative rho (up, down):  4.586E-03 0.000E+00

     Forces acting on atoms (cartesian axes, Ry/au):

     atom    1 type  1   force =    -0.13544525    0.02461194    0.00000000
     atom    2 type  1   force =     0.13544525   -0.02461194    0.00000000
     atom    3 type  1   force =     0.06701753   -0.01217802   -0.00000000
     atom    4 type  1   force =    -0.06701753    0.01217802   -0.00000000
     atom    5 type  2   force =    -0.02149333    0.00390561    0.00000000
     atom    6 type  2   force =     0.02149333   -0.00390561   -0.00000000
     atom    7 type  3   force =    -0.08752741    0.01590424    0.00000000
     atom    8 type  3   force =     0.08752741   -0.01590424    0.00000000
     The non-local contrib.  to forces
     atom    1 type  1   force =    -0.13306140    0.02417890    0.00000000
     atom    2 type  1   force =     0.13306140   -0.02417890    0.00000000
     atom    3 type  1   force =    -0.04184842    0.00760447    0.00000000
     atom    4 type  1   force =     0.04184842   -0.00760447    0.00000000
     atom    5 type  2   force =     0.45616609   -0.08289183    0.00000000
     atom    6 type  2   force =    -0.45616609    0.08289183    0.00000000
     atom    7 type  3   force =     0.16952981   -0.03080689   -0.00000000
     atom    8 type  3   force =    -0.16952981    0.03080689    0.00000000
     The ionic contribution  to forces
     atom    1 type  1   force =    -0.54520748    0.09907199    0.00000000
     atom    2 type  1   force =     0.54520748   -0.09907199   -0.00000000
     atom    3 type  1   force =    11.69092899   -2.12440877   -0.00000000
     atom    4 type  1   force =   -11.69092899    2.12440877   -0.00000000
     atom    5 type  2   force =   -18.87503199    3.42986289    0.00000000
     atom    6 type  2   force =    18.87503200   -3.42986289   -0.00000000
     atom    7 type  3   force =     1.64877438   -0.29960585   -0.00000000
     atom    8 type  3   force =    -1.64877438    0.29960585   -0.00000000
     The local contribution  to forces
     atom    1 type  1   force =     0.53182354   -0.09664104   -0.00000225
     atom    2 type  1   force =    -0.53226846    0.09672175   -0.00000066
     atom    3 type  1   force =   -11.56908788    2.10226706   -0.00000001
     atom    4 type  1   force =    11.56966608   -2.10237337   -0.00000075
     atom    5 type  2   force =    18.39587455   -3.34279254    0.00000052
     atom    6 type  2   force =   -18.39660633    3.34292710    0.00000151
     atom    7 type  3   force =    -1.90351959    0.34589850    0.00000115
     atom    8 type  3   force =     1.90365989   -0.34592254    0.00000030
     The core correction contribution to forces
     atom    1 type  1   force =     0.01015540   -0.00184537   -0.00000007
     atom    2 type  1   force =    -0.01016234    0.00184660   -0.00000006
     atom    3 type  1   force =    -0.01141208    0.00207373   -0.00000004
     atom    4 type  1   force =     0.01141344   -0.00207400   -0.00000000
     atom    5 type  2   force =     0.00000000    0.00000000    0.00000000
     atom    6 type  2   force =     0.00000000    0.00000000    0.00000000
     atom    7 type  3   force =    -0.00171757    0.00031213    0.00000001
     atom    8 type  3   force =     0.00171820   -0.00031223   -0.00000001
     The Hubbard contrib.    to forces
     atom    1 type  1   force =     0.00000000    0.00000000    0.00000000
     atom    2 type  1   force =     0.00000000    0.00000000    0.00000000
     atom    3 type  1   force =     0.00000000    0.00000000    0.00000000
     atom    4 type  1   force =     0.00000000    0.00000000    0.00000000
     atom    5 type  2   force =     0.00000000    0.00000000    0.00000000
     atom    6 type  2   force =     0.00000000    0.00000000    0.00000000
     atom    7 type  3   force =     0.00000000    0.00000000    0.00000000
     atom    8 type  3   force =     0.00000000    0.00000000    0.00000000
     The SCF correction term to forces
     atom    1 type  1   force =     0.00085723   -0.00015487    0.00000122
     atom    2 type  1   force =    -0.00038031    0.00006827    0.00000085
     atom    3 type  1   force =    -0.00157341    0.00028738   -0.00000037
     atom    4 type  1   force =     0.00097318   -0.00017702    0.00000034
     atom    5 type  2   force =     0.00160123   -0.00029192    0.00000064
     atom    6 type  2   force =    -0.00066305    0.00011934   -0.00000194
     atom    7 type  3   force =    -0.00059785    0.00010728   -0.00000041
     atom    8 type  3   force =     0.00045010   -0.00008129   -0.00000024

     Total force =     0.252911     Total SCF correction =     0.002851

     Computing stress (Cartesian axis) and pressure

     negative rho (up, down):  4.586E-03 0.000E+00
          total   stress  (Ry/bohr**3)                   (kbar)     P=     -238.92
  -0.00198390  -0.00049655   0.00000000         -291.84      -73.04        0.00
  -0.00049655  -0.00462622   0.00000000          -73.04     -680.54        0.00
   0.00000000   0.00000000   0.00173775            0.00        0.00      255.63

     kinetic stress (kbar)  29066.51     -1.23      0.00
                               -1.23  29059.99      0.00
                                0.00      0.00  28969.60

     local   stress (kbar)  11332.44  -1611.89     -0.16
                            -1611.89   2754.85     -0.84
                               -0.16     -0.84 -13576.83

     nonloc. stress (kbar)   5144.86    -40.61      0.00
                              -40.61   4928.75      0.00
                                0.00      0.00   5193.19

     hartree stress (kbar)  30377.25    977.36      0.04
                              977.36  35578.20      0.24
                                0.04      0.24  42715.68

     exc-cor stress (kbar)  -7789.55      0.15      0.00
                                0.15  -7788.73      0.01
                                0.00      0.01  -7799.81

     corecor stress (kbar)  -3272.56      2.57     -0.00
                                2.57  -3258.88     -0.01
                               -0.00     -0.01  -3260.36

     ewald   stress (kbar) -65150.80    600.60     -0.00
                              600.60 -61954.73      0.00
                               -0.00      0.00 -51985.84

     hubbard stress (kbar)      0.00      0.00      0.00
                                0.00      0.00      0.00
                                0.00      0.00      0.00

     DFT-D   stress (kbar)      0.00      0.00      0.00
                                0.00      0.00      0.00
                                0.00      0.00      0.00

     XDM     stress (kbar)      0.00      0.00      0.00
                                0.00      0.00      0.00
                                0.00      0.00      0.00

     dft-nl  stress (kbar)      0.00      0.00      0.00
                                0.00      0.00      0.00
                                0.00      0.00      0.00

     TS-vdW  stress (kbar)      0.00      0.00      0.00
                                0.00      0.00      0.00
                                0.00      0.00      0.00

[...]

                                0.00      0.00      0.00

     Writing all to output data dir new_calculations/myprefix.save/

     General routines

     Parallel routines

   This run was terminated on:  23:13:36  20May2023

   JOB DONE.