     Program PWSCF v.7.0 starts on 21May2023 at  8:32:58

     Reading input from espresso_24548.pwi
Warning: card &CELL ignored
Warning: card / ignored

     Current dimensions of program PWSCF are:
     Max number of different atomic species (ntypx) = 10
     Max number of k-points (npk) =  40000
     Max angular momentum in pseudopotentials (lmaxx) =  4
     file O.pbe-n-kjpaw_psl.0.1.UPF: wavefunction(s)  2P renormalized

     gamma-point specific algorithms are used
     Message from routine setup:
     using ibrav=0 with symmetry is DISCOURAGED, use correct ibrav instead

     Subspace diagonalization in iterative solution of the eigenvalue problem:
     a serial algorithm will be used

     Using Slab Decomposition

     bravais-lattice index     =            0
     lattice parameter (alat)  =       9.8335  a.u.
     unit-cell volume          =    1648.7224 (a.u.)^3
     number of atoms/cell      =           16
     number of atomic types    =            2
     number of electrons       =       128.00
     number of Kohn-Sham states=           77
     kinetic-energy cutoff     =      30.0000  Ry
     charge density cutoff     =     240.0000  Ry
     scf convergence threshold =      1.0E-06
     mixing beta               =       0.7000
     number of iterations used =            8  plain     mixing
     Exchange-correlation= SLA  PW   PBX  PBC
                           (   1   4   3   4   0   0   0)

     celldm(1)=   9.833517  celldm(2)=   0.000000  celldm(3)=   0.000000
     celldm(4)=   0.000000  celldm(5)=   0.000000  celldm(6)=   0.000000

     crystal axes: (cart. coord. in units of alat)
               a(1) = (   1.000000   0.000000   0.000000 )
               a(2) = (   0.000000   1.022527   0.000000 )
               a(3) = (   0.000000   0.493253   1.695689 )

     reciprocal axes: (cart. coord. in units 2 pi/alat)
               b(1) = (  1.000000  0.000000  0.000000 )
               b(2) = (  0.000000  0.977969 -0.284478 )
               b(3) = (  0.000000  0.000000  0.589731 )

     PseudoPot. # 1 for Mo read from file:
     /home/pragov/projects/rrg-bengioy-ad/pragov/crystal_structure_design/SSSP/Mo_ONCV_PBE-1.0.oncvpsp.upf
     MD5 check sum: 1b5d28e075c9ccadda658a603575cd1f
     Pseudo is Norm-conserving, Zval = 14.0
     Generated using ONCVPSP code by D. R. Hamann
     Using radial grid of 1526 points,  6 beta functions with:
                l(1) =   0
                l(2) =   0
                l(3) =   1
                l(4) =   1
                l(5) =   2
                l(6) =   2

     PseudoPot. # 2 for O  read from file:
     /home/pragov/projects/rrg-bengioy-ad/pragov/crystal_structure_design/SSSP/O.pbe-n-kjpaw_psl.0.1.UPF
     MD5 check sum: 0234752ac141de4415c5fc33072bef88
     Pseudo is Projector augmented-wave + core cor, Zval =  6.0
     Generated using "atomic" code by A. Dal Corso  v.5.0.99 svn rev. 10869
     Shape of augmentation charge: BESSEL
     Using radial grid of 1095 points,  4 beta functions with:
                l(1) =   0
                l(2) =   0
                l(3) =   1
                l(4) =   1
     Q(r) pseudized with 0 coefficients

     atomic species   valence    mass     pseudopotential
        Mo            14.00    95.95000     Mo( 1.00)
        O              6.00    15.99900     O ( 1.00)

      2 Sym. Ops. (no inversion) found ( 1 have fractional translation)

                                    s                        frac. trans.

      isym =  1     identity

 cryst.   s( 1) = (     1          0          0      )
                  (     0          1          0      )
                  (     0          0          1      )

 cart.    s( 1) = (  1.0000000  0.0000000  0.0000000 )
                  (  0.0000000  1.0000000 -0.0000000 )
                  (  0.0000000  0.0000000  1.0000000 )

      isym =  2     inv. 180 deg rotation - cart. axis [1,0,0]

 cryst.   s( 2) = (    -1          0          0      )    f =(  0.0000000 )
                  (     0          1          0      )       ( -0.5000000 )
                  (     0          0          1      )       (  0.0000000 )

 cart.    s( 2) = ( -1.0000000  0.0000000  0.0000000 )    f =(  0.0000000 )
                  (  0.0000000  1.0000000 -0.0000000 )       ( -0.5112634 )
                  (  0.0000000  0.0000000  1.0000000 )       (  0.0000000 )

   Cartesian axes

     site n.     atom                  positions (alat units)
         1           Mo  tau(   1) = (   0.2638450   0.0392871   0.0711392  )
         2           Mo  tau(   2) = (   0.7361550   0.5505505   0.0711392  )
         3           Mo  tau(   3) = (   0.7683980   0.5605108   0.8937367  )
         4           Mo  tau(   4) = (   0.2316020   1.0717742   0.8937367  )
         5           O   tau(   5) = (   0.4699860   0.3172265   0.8803628  )
         6           O   tau(   6) = (   0.5300140   0.8284899   0.8803628  )
         7           O   tau(   7) = (   0.6715330   0.5520834   0.3943071  )
         8           O   tau(   8) = (   0.3284670   1.0633468   0.3943071  )
         9           O   tau(   9) = (   0.0415770   0.7633743   0.7675418  )
        10           O   tau(  10) = (   0.9584230   0.2521109   0.7675418  )
        11           O   tau(  11) = (   0.8427300   0.5486596   1.2133640  )
        12           O   tau(  12) = (   0.1572700   1.0599230   1.2133640  )
        13           O   tau(  13) = (   0.5041080   0.7643432   1.6375864  )
        14           O   tau(  14) = (   0.4958920   1.2756066   1.6375864  )
        15           O   tau(  15) = (   0.9920600   0.2680471   0.0416020  )
        16           O   tau(  16) = (   0.0079400   0.7793105   0.0416020  )

   Crystallographic axes

     site n.     atom                  positions (cryst. coord.)
         1           Mo  tau(   1) = (  0.2638450  0.0181840  0.0419530  )
         2           Mo  tau(   2) = (  0.7361550  0.5181840  0.0419530  )
         3           Mo  tau(   3) = (  0.7683980  0.2939140  0.5270640  )
         4           Mo  tau(   4) = (  0.2316020  0.7939140  0.5270640  )
         5           O   tau(   5) = (  0.4699860  0.0597940  0.5191770  )
         6           O   tau(   6) = (  0.5300140  0.5597940  0.5191770  )
         7           O   tau(   7) = (  0.6715330  0.4277490  0.2325350  )
         8           O   tau(   8) = (  0.3284670  0.9277490  0.2325350  )
         9           O   tau(   9) = (  0.0415770  0.5282080  0.4526430  )
        10           O   tau(  10) = (  0.9584230  0.0282080  0.4526430  )
        11           O   tau(  11) = (  0.8427300  0.1913970  0.7155580  )
        12           O   tau(  12) = (  0.1572700  0.6913970  0.7155580  )
        13           O   tau(  13) = (  0.5041080  0.2816470  0.9657350  )
        14           O   tau(  14) = (  0.4958920  0.7816470  0.9657350  )
        15           O   tau(  15) = (  0.9920600  0.2503070  0.0245340  )
        16           O   tau(  16) = (  0.0079400  0.7503070  0.0245340  )

     number of k points=     1  Methfessel-Paxton smearing, width (Ry)=  0.0010
                       cart. coord. in units 2pi/alat
        k(    1) = (   0.0000000   0.0000000   0.0000000), wk =   2.0000000

                       cryst. coord.
        k(    1) = (   0.0000000   0.0000000   0.0000000), wk =   2.0000000

     Check: negative core charge=   -0.000015

     Initial potential from superposition of free atoms

     starting charge     127.9960, renormalised to     128.0000
     Starting wfcs are   88 randomized atomic wfcs
     Checking if some PAW data can be deallocated...

     Self-consistent Calculation

     iteration #  1     ecut=    30.00 Ry     beta= 0.70
     Davidson diagonalization with overlap

     ethr =  1.00E-02,  avg # of iterations =  2.0

     total energy              =   -1043.76514369 Ry
     estimated scf accuracy    <       7.41238801 Ry

[...]

     total energy              =   -1048.08407319 Ry
     estimated scf accuracy    <       0.00000238 Ry

     iteration # 19     ecut=    30.00 Ry     beta= 0.70
     Davidson diagonalization with overlap

     ethr =  1.67E-09,  avg # of iterations =  2.0

     End of self-consistent calculation

          k = 0.0000 0.0000 0.0000 (  2299 PWs)   bands (ev):

   -57.7360 -57.7299 -57.0364 -57.0299 -32.0838 -32.0698 -31.9430 -31.9113
   -31.8373 -31.7979 -31.3635 -31.3506 -31.2366 -31.2057 -31.1313 -31.0925
   -13.6501 -13.1869 -12.9747 -12.6998 -12.6901 -12.4356 -12.3202 -12.2892
   -12.0141 -11.8749 -11.5385 -11.5201  -2.0168  -1.3656  -1.2891  -0.9768
    -0.5969  -0.5959  -0.2240  -0.0623  -0.0284   0.0031   0.0539   0.4402
     0.5571   0.7700   0.9337   0.9779   1.3911   1.6945   1.8940   2.1498
     2.1969   2.2527   2.5790   2.6896   2.7668   2.8237   2.9858   3.0388
     3.1154   3.3467   3.5123   3.6790   3.9359   4.1184   4.4267   4.9121
     5.0503   5.7476   7.3907   7.5975   7.6907   7.8445   7.8518   8.1031
     8.2657   8.3453   8.4168   8.6499   8.9152

     occupation numbers
     1.0000   1.0000   1.0000   1.0000   1.0000   1.0000   1.0000   1.0000
     1.0000   1.0000   1.0000   1.0000   1.0000   1.0000   1.0000   1.0000
     1.0000   1.0000   1.0000   1.0000   1.0000   1.0000   1.0000   1.0000
     1.0000   1.0000   1.0000   1.0000   1.0000   1.0000   1.0000   1.0000
     1.0000   1.0000   1.0000   1.0000   1.0000   1.0000   1.0000   1.0000
     1.0000   1.0000   1.0000   1.0000   1.0000   1.0000   1.0000   1.0000
     1.0000   1.0000   1.0000   1.0000   1.0000   1.0000   1.0000   1.0000
     1.0000   1.0000   1.0000   1.0000   1.0000   1.0000   1.0000   1.0000
    -0.0000  -0.0000  -0.0000  -0.0000  -0.0000  -0.0000  -0.0000  -0.0000
    -0.0000  -0.0000  -0.0000  -0.0000  -0.0000

     the Fermi energy is     4.9829 ev

!    total energy              =   -1048.08407286 Ry
     estimated scf accuracy    <       0.00000091 Ry
     smearing contrib. (-TS)   =       0.00000000 Ry
     internal energy E=F+TS    =   -1048.08407286 Ry

     The total energy is F=E-TS. E is the sum of the following terms:
     one-electron contribution =    -551.23760797 Ry
     hartree contribution      =     320.36506628 Ry
     xc contribution           =    -150.19474441 Ry
     ewald contribution        =    -552.66620350 Ry
     one-center paw contrib.   =    -114.35058326 Ry
      -> PAW hartree energy AE =     352.35067353 Ry
      -> PAW hartree energy PS =    -351.13506748 Ry
      -> PAW xc energy AE      =    -205.62577196 Ry
      -> PAW xc energy PS      =      90.05958265 Ry
      -> total E_H with PAW    =     321.58067233 Ry
      -> total E_XC with PAW   =    -265.76093372 Ry

     convergence has been achieved in  19 iterations

     Forces acting on atoms (cartesian axes, Ry/au):

     atom    1 type  1   force =     0.00243258    0.18620940    0.07884722
     atom    2 type  1   force =    -0.00243258    0.18620940    0.07884722
     atom    3 type  1   force =     0.04015165    0.19008586    0.07460228
     atom    4 type  1   force =    -0.04015165    0.19008586    0.07460228
     atom    5 type  2   force =    -0.02933145   -0.09528102   -0.01345647
     atom    6 type  2   force =     0.02933145   -0.09528102   -0.01345647
     atom    7 type  2   force =     0.00066638   -0.01017376   -0.03518080
     atom    8 type  2   force =    -0.00066638   -0.01017376   -0.03518080
     atom    9 type  2   force =    -0.00705605   -0.08366549   -0.03475033
     atom   10 type  2   force =     0.00705605   -0.08366549   -0.03475033
     atom   11 type  2   force =    -0.00019906   -0.01308217   -0.03065004
     atom   12 type  2   force =     0.00019906   -0.01308217   -0.03065004
     atom   13 type  2   force =    -0.02021182   -0.09598932   -0.03114496
     atom   14 type  2   force =     0.02021182   -0.09598932   -0.03114496
     atom   15 type  2   force =     0.00876353   -0.07810349   -0.00826690
     atom   16 type  2   force =    -0.00876353   -0.07810349   -0.00826690
     The non-local contrib.  to forces
     atom    1 type  1   force =     0.05105018   -0.01512127    0.04561068
     atom    2 type  1   force =    -0.05105018   -0.01512127    0.04561068
     atom    3 type  1   force =     0.03107997   -0.02395099    0.05751184
     atom    4 type  1   force =    -0.03107997   -0.02395099    0.05751184
     atom    5 type  2   force =    -0.06181702   -0.24193082    0.11421828
     atom    6 type  2   force =     0.06181702   -0.24193082    0.11421828
     atom    7 type  2   force =     0.29229321   -0.01302222   -1.23405998
     atom    8 type  2   force =    -0.29229321   -0.01302222   -1.23405998
     atom    9 type  2   force =    -0.47094798    0.19499620    0.76921094
     atom   10 type  2   force =     0.47094798    0.19499620    0.76921094
     atom   11 type  2   force =    -0.27680356    0.01827501   -1.38390743
     atom   12 type  2   force =     0.27680356    0.01827501   -1.38390743
     atom   13 type  2   force =    -0.27899008   -0.02066558    0.79431958
     atom   14 type  2   force =     0.27899008   -0.02066558    0.79431958
     atom   15 type  2   force =     0.28943329   -0.00480555    0.18123291
     atom   16 type  2   force =    -0.28943329   -0.00480555    0.18123291
     The ionic contribution  to forces
     atom    1 type  1   force =    -1.62859063   -1.23370068   -6.84643623
     atom    2 type  1   force =     1.62859063   -1.23370068   -6.84643623
     atom    3 type  1   force =    -2.35907649   -0.82624587   -0.19461080
     atom    4 type  1   force =     2.35907649   -0.82624587   -0.19461080
     atom    5 type  2   force =     0.28689121    2.45090133    0.92551760
     atom    6 type  2   force =    -0.28689121    2.45090133    0.92551760
     atom    7 type  2   force =    -3.09472481    0.08176649   10.04526675
     atom    8 type  2   force =     3.09472481    0.08176649   10.04526675
     atom    9 type  2   force =     3.19254230   -1.22605904   -6.77085920
     atom   10 type  2   force =    -3.19254230   -1.22605904   -6.77085920
     atom   11 type  2   force =     2.45367168   -0.56145015   14.37112658
     atom   12 type  2   force =    -2.45367168   -0.56145015   14.37112658
     atom   13 type  2   force =     1.55824546    0.78451019   -9.06646238
     atom   14 type  2   force =    -1.55824546    0.78451019   -9.06646238
     atom   15 type  2   force =    -1.94811333    0.53027773   -2.46354232
     atom   16 type  2   force =     1.94811333    0.53027773   -2.46354232
     The local contribution  to forces
     atom    1 type  1   force =     1.57843249    1.43472398    6.88107828
     atom    2 type  1   force =    -1.57838631    1.43516585    6.88088759
     atom    3 type  1   force =     2.36818584    1.04056084    0.21150016
     atom    4 type  1   force =    -2.36808043    1.03995492    0.21111502
     atom    5 type  2   force =    -0.25447861   -2.30567546   -1.05213128
     atom    6 type  2   force =     0.25482753   -2.30594963   -1.05217257
     atom    7 type  2   force =     2.80557932   -0.07897135   -8.85607306
     atom    8 type  2   force =    -2.80551276   -0.07904408   -8.85602053
     atom    9 type  2   force =    -2.73326309    0.94974561    5.97415243
     atom   10 type  2   force =     2.73295330    0.95000531    5.97418790
     atom   11 type  2   force =    -2.17895454    0.53013045  -13.02881621
     atom   12 type  2   force =     2.17885208    0.53008489  -13.02864419
     atom   13 type  2   force =    -1.30196527   -0.85923202    8.24904932
     atom   14 type  2   force =     1.30212745   -0.85931551    8.24906901
     atom   15 type  2   force =     1.66969743   -0.60279130    2.27611245
     atom   16 type  2   force =    -1.66985274   -0.60288365    2.27612159
     The core correction contribution to forces
     atom    1 type  1   force =     0.00000000    0.00000000    0.00000000
     atom    2 type  1   force =     0.00000000    0.00000000    0.00000000
     atom    3 type  1   force =     0.00000000    0.00000000    0.00000000
     atom    4 type  1   force =     0.00000000    0.00000000    0.00000000
     atom    5 type  2   force =     0.00027322    0.00157595   -0.00123281
     atom    6 type  2   force =    -0.00027421    0.00157724   -0.00123319
     atom    7 type  2   force =    -0.00226319    0.00007870    0.00944448
     atom    8 type  2   force =     0.00226307    0.00007894    0.00944441
     atom    9 type  2   force =     0.00449332   -0.00247575   -0.00749976
     atom   10 type  2   force =    -0.00449235   -0.00247694   -0.00749903
     atom   11 type  2   force =     0.00199891   -0.00001896    0.01085629
     atom   12 type  2   force =    -0.00199866   -0.00001861    0.01085566
     atom   13 type  2   force =     0.00244494   -0.00065713   -0.00752394
     atom   14 type  2   force =    -0.00244524   -0.00065692   -0.00752398
     atom   15 type  2   force =    -0.00238809   -0.00066066   -0.00170629
     atom   16 type  2   force =     0.00238853   -0.00066029   -0.00170646
     The Hubbard contrib.    to forces
     atom    1 type  1   force =     0.00000000    0.00000000    0.00000000
     atom    2 type  1   force =     0.00000000    0.00000000    0.00000000
     atom    3 type  1   force =     0.00000000    0.00000000    0.00000000
     atom    4 type  1   force =     0.00000000    0.00000000    0.00000000
     atom    5 type  2   force =     0.00000000    0.00000000    0.00000000
     atom    6 type  2   force =     0.00000000    0.00000000    0.00000000
     atom    7 type  2   force =     0.00000000    0.00000000    0.00000000
     atom    8 type  2   force =     0.00000000    0.00000000    0.00000000
     atom    9 type  2   force =     0.00000000    0.00000000    0.00000000
     atom   10 type  2   force =     0.00000000    0.00000000    0.00000000
     atom   11 type  2   force =     0.00000000    0.00000000    0.00000000
     atom   12 type  2   force =     0.00000000    0.00000000    0.00000000
     atom   13 type  2   force =     0.00000000    0.00000000    0.00000000
     atom   14 type  2   force =     0.00000000    0.00000000    0.00000000
     atom   15 type  2   force =     0.00000000    0.00000000    0.00000000
     atom   16 type  2   force =     0.00000000    0.00000000    0.00000000
     The SCF correction term to forces
     atom    1 type  1   force =     0.00154379    0.00029186   -0.00138410
     atom    2 type  1   force =    -0.00158348   -0.00010484   -0.00121560
     atom    3 type  1   force =    -0.00001770   -0.00026654    0.00023897
     atom    4 type  1   force =    -0.00004777    0.00033036    0.00056897
     atom    5 type  2   force =    -0.00023568   -0.00019418    0.00020007
     atom    6 type  2   force =    -0.00018312    0.00017717    0.00020570
     atom    7 type  2   force =    -0.00021997   -0.00002900    0.00024888
     atom    8 type  2   force =     0.00014988    0.00006487    0.00020132
     atom    9 type  2   force =     0.00014597    0.00017576    0.00023059
     atom   10 type  2   force =     0.00021598   -0.00016514    0.00024435
     atom   11 type  2   force =    -0.00009853   -0.00002606    0.00013651
     atom   12 type  2   force =     0.00022678    0.00004838   -0.00010580
     atom   13 type  2   force =     0.00003560    0.00005373   -0.00050501
     atom   14 type  2   force =    -0.00023255    0.00015414   -0.00054909
     atom   15 type  2   force =     0.00014905   -0.00012722   -0.00034581
     atom   16 type  2   force =     0.00003548   -0.00001407   -0.00036984

     Total force =     0.493709     Total SCF correction =     0.003260

     Computing stress (Cartesian axis) and pressure

          total   stress  (Ry/bohr**3)                   (kbar)     P=     -367.88
  -0.00246048   0.00000000   0.00000000         -361.95        0.00        0.00
   0.00000000  -0.00244514   0.00020933            0.00     -359.69       30.79
   0.00000000   0.00020933  -0.00259682            0.00       30.79     -382.01

     kinetic stress (kbar)  22080.51      0.00      0.00
                                0.00  21953.70     15.13
                                0.00     15.13  22109.68

     local   stress (kbar) -24969.11      0.03     -0.00
                                0.03 -25417.50    203.48
                               -0.00    203.48  -2334.33

     nonloc. stress (kbar)   6283.76      0.00      0.00
                                0.00   6289.05      4.66
                                0.00      4.66   6205.92

     hartree stress (kbar)  12633.99     -0.03      0.01
                               -0.03  12935.63    -25.85
                                0.01    -25.85   3014.54

     exc-cor stress (kbar)  -3738.40      0.00     -0.00
                                0.00  -3740.28     -1.45
                               -0.00     -1.45  -3744.24

     corecor stress (kbar)   -452.44     -0.00      0.00
                               -0.00   -451.54      0.12
                                0.00      0.12   -451.68

     ewald   stress (kbar) -12200.27     -0.00     -0.00
                               -0.00 -11928.75   -165.30
                               -0.00   -165.30 -25181.90

     hubbard stress (kbar)      0.00      0.00      0.00
                                0.00      0.00      0.00
                                0.00      0.00      0.00

     DFT-D   stress (kbar)      0.00      0.00      0.00
                                0.00      0.00      0.00
                                0.00      0.00      0.00

     XDM     stress (kbar)      0.00      0.00      0.00
                                0.00      0.00      0.00
                                0.00      0.00      0.00

     dft-nl  stress (kbar)      0.00      0.00      0.00
                                0.00      0.00      0.00
                                0.00      0.00      0.00

     TS-vdW  stress (kbar)      0.00      0.00      0.00
                                0.00      0.00      0.00
                                0.00      0.00      0.00

[...]

                                0.00      0.00      0.00

     Writing all to output data dir new_calculations/myprefix.save/

     General routines

     Parallel routines

     PAW routines

   This run was terminated on:   8:33:13  21May2023

   JOB DONE.