     Program PWSCF v.7.0 starts on 20May2023 at  8:11:37

     Reading input from espresso_9243.pwi
Warning: card &CELL ignored
Warning: card / ignored

     Current dimensions of program PWSCF are:
     Max number of different atomic species (ntypx) = 10
     Max number of k-points (npk) =  40000
     Max angular momentum in pseudopotentials (lmaxx) =  4

     gamma-point specific algorithms are used

     Subspace diagonalization in iterative solution of the eigenvalue problem:
     a serial algorithm will be used

     Using Slab Decomposition

     bravais-lattice index     =            0
     lattice parameter (alat)  =      15.1833  a.u.
     unit-cell volume          =    1562.9173 (a.u.)^3
     number of atoms/cell      =           20
     number of atomic types    =            3
     number of electrons       =       106.00
     number of Kohn-Sham states=           64
     kinetic-energy cutoff     =      30.0000  Ry
     charge density cutoff     =     240.0000  Ry
     scf convergence threshold =      1.0E-06
     mixing beta               =       0.7000
     number of iterations used =            8  plain     mixing
     Exchange-correlation=  SLA  PW   PBX  PBC
                           (   1   4   3   4   0   0   0)

     celldm(1)=  15.183289  celldm(2)=   0.000000  celldm(3)=   0.000000
     celldm(4)=   0.000000  celldm(5)=   0.000000  celldm(6)=   0.000000

     crystal axes: (cart. coord. in units of alat)
               a(1) = (   1.000000   0.000000   0.000000 )
               a(2) = (   0.681912   0.731434   0.000000 )
               a(3) = (   0.198631   0.086381   0.610468 )

     reciprocal axes: (cart. coord. in units 2 pi/alat)
               b(1) = (  1.000000 -0.932294 -0.193455 )
               b(2) = (  0.000000  1.367177 -0.193455 )
               b(3) = (  0.000000  0.000000  1.638087 )

     PseudoPot. # 1 for Sb read from file:
     /home/pragov/projects/rrg-bengioy-ad/pragov/crystal_structure_design/SSSP/sb_pbe_v1.4.uspp.F.UPF
     MD5 check sum: 9bc50dfb53373b713f5709b9110fe27f
     Pseudo is Ultrasoft + core correction, Zval = 15.0
     Generated by new atomic code, or converted to UPF format
     Using radial grid of  891 points,  6 beta functions with:
                l(1) =   0
                l(2) =   0
                l(3) =   1
                l(4) =   1
                l(5) =   2
                l(6) =   2
     Q(r) pseudized with  8 coefficients,  rinner =    1.350   1.350   1.350
                                                       1.350   1.350

     PseudoPot. # 2 for H  read from file:
     /home/pragov/projects/rrg-bengioy-ad/pragov/crystal_structure_design/SSSP/H.pbe-rrkjus_psl.1.0.0.UPF
     MD5 check sum: f52b6d4d1c606e5624b1dc7b2218f220
     Pseudo is Ultrasoft, Zval =  1.0
     Generated using "atomic" code by A. Dal Corso  v.5.1
     Using radial grid of  929 points,  2 beta functions with:
                l(1) =   0
                l(2) =   0
     Q(r) pseudized with 0 coefficients

     PseudoPot. # 3 for F  read from file:
     /home/pragov/projects/rrg-bengioy-ad/pragov/crystal_structure_design/SSSP/f_pbe_v1.4.uspp.F.UPF
     MD5 check sum: 4c38b6a325caf53ec0e86aed9459de46
     Pseudo is Ultrasoft, Zval =  7.0
     Generated by new atomic code, or converted to UPF format
     Using radial grid of  799 points,  4 beta functions with:
                l(1) =   0
                l(2) =   0
                l(3) =   1
                l(4) =   1
     Q(r) pseudized with  8 coefficients,  rinner =    0.950   0.950   0.950

     atomic species   valence    mass     pseudopotential
        Sb            15.00   121.76000     Sb( 1.00)
        H              1.00     1.00800     H ( 1.00)
        F              7.00    18.99840     F ( 1.00)

     No symmetry found

                                    s                        frac. trans.

      isym =  1     identity

 cryst.   s( 1) = (     1          0          0      )
                  (     0          1          0      )
                  (     0          0          1      )

 cart.    s( 1) = (  1.0000000 -0.0000000  0.0000000 )
                  (  0.0000000  1.0000000  0.0000000 )
                  (  0.0000000  0.0000000  1.0000000 )

   Cartesian axes

     site n.     atom                  positions (alat units)
         1           Sb  tau(   1) = (   0.6822952   0.7305529   0.0000000  )
         2           H   tau(   2) = (   1.5196322   0.6724865   0.4888477  )
         3           H   tau(   3) = (   0.3524074   0.1648807   0.1216205  )
         4           H   tau(   4) = (   1.3276658   0.5861535   0.3481555  )
         5           H   tau(   5) = (   0.5464586   0.2464200   0.2623127  )
         6           H   tau(   6) = (   1.1348630   0.4939184   0.2185769  )
         7           H   tau(   7) = (   0.7453970   0.3245464   0.3918913  )
         8           H   tau(   8) = (   0.9404471   0.4085032   0.3052341  )
         9           F   tau(   9) = (   1.6901261   0.7330443   0.4834676  )
        10           F   tau(  10) = (   0.1918516   0.0814707   0.1270006  )
        11           F   tau(  11) = (   1.0177956   0.4418671   0.1890596  )
        12           F   tau(  12) = (   0.8632987   0.3746791   0.4214087  )
        13           F   tau(  13) = (   1.2801889   0.5563919   0.2347269  )
        14           F   tau(  14) = (   0.6006022   0.2608514   0.3757414  )
        15           F   tau(  15) = (   1.2140941   0.2737735   0.4668000  )
        16           F   tau(  16) = (   0.8523899   0.1164746   0.1436682  )
        17           F   tau(  17) = (   0.6677513   0.5431551   0.1447573  )
        18           F   tau(  18) = (   1.0279126   0.6997830   0.4657110  )
        19           F   tau(  19) = (   1.4034205   0.6296038   0.4941289  )
        20           F   tau(  20) = (   0.4630195   0.2206397   0.1163394  )

   Crystallographic axes

     site n.     atom                  positions (cryst. coord.)
         1           Sb  tau(   1) = (  0.0012050  0.9987950  0.0000000  )
         2           H   tau(   2) = (  0.7981070  0.8248380  0.8007750  )
         3           H   tau(   3) = (  0.1751620  0.2018930  0.1992250  )
         4           H   tau(   4) = (  0.7138460  0.7340230  0.5703090  )
         5           H   tau(   5) = (  0.2659770  0.2861540  0.4296910  )
         6           H   tau(   6) = (  0.6321010  0.6329890  0.3580480  )
         7           H   tau(   7) = (  0.3670110  0.3678990  0.6419520  )
         8           H   tau(   8) = (  0.5005530  0.4994470  0.5000000  )
         9           F   tau(   9) = (  0.9131840  0.9086720  0.7919620  )
        10           F   tau(  10) = (  0.0913280  0.0868160  0.2080380  )
        11           F   tau(  11) = (  0.5692710  0.5675360  0.3096960  )
        12           F   tau(  12) = (  0.4324640  0.4307290  0.6903040  )
        13           F   tau(  13) = (  0.7160590  0.7152770  0.3845030  )
        14           F   tau(  14) = (  0.2847230  0.2839410  0.6154970  )
        15           F   tau(  15) = (  0.8685520  0.2839920  0.7646590  )
        16           F   tau(  16) = (  0.7160080  0.1314480  0.2353410  )
        17           F   tau(  17) = (  0.1333670  0.7145850  0.2371250  )
        18           F   tau(  18) = (  0.2854150  0.8666330  0.7628750  )
        19           F   tau(  19) = (  0.7208530  0.7651880  0.8094260  )
        20           F   tau(  20) = (  0.2348120  0.2791470  0.1905740  )

     number of k points=     1  Methfessel-Paxton smearing, width (Ry)=  0.0010
                       cart. coord. in units 2pi/alat
        k(    1) = (   0.0000000   0.0000000   0.0000000), wk =   2.0000000

                       cryst. coord.
        k(    1) = (   0.0000000   0.0000000   0.0000000), wk =   2.0000000

     Check: negative core charge=   -0.000003

     Initial potential from superposition of free atoms

     starting charge     104.9999, renormalised to     106.0000
     Starting wfcs are   64 randomized atomic wfcs

     Self-consistent Calculation

     iteration #  1     ecut=    30.00 Ry     beta= 0.70
     Davidson diagonalization with overlap

     ethr =  1.00E-02,  avg # of iterations =  7.0

     Threshold (ethr) on eigenvalues was too large:
     Diagonalizing with lowered threshold

     Davidson diagonalization with overlap

[...]

     total energy              =    -776.55080355 Ry
     estimated scf accuracy    <       0.99815047 Ry

[...]

     total energy              =    -776.91556480 Ry
     estimated scf accuracy    <       0.00000147 Ry

     iteration #  8     ecut=    30.00 Ry     beta= 0.70
     Davidson diagonalization with overlap

     ethr =  1.39E-09,  avg # of iterations =  2.0

     End of self-consistent calculation

          k = 0.0000 0.0000 0.0000 (  2169 PWs)   bands (ev):

   -29.8180 -29.7992 -29.4043 -29.4034 -29.3292 -24.9318 -24.4174 -24.1391
   -23.8447 -23.4939 -23.3261 -23.1987 -22.7545 -22.3142 -22.2837 -21.8552
   -21.3819  -9.8327  -9.1868  -9.0767  -8.1438  -7.9315  -6.7397  -6.5495
    -5.7696  -5.5378  -5.4000  -5.3920  -4.4802  -4.4750  -4.1252  -4.1132
    -3.9733  -3.9201  -3.7876  -3.7520  -3.5457  -3.5383  -3.4805  -3.4790
    -3.4181  -3.3224  -3.3106  -3.2250  -3.1803  -3.0841  -2.8433  -2.7744
    -2.7363  -2.6911  -2.5643  -2.4464  -2.1803   2.7742   6.4318   7.5843
     8.2414   8.5910   9.2480   9.3272  10.2736  10.7394  10.7409  11.7297

     occupation numbers
     1.0000   1.0000   1.0000   1.0000   1.0000   1.0000   1.0000   1.0000
     1.0000   1.0000   1.0000   1.0000   1.0000   1.0000   1.0000   1.0000
     1.0000   1.0000   1.0000   1.0000   1.0000   1.0000   1.0000   1.0000
     1.0000   1.0000   1.0000   1.0000   1.0000   1.0000   1.0000   1.0000
     1.0000   1.0000   1.0000   1.0000   1.0000   1.0000   1.0000   1.0000
     1.0000   1.0000   1.0000   1.0000   1.0000   1.0000   1.0000   1.0000
     1.0000   1.0000   1.0000   1.0000   1.0000  -0.0000  -0.0000  -0.0000
    -0.0000  -0.0000  -0.0000  -0.0000  -0.0000  -0.0000  -0.0000  -0.0000

     the Fermi energy is     1.4108 ev

!    total energy              =    -776.91556502 Ry
     estimated scf accuracy    <       0.00000023 Ry
     smearing contrib. (-TS)   =       0.00000000 Ry
     internal energy E=F+TS    =    -776.91556502 Ry

     The total energy is F=E-TS. E is the sum of the following terms:
     one-electron contribution =    -550.32978644 Ry
     hartree contribution      =     322.44065268 Ry
     xc contribution           =    -161.24341845 Ry
     ewald contribution        =    -387.78301281 Ry

     convergence has been achieved in   8 iterations

     Forces acting on atoms (cartesian axes, Ry/au):

     atom    1 type  1   force =     0.00000959   -0.00003720    0.00000404
     atom    2 type  2   force =    -0.00279737   -0.00149340    0.00052221
     atom    3 type  2   force =     0.00299930    0.00102737   -0.00052103
     atom    4 type  2   force =     0.00158520    0.00052877    0.00047531
     atom    5 type  2   force =    -0.00146674   -0.00079843   -0.00047364
     atom    6 type  2   force =     0.00797204    0.00354832    0.00273857
     atom    7 type  2   force =    -0.00803084   -0.00341095   -0.00273726
     atom    8 type  2   force =     0.00005003   -0.00011474    0.00000115
     atom    9 type  3   force =    -0.00585017   -0.00150865   -0.00141803
     atom   10 type  3   force =     0.00508811    0.00324903    0.00141151
     atom   11 type  3   force =    -0.00213149   -0.00085349    0.00274910
     atom   12 type  3   force =     0.00207658    0.00097724   -0.00274782
     atom   13 type  3   force =    -0.00840746   -0.00554186    0.00724578
     atom   14 type  3   force =     0.00978828    0.00237138   -0.00724419
     atom   15 type  3   force =    -0.00225279    0.00329401   -0.00063341
     atom   16 type  3   force =    -0.00086972    0.00389246    0.00063175
     atom   17 type  3   force =     0.00285987   -0.00336152    0.00034435
     atom   18 type  3   force =     0.00051411   -0.00438698   -0.00034957
     atom   19 type  3   force =     0.01166639    0.00662980   -0.00732870
     atom   20 type  3   force =    -0.01280290   -0.00401116    0.00732987
     The non-local contrib.  to forces
     atom    1 type  1   force =     0.00074766   -0.00174592   -0.00001887
     atom    2 type  2   force =    -0.07928455   -0.02946665    0.00243228
     atom    3 type  2   force =     0.07561783    0.03789770   -0.00243230
     atom    4 type  2   force =    -0.02663585   -0.01675191   -0.06321316
     atom    5 type  2   force =     0.03041625    0.00805906    0.06321321
     atom    6 type  2   force =    -0.04221754   -0.01891543   -0.01006115
     atom    7 type  2   force =     0.04262405    0.01798071    0.01006113
     atom    8 type  2   force =     0.00004729   -0.00010882    0.00000005
     atom    9 type  3   force =     0.56124741    0.30541146    0.82466341
     atom   10 type  3   force =    -0.60611575   -0.20225394   -0.82467560
     atom   11 type  3   force =     0.83689439    0.37826855    1.48539534
     atom   12 type  3   force =    -0.84736544   -0.35418759   -1.48539743
     atom   13 type  3   force =    -0.15621180    0.09179227    1.66844022
     atom   14 type  3   force =     0.03938181    0.17685280   -1.66844206
     atom   15 type  3   force =    -0.10700286   -1.28296788    0.94576713
     atom   16 type  3   force =     1.01137135   -0.79660737   -0.94577069
     atom   17 type  3   force =     0.10595791    1.27575340   -0.95569566
     atom   18 type  3   force =    -1.00537791    0.79244500    0.95568689
     atom   19 type  3   force =     1.61585448    0.50840385   -0.75650684
     atom   20 type  3   force =    -1.47373060   -0.83520257    0.75650619
     The ionic contribution  to forces
     atom    1 type  1   force =    -0.05599287    0.12875398    0.00000000
     atom    2 type  2   force =     1.61478083    0.58152991    0.06329362
     atom    3 type  2   force =    -1.52648920   -0.78455395   -0.06329362
     atom    4 type  2   force =     0.66596801    0.40710963    1.69133423
     atom    5 type  2   force =    -0.75190546   -0.20949896   -1.69133423
     atom    6 type  2   force =     1.29830123    0.59679475    0.15100818
     atom    7 type  2   force =    -1.32184322   -0.54266063   -0.15100818
     atom    8 type  2   force =     0.00107032   -0.00246117    0.00000000
     atom    9 type  3   force =   -10.58751981   -4.82722741   -5.55328393
     atom   10 type  3   force =    10.75055553    4.45233152    5.55328393
     atom   11 type  3   force =    -0.09275935   -0.14391732   -5.38414339
     atom   12 type  3   force =     0.16851977   -0.03029156    5.38414339
     atom   13 type  3   force =     1.49068099    0.44958912   -4.13394912
     atom   14 type  3   force =    -1.34535801   -0.78375506    4.13394912
     atom   15 type  3   force =     2.33326128   13.28464518   -8.52475995
     atom   16 type  3   force =   -11.30792402    7.35233026    8.52475995
     atom   17 type  3   force =    -2.23467764  -13.05444363    8.66919112
     atom   18 type  3   force =    11.07232135   -7.26746053   -8.66919112
     atom   19 type  3   force =    -3.21217446   -1.16314579    3.02675515
     atom   20 type  3   force =     3.04118474    1.55633168   -3.02675515
     The local contribution  to forces
     atom    1 type  1   force =     0.05527930   -0.12710494   -0.00000588
     atom    2 type  2   force =    -1.53822806   -0.55353532   -0.06520190
     atom    3 type  2   force =     1.45381358    0.74765191    0.06520145
     atom    4 type  2   force =    -0.63776808   -0.38984480   -1.62770111
     atom    5 type  2   force =     0.72004698    0.20064523    1.62770037
     atom    6 type  2   force =    -1.24812199   -0.57433812   -0.13821994
     atom    7 type  2   force =     1.27119978    0.52127105    0.13821990
     atom    8 type  2   force =    -0.00106685    0.00245394    0.00000024
     atom    9 type  3   force =    10.02072497    4.52043689    4.72746168
     atom   10 type  3   force =   -10.13965899   -4.24696620   -4.72745936
     atom   11 type  3   force =    -0.74625108   -0.23519235    3.90141021
     atom   12 type  3   force =     0.68090945    0.38545415   -3.90140935
     atom   13 type  3   force =    -1.34288395   -0.54692747    2.47272706
     atom   14 type  3   force =     1.31576768    0.60927280   -2.47272938
     atom   15 type  3   force =    -2.22854953  -11.99884486    7.57874985
     atom   16 type  3   force =    10.29604258   -6.55211879   -7.57874927
     atom   17 type  3   force =     2.13161982   11.77578146   -7.71353774
     atom   18 type  3   force =   -10.06678912    6.47090442    7.71354176
     atom   19 type  3   force =     1.60813360    0.66143119   -2.27752651
     atom   20 type  3   force =    -1.58039842   -0.72520671    2.27752655
     The core correction contribution to forces
     atom    1 type  1   force =    -0.00001813    0.00004317    0.00000042
     atom    2 type  2   force =     0.00000000    0.00000000    0.00000000
     atom    3 type  2   force =     0.00000000    0.00000000    0.00000000
     atom    4 type  2   force =     0.00000000    0.00000000    0.00000000
     atom    5 type  2   force =     0.00000000    0.00000000    0.00000000
     atom    6 type  2   force =     0.00000000    0.00000000    0.00000000
     atom    7 type  2   force =     0.00000000    0.00000000    0.00000000
     atom    8 type  2   force =     0.00000000    0.00000000    0.00000000
     atom    9 type  3   force =     0.00000000    0.00000000    0.00000000
     atom   10 type  3   force =     0.00000000    0.00000000    0.00000000
     atom   11 type  3   force =     0.00000000    0.00000000    0.00000000
     atom   12 type  3   force =     0.00000000    0.00000000    0.00000000
     atom   13 type  3   force =     0.00000000    0.00000000    0.00000000
     atom   14 type  3   force =     0.00000000    0.00000000    0.00000000
     atom   15 type  3   force =     0.00000000    0.00000000    0.00000000
     atom   16 type  3   force =     0.00000000    0.00000000    0.00000000
     atom   17 type  3   force =     0.00000000    0.00000000    0.00000000
     atom   18 type  3   force =     0.00000000    0.00000000    0.00000000
     atom   19 type  3   force =     0.00000000    0.00000000    0.00000000
     atom   20 type  3   force =     0.00000000    0.00000000    0.00000000
     The Hubbard contrib.    to forces
     atom    1 type  1   force =     0.00000000    0.00000000    0.00000000
     atom    2 type  2   force =     0.00000000    0.00000000    0.00000000
     atom    3 type  2   force =     0.00000000    0.00000000    0.00000000
     atom    4 type  2   force =     0.00000000    0.00000000    0.00000000
     atom    5 type  2   force =     0.00000000    0.00000000    0.00000000
     atom    6 type  2   force =     0.00000000    0.00000000    0.00000000
     atom    7 type  2   force =     0.00000000    0.00000000    0.00000000
     atom    8 type  2   force =     0.00000000    0.00000000    0.00000000
     atom    9 type  3   force =     0.00000000    0.00000000    0.00000000
     atom   10 type  3   force =     0.00000000    0.00000000    0.00000000
     atom   11 type  3   force =     0.00000000    0.00000000    0.00000000
     atom   12 type  3   force =     0.00000000    0.00000000    0.00000000
     atom   13 type  3   force =     0.00000000    0.00000000    0.00000000
     atom   14 type  3   force =     0.00000000    0.00000000    0.00000000
     atom   15 type  3   force =     0.00000000    0.00000000    0.00000000
     atom   16 type  3   force =     0.00000000    0.00000000    0.00000000
     atom   17 type  3   force =     0.00000000    0.00000000    0.00000000
     atom   18 type  3   force =     0.00000000    0.00000000    0.00000000
     atom   19 type  3   force =     0.00000000    0.00000000    0.00000000
     atom   20 type  3   force =     0.00000000    0.00000000    0.00000000
     The SCF correction term to forces
     atom    1 type  1   force =    -0.00000557    0.00001350    0.00002764
     atom    2 type  2   force =    -0.00006479   -0.00002435   -0.00000251
     atom    3 type  2   force =     0.00005789    0.00002869    0.00000271
     atom    4 type  2   force =     0.00002192    0.00001283    0.00005463
     atom    5 type  2   force =    -0.00002371   -0.00000678   -0.00005371
     atom    6 type  2   force =     0.00001113    0.00000411    0.00001075
     atom    7 type  2   force =    -0.00001064   -0.00000509   -0.00001084
     atom    8 type  2   force =     0.00000007   -0.00000171    0.00000014
     atom    9 type  3   force =    -0.00030194   -0.00013261   -0.00025991
     atom   10 type  3   force =     0.00030811    0.00013463    0.00026181
     atom   11 type  3   force =    -0.00001464   -0.00001539    0.00008621
     atom   12 type  3   force =     0.00001360   -0.00000077   -0.00008515
     atom   13 type  3   force =     0.00000810    0.00000120    0.00002690
     atom   14 type  3   force =    -0.00000239   -0.00000217   -0.00002259
     atom   15 type  3   force =     0.00003912    0.00045854   -0.00039116
     atom   16 type  3   force =    -0.00035883    0.00028534    0.00039103
     atom   17 type  3   force =    -0.00003942   -0.00045577    0.00038591
     atom   18 type  3   force =     0.00036059   -0.00027889   -0.00038783
     atom   19 type  3   force =    -0.00014643   -0.00006247   -0.00005122
     atom   20 type  3   force =     0.00014219    0.00006343    0.00005156

     Total force =     0.033819     Total SCF correction =     0.001375

     Computing stress (Cartesian axis) and pressure

          total   stress  (Ry/bohr**3)                   (kbar)     P=     -142.16
  -0.00101403  -0.00002302   0.00003703         -149.17       -3.39        5.45
  -0.00002302  -0.00097111   0.00001610           -3.39     -142.86        2.37
   0.00003703   0.00001610  -0.00091405            5.45        2.37     -134.46

     kinetic stress (kbar)  15860.09   -323.00    -79.36
                             -323.00  16462.35    -34.51
                              -79.36    -34.51  16183.14

     local   stress (kbar) -12807.77  -3444.38  -2104.22
                            -3444.38  -6385.41   -915.09
                            -2104.22   -915.09 -13732.21

     nonloc. stress (kbar)    928.96    -80.21    -30.24
                              -80.21   1078.53    -13.15
                              -30.24    -13.15   1005.52

     hartree stress (kbar)  10497.85   1090.32    867.91
                             1090.32   8464.85    377.44
                              867.91    377.44  11386.10

     exc-cor stress (kbar)  -2116.96     10.59      2.87
                               10.59  -2136.71      1.25
                                2.87      1.25  -2126.86

     corecor stress (kbar)  -2162.78      0.21      0.41
                                0.21  -2163.18      0.18
                                0.41      0.18  -2163.02

     ewald   stress (kbar) -10348.56   2743.08   1348.08
                             2743.08 -15463.28    586.26
                             1348.08    586.26 -10687.12

     hubbard stress (kbar)      0.00      0.00      0.00
                                0.00      0.00      0.00
                                0.00      0.00      0.00

     DFT-D   stress (kbar)      0.00      0.00      0.00
                                0.00      0.00      0.00
                                0.00      0.00      0.00

     XDM     stress (kbar)      0.00      0.00      0.00
                                0.00      0.00      0.00
                                0.00      0.00      0.00

     dft-nl  stress (kbar)      0.00      0.00      0.00
                                0.00      0.00      0.00
                                0.00      0.00      0.00

     TS-vdW  stress (kbar)      0.00      0.00      0.00
                                0.00      0.00      0.00
                                0.00      0.00      0.00

[...]

                                0.00      0.00      0.00

     Writing all to output data dir new_calculations/myprefix.save/

     General routines

     Parallel routines

   This run was terminated on:   8:12:10  20May2023

   JOB DONE.