     Program PWSCF v.7.0 starts on 21May2023 at  6:49:51

     Reading input from espresso_17904.pwi
Warning: card &CELL ignored
Warning: card / ignored

     Current dimensions of program PWSCF are:
     Max number of different atomic species (ntypx) = 10
     Max number of k-points (npk) =  40000
     Max angular momentum in pseudopotentials (lmaxx) =  4

     gamma-point specific algorithms are used
     Message from routine setup:
     using ibrav=0 with symmetry is DISCOURAGED, use correct ibrav instead

     Subspace diagonalization in iterative solution of the eigenvalue problem:
     a serial algorithm will be used

     Using Slab Decomposition

     bravais-lattice index     =            0
     lattice parameter (alat)  =       9.2916  a.u.
     unit-cell volume          =     761.6335 (a.u.)^3
     number of atoms/cell      =            9
     number of atomic types    =            2
     number of electrons       =        54.00
     number of Kohn-Sham states=           32
     kinetic-energy cutoff     =      30.0000  Ry
     charge density cutoff     =     240.0000  Ry
     scf convergence threshold =      1.0E-06
     mixing beta               =       0.7000
     number of iterations used =            8  plain     mixing
     Exchange-correlation=  SLA  PW   PBX  PBC
                           (   1   4   3   4   0   0   0)

     celldm(1)=   9.291607  celldm(2)=   0.000000  celldm(3)=   0.000000
     celldm(4)=   0.000000  celldm(5)=   0.000000  celldm(6)=   0.000000

     crystal axes: (cart. coord. in units of alat)
               a(1) = (   1.000000   0.000000   0.000000 )
               a(2) = (  -0.500000   0.866025   0.000000 )
               a(3) = (   0.000000   0.000000   1.096334 )

     reciprocal axes: (cart. coord. in units 2 pi/alat)
               b(1) = (  1.000000  0.577350  0.000000 )
               b(2) = (  0.000000  1.154701  0.000000 )
               b(3) = (  0.000000  0.000000  0.912131 )

     PseudoPot. # 1 for Be read from file:
     /home/pragov/projects/rrg-bengioy-ad/pragov/crystal_structure_design/SSSP/be_pbe_v1.4.uspp.F.UPF
     MD5 check sum: 5ecff1440924c7c98ad504bef30f5264
     Pseudo is Ultrasoft, Zval =  4.0
     Generated by new atomic code, or converted to UPF format
     Using radial grid of  769 points,  6 beta functions with:
                l(1) =   0
                l(2) =   0
                l(3) =   0
                l(4) =   1
                l(5) =   1
                l(6) =   2
     Q(r) pseudized with 10 coefficients,  rinner =    1.000   1.000   1.000
                                                       1.000   1.000

     PseudoPot. # 2 for F  read from file:
     /home/pragov/projects/rrg-bengioy-ad/pragov/crystal_structure_design/SSSP/f_pbe_v1.4.uspp.F.UPF
     MD5 check sum: 4c38b6a325caf53ec0e86aed9459de46
     Pseudo is Ultrasoft, Zval =  7.0
     Generated by new atomic code, or converted to UPF format
     Using radial grid of  799 points,  4 beta functions with:
                l(1) =   0
                l(2) =   0
                l(3) =   1
                l(4) =   1
     Q(r) pseudized with  8 coefficients,  rinner =    0.950   0.950   0.950

     atomic species   valence    mass     pseudopotential
        Be             4.00     9.01218     Be( 1.00)
        F              7.00    18.99840     F ( 1.00)

     12 Sym. Ops. (no inversion) found ( 8 have fractional translation)

                                    s                        frac. trans.

      isym =  1     identity

 cryst.   s( 1) = (     1          0          0      )
                  (     0          1          0      )
                  (     0          0          1      )

 cart.    s( 1) = (  1.0000000  0.0000000  0.0000000 )
                  (  0.0000000  1.0000000  0.0000000 )
                  (  0.0000000  0.0000000  1.0000000 )

      isym =  2     180 deg rotation - cart. axis [0,0,1]

[...]

      isym =  4     180 deg rotation - cart. axis [1,0,0]

 cryst.   s( 4) = (     1          0          0      )
                  (    -1         -1          0      )
                  (     0          0         -1      )

 cart.    s( 4) = (  1.0000000  0.0000002  0.0000000 )
                  (  0.0000000 -1.0000000  0.0000000 )
                  (  0.0000000  0.0000000 -1.0000000 )

      isym =  5      60 deg rotation - cryst. axis [0,0,1]

 cryst.   s( 5) = (     1          1          0      )    f =(  0.0000000 )
                  (    -1          0          0      )       ( -0.0000000 )
                  (     0          0          1      )       ( -0.3333340 )

 cart.    s( 5) = (  0.4999999 -0.8660255  0.0000000 )    f =(  0.0000000 )
                  (  0.8660254  0.5000001  0.0000000 )       ( -0.0000000 )
                  (  0.0000000  0.0000000  1.0000000 )       ( -0.3654455 )

[...]

 cryst.   s( 9) = (     0         -1          0      )    f =(  0.0000000 )
                  (    -1          0          0      )       (  0.0000000 )
                  (     0          0         -1      )       (  0.3333330 )

 cart.    s( 9) = (  0.5000001 -0.8660254  0.0000000 )    f =(  0.0000000 )
                  ( -0.8660254 -0.5000001  0.0000000 )       (  0.0000000 )
                  (  0.0000000  0.0000000 -1.0000000 )       (  0.3654444 )

[...]

 cryst.   s(10) = (     1          1          0      )    f =(  0.0000000 )
                  (     0         -1          0      )       ( -0.0000000 )
                  (     0          0         -1      )       ( -0.3333340 )

 cart.    s(10) = (  0.4999999  0.8660256  0.0000000 )    f =(  0.0000000 )
                  (  0.8660254 -0.4999999  0.0000000 )       ( -0.0000000 )
                  (  0.0000000  0.0000000 -1.0000000 )       ( -0.3654455 )

[...]

      isym = 12     180 deg rotation - cryst. axis [1,1,0]

 cryst.   s(12) = (     0          1          0      )    f =(  0.0000000 )
                  (     1          0          0      )       (  0.0000000 )
                  (     0          0         -1      )       (  0.3333330 )

 cart.    s(12) = ( -0.5000001  0.8660254  0.0000000 )    f =(  0.0000000 )
                  (  0.8660254  0.5000001  0.0000000 )       (  0.0000000 )
                  (  0.0000000  0.0000000 -1.0000000 )       (  0.3654444 )

   Cartesian axes

     site n.     atom                  positions (alat units)
         1           Be  tau(   1) = (  -0.2500000   0.4330127   0.7308899  )
         2           Be  tau(   2) = (   0.5000000   0.0000000   0.0000000  )
         3           Be  tau(   3) = (   0.2500000   0.4330127   0.3654444  )
         4           F   tau(   4) = (   0.4999994   0.5024861   0.5481671  )
         5           F   tau(   5) = (  -0.1851651   0.6842553   0.9136115  )
         6           F   tau(   6) = (   0.6851650   0.1817701   0.9136115  )
         7           F   tau(   7) = (   0.3148340   0.1817701   0.1827227  )
         8           F   tau(   8) = (   0.1851659   0.6842553   0.1827227  )
         9           F   tau(   9) = (   0.0000005   0.3635393   0.5481671  )

   Crystallographic axes

     site n.     atom                  positions (cryst. coord.)
         1           Be  tau(   1) = ( -0.0000000  0.5000000  0.6666670  )
         2           Be  tau(   2) = (  0.5000000  0.0000000  0.0000000  )
         3           Be  tau(   3) = (  0.5000000  0.5000000  0.3333330  )
         4           F   tau(   4) = (  0.7901100  0.5802210  0.5000000  )
         5           F   tau(   5) = (  0.2098900  0.7901100  0.8333330  )
         6           F   tau(   6) = (  0.7901100  0.2098900  0.8333330  )
         7           F   tau(   7) = (  0.4197790  0.2098900  0.1666670  )
         8           F   tau(   8) = (  0.5802210  0.7901100  0.1666670  )
         9           F   tau(   9) = (  0.2098900  0.4197790  0.5000000  )

     number of k points=     1  Methfessel-Paxton smearing, width (Ry)=  0.0010
                       cart. coord. in units 2pi/alat
        k(    1) = (   0.0000000   0.0000000   0.0000000), wk =   2.0000000

                       cryst. coord.
        k(    1) = (   0.0000000   0.0000000   0.0000000), wk =   2.0000000

     Initial potential from superposition of free atoms

     starting charge      53.9995, renormalised to      54.0000
     Starting wfcs are   39 randomized atomic wfcs

     Self-consistent Calculation

     iteration #  1     ecut=    30.00 Ry     beta= 0.70
     Davidson diagonalization with overlap

     ethr =  1.00E-02,  avg # of iterations =  3.0

     total energy              =    -377.17189075 Ry
     estimated scf accuracy    <       0.78080326 Ry

[...]

     total energy              =    -377.47833085 Ry
     estimated scf accuracy    <       0.00000402 Ry

     iteration #  8     ecut=    30.00 Ry     beta= 0.70
     Davidson diagonalization with overlap

     ethr =  7.45E-09,  avg # of iterations =  2.0

     End of self-consistent calculation

          k = 0.0000 0.0000 0.0000 (  1050 PWs)   bands (ev):

   -97.9023 -97.9021 -97.8920 -23.1730 -22.5503 -22.5501 -22.3520 -22.3364
   -22.3362  -6.8115  -6.8113  -5.7663  -5.6966  -5.5858  -5.5857  -3.9426
    -3.9126  -3.9124  -3.8713  -2.9043  -2.8825  -2.8825  -2.7498  -2.7496
    -2.3790  -2.3789  -2.2263   5.8840  10.1182  10.1182  10.9350  10.9350

     occupation numbers
     1.0000   1.0000   1.0000   1.0000   1.0000   1.0000   1.0000   1.0000
     1.0000   1.0000   1.0000   1.0000   1.0000   1.0000   1.0000   1.0000
     1.0000   1.0000   1.0000   1.0000   1.0000   1.0000   1.0000   1.0000
     1.0000   1.0000   1.0000  -0.0000  -0.0000  -0.0000  -0.0000  -0.0000

     the Fermi energy is     4.2517 ev

!    total energy              =    -377.47833104 Ry
     estimated scf accuracy    <       0.00000024 Ry
     smearing contrib. (-TS)   =       0.00000000 Ry
     internal energy E=F+TS    =    -377.47833104 Ry

     The total energy is F=E-TS. E is the sum of the following terms:
     one-electron contribution =    -282.60604729 Ry
     hartree contribution      =     150.98687514 Ry
     xc contribution           =     -71.83023923 Ry
     ewald contribution        =    -174.02891967 Ry

     convergence has been achieved in   8 iterations

     Forces acting on atoms (cartesian axes, Ry/au):

     atom    1 type  1   force =     0.00000000    0.00000000    0.00000000
     atom    2 type  1   force =    -0.00000000   -0.00000000   -0.00000000
     atom    3 type  1   force =     0.00000000    0.00000000    0.00000000
     atom    4 type  2   force =     0.00000000    0.01319544    0.00000000
     atom    5 type  2   force =    -0.01142758    0.00659772    0.00000000
     atom    6 type  2   force =     0.01142758   -0.00659772    0.00000000
     atom    7 type  2   force =    -0.01142758   -0.00659772    0.00000000
     atom    8 type  2   force =     0.01142758    0.00659772    0.00000000
     atom    9 type  2   force =    -0.00000000   -0.01319544    0.00000000
     The non-local contrib.  to forces
     atom    1 type  1   force =     0.00000000    0.00000000   -0.00000000
     atom    2 type  1   force =     0.00000000    0.00000000    0.00000000
     atom    3 type  1   force =     0.00000000    0.00000000    0.00000000
     atom    4 type  2   force =     0.00000000   -0.57764460    0.00000000
     atom    5 type  2   force =     0.50025487   -0.28882225   -0.00000000
     atom    6 type  2   force =    -0.50025487    0.28882225   -0.00000000
     atom    7 type  2   force =     0.50025487    0.28882235    0.00000000
     atom    8 type  2   force =    -0.50025487   -0.28882235    0.00000000
     atom    9 type  2   force =     0.00000000    0.57764460    0.00000000
     The ionic contribution  to forces
     atom    1 type  1   force =     0.00000000    0.00000000   -0.00004680
     atom    2 type  1   force =    -0.00000000   -0.00000000    0.00004094
     atom    3 type  1   force =     0.00000000   -0.00000000    0.00000586
     atom    4 type  2   force =     0.00006217    4.20246955    0.00004143
     atom    5 type  2   force =    -3.63940701    2.10125987    0.00002372
     atom    6 type  2   force =     3.63940701   -2.10125987    0.00002372
     atom    7 type  2   force =    -3.63939832   -2.10132738   -0.00006515
     atom    8 type  2   force =     3.63939832    2.10132738   -0.00006515
     atom    9 type  2   force =    -0.00006217   -4.20246955    0.00004143
     The local contribution  to forces
     atom    1 type  1   force =    -0.00000046   -0.00000105    0.00004436
     atom    2 type  1   force =    -0.00000053    0.00000146   -0.00003576
     atom    3 type  1   force =     0.00000163    0.00000201   -0.00000571
     atom    4 type  2   force =    -0.00008434   -3.61189959   -0.00005032
     atom    5 type  2   force =     3.12797819   -1.80592219    0.00000835
     atom    6 type  2   force =    -3.12797112    1.80592354    0.00001380
     atom    7 type  2   force =     3.12795640    1.80598494    0.00004236
     atom    8 type  2   force =    -3.12795971   -1.80599730    0.00005254
     atom    9 type  2   force =     0.00007498    3.61189699   -0.00005477
     The core correction contribution to forces
     atom    1 type  1   force =     0.00000000    0.00000000    0.00000000
     atom    2 type  1   force =     0.00000000    0.00000000    0.00000000
     atom    3 type  1   force =     0.00000000    0.00000000    0.00000000
     atom    4 type  2   force =     0.00000000    0.00000000    0.00000000
     atom    5 type  2   force =     0.00000000    0.00000000    0.00000000
     atom    6 type  2   force =     0.00000000    0.00000000    0.00000000
     atom    7 type  2   force =     0.00000000    0.00000000    0.00000000
     atom    8 type  2   force =     0.00000000    0.00000000    0.00000000
     atom    9 type  2   force =     0.00000000    0.00000000    0.00000000
     The Hubbard contrib.    to forces
     atom    1 type  1   force =     0.00000000    0.00000000    0.00000000
     atom    2 type  1   force =     0.00000000    0.00000000    0.00000000
     atom    3 type  1   force =     0.00000000    0.00000000    0.00000000
     atom    4 type  2   force =     0.00000000    0.00000000    0.00000000
     atom    5 type  2   force =     0.00000000    0.00000000    0.00000000
     atom    6 type  2   force =     0.00000000    0.00000000    0.00000000
     atom    7 type  2   force =     0.00000000    0.00000000    0.00000000
     atom    8 type  2   force =     0.00000000    0.00000000    0.00000000
     atom    9 type  2   force =     0.00000000    0.00000000    0.00000000
     The SCF correction term to forces
     atom    1 type  1   force =    -0.00000116    0.00000077    0.00000107
     atom    2 type  1   force =    -0.00000018   -0.00000299   -0.00001010
     atom    3 type  1   force =    -0.00000334   -0.00000660    0.00000504
     atom    4 type  2   force =     0.00004789    0.00027958    0.00003051
     atom    5 type  2   force =    -0.00026664    0.00005327   -0.00006478
     atom    6 type  2   force =     0.00025670   -0.00005452   -0.00007206
     atom    7 type  2   force =    -0.00024340   -0.00006218    0.00003443
     atom    8 type  2   force =     0.00024798    0.00008134    0.00001973
     atom    9 type  2   force =    -0.00003331   -0.00027298    0.00003525

     Total force =     0.032322     Total SCF correction =     0.000666

     Computing stress (Cartesian axis) and pressure

          total   stress  (Ry/bohr**3)                   (kbar)     P=     -151.58
  -0.00097109  -0.00000000   0.00000000         -142.85       -0.00        0.00
  -0.00000000  -0.00097109   0.00000000           -0.00     -142.85        0.00
   0.00000000   0.00000000  -0.00114914            0.00        0.00     -169.04

     kinetic stress (kbar)  15360.77      0.00     -0.00
                                0.00  15360.78      0.00
                                0.00      0.00  15310.87

     local   stress (kbar)  -9838.53     -0.03     -0.00
                               -0.03  -9838.65      0.00
                               -0.00      0.00 -10675.68

     nonloc. stress (kbar)    518.55      0.00      0.00
                                0.00    518.55      0.00
                                0.00      0.00    513.39

     hartree stress (kbar)   9598.37      0.01      0.00
                                0.01   9598.41     -0.00
                                0.00     -0.00   9965.45

     exc-cor stress (kbar)  -4411.47      0.00     -0.00
                                0.00  -4411.47      0.00
                               -0.00      0.00  -4411.41

     corecor stress (kbar)      0.00      0.00      0.00
                                0.00      0.00      0.00
                                0.00      0.00      0.00

     ewald   stress (kbar) -11370.55      0.02     -0.00
                                0.02 -11370.46     -0.00
                               -0.00     -0.00 -10871.67

     hubbard stress (kbar)      0.00      0.00      0.00
                                0.00      0.00      0.00
                                0.00      0.00      0.00

     DFT-D   stress (kbar)      0.00      0.00      0.00
                                0.00      0.00      0.00
                                0.00      0.00      0.00

     XDM     stress (kbar)      0.00      0.00      0.00
                                0.00      0.00      0.00
                                0.00      0.00      0.00

     dft-nl  stress (kbar)      0.00      0.00      0.00
                                0.00      0.00      0.00
                                0.00      0.00      0.00

     TS-vdW  stress (kbar)      0.00      0.00      0.00
                                0.00      0.00      0.00
                                0.00      0.00      0.00

[...]

                                0.00      0.00      0.00

     Writing all to output data dir new_calculations/myprefix.save/

     General routines

     Parallel routines

   This run was terminated on:   6:49:58  21May2023

   JOB DONE.