     Program PWSCF v.7.0 starts on 20May2023 at  2:14:47

     Reading input from espresso_2080.pwi
Warning: card &CELL ignored
Warning: card / ignored

     Current dimensions of program PWSCF are:
     Max number of different atomic species (ntypx) = 10
     Max number of k-points (npk) =  40000
     Max angular momentum in pseudopotentials (lmaxx) =  4
     file O.pbe-n-kjpaw_psl.0.1.UPF: wavefunction(s)  2P renormalized

     gamma-point specific algorithms are used
     Message from routine setup:
     using ibrav=0 with symmetry is DISCOURAGED, use correct ibrav instead

     Subspace diagonalization in iterative solution of the eigenvalue problem:
     a serial algorithm will be used

     Using Slab Decomposition

     bravais-lattice index     =            0
     lattice parameter (alat)  =      12.2082  a.u.
     unit-cell volume          =    1362.9481 (a.u.)^3
     number of atoms/cell      =           16
     number of atomic types    =            4
     number of electrons       =       120.00
     number of Kohn-Sham states=           72
     kinetic-energy cutoff     =      30.0000  Ry
     charge density cutoff     =     240.0000  Ry
     scf convergence threshold =      1.0E-06
     mixing beta               =       0.7000
     number of iterations used =            8  plain     mixing
     Exchange-correlation= SLA  PW   PBX  PBC
                           (   1   4   3   4   0   0   0)

     celldm(1)=  12.208205  celldm(2)=   0.000000  celldm(3)=   0.000000
     celldm(4)=   0.000000  celldm(5)=   0.000000  celldm(6)=   0.000000

     crystal axes: (cart. coord. in units of alat)
               a(1) = (   1.000000   0.000000   0.000000 )
               a(2) = (   0.000000   0.737080   0.000000 )
               a(3) = (   0.000000   0.047781   1.016271 )

     reciprocal axes: (cart. coord. in units 2 pi/alat)
               b(1) = (  1.000000  0.000000  0.000000 )
               b(2) = (  0.000000  1.356706 -0.063787 )
               b(3) = (  0.000000  0.000000  0.983990 )

     PseudoPot. # 1 for Li read from file:
     /home/pragov/projects/rrg-bengioy-ad/pragov/crystal_structure_design/SSSP/li_pbe_v1.4.uspp.F.UPF
     MD5 check sum: e912e257baa3777c20ea3d68f190483c
     Pseudo is Ultrasoft, Zval =  3.0
     Generated by new atomic code, or converted to UPF format
     Using radial grid of  751 points,  5 beta functions with:
                l(1) =   0
                l(2) =   0
                l(3) =   0
                l(4) =   1
                l(5) =   1
     Q(r) pseudized with 10 coefficients,  rinner =    1.150   1.150   1.150

     PseudoPot. # 2 for V  read from file:
     /home/pragov/projects/rrg-bengioy-ad/pragov/crystal_structure_design/SSSP/v_pbe_v1.4.uspp.F.UPF
     MD5 check sum: 22b79981416ebb76fdaf5b1b8640f6fb
     Pseudo is Ultrasoft + core correction, Zval = 13.0
     Generated by new atomic code, or converted to UPF format
     Using radial grid of  853 points,  6 beta functions with:
                l(1) =   0
                l(2) =   0
                l(3) =   1
                l(4) =   1
                l(5) =   2
                l(6) =   2
     Q(r) pseudized with  8 coefficients,  rinner =    1.100   1.100   1.100
                                                       1.100   1.100

     PseudoPot. # 3 for Ge read from file:
     /home/pragov/projects/rrg-bengioy-ad/pragov/crystal_structure_design/SSSP/ge_pbe_v1.4.uspp.F.UPF
     MD5 check sum: 9c9eaa91e581c3f09632fb3098b2c6b2
     Pseudo is Ultrasoft + core correction, Zval = 14.0
     Generated by new atomic code, or converted to UPF format
     Using radial grid of  873 points,  6 beta functions with:
                l(1) =   0
                l(2) =   0
                l(3) =   1
                l(4) =   1
                l(5) =   2
                l(6) =   2
     Q(r) pseudized with  8 coefficients,  rinner =    1.400   1.400   1.400
                                                       1.400   1.400

     PseudoPot. # 4 for O  read from file:
     /home/pragov/projects/rrg-bengioy-ad/pragov/crystal_structure_design/SSSP/O.pbe-n-kjpaw_psl.0.1.UPF
     MD5 check sum: 0234752ac141de4415c5fc33072bef88
     Pseudo is Projector augmented-wave + core cor, Zval =  6.0
     Generated using "atomic" code by A. Dal Corso  v.5.0.99 svn rev. 10869
     Shape of augmentation charge: BESSEL
     Using radial grid of 1095 points,  4 beta functions with:
                l(1) =   0
                l(2) =   0
                l(3) =   1
                l(4) =   1
     Q(r) pseudized with 0 coefficients

     atomic species   valence    mass     pseudopotential
        Li             3.00     6.94000     Li( 1.00)
        V             13.00    50.94150     V ( 1.00)
        Ge            14.00    72.63000     Ge( 1.00)
        O              6.00    15.99900     O ( 1.00)

      4 Sym. Ops., with inversion, found ( 2 have fractional translation)

                                    s                        frac. trans.

      isym =  1     identity

 cryst.   s( 1) = (     1          0          0      )
                  (     0          1          0      )
                  (     0          0          1      )

 cart.    s( 1) = (  1.0000000  0.0000000  0.0000000 )
                  (  0.0000000  1.0000000  0.0000000 )
                  (  0.0000000  0.0000000  1.0000000 )

      isym =  2     180 deg rotation - cart. axis [1,0,0]

 cryst.   s( 2) = (     1          0          0      )    f =( -0.5000000 )
                  (     0         -1          0      )       (  0.0000000 )
                  (     0          0         -1      )       (  0.0000000 )

 cart.    s( 2) = (  1.0000000  0.0000000  0.0000000 )    f =( -0.5000000 )
                  (  0.0000000 -1.0000000 -0.0000000 )       (  0.0000000 )
                  (  0.0000000  0.0000000 -1.0000000 )       (  0.0000000 )

      isym =  3     inversion

 cryst.   s( 3) = (    -1          0          0      )
                  (     0         -1          0      )
                  (     0          0         -1      )

 cart.    s( 3) = ( -1.0000000  0.0000000  0.0000000 )
                  (  0.0000000 -1.0000000 -0.0000000 )
                  (  0.0000000  0.0000000 -1.0000000 )

      isym =  4     inv. 180 deg rotation - cart. axis [1,0,0]

 cryst.   s( 4) = (    -1          0          0      )    f =(  0.5000000 )
                  (     0          1          0      )       (  0.0000000 )
                  (     0          0          1      )       (  0.0000000 )

 cart.    s( 4) = ( -1.0000000  0.0000000  0.0000000 )    f =(  0.5000000 )
                  (  0.0000000  1.0000000  0.0000000 )       (  0.0000000 )
                  (  0.0000000  0.0000000  1.0000000 )       (  0.0000000 )

   Cartesian axes

     site n.     atom                  positions (alat units)
         1           Li  tau(   1) = (   0.0000000   0.0238904   0.5081355  )
         2           Li  tau(   2) = (   0.5000000   0.0238904   0.5081355  )
         3           V   tau(   3) = (   0.7500000   0.3208890   0.7662703  )
         4           V   tau(   4) = (   0.2500000   0.4639715   0.2500006  )
         5           Ge  tau(   5) = (   0.2500000   0.4020382   0.7558088  )
         6           Ge  tau(   6) = (   0.7500000   0.3828222   0.2604621  )
         7           O   tau(   7) = (   0.2500000   0.5470868   0.9881476  )
         8           O   tau(   8) = (   0.7500000   0.5707209   0.7259853  )
         9           O   tau(   9) = (   0.4702790   0.2386103   0.7405617  )
        10           O   tau(  10) = (   0.0297210   0.2386103   0.7405617  )
        11           O   tau(  11) = (   0.2500000   0.5805284   0.5489885  )
        12           O   tau(  12) = (   0.7500000   0.2043320   0.4672824  )
        13           O   tau(  13) = (   0.9702790   0.5462501   0.2757092  )
        14           O   tau(  14) = (   0.5297210   0.5462501   0.2757092  )
        15           O   tau(  15) = (   0.2500000   0.2141396   0.2902856  )
        16           O   tau(  16) = (   0.7500000   0.2377737   0.0281233  )

   Crystallographic axes

     site n.     atom                  positions (cryst. coord.)
         1           Li  tau(   1) = (  0.0000000 -0.0000000  0.5000000  )
         2           Li  tau(   2) = (  0.5000000 -0.0000000  0.5000000  )
         3           V   tau(   3) = (  0.7500000  0.3864740  0.7540020  )
         4           V   tau(   4) = (  0.2500000  0.6135260  0.2459980  )
         5           Ge  tau(   5) = (  0.2500000  0.4972370  0.7437080  )
         6           Ge  tau(   6) = (  0.7500000  0.5027630  0.2562920  )
         7           O   tau(   7) = (  0.2500000  0.6792050  0.9723270  )
         8           O   tau(   8) = (  0.7500000  0.7279920  0.7143620  )
         9           O   tau(   9) = (  0.4702790  0.2764860  0.7287050  )
        10           O   tau(  10) = (  0.0297210  0.2764860  0.7287050  )
        11           O   tau(  11) = (  0.2500000  0.7525880  0.5401990  )
        12           O   tau(  12) = (  0.7500000  0.2474120  0.4598010  )
        13           O   tau(  13) = (  0.9702790  0.7235140  0.2712950  )
        14           O   tau(  14) = (  0.5297210  0.7235140  0.2712950  )
        15           O   tau(  15) = (  0.2500000  0.2720080  0.2856380  )
        16           O   tau(  16) = (  0.7500000  0.3207950  0.0276730  )

     number of k points=     1  Methfessel-Paxton smearing, width (Ry)=  0.0010
                       cart. coord. in units 2pi/alat
        k(    1) = (   0.0000000   0.0000000   0.0000000), wk =   2.0000000

                       cryst. coord.
        k(    1) = (   0.0000000   0.0000000   0.0000000), wk =   2.0000000

     Check: negative core charge=   -0.000014

     Initial potential from superposition of free atoms

     starting charge     119.0943, renormalised to     120.0000

     negative rho (up, down):  1.188E-03 0.000E+00
     Starting wfcs are   88 randomized atomic wfcs
     Checking if some PAW data can be deallocated...

     Self-consistent Calculation

     iteration #  1     ecut=    30.00 Ry     beta= 0.70
     Davidson diagonalization with overlap

     ethr =  1.00E-02,  avg # of iterations =  2.0

     negative rho (up, down):  6.516E-03 0.000E+00

     total energy              =   -1159.14987187 Ry
     estimated scf accuracy    <       6.95916531 Ry

[...]

     total energy              =   -1163.24975533 Ry
     estimated scf accuracy    <       0.00002073 Ry

     iteration # 12     ecut=    30.00 Ry     beta= 0.70
     Davidson diagonalization with overlap

     ethr =  1.73E-08,  avg # of iterations =  2.0

[...]

     End of self-consistent calculation

          k = 0.0000 0.0000 0.0000 (  1891 PWs)   bands (ev):

   -60.5271 -60.5266 -38.4370 -38.4320 -34.4826 -34.4821 -34.3447 -34.3440
   -34.3404 -34.3397 -19.6620 -19.6618 -19.6604 -19.6596 -19.6369 -19.6341
   -19.4219 -19.4194 -19.4070 -19.3985 -14.3884 -13.9445 -13.0285 -12.6897
   -12.6567 -12.6107 -12.4996 -12.4736 -12.4331 -12.3044  -3.3010  -2.7321
    -0.9424  -0.7512  -0.3731  -0.1663  -0.1051   0.1992   0.5531   0.9006
     0.9087   1.2930   1.3747   1.4119   1.6481   1.6564   1.8055   1.9009
     2.2032   2.2659   2.4169   2.6780   2.9378   2.9914   3.0213   3.1468
     3.2112   3.3210   3.5790   4.1965   6.4682   6.4833   6.9746   7.1920
     7.2005   7.2627   7.7894   8.0399   8.2007   8.3956   8.7877  11.1819

     occupation numbers
     1.0000   1.0000   1.0000   1.0000   1.0000   1.0000   1.0000   1.0000
     1.0000   1.0000   1.0000   1.0000   1.0000   1.0000   1.0000   1.0000
     1.0000   1.0000   1.0000   1.0000   1.0000   1.0000   1.0000   1.0000
     1.0000   1.0000   1.0000   1.0000   1.0000   1.0000   1.0000   1.0000
     1.0000   1.0000   1.0000   1.0000   1.0000   1.0000   1.0000   1.0000
     1.0000   1.0000   1.0000   1.0000   1.0000   1.0000   1.0000   1.0000
     1.0000   1.0000   1.0000   1.0000   1.0000   1.0000   1.0000   1.0000
     1.0000   1.0000   1.0000   1.0000  -0.0000  -0.0000  -0.0000  -0.0000
    -0.0000  -0.0000  -0.0000  -0.0000  -0.0000  -0.0000  -0.0000  -0.0000

     the Fermi energy is     4.5697 ev

!    total energy              =   -1163.24975833 Ry
     estimated scf accuracy    <       0.00000043 Ry
     smearing contrib. (-TS)   =       0.00000000 Ry
     internal energy E=F+TS    =   -1163.24975833 Ry

     The total energy is F=E-TS. E is the sum of the following terms:
     one-electron contribution =    -709.66588275 Ry
     hartree contribution      =     415.69156114 Ry
     xc contribution           =    -236.95064034 Ry
     ewald contribution        =    -537.09065057 Ry
     one-center paw contrib.   =     -95.23414579 Ry
      -> PAW hartree energy AE =     298.11824320 Ry
      -> PAW hartree energy PS =    -297.07545767 Ry
      -> PAW xc energy AE      =    -171.99303120 Ry
      -> PAW xc energy PS      =      75.71609988 Ry
      -> total E_H with PAW    =     416.73434667 Ry
      -> total E_XC with PAW   =    -333.22757167 Ry

     convergence has been achieved in  12 iterations

     negative rho (up, down):  3.651E-03 0.000E+00

     Forces acting on atoms (cartesian axes, Ry/au):

     atom    1 type  1   force =     0.00000000    0.00000000    0.00000000
     atom    2 type  1   force =     0.00000000    0.00000000    0.00000000
     atom    3 type  2   force =     0.00000000    0.13475998    0.02419722
     atom    4 type  2   force =     0.00000000   -0.13475998   -0.02419722
     atom    5 type  3   force =     0.00000000    0.00173619    0.00125901
     atom    6 type  3   force =     0.00000000   -0.00173619   -0.00125901
     atom    7 type  4   force =     0.00000000    0.01384617    0.02286576
     atom    8 type  4   force =     0.00000000   -0.06199132   -0.01002810
     atom    9 type  4   force =     0.01611829   -0.02546228   -0.00613401
     atom   10 type  4   force =    -0.01611829   -0.02546228   -0.00613401
     atom   11 type  4   force =     0.00000000    0.02741319   -0.00531612
     atom   12 type  4   force =     0.00000000   -0.02741319    0.00531612
     atom   13 type  4   force =     0.01611829    0.02546228    0.00613401
     atom   14 type  4   force =    -0.01611829    0.02546228    0.00613401
     atom   15 type  4   force =     0.00000000    0.06199132    0.01002810
     atom   16 type  4   force =     0.00000000   -0.01384617   -0.02286576
     The non-local contrib.  to forces
     atom    1 type  1   force =     0.00000000    0.00000000    0.00000000
     atom    2 type  1   force =     0.00000000    0.00000000   -0.00000000
     atom    3 type  2   force =     0.00000000    0.07199416   -0.05278951
     atom    4 type  2   force =     0.00000000   -0.07199416    0.05278951
     atom    5 type  3   force =     0.00000000   -0.03892398    0.10524315
     atom    6 type  3   force =     0.00000000    0.03892398   -0.10524315
     atom    7 type  4   force =     0.00000000   -1.05406453   -0.23101814
     atom    8 type  4   force =     0.00000000   -1.07650851    0.08377090
     atom    9 type  4   force =    -0.27841366    1.07920627    0.07227229
     atom   10 type  4   force =     0.27841366    1.07920627    0.07227229
     atom   11 type  4   force =    -0.00000000   -1.05105008    0.44563375
     atom   12 type  4   force =     0.00000000    1.05105008   -0.44563375
     atom   13 type  4   force =    -0.27841366   -1.07920627   -0.07227229
     atom   14 type  4   force =     0.27841366   -1.07920627   -0.07227229
     atom   15 type  4   force =     0.00000000    1.07650851   -0.08377090
     atom   16 type  4   force =     0.00000000    1.05406453    0.23101814
     The ionic contribution  to forces
     atom    1 type  1   force =    -0.00000000    0.00000000    0.00000000
     atom    2 type  1   force =     0.00000000    0.00000000    0.00000000
     atom    3 type  2   force =     0.00000000   -6.38391693    5.38043313
     atom    4 type  2   force =    -0.00000000    6.38391693   -5.38043313
     atom    5 type  3   force =    -0.00000000   -0.15845943    6.28771750
     atom    6 type  3   force =    -0.00000000    0.15845943   -6.28771750
     atom    7 type  4   force =    -0.00000000    9.66629746   -0.62879110
     atom    8 type  4   force =     0.00000000   14.75494664    1.40754477
     atom    9 type  4   force =    -0.27956592  -10.65251352    2.55782798
     atom   10 type  4   force =     0.27956592  -10.65251352    2.55782798
     atom   11 type  4   force =     0.00000000   10.35735803   -0.67577637
     atom   12 type  4   force =     0.00000000  -10.35735803    0.67577637
     atom   13 type  4   force =    -0.27956592   10.65251352   -2.55782798
     atom   14 type  4   force =     0.27956592   10.65251352   -2.55782798
     atom   15 type  4   force =     0.00000000  -14.75494664   -1.40754477
     atom   16 type  4   force =     0.00000000   -9.66629746    0.62879110
     The local contribution  to forces
     atom    1 type  1   force =    -0.00005440   -0.00000474   -0.00004239
     atom    2 type  1   force =     0.00005050    0.00000601   -0.00003359
     atom    3 type  2   force =     0.00002432    6.45921836   -5.30462887
     atom    4 type  2   force =    -0.00005391   -6.45929315    5.30494863
     atom    5 type  3   force =    -0.00002718    0.19762369   -6.38849586
     atom    6 type  3   force =     0.00004886   -0.19750018    6.38836413
     atom    7 type  4   force =    -0.00001536   -8.60891598    0.87988665
     atom    8 type  4   force =     0.00001177  -13.74808830   -1.50085239
     atom    9 type  4   force =     0.57134768    9.55861085   -2.63519753
     atom   10 type  4   force =    -0.57137148    9.55862025   -2.63514188
     atom   11 type  4   force =    -0.00001281   -9.28964268    0.22887615
     atom   12 type  4   force =     0.00001289    9.28967217   -0.22900175
     atom   13 type  4   force =     0.57095876   -9.55863775    2.63518686
     atom   14 type  4   force =    -0.57093846   -9.55861710    2.63516170
     atom   15 type  4   force =    -0.00001689   13.74793200    1.50091115
     atom   16 type  4   force =     0.00001554    8.60898543   -0.87975065
     The core correction contribution to forces
     atom    1 type  1   force =     0.00000000    0.00000000    0.00000000
     atom    2 type  1   force =     0.00000000    0.00000000    0.00000000
     atom    3 type  2   force =     0.00000044   -0.01384300    0.00158696
     atom    4 type  2   force =    -0.00000075    0.01384550   -0.00158103
     atom    5 type  3   force =    -0.00000021    0.00121016   -0.00311451
     atom    6 type  3   force =     0.00000033   -0.00120698    0.00311597
     atom    7 type  4   force =    -0.00000002    0.01084495    0.00327549
     atom    8 type  4   force =    -0.00000019    0.00780368   -0.00044412
     atom    9 type  4   force =     0.00336651   -0.01111488   -0.00106657
     atom   10 type  4   force =    -0.00336670   -0.01111506   -0.00106618
     atom   11 type  4   force =     0.00000001    0.01116281   -0.00461866
     atom   12 type  4   force =     0.00000034   -0.01116302    0.00461907
     atom   13 type  4   force =     0.00336854    0.01111460    0.00106640
     atom   14 type  4   force =    -0.00336802    0.01111480    0.00106630
     atom   15 type  4   force =    -0.00000005   -0.00780341    0.00044446
     atom   16 type  4   force =    -0.00000000   -0.01084496   -0.00327591
     The Hubbard contrib.    to forces
     atom    1 type  1   force =     0.00000000    0.00000000    0.00000000
     atom    2 type  1   force =     0.00000000    0.00000000    0.00000000
     atom    3 type  2   force =     0.00000000    0.00000000    0.00000000
     atom    4 type  2   force =     0.00000000    0.00000000    0.00000000
     atom    5 type  3   force =     0.00000000    0.00000000    0.00000000
     atom    6 type  3   force =     0.00000000    0.00000000    0.00000000
     atom    7 type  4   force =     0.00000000    0.00000000    0.00000000
     atom    8 type  4   force =     0.00000000    0.00000000    0.00000000
     atom    9 type  4   force =     0.00000000    0.00000000    0.00000000
     atom   10 type  4   force =     0.00000000    0.00000000    0.00000000
     atom   11 type  4   force =     0.00000000    0.00000000    0.00000000
     atom   12 type  4   force =     0.00000000    0.00000000    0.00000000
     atom   13 type  4   force =     0.00000000    0.00000000    0.00000000
     atom   14 type  4   force =     0.00000000    0.00000000    0.00000000
     atom   15 type  4   force =     0.00000000    0.00000000    0.00000000
     atom   16 type  4   force =     0.00000000    0.00000000    0.00000000
     The SCF correction term to forces
     atom    1 type  1   force =     0.00006298    0.00001268    0.00004282
     atom    2 type  1   force =    -0.00005667    0.00000519    0.00003094
     atom    3 type  2   force =    -0.00003528    0.00129511   -0.00040940
     atom    4 type  2   force =     0.00006431   -0.00124739    0.00007391
     atom    5 type  3   force =     0.00000197    0.00027309   -0.00007428
     atom    6 type  3   force =    -0.00008093   -0.00042511    0.00023854
     atom    7 type  4   force =     0.00001693   -0.00031761   -0.00048199
     atom    8 type  4   force =    -0.00002313   -0.00014676   -0.00004060
     atom    9 type  4   force =    -0.00067187    0.00035272    0.00002194
     atom   10 type  4   force =     0.00069434    0.00033599   -0.00000617
     atom   11 type  4   force =     0.00001683   -0.00041911    0.00059582
     atom   12 type  4   force =    -0.00001674    0.00038138   -0.00041702
     atom   13 type  4   force =    -0.00016276   -0.00033231   -0.00000791
     atom   14 type  4   force =     0.00016571   -0.00033228    0.00000737
     atom   15 type  4   force =     0.00001747    0.00029892   -0.00000517
     atom   16 type  4   force =    -0.00001220    0.00024439    0.00035670

     Total force =     0.228384     Total SCF correction =     0.002584

     Computing stress (Cartesian axis) and pressure

     negative rho (up, down):  3.651E-03 0.000E+00
          total   stress  (Ry/bohr**3)                   (kbar)     P=     -419.78
  -0.00299552   0.00000000   0.00000000         -440.66        0.00        0.00
   0.00000000  -0.00259254   0.00018892            0.00     -381.38       27.79
   0.00000000   0.00018892  -0.00297285            0.00       27.79     -437.32

     kinetic stress (kbar)  20197.49      0.00      0.00
                                0.00  20428.50    -31.06
                                0.00    -31.06  20244.43

     local   stress (kbar) -23045.71     -0.00     -0.00
                               -0.00   3774.24  -3492.93
                               -0.00  -3492.93 -18107.67

     nonloc. stress (kbar)   2419.30      0.00      0.00
                                0.00   2321.92     22.15
                                0.00     22.15   2421.38

     hartree stress (kbar)  19728.07      0.00      0.00
                                0.00   7587.75   1514.51
                                0.00   1514.51  17550.41

     exc-cor stress (kbar)   1378.01      0.00      0.00
                                0.00   1378.83      0.08
                                0.00      0.08   1377.13

     corecor stress (kbar)  -7647.64      0.00     -0.00
                                0.00  -7648.68      0.20
                               -0.00      0.20  -7648.10

     ewald   stress (kbar) -13470.17      0.00     -0.00
                                0.00 -28223.94   2014.85
                               -0.00   2014.85 -16274.91

     hubbard stress (kbar)      0.00      0.00      0.00
                                0.00      0.00      0.00
                                0.00      0.00      0.00

     DFT-D   stress (kbar)      0.00      0.00      0.00
                                0.00      0.00      0.00
                                0.00      0.00      0.00

     XDM     stress (kbar)      0.00      0.00      0.00
                                0.00      0.00      0.00
                                0.00      0.00      0.00

     dft-nl  stress (kbar)      0.00      0.00      0.00
                                0.00      0.00      0.00
                                0.00      0.00      0.00

     TS-vdW  stress (kbar)      0.00      0.00      0.00
                                0.00      0.00      0.00
                                0.00      0.00      0.00

[...]

                                0.00      0.00      0.00

     Writing all to output data dir new_calculations/myprefix.save/

     General routines

     Parallel routines

     PAW routines

   This run was terminated on:   2:15:25  20May2023

   JOB DONE.