     Program PWSCF v.7.0 starts on 20May2023 at 23: 8:54

     Reading input from espresso_22302.pwi
Warning: card &CELL ignored
Warning: card / ignored

     Current dimensions of program PWSCF are:
     Max number of different atomic species (ntypx) = 10
     Max number of k-points (npk) =  40000
     Max angular momentum in pseudopotentials (lmaxx) =  4

     gamma-point specific algorithms are used
     Message from routine setup:
     using ibrav=0 with symmetry is DISCOURAGED, use correct ibrav instead

     Subspace diagonalization in iterative solution of the eigenvalue problem:
     a serial algorithm will be used

     Using Slab Decomposition

     bravais-lattice index     =            0
     lattice parameter (alat)  =      13.1636  a.u.
     unit-cell volume          =     938.0507 (a.u.)^3
     number of atoms/cell      =            6
     number of atomic types    =            2
     number of electrons       =        80.00
     number of Kohn-Sham states=           48
     kinetic-energy cutoff     =      30.0000  Ry
     charge density cutoff     =     240.0000  Ry
     scf convergence threshold =      1.0E-06
     mixing beta               =       0.7000
     number of iterations used =            8  plain     mixing
     Exchange-correlation= SLA  PW   PBE  PBE
                           (   1   4   3   4   0   0   0)

     celldm(1)=  13.163568  celldm(2)=   0.000000  celldm(3)=   0.000000
     celldm(4)=   0.000000  celldm(5)=   0.000000  celldm(6)=   0.000000

     crystal axes: (cart. coord. in units of alat)
               a(1) = (   1.000000   0.000000   0.000000 )
               a(2) = (   0.514611   0.647346   0.000000 )
               a(3) = (   0.485389  -0.124378   0.635285 )

     reciprocal axes: (cart. coord. in units 2 pi/alat)
               b(1) = (  1.000000 -0.794955 -0.919687 )
               b(2) = (  0.000000  1.544768  0.302440 )
               b(3) = (  0.000000  0.000000  1.574096 )

     PseudoPot. # 1 for Zr read from file:
     /home/pragov/projects/rrg-bengioy-ad/pragov/crystal_structure_design/SSSP/Zr_pbe_v1.uspp.F.UPF
     MD5 check sum: 5db81b1e868ab7776c4564c113de050b
     Pseudo is Ultrasoft + core correction, Zval = 12.0
     Generated by new atomic code, or converted to UPF format
     Using radial grid of  887 points,  6 beta functions with:
                l(1) =   0
                l(2) =   0
                l(3) =   1
                l(4) =   1
                l(5) =   2
                l(6) =   2
     Q(r) pseudized with  6 coefficients,  rinner =    1.200   1.200   1.200
                                                       1.200   1.200

     PseudoPot. # 2 for Sn read from file:
     /home/pragov/projects/rrg-bengioy-ad/pragov/crystal_structure_design/SSSP/Sn_pbe_v1.uspp.F.UPF
     MD5 check sum: 4cf58ce39ec5d5d420df3dd08604eb00
     Pseudo is Ultrasoft + core correction, Zval = 14.0
     Generated by new atomic code, or converted to UPF format
     Using radial grid of  891 points,  6 beta functions with:
                l(1) =   0
                l(2) =   0
                l(3) =   1
                l(4) =   1
                l(5) =   2
                l(6) =   2
     Q(r) pseudized with  6 coefficients,  rinner =    1.200   1.200   1.200
                                                       1.200   1.200

     atomic species   valence    mass     pseudopotential
        Zr            12.00    91.22400     Zr( 1.00)
        Sn            14.00   118.71000     Sn( 1.00)

      2 Sym. Ops., with inversion, found ( 1 have fractional translation)

                                    s                        frac. trans.

      isym =  1     identity

 cryst.   s( 1) = (     1          0          0      )
                  (     0          1          0      )
                  (     0          0          1      )

 cart.    s( 1) = (  1.0000000  0.0000000 -0.0000000 )
                  (  0.0000000  1.0000000 -0.0000000 )
                  (  0.0000000  0.0000000  1.0000000 )

      isym =  2     inversion

 cryst.   s( 2) = (    -1          0          0      )    f =( -0.2500000 )
                  (     0         -1          0      )       ( -0.2500000 )
                  (     0          0         -1      )       ( -0.2500000 )

 cart.    s( 2) = ( -1.0000000 -0.0000000  0.0000000 )    f =( -0.5000000 )
                  (  0.0000000 -1.0000000  0.0000000 )       ( -0.1307420 )
                  (  0.0000000  0.0000000 -1.0000000 )       ( -0.1588213 )

   Cartesian axes

     site n.     atom                  positions (alat units)
         1           Zr  tau(   1) = (   0.5000000   0.1307420   0.1588213  )
         2           Zr  tau(   2) = (   0.0000000   0.0000000   0.0000000  )
         3           Sn  tau(   3) = (   1.6638867   0.2619436   0.5837128  )
         4           Sn  tau(   4) = (   1.3361133   0.5225087   0.3692151  )
         5           Sn  tau(   5) = (   0.8361133   0.3917666   0.2103938  )
         6           Sn  tau(   6) = (   1.1638867   0.1312016   0.4248915  )

   Crystallographic axes

     site n.     atom                  positions (cryst. coord.)
         1           Zr  tau(   1) = (  0.2500000  0.2500000  0.2500000  )
         2           Zr  tau(   2) = (  0.0000000  0.0000000  0.0000000  )
         3           Sn  tau(   3) = (  0.9188200  0.5811800  0.9188200  )
         4           Sn  tau(   4) = (  0.5811800  0.9188200  0.5811800  )
         5           Sn  tau(   5) = (  0.3311800  0.6688200  0.3311800  )
         6           Sn  tau(   6) = (  0.6688200  0.3311800  0.6688200  )

     number of k points=     1  Methfessel-Paxton smearing, width (Ry)=  0.0010
                       cart. coord. in units 2pi/alat
        k(    1) = (   0.0000000   0.0000000   0.0000000), wk =   2.0000000

                       cryst. coord.
        k(    1) = (   0.0000000   0.0000000   0.0000000), wk =   2.0000000

     Check: negative core charge=   -0.000002

     Initial potential from superposition of free atoms

     starting charge      75.9955, renormalised to      80.0000

     negative rho (up, down):  1.315E-01 0.000E+00
     Starting wfcs are   62 randomized atomic wfcs

     Self-consistent Calculation

     iteration #  1     ecut=    30.00 Ry     beta= 0.70
     Davidson diagonalization with overlap

     ethr =  1.00E-02,  avg # of iterations =  7.0

     negative rho (up, down):  8.297E-02 0.000E+00

     total energy              =    -852.26235231 Ry
     estimated scf accuracy    <       2.48086960 Ry

[...]

     total energy              =    -853.09441788 Ry
     estimated scf accuracy    <       0.00000282 Ry

     iteration # 15     ecut=    30.00 Ry     beta= 0.70
     Davidson diagonalization with overlap

     ethr =  3.53E-09,  avg # of iterations =  2.0

[...]

     End of self-consistent calculation

          k = 0.0000 0.0000 0.0000 (  1304 PWs)   bands (ev):

   -40.2720 -37.2144 -17.0878 -15.3948 -15.2899 -15.1936 -14.1211 -13.8175
    -7.5332  -7.4936  -7.3630  -7.3473  -7.2860  -7.2650  -7.2260  -7.1362
    -7.0728  -5.8424  -5.8148  -5.8117  -5.7750  -5.7463  -5.7282  -5.6949
    -5.6442  -5.6058  -5.1654  -3.9518   2.8741   7.0870   7.6461   8.1361
     9.1303   9.5695  10.0394  10.3766  11.1612  11.3396  11.5590  12.0770
    12.1060  12.1943  14.4961  15.2982  15.5337  15.5820  15.9770  16.2659

     occupation numbers
     1.0000   1.0000   1.0000   1.0000   1.0000   1.0000   1.0000   1.0000
     1.0000   1.0000   1.0000   1.0000   1.0000   1.0000   1.0000   1.0000
     1.0000   1.0000   1.0000   1.0000   1.0000   1.0000   1.0000   1.0000
     1.0000   1.0000   1.0000   1.0000   1.0000   1.0000   1.0000   1.0000
     1.0000   1.0000   1.0000   1.0000   1.0000   1.0000   1.0000   1.0307
    -0.0307  -0.0000  -0.0000  -0.0000  -0.0000  -0.0000  -0.0000  -0.0000

     the Fermi energy is    12.0915 ev

!    total energy              =    -853.09441825 Ry
     estimated scf accuracy    <       0.00000013 Ry
     smearing contrib. (-TS)   =       0.00023060 Ry
     internal energy E=F+TS    =    -853.09464885 Ry

     The total energy is F=E-TS. E is the sum of the following terms:
     one-electron contribution =    -222.11582116 Ry
     hartree contribution      =     167.88470782 Ry
     xc contribution           =    -226.89856754 Ry
     ewald contribution        =    -571.96496796 Ry

     convergence has been achieved in  15 iterations

     negative rho (up, down):  7.038E-02 0.000E+00

     Forces acting on atoms (cartesian axes, Ry/au):

     atom    1 type  1   force =     0.01038066   -0.01054987   -0.01012313
     atom    2 type  1   force =    -0.01038066    0.01054987    0.01012313
     atom    3 type  2   force =    -0.03183534   -0.04381238   -0.05729240
     atom    4 type  2   force =     0.00882448   -0.01611163    0.03319177
     atom    5 type  2   force =     0.03183534    0.04381238    0.05729240
     atom    6 type  2   force =    -0.00882448    0.01611163   -0.03319177
     The non-local contrib.  to forces
     atom    1 type  1   force =    -0.03539666    0.02544748    0.10063433
     atom    2 type  1   force =     0.03539666   -0.02544748   -0.10063433
     atom    3 type  2   force =     0.03079661   -0.07729731    0.01433429
     atom    4 type  2   force =    -0.05575200    0.06441042   -0.04950709
     atom    5 type  2   force =    -0.03079661    0.07729731   -0.01433429
     atom    6 type  2   force =     0.05575200   -0.06441042    0.04950709
     The ionic contribution  to forces
     atom    1 type  1   force =    -0.00000000    0.00000000   -0.00000000
     atom    2 type  1   force =     0.00000000   -0.00000000    0.00000000
     atom    3 type  2   force =     0.14687551   -0.11675943    0.09611662
     atom    4 type  2   force =    -0.14687551    0.11675944   -0.09611662
     atom    5 type  2   force =    -0.14687551    0.11675943   -0.09611662
     atom    6 type  2   force =     0.14687551   -0.11675944    0.09611662
     The local contribution  to forces
     atom    1 type  1   force =     0.04355394    0.02627875   -0.00208928
     atom    2 type  1   force =    -0.04064839    0.09154668    0.20360311
     atom    3 type  2   force =    -0.30161130    0.16436795   -0.21433197
     atom    4 type  2   force =     0.28971142   -0.25427065    0.20064988
     atom    5 type  2   force =     0.11449242   -0.13431582    0.12145295
     atom    6 type  2   force =    -0.12325142    0.13987129   -0.15529121
     The core correction contribution to forces
     atom    1 type  1   force =     0.00416341    0.00049767   -0.00146915
     atom    2 type  1   force =    -0.00362898    0.00704762    0.01436656
     atom    3 type  2   force =    -0.00787107   -0.00024035   -0.00440386
     atom    4 type  2   force =     0.01274832   -0.00256387    0.00255849
     atom    5 type  2   force =    -0.00530462   -0.00228147   -0.00401570
     atom    6 type  2   force =     0.00275070   -0.00222457    0.00139239
     The Hubbard contrib.    to forces
     atom    1 type  1   force =     0.00000000    0.00000000    0.00000000
     atom    2 type  1   force =     0.00000000    0.00000000    0.00000000
     atom    3 type  2   force =     0.00000000    0.00000000    0.00000000
     atom    4 type  2   force =     0.00000000    0.00000000    0.00000000
     atom    5 type  2   force =     0.00000000    0.00000000    0.00000000
     atom    6 type  2   force =     0.00000000    0.00000000    0.00000000
     The SCF correction term to forces
     atom    1 type  1   force =    -0.00018095    0.00000474   -0.00002046
     atom    2 type  1   force =     0.00025913    0.00018157   -0.00003363
     atom    3 type  2   force =    -0.00018233   -0.00015272    0.00038444
     atom    4 type  2   force =    -0.00004454    0.00000027    0.00031546
     atom    5 type  2   force =     0.00016244    0.00008344   -0.00030204
     atom    6 type  2   force =     0.00001194    0.00008201   -0.00020831

     Total force =     0.126302     Total SCF correction =     0.000784

     Computing stress (Cartesian axis) and pressure

     negative rho (up, down):  7.038E-02 0.000E+00
          total   stress  (Ry/bohr**3)                   (kbar)     P=       97.52
  -0.00082139  -0.00132552   0.00021248         -120.83     -194.99       31.26
  -0.00132552   0.00168713   0.00323935         -194.99      248.19      476.52
   0.00021248   0.00323935   0.00112311           31.26      476.52      165.22

     kinetic stress (kbar)  14719.80   -214.65     39.38
                             -214.65  15183.35    501.76
                               39.38    501.76  15149.69

     local   stress (kbar)   4051.40  -2545.37   2149.15
                            -2545.37   3823.02   -313.19
                             2149.15   -313.19   3739.25

     nonloc. stress (kbar)   9113.55    -55.31     24.79
                              -55.31   9259.52    165.61
                               24.79    165.61   9294.47

     hartree stress (kbar)   8692.68    865.12   -732.71
                              865.12   8815.74    124.00
                             -732.71    124.00   8819.25

     exc-cor stress (kbar)  13159.68      1.30     -2.32
                                1.30  13164.42      3.23
                               -2.32      3.23  13164.42

     corecor stress (kbar) -20046.70     -4.21      0.28
                               -4.21 -20055.29     -7.12
                                0.28     -7.12 -20060.16

     ewald   stress (kbar) -29811.26   1758.13  -1447.30
                             1758.13 -29942.57      2.23
                            -1447.30      2.23 -29941.70

     hubbard stress (kbar)      0.00      0.00      0.00
                                0.00      0.00      0.00
                                0.00      0.00      0.00

     DFT-D   stress (kbar)      0.00      0.00      0.00
                                0.00      0.00      0.00
                                0.00      0.00      0.00

     XDM     stress (kbar)      0.00      0.00      0.00
                                0.00      0.00      0.00
                                0.00      0.00      0.00

     dft-nl  stress (kbar)      0.00      0.00      0.00
                                0.00      0.00      0.00
                                0.00      0.00      0.00

     TS-vdW  stress (kbar)      0.00      0.00      0.00
                                0.00      0.00      0.00
                                0.00      0.00      0.00

[...]

                                0.00      0.00      0.00

     Writing all to output data dir new_calculations/myprefix.save/

     General routines

     Parallel routines

   This run was terminated on:  23: 9:11  20May2023

   JOB DONE.