     Program PWSCF v.7.0 starts on 20May2023 at  8:30:29

     Reading input from espresso_13223.pwi
Warning: card &CELL ignored
Warning: card / ignored

     Current dimensions of program PWSCF are:
     Max number of different atomic species (ntypx) = 10
     Max number of k-points (npk) =  40000
     Max angular momentum in pseudopotentials (lmaxx) =  4
     file Mg.pbe-n-kjpaw_psl.0.3.0.UPF: wavefunction(s)  3S renormalized

     gamma-point specific algorithms are used
     Message from routine setup:
     using ibrav=0 with symmetry is DISCOURAGED, use correct ibrav instead

     Subspace diagonalization in iterative solution of the eigenvalue problem:
     a serial algorithm will be used

     Using Slab Decomposition

     bravais-lattice index     =            0
     lattice parameter (alat)  =      10.2824  a.u.
     unit-cell volume          =     768.7195 (a.u.)^3
     number of atoms/cell      =            4
     number of atomic types    =            2
     number of electrons       =        16.00
     number of Kohn-Sham states=           12
     kinetic-energy cutoff     =      30.0000  Ry
     charge density cutoff     =     240.0000  Ry
     scf convergence threshold =      1.0E-06
     mixing beta               =       0.7000
     number of iterations used =            8  plain     mixing
     Exchange-correlation= SLA  PW   PBX  PBC
                           (   1   4   3   4   0   0   0)

     celldm(1)=  10.282395  celldm(2)=   0.000000  celldm(3)=   0.000000
     celldm(4)=   0.000000  celldm(5)=   0.000000  celldm(6)=   0.000000

     crystal axes: (cart. coord. in units of alat)
               a(1) = (   1.000000   0.000000   0.000000 )
               a(2) = (   0.500000   0.866025   0.000000 )
               a(3) = (   0.500000   0.288675   0.816497 )

     reciprocal axes: (cart. coord. in units 2 pi/alat)
               b(1) = (  1.000000 -0.577350 -0.408248 )
               b(2) = (  0.000000  1.154701 -0.408248 )
               b(3) = (  0.000000  0.000000  1.224745 )

     PseudoPot. # 1 for Sr read from file:
     /home/pragov/projects/rrg-bengioy-ad/pragov/crystal_structure_design/SSSP/Sr_pbe_v1.uspp.F.UPF
     MD5 check sum: 6b418c05fbe9db5448babca5e47b7a5b
     Pseudo is Ultrasoft + core correction, Zval = 10.0
     Generated by new atomic code, or converted to UPF format
     Using radial grid of  883 points,  6 beta functions with:
                l(1) =   0
                l(2) =   0
                l(3) =   1
                l(4) =   1
                l(5) =   2
                l(6) =   2
     Q(r) pseudized with  6 coefficients,  rinner =    1.400   1.400   1.400
                                                       1.400   1.400

     PseudoPot. # 2 for Mg read from file:
     /home/pragov/projects/rrg-bengioy-ad/pragov/crystal_structure_design/SSSP/Mg.pbe-n-kjpaw_psl.0.3.0.UPF
     MD5 check sum: 24ecedc7f3e3cbe212e682f4413594e4
     Pseudo is Projector augmented-wave + core cor, Zval =  2.0
     Generated using "atomic" code by A. Dal Corso  v.5.0.99 svn rev. 10869
     Shape of augmentation charge: PSQ
     Using radial grid of 1129 points,  4 beta functions with:
                l(1) =   0
                l(2) =   0
                l(3) =   1
                l(4) =   1
     Q(r) pseudized with 0 coefficients

     atomic species   valence    mass     pseudopotential
        Sr            10.00    87.62000     Sr( 1.00)
        Mg             2.00    24.30500     Mg( 1.00)

     12 Sym. Ops., with inversion, found

                                    s                        frac. trans.

      isym =  1     identity

 cryst.   s( 1) = (     1          0          0      )
                  (     0          1          0      )
                  (     0          0          1      )

 cart.    s( 1) = (  1.0000000  0.0000000  0.0000000 )
                  (  0.0000000  1.0000000 -0.0000000 )
                  (  0.0000000  0.0000000  1.0000000 )

      isym =  2     180 deg rotation - cart. axis [1,0,0]

[...]

      isym =  3     120 deg rotation - cryst. axis [0,0,1]

[...]

      isym =  6     180 deg rotation - cryst. axis [1,1,0]

[...]

      isym =  7     inversion

[...]

      isym =  8     inv. 180 deg rotation - cart. axis [1,0,0]

[...]

      isym =  9     inv. 120 deg rotation - cryst. axis [0,0,1]

 cryst.   s( 9) = (     1         -1          0      )
                  (     1          0          0      )
                  (     1          0         -1      )

 cart.    s( 9) = (  0.5000000  0.8660254  0.0000000 )
                  ( -0.8660254  0.5000000  0.0000000 )
                  (  0.0000000  0.0000000 -1.0000000 )

[...]

 cryst.   s(10) = (     0          1          0      )
                  (    -1          1          0      )
                  (     0          1         -1      )

 cart.    s(10) = (  0.5000000 -0.8660254  0.0000000 )
                  (  0.8660254  0.5000000  0.0000000 )
                  (  0.0000000  0.0000000 -1.0000000 )

[...]

      isym = 12     inv. 180 deg rotation - cryst. axis [1,1,0]

 cryst.   s(12) = (     1         -1          0      )
                  (     0         -1          0      )
                  (     0         -1          1      )

 cart.    s(12) = (  0.5000000 -0.8660254  0.0000000 )
                  ( -0.8660254 -0.5000000 -0.0000000 )
                  (  0.0000000  0.0000000  1.0000000 )

   Cartesian axes

     site n.     atom                  positions (alat units)
         1           Sr  tau(   1) = (   0.0000000   0.0000000   0.0000000  )
         2           Mg  tau(   2) = (   1.0000000   0.5773503   0.4082483  )
         3           Mg  tau(   3) = (   0.5000000   0.2886751   0.2041241  )
         4           Mg  tau(   4) = (   1.5000000   0.8660254   0.6123724  )

   Crystallographic axes

     site n.     atom                  positions (cryst. coord.)
         1           Sr  tau(   1) = (  0.0000000  0.0000000  0.0000000  )
         2           Mg  tau(   2) = (  0.5000000  0.5000000  0.5000000  )
         3           Mg  tau(   3) = (  0.2500000  0.2500000  0.2500000  )
         4           Mg  tau(   4) = (  0.7500000  0.7500000  0.7500000  )

     number of k points=     1  Methfessel-Paxton smearing, width (Ry)=  0.0010
                       cart. coord. in units 2pi/alat
        k(    1) = (   0.0000000   0.0000000   0.0000000), wk =   2.0000000

                       cryst. coord.
        k(    1) = (   0.0000000   0.0000000   0.0000000), wk =   2.0000000

     Initial potential from superposition of free atoms

     starting charge      15.9636, renormalised to      16.0000

     negative rho (up, down):  6.436E-02 0.000E+00
     Starting wfcs are   25 randomized atomic wfcs
     Checking if some PAW data can be deallocated...

     Self-consistent Calculation

     iteration #  1     ecut=    30.00 Ry     beta= 0.70
     Davidson diagonalization with overlap

     ethr =  1.00E-02,  avg # of iterations =  2.0

     negative rho (up, down):  6.270E-02 0.000E+00

     total energy              =    -170.45664760 Ry
     estimated scf accuracy    <       0.21949294 Ry

[...]

     total energy              =    -170.49766205 Ry
     estimated scf accuracy    <       0.00000673 Ry

     iteration #  7     ecut=    30.00 Ry     beta= 0.70
     Davidson diagonalization with overlap

     ethr =  4.21E-08,  avg # of iterations =  2.0

[...]

     End of self-consistent calculation

          k = 0.0000 0.0000 0.0000 (  1055 PWs)   bands (ev):

   -29.4603 -11.5872 -11.5871 -11.5871  -1.3402   4.8339   4.8339   4.8339
     5.8129   5.8131   5.8131   6.4303

     occupation numbers
     1.0000   1.0000   1.0000   1.0000   1.0000   1.0000   1.0000   1.0000
    -0.0000  -0.0000  -0.0000  -0.0000

     the Fermi energy is     5.4363 ev

!    total energy              =    -170.49766426 Ry
     estimated scf accuracy    <       0.00000009 Ry
     smearing contrib. (-TS)   =       0.00000000 Ry
     internal energy E=F+TS    =    -170.49766426 Ry

     The total energy is F=E-TS. E is the sum of the following terms:
     one-electron contribution =     -27.39650548 Ry
     hartree contribution      =      17.91751854 Ry
     xc contribution           =     -22.99497003 Ry
     ewald contribution        =     -44.20434283 Ry
     one-center paw contrib.   =     -93.81936446 Ry
      -> PAW hartree energy AE =       1.88475391 Ry
      -> PAW hartree energy PS =      -1.87959058 Ry
      -> PAW xc energy AE      =     -97.40982509 Ry
      -> PAW xc energy PS      =       3.58529730 Ry
      -> total E_H with PAW    =      17.92268187 Ry
      -> total E_XC with PAW   =    -116.81949782 Ry

     convergence has been achieved in   7 iterations

     negative rho (up, down):  6.305E-02 0.000E+00

     Forces acting on atoms (cartesian axes, Ry/au):

     atom    1 type  1   force =     0.00000000    0.00000000   -0.00000000
     atom    2 type  2   force =     0.00000000    0.00000000   -0.00000000
     atom    3 type  2   force =     0.00000000    0.00000000   -0.00000088
     atom    4 type  2   force =     0.00000000    0.00000000    0.00000088
     The non-local contrib.  to forces
     atom    1 type  1   force =    -0.00000000   -0.00000000    0.00000000
     atom    2 type  2   force =     0.00000000    0.00000000   -0.00000000
     atom    3 type  2   force =     0.00000000    0.00000000    0.00001044
     atom    4 type  2   force =    -0.00000000   -0.00000000   -0.00001044
     The ionic contribution  to forces
     atom    1 type  1   force =     0.00000000   -0.00000000    0.00000000
     atom    2 type  2   force =     0.00000000    0.00000000   -0.00000000
     atom    3 type  2   force =    -0.00000000    0.00000000    0.00000000
     atom    4 type  2   force =     0.00000000   -0.00000000   -0.00000000
     The local contribution  to forces
     atom    1 type  1   force =     0.00017830   -0.00003548   -0.00011535
     atom    2 type  2   force =    -0.00004075   -0.00000278    0.00008044
     atom    3 type  2   force =     0.00003411    0.00000326   -0.00006829
     atom    4 type  2   force =     0.00002343   -0.00000568   -0.00004536
     The core correction contribution to forces
     atom    1 type  1   force =     0.00000782   -0.00000520   -0.00000353
     atom    2 type  2   force =    -0.00000233   -0.00000010    0.00000471
     atom    3 type  2   force =     0.00000292    0.00000100   -0.00000568
     atom    4 type  2   force =     0.00000188   -0.00000137   -0.00000349
     The Hubbard contrib.    to forces
     atom    1 type  1   force =     0.00000000    0.00000000    0.00000000
     atom    2 type  2   force =     0.00000000    0.00000000    0.00000000
     atom    3 type  2   force =     0.00000000    0.00000000    0.00000000
     atom    4 type  2   force =     0.00000000    0.00000000    0.00000000
     The SCF correction term to forces
     atom    1 type  1   force =    -0.00010835    0.00000410    0.00008630
     atom    2 type  2   force =     0.00001171    0.00000051   -0.00002283
     atom    3 type  2   force =    -0.00000454    0.00000021    0.00000984
     atom    4 type  2   force =    -0.00000315   -0.00000030    0.00000736

     Total force =     0.000001     Total SCF correction =     0.000142
     SCF correction compared to forces is large: reduce conv_thr to get better values

     Computing stress (Cartesian axis) and pressure

     negative rho (up, down):  6.305E-02 0.000E+00
          total   stress  (Ry/bohr**3)                   (kbar)     P=      -44.78
  -0.00030442   0.00000000   0.00000000          -44.78        0.00        0.00
   0.00000000  -0.00030442   0.00000000            0.00      -44.78        0.00
  -0.00000000  -0.00000000  -0.00030429           -0.00       -0.00      -44.76

     kinetic stress (kbar)   2951.81      0.00      0.00
                                0.00   2951.81      0.00
                                0.00      0.00   2951.85

     local   stress (kbar)  -2857.17     -0.00      0.00
                               -0.00  -2857.16     -0.01
                                0.00     -0.01  -2857.14

     nonloc. stress (kbar)   2496.73      0.00     -0.00
                                0.00   2496.73      0.00
                               -0.00     -0.00   2496.69

     hartree stress (kbar)   1142.93     -0.00     -0.00
                               -0.00   1142.92      0.00
                               -0.00      0.00   1142.91

     exc-cor stress (kbar)   1361.76     -0.00     -0.00
                               -0.00   1361.76     -0.00
                               -0.00     -0.00   1361.76

     corecor stress (kbar)  -2321.14      0.00     -0.00
                                0.00  -2321.14      0.00
                               -0.00      0.00  -2321.14

     ewald   stress (kbar)  -2819.70      0.00      0.00
                                0.00  -2819.70      0.00
                                0.00      0.00  -2819.70

     hubbard stress (kbar)      0.00      0.00      0.00
                                0.00      0.00      0.00
                                0.00      0.00      0.00

     DFT-D   stress (kbar)      0.00      0.00      0.00
                                0.00      0.00      0.00
                                0.00      0.00      0.00

     XDM     stress (kbar)      0.00      0.00      0.00
                                0.00      0.00      0.00
                                0.00      0.00      0.00

     dft-nl  stress (kbar)      0.00      0.00      0.00
                                0.00      0.00      0.00
                                0.00      0.00      0.00

     TS-vdW  stress (kbar)      0.00      0.00      0.00
                                0.00      0.00      0.00
                                0.00      0.00      0.00

[...]

                                0.00      0.00      0.00

     Writing all to output data dir new_calculations/myprefix.save/

     General routines

     Parallel routines

     PAW routines

   This run was terminated on:   8:30:34  20May2023

   JOB DONE.