     Program PWSCF v.7.0 starts on 21May2023 at  4:12: 2

     Reading input from espresso_21548.pwi
Warning: card &CELL ignored
Warning: card / ignored

     Current dimensions of program PWSCF are:
     Max number of different atomic species (ntypx) = 10
     Max number of k-points (npk) =  40000
     Max angular momentum in pseudopotentials (lmaxx) =  4
     file Ba.pbe-spn-kjpaw_psl.1.0.0.UPF: wavefunction(s)  5S 6S renormalized
     file O.pbe-n-kjpaw_psl.0.1.UPF: wavefunction(s)  2P renormalized

     gamma-point specific algorithms are used
     Message from routine setup:
     using ibrav=0 with symmetry is DISCOURAGED, use correct ibrav instead

     Subspace diagonalization in iterative solution of the eigenvalue problem:
     a serial algorithm will be used

     Using Slab Decomposition

     bravais-lattice index     =            0
     lattice parameter (alat)  =      11.1451  a.u.
     unit-cell volume          =    1474.2078 (a.u.)^3
     number of atoms/cell      =           15
     number of atomic types    =            4
     number of electrons       =       124.00
     number of Kohn-Sham states=           74
     kinetic-energy cutoff     =      30.0000  Ry
     charge density cutoff     =     240.0000  Ry
     scf convergence threshold =      1.0E-06
     mixing beta               =       0.7000
     number of iterations used =            8  plain     mixing
     Exchange-correlation= SLA  PW   PBX  PBC
                           (   1   4   3   4   0   0   0)

     celldm(1)=  11.145086  celldm(2)=   0.000000  celldm(3)=   0.000000
     celldm(4)=   0.000000  celldm(5)=   0.000000  celldm(6)=   0.000000

     crystal axes: (cart. coord. in units of alat)
               a(1) = (   1.000000   0.000000   0.000000 )
               a(2) = (  -0.500000   0.866025   0.000000 )
               a(3) = (   0.000000   0.000000   1.229639 )

     reciprocal axes: (cart. coord. in units 2 pi/alat)
               b(1) = (  1.000000  0.577350  0.000000 )
               b(2) = (  0.000000  1.154700  0.000000 )
               b(3) = (  0.000000  0.000000  0.813247 )

     PseudoPot. # 1 for Ba read from file:
     /home/pragov/projects/rrg-bengioy-ad/pragov/crystal_structure_design/SSSP/Ba.pbe-spn-kjpaw_psl.1.0.0.UPF
     MD5 check sum: c432291d3e53af55f19d5e8866385beb
     Pseudo is Projector augmented-wave + core cor, Zval = 10.0
     Generated using "atomic" code by A. Dal Corso  v.5.1
     Shape of augmentation charge: PSQ
     Using radial grid of 1251 points,  7 beta functions with:
                l(1) =   0
                l(2) =   0
                l(3) =   0
                l(4) =   1
                l(5) =   1
                l(6) =   2
                l(7) =   2
     Q(r) pseudized with 0 coefficients

     PseudoPot. # 2 for Ca read from file:
     /home/pragov/projects/rrg-bengioy-ad/pragov/crystal_structure_design/SSSP/Ca_pbe_v1.uspp.F.UPF
     MD5 check sum: 403a4c14b9e4d4dfdc3024c9a3812218
     Pseudo is Ultrasoft + core correction, Zval = 10.0
     Generated by new atomic code, or converted to UPF format
     Using radial grid of  845 points,  6 beta functions with:
                l(1) =   0
                l(2) =   0
                l(3) =   1
                l(4) =   1
                l(5) =   2
                l(6) =   2
     Q(r) pseudized with  8 coefficients,  rinner =    1.500   1.500   1.500
                                                       1.500   1.500

     PseudoPot. # 3 for Ir read from file:
     /home/pragov/projects/rrg-bengioy-ad/pragov/crystal_structure_design/SSSP/Ir_pbe_v1.2.uspp.F.UPF
     MD5 check sum: 8836f839c3459d2b385c504ce6d91f2c
     Pseudo is Ultrasoft + core correction, Zval = 15.0
     Generated by new atomic code, or converted to UPF format
     Using radial grid of  983 points,  7 beta functions with:
                l(1) =   0
                l(2) =   0
                l(3) =   1
                l(4) =   1
                l(5) =   1
                l(6) =   2
                l(7) =   2
     Q(r) pseudized with  8 coefficients,  rinner =    1.400   1.400   1.400
                                                       1.400   1.400

     PseudoPot. # 4 for O  read from file:
     /home/pragov/projects/rrg-bengioy-ad/pragov/crystal_structure_design/SSSP/O.pbe-n-kjpaw_psl.0.1.UPF
     MD5 check sum: 0234752ac141de4415c5fc33072bef88
     Pseudo is Projector augmented-wave + core cor, Zval =  6.0
     Generated using "atomic" code by A. Dal Corso  v.5.0.99 svn rev. 10869
     Shape of augmentation charge: BESSEL
     Using radial grid of 1095 points,  4 beta functions with:
                l(1) =   0
                l(2) =   0
                l(3) =   1
                l(4) =   1
     Q(r) pseudized with 0 coefficients

     atomic species   valence    mass     pseudopotential
        Ba            10.00   137.32700     Ba( 1.00)
        Ca            10.00    40.07800     Ca( 1.00)
        Ir            15.00   192.21700     Ir( 1.00)
        O              6.00    15.99900     O ( 1.00)

     12 Sym. Ops., with inversion, found

                                    s                        frac. trans.

      isym =  1     identity

 cryst.   s( 1) = (     1          0          0      )
                  (     0          1          0      )
                  (     0          0          1      )

 cart.    s( 1) = (  1.0000000  0.0000000  0.0000000 )
                  (  0.0000000  1.0000000  0.0000000 )
                  (  0.0000000  0.0000000  1.0000000 )

      isym =  2     180 deg rotation - cart. axis [1,0,0]

[...]

      isym =  3     120 deg rotation - cryst. axis [0,0,1]

[...]

      isym =  6     180 deg rotation - cryst. axis [1,1,0]

[...]

      isym =  7     inversion

[...]

      isym =  8     inv. 180 deg rotation - cart. axis [1,0,0]

[...]

      isym =  9     inv. 120 deg rotation - cryst. axis [0,0,1]

 cryst.   s( 9) = (     0         -1          0      )
                  (     1          1          0      )
                  (     0          0         -1      )

 cart.    s( 9) = (  0.4999999  0.8660254  0.0000000 )
                  ( -0.8660254  0.5000001  0.0000000 )
                  (  0.0000000  0.0000000 -1.0000000 )

[...]

 cryst.   s(10) = (     1          1          0      )
                  (    -1          0          0      )
                  (     0          0         -1      )

 cart.    s(10) = (  0.5000001 -0.8660254  0.0000000 )
                  (  0.8660254  0.4999999  0.0000000 )
                  (  0.0000000  0.0000000 -1.0000000 )

[...]

      isym = 12     inv. 180 deg rotation - cryst. axis [1,1,0]

 cryst.   s(12) = (     0         -1          0      )
                  (    -1          0          0      )
                  (     0          0          1      )

 cart.    s(12) = (  0.4999999 -0.8660254  0.0000000 )
                  ( -0.8660254 -0.4999999  0.0000000 )
                  (  0.0000000  0.0000000  1.0000000 )

   Cartesian axes

     site n.     atom                  positions (alat units)
         1           Ba  tau(   1) = (  -0.0000004   0.5773506   0.8186030  )
         2           Ba  tau(   2) = (   0.0000000   0.0000000   0.0000000  )
         3           Ba  tau(   3) = (   0.5000005   0.2886749   0.4110365  )
         4           Ca  tau(   4) = (   0.0000000   0.0000000   0.6148197  )
         5           Ir  tau(   5) = (  -0.0000004   0.5773506   0.1950786  )
         6           Ir  tau(   6) = (   0.5000005   0.2886749   1.0345608  )
         7           O   tau(   7) = (   0.7324015   0.1544981   0.8432548  )
         8           O   tau(   8) = (   0.5000001   0.5570293   0.8432548  )
         9           O   tau(   9) = (   0.2675985   0.1544981   0.8432548  )
        10           O   tau(  10) = (   0.2324016   0.7115274   0.3863847  )
        11           O   tau(  11) = (   0.0000000   0.3089961   0.3863847  )
        12           O   tau(  12) = (  -0.2324014   0.7115274   0.3863847  )
        13           O   tau(  13) = (   0.5000000   0.0000000   0.0000000  )
        14           O   tau(  14) = (  -0.2500000   0.4330127   0.0000000  )
        15           O   tau(  15) = (   0.2500000   0.4330127   0.0000000  )

   Crystallographic axes

     site n.     atom                  positions (cryst. coord.)
         1           Ba  tau(   1) = (  0.3333330  0.6666670  0.6657260  )
         2           Ba  tau(   2) = (  0.0000000  0.0000000  0.0000000  )
         3           Ba  tau(   3) = (  0.6666670  0.3333330  0.3342740  )
         4           Ca  tau(   4) = (  0.0000000  0.0000000  0.5000000  )
         5           Ir  tau(   5) = (  0.3333330  0.6666670  0.1586470  )
         6           Ir  tau(   6) = (  0.6666670  0.3333330  0.8413530  )
         7           O   tau(   7) = (  0.8216010  0.1783990  0.6857740  )
         8           O   tau(   8) = (  0.8216010  0.6432020  0.6857740  )
         9           O   tau(   9) = (  0.3567980  0.1783990  0.6857740  )
        10           O   tau(  10) = (  0.6432020  0.8216010  0.3142260  )
        11           O   tau(  11) = (  0.1783990  0.3567980  0.3142260  )
        12           O   tau(  12) = (  0.1783990  0.8216010  0.3142260  )
        13           O   tau(  13) = (  0.5000000  0.0000000  0.0000000  )
        14           O   tau(  14) = (  0.0000000  0.5000000  0.0000000  )
        15           O   tau(  15) = (  0.5000000  0.5000000  0.0000000  )

     number of k points=     1  Methfessel-Paxton smearing, width (Ry)=  0.0010
                       cart. coord. in units 2pi/alat
        k(    1) = (   0.0000000   0.0000000   0.0000000), wk =   2.0000000

                       cryst. coord.
        k(    1) = (   0.0000000   0.0000000   0.0000000), wk =   2.0000000

     Check: negative core charge=   -0.000010

     Initial potential from superposition of free atoms

     starting charge     122.9435, renormalised to     124.0000

     negative rho (up, down):  7.263E-01 0.000E+00
     Starting wfcs are   85 randomized atomic wfcs
     Checking if some PAW data can be deallocated...

     Self-consistent Calculation

     iteration #  1     ecut=    30.00 Ry     beta= 0.70
     Davidson diagonalization with overlap

     ethr =  1.00E-02,  avg # of iterations =  5.0

     negative rho (up, down):  5.146E-01 0.000E+00

     total energy              =   -2113.16593525 Ry
     estimated scf accuracy    <      13.27764729 Ry

[...]

     total energy              =   -2121.96412509 Ry
     estimated scf accuracy    <       0.00006748 Ry

     iteration # 54     ecut=    30.00 Ry     beta= 0.70
     Davidson diagonalization with overlap

     ethr =  2.78E-09,  avg # of iterations =  4.0

[...]

     End of self-consistent calculation

          k = 0.0000 0.0000 0.0000 (  2052 PWs)   bands (ev):

   -39.5920 -39.5920 -39.5895 -39.5895 -39.4049 -39.4025 -27.6231 -15.7400
   -15.6623 -15.4831  -9.0979  -9.0584  -9.0584  -7.5397  -6.8952  -6.8951
    -6.4297  -6.3910  -6.2712  -6.2711  -6.0055  -6.0054  -1.1165  -1.1165
    -1.0809  -1.0809  -0.8652  -0.8410  -0.7821  -0.7821  -0.6604   4.2596
     4.2596   4.4912   5.3940   5.6832   5.6832   5.9167   5.9478   5.9479
     6.4457   6.4641   6.4641   7.3961   7.3961   7.4676   8.7764   8.8395
     8.8395   9.1923   9.1923   9.2773   9.2773   9.4193   9.6766   9.7269
     9.7269   9.7289   9.8949  10.0933  10.0933  11.4062  11.4121  11.4121
    13.0421  13.0421  14.5432  14.5432  15.4572  15.7738  15.7738  16.1370
    16.1370  16.1466

     occupation numbers
     1.0000   1.0000   1.0000   1.0000   1.0000   1.0000   1.0000   1.0000
     1.0000   1.0000   1.0000   1.0000   1.0000   1.0000   1.0000   1.0000
     1.0000   1.0000   1.0000   1.0000   1.0000   1.0000   1.0000   1.0000
     1.0000   1.0000   1.0000   1.0000   1.0000   1.0000   1.0000   1.0000
     1.0000   1.0000   1.0000   1.0000   1.0000   1.0000   1.0000   1.0000
     1.0000   1.0000   1.0000   1.0000   1.0000   1.0000   1.0000   1.0000
     1.0000   1.0000   1.0000   1.0000   1.0000   1.0000   1.0000   1.0000
     1.0000   1.0000   1.0000   1.0000   1.0000   0.5650   0.2179   0.2170
    -0.0000  -0.0000  -0.0000  -0.0000  -0.0000  -0.0000  -0.0000  -0.0000
    -0.0000  -0.0000

     the Fermi energy is    11.4072 ev

!    total energy              =   -2121.96412659 Ry
     estimated scf accuracy    <       0.00000037 Ry
     smearing contrib. (-TS)   =      -0.00064618 Ry
     internal energy E=F+TS    =   -2121.96348041 Ry

     The total energy is F=E-TS. E is the sum of the following terms:
     one-electron contribution =    -238.00268063 Ry
     hartree contribution      =     200.51141900 Ry
     xc contribution           =    -240.68857164 Ry
     ewald contribution        =    -633.23168472 Ry
     one-center paw contrib.   =   -1210.55196242 Ry
      -> PAW hartree energy AE =     350.19453933 Ry
      -> PAW hartree energy PS =    -348.87952288 Ry
      -> PAW xc energy AE      =   -1336.83238191 Ry
      -> PAW xc energy PS      =     124.96540304 Ry
      -> total E_H with PAW    =     201.82643545 Ry
      -> total E_XC with PAW   =   -1452.55555051 Ry

     convergence has been achieved in  54 iterations

     negative rho (up, down):  6.174E-01 0.000E+00

     Forces acting on atoms (cartesian axes, Ry/au):

     atom    1 type  1   force =     0.00000000   -0.00000000    0.00751050
     atom    2 type  1   force =    -0.00000000    0.00000000    0.00000000
     atom    3 type  1   force =     0.00000000    0.00000000   -0.00751050
     atom    4 type  2   force =     0.00000000    0.00000000    0.00000000
     atom    5 type  3   force =     0.00000000    0.00000000    0.01570515
     atom    6 type  3   force =     0.00000000    0.00000000   -0.01570515
     atom    7 type  4   force =    -0.01435803    0.00828962    0.02885077
     atom    8 type  4   force =    -0.00000000   -0.01657923    0.02885077
     atom    9 type  4   force =     0.01435803    0.00828961    0.02885077
     atom   10 type  4   force =    -0.01435803   -0.00828961   -0.02885077
     atom   11 type  4   force =    -0.00000000    0.01657923   -0.02885077
     atom   12 type  4   force =     0.01435803   -0.00828962   -0.02885077
     atom   13 type  4   force =     0.00000000   -0.00000000    0.00000000
     atom   14 type  4   force =    -0.00000000   -0.00000000    0.00000000
     atom   15 type  4   force =    -0.00000000    0.00000000   -0.00000000
     The non-local contrib.  to forces
     atom    1 type  1   force =    -0.00000000   -0.00000000    0.00732078
     atom    2 type  1   force =     0.00000000   -0.00000000    0.00000000
     atom    3 type  1   force =    -0.00000000   -0.00000000   -0.00732078
     atom    4 type  2   force =     0.00000000    0.00000000    0.00000000
     atom    5 type  3   force =     0.00000000    0.00000000   -0.10321364
     atom    6 type  3   force =     0.00000000    0.00000000    0.10321364
     atom    7 type  4   force =    -0.61812581    0.35687514    0.45306837
     atom    8 type  4   force =     0.00000000   -0.71375017    0.45306837
     atom    9 type  4   force =     0.61812581    0.35687503    0.45306837
     atom   10 type  4   force =    -0.61812581   -0.35687503   -0.45306837
     atom   11 type  4   force =     0.00000000    0.71375017   -0.45306837
     atom   12 type  4   force =     0.61812581   -0.35687514   -0.45306837
     atom   13 type  4   force =    -0.00000000    0.00000000   -0.00000000
     atom   14 type  4   force =    -0.00000000   -0.00000000    0.00000000
     atom   15 type  4   force =     0.00000000    0.00000000    0.00000000
     The ionic contribution  to forces
     atom    1 type  1   force =     0.00004800   -0.00002771   -3.27478768
     atom    2 type  1   force =     0.00000000    0.00000000    0.00000000
     atom    3 type  1   force =    -0.00004800    0.00002771    3.27478768
     atom    4 type  2   force =     0.00000000   -0.00000000   -0.00000000
     atom    5 type  3   force =     0.00007154   -0.00004130    0.89335182
     atom    6 type  3   force =    -0.00007154    0.00004130   -0.89335182
     atom    7 type  4   force =     5.37328377   -3.10226716   -5.69978746
     atom    8 type  4   force =    -0.00003610    6.20448318   -5.69974564
     atom    9 type  4   force =    -5.37325839   -3.10220983   -5.69974564
     atom   10 type  4   force =     5.37325839    3.10220983    5.69974564
     atom   11 type  4   force =     0.00003610   -6.20448318    5.69974564
     atom   12 type  4   force =    -5.37328378    3.10226716    5.69978746
     atom   13 type  4   force =     0.00000000   -0.00000000    0.00000000
     atom   14 type  4   force =    -0.00000000   -0.00000000   -0.00000000
     atom   15 type  4   force =     0.00000000   -0.00000000   -0.00000000
     The local contribution  to forces
     atom    1 type  1   force =     0.00028273    0.00016315    3.27578447
     atom    2 type  1   force =    -0.00010447   -0.00015931   -0.00066383
     atom    3 type  1   force =     0.00014995    0.00011235   -3.27537685
     atom    4 type  2   force =     0.00002919    0.00001883   -0.00009686
     atom    5 type  3   force =     0.00000929   -0.00003058   -0.77223139
     atom    6 type  3   force =    -0.00004251    0.00000931    0.77243773
     atom    7 type  4   force =    -4.77650021    2.75773471    5.28061822
     atom    8 type  4   force =     0.00000729   -5.51537189    5.28061211
     atom    9 type  4   force =     4.77645763    2.75770044    5.28060014
     atom   10 type  4   force =    -4.77652818   -2.75773688   -5.28065786
     atom   11 type  4   force =    -0.00000857    5.51544082   -5.28066276
     atom   12 type  4   force =     4.77656611   -2.75777032   -5.28066889
     atom   13 type  4   force =     0.00000131   -0.00004610    0.00006085
     atom   14 type  4   force =     0.00004780    0.00002661    0.00007063
     atom   15 type  4   force =    -0.00004039    0.00002109    0.00006266
     The core correction contribution to forces
     atom    1 type  1   force =     0.00000667    0.00000133   -0.00042908
     atom    2 type  1   force =    -0.00000428   -0.00000475   -0.00001381
     atom    3 type  1   force =     0.00000352    0.00000416    0.00043708
     atom    4 type  2   force =     0.00000032    0.00000015    0.00000040
     atom    5 type  3   force =    -0.00000035   -0.00000117   -0.00247070
     atom    6 type  3   force =    -0.00000046    0.00000048    0.00247436
     atom    7 type  4   force =     0.00697915   -0.00402919   -0.00493139
     atom    8 type  4   force =     0.00000003    0.00805879   -0.00493097
     atom    9 type  4   force =    -0.00697916   -0.00402923   -0.00493097
     atom   10 type  4   force =     0.00697929    0.00402931    0.00493125
     atom   11 type  4   force =    -0.00000004   -0.00805890    0.00493115
     atom   12 type  4   force =    -0.00697922    0.00402920    0.00493156
     atom   13 type  4   force =     0.00000007    0.00000014   -0.00000035
     atom   14 type  4   force =     0.00000003    0.00000006   -0.00000008
     atom   15 type  4   force =     0.00000013    0.00000002   -0.00000024
     The Hubbard contrib.    to forces
     atom    1 type  1   force =     0.00000000    0.00000000    0.00000000
     atom    2 type  1   force =     0.00000000    0.00000000    0.00000000
     atom    3 type  1   force =     0.00000000    0.00000000    0.00000000
     atom    4 type  2   force =     0.00000000    0.00000000    0.00000000
     atom    5 type  3   force =     0.00000000    0.00000000    0.00000000
     atom    6 type  3   force =     0.00000000    0.00000000    0.00000000
     atom    7 type  4   force =     0.00000000    0.00000000    0.00000000
     atom    8 type  4   force =     0.00000000    0.00000000    0.00000000
     atom    9 type  4   force =     0.00000000    0.00000000    0.00000000
     atom   10 type  4   force =     0.00000000    0.00000000    0.00000000
     atom   11 type  4   force =     0.00000000    0.00000000    0.00000000
     atom   12 type  4   force =     0.00000000    0.00000000    0.00000000
     atom   13 type  4   force =     0.00000000    0.00000000    0.00000000
     atom   14 type  4   force =     0.00000000    0.00000000    0.00000000
     atom   15 type  4   force =     0.00000000    0.00000000    0.00000000
     The SCF correction term to forces
     atom    1 type  1   force =    -0.00006622   -0.00000361   -0.00016950
     atom    2 type  1   force =     0.00001223    0.00001312    0.00003916
     atom    3 type  1   force =     0.00001331   -0.00002599    0.00017086
     atom    4 type  2   force =    -0.00002387   -0.00001719    0.00007353
     atom    5 type  3   force =    -0.00008961    0.00008068    0.00028790
     atom    6 type  3   force =     0.00012936   -0.00005592   -0.00046023
     atom    7 type  4   force =     0.00000821   -0.00001679   -0.00013493
     atom    8 type  4   force =     0.00002920    0.00001880   -0.00013981
     atom    9 type  4   force =     0.00000992   -0.00004023   -0.00013360
     atom   10 type  4   force =     0.00005289    0.00007218    0.00019434
     atom   11 type  4   force =    -0.00003015   -0.00007717    0.00019168
     atom   12 type  4   force =    -0.00006447    0.00004440    0.00018645
     atom   13 type  4   force =     0.00000282    0.00004164   -0.00006276
     atom   14 type  4   force =    -0.00004168   -0.00002085   -0.00006552
     atom   15 type  4   force =     0.00003901   -0.00001518   -0.00006063

     Total force =     0.085144     Total SCF correction =     0.000779

     Computing stress (Cartesian axis) and pressure

     negative rho (up, down):  6.174E-01 0.000E+00
          total   stress  (Ry/bohr**3)                   (kbar)     P=     -262.61
  -0.00142185   0.00000000   0.00000000         -209.16        0.00        0.00
   0.00000000  -0.00142185   0.00000000            0.00     -209.16        0.00
   0.00000000  -0.00000000  -0.00251177            0.00       -0.00     -369.49

     kinetic stress (kbar)  21373.07     -0.00      0.00
                               -0.00  21373.07      0.00
                                0.00     -0.00  21335.73

     local   stress (kbar)  -7494.80      0.12      0.04
                                0.12  -7494.67      0.30
                                0.04      0.30  -5373.46

     nonloc. stress (kbar)   5055.97     -0.00      0.00
                               -0.00   5055.97      0.00
                                0.00      0.00   5057.34

     hartree stress (kbar)   6997.73     -0.04     -0.03
                               -0.04   6997.80     -0.12
                               -0.03     -0.12   6012.68

     exc-cor stress (kbar)   5720.17     -0.00     -0.00
                               -0.00   5720.17     -0.00
                               -0.00     -0.00   5724.13

     corecor stress (kbar) -11218.94      0.00     -0.00
                                0.00 -11218.93      0.01
                               -0.00      0.01 -11223.28

     ewald   stress (kbar) -20642.47      0.01     -0.00
                                0.01 -20642.46      0.00
                               -0.00      0.00 -21902.64

     hubbard stress (kbar)      0.00      0.00      0.00
                                0.00      0.00      0.00
                                0.00      0.00      0.00

     DFT-D   stress (kbar)      0.00      0.00      0.00
                                0.00      0.00      0.00
                                0.00      0.00      0.00

     XDM     stress (kbar)      0.00      0.00      0.00
                                0.00      0.00      0.00
                                0.00      0.00      0.00

     dft-nl  stress (kbar)      0.00      0.00      0.00
                                0.00      0.00      0.00
                                0.00      0.00      0.00

     TS-vdW  stress (kbar)      0.00      0.00      0.00
                                0.00      0.00      0.00
                                0.00      0.00      0.00

[...]

                                0.00      0.00      0.00

     Writing all to output data dir new_calculations/myprefix.save/

     General routines

     Parallel routines

     PAW routines

   This run was terminated on:   4:13:17  21May2023

   JOB DONE.