     Program PWSCF v.7.0 starts on 20May2023 at  6:24: 6

     Reading input from espresso_15085.pwi
Warning: card &CELL ignored
Warning: card / ignored

     Current dimensions of program PWSCF are:
     Max number of different atomic species (ntypx) = 10
     Max number of k-points (npk) =  40000
     Max angular momentum in pseudopotentials (lmaxx) =  4
     file Fe.pbe-spn-kjpaw_psl.0.2.1.UPF: wavefunction(s)  3D renormalized
     file O.pbe-n-kjpaw_psl.0.1.UPF: wavefunction(s)  2P renormalized

     gamma-point specific algorithms are used
     Message from routine setup:
     using ibrav=0 with symmetry is DISCOURAGED, use correct ibrav instead

     Subspace diagonalization in iterative solution of the eigenvalue problem:
     a serial algorithm will be used

     Using Slab Decomposition

     bravais-lattice index     =            0
     lattice parameter (alat)  =       8.9661  a.u.
     unit-cell volume          =    1401.2020 (a.u.)^3
     number of atoms/cell      =           18
     number of atomic types    =            4
     number of electrons       =       152.00
     number of Kohn-Sham states=           91
     kinetic-energy cutoff     =      30.0000  Ry
     charge density cutoff     =     240.0000  Ry
     scf convergence threshold =      1.0E-06
     mixing beta               =       0.7000
     number of iterations used =            8  plain     mixing
     Exchange-correlation=  SLA  PW   PBX  PBC
                           (   1   4   3   4   0   0   0)

     celldm(1)=   8.966055  celldm(2)=   0.000000  celldm(3)=   0.000000
     celldm(4)=   0.000000  celldm(5)=   0.000000  celldm(6)=   0.000000

     crystal axes: (cart. coord. in units of alat)
               a(1) = (   1.000000   0.000000   0.000000 )
               a(2) = (   0.000000   1.000606   0.000000 )
               a(3) = (   0.000000   0.995537   1.942824 )

     reciprocal axes: (cart. coord. in units 2 pi/alat)
               b(1) = (  1.000000  0.000000  0.000000 )
               b(2) = (  0.000000  0.999394 -0.512107 )
               b(3) = (  0.000000  0.000000  0.514715 )

     PseudoPot. # 1 for Li read from file:
     /home/pragov/projects/rrg-bengioy-ad/pragov/crystal_structure_design/SSSP/li_pbe_v1.4.uspp.F.UPF
     MD5 check sum: e912e257baa3777c20ea3d68f190483c
     Pseudo is Ultrasoft, Zval =  3.0
     Generated by new atomic code, or converted to UPF format
     Using radial grid of  751 points,  5 beta functions with:
                l(1) =   0
                l(2) =   0
                l(3) =   0
                l(4) =   1
                l(5) =   1
     Q(r) pseudized with 10 coefficients,  rinner =    1.150   1.150   1.150

     PseudoPot. # 2 for Fe read from file:
     /home/pragov/projects/rrg-bengioy-ad/pragov/crystal_structure_design/SSSP/Fe.pbe-spn-kjpaw_psl.0.2.1.UPF
     MD5 check sum: e86618425769142926afa95317d90200
     Pseudo is Projector augmented-wave + core cor, Zval = 16.0
     Generated using "atomic" code by A. Dal Corso  v.5.0.99 svn rev. 10869
     Shape of augmentation charge: PSQ
     Using radial grid of 1191 points,  6 beta functions with:
                l(1) =   0
                l(2) =   0
                l(3) =   1
                l(4) =   1
                l(5) =   2
                l(6) =   2
     Q(r) pseudized with 0 coefficients

     PseudoPot. # 3 for O  read from file:
     /home/pragov/projects/rrg-bengioy-ad/pragov/crystal_structure_design/SSSP/O.pbe-n-kjpaw_psl.0.1.UPF
     MD5 check sum: 0234752ac141de4415c5fc33072bef88
     Pseudo is Projector augmented-wave + core cor, Zval =  6.0
     Generated using "atomic" code by A. Dal Corso  v.5.0.99 svn rev. 10869
     Shape of augmentation charge: BESSEL
     Using radial grid of 1095 points,  4 beta functions with:
                l(1) =   0
                l(2) =   0
                l(3) =   1
                l(4) =   1
     Q(r) pseudized with 0 coefficients

     PseudoPot. # 4 for F  read from file:
     /home/pragov/projects/rrg-bengioy-ad/pragov/crystal_structure_design/SSSP/f_pbe_v1.4.uspp.F.UPF
     MD5 check sum: 4c38b6a325caf53ec0e86aed9459de46
     Pseudo is Ultrasoft, Zval =  7.0
     Generated by new atomic code, or converted to UPF format
     Using radial grid of  799 points,  4 beta functions with:
                l(1) =   0
                l(2) =   0
                l(3) =   1
                l(4) =   1
     Q(r) pseudized with  8 coefficients,  rinner =    0.950   0.950   0.950

     atomic species   valence    mass     pseudopotential
        Li             3.00     6.94000     Li( 1.00)
        Fe            16.00    55.84500     Fe( 1.00)
        O              6.00    15.99900     O ( 1.00)
        F              7.00    18.99840     F ( 1.00)

      2 Sym. Ops. (no inversion) found ( 1 have fractional translation)

                                    s                        frac. trans.

      isym =  1     identity

 cryst.   s( 1) = (     1          0          0      )
                  (     0          1          0      )
                  (     0          0          1      )

 cart.    s( 1) = (  1.0000000  0.0000000  0.0000000 )
                  (  0.0000000  1.0000000  0.0000000 )
                  (  0.0000000  0.0000000  1.0000000 )

      isym =  2     inv. 180 deg rotation - cart. axis [1,0,0]

 cryst.   s( 2) = (    -1          0          0      )    f =(  0.0000000 )
                  (     0          1          0      )       ( -0.0000000 )
                  (     0          0          1      )       (  0.5000000 )

 cart.    s( 2) = ( -1.0000000  0.0000000  0.0000000 )    f =(  0.0000000 )
                  (  0.0000000  1.0000000  0.0000000 )       (  0.4977684 )
                  (  0.0000000  0.0000000  1.0000000 )       (  0.9714118 )

   Cartesian axes

     site n.     atom                  positions (alat units)
         1           Li  tau(   1) = (   0.2507410   0.0077238   0.0056944  )
         2           Li  tau(   2) = (   0.7492590   0.5054923   0.9771062  )
         3           Fe  tau(   3) = (   0.2390160   1.0108798   0.6260516  )
         4           Fe  tau(   4) = (   0.2283980   0.9740639   1.2970232  )
         5           Fe  tau(   5) = (   0.7609840   1.5086483   1.5974634  )
         6           Fe  tau(   6) = (   0.7716020   0.4762954   0.3256114  )
         7           O   tau(   7) = (   0.0510170   0.2005235   0.3382242  )
         8           O   tau(   8) = (   0.9489830   0.6982919   1.3096360  )
         9           F   tau(   9) = (   0.0505990   1.1972974   1.6132819  )
        10           F   tau(  10) = (   0.0603870   1.1904478   0.9699838  )
        11           F   tau(  11) = (   0.9396130   1.6882162   1.9413956  )
        12           F   tau(  12) = (   0.9494010   0.6995290   0.6418701  )
        13           F   tau(  13) = (   0.5634830   1.3122154   1.9356662  )
        14           F   tau(  14) = (   0.5386450   1.2881553   1.3126940  )
        15           F   tau(  15) = (   0.5509290   1.3010306   0.6440849  )
        16           F   tau(  16) = (   0.4490710   1.7987990   1.6154967  )
        17           F   tau(  17) = (   0.4365170   0.8144469   0.9642544  )
        18           F   tau(  18) = (   0.4613550   0.7903869   0.3412822  )

   Crystallographic axes

     site n.     atom                  positions (cryst. coord.)
         1           Li  tau(   1) = (  0.2507410  0.0048030  0.0029310  )
         2           Li  tau(   2) = (  0.7492590  0.0048030  0.5029310  )
         3           Fe  tau(   3) = (  0.2390160  0.6896620  0.3222380  )
         4           Fe  tau(   4) = (  0.2283980  0.3092590  0.6675970  )
         5           Fe  tau(   5) = (  0.7609840  0.6896620  0.8222380  )
         6           Fe  tau(   6) = (  0.7716020  0.3092590  0.1675970  )
         7           O   tau(   7) = (  0.0510170  0.0271950  0.1740890  )
         8           O   tau(   8) = (  0.9489830  0.0271950  0.6740890  )
         9           F   tau(   9) = (  0.0505990  0.3703990  0.8303800  )
        10           F   tau(  10) = (  0.0603870  0.6929910  0.4992650  )
        11           F   tau(  11) = (  0.9396130  0.6929910  0.9992650  )
        12           F   tau(  12) = (  0.9494010  0.3703990  0.3303800  )
        13           F   tau(  13) = (  0.5634830  0.3201520  0.9963160  )
        14           F   tau(  14) = (  0.5386450  0.6151350  0.6756630  )
        15           F   tau(  15) = (  0.5509290  0.9704020  0.3315200  )
        16           F   tau(  16) = (  0.4490710  0.9704020  0.8315200  )
        17           F   tau(  17) = (  0.4365170  0.3201520  0.4963160  )
        18           F   tau(  18) = (  0.4613550  0.6151350  0.1756630  )

     number of k points=     1  Methfessel-Paxton smearing, width (Ry)=  0.0010
                       cart. coord. in units 2pi/alat
        k(    1) = (   0.0000000   0.0000000   0.0000000), wk =   2.0000000

                       cryst. coord.
        k(    1) = (   0.0000000   0.0000000   0.0000000), wk =   2.0000000

     Check: negative core charge=   -0.000126

     Initial potential from superposition of free atoms

     starting charge     151.0968, renormalised to     152.0000
     Starting wfcs are  110 randomized atomic wfcs
     Checking if some PAW data can be deallocated...

     Self-consistent Calculation

     iteration #  1     ecut=    30.00 Ry     beta= 0.70
     Davidson diagonalization with overlap

     ethr =  1.00E-02,  avg # of iterations =  2.0

     total energy              =   -1911.65988203 Ry
     estimated scf accuracy    <       4.77486256 Ry

[...]

     negative rho (up, down):  2.517E-05 0.000E+00

[...]

     negative rho (up, down):  4.166E-06 0.000E+00

[...]

     total energy              =   -1914.62079813 Ry
     estimated scf accuracy    <       0.00000504 Ry

     iteration # 30     ecut=    30.00 Ry     beta= 0.70
     Davidson diagonalization with overlap

     ethr =  3.31E-09,  avg # of iterations =  1.0

     End of self-consistent calculation

          k = 0.0000 0.0000 0.0000 (  1924 PWs)   bands (ev):

   -83.1569 -83.1553 -83.0331 -83.0314 -48.8363 -48.8293 -48.8140 -48.8095
   -48.7877 -48.7825 -48.7209 -48.7152 -48.3946 -48.3889 -48.1212 -48.1131
   -38.8282 -38.8278 -18.3283 -18.1806 -17.9341 -17.8603 -17.8582 -17.8032
   -17.6212 -17.6160 -17.2794 -17.2597 -13.2394 -13.2253  -1.6724  -1.3913
    -0.8460  -0.7524  -0.6259  -0.4618  -0.4616  -0.4570  -0.4405  -0.2298
    -0.2194  -0.1182   0.0245   0.0615   0.3229   0.3393   0.4805   0.4972
     0.5800   0.5843   0.7355   0.8037   0.8091   0.9921   1.0166   1.1101
     1.4497   1.4704   1.7066   1.7328   2.0379   2.0626   2.0797   2.1207
     2.1861   2.4499   3.4054   3.5603   3.5613   3.5987   3.8949   3.8953
     4.0384   4.0479   4.2019   4.2861   4.5939   4.5996   5.0347   5.0793
     5.6072   5.6113   6.2501   6.2864   6.3318   6.4286   9.8447  12.0514
    12.7610  14.8955  14.9329

     occupation numbers
     1.0000   1.0000   1.0000   1.0000   1.0000   1.0000   1.0000   1.0000
     1.0000   1.0000   1.0000   1.0000   1.0000   1.0000   1.0000   1.0000
     1.0000   1.0000   1.0000   1.0000   1.0000   1.0000   1.0000   1.0000
     1.0000   1.0000   1.0000   1.0000   1.0000   1.0000   1.0000   1.0000
     1.0000   1.0000   1.0000   1.0000   1.0000   1.0000   1.0000   1.0000
     1.0000   1.0000   1.0000   1.0000   1.0000   1.0000   1.0000   1.0000
     1.0000   1.0000   1.0000   1.0000   1.0000   1.0000   1.0000   1.0000
     1.0000   1.0000   1.0000   1.0000   1.0000   1.0000   1.0000   1.0000
     1.0000   1.0000   1.0000   1.0000   1.0000   1.0000   1.0000   1.0000
     1.0000   1.0000   1.0000   1.0000  -0.0000  -0.0000  -0.0000  -0.0000
    -0.0000  -0.0000  -0.0000  -0.0000  -0.0000  -0.0000  -0.0000  -0.0000
    -0.0000  -0.0000  -0.0000

     the Fermi energy is     4.5027 ev

!    total energy              =   -1914.62079780 Ry
     estimated scf accuracy    <       0.00000097 Ry
     smearing contrib. (-TS)   =       0.00000000 Ry
     internal energy E=F+TS    =   -1914.62079780 Ry

     The total energy is F=E-TS. E is the sum of the following terms:
     one-electron contribution =   -1043.31059112 Ry
     hartree contribution      =     585.51943156 Ry
     xc contribution           =    -252.99801631 Ry
     ewald contribution        =    -880.47019227 Ry
     one-center paw contrib.   =    -323.36142966 Ry
      -> PAW hartree energy AE =     875.92422295 Ry
      -> PAW hartree energy PS =    -872.59181504 Ry
      -> PAW xc energy AE      =    -477.28397294 Ry
      -> PAW xc energy PS      =     150.59013538 Ry
      -> total E_H with PAW    =     588.85183946 Ry
      -> total E_XC with PAW   =    -579.69185387 Ry

     convergence has been achieved in  30 iterations

     Forces acting on atoms (cartesian axes, Ry/au):

     atom    1 type  1   force =     0.00683015   -0.00455833   -0.00287687
     atom    2 type  1   force =    -0.00683015   -0.00455833   -0.00287687
     atom    3 type  2   force =    -0.01755963    0.01400545   -0.03150658
     atom    4 type  2   force =    -0.02652437   -0.02353884    0.04813034
     atom    5 type  2   force =     0.01755963    0.01400545   -0.03150658
     atom    6 type  2   force =     0.02652437   -0.02353884    0.04813034
     atom    7 type  3   force =    -0.00142872    0.00132899    0.00369014
     atom    8 type  3   force =     0.00142872    0.00132899    0.00369014
     atom    9 type  4   force =    -0.00477302    0.00479015   -0.00678337
     atom   10 type  4   force =    -0.00708146   -0.00041244    0.00440323
     atom   11 type  4   force =     0.00708146   -0.00041244    0.00440323
     atom   12 type  4   force =     0.00477302    0.00479015   -0.00678337
     atom   13 type  4   force =     0.00237385   -0.00573215    0.01138439
     atom   14 type  4   force =     0.01922056    0.01956740   -0.01582975
     atom   15 type  4   force =    -0.00464024   -0.00545022   -0.01061152
     atom   16 type  4   force =     0.00464024   -0.00545022   -0.01061152
     atom   17 type  4   force =    -0.00237385   -0.00573215    0.01138439
     atom   18 type  4   force =    -0.01922056    0.01956740   -0.01582975
     The non-local contrib.  to forces
     atom    1 type  1   force =     0.00619714   -0.01174426   -0.00970085
     atom    2 type  1   force =    -0.00619714   -0.01174426   -0.00970085
     atom    3 type  2   force =    -0.06705277    0.05757537   -0.11022251
     atom    4 type  2   force =    -0.07042979   -0.06841017    0.04633228
     atom    5 type  2   force =     0.06705277    0.05757537   -0.11022251
     atom    6 type  2   force =     0.07042979   -0.06841017    0.04633228
     atom    7 type  3   force =    -0.23080388    0.20488438    0.68335091
     atom    8 type  3   force =     0.23080388    0.20488438    0.68335091
     atom    9 type  4   force =    -0.15017767    0.08322161   -0.47299881
     atom   10 type  4   force =     0.37937218   -0.51905631   -0.02383938
     atom   11 type  4   force =    -0.37937218   -0.51905631   -0.02383938
     atom   12 type  4   force =     0.15017767    0.08322161   -0.47299881
     atom   13 type  4   force =     0.49295079    0.35619323    0.14424024
     atom   14 type  4   force =     0.07455516    0.06820131    0.36602637
     atom   15 type  4   force =    -0.08148262   -0.14633196   -0.50497063
     atom   16 type  4   force =     0.08148262   -0.14633196   -0.50497063
     atom   17 type  4   force =    -0.49295079    0.35619323    0.14424024
     atom   18 type  4   force =    -0.07455516    0.06820131    0.36602637
     The ionic contribution  to forces
     atom    1 type  1   force =     0.16500200   -0.03255602    0.12457942
     atom    2 type  1   force =    -0.16500200   -0.03255602    0.12457942
     atom    3 type  2   force =     0.70957280   -0.38107632   -1.01500648
     atom    4 type  2   force =     0.62601943    0.09660323    0.32975865
     atom    5 type  2   force =    -0.70957280   -0.38107632   -1.01500648
     atom    6 type  2   force =    -0.62601943    0.09660323    0.32975866
     atom    7 type  3   force =     2.16191229   -2.01025262   -7.76357484
     atom    8 type  3   force =    -2.16191229   -2.01025262   -7.76357484
     atom    9 type  4   force =     2.06116038   -1.49234119    7.44044836
     atom   10 type  4   force =    -8.05827735    9.01023452    0.61157822
     atom   11 type  4   force =     8.05827735    9.01023452    0.61157822
     atom   12 type  4   force =    -2.06116038   -1.49234119    7.44044836
     atom   13 type  4   force =    -9.01948785   -8.04007108   -0.61892063
     atom   14 type  4   force =     0.74907166    0.83639960   -6.81729785
     atom   15 type  4   force =     1.41354688    2.01305989    7.70843514
     atom   16 type  4   force =    -1.41354688    2.01305989    7.70843514
     atom   17 type  4   force =     9.01948785   -8.04007108   -0.61892063
     atom   18 type  4   force =    -0.74907166    0.83639960   -6.81729785
     The local contribution  to forces
     atom    1 type  1   force =    -0.16440210    0.03953780   -0.11794525
     atom    2 type  1   force =     0.16439344    0.03953760   -0.11778155
     atom    3 type  2   force =    -0.66996188    0.34679432    1.07683234
     atom    4 type  2   force =    -0.59501274   -0.06754728   -0.32906793
     atom    5 type  2   force =     0.66998113    0.34679277    1.07582047
     atom    6 type  2   force =     0.59506512   -0.06764124   -0.32889614
     atom    7 type  3   force =    -1.93486104    1.80862957    7.09179715
     atom    8 type  3   force =     1.93507434    1.80865984    7.09177907
     atom    9 type  4   force =    -1.91602374    1.41394559   -6.97441191
     atom   10 type  4   force =     7.67174750   -8.49175722   -0.58358646
     atom   11 type  4   force =    -7.67167396   -8.49163703   -0.58416521
     atom   12 type  4   force =     1.91607603    1.41407371   -6.97382714
     atom   13 type  4   force =     8.52875002    7.67777334    0.48522780
     atom   14 type  4   force =    -0.80410560   -0.88496371    6.43534617
     atom   15 type  4   force =    -1.33705024   -1.87275572   -7.21371966
     atom   16 type  4   force =     1.33698181   -1.87264683   -7.21425552
     atom   17 type  4   force =    -8.52884706    7.67787573    0.48582532
     atom   18 type  4   force =     0.80398857   -0.88482686    6.43536211
     The core correction contribution to forces
     atom    1 type  1   force =     0.00000000    0.00000000    0.00000000
     atom    2 type  1   force =     0.00000000    0.00000000    0.00000000
     atom    3 type  2   force =     0.00969231   -0.00935477    0.01688759
     atom    4 type  2   force =     0.01255411    0.01530639    0.00076174
     atom    5 type  2   force =    -0.00969142   -0.00935419    0.01688568
     atom    6 type  2   force =    -0.01255479    0.01530550    0.00076199
     atom    7 type  3   force =     0.00279722   -0.00254215   -0.00795101
     atom    8 type  3   force =    -0.00279665   -0.00254320   -0.00795129
     atom    9 type  4   force =     0.00000000    0.00000000    0.00000000
     atom   10 type  4   force =     0.00000000    0.00000000    0.00000000
     atom   11 type  4   force =     0.00000000    0.00000000    0.00000000
     atom   12 type  4   force =     0.00000000    0.00000000    0.00000000
     atom   13 type  4   force =     0.00000000    0.00000000    0.00000000
     atom   14 type  4   force =     0.00000000    0.00000000    0.00000000
     atom   15 type  4   force =     0.00000000    0.00000000    0.00000000
     atom   16 type  4   force =     0.00000000    0.00000000    0.00000000
     atom   17 type  4   force =     0.00000000    0.00000000    0.00000000
     atom   18 type  4   force =     0.00000000    0.00000000    0.00000000
     The Hubbard contrib.    to forces
     atom    1 type  1   force =     0.00000000    0.00000000    0.00000000
     atom    2 type  1   force =     0.00000000    0.00000000    0.00000000
     atom    3 type  2   force =     0.00000000    0.00000000    0.00000000
     atom    4 type  2   force =     0.00000000    0.00000000    0.00000000
     atom    5 type  2   force =     0.00000000    0.00000000    0.00000000
     atom    6 type  2   force =     0.00000000    0.00000000    0.00000000
     atom    7 type  3   force =     0.00000000    0.00000000    0.00000000
     atom    8 type  3   force =     0.00000000    0.00000000    0.00000000
     atom    9 type  4   force =     0.00000000    0.00000000    0.00000000
     atom   10 type  4   force =     0.00000000    0.00000000    0.00000000
     atom   11 type  4   force =     0.00000000    0.00000000    0.00000000
     atom   12 type  4   force =     0.00000000    0.00000000    0.00000000
     atom   13 type  4   force =     0.00000000    0.00000000    0.00000000
     atom   14 type  4   force =     0.00000000    0.00000000    0.00000000
     atom   15 type  4   force =     0.00000000    0.00000000    0.00000000
     atom   16 type  4   force =     0.00000000    0.00000000    0.00000000
     atom   17 type  4   force =     0.00000000    0.00000000    0.00000000
     atom   18 type  4   force =     0.00000000    0.00000000    0.00000000
     The SCF correction term to forces
     atom    1 type  1   force =     0.00003149   -0.00002125    0.00001985
     atom    2 type  1   force =    -0.00002608   -0.00002259   -0.00014067
     atom    3 type  2   force =     0.00018511   -0.00016290   -0.00023599
     atom    4 type  2   force =     0.00034867    0.00028024    0.00017671
     atom    5 type  2   force =    -0.00021484   -0.00015477    0.00091798
     atom    6 type  2   force =    -0.00039227    0.00038024    0.00000571
     atom    7 type  3   force =    -0.00045851    0.00041913   -0.00009286
     atom    8 type  3   force =     0.00027423    0.00031894   -0.00008967
     atom    9 type  4   force =     0.00027572   -0.00027258    0.00005031
     atom   10 type  4   force =     0.00008162   -0.00006082    0.00003504
     atom   11 type  4   force =    -0.00014434   -0.00017858    0.00070867
     atom   12 type  4   force =    -0.00031259   -0.00037961   -0.00061384
     atom   13 type  4   force =     0.00016300    0.00014031    0.00071357
     atom   14 type  4   force =    -0.00030592   -0.00029259   -0.00007628
     atom   15 type  4   force =     0.00033528    0.00033929   -0.00055886
     atom   16 type  4   force =    -0.00028778    0.00025463    0.00004524
     atom   17 type  4   force =    -0.00006175    0.00004968    0.00002614
     atom   18 type  4   force =     0.00041244   -0.00043621   -0.00008526

     Total force =     0.115419     Total SCF correction =     0.002303

     Computing stress (Cartesian axis) and pressure

          total   stress  (Ry/bohr**3)                   (kbar)     P=     -518.45
  -0.00349188   0.00000000   0.00000000         -513.67        0.00        0.00
   0.00000000  -0.00350676   0.00016601            0.00     -515.86       24.42
   0.00000000   0.00016601  -0.00357436            0.00       24.42     -525.81

     kinetic stress (kbar)  28766.69      0.00      0.00
                                0.00  28746.96     61.71
                                0.00     61.71  28684.75

     local   stress (kbar)   1916.69     -0.07      0.06
                               -0.07   1906.53    970.88
                                0.06    970.88 -11718.29

     nonloc. stress (kbar)  -8299.31      0.00      0.00
                                0.00  -8303.59     49.67
                                0.00     49.67  -8264.12

     hartree stress (kbar)  18679.78      0.04     -0.03
                                0.04  18686.13   -351.47
                               -0.03   -351.47  24104.80

     exc-cor stress (kbar)  -4279.53      0.00     -0.00
                                0.00  -4279.88     -1.66
                               -0.00     -1.66  -4272.77

     corecor stress (kbar)  -3728.21     -0.00      0.00
                               -0.00  -3727.40     -3.93
                                0.00     -3.93  -3738.49

     ewald   stress (kbar) -33569.78      0.00      0.00
                                0.00 -33544.62   -700.79
                                0.00   -700.79 -25321.69

     hubbard stress (kbar)      0.00      0.00      0.00
                                0.00      0.00      0.00
                                0.00      0.00      0.00

     DFT-D   stress (kbar)      0.00      0.00      0.00
                                0.00      0.00      0.00
                                0.00      0.00      0.00

     XDM     stress (kbar)      0.00      0.00      0.00
                                0.00      0.00      0.00
                                0.00      0.00      0.00

     dft-nl  stress (kbar)      0.00      0.00      0.00
                                0.00      0.00      0.00
                                0.00      0.00      0.00

     TS-vdW  stress (kbar)      0.00      0.00      0.00
                                0.00      0.00      0.00
                                0.00      0.00      0.00

[...]

                                0.00      0.00      0.00

     Writing all to output data dir new_calculations/myprefix.save/

     General routines

     Parallel routines

     PAW routines

   This run was terminated on:   6:25:20  20May2023

   JOB DONE.