     Program PWSCF v.7.0 starts on 20May2023 at  5: 1:13

     Reading input from espresso_13099.pwi
Warning: card &CELL ignored
Warning: card / ignored

     Current dimensions of program PWSCF are:
     Max number of different atomic species (ntypx) = 10
     Max number of k-points (npk) =  40000
     Max angular momentum in pseudopotentials (lmaxx) =  4
     file O.pbe-n-kjpaw_psl.0.1.UPF: wavefunction(s)  2P renormalized

     gamma-point specific algorithms are used

     Subspace diagonalization in iterative solution of the eigenvalue problem:
     a serial algorithm will be used

     Using Slab Decomposition

     bravais-lattice index     =            0
     lattice parameter (alat)  =      10.4584  a.u.
     unit-cell volume          =    1632.6256 (a.u.)^3
     number of atoms/cell      =           20
     number of atomic types    =            4
     number of electrons       =       171.00
     number of Kohn-Sham states=          103
     kinetic-energy cutoff     =      30.0000  Ry
     charge density cutoff     =     240.0000  Ry
     scf convergence threshold =      1.0E-06
     mixing beta               =       0.7000
     number of iterations used =            8  plain     mixing
     Exchange-correlation= SLA  PW   PBX  PBC
                           (   1   4   3   4   0   0   0)

     celldm(1)=  10.458353  celldm(2)=   0.000000  celldm(3)=   0.000000
     celldm(4)=   0.000000  celldm(5)=   0.000000  celldm(6)=   0.000000

     crystal axes: (cart. coord. in units of alat)
               a(1) = (   1.000000   0.000000   0.000000 )
               a(2) = (  -0.025055   1.413355   0.000000 )
               a(3) = (  -0.011504  -0.001495   1.009823 )

     reciprocal axes: (cart. coord. in units 2 pi/alat)
               b(1) = (  1.000000  0.017728  0.011418 )
               b(2) = (  0.000000  0.707536  0.001047 )
               b(3) = (  0.000000  0.000000  0.990272 )

     PseudoPot. # 1 for Sr read from file:
     /home/pragov/projects/rrg-bengioy-ad/pragov/crystal_structure_design/SSSP/Sr_pbe_v1.uspp.F.UPF
     MD5 check sum: 6b418c05fbe9db5448babca5e47b7a5b
     Pseudo is Ultrasoft + core correction, Zval = 10.0
     Generated by new atomic code, or converted to UPF format
     Using radial grid of  883 points,  6 beta functions with:
                l(1) =   0
                l(2) =   0
                l(3) =   1
                l(4) =   1
                l(5) =   2
                l(6) =   2
     Q(r) pseudized with  6 coefficients,  rinner =    1.400   1.400   1.400
                                                       1.400   1.400

     PseudoPot. # 2 for La read from file:
     /home/pragov/projects/rrg-bengioy-ad/pragov/crystal_structure_design/SSSP/La.GGA-PBE-paw-v1.0.UPF
     MD5 check sum: 436541e95c1ad8901025bd0b0ed42ae2
     Pseudo is Projector augmented-wave + core cor, Zval = 11.0
     Generated using ATOMPAW code
     Shape of augmentation charge: BESSEL
     Using radial grid of 1101 points,  8 beta functions with:
                l(1) =   0
                l(2) =   0
                l(3) =   1
                l(4) =   1
                l(5) =   2
                l(6) =   2
                l(7) =   3
                l(8) =   3
     Q(r) pseudized with 0 coefficients

     PseudoPot. # 3 for Cr read from file:
     /home/pragov/projects/rrg-bengioy-ad/pragov/crystal_structure_design/SSSP/cr_pbe_v1.5.uspp.F.UPF
     MD5 check sum: 0d52af634a40206e4dee301ad30da4bf
     Pseudo is Ultrasoft + core correction, Zval = 14.0
     Generated by new atomic code, or converted to UPF format
     Using radial grid of  857 points,  6 beta functions with:
                l(1) =   0
                l(2) =   0
                l(3) =   1
                l(4) =   1
                l(5) =   2
                l(6) =   2
     Q(r) pseudized with  8 coefficients,  rinner =    0.950   0.950   0.950
                                                       0.950   0.950

     PseudoPot. # 4 for O  read from file:
     /home/pragov/projects/rrg-bengioy-ad/pragov/crystal_structure_design/SSSP/O.pbe-n-kjpaw_psl.0.1.UPF
     MD5 check sum: 0234752ac141de4415c5fc33072bef88
     Pseudo is Projector augmented-wave + core cor, Zval =  6.0
     Generated using "atomic" code by A. Dal Corso  v.5.0.99 svn rev. 10869
     Shape of augmentation charge: BESSEL
     Using radial grid of 1095 points,  4 beta functions with:
                l(1) =   0
                l(2) =   0
                l(3) =   1
                l(4) =   1
     Q(r) pseudized with 0 coefficients

     atomic species   valence    mass     pseudopotential
        Sr            10.00    87.62000     Sr( 1.00)
        La            11.00   138.90547     La( 1.00)
        Cr            14.00    51.99610     Cr( 1.00)
        O              6.00    15.99900     O ( 1.00)

     No symmetry found

                                    s                        frac. trans.

      isym =  1     identity

 cryst.   s( 1) = (     1          0          0      )
                  (     0          1          0      )
                  (     0          0          1      )

 cart.    s( 1) = (  1.0000000 -0.0000000  0.0000000 )
                  (  0.0000000  1.0000000 -0.0000000 )
                  (  0.0000000  0.0000000  1.0000000 )

   Cartesian axes

     site n.     atom                  positions (alat units)
         1           Sr  tau(   1) = (   0.4935216   0.3502617   0.0029820  )
         2           La  tau(   2) = (  -0.0243262   1.0628498   0.5014177  )
         3           La  tau(   3) = (   0.4701807   1.0646870   1.0086308  )
         4           La  tau(   4) = (   0.9863117   0.3482153   0.5061386  )
         5           Cr  tau(   5) = (   0.9999699   0.0012003   0.0006867  )
         6           Cr  tau(   6) = (   0.4807644   0.7022556   0.5038645  )
         7           Cr  tau(   7) = (   0.9758406   0.7042493   1.0094033  )
         8           Cr  tau(   8) = (   0.4697827   1.4124652   0.5046795  )
         9           O   tau(   9) = (  -0.0185404   1.0580057   0.0624848  )
        10           O   tau(  10) = (   0.4858501   0.3641427   0.5574821  )
        11           O   tau(  11) = (   0.9823890   0.3531597   0.9422006  )
        12           O   tau(  12) = (   0.4777138   1.0510475   0.4427611  )
        13           O   tau(  13) = (   0.1987399   0.7534681   0.7237425  )
        14           O   tau(  14) = (   0.7488102   1.3644416   0.7247543  )
        15           O   tau(  15) = (   0.7194709   0.0313200   0.2262934  )
        16           O   tau(  16) = (   0.2683045   0.6724891   0.2334752  )
        17           O   tau(  17) = (   0.6930145   0.7586371   0.7779326  )
        18           O   tau(  18) = (   0.2467102   1.3593152   0.7859607  )
        19           O   tau(  19) = (   0.2100975   0.0391509   0.2915845  )
        20           O   tau(  20) = (   0.7698030   0.6672427   0.2917572  )

   Crystallographic axes

     site n.     atom                  positions (cryst. coord.)
         1           Sr  tau(   1) = (  0.4997650  0.2478260  0.0029530  )
         2           La  tau(   2) = (  0.0002410  0.7525300  0.4965400  )
         3           La  tau(   3) = (  0.5005720  0.7543610  0.9988190  )
         4           La  tau(   4) = (  0.9982640  0.2469050  0.5012150  )
         5           Cr  tau(   5) = (  0.9999990  0.0008500  0.0006800  )
         6           Cr  tau(   6) = (  0.4989670  0.4973990  0.4989630  )
         7           Cr  tau(   7) = (  0.9998510  0.4993390  0.9995840  )
         8           Cr  tau(   8) = (  0.5005850  0.9998990  0.4997700  )
         9           O   tau(   9) = (  0.0009290  0.7486430  0.0618770  )
        10           O   tau(  10) = (  0.4986710  0.2582280  0.5520590  )
        11           O   tau(  11) = (  0.9994080  0.2508600  0.9330350  )
        12           O   tau(  12) = (  0.5014020  0.7441180  0.4384540  )
        13           O   tau(  13) = (  0.2203610  0.5338640  0.7167020  )
        14           O   tau(  14) = (  0.7812740  0.9661510  0.7177040  )
        15           O   tau(  15) = (  0.7226100  0.0223970  0.2240920  )
        16           O   tau(  16) = (  0.2828920  0.4760550  0.2312040  )
        17           O   tau(  17) = (  0.7153460  0.5375780  0.7703650  )
        18           O   tau(  18) = (  0.2797820  0.9625880  0.7783150  )
        19           O   tau(  19) = (  0.2141210  0.0280060  0.2887480  )
        20           O   tau(  20) = (  0.7849630  0.4724040  0.2889190  )

     number of k points=     1  Methfessel-Paxton smearing, width (Ry)=  0.0010
                       cart. coord. in units 2pi/alat
        k(    1) = (   0.0000000   0.0000000   0.0000000), wk =   2.0000000

                       cryst. coord.
        k(    1) = (   0.0000000   0.0000000   0.0000000), wk =   2.0000000

     Check: negative core charge=   -0.000015

     Initial potential from superposition of free atoms

     starting charge     166.9407, renormalised to     171.0000

     negative rho (up, down):  7.328E-02 0.000E+00
     Starting wfcs are  197 randomized atomic wfcs
     Checking if some PAW data can be deallocated...

     Self-consistent Calculation

     iteration #  1     ecut=    30.00 Ry     beta= 0.70
     Davidson diagonalization with overlap

     ethr =  1.00E-02,  avg # of iterations =  2.0

     negative rho (up, down):  7.658E-02 0.000E+00

     total energy              =   -2644.63907655 Ry
     estimated scf accuracy    <       4.98268077 Ry

[...]

     c_bands:  1 eigenvalues not converged
     ethr =  9.34E-06,  avg # of iterations = 20.0

[...]

     total energy              =   -2647.66341113 Ry
     estimated scf accuracy    <       0.00001195 Ry

     iteration # 28     ecut=    30.00 Ry     beta= 0.70
     Davidson diagonalization with overlap

     ethr =  8.70E-10,  avg # of iterations =  2.0

[...]

     End of self-consistent calculation

          k = 0.0000 0.0000 0.0000 (  2257 PWs)   bands (ev):

   -59.7416 -59.5404 -59.5384 -59.5104 -31.2094 -31.1128 -30.9923 -30.9731
   -30.9649 -30.8852 -30.8574 -30.8336 -30.8088 -30.7071 -30.7017 -30.6708
   -21.3948 -19.2307 -19.1986 -19.0585  -6.8718  -6.3142  -6.1682  -6.0010
    -5.8192  -5.7440  -5.6375  -5.5279  -5.4646  -5.3039  -5.2737  -5.2125
    -3.5665  -3.3209  -3.2984  -3.1148  -2.7945  -2.7501  -2.7371  -2.6783
    -2.5944  -2.3643  -2.1890  -1.9821   6.1129   6.5075   6.7582   6.8268
     7.2856   7.3474   7.4453   7.7030   7.7959   7.9264   8.0133   8.0528
     8.1332   8.1646   8.2214   8.2587   8.3381   8.4803   8.7532   8.9532
     8.9795   9.0062   9.5029   9.6968   9.7962   9.8722   9.9387  10.2144
    10.2358  10.3116  10.3619  10.3885  10.6621  10.7071  10.7630  10.8838
    12.1574  12.1619  12.2141  12.2582  13.2098  13.2648  13.3573  13.4468
    13.5719  13.6099  13.6267  13.8876  14.1247  14.2244  14.2615  14.5910
    15.4356  15.5956  15.6419  15.7372  15.7814  15.8416  15.8599

     occupation numbers
     1.0000   1.0000   1.0000   1.0000   1.0000   1.0000   1.0000   1.0000
     1.0000   1.0000   1.0000   1.0000   1.0000   1.0000   1.0000   1.0000
     1.0000   1.0000   1.0000   1.0000   1.0000   1.0000   1.0000   1.0000
     1.0000   1.0000   1.0000   1.0000   1.0000   1.0000   1.0000   1.0000
     1.0000   1.0000   1.0000   1.0000   1.0000   1.0000   1.0000   1.0000
     1.0000   1.0000   1.0000   1.0000   1.0000   1.0000   1.0000   1.0000
     1.0000   1.0000   1.0000   1.0000   1.0000   1.0000   1.0000   1.0000
     1.0000   1.0000   1.0000   1.0000   1.0000   1.0000   1.0000   1.0000
     1.0000   1.0000   1.0000   1.0000   1.0000   1.0000   1.0000   1.0000
     1.0000   1.0000   1.0000   1.0000   1.0000   1.0000   1.0000   1.0000
     1.0000   1.0000   1.0000   1.0000   1.0000   0.5000  -0.0000  -0.0000
    -0.0000  -0.0000  -0.0000  -0.0000  -0.0000  -0.0000  -0.0000  -0.0000
    -0.0000  -0.0000  -0.0000  -0.0000  -0.0000  -0.0000  -0.0000

     the Fermi energy is    13.2648 ev

!    total energy              =   -2647.66341109 Ry
     estimated scf accuracy    <       0.00000036 Ry
     smearing contrib. (-TS)   =      -0.00028209 Ry
     internal energy E=F+TS    =   -2647.66312900 Ry

     The total energy is F=E-TS. E is the sum of the following terms:
     one-electron contribution =    -460.90691631 Ry
     hartree contribution      =     338.83219415 Ry
     xc contribution           =    -223.62821237 Ry
     ewald contribution        =    -993.40410053 Ry
     one-center paw contrib.   =   -1308.55609393 Ry
      -> PAW hartree energy AE =     459.35030724 Ry
      -> PAW hartree energy PS =    -458.21552903 Ry
      -> PAW xc energy AE      =   -1421.96098690 Ry
      -> PAW xc energy PS      =     112.27011475 Ry
      -> total E_H with PAW    =     339.96697236 Ry
      -> total E_XC with PAW   =   -1533.31908452 Ry

     convergence has been achieved in  28 iterations

     negative rho (up, down):  7.599E-02 0.000E+00

     Forces acting on atoms (cartesian axes, Ry/au):

     atom    1 type  1   force =    -0.00076314    0.00671917    0.01097322
     atom    2 type  2   force =     0.00082932   -0.01178175    0.00689482
     atom    3 type  2   force =     0.00274401   -0.01130455   -0.00546909
     atom    4 type  2   force =    -0.00236799    0.00992779   -0.00689284
     atom    5 type  3   force =    -0.00760756   -0.01272400    0.00646223
     atom    6 type  3   force =    -0.00493815    0.00905755   -0.00483462
     atom    7 type  3   force =     0.01107972    0.01160660    0.00796683
     atom    8 type  3   force =     0.00599583   -0.00270727   -0.00535296
     atom    9 type  4   force =    -0.00006390    0.00279261    0.02289656
     atom   10 type  4   force =     0.00169634   -0.03284710    0.02700535
     atom   11 type  4   force =    -0.00036518   -0.00266662   -0.01711296
     atom   12 type  4   force =    -0.00220423    0.02935189   -0.02480334
     atom   13 type  4   force =    -0.01977475    0.02297518    0.00646244
     atom   14 type  4   force =     0.00482104   -0.01181454    0.00499506
     atom   15 type  4   force =    -0.00933217    0.02431846   -0.00565813
     atom   16 type  4   force =    -0.01791321   -0.02598742   -0.03287184
     atom   17 type  4   force =     0.01920150    0.02087174    0.02922419
     atom   18 type  4   force =     0.00389242   -0.01301917    0.00068827
     atom   19 type  4   force =     0.00175351    0.01421022   -0.01085158
     atom   20 type  4   force =     0.01331661   -0.02697878   -0.00972160
     The non-local contrib.  to forces
     atom    1 type  1   force =    -0.00107998    0.00510290   -0.01249784
     atom    2 type  2   force =    -0.00083431   -0.01112063   -0.02086365
     atom    3 type  2   force =     0.00608898   -0.02131183    0.02963623
     atom    4 type  2   force =     0.00192532    0.01224319    0.01326540
     atom    5 type  3   force =     0.00983497    0.01478831   -0.01208581
     atom    6 type  3   force =    -0.00070642   -0.01434560   -0.00322977
     atom    7 type  3   force =    -0.01249405   -0.02014104   -0.01407531
     atom    8 type  3   force =    -0.00010855    0.01348583    0.00300345
     atom    9 type  4   force =    -0.00621294    0.01117758   -0.16075905
     atom   10 type  4   force =     0.00527451    0.00953232   -0.17727969
     atom   11 type  4   force =     0.00393327   -0.01412400    0.17723822
     atom   12 type  4   force =     0.00036401    0.07193781    0.14515638
     atom   13 type  4   force =     0.02201862   -0.06640966    0.07192094
     atom   14 type  4   force =    -0.05293600    0.06028035    0.06306661
     atom   15 type  4   force =     0.07228085   -0.08515451    0.08900352
     atom   16 type  4   force =    -0.06137305    0.05253463    0.08821981
     atom   17 type  4   force =     0.06086689   -0.04295085   -0.05402363
     atom   18 type  4   force =    -0.03951071    0.05830307   -0.07055601
     atom   19 type  4   force =     0.05390321   -0.07740030   -0.07687983
     atom   20 type  4   force =    -0.04705157    0.06361523   -0.08287998
     The ionic contribution  to forces
     atom    1 type  1   force =    -0.01906163    0.27476554   -0.33189401
     atom    2 type  2   force =     0.06362326   -0.32011298    0.29008393
     atom    3 type  2   force =     0.01697864   -0.60140505    0.17061915
     atom    4 type  2   force =     0.03600719    0.30558672   -0.09882471
     atom    5 type  3   force =     0.41024966    1.77933851   -0.31895122
     atom    6 type  3   force =     0.13660325   -1.00680697    0.39058995
     atom    7 type  3   force =    -0.30202714   -1.73922842   -0.25636748
     atom    8 type  3   force =    -0.15909003    1.83113005    0.41271346
     atom    9 type  4   force =     0.02975146    0.02881956    1.20374210
     atom   10 type  4   force =    -0.02216074   -2.17134554    1.99277367
     atom   11 type  4   force =     0.01481862    0.01663850   -1.31104052
     atom   12 type  4   force =     0.00572119    1.03158289   -1.58527709
     atom   13 type  4   force =    -0.95037625    0.55615513    0.11467342
     atom   14 type  4   force =     0.61170900   -0.52795176   -0.33961888
     atom   15 type  4   force =    -0.92745524    1.60710990   -1.15501198
     atom   16 type  4   force =    -0.24640451   -1.60769024   -2.60480304
     atom   17 type  4   force =     0.15326073    0.65709338    2.24054148
     atom   18 type  4   force =     0.68196879   -0.29304643    0.97952074
     atom   19 type  4   force =    -0.64482487    1.59118210    0.34093900
     atom   20 type  4   force =     1.11070863   -1.41181491   -0.13440798
     The local contribution  to forces
     atom    1 type  1   force =     0.01928597   -0.27278056    0.35447340
     atom    2 type  2   force =    -0.06194273    0.31936513   -0.26242906
     atom    3 type  2   force =    -0.02034138    0.61139124   -0.20560747
     atom    4 type  2   force =    -0.04026507   -0.30778550    0.07867119
     atom    5 type  3   force =    -0.42763447   -1.80512208    0.33717381
     atom    6 type  3   force =    -0.14118389    1.02745170   -0.39301565
     atom    7 type  3   force =     0.32524332    1.76901267    0.27794293
     atom    8 type  3   force =     0.16533623   -1.84636813   -0.42167941
     atom    9 type  4   force =    -0.02365135   -0.03682533   -1.02269385
     atom   10 type  4   force =     0.01862720    2.12855029   -1.79074016
     atom   11 type  4   force =    -0.01903594   -0.00557339    1.11965628
     atom   12 type  4   force =    -0.00830677   -1.07317172    1.41751011
     atom   13 type  4   force =     0.90893006   -0.46813034   -0.17875098
     atom   14 type  4   force =    -0.55450297    0.45704891    0.28313000
     atom   15 type  4   force =     0.84732110   -1.49869032    1.06104347
     atom   16 type  4   force =     0.28843580    1.52980024    2.48427178
     atom   17 type  4   force =    -0.19347509   -0.59431058   -2.15766677
     atom   18 type  4   force =    -0.63985081    0.22312315   -0.90895230
     atom   19 type  4   force =     0.59329481   -1.50070383   -0.27675606
     atom   20 type  4   force =    -1.05103472    1.32227678    0.20592964
     The core correction contribution to forces
     atom    1 type  1   force =     0.00004954   -0.00033215    0.00092083
     atom    2 type  2   force =     0.00000112    0.00002947    0.00003877
     atom    3 type  2   force =    -0.00001146    0.00003221   -0.00004259
     atom    4 type  2   force =     0.00000221   -0.00002808   -0.00003284
     atom    5 type  3   force =    -0.00003848   -0.00147210    0.00034183
     atom    6 type  3   force =     0.00024411    0.00241951    0.00057789
     atom    7 type  3   force =     0.00047523    0.00165045    0.00068062
     atom    8 type  3   force =    -0.00015821   -0.00070879    0.00059845
     atom    9 type  4   force =     0.00005450   -0.00020834    0.00257112
     atom   10 type  4   force =    -0.00008291    0.00062776    0.00225519
     atom   11 type  4   force =    -0.00003869    0.00021723   -0.00284008
     atom   12 type  4   force =     0.00001750   -0.00122235   -0.00229266
     atom   13 type  4   force =    -0.00051240    0.00123350   -0.00125456
     atom   14 type  4   force =     0.00095281   -0.00111098   -0.00110767
     atom   15 type  4   force =    -0.00105875    0.00114544   -0.00115757
     atom   16 type  4   force =     0.00124822   -0.00071800   -0.00068465
     atom   17 type  4   force =    -0.00129072    0.00094839    0.00050740
     atom   18 type  4   force =     0.00086925   -0.00131591    0.00113050
     atom   19 type  4   force =    -0.00102525    0.00123278    0.00136947
     atom   20 type  4   force =     0.00085510   -0.00112272    0.00148713
     The Hubbard contrib.    to forces
     atom    1 type  1   force =     0.00000000    0.00000000    0.00000000
     atom    2 type  2   force =     0.00000000    0.00000000    0.00000000
     atom    3 type  2   force =     0.00000000    0.00000000    0.00000000
     atom    4 type  2   force =     0.00000000    0.00000000    0.00000000
     atom    5 type  3   force =     0.00000000    0.00000000    0.00000000
     atom    6 type  3   force =     0.00000000    0.00000000    0.00000000
     atom    7 type  3   force =     0.00000000    0.00000000    0.00000000
     atom    8 type  3   force =     0.00000000    0.00000000    0.00000000
     atom    9 type  4   force =     0.00000000    0.00000000    0.00000000
     atom   10 type  4   force =     0.00000000    0.00000000    0.00000000
     atom   11 type  4   force =     0.00000000    0.00000000    0.00000000
     atom   12 type  4   force =     0.00000000    0.00000000    0.00000000
     atom   13 type  4   force =     0.00000000    0.00000000    0.00000000
     atom   14 type  4   force =     0.00000000    0.00000000    0.00000000
     atom   15 type  4   force =     0.00000000    0.00000000    0.00000000
     atom   16 type  4   force =     0.00000000    0.00000000    0.00000000
     atom   17 type  4   force =     0.00000000    0.00000000    0.00000000
     atom   18 type  4   force =     0.00000000    0.00000000    0.00000000
     atom   19 type  4   force =     0.00000000    0.00000000    0.00000000
     atom   20 type  4   force =     0.00000000    0.00000000    0.00000000
     The SCF correction term to forces
     atom    1 type  1   force =     0.00004171   -0.00003442   -0.00002694
     atom    2 type  2   force =    -0.00001928    0.00005940    0.00006704
     atom    3 type  2   force =     0.00002797   -0.00000897   -0.00007219
     atom    4 type  2   force =    -0.00003889   -0.00008640    0.00003035
     atom    5 type  3   force =    -0.00002051   -0.00025449   -0.00001416
     atom    6 type  3   force =     0.00010354    0.00034105    0.00024518
     atom    7 type  3   force =    -0.00011890    0.00031507   -0.00021172
     atom    8 type  3   force =     0.00001514   -0.00024408    0.00001330
     atom    9 type  4   force =    -0.00000683   -0.00016872    0.00003845
     atom   10 type  4   force =     0.00003702   -0.00020978   -0.00000144
     atom   11 type  4   force =    -0.00004369    0.00017718   -0.00012465
     atom   12 type  4   force =    -0.00000142    0.00022740    0.00010213
     atom   13 type  4   force =     0.00016397    0.00012869   -0.00012416
     atom   14 type  4   force =    -0.00040306   -0.00007891   -0.00047278
     atom   15 type  4   force =    -0.00042138   -0.00008990    0.00046665
     atom   16 type  4   force =     0.00017907    0.00008809    0.00012648
     atom   17 type  4   force =    -0.00016156    0.00009354   -0.00013207
     atom   18 type  4   force =     0.00041464   -0.00008091   -0.00045244
     atom   19 type  4   force =     0.00040435   -0.00009838    0.00047807
     atom   20 type  4   force =    -0.00016208    0.00006898    0.00015182

     Total force =     0.112609     Total SCF correction =     0.001577

     Computing stress (Cartesian axis) and pressure

     negative rho (up, down):  7.599E-02 0.000E+00
          total   stress  (Ry/bohr**3)                   (kbar)     P=     -453.70
  -0.00270411   0.00004513   0.00004224         -397.79        6.64        6.21
   0.00004513  -0.00377945  -0.00000410            6.64     -555.98       -0.60
   0.00004224  -0.00000410  -0.00276901            6.21       -0.60     -407.34

     kinetic stress (kbar)  26284.35    -27.34      0.82
                              -27.34  25941.26     -9.77
                                0.82     -9.77  26305.26

     local   stress (kbar)  -8798.74   1258.00   -480.83
                             1258.00  -9981.06     74.01
                             -480.83     74.01 -10718.60

     nonloc. stress (kbar)   9056.35     -0.55     -3.46
                               -0.55   8994.67     -3.80
                               -3.46     -3.80   9001.50

     hartree stress (kbar)   9818.67   -416.63    180.60
                             -416.63  10262.17    -24.71
                              180.60    -24.71  10449.09

     exc-cor stress (kbar)  -3857.19     -2.57      0.76
                               -2.57  -3853.50     -0.22
                                0.76     -0.22  -3852.75

     corecor stress (kbar)  -2302.27      0.53      0.09
                                0.53  -2299.48      0.16
                                0.09      0.16  -2301.74

     ewald   stress (kbar) -30598.95   -804.79    308.25
                             -804.79 -29620.02    -36.28
                              308.25    -36.28 -29290.09

     hubbard stress (kbar)      0.00      0.00      0.00
                                0.00      0.00      0.00
                                0.00      0.00      0.00

     DFT-D   stress (kbar)      0.00      0.00      0.00
                                0.00      0.00      0.00
                                0.00      0.00      0.00

     XDM     stress (kbar)      0.00      0.00      0.00
                                0.00      0.00      0.00
                                0.00      0.00      0.00

     dft-nl  stress (kbar)      0.00      0.00      0.00
                                0.00      0.00      0.00
                                0.00      0.00      0.00

     TS-vdW  stress (kbar)      0.00      0.00      0.00
                                0.00      0.00      0.00
                                0.00      0.00      0.00

[...]

                                0.00      0.00      0.00

     Writing all to output data dir new_calculations/myprefix.save/

     General routines

     Parallel routines

     PAW routines

   This run was terminated on:   5: 2:37  20May2023

   JOB DONE.