     Program PWSCF v.7.0 starts on 20May2023 at  8:30:51

     Reading input from espresso_18165.pwi
Warning: card &CELL ignored
Warning: card / ignored

     Current dimensions of program PWSCF are:
     Max number of different atomic species (ntypx) = 10
     Max number of k-points (npk) =  40000
     Max angular momentum in pseudopotentials (lmaxx) =  4
     file C.pbe-n-kjpaw_psl.1.0.0.UPF: wavefunction(s)  2S 2P renormalized

     gamma-point specific algorithms are used
     Message from routine setup:
     using ibrav=0 with symmetry is DISCOURAGED, use correct ibrav instead

     Subspace diagonalization in iterative solution of the eigenvalue problem:
     a serial algorithm will be used

     Using Slab Decomposition

     bravais-lattice index     =            0
     lattice parameter (alat)  =      10.9638  a.u.
     unit-cell volume          =     502.4820 (a.u.)^3
     number of atoms/cell      =            6
     number of atomic types    =            4
     number of electrons       =        65.00
     number of Kohn-Sham states=           40
     kinetic-energy cutoff     =      30.0000  Ry
     charge density cutoff     =     240.0000  Ry
     scf convergence threshold =      1.0E-06
     mixing beta               =       0.7000
     number of iterations used =            8  plain     mixing
     Exchange-correlation= SLA  PW   PBX  PBC
                           (   1   4   3   4   0   0   0)

     celldm(1)=  10.963766  celldm(2)=   0.000000  celldm(3)=   0.000000
     celldm(4)=   0.000000  celldm(5)=   0.000000  celldm(6)=   0.000000

     crystal axes: (cart. coord. in units of alat)
               a(1) = (   1.000000   0.000000   0.000000 )
               a(2) = (   0.569612   0.821914   0.000000 )
               a(3) = (  -0.784806  -0.410957   0.463890 )

     reciprocal axes: (cart. coord. in units 2 pi/alat)
               b(1) = (  1.000000 -0.693032  1.077842 )
               b(2) = (  0.000000  1.216673  1.077842 )
               b(3) = (  0.000000  0.000000  2.155683 )

     PseudoPot. # 1 for Ho read from file:
     /home/pragov/projects/rrg-bengioy-ad/pragov/crystal_structure_design/SSSP/Ho.GGA-PBE-paw-v1.0.UPF
     MD5 check sum: 3d93cae5f38e6cc822e0e70538981326
     Pseudo is Projector augmented-wave + core cor, Zval = 21.0
     Generated using ATOMPAW code
     Shape of augmentation charge: BESSEL
     Using radial grid of 1114 points,  8 beta functions with:
                l(1) =   0
                l(2) =   0
                l(3) =   1
                l(4) =   1
                l(5) =   2
                l(6) =   2
                l(7) =   3
                l(8) =   3
     Q(r) pseudized with 0 coefficients

     PseudoPot. # 2 for B  read from file:
     /home/pragov/projects/rrg-bengioy-ad/pragov/crystal_structure_design/SSSP/b_pbe_v1.4.uspp.F.UPF
     MD5 check sum: cc6de2960df11db49a60e589f9ebb39b
     Pseudo is Ultrasoft + core correction, Zval =  3.0
     Generated by new atomic code, or converted to UPF format
     Using radial grid of  781 points,  4 beta functions with:
                l(1) =   0
                l(2) =   0
                l(3) =   1
                l(4) =   1
     Q(r) pseudized with  8 coefficients,  rinner =    1.100   1.100   1.100

     PseudoPot. # 3 for Rh read from file:
     /home/pragov/projects/rrg-bengioy-ad/pragov/crystal_structure_design/SSSP/Rh_ONCV_PBE-1.0.oncvpsp.upf
     MD5 check sum: ba07c69523b14cacd10683cd4c4284c1
     Pseudo is Norm-conserving, Zval = 17.0
     Generated using ONCVPSP code by D. R. Hamann
     Using radial grid of 1442 points,  6 beta functions with:
                l(1) =   0
                l(2) =   0
                l(3) =   1
                l(4) =   1
                l(5) =   2
                l(6) =   2

     PseudoPot. # 4 for C  read from file:
     /home/pragov/projects/rrg-bengioy-ad/pragov/crystal_structure_design/SSSP/C.pbe-n-kjpaw_psl.1.0.0.UPF
     MD5 check sum: 5d2aebdfa2cae82b50a7e79e9516da0f
     Pseudo is Projector augmented-wave + core cor, Zval =  4.0
     Generated using "atomic" code by A. Dal Corso  v.5.1
     Shape of augmentation charge: PSQ
     Using radial grid of 1073 points,  4 beta functions with:
                l(1) =   0
                l(2) =   0
                l(3) =   1
                l(4) =   1
     Q(r) pseudized with 0 coefficients

     atomic species   valence    mass     pseudopotential
        Ho            21.00   164.93033     Ho( 1.00)
        B              3.00    10.81000     B ( 1.00)
        Rh            17.00   102.90550     Rh( 1.00)
        C              4.00    12.01100     C ( 1.00)

      4 Sym. Ops., with inversion, found

                                    s                        frac. trans.

      isym =  1     identity

 cryst.   s( 1) = (     1          0          0      )
                  (     0          1          0      )
                  (     0          0          1      )

 cart.    s( 1) = (  1.0000000  0.0000000  0.0000000 )
                  (  0.0000000  1.0000000  0.0000000 )
                  (  0.0000000  0.0000000  1.0000000 )

      isym =  2     180 deg rotation - cart. axis [0,0,1]

[...]

      isym =  3     inversion

[...]

      isym =  4     inv. 180 deg rotation - cart. axis [0,0,1]

 cryst.   s( 4) = (     1          0          0      )
                  (     0          1          0      )
                  (    -1         -1         -1      )

 cart.    s( 4) = (  1.0000000  0.0000000  0.0000000 )
                  (  0.0000000  1.0000000  0.0000000 )
                  (  0.0000000  0.0000000 -1.0000000 )

   Cartesian axes

     site n.     atom                  positions (alat units)
         1           Ho  tau(   1) = (   0.0000000   0.0000000   0.0000000  )
         2           B   tau(   2) = (   1.0127326   0.5303085   0.0000000  )
         3           B   tau(   3) = (   0.5568795   0.2916051   0.0000000  )
         4           Rh  tau(   4) = (   0.2848061   0.4109568   0.2319450  )
         5           Rh  tau(   5) = (   0.5000000  -0.0000000   0.2319450  )
         6           C   tau(   6) = (   0.7848061   0.4109568   0.0000000  )

   Crystallographic axes

     site n.     atom                  positions (cryst. coord.)
         1           Ho  tau(   1) = (  0.0000000  0.0000000  0.0000000  )
         2           B   tau(   2) = (  0.6452120  0.6452120  0.0000000  )
         3           B   tau(   3) = (  0.3547880  0.3547880  0.0000000  )
         4           Rh  tau(   4) = (  0.2500000  0.7500000  0.5000000  )
         5           Rh  tau(   5) = (  0.7500000  0.2500000  0.5000000  )
         6           C   tau(   6) = (  0.5000000  0.5000000  0.0000000  )

     number of k points=     1  Methfessel-Paxton smearing, width (Ry)=  0.0010
                       cart. coord. in units 2pi/alat
        k(    1) = (   0.0000000   0.0000000   0.0000000), wk =   2.0000000

                       cryst. coord.
        k(    1) = (   0.0000000   0.0000000   0.0000000), wk =   2.0000000

     Check: negative core charge=   -0.000010

     Initial potential from superposition of free atoms

     starting charge      64.9942, renormalised to      65.0000
     Starting wfcs are   64 randomized atomic wfcs
     Checking if some PAW data can be deallocated...

     Self-consistent Calculation

     iteration #  1     ecut=    30.00 Ry     beta= 0.70
     Davidson diagonalization with overlap

     ethr =  1.00E-02,  avg # of iterations =  4.0

     total energy              =   -1285.39758572 Ry
     estimated scf accuracy    <       7.40361772 Ry

[...]

     total energy              =   -1293.72723019 Ry
     estimated scf accuracy    <       0.00000364 Ry

     iteration # 66     ecut=    30.00 Ry     beta= 0.70
     Davidson diagonalization with overlap

     ethr =  5.51E-09,  avg # of iterations =  1.0

     End of self-consistent calculation

          k = 0.0000 0.0000 0.0000 (   687 PWs)   bands (ev):

   -62.2739 -62.1960 -30.6231 -30.4907 -30.3649 -30.2551 -29.7108 -29.6038
   -29.5799  -5.6014  -4.9859  -4.6888   3.8857   8.0030   8.2715  10.4377
    11.5488  11.7870  12.4406  14.1515  14.5707  14.9300  15.2586  15.4960
    15.6787  16.3871  16.4721  16.7889  16.8749  16.9039  16.9501  17.0438
    17.0484  17.0598  17.3501  17.8349  17.8610  18.4852  21.1762  21.4078

     occupation numbers
     1.0000   1.0000   1.0000   1.0000   1.0000   1.0000   1.0000   1.0000
     1.0000   1.0000   1.0000   1.0000   1.0000   1.0000   1.0000   1.0000
     1.0000   1.0000   1.0000   1.0000   1.0000   1.0000   1.0000   1.0000
     1.0000   1.0000   1.0000   1.0000   1.0000   1.0000   1.0000   0.8537
     0.6077   0.0386  -0.0000  -0.0000  -0.0000  -0.0000  -0.0000  -0.0000

     the Fermi energy is    17.0502 ev

!    total energy              =   -1293.72722976 Ry
     estimated scf accuracy    <       0.00000029 Ry
     smearing contrib. (-TS)   =      -0.00039550 Ry
     internal energy E=F+TS    =   -1293.72683426 Ry

     The total energy is F=E-TS. E is the sum of the following terms:
     one-electron contribution =    -330.77805525 Ry
     hartree contribution      =     197.98668078 Ry
     xc contribution           =     -84.98225732 Ry
     ewald contribution        =    -585.57917307 Ry
     one-center paw contrib.   =    -490.37402939 Ry
      -> PAW hartree energy AE =     305.27316779 Ry
      -> PAW hartree energy PS =    -279.08637054 Ry
      -> PAW xc energy AE      =    -549.81698340 Ry
      -> PAW xc energy PS      =      33.25615676 Ry
      -> total E_H with PAW    =     224.17347803 Ry
      -> total E_XC with PAW   =    -601.54308396 Ry

     convergence has been achieved in  66 iterations

     Forces acting on atoms (cartesian axes, Ry/au):

     atom    1 type  1   force =     0.00000000    0.00000000    0.00000000
     atom    2 type  2   force =     0.00886724    0.01061721    0.00000000
     atom    3 type  2   force =    -0.00886724   -0.01061721   -0.00000000
     atom    4 type  3   force =     0.00000000    0.00000000   -0.00652398
     atom    5 type  3   force =     0.00000000    0.00000000    0.00652398
     atom    6 type  4   force =     0.00000000    0.00000000    0.00000000
     The non-local contrib.  to forces
     atom    1 type  1   force =     0.00000000    0.00000000    0.00000000
     atom    2 type  2   force =     0.21739853    0.11846086    0.00000000
     atom    3 type  2   force =    -0.21739853   -0.11846086   -0.00000000
     atom    4 type  3   force =     0.00000000    0.00000000   -0.00604161
     atom    5 type  3   force =     0.00000000    0.00000000    0.00604161
     atom    6 type  4   force =     0.00000000    0.00000000    0.00000000
     The ionic contribution  to forces
     atom    1 type  1   force =     0.00000000    0.00000000   -0.00000000
     atom    2 type  2   force =    -3.16800909   -1.65890021   -0.00000000
     atom    3 type  2   force =     3.16800910    1.65890021    0.00000000
     atom    4 type  3   force =    -0.00000000    0.00000000    0.00000000
     atom    5 type  3   force =    -0.00000000   -0.00000000    0.00000000
     atom    6 type  4   force =    -0.00000000   -0.00000000   -0.00000000
     The local contribution  to forces
     atom    1 type  1   force =     0.00027526   -0.00001679   -0.00038209
     atom    2 type  2   force =     2.96913373    1.55592820    0.00087552
     atom    3 type  2   force =    -2.96912865   -1.55592908   -0.00087453
     atom    4 type  3   force =     0.05740889   -0.03622494   -0.00050360
     atom    5 type  3   force =    -0.05759772    0.03615366    0.00037986
     atom    6 type  4   force =     0.00001928    0.00001166    0.00000617
     The core correction contribution to forces
     atom    1 type  1   force =     0.00000000   -0.00000000   -0.00000001
     atom    2 type  2   force =    -0.00988383   -0.00497698   -0.00025035
     atom    3 type  2   force =     0.00988382    0.00497708    0.00025050
     atom    4 type  3   force =     0.00000000    0.00000000    0.00000000
     atom    5 type  3   force =     0.00000000    0.00000000    0.00000000
     atom    6 type  4   force =    -0.00000000    0.00000004   -0.00000003
     The Hubbard contrib.    to forces
     atom    1 type  1   force =     0.00000000    0.00000000    0.00000000
     atom    2 type  2   force =     0.00000000    0.00000000    0.00000000
     atom    3 type  2   force =     0.00000000    0.00000000    0.00000000
     atom    4 type  3   force =     0.00000000    0.00000000    0.00000000
     atom    5 type  3   force =     0.00000000    0.00000000    0.00000000
     atom    6 type  4   force =     0.00000000    0.00000000    0.00000000
     The SCF correction term to forces
     atom    1 type  1   force =    -0.00022264   -0.00000214    0.00031367
     atom    2 type  2   force =     0.00023001    0.00010646    0.00000342
     atom    3 type  2   force =    -0.00023087   -0.00010344   -0.00000379
     atom    4 type  3   force =    -0.00004190    0.00003850   -0.00003574
     atom    5 type  3   force =     0.00021351    0.00004939    0.00004555
     atom    6 type  4   force =    -0.00002184   -0.00001049   -0.00000706

     Total force =     0.021629     Total SCF correction =     0.000576

     Computing stress (Cartesian axis) and pressure

          total   stress  (Ry/bohr**3)                   (kbar)     P=       12.84
  -0.00136662  -0.00074423  -0.00000000         -201.04     -109.48       -0.00
  -0.00074423   0.00083949  -0.00000000         -109.48      123.49       -0.00
  -0.00000000  -0.00000000   0.00078908           -0.00       -0.00      116.08

     kinetic stress (kbar)  35049.03    381.81      0.00
                              381.81  34813.90      0.00
                                0.00      0.00  34455.45

     local   stress (kbar)   7127.63   6616.84   -163.42
                             6616.84  -2383.77    198.37
                             -163.42    198.37  -5520.50

     nonloc. stress (kbar)  10982.67     27.50      0.00
                               27.50  11060.97      0.00
                                0.00      0.00  10912.09

     hartree stress (kbar)  16323.27  -2696.55     61.76
                            -2696.55  20163.00    -54.88
                               61.76    -54.88  21475.69

     exc-cor stress (kbar)  -6875.69      5.57      0.86
                                5.57  -6883.37     -0.10
                                0.86     -0.10  -6887.19

     corecor stress (kbar)   -779.47      1.37     -0.02
                                1.37   -781.24     -0.04
                               -0.02     -0.04   -781.60

     ewald   stress (kbar) -62028.48  -4446.04      0.00
                            -4446.04 -55865.99      0.00
                                0.00      0.00 -53537.87

     hubbard stress (kbar)      0.00      0.00      0.00
                                0.00      0.00      0.00
                                0.00      0.00      0.00

     DFT-D   stress (kbar)      0.00      0.00      0.00
                                0.00      0.00      0.00
                                0.00      0.00      0.00

     XDM     stress (kbar)      0.00      0.00      0.00
                                0.00      0.00      0.00
                                0.00      0.00      0.00

     dft-nl  stress (kbar)      0.00      0.00      0.00
                                0.00      0.00      0.00
                                0.00      0.00      0.00

     TS-vdW  stress (kbar)      0.00      0.00      0.00
                                0.00      0.00      0.00
                                0.00      0.00      0.00

[...]

                                0.00      0.00      0.00

     Writing all to output data dir new_calculations/myprefix.save/

     General routines

     Parallel routines

     PAW routines

   This run was terminated on:   8:31:55  20May2023

   JOB DONE.