     Program PWSCF v.7.0 starts on 21May2023 at  7:55:56

     Reading input from espresso_14195.pwi
Warning: card &CELL ignored
Warning: card / ignored

     Current dimensions of program PWSCF are:
     Max number of different atomic species (ntypx) = 10
     Max number of k-points (npk) =  40000
     Max angular momentum in pseudopotentials (lmaxx) =  4
     file Mg.pbe-n-kjpaw_psl.0.3.0.UPF: wavefunction(s)  3S renormalized
     file Al.pbe-n-kjpaw_psl.1.0.0.UPF: wavefunction(s)  3S 3P renormalized

     gamma-point specific algorithms are used
     Message from routine setup:
     using ibrav=0 with symmetry is DISCOURAGED, use correct ibrav instead

     Subspace diagonalization in iterative solution of the eigenvalue problem:
     a serial algorithm will be used

     Using Slab Decomposition

     bravais-lattice index     =            0
     lattice parameter (alat)  =       9.8884  a.u.
     unit-cell volume          =     966.9423 (a.u.)^3
     number of atoms/cell      =           11
     number of atomic types    =            3
     number of electrons       =        16.00
     number of Kohn-Sham states=           12
     kinetic-energy cutoff     =      30.0000  Ry
     charge density cutoff     =     240.0000  Ry
     scf convergence threshold =      1.0E-06
     mixing beta               =       0.7000
     number of iterations used =            8  plain     mixing
     Exchange-correlation= PBE
                           (   1   4   3   4   0   0   0)

     celldm(1)=   9.888424  celldm(2)=   0.000000  celldm(3)=   0.000000
     celldm(4)=   0.000000  celldm(5)=   0.000000  celldm(6)=   0.000000

     crystal axes: (cart. coord. in units of alat)
               a(1) = (   1.000000   0.000000   0.000000 )
               a(2) = (  -0.500000   0.866025   0.000000 )
               a(3) = (   0.000000   0.000000   1.154752 )

     reciprocal axes: (cart. coord. in units 2 pi/alat)
               b(1) = (  1.000000  0.577350  0.000000 )
               b(2) = (  0.000000  1.154701  0.000000 )
               b(3) = (  0.000000  0.000000  0.865987 )

     PseudoPot. # 1 for Mg read from file:
     /home/pragov/projects/rrg-bengioy-ad/pragov/crystal_structure_design/SSSP/Mg.pbe-n-kjpaw_psl.0.3.0.UPF
     MD5 check sum: 24ecedc7f3e3cbe212e682f4413594e4
     Pseudo is Projector augmented-wave + core cor, Zval =  2.0
     Generated using "atomic" code by A. Dal Corso  v.5.0.99 svn rev. 10869
     Shape of augmentation charge: PSQ
     Using radial grid of 1129 points,  4 beta functions with:
                l(1) =   0
                l(2) =   0
                l(3) =   1
                l(4) =   1
     Q(r) pseudized with 0 coefficients

     PseudoPot. # 2 for Al read from file:
     /home/pragov/projects/rrg-bengioy-ad/pragov/crystal_structure_design/SSSP/Al.pbe-n-kjpaw_psl.1.0.0.UPF
     MD5 check sum: cfc449ca30b5f3223ec38ddd88ac046d
     Pseudo is Projector augmented-wave + core cor, Zval =  3.0
     Generated using "atomic" code by A. Dal Corso  v.5.1
     Shape of augmentation charge: PSQ
     Using radial grid of 1135 points,  6 beta functions with:
                l(1) =   0
                l(2) =   0
                l(3) =   1
                l(4) =   1
                l(5) =   2
                l(6) =   2
     Q(r) pseudized with 0 coefficients

     PseudoPot. # 3 for H  read from file:
     /home/pragov/projects/rrg-bengioy-ad/pragov/crystal_structure_design/SSSP/H.pbe-rrkjus_psl.1.0.0.UPF
     MD5 check sum: f52b6d4d1c606e5624b1dc7b2218f220
     Pseudo is Ultrasoft, Zval =  1.0
     Generated using "atomic" code by A. Dal Corso  v.5.1
     Using radial grid of  929 points,  2 beta functions with:
                l(1) =   0
                l(2) =   0
     Q(r) pseudized with 0 coefficients

     atomic species   valence    mass     pseudopotential
        Mg             2.00    24.30500     Mg( 1.00)
        Al             3.00    26.98154     Al( 1.00)
        H              1.00     1.00800     H ( 1.00)

     12 Sym. Ops., with inversion, found

                                    s                        frac. trans.

      isym =  1     identity

 cryst.   s( 1) = (     1          0          0      )
                  (     0          1          0      )
                  (     0          0          1      )

 cart.    s( 1) = (  1.0000000 -0.0000000  0.0000000 )
                  (  0.0000000  1.0000000  0.0000000 )
                  (  0.0000000  0.0000000  1.0000000 )

      isym =  2     180 deg rotation - cart. axis [1,0,0]

[...]

      isym =  3     120 deg rotation - cryst. axis [0,0,1]

[...]

      isym =  6     180 deg rotation - cryst. axis [1,1,0]

[...]

      isym =  7     inversion

[...]

      isym =  8     inv. 180 deg rotation - cart. axis [1,0,0]

[...]

      isym =  9     inv. 120 deg rotation - cryst. axis [0,0,1]

 cryst.   s( 9) = (     0         -1          0      )
                  (     1          1          0      )
                  (     0          0         -1      )

 cart.    s( 9) = (  0.5000001  0.8660255  0.0000000 )
                  ( -0.8660253  0.4999999  0.0000000 )
                  (  0.0000000  0.0000000 -1.0000000 )

[...]

 cryst.   s(10) = (     1          1          0      )
                  (    -1          0          0      )
                  (     0          0         -1      )

 cart.    s(10) = (  0.4999999 -0.8660255  0.0000000 )
                  (  0.8660253  0.5000001  0.0000000 )
                  (  0.0000000  0.0000000 -1.0000000 )

[...]

      isym = 12     inv. 180 deg rotation - cryst. axis [1,1,0]

 cryst.   s(12) = (     0         -1          0      )
                  (    -1          0          0      )
                  (     0          0          1      )

 cart.    s(12) = (  0.5000001 -0.8660253  0.0000000 )
                  ( -0.8660253 -0.5000001  0.0000000 )
                  (  0.0000000  0.0000000  1.0000000 )

   Cartesian axes

     site n.     atom                  positions (alat units)
         1           Mg  tau(   1) = (   0.0000000   0.0000000   0.0000000  )
         2           Al  tau(   2) = (  -0.0000006   0.5773505   0.8149767  )
         3           Al  tau(   3) = (   0.5000005   0.2886748   0.3397754  )
         4           H   tau(   4) = (   0.7486645   0.1451086   0.2193140  )
         5           H   tau(   5) = (   0.5000004   0.5758073   0.2193140  )
         6           H   tau(   6) = (   0.2513365   0.1451086   0.2193140  )
         7           H   tau(   7) = (  -0.0000006   0.5773505   0.5085898  )
         8           H   tau(   8) = (   0.5000005   0.2886748   0.6461623  )
         9           H   tau(   9) = (  -0.2486646   0.7209167   0.9354381  )
        10           H   tau(  10) = (  -0.0000005   0.2902181   0.9354381  )
        11           H   tau(  11) = (   0.2486634   0.7209167   0.9354381  )

   Crystallographic axes

     site n.     atom                  positions (cryst. coord.)
         1           Mg  tau(   1) = (  0.0000000  0.0000000  0.0000000  )
         2           Al  tau(   2) = (  0.3333330  0.6666670  0.7057590  )
         3           Al  tau(   3) = (  0.6666670  0.3333330  0.2942410  )
         4           H   tau(   4) = (  0.8324430  0.1675570  0.1899230  )
         5           H   tau(   5) = (  0.8324430  0.6648850  0.1899230  )
         6           H   tau(   6) = (  0.3351150  0.1675570  0.1899230  )
         7           H   tau(   7) = (  0.3333330  0.6666670  0.4404320  )
         8           H   tau(   8) = (  0.6666670  0.3333330  0.5595680  )
         9           H   tau(   9) = (  0.1675570  0.8324430  0.8100770  )
        10           H   tau(  10) = (  0.1675570  0.3351150  0.8100770  )
        11           H   tau(  11) = (  0.6648850  0.8324430  0.8100770  )

     number of k points=     1  Methfessel-Paxton smearing, width (Ry)=  0.0010
                       cart. coord. in units 2pi/alat
        k(    1) = (   0.0000000   0.0000000   0.0000000), wk =   2.0000000

                       cryst. coord.
        k(    1) = (   0.0000000   0.0000000   0.0000000), wk =   2.0000000

     Initial potential from superposition of free atoms

     starting charge      15.9944, renormalised to      16.0000
     Starting wfcs are   20 randomized atomic wfcs
     Checking if some PAW data can be deallocated...

     Self-consistent Calculation

     iteration #  1     ecut=    30.00 Ry     beta= 0.70
     Davidson diagonalization with overlap

     ethr =  1.00E-02,  avg # of iterations =  3.0

     total energy              =    -121.71726931 Ry
     estimated scf accuracy    <       0.68975425 Ry

[...]

     total energy              =    -121.76595521 Ry
     estimated scf accuracy    <       0.00001207 Ry

     iteration #  6     ecut=    30.00 Ry     beta= 0.70
     Davidson diagonalization with overlap

     ethr =  7.54E-08,  avg # of iterations =  2.0

     End of self-consistent calculation

          k = 0.0000 0.0000 0.0000 (  1339 PWs)   bands (ev):

    -7.4584  -5.4800  -3.3795  -2.7916  -2.7915  -2.2619  -2.2618  -1.9844
     2.7905   4.4368   4.4816   4.4820

     occupation numbers
     1.0000   1.0000   1.0000   1.0000   1.0000   1.0000   1.0000   1.0000
    -0.0000  -0.0000  -0.0000  -0.0000

     the Fermi energy is    -1.4882 ev

!    total energy              =    -121.76595643 Ry
     estimated scf accuracy    <       0.00000072 Ry
     smearing contrib. (-TS)   =       0.00000000 Ry
     internal energy E=F+TS    =    -121.76595643 Ry

     The total energy is F=E-TS. E is the sum of the following terms:
     one-electron contribution =       1.19840014 Ry
     hartree contribution      =       4.02941641 Ry
     xc contribution           =     -12.48139179 Ry
     ewald contribution        =     -13.86391784 Ry
     one-center paw contrib.   =    -100.64846335 Ry
      -> PAW hartree energy AE =       3.95453155 Ry
      -> PAW hartree energy PS =      -3.94293574 Ry
      -> PAW xc energy AE      =    -105.96164919 Ry
      -> PAW xc energy PS      =       5.30159003 Ry
      -> total E_H with PAW    =       4.04101223 Ry
      -> total E_XC with PAW   =    -113.14145095 Ry

     convergence has been achieved in   6 iterations

     Forces acting on atoms (cartesian axes, Ry/au):

     atom    1 type  1   force =     0.00000000    0.00000000    0.00000000
     atom    2 type  2   force =     0.00000000    0.00000000    0.01436836
     atom    3 type  2   force =    -0.00000000   -0.00000000   -0.01436836
     atom    4 type  3   force =    -0.00987817    0.00570317   -0.00042898
     atom    5 type  3   force =    -0.00000000   -0.01140633   -0.00042898
     atom    6 type  3   force =     0.00987817    0.00570317   -0.00042898
     atom    7 type  3   force =     0.00000000   -0.00000000    0.00942421
     atom    8 type  3   force =     0.00000000    0.00000000   -0.00942421
     atom    9 type  3   force =     0.00987817   -0.00570317    0.00042898
     atom   10 type  3   force =     0.00000000    0.01140633    0.00042898
     atom   11 type  3   force =    -0.00987817   -0.00570317    0.00042898
     The non-local contrib.  to forces
     atom    1 type  1   force =     0.00000000    0.00000000    0.00000000
     atom    2 type  2   force =     0.00000000   -0.00000000    0.10633548
     atom    3 type  2   force =     0.00000000   -0.00000000   -0.10633548
     atom    4 type  3   force =    -0.01395825    0.00805880    0.00276076
     atom    5 type  3   force =    -0.00000000   -0.01611760    0.00276076
     atom    6 type  3   force =     0.01395825    0.00805880    0.00276076
     atom    7 type  3   force =    -0.00000000   -0.00000000    0.02893770
     atom    8 type  3   force =     0.00000000    0.00000000   -0.02893770
     atom    9 type  3   force =     0.01395825   -0.00805880   -0.00276076
     atom   10 type  3   force =     0.00000000    0.01611760   -0.00276076
     atom   11 type  3   force =    -0.01395825   -0.00805880   -0.00276076
     The ionic contribution  to forces
     atom    1 type  1   force =     0.00000000   -0.00000000    0.00000000
     atom    2 type  2   force =     0.00000148   -0.00000085   -0.10878572
     atom    3 type  2   force =    -0.00000148    0.00000085    0.10878572
     atom    4 type  3   force =     0.26300676   -0.15184700   -0.03662393
     atom    5 type  3   force =    -0.00000040    0.30369463   -0.03662517
     atom    6 type  3   force =    -0.26300745   -0.15184700   -0.03662517
     atom    7 type  3   force =     0.00000116   -0.00000067   -0.51941310
     atom    8 type  3   force =    -0.00000116    0.00000067    0.51941310
     atom    9 type  3   force =    -0.26300676    0.15184700    0.03662393
     atom   10 type  3   force =     0.00000040   -0.30369463    0.03662517
     atom   11 type  3   force =     0.26300745    0.15184700    0.03662517
     The local contribution  to forces
     atom    1 type  1   force =     0.00000290   -0.00002106   -0.00000055
     atom    2 type  2   force =    -0.00002505   -0.00002767    0.02715986
     atom    3 type  2   force =     0.00000751   -0.00004172   -0.02711996
     atom    4 type  3   force =    -0.25891596    0.14948553    0.03346852
     atom    5 type  3   force =     0.00000049   -0.29895509    0.03342323
     atom    6 type  3   force =     0.25891182    0.14948677    0.03346242
     atom    7 type  3   force =    -0.00000652   -0.00000589    0.49981247
     atom    8 type  3   force =     0.00000490   -0.00001680   -0.49983511
     atom    9 type  3   force =     0.25890637   -0.14950197   -0.03344917
     atom   10 type  3   force =    -0.00000079    0.29898701   -0.03345958
     atom   11 type  3   force =    -0.25890077   -0.14949555   -0.03343340
     The core correction contribution to forces
     atom    1 type  1   force =    -0.00000027   -0.00000263    0.00000044
     atom    2 type  2   force =    -0.00000097   -0.00000173   -0.01030565
     atom    3 type  2   force =     0.00000087   -0.00000295    0.01030803
     atom    4 type  3   force =     0.00000000    0.00000000    0.00000000
     atom    5 type  3   force =     0.00000000    0.00000000    0.00000000
     atom    6 type  3   force =     0.00000000    0.00000000    0.00000000
     atom    7 type  3   force =     0.00000000    0.00000000    0.00000000
     atom    8 type  3   force =     0.00000000    0.00000000    0.00000000
     atom    9 type  3   force =     0.00000000    0.00000000    0.00000000
     atom   10 type  3   force =     0.00000000    0.00000000    0.00000000
     atom   11 type  3   force =     0.00000000    0.00000000    0.00000000
     The Hubbard contrib.    to forces
     atom    1 type  1   force =     0.00000000    0.00000000    0.00000000
     atom    2 type  2   force =     0.00000000    0.00000000    0.00000000
     atom    3 type  2   force =     0.00000000    0.00000000    0.00000000
     atom    4 type  3   force =     0.00000000    0.00000000    0.00000000
     atom    5 type  3   force =     0.00000000    0.00000000    0.00000000
     atom    6 type  3   force =     0.00000000    0.00000000    0.00000000
     atom    7 type  3   force =     0.00000000    0.00000000    0.00000000
     atom    8 type  3   force =     0.00000000    0.00000000    0.00000000
     atom    9 type  3   force =     0.00000000    0.00000000    0.00000000
     atom   10 type  3   force =     0.00000000    0.00000000    0.00000000
     atom   11 type  3   force =     0.00000000    0.00000000    0.00000000
     The SCF correction term to forces
     atom    1 type  1   force =    -0.00000741   -0.00000405    0.00000305
     atom    2 type  2   force =     0.00001597    0.00000943   -0.00002299
     atom    3 type  2   force =     0.00000232    0.00001450    0.00000595
     atom    4 type  3   force =    -0.00001431    0.00000602   -0.00002566
     atom    5 type  3   force =    -0.00000038   -0.00001650   -0.00000419
     atom    6 type  3   force =     0.00001563    0.00000792   -0.00002215
     atom    7 type  3   force =     0.00000296    0.00000555    0.00008508
     atom    8 type  3   force =    -0.00000306    0.00000854   -0.00006659
     atom    9 type  3   force =     0.00001516    0.00000024    0.00001322
     atom   10 type  3   force =    -0.00000043    0.00000686    0.00001547
     atom   11 type  3   force =    -0.00001839   -0.00000133    0.00000554

     Total force =     0.037044     Total SCF correction =     0.000127

     Computing stress (Cartesian axis) and pressure

          total   stress  (Ry/bohr**3)                   (kbar)     P=       23.22
   0.00036302   0.00000000   0.00000000           53.40        0.00        0.00
   0.00000000   0.00036302  -0.00000000            0.00       53.40       -0.00
   0.00000000  -0.00000000  -0.00025239            0.00       -0.00      -37.13

     kinetic stress (kbar)   1359.87      0.00      0.00
                                0.00   1359.87      0.00
                                0.00      0.00   1245.17

     local   stress (kbar)   -552.65      0.00     -0.00
                                0.00   -552.65      0.01
                               -0.00      0.01   -528.03

     nonloc. stress (kbar)    244.28      0.00      0.00
                                0.00    244.28     -0.00
                                0.00     -0.00    261.49

     hartree stress (kbar)    211.60      0.00      0.00
                                0.00    211.60     -0.00
                                0.00     -0.00    189.81

     exc-cor stress (kbar)    -98.11      0.00      0.00
                                0.00    -98.11     -0.00
                                0.00     -0.00    -95.97

     corecor stress (kbar)   -407.43     -0.00     -0.00
                               -0.00   -407.43      0.00
                               -0.00      0.00   -408.74

     ewald   stress (kbar)   -704.16      0.00      0.00
                                0.00   -704.16     -0.00
                                0.00     -0.00   -700.85

     hubbard stress (kbar)      0.00      0.00      0.00
                                0.00      0.00      0.00
                                0.00      0.00      0.00

     DFT-D   stress (kbar)      0.00      0.00      0.00
                                0.00      0.00      0.00
                                0.00      0.00      0.00

     XDM     stress (kbar)      0.00      0.00      0.00
                                0.00      0.00      0.00
                                0.00      0.00      0.00

     dft-nl  stress (kbar)      0.00      0.00      0.00
                                0.00      0.00      0.00
                                0.00      0.00      0.00

     TS-vdW  stress (kbar)      0.00      0.00      0.00
                                0.00      0.00      0.00
                                0.00      0.00      0.00

[...]

                                0.00      0.00      0.00

     Writing all to output data dir new_calculations/myprefix.save/

     General routines

     Parallel routines

     PAW routines

   This run was terminated on:   7:56: 4  21May2023

   JOB DONE.