     Program PWSCF v.7.0 starts on 20May2023 at 14: 3:51

     Reading input from espresso_14433.pwi
Warning: card &CELL ignored
Warning: card / ignored

     Current dimensions of program PWSCF are:
     Max number of different atomic species (ntypx) = 10
     Max number of k-points (npk) =  40000
     Max angular momentum in pseudopotentials (lmaxx) =  4

     gamma-point specific algorithms are used
     Message from routine setup:
     using ibrav=0 with symmetry is DISCOURAGED, use correct ibrav instead

     Subspace diagonalization in iterative solution of the eigenvalue problem:
     a serial algorithm will be used

     Using Slab Decomposition

     bravais-lattice index     =            0
     lattice parameter (alat)  =      15.2199  a.u.
     unit-cell volume          =    2492.9680 (a.u.)^3
     number of atoms/cell      =           10
     number of atomic types    =            4
     number of electrons       =        88.00
     number of Kohn-Sham states=           53
     kinetic-energy cutoff     =      30.0000  Ry
     charge density cutoff     =     240.0000  Ry
     scf convergence threshold =      1.0E-06
     mixing beta               =       0.7000
     number of iterations used =            8  plain     mixing
     Exchange-correlation=  SLA  PW   PBX  PBC
                           (   1   4   3   4   0   0   0)

     celldm(1)=  15.219857  celldm(2)=   0.000000  celldm(3)=   0.000000
     celldm(4)=   0.000000  celldm(5)=   0.000000  celldm(6)=   0.000000

     crystal axes: (cart. coord. in units of alat)
               a(1) = (   1.000000   0.000000   0.000000 )
               a(2) = (   0.500000   0.866025   0.000000 )
               a(3) = (   0.500000   0.288675   0.816497 )

     reciprocal axes: (cart. coord. in units 2 pi/alat)
               b(1) = (  1.000000 -0.577350 -0.408248 )
               b(2) = (  0.000000  1.154701 -0.408248 )
               b(3) = (  0.000000  0.000000  1.224745 )

     PseudoPot. # 1 for Rb read from file:
     /home/pragov/projects/rrg-bengioy-ad/pragov/crystal_structure_design/SSSP/Rb_ONCV_PBE-1.0.oncvpsp.upf
     MD5 check sum: 55a5172d6bfbce6759a58e35d43f6aa9
     Pseudo is Norm-conserving, Zval =  9.0
     Generated using ONCVPSP code by D. R. Hamann
     Using radial grid of 2308 points,  6 beta functions with:
                l(1) =   0
                l(2) =   0
                l(3) =   1
                l(4) =   1
                l(5) =   2
                l(6) =   2

     PseudoPot. # 2 for Tl read from file:
     /home/pragov/projects/rrg-bengioy-ad/pragov/crystal_structure_design/SSSP/Tl_pbe_v1.2.uspp.F.UPF
     MD5 check sum: b76cf1f7e72655a2b2c53cf6385d7059
     Pseudo is Ultrasoft + core correction, Zval = 13.0
     Generated by new atomic code, or converted to UPF format
     Using radial grid of  899 points,  6 beta functions with:
                l(1) =   0
                l(2) =   0
                l(3) =   1
                l(4) =   1
                l(5) =   2
                l(6) =   2
     Q(r) pseudized with  6 coefficients,  rinner =    1.100   1.100   1.100
                                                       1.100   1.100

     PseudoPot. # 3 for Sb read from file:
     /home/pragov/projects/rrg-bengioy-ad/pragov/crystal_structure_design/SSSP/sb_pbe_v1.4.uspp.F.UPF
     MD5 check sum: 9bc50dfb53373b713f5709b9110fe27f
     Pseudo is Ultrasoft + core correction, Zval = 15.0
     Generated by new atomic code, or converted to UPF format
     Using radial grid of  891 points,  6 beta functions with:
                l(1) =   0
                l(2) =   0
                l(3) =   1
                l(4) =   1
                l(5) =   2
                l(6) =   2
     Q(r) pseudized with  8 coefficients,  rinner =    1.350   1.350   1.350
                                                       1.350   1.350

     PseudoPot. # 4 for Cl read from file:
     /home/pragov/projects/rrg-bengioy-ad/pragov/crystal_structure_design/SSSP/cl_pbe_v1.4.uspp.F.UPF
     MD5 check sum: fc6f6913ecf08c9257cb748ef0700058
     Pseudo is Ultrasoft + core correction, Zval =  7.0
     Generated by new atomic code, or converted to UPF format
     Using radial grid of  909 points,  6 beta functions with:
                l(1) =   0
                l(2) =   0
                l(3) =   1
                l(4) =   1
                l(5) =   2
                l(6) =   2
     Q(r) pseudized with  8 coefficients,  rinner =    1.300   1.300   1.300
                                                       1.300   1.300

     atomic species   valence    mass     pseudopotential
        Rb             9.00    85.46780     Rb( 1.00)
        Tl            13.00   204.38000     Tl( 1.00)
        Sb            15.00   121.76000     Sb( 1.00)
        Cl             7.00    35.45000     Cl( 1.00)

     12 Sym. Ops., with inversion, found

                                    s                        frac. trans.

      isym =  1     identity

 cryst.   s( 1) = (     1          0          0      )
                  (     0          1          0      )
                  (     0          0          1      )

 cart.    s( 1) = (  1.0000000  0.0000000 -0.0000000 )
                  (  0.0000000  1.0000000 -0.0000000 )
                  (  0.0000000  0.0000000  1.0000000 )

      isym =  2     180 deg rotation - cart. axis [1,0,0]

[...]

      isym =  3     120 deg rotation - cryst. axis [0,0,1]

[...]

      isym =  6     180 deg rotation - cryst. axis [1,1,0]

[...]

      isym =  7     inversion

[...]

      isym =  8     inv. 180 deg rotation - cart. axis [1,0,0]

[...]

      isym =  9     inv. 120 deg rotation - cryst. axis [0,0,1]

 cryst.   s( 9) = (     1         -1          0      )
                  (     1          0          0      )
                  (     1          0         -1      )

 cart.    s( 9) = (  0.5000000  0.8660254 -0.0000000 )
                  ( -0.8660254  0.5000000 -0.0000000 )
                  (  0.0000000  0.0000000 -1.0000000 )

[...]

 cryst.   s(10) = (     0          1          0      )
                  (    -1          1          0      )
                  (     0          1         -1      )

 cart.    s(10) = (  0.5000000 -0.8660254  0.0000000 )
                  (  0.8660254  0.5000000 -0.0000000 )
                  (  0.0000000  0.0000000 -1.0000000 )

[...]

      isym = 12     inv. 180 deg rotation - cryst. axis [1,1,0]

 cryst.   s(12) = (     1         -1          0      )
                  (     0         -1          0      )
                  (     0         -1          1      )

 cart.    s(12) = (  0.5000000 -0.8660254  0.0000000 )
                  ( -0.8660254 -0.5000000  0.0000000 )
                  (  0.0000000  0.0000000  1.0000000 )

   Cartesian axes

     site n.     atom                  positions (alat units)
         1           Rb  tau(   1) = (   1.5000000   0.8660254   0.6123724  )
         2           Rb  tau(   2) = (   0.5000000   0.2886751   0.2041241  )
         3           Tl  tau(   3) = (   1.0000000   0.5773503   0.4082483  )
         4           Sb  tau(   4) = (   0.0000000   0.0000000   0.0000000  )
         5           Cl  tau(   5) = (   1.0000000   0.2696849   0.1906960  )
         6           Cl  tau(   6) = (   0.7335540   0.4235176   0.6258005  )
         7           Cl  tau(   7) = (   1.0000000   0.8850156   0.6258005  )
         8           Cl  tau(   8) = (   0.7335540   0.7311829   0.1906960  )
         9           Cl  tau(   9) = (   1.2664460   0.4235176   0.6258005  )
        10           Cl  tau(  10) = (   1.2664460   0.7311829   0.1906960  )

   Crystallographic axes

     site n.     atom                  positions (cryst. coord.)
         1           Rb  tau(   1) = (  0.7500000  0.7500000  0.7500000  )
         2           Rb  tau(   2) = (  0.2500000  0.2500000  0.2500000  )
         3           Tl  tau(   3) = (  0.5000000  0.5000000  0.5000000  )
         4           Sb  tau(   4) = (  0.0000000  0.0000000  0.0000000  )
         5           Cl  tau(   5) = (  0.7664460  0.2335540  0.2335540  )
         6           Cl  tau(   6) = (  0.2335540  0.2335540  0.7664460  )
         7           Cl  tau(   7) = (  0.2335540  0.7664460  0.7664460  )
         8           Cl  tau(   8) = (  0.2335540  0.7664460  0.2335540  )
         9           Cl  tau(   9) = (  0.7664460  0.2335540  0.7664460  )
        10           Cl  tau(  10) = (  0.7664460  0.7664460  0.2335540  )

     number of k points=     1  Methfessel-Paxton smearing, width (Ry)=  0.0010
                       cart. coord. in units 2pi/alat
        k(    1) = (   0.0000000   0.0000000   0.0000000), wk =   2.0000000

                       cryst. coord.
        k(    1) = (   0.0000000   0.0000000   0.0000000), wk =   2.0000000

     Check: negative core charge=   -0.000003

     Initial potential from superposition of free atoms

     starting charge      86.9455, renormalised to      88.0000

     negative rho (up, down):  1.520E-01 0.000E+00
     Starting wfcs are   52 randomized atomic wfcs +    1 random wfcs

     Self-consistent Calculation

     iteration #  1     ecut=    30.00 Ry     beta= 0.70
     Davidson diagonalization with overlap

     ethr =  1.00E-02,  avg # of iterations =  6.0

     Threshold (ethr) on eigenvalues was too large:
     Diagonalizing with lowered threshold

     Davidson diagonalization with overlap

[...]

     negative rho (up, down):  1.519E-01 0.000E+00

     total energy              =    -628.05552974 Ry
     estimated scf accuracy    <       0.60373503 Ry

[...]

     total energy              =    -628.26099271 Ry
     estimated scf accuracy    <       0.00000691 Ry

     iteration #  7     ecut=    30.00 Ry     beta= 0.70
     Davidson diagonalization with overlap

     ethr =  7.85E-09,  avg # of iterations =  2.0

[...]

     End of self-consistent calculation

          k = 0.0000 0.0000 0.0000 (  3440 PWs)   bands (ev):

   -26.9008 -26.9008 -26.8984 -26.8984 -26.8983 -24.1227 -24.1221 -11.9800
   -11.4373 -11.4372 -11.4370 -11.2702 -11.2701  -8.1774  -8.1774  -8.1774
    -8.1659  -8.1659  -8.1659  -7.5435  -7.5434  -7.5434  -7.5374  -7.5373
    -6.2460  -1.9441  -1.6996  -1.6996  -1.6995  -0.0908  -0.0907  -0.0907
     0.3605   0.3607   0.6757   0.6758   0.6758   0.7057   0.7057   0.7058
     1.1060   1.1061   1.1061   3.3154   4.8260   4.8260   4.8260   5.9174
     7.3869   7.8740   8.5190   8.5190   8.5191

     occupation numbers
     1.0000   1.0000   1.0000   1.0000   1.0000   1.0000   1.0000   1.0000
     1.0000   1.0000   1.0000   1.0000   1.0000   1.0000   1.0000   1.0000
     1.0000   1.0000   1.0000   1.0000   1.0000   1.0000   1.0000   1.0000
     1.0000   1.0000   1.0000   1.0000   1.0000   1.0000   1.0000   1.0000
     1.0000   1.0000   1.0000   1.0000   1.0000   1.0000   1.0000   1.0000
     1.0000   1.0000   1.0000   1.0000  -0.0000  -0.0000  -0.0000  -0.0000
    -0.0000  -0.0000  -0.0000  -0.0000  -0.0000

     the Fermi energy is     4.1936 ev

!    total energy              =    -628.26099448 Ry
     estimated scf accuracy    <       0.00000067 Ry
     smearing contrib. (-TS)   =       0.00000000 Ry
     internal energy E=F+TS    =    -628.26099448 Ry

     The total energy is F=E-TS. E is the sum of the following terms:
     one-electron contribution =    -288.43447100 Ry
     hartree contribution      =     177.86095355 Ry
     xc contribution           =    -177.96680779 Ry
     ewald contribution        =    -339.72066924 Ry

     convergence has been achieved in   7 iterations

     negative rho (up, down):  1.465E-01 0.000E+00

     Forces acting on atoms (cartesian axes, Ry/au):

     atom    1 type  1   force =     0.00000000    0.00000000   -0.00000403
     atom    2 type  1   force =     0.00000000   -0.00000000    0.00000403
     atom    3 type  2   force =     0.00000000    0.00000000   -0.00000000
     atom    4 type  3   force =     0.00000000    0.00000000    0.00000000
     atom    5 type  4   force =     0.00000000   -0.01053116   -0.00744621
     atom    6 type  4   force =    -0.00912026   -0.00526558    0.00744621
     atom    7 type  4   force =     0.00000000    0.01053116    0.00744621
     atom    8 type  4   force =    -0.00912026    0.00526558   -0.00744621
     atom    9 type  4   force =     0.00912026   -0.00526558    0.00744621
     atom   10 type  4   force =     0.00912026    0.00526558   -0.00744621
     The non-local contrib.  to forces
     atom    1 type  1   force =     0.00000000   -0.00000000    0.00000127
     atom    2 type  1   force =     0.00000000    0.00000000   -0.00000127
     atom    3 type  2   force =     0.00000000    0.00000000    0.00000000
     atom    4 type  3   force =     0.00000000   -0.00000000    0.00000000
     atom    5 type  4   force =     0.00000000   -0.09714762   -0.06868425
     atom    6 type  4   force =    -0.08413231   -0.04857381    0.06868425
     atom    7 type  4   force =     0.00000000    0.09714762    0.06868425
     atom    8 type  4   force =    -0.08413231    0.04857381   -0.06868425
     atom    9 type  4   force =     0.08413231   -0.04857381    0.06868425
     atom   10 type  4   force =     0.08413231    0.04857381   -0.06868425
     The ionic contribution  to forces
     atom    1 type  1   force =     0.00000000   -0.00000000    0.00000000
     atom    2 type  1   force =     0.00000000   -0.00000000    0.00000000
     atom    3 type  2   force =     0.00000000   -0.00000000   -0.00000000
     atom    4 type  3   force =     0.00000000    0.00000000    0.00000000
     atom    5 type  4   force =    -0.00000000    3.21445343    2.27296182
     atom    6 type  4   force =     2.78379833    1.60722672   -2.27296182
     atom    7 type  4   force =    -0.00000000   -3.21445343   -2.27296182
     atom    8 type  4   force =     2.78379833   -1.60722672    2.27296182
     atom    9 type  4   force =    -2.78379833    1.60722672   -2.27296182
     atom   10 type  4   force =    -2.78379833   -1.60722672    2.27296182
     The local contribution  to forces
     atom    1 type  1   force =     0.00005907   -0.00002457    0.00002434
     atom    2 type  1   force =    -0.00008001    0.00003180   -0.00001443
     atom    3 type  2   force =    -0.00001420    0.00002279    0.00008255
     atom    4 type  3   force =     0.00038508   -0.00008446   -0.00025524
     atom    5 type  4   force =     0.00014597   -3.12971427   -2.21316841
     atom    6 type  4   force =    -2.71022588   -1.56464324    2.21293326
     atom    7 type  4   force =    -0.00010917    3.12975419    2.21317028
     atom    8 type  4   force =    -2.71038981    1.56488757   -2.21294776
     atom    9 type  4   force =     2.71034784   -1.56485832    2.21287449
     atom   10 type  4   force =     2.71016626    1.56455149   -2.21289800
     The core correction contribution to forces
     atom    1 type  1   force =     0.00000000    0.00000000    0.00000000
     atom    2 type  1   force =     0.00000000    0.00000000    0.00000000
     atom    3 type  2   force =     0.00000044    0.00000278   -0.00000030
     atom    4 type  3   force =     0.00000788   -0.00000206   -0.00000504
     atom    5 type  4   force =     0.00000203    0.00256992    0.00181409
     atom    6 type  4   force =     0.00222924    0.00128848   -0.00181981
     atom    7 type  4   force =    -0.00000210   -0.00256873   -0.00181339
     atom    8 type  4   force =     0.00222567   -0.00128414    0.00181890
     atom    9 type  4   force =    -0.00222682    0.00128424   -0.00181978
     atom   10 type  4   force =    -0.00223111   -0.00129029    0.00182055
     The Hubbard contrib.    to forces
     atom    1 type  1   force =     0.00000000    0.00000000    0.00000000
     atom    2 type  1   force =     0.00000000    0.00000000    0.00000000
     atom    3 type  2   force =     0.00000000    0.00000000    0.00000000
     atom    4 type  3   force =     0.00000000    0.00000000    0.00000000
     atom    5 type  4   force =     0.00000000    0.00000000    0.00000000
     atom    6 type  4   force =     0.00000000    0.00000000    0.00000000
     atom    7 type  4   force =     0.00000000    0.00000000    0.00000000
     atom    8 type  4   force =     0.00000000    0.00000000    0.00000000
     atom    9 type  4   force =     0.00000000    0.00000000    0.00000000
     atom   10 type  4   force =     0.00000000    0.00000000    0.00000000
     The SCF correction term to forces
     atom    1 type  1   force =    -0.00009007    0.00004108   -0.00003249
     atom    2 type  1   force =     0.00012099   -0.00005222    0.00001688
     atom    3 type  2   force =     0.00000913   -0.00002790   -0.00012624
     atom    4 type  3   force =    -0.00040776    0.00009601    0.00027278
     atom    5 type  4   force =    -0.00013444   -0.00075052   -0.00044118
     atom    6 type  4   force =    -0.00074003   -0.00051398    0.00056340
     atom    7 type  4   force =     0.00008818    0.00072448    0.00044631
     atom    8 type  4   force =    -0.00064936    0.00034189   -0.00057529
     atom    9 type  4   force =     0.00066690   -0.00036452    0.00064157
     atom   10 type  4   force =     0.00076609    0.00058160   -0.00058925

     Total force =     0.031593     Total SCF correction =     0.002462

     Computing stress (Cartesian axis) and pressure

     negative rho (up, down):  1.465E-01 0.000E+00
          total   stress  (Ry/bohr**3)                   (kbar)     P=       11.14
   0.00007570   0.00000000  -0.00000000           11.14        0.00       -0.00
   0.00000000   0.00007570  -0.00000000            0.00       11.14       -0.00
   0.00000000  -0.00000000   0.00007573            0.00       -0.00       11.14

     kinetic stress (kbar)   5706.99     -0.00      0.00
                               -0.00   5706.99     -0.00
                                0.00     -0.00   5707.00

     local   stress (kbar)  -3667.47     -0.01     -0.01
                               -0.01  -3667.48      0.00
                               -0.01      0.00  -3667.47

     nonloc. stress (kbar)   3241.73     -0.00     -0.00
                               -0.00   3241.73     -0.00
                               -0.00     -0.00   3241.74

     hartree stress (kbar)   3498.41      0.01      0.00
                                0.01   3498.41     -0.01
                                0.00     -0.01   3498.40

     exc-cor stress (kbar)   3456.25      0.00      0.00
                                0.00   3456.25      0.00
                                0.00      0.00   3456.25

     corecor stress (kbar)  -5542.69      0.00      0.00
                                0.00  -5542.69      0.00
                                0.00      0.00  -5542.69

     ewald   stress (kbar)  -6682.08     -0.00     -0.00
                               -0.00  -6682.08     -0.00
                               -0.00     -0.00  -6682.08

     hubbard stress (kbar)      0.00      0.00      0.00
                                0.00      0.00      0.00
                                0.00      0.00      0.00

     DFT-D   stress (kbar)      0.00      0.00      0.00
                                0.00      0.00      0.00
                                0.00      0.00      0.00

     XDM     stress (kbar)      0.00      0.00      0.00
                                0.00      0.00      0.00
                                0.00      0.00      0.00

     dft-nl  stress (kbar)      0.00      0.00      0.00
                                0.00      0.00      0.00
                                0.00      0.00      0.00

     TS-vdW  stress (kbar)      0.00      0.00      0.00
                                0.00      0.00      0.00
                                0.00      0.00      0.00

[...]

                                0.00      0.00      0.00

     Writing all to output data dir new_calculations/myprefix.save/

     General routines

     Parallel routines

   This run was terminated on:  14: 4: 9  20May2023

   JOB DONE.