     Program PWSCF v.7.0 starts on 21May2023 at  3:44:49

     Reading input from espresso_25296.pwi
Warning: card &CELL ignored
Warning: card / ignored

     Current dimensions of program PWSCF are:
     Max number of different atomic species (ntypx) = 10
     Max number of k-points (npk) =  40000
     Max angular momentum in pseudopotentials (lmaxx) =  4
     file Cd.pbe-dn-rrkjus_psl.0.3.1.UPF: wavefunction(s)  4D renormalized

     gamma-point specific algorithms are used
     Message from routine setup:
     using ibrav=0 with symmetry is DISCOURAGED, use correct ibrav instead

     Subspace diagonalization in iterative solution of the eigenvalue problem:
     a serial algorithm will be used

     Using Slab Decomposition

     bravais-lattice index     =            0
     lattice parameter (alat)  =      16.7003  a.u.
     unit-cell volume          =    1987.9296 (a.u.)^3
     number of atoms/cell      =           10
     number of atomic types    =            3
     number of electrons       =        84.00
     number of Kohn-Sham states=           50
     kinetic-energy cutoff     =      30.0000  Ry
     charge density cutoff     =     240.0000  Ry
     scf convergence threshold =      1.0E-06
     mixing beta               =       0.7000
     number of iterations used =            8  plain     mixing
     Exchange-correlation= PBE
                           (   1   4   3   4   0   0   0)

     celldm(1)=  16.700315  celldm(2)=   0.000000  celldm(3)=   0.000000
     celldm(4)=   0.000000  celldm(5)=   0.000000  celldm(6)=   0.000000

     crystal axes: (cart. coord. in units of alat)
               a(1) = (   1.000000   0.000000   0.000000 )
               a(2) = (  -0.871382   0.490605   0.000000 )
               a(3) = (   0.000000   0.000000   0.869952 )

     reciprocal axes: (cart. coord. in units 2 pi/alat)
               b(1) = (  1.000000  1.776139  0.000000 )
               b(2) = (  0.000000  2.038301  0.000000 )
               b(3) = (  0.000000  0.000000  1.149489 )

     PseudoPot. # 1 for Sr read from file:
     /home/pragov/projects/rrg-bengioy-ad/pragov/crystal_structure_design/SSSP/Sr_pbe_v1.uspp.F.UPF
     MD5 check sum: 6b418c05fbe9db5448babca5e47b7a5b
     Pseudo is Ultrasoft + core correction, Zval = 10.0
     Generated by new atomic code, or converted to UPF format
     Using radial grid of  883 points,  6 beta functions with:
                l(1) =   0
                l(2) =   0
                l(3) =   1
                l(4) =   1
                l(5) =   2
                l(6) =   2
     Q(r) pseudized with  6 coefficients,  rinner =    1.400   1.400   1.400
                                                       1.400   1.400

     PseudoPot. # 2 for Cd read from file:
     /home/pragov/projects/rrg-bengioy-ad/pragov/crystal_structure_design/SSSP/Cd.pbe-dn-rrkjus_psl.0.3.1.UPF
     MD5 check sum: 558e9f355611b531a870a69ef6ace9e2
     Pseudo is Ultrasoft + core correction, Zval = 12.0
     Generated using "atomic" code by A. Dal Corso  v.5.0.99 svn rev. 10869
     Using radial grid of 1239 points,  6 beta functions with:
                l(1) =   0
                l(2) =   0
                l(3) =   1
                l(4) =   1
                l(5) =   2
                l(6) =   2
     Q(r) pseudized with 0 coefficients

     PseudoPot. # 3 for As read from file:
     /home/pragov/projects/rrg-bengioy-ad/pragov/crystal_structure_design/SSSP/As.pbe-n-rrkjus_psl.0.2.UPF
     MD5 check sum: 767315de957beeeb34f87d97bf945c8f
     Pseudo is Ultrasoft + core correction, Zval =  5.0
     Generated using "atomic" code by A. Dal Corso  v.5.0.99 svn rev. 10869
     Using radial grid of 1209 points,  4 beta functions with:
                l(1) =   0
                l(2) =   0
                l(3) =   1
                l(4) =   1
     Q(r) pseudized with 0 coefficients

     atomic species   valence    mass     pseudopotential
        Sr            10.00    87.62000     Sr( 1.00)
        Cd            12.00   112.41400     Cd( 1.00)
        As             5.00    74.92159     As( 1.00)

      2 Sym. Ops. (no inversion) found ( 1 have fractional translation)

                                    s                        frac. trans.

      isym =  1     identity

 cryst.   s( 1) = (     1          0          0      )
                  (     0          1          0      )
                  (     0          0          1      )

 cart.    s( 1) = (  1.0000000  0.0000000  0.0000000 )
                  (  0.0000000  1.0000000  0.0000000 )
                  (  0.0000000  0.0000000  1.0000000 )

      isym =  2     180 deg rotation - cart. axis [0,0,1]

 cryst.   s( 2) = (    -1          0          0      )    f =(  0.0000000 )
                  (     0         -1          0      )       (  0.0000000 )
                  (     0          0          1      )       ( -0.5000000 )

 cart.    s( 2) = ( -1.0000000 -0.0000000  0.0000000 )    f =(  0.0000000 )
                  (  0.0000000 -1.0000000  0.0000000 )       (  0.0000000 )
                  (  0.0000000  0.0000000  1.0000000 )       ( -0.4349760 )

   Cartesian axes

     site n.     atom                  positions (alat units)
         1           Sr  tau(   1) = (   0.1282128   0.2285492   0.2052982  )
         2           Sr  tau(   2) = (   0.4439150   0.1457842   0.7765627  )
         3           Sr  tau(   3) = (  -0.3152973   0.3448205   0.3415867  )
         4           Sr  tau(   4) = (   0.0004049   0.2620555   0.6402743  )
         5           Cd  tau(   5) = (  -0.6917894   0.4435223   0.5028219  )
         6           Cd  tau(   6) = (   0.8204072   0.0470824   0.0678458  )
         7           As  tau(   7) = (  -0.7528676   0.4595347   0.8193939  )
         8           As  tau(   8) = (   0.3927945   0.1591860   0.4226645  )
         9           As  tau(   9) = (  -0.2641767   0.3314187   0.8576405  )
        10           As  tau(  10) = (   0.8814854   0.0310700   0.3844179  )

   Crystallographic axes

     site n.     atom                  positions (cryst. coord.)
         1           Sr  tau(   1) = (  0.5341480  0.4658520  0.2359880  )
         2           Sr  tau(   2) = (  0.7028480  0.2971520  0.8926500  )
         3           Sr  tau(   3) = (  0.2971520  0.7028480  0.3926500  )
         4           Sr  tau(   4) = (  0.4658520  0.5341480  0.7359880  )
         5           Cd  tau(   5) = (  0.0959680  0.9040320  0.5779880  )
         6           Cd  tau(   6) = (  0.9040320  0.0959680  0.0779880  )
         7           As  tau(   7) = (  0.0633300  0.9366700  0.9418840  )
         8           As  tau(   8) = (  0.6755310  0.3244690  0.4858480  )
         9           As  tau(   9) = (  0.3244690  0.6755310  0.9858480  )
        10           As  tau(  10) = (  0.9366700  0.0633300  0.4418840  )

     number of k points=     1  Methfessel-Paxton smearing, width (Ry)=  0.0010
                       cart. coord. in units 2pi/alat
        k(    1) = (   0.0000000   0.0000000   0.0000000), wk =   2.0000000

                       cryst. coord.
        k(    1) = (   0.0000000   0.0000000   0.0000000), wk =   2.0000000

     Check: negative core charge=   -0.000002

     Initial potential from superposition of free atoms

     starting charge      83.8547, renormalised to      84.0000

     negative rho (up, down):  2.534E-01 0.000E+00
     Starting wfcs are   86 randomized atomic wfcs

     Self-consistent Calculation

     iteration #  1     ecut=    30.00 Ry     beta= 0.70
     Davidson diagonalization with overlap

     ethr =  1.00E-02,  avg # of iterations =  2.0

     negative rho (up, down):  2.579E-01 0.000E+00

     total energy              =    -597.59194323 Ry
     estimated scf accuracy    <       0.94061440 Ry

[...]

     total energy              =    -597.94937686 Ry
     estimated scf accuracy    <       0.00000581 Ry

     iteration # 11     ecut=    30.00 Ry     beta= 0.70
     Davidson diagonalization with overlap

     ethr =  6.92E-09,  avg # of iterations =  2.0

[...]

     End of self-consistent calculation

          k = 0.0000 0.0000 0.0000 (  2764 PWs)   bands (ev):

   -28.3800 -28.3775 -27.9788 -27.9670 -10.4956 -10.4697 -10.4664 -10.4104
   -10.3241 -10.3111 -10.2171 -10.0931 -10.0926 -10.0064  -9.9351  -9.9046
    -3.0249  -2.6698  -2.5771  -2.4311  -1.4373  -1.4243  -1.3647  -1.3589
    -1.3111  -1.2768  -1.2626  -1.0558  -0.8869  -0.8774   2.9894   3.7204
     4.6405   4.9775   5.8576   5.8727   6.0477   6.3356   6.4921   7.0143
     7.0227   7.1591   7.5964   8.5159   8.8545   8.8614   9.3644   9.7628
     9.7863   9.9458

     occupation numbers
     1.0000   1.0000   1.0000   1.0000   1.0000   1.0000   1.0000   1.0000
     1.0000   1.0000   1.0000   1.0000   1.0000   1.0000   1.0000   1.0000
     1.0000   1.0000   1.0000   1.0000   1.0000   1.0000   1.0000   1.0000
     1.0000   1.0000   1.0000   1.0000   1.0000   1.0000   1.0000   1.0000
     1.0000   1.0000   1.0000   1.0000   1.0000   1.0000   1.0000   1.0000
     1.0000   1.0000  -0.0000  -0.0000  -0.0000  -0.0000  -0.0000  -0.0000
    -0.0000  -0.0000

     the Fermi energy is     7.3680 ev

!    total energy              =    -597.94937724 Ry
     estimated scf accuracy    <       0.00000083 Ry
     smearing contrib. (-TS)   =       0.00000000 Ry
     internal energy E=F+TS    =    -597.94937724 Ry

     The total energy is F=E-TS. E is the sum of the following terms:
     one-electron contribution =    -182.20283469 Ry
     hartree contribution      =     134.16398343 Ry
     xc contribution           =    -196.08446359 Ry
     ewald contribution        =    -353.82606239 Ry

     convergence has been achieved in  11 iterations

     negative rho (up, down):  2.634E-01 0.000E+00

     Forces acting on atoms (cartesian axes, Ry/au):

     atom    1 type  1   force =    -0.00744022    0.00194037    0.01945564
     atom    2 type  1   force =     0.03450023   -0.00905770   -0.01671756
     atom    3 type  1   force =    -0.03450023    0.00905770   -0.01671756
     atom    4 type  1   force =     0.00744022   -0.00194037    0.01945564
     atom    5 type  2   force =    -0.02290101    0.00602163    0.02481200
     atom    6 type  2   force =     0.02290101   -0.00602163    0.02481200
     atom    7 type  3   force =    -0.02457651    0.00644104   -0.00916508
     atom    8 type  3   force =     0.06154720   -0.01613622   -0.01838500
     atom    9 type  3   force =    -0.06154720    0.01613622   -0.01838500
     atom   10 type  3   force =     0.02457651   -0.00644104   -0.00916508
     The non-local contrib.  to forces
     atom    1 type  1   force =    -0.02257735    0.00592586   -0.03264845
     atom    2 type  1   force =    -0.00848178    0.00221093    0.07398023
     atom    3 type  1   force =     0.00848178   -0.00221093    0.07398023
     atom    4 type  1   force =     0.02257735   -0.00592586   -0.03264845
     atom    5 type  2   force =     0.08242971   -0.02160660   -0.14923881
     atom    6 type  2   force =    -0.08242971    0.02160660   -0.14923881
     atom    7 type  3   force =    -0.06315766    0.01655351   -0.05480400
     atom    8 type  3   force =    -0.14694576    0.03852181    0.06345620
     atom    9 type  3   force =     0.14694576   -0.03852181    0.06345620
     atom   10 type  3   force =     0.06315766   -0.01655351   -0.05480400
     The ionic contribution  to forces
     atom    1 type  1   force =     3.71231322   -0.97322621   -0.81684113
     atom    2 type  1   force =     2.04076519   -0.53501040    1.51948066
     atom    3 type  1   force =    -2.04076519    0.53501040    1.51948065
     atom    4 type  1   force =    -3.71231322    0.97322621   -0.81684113
     atom    5 type  2   force =     3.79345189   -0.99449766   -0.71507732
     atom    6 type  2   force =    -3.79345189    0.99449766   -0.71507732
     atom    7 type  3   force =     2.57343559   -0.67465616    1.52460814
     atom    8 type  3   force =     3.29134142   -0.86286354   -1.51217034
     atom    9 type  3   force =    -3.29134142    0.86286354   -1.51217034
     atom   10 type  3   force =    -2.57343559    0.67465616    1.52460814
     The local contribution  to forces
     atom    1 type  1   force =    -3.69820894    0.96952446    0.86689683
     atom    2 type  1   force =    -1.99738680    0.52366662   -1.60503625
     atom    3 type  1   force =     1.99757417   -0.52369163   -1.60519681
     atom    4 type  1   force =     3.69806779   -0.96945339    0.86704743
     atom    5 type  2   force =    -3.89823808    1.02196750    0.88516448
     atom    6 type  2   force =     3.89811970   -1.02198579    0.88519297
     atom    7 type  3   force =    -2.54135100    0.66624082   -1.48458094
     atom    8 type  3   force =    -3.10241199    0.81331882    1.43764617
     atom    9 type  3   force =     3.10235741   -0.81334052    1.43764558
     atom   10 type  3   force =     2.54130304   -0.66623201   -1.48467790
     The core correction contribution to forces
     atom    1 type  1   force =     0.00155066   -0.00040657    0.00213672
     atom    2 type  1   force =     0.00055319   -0.00014292   -0.00493110
     atom    3 type  1   force =    -0.00054866    0.00014241   -0.00493392
     atom    4 type  1   force =    -0.00155201    0.00040849    0.00213916
     atom    5 type  2   force =    -0.00001172    0.00000216    0.00324375
     atom    6 type  2   force =     0.00001112   -0.00000580    0.00324588
     atom    7 type  3   force =     0.00656966   -0.00172217    0.00585451
     atom    8 type  3   force =     0.01980719   -0.00519440   -0.00742264
     atom    9 type  3   force =    -0.01981497    0.00519211   -0.00742568
     atom   10 type  3   force =    -0.00657836    0.00172392    0.00584833
     The Hubbard contrib.    to forces
     atom    1 type  1   force =     0.00000000    0.00000000    0.00000000
     atom    2 type  1   force =     0.00000000    0.00000000    0.00000000
     atom    3 type  1   force =     0.00000000    0.00000000    0.00000000
     atom    4 type  1   force =     0.00000000    0.00000000    0.00000000
     atom    5 type  2   force =     0.00000000    0.00000000    0.00000000
     atom    6 type  2   force =     0.00000000    0.00000000    0.00000000
     atom    7 type  3   force =     0.00000000    0.00000000    0.00000000
     atom    8 type  3   force =     0.00000000    0.00000000    0.00000000
     atom    9 type  3   force =     0.00000000    0.00000000    0.00000000
     atom   10 type  3   force =     0.00000000    0.00000000    0.00000000
     The SCF correction term to forces
     atom    1 type  1   force =    -0.00057874    0.00014787   -0.00004819
     atom    2 type  1   force =    -0.00089701    0.00021634   -0.00013758
     atom    3 type  1   force =     0.00081025   -0.00019429    0.00002079
     atom    4 type  1   force =     0.00059937   -0.00017079   -0.00013949
     atom    5 type  2   force =    -0.00053459    0.00017232    0.00084331
     atom    6 type  2   force =     0.00065002   -0.00011821    0.00070788
     atom    7 type  3   force =    -0.00011124    0.00003814   -0.00014523
     atom    8 type  3   force =    -0.00024324    0.00006470    0.00018868
     atom    9 type  3   force =     0.00030644   -0.00007348    0.00016818
     atom   10 type  3   force =     0.00009161   -0.00002250   -0.00009520

     Total force =     0.128699     Total SCF correction =     0.002139

     Computing stress (Cartesian axis) and pressure

     negative rho (up, down):  2.634E-01 0.000E+00
          total   stress  (Ry/bohr**3)                   (kbar)     P=      -10.09
  -0.00012879   0.00011291   0.00000000          -18.95       16.61        0.00
   0.00011291   0.00027231   0.00000000           16.61       40.06        0.00
   0.00000000   0.00000000  -0.00034926            0.00        0.00      -51.38

     kinetic stress (kbar)   8947.46     45.52      0.00
                               45.52   9109.14      0.00
                                0.00      0.00   8925.90

     local   stress (kbar)  -2125.11  -1155.73     -0.01
                            -1155.73  -6230.59      0.00
                               -0.01      0.00  -3062.32

     nonloc. stress (kbar)   2889.01     -7.97      0.00
                               -7.97   2860.71      0.00
                                0.00      0.00   2881.41

     hartree stress (kbar)   2508.27    518.25      0.01
                              518.25   4349.24     -0.00
                                0.01     -0.00   3070.51

     exc-cor stress (kbar)   5910.47      0.93      0.00
                                0.93   5913.76      0.00
                                0.00      0.00   5909.50

     corecor stress (kbar)  -8566.85     -1.92     -0.00
                               -1.92  -8573.66      0.00
                               -0.00      0.00  -8564.31

     ewald   stress (kbar)  -9582.20    617.54      0.00
                              617.54  -7388.55      0.00
                                0.00      0.00  -9212.07

     hubbard stress (kbar)      0.00      0.00      0.00
                                0.00      0.00      0.00
                                0.00      0.00      0.00

     DFT-D   stress (kbar)      0.00      0.00      0.00
                                0.00      0.00      0.00
                                0.00      0.00      0.00

     XDM     stress (kbar)      0.00      0.00      0.00
                                0.00      0.00      0.00
                                0.00      0.00      0.00

     dft-nl  stress (kbar)      0.00      0.00      0.00
                                0.00      0.00      0.00
                                0.00      0.00      0.00

     TS-vdW  stress (kbar)      0.00      0.00      0.00
                                0.00      0.00      0.00
                                0.00      0.00      0.00

[...]

                                0.00      0.00      0.00

     Writing all to output data dir new_calculations/myprefix.save/

     General routines

     Parallel routines

   This run was terminated on:   3:45:29  21May2023

   JOB DONE.