     Program PWSCF v.7.0 starts on 21May2023 at 20:43:37

     Reading input from espresso_20882.pwi
Warning: card &CELL ignored
Warning: card / ignored

     Current dimensions of program PWSCF are:
     Max number of different atomic species (ntypx) = 10
     Max number of k-points (npk) =  40000
     Max angular momentum in pseudopotentials (lmaxx) =  4

     gamma-point specific algorithms are used
     Message from routine setup:
     using ibrav=0 with symmetry is DISCOURAGED, use correct ibrav instead

     Subspace diagonalization in iterative solution of the eigenvalue problem:
     a serial algorithm will be used

     Using Slab Decomposition

     bravais-lattice index     =            0
     lattice parameter (alat)  =       7.0766  a.u.
     unit-cell volume          =     989.2427 (a.u.)^3
     number of atoms/cell      =           12
     number of atomic types    =            3
     number of electrons       =       144.00
     number of Kohn-Sham states=           86
     kinetic-energy cutoff     =      30.0000  Ry
     charge density cutoff     =     240.0000  Ry
     scf convergence threshold =      1.0E-06
     mixing beta               =       0.7000
     number of iterations used =            8  plain     mixing
     Exchange-correlation= PBE
                           (   1   4   3   4   0   0   0)

     celldm(1)=   7.076586  celldm(2)=   0.000000  celldm(3)=   0.000000
     celldm(4)=   0.000000  celldm(5)=   0.000000  celldm(6)=   0.000000

     crystal axes: (cart. coord. in units of alat)
               a(1) = (   1.000000   0.000000   0.000000 )
               a(2) = (   0.000000   1.551103   0.000000 )
               a(3) = (   0.000000   0.000000   1.799661 )

     reciprocal axes: (cart. coord. in units 2 pi/alat)
               b(1) = (  1.000000  0.000000  0.000000 )
               b(2) = (  0.000000  0.644702  0.000000 )
               b(3) = (  0.000000  0.000000  0.555660 )

     PseudoPot. # 1 for Co read from file:
     /home/pragov/projects/rrg-bengioy-ad/pragov/crystal_structure_design/SSSP/Co_pbe_v1.2.uspp.F.UPF
     MD5 check sum: 5f91765df6ddd3222702df6e7b74a16d
     Pseudo is Ultrasoft + core correction, Zval = 17.0
     Generated by new atomic code, or converted to UPF format
     Using radial grid of  863 points,  6 beta functions with:
                l(1) =   0
                l(2) =   0
                l(3) =   1
                l(4) =   1
                l(5) =   2
                l(6) =   2
     Q(r) pseudized with  8 coefficients,  rinner =    1.200   1.200   1.200
                                                       1.200   1.200

     PseudoPot. # 2 for Mo read from file:
     /home/pragov/projects/rrg-bengioy-ad/pragov/crystal_structure_design/SSSP/Mo_ONCV_PBE-1.0.oncvpsp.upf
     MD5 check sum: 1b5d28e075c9ccadda658a603575cd1f
     Pseudo is Norm-conserving, Zval = 14.0
     Generated using ONCVPSP code by D. R. Hamann
     Using radial grid of 1526 points,  6 beta functions with:
                l(1) =   0
                l(2) =   0
                l(3) =   1
                l(4) =   1
                l(5) =   2
                l(6) =   2

     PseudoPot. # 3 for P  read from file:
     /home/pragov/projects/rrg-bengioy-ad/pragov/crystal_structure_design/SSSP/P.pbe-n-rrkjus_psl.1.0.0.UPF
     MD5 check sum: 8b930f418f0a4573dca56cd030ffe088
     Pseudo is Ultrasoft + core correction, Zval =  5.0
     Generated using "atomic" code by A. Dal Corso  v.5.1
     Using radial grid of 1147 points,  6 beta functions with:
                l(1) =   0
                l(2) =   0
                l(3) =   1
                l(4) =   1
                l(5) =   2
                l(6) =   2
     Q(r) pseudized with 0 coefficients

     atomic species   valence    mass     pseudopotential
        Co            17.00    58.93319     Co( 1.00)
        Mo            14.00    95.95000     Mo( 1.00)
        P              5.00    30.97376     P ( 1.00)

      8 Sym. Ops., with inversion, found ( 6 have fractional translation)

                                    s                        frac. trans.

      isym =  1     identity

 cryst.   s( 1) = (     1          0          0      )
                  (     0          1          0      )
                  (     0          0          1      )

 cart.    s( 1) = (  1.0000000  0.0000000  0.0000000 )
                  (  0.0000000  1.0000000  0.0000000 )
                  (  0.0000000  0.0000000  1.0000000 )

      isym =  2     180 deg rotation - cart. axis [0,0,1]

 cryst.   s( 2) = (    -1          0          0      )    f =(  0.0000000 )
                  (     0         -1          0      )       (  0.5000000 )
                  (     0          0          1      )       (  0.5000000 )

 cart.    s( 2) = ( -1.0000000  0.0000000  0.0000000 )    f =(  0.0000000 )
                  (  0.0000000 -1.0000000  0.0000000 )       (  0.7755516 )
                  (  0.0000000  0.0000000  1.0000000 )       (  0.8998306 )

[...]

      isym =  4     180 deg rotation - cart. axis [1,0,0]

[...]

      isym =  5     inversion

 cryst.   s( 5) = (    -1          0          0      )
                  (     0         -1          0      )
                  (     0          0         -1      )

 cart.    s( 5) = ( -1.0000000  0.0000000  0.0000000 )
                  (  0.0000000 -1.0000000  0.0000000 )
                  (  0.0000000  0.0000000 -1.0000000 )

      isym =  6     inv. 180 deg rotation - cart. axis [0,0,1]

[...]

      isym =  8     inv. 180 deg rotation - cart. axis [1,0,0]

 cryst.   s( 8) = (    -1          0          0      )    f =( -0.5000000 )
                  (     0          1          0      )       (  0.0000000 )
                  (     0          0          1      )       (  0.0000000 )

 cart.    s( 8) = ( -1.0000000  0.0000000  0.0000000 )    f =( -0.5000000 )
                  (  0.0000000  1.0000000  0.0000000 )       (  0.0000000 )
                  (  0.0000000  0.0000000  1.0000000 )       (  0.0000000 )

   Cartesian axes

     site n.     atom                  positions (alat units)
         1           Co  tau(   1) = (   0.7500000   0.9931668   0.7789186  )
         2           Co  tau(   2) = (   0.2500000   1.3334882   1.6787492  )
         3           Co  tau(   3) = (   0.7500000   0.2176151   0.1209120  )
         4           Co  tau(   4) = (   0.2500000   0.5579365   1.0207427  )
         5           Mo  tau(   5) = (   0.2500000   0.7257225   0.3061350  )
         6           Mo  tau(   6) = (   0.2500000   1.5012741   0.5936957  )
         7           Mo  tau(   7) = (   0.7500000   0.0498292   1.2059656  )
         8           Mo  tau(   8) = (   0.7500000   0.8253808   1.4935263  )
         9           P   tau(   9) = (   0.2500000   1.1382446   1.1146868  )
        10           P   tau(  10) = (   0.2500000   0.3626929   1.5848051  )
        11           P   tau(  11) = (   0.7500000   0.4128587   0.6849745  )
        12           P   tau(  12) = (   0.7500000   1.1884104   0.2148562  )

   Crystallographic axes

     site n.     atom                  positions (cryst. coord.)
         1           Co  tau(   1) = (  0.7500000  0.6402970  0.4328140  )
         2           Co  tau(   2) = (  0.2500000  0.8597030  0.9328140  )
         3           Co  tau(   3) = (  0.7500000  0.1402970  0.0671860  )
         4           Co  tau(   4) = (  0.2500000  0.3597030  0.5671860  )
         5           Mo  tau(   5) = (  0.2500000  0.4678750  0.1701070  )
         6           Mo  tau(   6) = (  0.2500000  0.9678750  0.3298930  )
         7           Mo  tau(   7) = (  0.7500000  0.0321250  0.6701070  )
         8           Mo  tau(   8) = (  0.7500000  0.5321250  0.8298930  )
         9           P   tau(   9) = (  0.2500000  0.7338290  0.6193870  )
        10           P   tau(  10) = (  0.2500000  0.2338290  0.8806130  )
        11           P   tau(  11) = (  0.7500000  0.2661710  0.3806130  )
        12           P   tau(  12) = (  0.7500000  0.7661710  0.1193870  )

     number of k points=     1  Methfessel-Paxton smearing, width (Ry)=  0.0010
                       cart. coord. in units 2pi/alat
        k(    1) = (   0.0000000   0.0000000   0.0000000), wk =   2.0000000

                       cryst. coord.
        k(    1) = (   0.0000000   0.0000000   0.0000000), wk =   2.0000000

     Check: negative core charge=   -0.000013

     Initial potential from superposition of free atoms

     starting charge     139.9954, renormalised to     144.0000
     Starting wfcs are  108 randomized atomic wfcs

     Self-consistent Calculation

     iteration #  1     ecut=    30.00 Ry     beta= 0.70
     Davidson diagonalization with overlap

     ethr =  1.00E-02,  avg # of iterations =  4.0

     total energy              =   -1770.68443571 Ry
     estimated scf accuracy    <      36.51473384 Ry

[...]

     total energy              =   -1798.91075476 Ry
     estimated scf accuracy    <       0.00000336 Ry

     iteration # 27     ecut=    30.00 Ry     beta= 0.70
     Davidson diagonalization with overlap

     ethr =  1.18E-09,  avg # of iterations =  1.0

     End of self-consistent calculation

          k = 0.0000 0.0000 0.0000 (  1377 PWs)   bands (ev):

   -75.9504 -75.9502 -75.9419 -75.9417 -41.6818 -41.6567 -41.6421 -41.6154
   -39.3963 -39.3949 -39.3527 -39.3523 -39.3294 -39.3257 -39.3191 -39.3168
   -39.0104 -39.0103 -38.9673 -38.9605 -16.0284 -15.9644 -15.8746 -15.8624
   -15.8308 -15.7937 -15.7813 -15.6853 -15.6747 -15.6489 -15.5996 -15.5771
     5.5066   7.1895   7.5187   7.8250  11.8943  12.0406  13.0976  13.1053
    13.5084  13.6289  13.6768  14.0725  14.3499  14.6028  15.0377  15.4510
    15.6471  15.8254  15.8956  16.2879  16.3179  16.5408  16.6588  16.9493
    16.9605  16.9817  17.2026  17.3569  17.3946  17.4920  17.6897  17.9342
    18.0959  18.2167  18.4534  18.5770  18.6020  18.9953  19.0147  19.4093
    19.4136  19.5727  19.6941  20.1102  20.3040  20.3816  20.4123  21.2127
    21.4708  22.0091  22.2847  22.5559  22.5637  23.0393

     occupation numbers
     1.0000   1.0000   1.0000   1.0000   1.0000   1.0000   1.0000   1.0000
     1.0000   1.0000   1.0000   1.0000   1.0000   1.0000   1.0000   1.0000
     1.0000   1.0000   1.0000   1.0000   1.0000   1.0000   1.0000   1.0000
     1.0000   1.0000   1.0000   1.0000   1.0000   1.0000   1.0000   1.0000
     1.0000   1.0000   1.0000   1.0000   1.0000   1.0000   1.0000   1.0000
     1.0000   1.0000   1.0000   1.0000   1.0000   1.0000   1.0000   1.0000
     1.0000   1.0000   1.0000   1.0000   1.0000   1.0000   1.0000   1.0000
     1.0000   1.0000   1.0000   1.0000   1.0000   1.0000   1.0000   1.0000
     1.0000   1.0000   1.0000   1.0000   1.0000   1.0000   1.0000   0.6316
     0.3684  -0.0000  -0.0000  -0.0000  -0.0000  -0.0000  -0.0000  -0.0000
    -0.0000  -0.0000  -0.0000  -0.0000  -0.0000  -0.0000

     the Fermi energy is    19.4114 ev

!    total energy              =   -1798.91075427 Ry
     estimated scf accuracy    <       0.00000068 Ry
     smearing contrib. (-TS)   =      -0.00052296 Ry
     internal energy E=F+TS    =   -1798.91023131 Ry

     The total energy is F=E-TS. E is the sum of the following terms:
     one-electron contribution =    -846.30952555 Ry
     hartree contribution      =     516.27007565 Ry
     xc contribution           =    -212.10776598 Ry
     ewald contribution        =   -1256.76301543 Ry

     convergence has been achieved in  27 iterations

     Forces acting on atoms (cartesian axes, Ry/au):

     atom    1 type  1   force =    -0.00000000    0.04860441    0.02566484
     atom    2 type  1   force =     0.00000000   -0.04860441    0.02566484
     atom    3 type  1   force =     0.00000000    0.04860441   -0.02566484
     atom    4 type  1   force =     0.00000000   -0.04860441   -0.02566484
     atom    5 type  2   force =     0.00000000    0.01585862    0.09167775
     atom    6 type  2   force =     0.00000000    0.01585862   -0.09167775
     atom    7 type  2   force =    -0.00000000   -0.01585862    0.09167775
     atom    8 type  2   force =    -0.00000000   -0.01585862   -0.09167775
     atom    9 type  3   force =    -0.00000000    0.05903675    0.04389263
     atom   10 type  3   force =    -0.00000000    0.05903675   -0.04389263
     atom   11 type  3   force =     0.00000000   -0.05903675   -0.04389263
     atom   12 type  3   force =     0.00000000   -0.05903675    0.04389263
     The non-local contrib.  to forces
     atom    1 type  1   force =     0.00000000    0.10233549    0.36909334
     atom    2 type  1   force =     0.00000000   -0.10233549    0.36909334
     atom    3 type  1   force =     0.00000000    0.10233549   -0.36909334
     atom    4 type  1   force =     0.00000000   -0.10233549   -0.36909334
     atom    5 type  2   force =     0.00000000    0.03343536    0.05996738
     atom    6 type  2   force =    -0.00000000    0.03343536   -0.05996738
     atom    7 type  2   force =     0.00000000   -0.03343536    0.05996738
     atom    8 type  2   force =     0.00000000   -0.03343536   -0.05996738
     atom    9 type  3   force =    -0.00000000   -0.02387945    0.00264920
     atom   10 type  3   force =    -0.00000000   -0.02387945   -0.00264920
     atom   11 type  3   force =     0.00000000    0.02387945   -0.00264920
     atom   12 type  3   force =     0.00000000    0.02387945    0.00264920
     The ionic contribution  to forces
     atom    1 type  1   force =     0.00000000    6.65475668   -3.39747962
     atom    2 type  1   force =     0.00000000   -6.65475668   -3.39747962
     atom    3 type  1   force =     0.00000000    6.65475667    3.39747962
     atom    4 type  1   force =    -0.00000000   -6.65475668    3.39747962
     atom    5 type  2   force =    -0.00000000    0.83674419   -3.99556918
     atom    6 type  2   force =    -0.00000000    0.83674419    3.99556918
     atom    7 type  2   force =    -0.00000000   -0.83674419   -3.99556918
     atom    8 type  2   force =     0.00000000   -0.83674419    3.99556918
     atom    9 type  3   force =    -0.00000000    3.02613826    0.89996983
     atom   10 type  3   force =    -0.00000000    3.02613826   -0.89996983
     atom   11 type  3   force =     0.00000000   -3.02613826   -0.89996983
     atom   12 type  3   force =    -0.00000000   -3.02613826    0.89996983
     The local contribution  to forces
     atom    1 type  1   force =     0.00000056   -6.70579987    3.05828152
     atom    2 type  1   force =    -0.00000070    6.70554966    3.06244592
     atom    3 type  1   force =     0.00000077   -6.70492907   -3.05798087
     atom    4 type  1   force =    -0.00000122    6.70594427   -3.06253662
     atom    5 type  2   force =     0.00000039   -0.85458426    4.02831259
     atom    6 type  2   force =     0.00000062   -0.85420108   -4.02798021
     atom    7 type  2   force =    -0.00000052    0.85451620    4.02611632
     atom    8 type  2   force =     0.00000100    0.85399701   -4.02648004
     atom    9 type  3   force =    -0.00000054   -2.94498389   -0.85846811
     atom   10 type  3   force =     0.00000030   -2.94467443    0.85839034
     atom   11 type  3   force =     0.00000039    2.94492492    0.85723308
     atom   12 type  3   force =     0.00000042    2.94474350   -0.85717283
     The core correction contribution to forces
     atom    1 type  1   force =    -0.00000001   -0.00284140   -0.00630785
     atom    2 type  1   force =     0.00000001    0.00284647   -0.00630930
     atom    3 type  1   force =     0.00000001   -0.00284126    0.00630909
     atom    4 type  1   force =     0.00000001    0.00284708    0.00630851
     atom    5 type  2   force =     0.00000000    0.00000000    0.00000000
     atom    6 type  2   force =     0.00000000    0.00000000    0.00000000
     atom    7 type  2   force =     0.00000000    0.00000000    0.00000000
     atom    8 type  2   force =     0.00000000    0.00000000    0.00000000
     atom    9 type  3   force =    -0.00000002    0.00163853   -0.00090128
     atom   10 type  3   force =     0.00000002    0.00163751    0.00090176
     atom   11 type  3   force =     0.00000001   -0.00164184    0.00090402
     atom   12 type  3   force =     0.00000002   -0.00164152   -0.00090334
     The Hubbard contrib.    to forces
     atom    1 type  1   force =     0.00000000    0.00000000    0.00000000
     atom    2 type  1   force =     0.00000000    0.00000000    0.00000000
     atom    3 type  1   force =     0.00000000    0.00000000    0.00000000
     atom    4 type  1   force =     0.00000000    0.00000000    0.00000000
     atom    5 type  2   force =     0.00000000    0.00000000    0.00000000
     atom    6 type  2   force =     0.00000000    0.00000000    0.00000000
     atom    7 type  2   force =     0.00000000    0.00000000    0.00000000
     atom    8 type  2   force =     0.00000000    0.00000000    0.00000000
     atom    9 type  3   force =     0.00000000    0.00000000    0.00000000
     atom   10 type  3   force =     0.00000000    0.00000000    0.00000000
     atom   11 type  3   force =     0.00000000    0.00000000    0.00000000
     atom   12 type  3   force =     0.00000000    0.00000000    0.00000000
     The SCF correction term to forces
     atom    1 type  1   force =    -0.00000035    0.00022924    0.00205243
     atom    2 type  1   force =     0.00000134    0.00009107   -0.00202637
     atom    3 type  1   force =    -0.00000135   -0.00069149   -0.00233706
     atom    4 type  1   force =     0.00000100   -0.00020139    0.00216882
     atom    5 type  2   force =     0.00000019    0.00027343   -0.00103004
     atom    6 type  2   force =    -0.00000033   -0.00012660    0.00069498
     atom    7 type  2   force =     0.00000052   -0.00020088    0.00115180
     atom    8 type  2   force =    -0.00000122    0.00033291   -0.00080225
     atom    9 type  3   force =     0.00000027    0.00010714    0.00063400
     atom   10 type  3   force =    -0.00000002   -0.00020543   -0.00054836
     atom   11 type  3   force =    -0.00000026   -0.00007780    0.00057555
     atom   12 type  3   force =    -0.00000020    0.00010039   -0.00063765

     Total force =     0.261452     Total SCF correction =     0.004933

     Computing stress (Cartesian axis) and pressure

          total   stress  (Ry/bohr**3)                   (kbar)     P=     -269.42
  -0.00172476   0.00000000   0.00000000         -253.72        0.00        0.00
   0.00000000  -0.00243532   0.00000000            0.00     -358.25        0.00
   0.00000000   0.00000000  -0.00133440            0.00        0.00     -196.30

     kinetic stress (kbar)  36218.21      0.00      0.00
                                0.00  36406.80      0.00
                                0.00      0.00  36503.66

     local   stress (kbar)  -9223.96      0.00      0.00
                                0.00  -6524.96     -0.04
                                0.00     -0.04  -5365.55

     nonloc. stress (kbar)  16798.80      0.00      0.00
                                0.00  16951.16      0.00
                                0.00      0.00  16844.67

     hartree stress (kbar)  27034.44     -0.00     -0.00
                               -0.00  25286.95      0.01
                               -0.00      0.01  24450.42

     exc-cor stress (kbar)  -7831.61      0.00     -0.00
                                0.00  -7822.55      0.00
                               -0.00      0.00  -7823.16

     corecor stress (kbar)  -1940.83      0.00      0.00
                                0.00  -1942.78      0.00
                                0.00      0.00  -1941.34

     ewald   stress (kbar) -61308.76     -0.00      0.00
                               -0.00 -62712.87      0.00
                                0.00      0.00 -62864.99

     hubbard stress (kbar)      0.00      0.00      0.00
                                0.00      0.00      0.00
                                0.00      0.00      0.00

     DFT-D   stress (kbar)      0.00      0.00      0.00
                                0.00      0.00      0.00
                                0.00      0.00      0.00

     XDM     stress (kbar)      0.00      0.00      0.00
                                0.00      0.00      0.00
                                0.00      0.00      0.00

     dft-nl  stress (kbar)      0.00      0.00      0.00
                                0.00      0.00      0.00
                                0.00      0.00      0.00

     TS-vdW  stress (kbar)      0.00      0.00      0.00
                                0.00      0.00      0.00
                                0.00      0.00      0.00

[...]

                                0.00      0.00      0.00

     Writing all to output data dir new_calculations/myprefix.save/

     General routines

     Parallel routines

   This run was terminated on:  20:44: 0  21May2023

   JOB DONE.