     Program PWSCF v.7.0 starts on 20May2023 at  8:42:14

     Reading input from espresso_1276.pwi
Warning: card &CELL ignored
Warning: card / ignored

     Current dimensions of program PWSCF are:
     Max number of different atomic species (ntypx) = 10
     Max number of k-points (npk) =  40000
     Max angular momentum in pseudopotentials (lmaxx) =  4
     file Ba.pbe-spn-kjpaw_psl.1.0.0.UPF: wavefunction(s)  5S 6S renormalized
     file Pb.pbe-dn-kjpaw_psl.0.2.2.UPF: wavefunction(s)  6S renormalized

     gamma-point specific algorithms are used
     Message from routine setup:
     using ibrav=0 with symmetry is DISCOURAGED, use correct ibrav instead

     Subspace diagonalization in iterative solution of the eigenvalue problem:
     a serial algorithm will be used

     Using Slab Decomposition

     bravais-lattice index     =            0
     lattice parameter (alat)  =      10.9660  a.u.
     unit-cell volume          =    3732.1748 (a.u.)^3
     number of atoms/cell      =           12
     number of atomic types    =            2
     number of electrons       =       136.00
     number of Kohn-Sham states=           82
     kinetic-energy cutoff     =      30.0000  Ry
     charge density cutoff     =     240.0000  Ry
     scf convergence threshold =      1.0E-06
     mixing beta               =       0.7000
     number of iterations used =            8  plain     mixing
     Exchange-correlation= SLA  PW   PBX  PBC
                           (   1   4   3   4   0   0   0)

     celldm(1)=  10.966033  celldm(2)=   0.000000  celldm(3)=   0.000000
     celldm(4)=   0.000000  celldm(5)=   0.000000  celldm(6)=   0.000000

     crystal axes: (cart. coord. in units of alat)
               a(1) = (   1.000000   0.000000   0.000000 )
               a(2) = (   0.000000   1.516888   0.000000 )
               a(3) = (   0.000000   0.000000   1.865777 )

     reciprocal axes: (cart. coord. in units 2 pi/alat)
               b(1) = (  1.000000  0.000000  0.000000 )
               b(2) = (  0.000000  0.659244  0.000000 )
               b(3) = (  0.000000  0.000000  0.535970 )

     PseudoPot. # 1 for Ba read from file:
     /home/pragov/projects/rrg-bengioy-ad/pragov/crystal_structure_design/SSSP/Ba.pbe-spn-kjpaw_psl.1.0.0.UPF
     MD5 check sum: c432291d3e53af55f19d5e8866385beb
     Pseudo is Projector augmented-wave + core cor, Zval = 10.0
     Generated using "atomic" code by A. Dal Corso  v.5.1
     Shape of augmentation charge: PSQ
     Using radial grid of 1251 points,  7 beta functions with:
                l(1) =   0
                l(2) =   0
                l(3) =   0
                l(4) =   1
                l(5) =   1
                l(6) =   2
                l(7) =   2
     Q(r) pseudized with 0 coefficients

     PseudoPot. # 2 for Pb read from file:
     /home/pragov/projects/rrg-bengioy-ad/pragov/crystal_structure_design/SSSP/Pb.pbe-dn-kjpaw_psl.0.2.2.UPF
     MD5 check sum: 9d431e6316058b74ade52399a6cf67da
     Pseudo is Projector augmented-wave + core cor, Zval = 14.0
     Generated using "atomic" code by A. Dal Corso  v.5.0.99 svn rev. 10869
     Shape of augmentation charge: PSQ
     Using radial grid of 1281 points,  6 beta functions with:
                l(1) =   0
                l(2) =   0
                l(3) =   1
                l(4) =   1
                l(5) =   2
                l(6) =   2
     Q(r) pseudized with 0 coefficients

     atomic species   valence    mass     pseudopotential
        Ba            10.00   137.32700     Ba( 1.00)
        Pb            14.00   207.20000     Pb( 1.00)

      8 Sym. Ops., with inversion, found ( 6 have fractional translation)

                                    s                        frac. trans.

      isym =  1     identity

 cryst.   s( 1) = (     1          0          0      )
                  (     0          1          0      )
                  (     0          0          1      )

 cart.    s( 1) = (  1.0000000  0.0000000  0.0000000 )
                  (  0.0000000  1.0000000  0.0000000 )
                  (  0.0000000  0.0000000  1.0000000 )

      isym =  2     180 deg rotation - cart. axis [0,0,1]

 cryst.   s( 2) = (    -1          0          0      )    f =(  0.0000000 )
                  (     0         -1          0      )       (  0.5000000 )
                  (     0          0          1      )       ( -0.5000000 )

 cart.    s( 2) = ( -1.0000000  0.0000000  0.0000000 )    f =(  0.0000000 )
                  (  0.0000000 -1.0000000  0.0000000 )       (  0.7584441 )
                  (  0.0000000  0.0000000  1.0000000 )       ( -0.9328885 )

[...]

      isym =  4     180 deg rotation - cart. axis [1,0,0]

[...]

      isym =  5     inversion

 cryst.   s( 5) = (    -1          0          0      )
                  (     0         -1          0      )
                  (     0          0         -1      )

 cart.    s( 5) = ( -1.0000000  0.0000000  0.0000000 )
                  (  0.0000000 -1.0000000  0.0000000 )
                  (  0.0000000  0.0000000 -1.0000000 )

      isym =  6     inv. 180 deg rotation - cart. axis [0,0,1]

[...]

      isym =  8     inv. 180 deg rotation - cart. axis [1,0,0]

 cryst.   s( 8) = (    -1          0          0      )    f =(  0.5000000 )
                  (     0          1          0      )       (  0.0000000 )
                  (     0          0          1      )       (  0.0000000 )

 cart.    s( 8) = ( -1.0000000  0.0000000  0.0000000 )    f =(  0.5000000 )
                  (  0.0000000  1.0000000  0.0000000 )       (  0.0000000 )
                  (  0.0000000  0.0000000  1.0000000 )       (  0.0000000 )

   Cartesian axes

     site n.     atom                  positions (alat units)
         1           Ba  tau(   1) = (   0.2500000   0.0284432   0.5915614  )
         2           Ba  tau(   2) = (   0.7500000   1.4884450   1.2742156  )
         3           Ba  tau(   3) = (   0.2500000   0.7868872   0.3413271  )
         4           Ba  tau(   4) = (   0.7500000   0.7300009   1.5244498  )
         5           Ba  tau(   5) = (   0.7500000   0.5157207   0.7852981  )
         6           Ba  tau(   6) = (   0.2500000   1.0011674   1.0804789  )
         7           Ba  tau(   7) = (   0.7500000   1.2741648   0.1475904  )
         8           Ba  tau(   8) = (   0.2500000   0.2427233   1.7181865  )
         9           Pb  tau(   9) = (   0.2500000   0.3749383   1.1222854  )
        10           Pb  tau(  10) = (   0.7500000   1.1419498   0.7434916  )
        11           Pb  tau(  11) = (   0.2500000   1.1333824   1.6763801  )
        12           Pb  tau(  12) = (   0.7500000   0.3835057   0.1893969  )

   Crystallographic axes

     site n.     atom                  positions (cryst. coord.)
         1           Ba  tau(   1) = (  0.2500000  0.0187510  0.3170590  )
         2           Ba  tau(   2) = (  0.7500000  0.9812490  0.6829410  )
         3           Ba  tau(   3) = (  0.2500000  0.5187510  0.1829410  )
         4           Ba  tau(   4) = (  0.7500000  0.4812490  0.8170590  )
         5           Ba  tau(   5) = (  0.7500000  0.3399860  0.4208960  )
         6           Ba  tau(   6) = (  0.2500000  0.6600140  0.5791040  )
         7           Ba  tau(   7) = (  0.7500000  0.8399860  0.0791040  )
         8           Ba  tau(   8) = (  0.2500000  0.1600140  0.9208960  )
         9           Pb  tau(   9) = (  0.2500000  0.2471760  0.6015110  )
        10           Pb  tau(  10) = (  0.7500000  0.7528240  0.3984890  )
        11           Pb  tau(  11) = (  0.2500000  0.7471760  0.8984890  )
        12           Pb  tau(  12) = (  0.7500000  0.2528240  0.1015110  )

     number of k points=     1  Methfessel-Paxton smearing, width (Ry)=  0.0010
                       cart. coord. in units 2pi/alat
        k(    1) = (   0.0000000   0.0000000   0.0000000), wk =   2.0000000

                       cryst. coord.
        k(    1) = (   0.0000000   0.0000000   0.0000000), wk =   2.0000000

     Initial potential from superposition of free atoms

     starting charge     135.8546, renormalised to     136.0000
     Starting wfcs are   76 randomized atomic wfcs +    6 random wfcs
     Checking if some PAW data can be deallocated...

     Self-consistent Calculation

     iteration #  1     ecut=    30.00 Ry     beta= 0.70
     Davidson diagonalization with overlap

     ethr =  1.00E-02,  avg # of iterations =  8.0

     Threshold (ethr) on eigenvalues was too large:
     Diagonalizing with lowered threshold

     Davidson diagonalization with overlap

[...]

     negative rho (up, down):  5.729E-02 0.000E+00

     total energy              =   -6971.89398604 Ry
     estimated scf accuracy    <       0.59815640 Ry

[...]

     negative rho (up, down):  1.715E-05 0.000E+00

[...]

     total energy              =   -6972.02557922 Ry
     estimated scf accuracy    <       0.00000143 Ry

     iteration # 34     ecut=    30.00 Ry     beta= 0.70
     Davidson diagonalization with overlap

     ethr =  1.05E-09,  avg # of iterations =  1.0

     End of self-consistent calculation

          k = 0.0000 0.0000 0.0000 (  5169 PWs)   bands (ev):

   -21.0487 -21.0426 -21.0370 -21.0333 -20.5838 -20.5811 -20.5670 -20.5662
    -8.0699  -8.0613  -8.0590  -8.0583  -8.0489  -8.0397  -8.0393  -8.0393
    -8.0232  -8.0223  -8.0139  -8.0111  -7.9854  -7.9797  -7.9779  -7.9727
    -7.9692  -7.9669  -7.9664  -7.9628  -6.4264  -6.4249  -6.3359  -6.3031
    -6.2776  -6.2625  -6.2497  -6.2215  -6.2129  -6.1817  -6.1447  -6.1202
    -5.9538  -5.8874  -5.8357  -5.8243  -5.7890  -5.7636  -5.7574  -5.7550
    -5.7170  -5.7095  -5.7021  -5.6383  -0.0164   0.3275   0.3444   0.3656
     5.9254   6.1144   6.6037   6.6178   6.7143   6.7430   7.0003   7.0014
     7.0162   7.3715   7.6545   7.7528   7.8302   7.8310   8.4553   8.4583
     8.5436   8.7600   8.8459   9.0584   9.0830   9.3334   9.4086   9.6161
     9.6936   9.7438

     occupation numbers
     1.0000   1.0000   1.0000   1.0000   1.0000   1.0000   1.0000   1.0000
     1.0000   1.0000   1.0000   1.0000   1.0000   1.0000   1.0000   1.0000
     1.0000   1.0000   1.0000   1.0000   1.0000   1.0000   1.0000   1.0000
     1.0000   1.0000   1.0000   1.0000   1.0000   1.0000   1.0000   1.0000
     1.0000   1.0000   1.0000   1.0000   1.0000   1.0000   1.0000   1.0000
     1.0000   1.0000   1.0000   1.0000   1.0000   1.0000   1.0000   1.0000
     1.0000   1.0000   1.0000   1.0000   1.0000   1.0000   1.0000   1.0000
     1.0000   1.0000   1.0000   1.0000   1.0000   1.0000   1.0000   1.0000
     1.0000   1.0000   1.0000   1.0003  -0.0002  -0.0001  -0.0000  -0.0000
    -0.0000  -0.0000  -0.0000  -0.0000  -0.0000  -0.0000  -0.0000  -0.0000
    -0.0000  -0.0000

     the Fermi energy is     7.7908 ev

!    total energy              =   -6972.02557900 Ry

     total all-electron energy =   -297226.884390 Ry
     estimated scf accuracy    <       0.00000067 Ry
     smearing contrib. (-TS)   =       0.00000343 Ry
     internal energy E=F+TS    =   -6972.02558243 Ry

     The total energy is F=E-TS. E is the sum of the following terms:
     one-electron contribution =    -271.68147670 Ry
     hartree contribution      =     211.25708819 Ry
     xc contribution           =    -339.58478027 Ry
     ewald contribution        =    -658.50329302 Ry
     one-center paw contrib.   =   -5913.51312063 Ry
      -> PAW hartree energy AE =     636.76383182 Ry
      -> PAW hartree energy PS =    -635.12573259 Ry
      -> PAW xc energy AE      =   -6244.27724039 Ry
      -> PAW xc energy PS      =     329.12602053 Ry
      -> total E_H with PAW    =     212.89518743 Ry
      -> total E_XC with PAW   =   -6254.73600014 Ry

     convergence has been achieved in  34 iterations

     Forces acting on atoms (cartesian axes, Ry/au):

     atom    1 type  1   force =     0.00000000   -0.02599892    0.01047090
     atom    2 type  1   force =    -0.00000000    0.02599892   -0.01047090
     atom    3 type  1   force =     0.00000000   -0.02599892   -0.01047090
     atom    4 type  1   force =     0.00000000    0.02599892    0.01047090
     atom    5 type  1   force =    -0.00000000    0.00924238    0.00907055
     atom    6 type  1   force =    -0.00000000   -0.00924238   -0.00907055
     atom    7 type  1   force =     0.00000000    0.00924238   -0.00907055
     atom    8 type  1   force =     0.00000000   -0.00924238    0.00907055
     atom    9 type  2   force =     0.00000000   -0.01921056   -0.00748905
     atom   10 type  2   force =     0.00000000    0.01921056    0.00748905
     atom   11 type  2   force =     0.00000000   -0.01921056    0.00748905
     atom   12 type  2   force =     0.00000000    0.01921056   -0.00748905
     The non-local contrib.  to forces
     atom    1 type  1   force =     0.00000000   -0.04028813   -0.01445931
     atom    2 type  1   force =    -0.00000000    0.04028813    0.01445931
     atom    3 type  1   force =     0.00000000   -0.04028813    0.01445931
     atom    4 type  1   force =     0.00000000    0.04028813   -0.01445931
     atom    5 type  1   force =     0.00000000   -0.05271631    0.05278957
     atom    6 type  1   force =     0.00000000    0.05271631   -0.05278957
     atom    7 type  1   force =     0.00000000   -0.05271631   -0.05278957
     atom    8 type  1   force =     0.00000000    0.05271631    0.05278957
     atom    9 type  2   force =    -0.00000000    0.01365610   -0.04529385
     atom   10 type  2   force =     0.00000000   -0.01365610    0.04529385
     atom   11 type  2   force =     0.00000000    0.01365610    0.04529385
     atom   12 type  2   force =     0.00000000   -0.01365610   -0.04529385
     The ionic contribution  to forces
     atom    1 type  1   force =     0.00000000    0.12342086   -0.92170574
     atom    2 type  1   force =     0.00000000   -0.12342086    0.92170574
     atom    3 type  1   force =     0.00000000    0.12342086    0.92170574
     atom    4 type  1   force =    -0.00000000   -0.12342086   -0.92170574
     atom    5 type  1   force =     0.00000000   -0.39058929   -0.01118743
     atom    6 type  1   force =     0.00000000    0.39058929    0.01118743
     atom    7 type  1   force =     0.00000000   -0.39058929    0.01118743
     atom    8 type  1   force =     0.00000000    0.39058929   -0.01118743
     atom    9 type  2   force =    -0.00000000   -0.40022638    0.37973610
     atom   10 type  2   force =    -0.00000000    0.40022638   -0.37973610
     atom   11 type  2   force =     0.00000000   -0.40022638   -0.37973610
     atom   12 type  2   force =     0.00000000    0.40022638    0.37973610
     The local contribution  to forces
     atom    1 type  1   force =     0.00010716   -0.11241531    0.94649886
     atom    2 type  1   force =    -0.00018282    0.11251847   -0.94646036
     atom    3 type  1   force =    -0.00044554   -0.11265285   -0.94662362
     atom    4 type  1   force =    -0.00014859    0.11328488    0.94694317
     atom    5 type  1   force =     0.00001325    0.44800005   -0.02725557
     atom    6 type  1   force =    -0.00040692   -0.44814073    0.02687921
     atom    7 type  1   force =    -0.00069948    0.44814713    0.02676788
     atom    8 type  1   force =    -0.00006764   -0.44778246   -0.02685674
     atom    9 type  2   force =     0.00000056    0.36785595   -0.34302180
     atom   10 type  2   force =    -0.00000053   -0.36786427    0.34310279
     atom   11 type  2   force =    -0.00000823    0.36766109    0.34292614
     atom   12 type  2   force =    -0.00000539   -0.36764884   -0.34300754
     The core correction contribution to forces
     atom    1 type  1   force =     0.00000280    0.00359369   -0.00001421
     atom    2 type  1   force =    -0.00000702   -0.00359279    0.00001400
     atom    3 type  1   force =    -0.00001162    0.00358736    0.00000778
     atom    4 type  1   force =    -0.00000352   -0.00357202   -0.00000022
     atom    5 type  1   force =     0.00000248    0.00451830   -0.00559402
     atom    6 type  1   force =    -0.00000648   -0.00452245    0.00560582
     atom    7 type  1   force =    -0.00001242    0.00452560    0.00558880
     atom    8 type  1   force =     0.00000194   -0.00451891   -0.00559416
     atom    9 type  2   force =    -0.00000009   -0.00042415    0.00109364
     atom   10 type  2   force =     0.00000004    0.00042407   -0.00109362
     atom   11 type  2   force =    -0.00000018   -0.00042461   -0.00109411
     atom   12 type  2   force =     0.00000002    0.00042472    0.00109399
     The Hubbard contrib.    to forces
     atom    1 type  1   force =     0.00000000    0.00000000    0.00000000
     atom    2 type  1   force =     0.00000000    0.00000000    0.00000000
     atom    3 type  1   force =     0.00000000    0.00000000    0.00000000
     atom    4 type  1   force =     0.00000000    0.00000000    0.00000000
     atom    5 type  1   force =     0.00000000    0.00000000    0.00000000
     atom    6 type  1   force =     0.00000000    0.00000000    0.00000000
     atom    7 type  1   force =     0.00000000    0.00000000    0.00000000
     atom    8 type  1   force =     0.00000000    0.00000000    0.00000000
     atom    9 type  2   force =     0.00000000    0.00000000    0.00000000
     atom   10 type  2   force =     0.00000000    0.00000000    0.00000000
     atom   11 type  2   force =     0.00000000    0.00000000    0.00000000
     atom   12 type  2   force =     0.00000000    0.00000000    0.00000000
     The SCF correction term to forces
     atom    1 type  1   force =    -0.00001277   -0.00004288   -0.00001658
     atom    2 type  1   force =     0.00002043    0.00004030   -0.00001153
     atom    3 type  1   force =     0.00004860    0.00000438   -0.00003872
     atom    4 type  1   force =     0.00001711   -0.00007783    0.00002035
     atom    5 type  1   force =     0.00001101   -0.00004793    0.00001037
     atom    6 type  1   force =     0.00005001    0.00005452    0.00000103
     atom    7 type  1   force =     0.00008067    0.00004958    0.00002682
     atom    8 type  1   force =     0.00000832   -0.00008911    0.00003333
     atom    9 type  2   force =    -0.00000141   -0.00008113   -0.00000242
     atom   10 type  2   force =     0.00000164    0.00008945   -0.00008111
     atom   11 type  2   force =     0.00000768    0.00013196    0.00010136
     atom   12 type  2   force =     0.00000718   -0.00014495   -0.00001960

     Total force =     0.074254     Total SCF correction =     0.000335

     Computing stress (Cartesian axis) and pressure

          total   stress  (Ry/bohr**3)                   (kbar)     P=      -12.69
  -0.00011560   0.00000000   0.00000000          -17.01        0.00        0.00
   0.00000000  -0.00001986   0.00000000            0.00       -2.92        0.00
   0.00000000   0.00000000  -0.00012325            0.00        0.00      -18.13

     kinetic stress (kbar)   7037.30      0.00      0.00
                                0.00   6941.12      0.00
                                0.00      0.00   6971.22

     local   stress (kbar)  -1471.77     -0.00      0.00
                               -0.00   -545.64      0.00
                                0.00      0.00  -1493.72

     nonloc. stress (kbar)   2480.56      0.00      0.00
                                0.00   2496.02      0.00
                                0.00      0.00   2477.31

     hartree stress (kbar)   2888.04      0.00     -0.00
                                0.00   2557.42     -0.00
                               -0.00     -0.00   2881.32

     exc-cor stress (kbar)   6148.17     -0.00      0.00
                               -0.00   6144.49      0.00
                                0.00      0.00   6146.56

     corecor stress (kbar)  -8579.28     -0.00      0.00
                               -0.00  -8581.62     -0.00
                                0.00     -0.00  -8580.42

     ewald   stress (kbar)  -8520.02      0.00      0.00
                                0.00  -9014.73     -0.00
                                0.00     -0.00  -8420.41

     hubbard stress (kbar)      0.00      0.00      0.00
                                0.00      0.00      0.00
                                0.00      0.00      0.00

     DFT-D   stress (kbar)      0.00      0.00      0.00
                                0.00      0.00      0.00
                                0.00      0.00      0.00

     XDM     stress (kbar)      0.00      0.00      0.00
                                0.00      0.00      0.00
                                0.00      0.00      0.00

     dft-nl  stress (kbar)      0.00      0.00      0.00
                                0.00      0.00      0.00
                                0.00      0.00      0.00

     TS-vdW  stress (kbar)      0.00      0.00      0.00
                                0.00      0.00      0.00
                                0.00      0.00      0.00

[...]

                                0.00      0.00      0.00

     Writing all to output data dir new_calculations/myprefix.save/

     General routines

     Parallel routines

     PAW routines

   This run was terminated on:   8:44:14  20May2023

   JOB DONE.