     Program PWSCF v.7.0 starts on 21May2023 at 10:57:50

     Reading input from espresso_21848.pwi
Warning: card &CELL ignored
Warning: card / ignored

     Current dimensions of program PWSCF are:
     Max number of different atomic species (ntypx) = 10
     Max number of k-points (npk) =  40000
     Max angular momentum in pseudopotentials (lmaxx) =  4

     gamma-point specific algorithms are used
     Message from routine setup:
     using ibrav=0 with symmetry is DISCOURAGED, use correct ibrav instead

     Subspace diagonalization in iterative solution of the eigenvalue problem:
     a serial algorithm will be used

     Using Slab Decomposition

     bravais-lattice index     =            0
     lattice parameter (alat)  =      13.6584  a.u.
     unit-cell volume          =    2517.6740 (a.u.)^3
     number of atoms/cell      =           10
     number of atomic types    =            3
     number of electrons       =        82.00
     number of Kohn-Sham states=           49
     kinetic-energy cutoff     =      30.0000  Ry
     charge density cutoff     =     240.0000  Ry
     scf convergence threshold =      1.0E-06
     mixing beta               =       0.7000
     number of iterations used =            8  plain     mixing
     Exchange-correlation= SLA  PW   PBE  PBE
                           (   1   4   3   4   0   0   0)

     celldm(1)=  13.658449  celldm(2)=   0.000000  celldm(3)=   0.000000
     celldm(4)=   0.000000  celldm(5)=   0.000000  celldm(6)=   0.000000

     crystal axes: (cart. coord. in units of alat)
               a(1) = (   1.000000   0.000000   0.000000 )
               a(2) = (  -0.324173   1.006785   0.000000 )
               a(3) = (  -0.480419  -0.308695   0.981428 )

     reciprocal axes: (cart. coord. in units 2 pi/alat)
               b(1) = (  1.000000  0.321989  0.590788 )
               b(2) = (  0.000000  0.993261  0.312417 )
               b(3) = (  0.000000  0.000000  1.018923 )

     PseudoPot. # 1 for Cs read from file:
     /home/pragov/projects/rrg-bengioy-ad/pragov/crystal_structure_design/SSSP/Cs_pbe_v1.uspp.F.UPF
     MD5 check sum: 3476d69cb178dfad3ffaa59df4e07ca4
     Pseudo is Ultrasoft + core correction, Zval =  9.0
     Generated by new atomic code, or converted to UPF format
     Using radial grid of  905 points,  6 beta functions with:
                l(1) =   0
                l(2) =   0
                l(3) =   1
                l(4) =   1
                l(5) =   2
                l(6) =   2
     Q(r) pseudized with  6 coefficients,  rinner =    1.500   1.500   1.500
                                                       1.500   1.500

     PseudoPot. # 2 for Sn read from file:
     /home/pragov/projects/rrg-bengioy-ad/pragov/crystal_structure_design/SSSP/Sn_pbe_v1.uspp.F.UPF
     MD5 check sum: 4cf58ce39ec5d5d420df3dd08604eb00
     Pseudo is Ultrasoft + core correction, Zval = 14.0
     Generated by new atomic code, or converted to UPF format
     Using radial grid of  891 points,  6 beta functions with:
                l(1) =   0
                l(2) =   0
                l(3) =   1
                l(4) =   1
                l(5) =   2
                l(6) =   2
     Q(r) pseudized with  6 coefficients,  rinner =    1.200   1.200   1.200
                                                       1.200   1.200

     PseudoPot. # 3 for Se read from file:
     /home/pragov/projects/rrg-bengioy-ad/pragov/crystal_structure_design/SSSP/Se_pbe_v1.uspp.F.UPF
     MD5 check sum: 1b3568f3a8ae88f9a2a0ad0698632c85
     Pseudo is Ultrasoft + core correction, Zval =  6.0
     Generated by new atomic code, or converted to UPF format
     Using radial grid of  877 points,  6 beta functions with:
                l(1) =   0
                l(2) =   0
                l(3) =   1
                l(4) =   1
                l(5) =   2
                l(6) =   2
     Q(r) pseudized with  8 coefficients,  rinner =    1.300   1.300   1.300
                                                       1.300   1.300

     atomic species   valence    mass     pseudopotential
        Cs             9.00   132.90545     Cs( 1.00)
        Sn            14.00   118.71000     Sn( 1.00)
        Se             6.00    78.97100     Se( 1.00)

      2 Sym. Ops., with inversion, found

                                    s                        frac. trans.

      isym =  1     identity

 cryst.   s( 1) = (     1          0          0      )
                  (     0          1          0      )
                  (     0          0          1      )

 cart.    s( 1) = (  1.0000000 -0.0000000  0.0000000 )
                  (  0.0000000  1.0000000 -0.0000000 )
                  (  0.0000000  0.0000000  1.0000000 )

      isym =  2     inversion

 cryst.   s( 2) = (    -1          0          0      )
                  (     0         -1          0      )
                  (     0          0         -1      )

 cart.    s( 2) = ( -1.0000000  0.0000000 -0.0000000 )
                  (  0.0000000 -1.0000000  0.0000000 )
                  (  0.0000000  0.0000000 -1.0000000 )

   Cartesian axes

     site n.     atom                  positions (alat units)
         1           Cs  tau(   1) = (  -0.2466784  -0.0736125   0.8458331  )
         2           Cs  tau(   2) = (   0.4420857   0.7717026   0.1355951  )
         3           Sn  tau(   3) = (  -0.1490909   0.3825197   0.4184260  )
         4           Sn  tau(   4) = (   0.3444982   0.3155705   0.5630022  )
         5           Se  tau(   5) = (   0.1410031   0.6081944   0.5481061  )
         6           Se  tau(   6) = (  -0.0737674   0.5808151   0.1187459  )
         7           Se  tau(   7) = (   0.0544042   0.0898958   0.4333222  )
         8           Se  tau(   8) = (  -0.3452402   0.4819419   0.7019027  )
         9           Se  tau(   9) = (   0.5406475   0.2161483   0.2795255  )
        10           Se  tau(  10) = (   0.2691747   0.1172750   0.8626823  )

   Crystallographic axes

     site n.     atom                  positions (cryst. coord.)
         1           Cs  tau(   1) = (  0.2293270  0.1911360  0.8618390  )
         2           Cs  tau(   2) = (  0.7706730  0.8088640  0.1381610  )
         3           Sn  tau(   3) = (  0.2212770  0.5106650  0.4263440  )
         4           Sn  tau(   4) = (  0.7787230  0.4893350  0.5736560  )
         5           Se  tau(   5) = (  0.6606490  0.7753330  0.5584780  )
         6           Se  tau(   6) = (  0.1834020  0.6139990  0.1209930  )
         7           Se  tau(   7) = (  0.3393510  0.2246670  0.4415220  )
         8           Se  tau(   8) = (  0.2246150  0.6979800  0.7151850  )
         9           Se  tau(   9) = (  0.7753850  0.3020200  0.2848150  )
        10           Se  tau(  10) = (  0.8165980  0.3860010  0.8790070  )

     number of k points=     1  Methfessel-Paxton smearing, width (Ry)=  0.0010
                       cart. coord. in units 2pi/alat
        k(    1) = (   0.0000000   0.0000000   0.0000000), wk =   2.0000000

                       cryst. coord.
        k(    1) = (   0.0000000   0.0000000   0.0000000), wk =   2.0000000

     Initial potential from superposition of free atoms

     starting charge      79.9207, renormalised to      82.0000
     Starting wfcs are   68 randomized atomic wfcs

     Self-consistent Calculation

     iteration #  1     ecut=    30.00 Ry     beta= 0.70
     Davidson diagonalization with overlap

     ethr =  1.00E-02,  avg # of iterations =  3.0

     Threshold (ethr) on eigenvalues was too large:
     Diagonalizing with lowered threshold

     Davidson diagonalization with overlap

[...]

     total energy              =    -714.31632611 Ry
     estimated scf accuracy    <       0.82092473 Ry

[...]

     total energy              =    -714.60839712 Ry
     estimated scf accuracy    <       0.00000102 Ry

     iteration #  9     ecut=    30.00 Ry     beta= 0.70
     Davidson diagonalization with overlap

     ethr =  1.24E-09,  avg # of iterations =  2.0

     End of self-consistent calculation

          k = 0.0000 0.0000 0.0000 (  3490 PWs)   bands (ev):

   -17.3926 -17.3735 -17.3545 -17.3507 -17.3447 -17.3389 -17.3301 -17.3208
   -17.3011 -17.2858 -17.1611 -17.1451  -9.5856  -8.4939  -7.8107  -7.7664
    -7.4054  -7.1022  -4.1421  -4.0429  -4.0404  -3.9896  -3.9816  -3.8961
    -3.0883  -2.1032  -0.1149   0.7005   0.7734   0.9434   1.4213   2.0334
     2.3775   2.5506   3.0535   3.0650   3.1431   3.1553   3.1989   3.5040
     3.8180   5.0482   5.2907   6.3612   7.7100   7.8387   8.0166   8.2433
     8.3601

     occupation numbers
     1.0000   1.0000   1.0000   1.0000   1.0000   1.0000   1.0000   1.0000
     1.0000   1.0000   1.0000   1.0000   1.0000   1.0000   1.0000   1.0000
     1.0000   1.0000   1.0000   1.0000   1.0000   1.0000   1.0000   1.0000
     1.0000   1.0000   1.0000   1.0000   1.0000   1.0000   1.0000   1.0000
     1.0000   1.0000   1.0000   1.0000   1.0000   1.0000   1.0000   1.0000
     1.0000  -0.0000  -0.0000  -0.0000  -0.0000  -0.0000  -0.0000  -0.0000
    -0.0000

     the Fermi energy is     4.4298 ev

!    total energy              =    -714.60839737 Ry
     estimated scf accuracy    <       0.00000023 Ry
     smearing contrib. (-TS)   =       0.00000000 Ry
     internal energy E=F+TS    =    -714.60839737 Ry

     The total energy is F=E-TS. E is the sum of the following terms:
     one-electron contribution =    -269.85877123 Ry
     hartree contribution      =     171.52338908 Ry
     xc contribution           =    -333.97597201 Ry
     ewald contribution        =    -282.29704321 Ry

     convergence has been achieved in   9 iterations

     Forces acting on atoms (cartesian axes, Ry/au):

     atom    1 type  1   force =    -0.00390111   -0.01135155    0.00416286
     atom    2 type  1   force =     0.00390111    0.01135155   -0.00416286
     atom    3 type  2   force =    -0.00985749    0.00190168   -0.00666282
     atom    4 type  2   force =     0.00985749   -0.00190168    0.00666282
     atom    5 type  3   force =    -0.00310130    0.00525601   -0.01978873
     atom    6 type  3   force =    -0.00574840   -0.02640488   -0.00454501
     atom    7 type  3   force =     0.00310130   -0.00525601    0.01978873
     atom    8 type  3   force =    -0.00421870   -0.02122878    0.00220246
     atom    9 type  3   force =     0.00421870    0.02122878   -0.00220246
     atom   10 type  3   force =     0.00574840    0.02640488    0.00454501
     The non-local contrib.  to forces
     atom    1 type  1   force =     0.01691452    0.01058244   -0.00693368
     atom    2 type  1   force =    -0.01691452   -0.01058244    0.00693368
     atom    3 type  2   force =     0.00041744    0.09241128    0.00246695
     atom    4 type  2   force =    -0.00041744   -0.09241128   -0.00246695
     atom    5 type  3   force =     0.04662689   -0.28087068    0.00495811
     atom    6 type  3   force =    -0.26030123   -0.19320081   -0.02588703
     atom    7 type  3   force =    -0.04662689    0.28087068   -0.00495811
     atom    8 type  3   force =    -0.02869572   -0.11506761   -0.26557319
     atom    9 type  3   force =     0.02869572    0.11506761    0.26557319
     atom   10 type  3   force =     0.26030123    0.19320081    0.02588703
     The ionic contribution  to forces
     atom    1 type  1   force =     0.49157810   -2.35952358    0.50345977
     atom    2 type  1   force =    -0.49157810    2.35952358   -0.50345977
     atom    3 type  2   force =    -0.45610441    1.22525064   -1.47481750
     atom    4 type  2   force =     0.45610441   -1.22525064    1.47481750
     atom    5 type  3   force =    -0.32890907    7.56478900    1.76467673
     atom    6 type  3   force =     1.89472095    4.36009835   -1.58260696
     atom    7 type  3   force =     0.32890907   -7.56478900   -1.76467673
     atom    8 type  3   force =     0.88761756    4.55219370    5.96132871
     atom    9 type  3   force =    -0.88761756   -4.55219370   -5.96132871
     atom   10 type  3   force =    -1.89472095   -4.36009835    1.58260696
     The local contribution  to forces
     atom    1 type  1   force =    -0.51091893    2.33807140   -0.49275899
     atom    2 type  1   force =     0.51085088   -2.33813228    0.49291535
     atom    3 type  2   force =     0.44601951   -1.31103870    1.46466881
     atom    4 type  2   force =    -0.44600204    1.31122225   -1.46506033
     atom    5 type  3   force =     0.28426950   -7.31042113   -1.78837447
     atom    6 type  3   force =    -1.67100576   -4.21504865    1.60025690
     atom    7 type  3   force =    -0.28418234    7.31048312    1.78827858
     atom    8 type  3   force =    -0.86662096   -4.47103846   -5.72399727
     atom    9 type  3   force =     0.86653650    4.47108605    5.72392375
     atom   10 type  3   force =     1.67098217    4.21498143   -1.60006845
     The core correction contribution to forces
     atom    1 type  1   force =    -0.00154070   -0.00049469    0.00034933
     atom    2 type  1   force =     0.00153974    0.00049580   -0.00034967
     atom    3 type  2   force =     0.00010856   -0.00448217    0.00070701
     atom    4 type  2   force =    -0.00010648    0.00448092   -0.00070215
     atom    5 type  3   force =    -0.00509280    0.03193370   -0.00111366
     atom    6 type  3   force =     0.03078276    0.02174531    0.00381721
     atom    7 type  3   force =     0.00508972   -0.03193888    0.00111283
     atom    8 type  3   force =     0.00344423    0.01279926    0.03045023
     atom    9 type  3   force =    -0.00344522   -0.01279335   -0.03043933
     atom   10 type  3   force =    -0.03078193   -0.02174338   -0.00381721
     The Hubbard contrib.    to forces
     atom    1 type  1   force =     0.00000000    0.00000000    0.00000000
     atom    2 type  1   force =     0.00000000    0.00000000    0.00000000
     atom    3 type  2   force =     0.00000000    0.00000000    0.00000000
     atom    4 type  2   force =     0.00000000    0.00000000    0.00000000
     atom    5 type  3   force =     0.00000000    0.00000000    0.00000000
     atom    6 type  3   force =     0.00000000    0.00000000    0.00000000
     atom    7 type  3   force =     0.00000000    0.00000000    0.00000000
     atom    8 type  3   force =     0.00000000    0.00000000    0.00000000
     atom    9 type  3   force =     0.00000000    0.00000000    0.00000000
     atom   10 type  3   force =     0.00000000    0.00000000    0.00000000
     The SCF correction term to forces
     atom    1 type  1   force =     0.00006039    0.00001678    0.00004648
     atom    2 type  1   force =    -0.00000239    0.00005081   -0.00020241
     atom    3 type  2   force =    -0.00029223   -0.00027373    0.00037280
     atom    4 type  2   force =     0.00028538    0.00002270    0.00013564
     atom    5 type  3   force =    -0.00000126   -0.00018753    0.00006633
     atom    6 type  3   force =     0.00005594    0.00000615   -0.00012076
     atom    7 type  3   force =    -0.00009368    0.00010541    0.00003394
     atom    8 type  3   force =     0.00002798   -0.00009815    0.00002114
     atom    9 type  3   force =     0.00004106    0.00007971    0.00009579
     atom   10 type  3   force =    -0.00003106    0.00006959   -0.00005894

     Total force =     0.062604     Total SCF correction =     0.000752

     Computing stress (Cartesian axis) and pressure

          total   stress  (Ry/bohr**3)                   (kbar)     P=        9.69
  -0.00001591   0.00000741  -0.00007495           -2.34        1.09      -11.03
   0.00000741   0.00000399  -0.00009897            1.09        0.59      -14.56
  -0.00007495  -0.00009897   0.00020958          -11.03      -14.56       30.83

     kinetic stress (kbar)   3993.11    -18.02    -27.35
                              -18.02   4014.63    -35.55
                              -27.35    -35.55   4014.17

     local   stress (kbar)  -9341.43   -421.05   -224.44
                             -421.05    328.91   1205.66
                             -224.44   1205.66  -4084.46

     nonloc. stress (kbar)   4659.90    -11.17    -16.61
                              -11.17   4663.55     -8.55
                              -16.61     -8.55   4650.63

     hartree stress (kbar)   5567.99    163.45     99.36
                              163.45   1258.46   -605.56
                               99.36   -605.56   3195.48

     exc-cor stress (kbar)  12835.11      0.46      0.03
                                0.46  12832.66      0.75
                                0.03      0.75  12834.11

     corecor stress (kbar) -14966.60      1.78      2.23
                                1.78 -14967.92      1.47
                                2.23      1.47 -14964.89

     ewald   stress (kbar)  -2750.42    285.64    155.76
                              285.64  -8129.69   -572.79
                              155.76   -572.79  -5614.21

     hubbard stress (kbar)      0.00      0.00      0.00
                                0.00      0.00      0.00
                                0.00      0.00      0.00

     DFT-D   stress (kbar)      0.00      0.00      0.00
                                0.00      0.00      0.00
                                0.00      0.00      0.00

     XDM     stress (kbar)      0.00      0.00      0.00
                                0.00      0.00      0.00
                                0.00      0.00      0.00

     dft-nl  stress (kbar)      0.00      0.00      0.00
                                0.00      0.00      0.00
                                0.00      0.00      0.00

     TS-vdW  stress (kbar)      0.00      0.00      0.00
                                0.00      0.00      0.00
                                0.00      0.00      0.00

[...]

                                0.00      0.00      0.00

     Writing all to output data dir new_calculations/myprefix.save/

     General routines

     Parallel routines

   This run was terminated on:  10:58:18  21May2023

   JOB DONE.