     Program PWSCF v.7.0 starts on 20May2023 at 20: 7:15

     Reading input from espresso_11586.pwi
Warning: card &CELL ignored
Warning: card / ignored

     Current dimensions of program PWSCF are:
     Max number of different atomic species (ntypx) = 10
     Max number of k-points (npk) =  40000
     Max angular momentum in pseudopotentials (lmaxx) =  4
     file Ba.pbe-spn-kjpaw_psl.1.0.0.UPF: wavefunction(s)  5S 6S renormalized
     file O.pbe-n-kjpaw_psl.0.1.UPF: wavefunction(s)  2P renormalized

     gamma-point specific algorithms are used

     Subspace diagonalization in iterative solution of the eigenvalue problem:
     a serial algorithm will be used

     Using Slab Decomposition

     bravais-lattice index     =            0
     lattice parameter (alat)  =      10.9625  a.u.
     unit-cell volume          =    1901.8320 (a.u.)^3
     number of atoms/cell      =           20
     number of atomic types    =            5
     number of electrons       =       174.00
     number of Kohn-Sham states=          104
     kinetic-energy cutoff     =      30.0000  Ry
     charge density cutoff     =     240.0000  Ry
     scf convergence threshold =      1.0E-06
     mixing beta               =       0.7000
     number of iterations used =            8  plain     mixing
     Exchange-correlation= SLA  PW   PBX  PBC
                           (   1   4   3   4   0   0   0)

     celldm(1)=  10.962530  celldm(2)=   0.000000  celldm(3)=   0.000000
     celldm(4)=   0.000000  celldm(5)=   0.000000  celldm(6)=   0.000000

     crystal axes: (cart. coord. in units of alat)
               a(1) = (   1.000000   0.000000   0.000000 )
               a(2) = (   0.000001   1.443580   0.000000 )
               a(3) = (   0.000001  -0.000000   0.999997 )

     reciprocal axes: (cart. coord. in units 2 pi/alat)
               b(1) = (  1.000000 -0.000001 -0.000001 )
               b(2) = (  0.000000  0.692722  0.000000 )
               b(3) = (  0.000000  0.000000  1.000003 )

     PseudoPot. # 1 for Ba read from file:
     /home/pragov/projects/rrg-bengioy-ad/pragov/crystal_structure_design/SSSP/Ba.pbe-spn-kjpaw_psl.1.0.0.UPF
     MD5 check sum: c432291d3e53af55f19d5e8866385beb
     Pseudo is Projector augmented-wave + core cor, Zval = 10.0
     Generated using "atomic" code by A. Dal Corso  v.5.1
     Shape of augmentation charge: PSQ
     Using radial grid of 1251 points,  7 beta functions with:
                l(1) =   0
                l(2) =   0
                l(3) =   0
                l(4) =   1
                l(5) =   1
                l(6) =   2
                l(7) =   2
     Q(r) pseudized with 0 coefficients

     PseudoPot. # 2 for La read from file:
     /home/pragov/projects/rrg-bengioy-ad/pragov/crystal_structure_design/SSSP/La.GGA-PBE-paw-v1.0.UPF
     MD5 check sum: 436541e95c1ad8901025bd0b0ed42ae2
     Pseudo is Projector augmented-wave + core cor, Zval = 11.0
     Generated using ATOMPAW code
     Shape of augmentation charge: BESSEL
     Using radial grid of 1101 points,  8 beta functions with:
                l(1) =   0
                l(2) =   0
                l(3) =   1
                l(4) =   1
                l(5) =   2
                l(6) =   2
                l(7) =   3
                l(8) =   3
     Q(r) pseudized with 0 coefficients

     PseudoPot. # 3 for Mn read from file:
     /home/pragov/projects/rrg-bengioy-ad/pragov/crystal_structure_design/SSSP/mn_pbe_v1.5.uspp.F.UPF
     MD5 check sum: 82ef2b46521d7a7d9e736dc3972e4928
     Pseudo is Ultrasoft + core correction, Zval = 15.0
     Generated by new atomic code, or converted to UPF format
     Using radial grid of  859 points,  6 beta functions with:
                l(1) =   0
                l(2) =   0
                l(3) =   1
                l(4) =   1
                l(5) =   2
                l(6) =   2
     Q(r) pseudized with  8 coefficients,  rinner =    0.950   0.950   0.950
                                                       0.950   0.950

     PseudoPot. # 4 for Sb read from file:
     /home/pragov/projects/rrg-bengioy-ad/pragov/crystal_structure_design/SSSP/sb_pbe_v1.4.uspp.F.UPF
     MD5 check sum: 9bc50dfb53373b713f5709b9110fe27f
     Pseudo is Ultrasoft + core correction, Zval = 15.0
     Generated by new atomic code, or converted to UPF format
     Using radial grid of  891 points,  6 beta functions with:
                l(1) =   0
                l(2) =   0
                l(3) =   1
                l(4) =   1
                l(5) =   2
                l(6) =   2
     Q(r) pseudized with  8 coefficients,  rinner =    1.350   1.350   1.350
                                                       1.350   1.350

     PseudoPot. # 5 for O  read from file:
     /home/pragov/projects/rrg-bengioy-ad/pragov/crystal_structure_design/SSSP/O.pbe-n-kjpaw_psl.0.1.UPF
     MD5 check sum: 0234752ac141de4415c5fc33072bef88
     Pseudo is Projector augmented-wave + core cor, Zval =  6.0
     Generated using "atomic" code by A. Dal Corso  v.5.0.99 svn rev. 10869
     Shape of augmentation charge: BESSEL
     Using radial grid of 1095 points,  4 beta functions with:
                l(1) =   0
                l(2) =   0
                l(3) =   1
                l(4) =   1
     Q(r) pseudized with 0 coefficients

     atomic species   valence    mass     pseudopotential
        Ba            10.00   137.32700     Ba( 1.00)
        La            11.00   138.90547     La( 1.00)
        Mn            15.00    54.93804     Mn( 1.00)
        Sb            15.00   121.76000     Sb( 1.00)
        O              6.00    15.99900     O ( 1.00)

     No symmetry found

                                    s                        frac. trans.

      isym =  1     identity

 cryst.   s( 1) = (     1          0          0      )
                  (     0          1          0      )
                  (     0          0          1      )

 cart.    s( 1) = (  1.0000000 -0.0000000 -0.0000000 )
                  (  0.0000000  1.0000000  0.0000000 )
                  (  0.0000000  0.0000000  1.0000000 )

   Cartesian axes

     site n.     atom                  positions (alat units)
         1           Ba  tau(   1) = (   0.5000008   1.0826822   0.0000000  )
         2           Ba  tau(   2) = (   1.0000008   0.3608978   0.4999987  )
         3           La  tau(   3) = (   1.0000003   1.0826835   0.4999977  )
         4           La  tau(   4) = (   0.4999993   0.3608965   0.0000020  )
         5           Mn  tau(   5) = (   0.4999995   0.0000071   0.4999977  )
         6           Mn  tau(   6) = (   0.0000025   0.7217797   0.9999944  )
         7           Sb  tau(   7) = (   0.0000000   0.0000000   0.0000000  )
         8           Sb  tau(   8) = (   0.5000010   0.7217899   0.4999987  )
         9           O   tau(   9) = (   0.0000002   0.3477917   0.0000000  )
        10           O   tau(  10) = (   0.5000013   1.0695455   0.4999987  )
        11           O   tau(  11) = (   0.0000008   1.0957885   0.0000000  )
        12           O   tau(  12) = (   0.5000008   0.3740344   0.4999987  )
        13           O   tau(  13) = (   0.1829637   1.4110950   0.7039672  )
        14           O   tau(  14) = (   0.6829957   0.6893167   0.2039515  )
        15           O   tau(  15) = (   0.3170063   0.6893165   0.7960459  )
        16           O   tau(  16) = (   0.8170393   1.4110966   0.2960312  )
        17           O   tau(  17) = (   0.7039689   0.0324846   0.8170359  )
        18           O   tau(  18) = (   0.2039539   0.7542633   0.3170042  )
        19           O   tau(  19) = (   0.7960492   0.7542646   0.6829942  )
        20           O   tau(  20) = (   0.2960322   0.0324848   0.1829615  )

   Crystallographic axes

     site n.     atom                  positions (cryst. coord.)
         1           Ba  tau(   1) = (  0.5000000  0.7499980  0.0000000  )
         2           Ba  tau(   2) = (  1.0000000  0.2500020  0.5000000  )
         3           La  tau(   3) = (  0.9999990  0.7499990  0.4999990  )
         4           La  tau(   4) = (  0.4999990  0.2500010  0.0000020  )
         5           Mn  tau(   5) = (  0.4999990  0.0000050  0.4999990  )
         6           Mn  tau(   6) = (  0.0000010  0.4999930  0.9999970  )
         7           Sb  tau(   7) = (  0.0000000  0.0000000  0.0000000  )
         8           Sb  tau(   8) = (  0.5000000  0.5000000  0.5000000  )
         9           O   tau(   9) = (  0.0000000  0.2409230  0.0000000  )
        10           O   tau(  10) = (  0.5000000  0.7408980  0.5000000  )
        11           O   tau(  11) = ( -0.0000000  0.7590770  0.0000000  )
        12           O   tau(  12) = (  0.5000000  0.2591020  0.5000000  )
        13           O   tau(  13) = (  0.1829620  0.9774970  0.7039690  )
        14           O   tau(  14) = (  0.6829950  0.4775050  0.2039520  )
        15           O   tau(  15) = (  0.3170050  0.4775050  0.7960480  )
        16           O   tau(  16) = (  0.8170380  0.9774980  0.2960320  )
        17           O   tau(  17) = (  0.7039680  0.0225030  0.8170380  )
        18           O   tau(  18) = (  0.2039530  0.5224950  0.3170050  )
        19           O   tau(  19) = (  0.7960480  0.5224960  0.6829960  )
        20           O   tau(  20) = (  0.2960320  0.0225030  0.1829620  )

     number of k points=     1  Methfessel-Paxton smearing, width (Ry)=  0.0010
                       cart. coord. in units 2pi/alat
        k(    1) = (   0.0000000   0.0000000   0.0000000), wk =   2.0000000

                       cryst. coord.
        k(    1) = (   0.0000000   0.0000000   0.0000000), wk =   2.0000000

     Check: negative core charge=   -0.000015

     Initial potential from superposition of free atoms

     starting charge     170.9487, renormalised to     174.0000
     Starting wfcs are  166 randomized atomic wfcs
     Checking if some PAW data can be deallocated...

     Self-consistent Calculation

     iteration #  1     ecut=    30.00 Ry     beta= 0.70
     Davidson diagonalization with overlap

     ethr =  1.00E-02,  avg # of iterations =  3.0

     negative rho (up, down):  6.993E-02 0.000E+00

     total energy              =   -3070.77866224 Ry
     estimated scf accuracy    <      14.26157879 Ry

[...]

     negative rho (up, down):  2.907E-03 0.000E+00

[...]

     total energy              =   -3081.12931569 Ry
     estimated scf accuracy    <       0.00001704 Ry

     iteration # 23     ecut=    30.00 Ry     beta= 0.70
     Davidson diagonalization with overlap

     ethr =  9.79E-09,  avg # of iterations =  1.0

     End of self-consistent calculation

          k = 0.0000 0.0000 0.0000 (  2656 PWs)   bands (ev):

   -66.8968 -66.8959 -35.8057 -35.8004 -35.5707 -35.5706 -35.5645 -35.5645
   -20.7012 -20.6985 -18.3698 -18.3585 -18.3167 -18.3149 -18.2062 -18.1994
   -18.1715 -18.1715 -18.1586 -18.1586 -15.0247 -15.0092  -8.2943  -7.9695
    -7.1173  -7.1171  -6.9713  -6.9710  -6.7628  -6.5309  -6.4374  -6.2657
    -6.0049  -5.7997  -4.3630  -4.3630  -4.1378  -4.1378  -3.7658  -3.7477
    -0.5158  -0.5158  -0.3992  -0.3244  -0.3244   0.0022   1.8652   2.5145
     5.5622   5.5623   5.7419   5.7420   5.9418   6.0933   6.5580   7.0522
     7.6517   7.7067   7.7069   7.8066   7.8534   7.8536   7.9376   7.9651
     8.0580   8.0906   8.3125   8.6328   8.6329   8.7302   8.7304   8.7616
     8.7619   8.7656   9.2675   9.3166   9.3169   9.3516   9.3519   9.4603
     9.7281   9.7284  12.0525  12.0525  12.1171  12.1884  12.2007  12.3180
    12.3181  12.6146  13.3487  13.4559  13.6136  13.8739  14.2302  14.2815
    14.2815  14.2827  14.2827  14.3099  14.3409  14.3959  14.4007  14.4011

     occupation numbers
     1.0000   1.0000   1.0000   1.0000   1.0000   1.0000   1.0000   1.0000
     1.0000   1.0000   1.0000   1.0000   1.0000   1.0000   1.0000   1.0000
     1.0000   1.0000   1.0000   1.0000   1.0000   1.0000   1.0000   1.0000
     1.0000   1.0000   1.0000   1.0000   1.0000   1.0000   1.0000   1.0000
     1.0000   1.0000   1.0000   1.0000   1.0000   1.0000   1.0000   1.0000
     1.0000   1.0000   1.0000   1.0000   1.0000   1.0000   1.0000   1.0000
     1.0000   1.0000   1.0000   1.0000   1.0000   1.0000   1.0000   1.0000
     1.0000   1.0000   1.0000   1.0000   1.0000   1.0000   1.0000   1.0000
     1.0000   1.0000   1.0000   1.0000   1.0000   1.0000   1.0000   1.0000
     1.0000   1.0000   1.0000   1.0000   1.0000   1.0000   1.0000   1.0000
     1.0000   1.0000   1.0000   1.0000   1.0000   1.0000   1.0000  -0.0000
    -0.0000  -0.0000  -0.0000  -0.0000  -0.0000  -0.0000  -0.0000  -0.0000
    -0.0000  -0.0000  -0.0000  -0.0000  -0.0000  -0.0000  -0.0000  -0.0000

     the Fermi energy is    12.2588 ev

!    total energy              =   -3081.12931573 Ry
     estimated scf accuracy    <       0.00000038 Ry
     smearing contrib. (-TS)   =       0.00000000 Ry
     internal energy E=F+TS    =   -3081.12931573 Ry

     The total energy is F=E-TS. E is the sum of the following terms:
     one-electron contribution =    -529.38771675 Ry
     hartree contribution      =     381.38711141 Ry
     xc contribution           =    -289.27961312 Ry
     ewald contribution        =    -983.43242123 Ry
     one-center paw contrib.   =   -1660.41667605 Ry
      -> PAW hartree energy AE =     479.28043598 Ry
      -> PAW hartree energy PS =    -477.89311193 Ry
      -> PAW xc energy AE      =   -1804.73302138 Ry
      -> PAW xc energy PS      =     142.92902128 Ry
      -> total E_H with PAW    =     382.77443546 Ry
      -> total E_XC with PAW   =   -1951.08361321 Ry

     convergence has been achieved in  23 iterations

     Forces acting on atoms (cartesian axes, Ry/au):

     atom    1 type  1   force =    -0.00000339    0.00001671    0.00000570
     atom    2 type  1   force =     0.00001099    0.00004498   -0.00000991
     atom    3 type  2   force =     0.00000947   -0.00005485    0.00000297
     atom    4 type  2   force =    -0.00001586   -0.00000015   -0.00000212
     atom    5 type  3   force =    -0.00000406    0.00004121    0.00001906
     atom    6 type  3   force =     0.00000056    0.00002076    0.00000492
     atom    7 type  4   force =    -0.00002670    0.00000612   -0.00001396
     atom    8 type  4   force =     0.00000899   -0.00010625    0.00000795
     atom    9 type  5   force =     0.00001469    0.04665864   -0.00001207
     atom   10 type  5   force =    -0.00000787    0.04674269    0.00000799
     atom   11 type  5   force =     0.00000207   -0.04661296    0.00000281
     atom   12 type  5   force =     0.00000001   -0.04678773   -0.00000596
     atom   13 type  5   force =     0.03405212   -0.00072660   -0.04236717
     atom   14 type  5   force =     0.03402418   -0.00079846   -0.04234627
     atom   15 type  5   force =    -0.03402481   -0.00080395    0.04234704
     atom   16 type  5   force =    -0.03403466   -0.00075157    0.04235724
     atom   17 type  5   force =    -0.04237783    0.00079841   -0.03405589
     atom   18 type  5   force =    -0.04233723    0.00075475   -0.03402217
     atom   19 type  5   force =     0.04233256    0.00075836    0.03402393
     atom   20 type  5   force =     0.04237677    0.00079989    0.03405591
     The non-local contrib.  to forces
     atom    1 type  1   force =    -0.00002376    0.00024738   -0.00006505
     atom    2 type  1   force =     0.00020391    0.00004435    0.00009009
     atom    3 type  2   force =    -0.00002063   -0.00003071    0.00000062
     atom    4 type  2   force =     0.00000737    0.00000949   -0.00000148
     atom    5 type  3   force =    -0.00000160    0.00001794    0.00000634
     atom    6 type  3   force =     0.00000854    0.00000699    0.00000213
     atom    7 type  4   force =    -0.00000522    0.00001586   -0.00000602
     atom    8 type  4   force =     0.00000892   -0.00007013    0.00000473
     atom    9 type  5   force =     0.00000518   -0.36022640   -0.00001388
     atom   10 type  5   force =    -0.00000724   -0.36044265   -0.00002015
     atom   11 type  5   force =     0.00002240    0.36035802   -0.00000812
     atom   12 type  5   force =     0.00002489    0.36036314   -0.00000488
     atom   13 type  5   force =    -0.14769668    0.03411528    0.37922049
     atom   14 type  5   force =    -0.14763302    0.03387715    0.37882559
     atom   15 type  5   force =     0.14758940    0.03386621   -0.37881341
     atom   16 type  5   force =     0.14770741    0.03405157   -0.37920777
     atom   17 type  5   force =     0.37918774   -0.03399727    0.14765623
     atom   18 type  5   force =     0.37879216   -0.03394216    0.14766533
     atom   19 type  5   force =    -0.37878135   -0.03394922   -0.14763080
     atom   20 type  5   force =    -0.37917918   -0.03399412   -0.14766847
     The ionic contribution  to forces
     atom    1 type  1   force =     0.00002962    0.00132915    0.00000245
     atom    2 type  1   force =    -0.00004756   -0.00131134   -0.00001358
     atom    3 type  2   force =     0.00003082    0.00075071   -0.00003628
     atom    4 type  2   force =     0.00011052   -0.00076924   -0.00015082
     atom    5 type  3   force =     0.00005241   -0.00120086    0.00016848
     atom    6 type  3   force =    -0.00010306    0.00144217    0.00033655
     atom    7 type  4   force =    -0.00008813   -0.00071129   -0.00001230
     atom    8 type  4   force =     0.00013050    0.00062793    0.00003617
     atom    9 type  5   force =    -0.00006395    2.69537789    0.00003409
     atom   10 type  5   force =    -0.00000141    2.70281718    0.00001137
     atom   11 type  5   force =    -0.00002496   -2.69658259    0.00004953
     atom   12 type  5   force =     0.00004250   -2.70193525    0.00008865
     atom   13 type  5   force =     0.58113845   -0.15852644   -3.14596348
     atom   14 type  5   force =     0.57749232   -0.15777185   -3.14180380
     atom   15 type  5   force =    -0.57716405   -0.15782508    3.14170293
     atom   16 type  5   force =    -0.58107562   -0.15846738    3.14594308
     atom   17 type  5   force =    -3.14585680    0.15781477   -0.58104895
     atom   18 type  5   force =    -3.14195911    0.15859111   -0.57751848
     atom   19 type  5   force =     3.14160316    0.15859503    0.57725505
     atom   20 type  5   force =     3.14575434    0.15775537    0.58091935
     The local contribution  to forces
     atom    1 type  1   force =    -0.00002045   -0.00149712    0.00007460
     atom    2 type  1   force =    -0.00007777    0.00137637   -0.00009029
     atom    3 type  2   force =    -0.00001953   -0.00085181    0.00004242
     atom    4 type  2   force =    -0.00016633    0.00072033    0.00014662
     atom    5 type  3   force =    -0.00007267    0.00120693   -0.00015748
     atom    6 type  3   force =     0.00010694   -0.00152684   -0.00033673
     atom    7 type  4   force =     0.00011841    0.00077754    0.00005187
     atom    8 type  4   force =    -0.00014452   -0.00046163   -0.00004440
     atom    9 type  5   force =     0.00008176   -2.29142809   -0.00000951
     atom   10 type  5   force =     0.00003652   -2.29859684    0.00000092
     atom   11 type  5   force =     0.00001229    2.29258552   -0.00004608
     atom   12 type  5   force =    -0.00011920    2.29768459   -0.00007232
     atom   13 type  5   force =    -0.39999836    0.12436297    2.72803333
     atom   14 type  5   force =    -0.39659126    0.12371549    2.72448924
     atom   15 type  5   force =     0.39630607    0.12380414   -2.72439798
     atom   16 type  5   force =     0.39994042    0.12426254   -2.72802968
     atom   17 type  5   force =     2.72792945   -0.12366901    0.39993766
     atom   18 type  5   force =     2.72460495   -0.12455085    0.39658853
     atom   19 type  5   force =    -2.72424634   -0.12452167   -0.39636595
     atom   20 type  5   force =    -2.72787735   -0.12359854   -0.39979234
     The core correction contribution to forces
     atom    1 type  1   force =     0.00000033    0.00000032    0.00000037
     atom    2 type  1   force =    -0.00000239    0.00000185   -0.00000192
     atom    3 type  2   force =     0.00000003    0.00000003    0.00000000
     atom    4 type  2   force =    -0.00000003   -0.00000005    0.00000000
     atom    5 type  3   force =    -0.00000027   -0.00000319    0.00000007
     atom    6 type  3   force =    -0.00000048    0.00000204    0.00000033
     atom    7 type  4   force =     0.00000090   -0.00000082   -0.00000034
     atom    8 type  4   force =    -0.00000015    0.00000315   -0.00000030
     atom    9 type  5   force =    -0.00000005    0.00272655    0.00000026
     atom   10 type  5   force =     0.00000007    0.00272694    0.00000035
     atom   11 type  5   force =    -0.00000034   -0.00272779    0.00000009
     atom   12 type  5   force =    -0.00000034   -0.00272603   -0.00000001
     atom   13 type  5   force =     0.00054833   -0.00062706   -0.00359523
     atom   14 type  5   force =     0.00054854   -0.00062379   -0.00359132
     atom   15 type  5   force =    -0.00054805   -0.00062365    0.00359122
     atom   16 type  5   force =    -0.00054842   -0.00062604    0.00359501
     atom   17 type  5   force =    -0.00359487    0.00062546   -0.00054788
     atom   18 type  5   force =    -0.00359082    0.00062447   -0.00054911
     atom   19 type  5   force =     0.00359089    0.00062465    0.00054863
     atom   20 type  5   force =     0.00359476    0.00062545    0.00054812
     The Hubbard contrib.    to forces
     atom    1 type  1   force =     0.00000000    0.00000000    0.00000000
     atom    2 type  1   force =     0.00000000    0.00000000    0.00000000
     atom    3 type  2   force =     0.00000000    0.00000000    0.00000000
     atom    4 type  2   force =     0.00000000    0.00000000    0.00000000
     atom    5 type  3   force =     0.00000000    0.00000000    0.00000000
     atom    6 type  3   force =     0.00000000    0.00000000    0.00000000
     atom    7 type  4   force =     0.00000000    0.00000000    0.00000000
     atom    8 type  4   force =     0.00000000    0.00000000    0.00000000
     atom    9 type  5   force =     0.00000000    0.00000000    0.00000000
     atom   10 type  5   force =     0.00000000    0.00000000    0.00000000
     atom   11 type  5   force =     0.00000000    0.00000000    0.00000000
     atom   12 type  5   force =     0.00000000    0.00000000    0.00000000
     atom   13 type  5   force =     0.00000000    0.00000000    0.00000000
     atom   14 type  5   force =     0.00000000    0.00000000    0.00000000
     atom   15 type  5   force =     0.00000000    0.00000000    0.00000000
     atom   16 type  5   force =     0.00000000    0.00000000    0.00000000
     atom   17 type  5   force =     0.00000000    0.00000000    0.00000000
     atom   18 type  5   force =     0.00000000    0.00000000    0.00000000
     atom   19 type  5   force =     0.00000000    0.00000000    0.00000000
     atom   20 type  5   force =     0.00000000    0.00000000    0.00000000
     The SCF correction term to forces
     atom    1 type  1   force =     0.00000884   -0.00006596   -0.00000668
     atom    2 type  1   force =    -0.00006723   -0.00006919    0.00000578
     atom    3 type  2   force =     0.00001677    0.00007398   -0.00000380
     atom    4 type  2   force =     0.00003057    0.00003637    0.00000355
     atom    5 type  3   force =     0.00001604    0.00001745    0.00000164
     atom    6 type  3   force =    -0.00001341    0.00009345    0.00000262
     atom    7 type  4   force =    -0.00005469   -0.00007812   -0.00004719
     atom    8 type  4   force =     0.00001221   -0.00020850    0.00001175
     atom    9 type  5   force =    -0.00001028    0.00020574   -0.00002304
     atom   10 type  5   force =    -0.00003785    0.00023512    0.00001549
     atom   11 type  5   force =    -0.00000935   -0.00024907    0.00000739
     atom   12 type  5   force =     0.00005012   -0.00017712   -0.00001741
     atom   13 type  5   force =     0.00005835   -0.00005431   -0.00006230
     atom   14 type  5   force =     0.00020558    0.00000160   -0.00026599
     atom   15 type  5   force =    -0.00021021   -0.00002851    0.00026428
     atom   16 type  5   force =    -0.00006048    0.00002480    0.00005660
     atom   17 type  5   force =    -0.00004538    0.00002152   -0.00005296
     atom   18 type  5   force =    -0.00018644    0.00002923   -0.00020844
     atom   19 type  5   force =     0.00016417    0.00000662    0.00021699
     atom   20 type  5   force =     0.00008217    0.00000878    0.00004924

     Total force =     0.179856     Total SCF correction =     0.000834

     Computing stress (Cartesian axis) and pressure

          total   stress  (Ry/bohr**3)                   (kbar)     P=     -366.29
  -0.00210884   0.00000015  -0.00000014         -310.22        0.02       -0.02
   0.00000015  -0.00325231  -0.00000001            0.02     -478.43       -0.00
  -0.00000014  -0.00000001  -0.00210873           -0.02       -0.00     -310.20

     kinetic stress (kbar)  22475.45     -0.05     -0.00
                               -0.05  22164.08     -0.00
                               -0.00     -0.00  22475.45

     local   stress (kbar)  -7939.70      0.16     -0.03
                                0.16  -9475.36      0.03
                               -0.03      0.03  -7939.71

     nonloc. stress (kbar)   6999.19     -0.05     -0.00
                               -0.05   6945.00      0.00
                               -0.00      0.00   6999.20

     hartree stress (kbar)   9745.49     -0.05      0.05
                               -0.05  10008.99     -0.01
                                0.05     -0.01   9745.48

     exc-cor stress (kbar)    764.21     -0.00     -0.00
                               -0.00    772.82     -0.00
                               -0.00     -0.00    764.21

     corecor stress (kbar)  -6512.75      0.00      0.00
                                0.00  -6510.53     -0.00
                                0.00     -0.00  -6512.75

     ewald   stress (kbar) -25842.12      0.00     -0.03
                                0.00 -24383.44     -0.02
                               -0.03     -0.02 -25842.09

     hubbard stress (kbar)      0.00      0.00      0.00
                                0.00      0.00      0.00
                                0.00      0.00      0.00

     DFT-D   stress (kbar)      0.00      0.00      0.00
                                0.00      0.00      0.00
                                0.00      0.00      0.00

     XDM     stress (kbar)      0.00      0.00      0.00
                                0.00      0.00      0.00
                                0.00      0.00      0.00

     dft-nl  stress (kbar)      0.00      0.00      0.00
                                0.00      0.00      0.00
                                0.00      0.00      0.00

     TS-vdW  stress (kbar)      0.00      0.00      0.00
                                0.00      0.00      0.00
                                0.00      0.00      0.00

[...]

                                0.00      0.00      0.00

     Writing all to output data dir new_calculations/myprefix.save/

     General routines

     Parallel routines

     PAW routines

   This run was terminated on:  20: 8:36  20May2023

   JOB DONE.