     Program PWSCF v.7.0 starts on 20May2023 at 18: 7:57

     Reading input from espresso_16533.pwi
Warning: card &CELL ignored
Warning: card / ignored

     Current dimensions of program PWSCF are:
     Max number of different atomic species (ntypx) = 10
     Max number of k-points (npk) =  40000
     Max angular momentum in pseudopotentials (lmaxx) =  4

     gamma-point specific algorithms are used
     Message from routine setup:
     using ibrav=0 with symmetry is DISCOURAGED, use correct ibrav instead

     Subspace diagonalization in iterative solution of the eigenvalue problem:
     a serial algorithm will be used

     Using Slab Decomposition

     bravais-lattice index     =            0
     lattice parameter (alat)  =       8.2502  a.u.
     unit-cell volume          =    1986.2022 (a.u.)^3
     number of atoms/cell      =            9
     number of atomic types    =            2
     number of electrons       =       108.00
     number of Kohn-Sham states=           65
     kinetic-energy cutoff     =      30.0000  Ry
     charge density cutoff     =     240.0000  Ry
     scf convergence threshold =      1.0E-06
     mixing beta               =       0.7000
     number of iterations used =            8  plain     mixing
     Exchange-correlation= SLA  PW   PBE  PBE
                           (   1   4   3   4   0   0   0)

     celldm(1)=   8.250250  celldm(2)=   0.000000  celldm(3)=   0.000000
     celldm(4)=   0.000000  celldm(5)=   0.000000  celldm(6)=   0.000000

     crystal axes: (cart. coord. in units of alat)
               a(1) = (   1.000000   0.000000   0.000000 )
               a(2) = (  -0.500000   0.866025   0.000000 )
               a(3) = (   0.000000   0.000000   4.084055 )

     reciprocal axes: (cart. coord. in units 2 pi/alat)
               b(1) = (  1.000000  0.577350  0.000000 )
               b(2) = (  0.000000  1.154701  0.000000 )
               b(3) = (  0.000000  0.000000  0.244855 )

     PseudoPot. # 1 for Sb read from file:
     /home/pragov/projects/rrg-bengioy-ad/pragov/crystal_structure_design/SSSP/sb_pbe_v1.4.uspp.F.UPF
     MD5 check sum: 9bc50dfb53373b713f5709b9110fe27f
     Pseudo is Ultrasoft + core correction, Zval = 15.0
     Generated by new atomic code, or converted to UPF format
     Using radial grid of  891 points,  6 beta functions with:
                l(1) =   0
                l(2) =   0
                l(3) =   1
                l(4) =   1
                l(5) =   2
                l(6) =   2
     Q(r) pseudized with  8 coefficients,  rinner =    1.350   1.350   1.350
                                                       1.350   1.350

     PseudoPot. # 2 for Te read from file:
     /home/pragov/projects/rrg-bengioy-ad/pragov/crystal_structure_design/SSSP/Te_pbe_v1.uspp.F.UPF
     MD5 check sum: c319670d6894cc26e93307826a071b75
     Pseudo is Ultrasoft + core correction, Zval =  6.0
     Generated by new atomic code, or converted to UPF format
     Using radial grid of  891 points,  5 beta functions with:
                l(1) =   0
                l(2) =   0
                l(3) =   1
                l(4) =   1
                l(5) =   2
     Q(r) pseudized with  6 coefficients,  rinner =    1.800   1.800   1.800
                                                       1.800   1.800

     atomic species   valence    mass     pseudopotential
        Sb            15.00   121.76000     Sb( 1.00)
        Te             6.00   127.60000     Te( 1.00)

     12 Sym. Ops., with inversion, found

                                    s                        frac. trans.

      isym =  1     identity

 cryst.   s( 1) = (     1          0          0      )
                  (     0          1          0      )
                  (     0          0          1      )

 cart.    s( 1) = (  1.0000000 -0.0000000  0.0000000 )
                  (  0.0000000  1.0000000  0.0000000 )
                  (  0.0000000  0.0000000  1.0000000 )

      isym =  2     180 deg rotation - cart. axis [1,0,0]

[...]

      isym =  3     120 deg rotation - cryst. axis [0,0,1]

[...]

      isym =  6     180 deg rotation - cryst. axis [1,1,0]

[...]

      isym =  7     inversion

[...]

      isym =  8     inv. 180 deg rotation - cart. axis [1,0,0]

[...]

      isym =  9     inv. 120 deg rotation - cryst. axis [0,0,1]

 cryst.   s( 9) = (     0         -1          0      )
                  (     1          1          0      )
                  (     0          0         -1      )

 cart.    s( 9) = (  0.5000000  0.8660254  0.0000000 )
                  ( -0.8660254  0.5000000  0.0000000 )
                  (  0.0000000  0.0000000 -1.0000000 )

[...]

 cryst.   s(10) = (     1          1          0      )
                  (    -1          0          0      )
                  (     0          0         -1      )

 cart.    s(10) = (  0.5000000 -0.8660254  0.0000000 )
                  (  0.8660254  0.5000000  0.0000000 )
                  (  0.0000000  0.0000000 -1.0000000 )

[...]

      isym = 12     inv. 180 deg rotation - cryst. axis [1,1,0]

 cryst.   s(12) = (     0         -1          0      )
                  (    -1          0          0      )
                  (     0          0          1      )

 cart.    s(12) = (  0.5000000 -0.8660254  0.0000000 )
                  ( -0.8660254 -0.5000000  0.0000000 )
                  (  0.0000000  0.0000000  1.0000000 )

   Cartesian axes

     site n.     atom                  positions (alat units)
         1           Sb  tau(   1) = (   0.0000000   0.0000000   2.6626035  )
         2           Sb  tau(   2) = (   0.0000000   0.0000000   1.4214511  )
         3           Sb  tau(   3) = (   0.5000005   0.2886748   1.7745136  )
         4           Sb  tau(   4) = (  -0.0000005   0.5773505   3.6324766  )
         5           Sb  tau(   5) = (   0.5000005   0.2886748   0.4515780  )
         6           Sb  tau(   6) = (  -0.0000005   0.5773505   2.3095411  )
         7           Te  tau(   7) = (   0.0000000   0.0000000   0.0000000  )
         8           Te  tau(   8) = (   0.5000005   0.2886748   3.2428496  )
         9           Te  tau(   9) = (  -0.0000005   0.5773505   0.8412050  )

   Crystallographic axes

     site n.     atom                  positions (cryst. coord.)
         1           Sb  tau(   1) = (  0.0000000  0.0000000  0.6519510  )
         2           Sb  tau(   2) = (  0.0000000  0.0000000  0.3480490  )
         3           Sb  tau(   3) = (  0.6666670  0.3333330  0.4344980  )
         4           Sb  tau(   4) = (  0.3333330  0.6666670  0.8894290  )
         5           Sb  tau(   5) = (  0.6666670  0.3333330  0.1105710  )
         6           Sb  tau(   6) = (  0.3333330  0.6666670  0.5655020  )
         7           Te  tau(   7) = (  0.0000000  0.0000000  0.0000000  )
         8           Te  tau(   8) = (  0.6666670  0.3333330  0.7940270  )
         9           Te  tau(   9) = (  0.3333330  0.6666670  0.2059730  )

     number of k points=     1  Methfessel-Paxton smearing, width (Ry)=  0.0010
                       cart. coord. in units 2pi/alat
        k(    1) = (   0.0000000   0.0000000   0.0000000), wk =   2.0000000

                       cryst. coord.
        k(    1) = (   0.0000000   0.0000000   0.0000000), wk =   2.0000000

     Check: negative core charge=   -0.000003

     Initial potential from superposition of free atoms

     starting charge     101.9993, renormalised to     108.0000
     Starting wfcs are   66 randomized atomic wfcs

     Self-consistent Calculation

     iteration #  1     ecut=    30.00 Ry     beta= 0.70
     Davidson diagonalization with overlap

     ethr =  1.00E-02,  avg # of iterations =  8.0

     WARNING: integrated charge=   108.00526155, expected=   108.00000000

     total energy              =   -1036.95644589 Ry
     estimated scf accuracy    <     175.79568435 Ry

[...]

     c_bands:  4 eigenvalues not converged
     ethr =  1.00E-02,  avg # of iterations = 20.0

[...]

     ethr =  2.10E-04,  avg # of iterations =  2.0
     Minimization algorithm failed to find Fermi energy: reverting to bisection
     Possible cause: smearing is larger than the electronic band-gap.

[...]

     WARNING: integrated charge=   108.00001687, expected=   108.00000000

[...]

     total energy              =   -1186.51195600 Ry
     estimated scf accuracy    <       0.00000102 Ry

     iteration # 24     ecut=    30.00 Ry     beta= 0.70
     Davidson diagonalization with overlap

     ethr =  9.46E-10,  avg # of iterations =  2.0

     End of self-consistent calculation

          k = 0.0000 0.0000 0.0000 (  2727 PWs)   bands (ev):

   -20.7192 -20.7192 -20.7173 -20.7173 -20.5956 -20.5955 -20.5890 -20.5890
   -20.5756 -20.5756 -20.5744 -20.5717 -20.5682 -20.5682 -20.5568 -20.5561
   -20.5348 -20.5348 -20.5327 -20.5327 -20.3014 -20.2913 -20.2739 -20.2739
   -20.2617 -20.2617 -20.2287 -20.2287 -20.1991 -20.1991  -4.2191  -3.7941
    -3.5278  -2.6326  -2.5871  -0.1132   0.2115   1.7418   2.3929   6.1459
     6.2550   6.5792   6.5792   6.6984   6.6984   6.9921   6.9921   7.1239
     7.1239   7.4222   7.4609   7.4610   7.7147   8.5996   8.6963   8.6963
     9.0118   9.4673   9.4673   9.7047   9.8770   9.8771  10.1334  10.5336
    10.7066

     occupation numbers
     1.0000   1.0000   1.0000   1.0000   1.0000   1.0000   1.0000   1.0000
     1.0000   1.0000   1.0000   1.0000   1.0000   1.0000   1.0000   1.0000
     1.0000   1.0000   1.0000   1.0000   1.0000   1.0000   1.0000   1.0000
     1.0000   1.0000   1.0000   1.0000   1.0000   1.0000   1.0000   1.0000
     1.0000   1.0000   1.0000   1.0000   1.0000   1.0000   1.0000   1.0000
     1.0000   1.0000   1.0000   1.0000   1.0000   1.0000   1.0000   1.0000
     1.0000   1.0000   1.0000   1.0000   1.0000   1.0000  -0.0000  -0.0000
    -0.0000  -0.0000  -0.0000  -0.0000  -0.0000  -0.0000  -0.0000  -0.0000
    -0.0000

     the Fermi energy is     8.6472 ev

!    total energy              =   -1186.51195556 Ry
     estimated scf accuracy    <       0.00000064 Ry
     smearing contrib. (-TS)   =       0.00000006 Ry
     internal energy E=F+TS    =   -1186.51195562 Ry

     The total energy is F=E-TS. E is the sum of the following terms:
     one-electron contribution =    -693.71643057 Ry
     hartree contribution      =     403.92657941 Ry
     xc contribution           =    -308.09946601 Ry
     ewald contribution        =    -588.62263845 Ry

     convergence has been achieved in  24 iterations

     Forces acting on atoms (cartesian axes, Ry/au):

     atom    1 type  1   force =     0.00000000   -0.00000000   -0.04442502
     atom    2 type  1   force =     0.00000000    0.00000000    0.04442502
     atom    3 type  1   force =     0.00000000    0.00000000   -0.07830280
     atom    4 type  1   force =     0.00000000    0.00000000   -0.03085453
     atom    5 type  1   force =     0.00000000   -0.00000000    0.03085453
     atom    6 type  1   force =     0.00000000   -0.00000000    0.07830280
     atom    7 type  2   force =     0.00000000    0.00000000    0.00000000
     atom    8 type  2   force =     0.00000000    0.00000000    0.05977201
     atom    9 type  2   force =     0.00000000    0.00000000   -0.05977201
     The non-local contrib.  to forces
     atom    1 type  1   force =     0.00000000    0.00000000    0.30193767
     atom    2 type  1   force =     0.00000000    0.00000000   -0.30193767
     atom    3 type  1   force =     0.00000000    0.00000000    0.55640765
     atom    4 type  1   force =    -0.00000000   -0.00000000    0.21081489
     atom    5 type  1   force =     0.00000000    0.00000000   -0.21081489
     atom    6 type  1   force =    -0.00000000   -0.00000000   -0.55640765
     atom    7 type  2   force =     0.00000000    0.00000000    0.00000000
     atom    8 type  2   force =     0.00000000   -0.00000000    0.18179690
     atom    9 type  2   force =     0.00000000    0.00000000   -0.18179690
     The ionic contribution  to forces
     atom    1 type  1   force =    -0.00001127    0.00000651   30.91869448
     atom    2 type  1   force =     0.00001127   -0.00000651  -30.91869448
     atom    3 type  1   force =    -0.00002269    0.00001310   -8.60365888
     atom    4 type  1   force =     0.00001285   -0.00000742    8.39251342
     atom    5 type  1   force =    -0.00001285    0.00000742   -8.39251342
     atom    6 type  1   force =     0.00002269   -0.00001310    8.60365888
     atom    7 type  2   force =    -0.00000000    0.00000000    0.00000000
     atom    8 type  2   force =    -0.00001059    0.00000612    5.16162686
     atom    9 type  2   force =     0.00001059   -0.00000612   -5.16162686
     The local contribution  to forces
     atom    1 type  1   force =    -0.00002388   -0.00001793  -31.26157388
     atom    2 type  1   force =     0.00001268    0.00001212   31.26048448
     atom    3 type  1   force =     0.00001834   -0.00000301    7.97073373
     atom    4 type  1   force =    -0.00000698    0.00001955   -8.63068033
     atom    5 type  1   force =    -0.00000163   -0.00000043    8.63188204
     atom    6 type  1   force =    -0.00001686    0.00000839   -7.97426000
     atom    7 type  2   force =     0.00000722    0.00000208    0.00014644
     atom    8 type  2   force =     0.00002509   -0.00001433   -5.29885786
     atom    9 type  2   force =    -0.00001418    0.00001091    5.29932207
     The core correction contribution to forces
     atom    1 type  1   force =    -0.00000074   -0.00000012   -0.00313757
     atom    2 type  1   force =     0.00000049    0.00000028    0.00314027
     atom    3 type  1   force =    -0.00000018    0.00000006   -0.00348402
     atom    4 type  1   force =    -0.00000043    0.00000032   -0.00120073
     atom    5 type  1   force =    -0.00000031    0.00000001    0.00118341
     atom    6 type  1   force =     0.00000030   -0.00000023    0.00348054
     atom    7 type  2   force =    -0.00000046   -0.00000030    0.00001334
     atom    8 type  2   force =    -0.00000182    0.00000096    0.01623287
     atom    9 type  2   force =     0.00000051   -0.00000048   -0.01618356
     The Hubbard contrib.    to forces
     atom    1 type  1   force =     0.00000000    0.00000000    0.00000000
     atom    2 type  1   force =     0.00000000    0.00000000    0.00000000
     atom    3 type  1   force =     0.00000000    0.00000000    0.00000000
     atom    4 type  1   force =     0.00000000    0.00000000    0.00000000
     atom    5 type  1   force =     0.00000000    0.00000000    0.00000000
     atom    6 type  1   force =     0.00000000    0.00000000    0.00000000
     atom    7 type  2   force =     0.00000000    0.00000000    0.00000000
     atom    8 type  2   force =     0.00000000    0.00000000    0.00000000
     atom    9 type  2   force =     0.00000000    0.00000000    0.00000000
     The SCF correction term to forces
     atom    1 type  1   force =     0.00004449    0.00001268   -0.00031933
     atom    2 type  1   force =    -0.00003556   -0.00001554    0.00145882
     atom    3 type  1   force =    -0.00000485   -0.00002158    0.00152581
     atom    4 type  1   force =    -0.00000148   -0.00001484   -0.00239221
     atom    5 type  1   force =     0.00001999   -0.00000358    0.00102694
     atom    6 type  1   force =    -0.00000957    0.00000924    0.00165812
     atom    7 type  2   force =    -0.00000032    0.00000192   -0.00026199
     atom    8 type  2   force =     0.00000489    0.00000063   -0.00122421
     atom    9 type  2   force =    -0.00000156   -0.00000126    0.00031578

     Total force =     0.158931     Total SCF correction =     0.003969

     Computing stress (Cartesian axis) and pressure

          total   stress  (Ry/bohr**3)                   (kbar)     P=      140.69
   0.00191242   0.00000000   0.00000000          281.33        0.00        0.00
   0.00000000   0.00191242  -0.00000000            0.00      281.33       -0.00
   0.00000000  -0.00000000  -0.00095572            0.00       -0.00     -140.59

     kinetic stress (kbar)  11630.02      0.00      0.00
                                0.00  11630.03      0.00
                                0.00      0.00  11237.15

     local   stress (kbar)  -8521.34      0.01     -0.00
                                0.01  -8521.34     -0.01
                               -0.00     -0.01  14913.31

     nonloc. stress (kbar)  -1893.30     -0.00      0.00
                               -0.00  -1893.30      0.00
                                0.00      0.00  -1846.24

     hartree stress (kbar)  13775.51     -0.00      0.00
                               -0.00  13775.51      0.00
                                0.00      0.00   2365.20

     exc-cor stress (kbar)   8449.56     -0.00      0.00
                               -0.00   8449.56      0.00
                                0.00      0.00   8451.07

     corecor stress (kbar) -12664.15      0.00     -0.00
                                0.00 -12664.15     -0.00
                               -0.00     -0.00 -12655.58

     ewald   stress (kbar) -10494.97     -0.00     -0.00
                               -0.00 -10494.97      0.00
                               -0.00      0.00 -22605.51

     hubbard stress (kbar)      0.00      0.00      0.00
                                0.00      0.00      0.00
                                0.00      0.00      0.00

     DFT-D   stress (kbar)      0.00      0.00      0.00
                                0.00      0.00      0.00
                                0.00      0.00      0.00

     XDM     stress (kbar)      0.00      0.00      0.00
                                0.00      0.00      0.00
                                0.00      0.00      0.00

     dft-nl  stress (kbar)      0.00      0.00      0.00
                                0.00      0.00      0.00
                                0.00      0.00      0.00

     TS-vdW  stress (kbar)      0.00      0.00      0.00
                                0.00      0.00      0.00
                                0.00      0.00      0.00

[...]

                                0.00      0.00      0.00

     Writing all to output data dir new_calculations/myprefix.save/

     General routines

     Parallel routines

   This run was terminated on:  18: 8:38  20May2023

   JOB DONE.