     Program PWSCF v.7.0 starts on 21May2023 at  6: 8:44

     Reading input from espresso_6861.pwi
Warning: card &CELL ignored
Warning: card / ignored

     Current dimensions of program PWSCF are:
     Max number of different atomic species (ntypx) = 10
     Max number of k-points (npk) =  40000
     Max angular momentum in pseudopotentials (lmaxx) =  4
     file Pb.pbe-dn-kjpaw_psl.0.2.2.UPF: wavefunction(s)  6S renormalized
     file O.pbe-n-kjpaw_psl.0.1.UPF: wavefunction(s)  2P renormalized

     gamma-point specific algorithms are used
     Message from routine setup:
     using ibrav=0 with symmetry is DISCOURAGED, use correct ibrav instead

     Subspace diagonalization in iterative solution of the eigenvalue problem:
     a serial algorithm will be used

     Using Slab Decomposition

     bravais-lattice index     =            0
     lattice parameter (alat)  =      14.6525  a.u.
     unit-cell volume          =    1482.5977 (a.u.)^3
     number of atoms/cell      =           17
     number of atomic types    =            4
     number of electrons       =       144.00
     number of Kohn-Sham states=           86
     kinetic-energy cutoff     =      30.0000  Ry
     charge density cutoff     =     240.0000  Ry
     scf convergence threshold =      1.0E-06
     mixing beta               =       0.7000
     number of iterations used =            8  plain     mixing
     Exchange-correlation=  SLA  PW   PBX  PBC
                           (   1   4   3   4   0   0   0)

     celldm(1)=  14.652526  celldm(2)=   0.000000  celldm(3)=   0.000000
     celldm(4)=   0.000000  celldm(5)=   0.000000  celldm(6)=   0.000000

     crystal axes: (cart. coord. in units of alat)
               a(1) = (   1.000000   0.000000   0.000000 )
               a(2) = (   0.877147   0.480223   0.000000 )
               a(3) = (   0.903263   0.231078   0.981393 )

     reciprocal axes: (cart. coord. in units 2 pi/alat)
               b(1) = (  1.000000 -1.826541 -0.490313 )
               b(2) = (  0.000000  2.082367 -0.490313 )
               b(3) = (  0.000000  0.000000  1.018960 )

     PseudoPot. # 1 for Ti read from file:
     /home/pragov/projects/rrg-bengioy-ad/pragov/crystal_structure_design/SSSP/ti_pbe_v1.4.uspp.F.UPF
     MD5 check sum: 88a00a6731bd790ddea75d31a80cb452
     Pseudo is Ultrasoft + core correction, Zval = 12.0
     Generated by new atomic code, or converted to UPF format
     Using radial grid of  851 points,  6 beta functions with:
                l(1) =   0
                l(2) =   0
                l(3) =   1
                l(4) =   1
                l(5) =   2
                l(6) =   2
     Q(r) pseudized with  6 coefficients,  rinner =    1.000   1.000   1.000
                                                       1.000   1.000

     PseudoPot. # 2 for Pb read from file:
     /home/pragov/projects/rrg-bengioy-ad/pragov/crystal_structure_design/SSSP/Pb.pbe-dn-kjpaw_psl.0.2.2.UPF
     MD5 check sum: 9d431e6316058b74ade52399a6cf67da
     Pseudo is Projector augmented-wave + core cor, Zval = 14.0
     Generated using "atomic" code by A. Dal Corso  v.5.0.99 svn rev. 10869
     Shape of augmentation charge: PSQ
     Using radial grid of 1281 points,  6 beta functions with:
                l(1) =   0
                l(2) =   0
                l(3) =   1
                l(4) =   1
                l(5) =   2
                l(6) =   2
     Q(r) pseudized with 0 coefficients

     PseudoPot. # 3 for O  read from file:
     /home/pragov/projects/rrg-bengioy-ad/pragov/crystal_structure_design/SSSP/O.pbe-n-kjpaw_psl.0.1.UPF
     MD5 check sum: 0234752ac141de4415c5fc33072bef88
     Pseudo is Projector augmented-wave + core cor, Zval =  6.0
     Generated using "atomic" code by A. Dal Corso  v.5.0.99 svn rev. 10869
     Shape of augmentation charge: BESSEL
     Using radial grid of 1095 points,  4 beta functions with:
                l(1) =   0
                l(2) =   0
                l(3) =   1
                l(4) =   1
     Q(r) pseudized with 0 coefficients

     PseudoPot. # 4 for F  read from file:
     /home/pragov/projects/rrg-bengioy-ad/pragov/crystal_structure_design/SSSP/f_pbe_v1.4.uspp.F.UPF
     MD5 check sum: 4c38b6a325caf53ec0e86aed9459de46
     Pseudo is Ultrasoft, Zval =  7.0
     Generated by new atomic code, or converted to UPF format
     Using radial grid of  799 points,  4 beta functions with:
                l(1) =   0
                l(2) =   0
                l(3) =   1
                l(4) =   1
     Q(r) pseudized with  8 coefficients,  rinner =    0.950   0.950   0.950

     atomic species   valence    mass     pseudopotential
        Ti            12.00    47.86700     Ti( 1.00)
        Pb            14.00   207.20000     Pb( 1.00)
        O              6.00    15.99900     O ( 1.00)
        F              7.00    18.99840     F ( 1.00)

      2 Sym. Ops., with inversion, found

                                    s                        frac. trans.

      isym =  1     identity

 cryst.   s( 1) = (     1          0          0      )
                  (     0          1          0      )
                  (     0          0          1      )

 cart.    s( 1) = (  1.0000000  0.0000000  0.0000000 )
                  (  0.0000000  1.0000000 -0.0000000 )
                  (  0.0000000  0.0000000  1.0000000 )

      isym =  2     inversion

 cryst.   s( 2) = (    -1          0          0      )
                  (     0         -1          0      )
                  (     0          0         -1      )

 cart.    s( 2) = ( -1.0000000 -0.0000000 -0.0000000 )
                  (  0.0000000 -1.0000000  0.0000000 )
                  (  0.0000000  0.0000000 -1.0000000 )

   Cartesian axes

     site n.     atom                  positions (alat units)
         1           Ti  tau(   1) = (   1.9336299   0.4946728   0.7588033  )
         2           Ti  tau(   2) = (   0.8467801   0.2166283   0.2225898  )
         3           Ti  tau(   3) = (   1.5757060   0.4031065   0.4446152  )
         4           Ti  tau(   4) = (   1.2047040   0.3081946   0.5367779  )
         5           Pb  tau(   5) = (   0.3068692   0.0785051   0.1606698  )
         6           Pb  tau(   6) = (   2.4735407   0.6327960   0.8207234  )
         7           O   tau(   7) = (   1.0537474   0.2695760   0.7408046  )
         8           O   tau(   8) = (   1.7266625   0.4417251   0.2405885  )
         9           O   tau(   9) = (   2.1118051   0.5402546   0.5574097  )
        10           O   tau(  10) = (   0.6686049   0.1710465   0.4239834  )
        11           O   tau(  11) = (   0.9385733   0.2401114   0.0000000  )
        12           O   tau(  12) = (   1.4183909   0.3628612   0.6493123  )
        13           O   tau(  13) = (   1.3620190   0.3484399   0.3320809  )
        14           O   tau(  14) = (   1.7443171   0.4462416   0.6399458  )
        15           O   tau(  15) = (   1.0360928   0.2650595   0.3414473  )
        16           F   tau(  16) = (   2.1845525   0.5588653   0.9207293  )
        17           F   tau(  17) = (   0.5958575   0.1524358   0.0606638  )

   Crystallographic axes

     site n.     atom                  positions (cryst. coord.)
         1           Ti  tau(   1) = (  0.6580390  0.6580390  0.7731900  )
         2           Ti  tau(   2) = (  0.3419610  0.3419610  0.2268100  )
         3           Ti  tau(   3) = (  0.6214150  0.6214150  0.4530450  )
         4           Ti  tau(   4) = (  0.3785850  0.3785850  0.5469550  )
         5           Pb  tau(   5) = (  0.0846980  0.0846980  0.1637160  )
         6           Pb  tau(   6) = (  0.9153020  0.9153020  0.8362840  )
         7           O   tau(   7) = (  0.1981300  0.1981300  0.7548500  )
         8           O   tau(   8) = (  0.8018700  0.8018700  0.2451500  )
         9           O   tau(   9) = (  0.8517030  0.8517030  0.5679780  )
        10           O   tau(  10) = (  0.1482970  0.1482970  0.4320220  )
        11           O   tau(  11) = (  0.5000000  0.5000000  0.0000000  )
        12           O   tau(  12) = (  0.4372440  0.4372440  0.6616230  )
        13           O   tau(  13) = (  0.5627560  0.5627560  0.3383770  )
        14           O   tau(  14) = (  0.6154650  0.6154650  0.6520790  )
        15           O   tau(  15) = (  0.3845350  0.3845350  0.3479210  )
        16           F   tau(  16) = (  0.7123170  0.7123170  0.9381860  )
        17           F   tau(  17) = (  0.2876830  0.2876830  0.0618140  )

     number of k points=     1  Methfessel-Paxton smearing, width (Ry)=  0.0010
                       cart. coord. in units 2pi/alat
        k(    1) = (   0.0000000   0.0000000   0.0000000), wk =   2.0000000

                       cryst. coord.
        k(    1) = (   0.0000000   0.0000000   0.0000000), wk =   2.0000000

     Check: negative core charge=   -0.000013

     Initial potential from superposition of free atoms

     starting charge     139.9951, renormalised to     144.0000

     negative rho (up, down):  5.761E-03 0.000E+00
     Starting wfcs are  102 randomized atomic wfcs
     Checking if some PAW data can be deallocated...

     Self-consistent Calculation

     iteration #  1     ecut=    30.00 Ry     beta= 0.70
     Davidson diagonalization with overlap

     ethr =  1.00E-02,  avg # of iterations =  2.0

     negative rho (up, down):  4.715E-03 0.000E+00

     total energy              =   -2685.57792491 Ry
     estimated scf accuracy    <       8.23528503 Ry

[...]

     total energy              =   -2690.89440843 Ry
     estimated scf accuracy    <       0.00000134 Ry

     iteration # 17     ecut=    30.00 Ry     beta= 0.70
     Davidson diagonalization with overlap

     ethr =  9.28E-10,  avg # of iterations =  3.0

[...]

     End of self-consistent calculation

          k = 0.0000 0.0000 0.0000 (  2058 PWs)   bands (ev):

   -49.0529 -49.0393 -48.5435 -48.5421 -25.3431 -25.3324 -25.3253 -25.2888
   -25.2868 -25.1117 -24.9064 -24.8851 -24.8175 -24.8149 -24.7745 -24.7391
   -13.8511 -13.6458  -9.5836  -9.0480  -8.9559  -8.9136  -8.6841  -8.6282
    -8.5251  -8.2763  -8.2470  -7.8033  -7.8024  -7.7897  -7.7891  -7.7627
    -7.7610  -7.7337  -7.7279  -7.6479  -7.5819   0.6554   0.9577   3.6492
     3.7337   4.0723   4.2000   4.2291   4.3391   4.4536   4.4976   4.6072
     4.6429   4.8419   4.9091   5.1049   5.1124   5.2957   5.3948   5.5525
     5.6020   5.6274   5.9845   6.0476   6.0549   6.2434   6.2969   6.4936
     6.7109   6.9104   7.0516   7.1085   7.2947   7.3425   7.5827   7.6259
     9.9762  10.3788  10.5673  10.8212  10.8800  10.9673  10.9828  11.3947
    11.5861  11.9692  11.9835  12.0174  12.2815  12.3577

     occupation numbers
     1.0000   1.0000   1.0000   1.0000   1.0000   1.0000   1.0000   1.0000
     1.0000   1.0000   1.0000   1.0000   1.0000   1.0000   1.0000   1.0000
     1.0000   1.0000   1.0000   1.0000   1.0000   1.0000   1.0000   1.0000
     1.0000   1.0000   1.0000   1.0000   1.0000   1.0000   1.0000   1.0000
     1.0000   1.0000   1.0000   1.0000   1.0000   1.0000   1.0000   1.0000
     1.0000   1.0000   1.0000   1.0000   1.0000   1.0000   1.0000   1.0000
     1.0000   1.0000   1.0000   1.0000   1.0000   1.0000   1.0000   1.0000
     1.0000   1.0000   1.0000   1.0000   1.0000   1.0000   1.0000   1.0000
     1.0000   1.0000   1.0000   1.0000   1.0000   1.0000   1.0000   1.0000
    -0.0000  -0.0000  -0.0000  -0.0000  -0.0000  -0.0000  -0.0000  -0.0000
    -0.0000  -0.0000  -0.0000  -0.0000  -0.0000  -0.0000

     the Fermi energy is     8.6386 ev

!    total energy              =   -2690.89440859 Ry
     estimated scf accuracy    <       0.00000025 Ry
     smearing contrib. (-TS)   =       0.00000000 Ry
     internal energy E=F+TS    =   -2690.89440859 Ry

     The total energy is F=E-TS. E is the sum of the following terms:
     one-electron contribution =    -406.32736735 Ry
     hartree contribution      =     287.69182533 Ry
     xc contribution           =    -246.47408895 Ry
     ewald contribution        =    -783.15078628 Ry
     one-center paw contrib.   =   -1542.63399135 Ry
      -> PAW hartree energy AE =     459.81930738 Ry
      -> PAW hartree energy PS =    -458.43112524 Ry
      -> PAW xc energy AE      =   -1699.56331812 Ry
      -> PAW xc energy PS      =     155.54114464 Ry
      -> total E_H with PAW    =     289.08000747 Ry
      -> total E_XC with PAW   =   -1790.49626243 Ry

     convergence has been achieved in  17 iterations

     negative rho (up, down):  5.284E-03 0.000E+00

     Forces acting on atoms (cartesian axes, Ry/au):

     atom    1 type  1   force =    -0.16356658   -0.04184595    0.02293311
     atom    2 type  1   force =     0.16356658    0.04184595   -0.02293311
     atom    3 type  1   force =    -0.21784295   -0.05572904    0.11580756
     atom    4 type  1   force =     0.21784295    0.05572904   -0.11580756
     atom    5 type  2   force =     0.00607277    0.00155525   -0.01341670
     atom    6 type  2   force =    -0.00607277   -0.00155525    0.01341670
     atom    7 type  3   force =     0.16019486    0.04098249   -0.02953070
     atom    8 type  3   force =    -0.16019486   -0.04098249    0.02953070
     atom    9 type  3   force =    -0.19313631   -0.04940842    0.10141990
     atom   10 type  3   force =     0.19313631    0.04940842   -0.10141990
     atom   11 type  3   force =     0.00000000    0.00000000    0.00000000
     atom   12 type  3   force =    -0.02762389   -0.00706526   -0.04159635
     atom   13 type  3   force =     0.02762389    0.00706526    0.04159635
     atom   14 type  3   force =     0.01043116    0.00266802   -0.00705763
     atom   15 type  3   force =    -0.01043116   -0.00266802    0.00705763
     atom   16 type  4   force =     0.00214503    0.00054848   -0.00237440
     atom   17 type  4   force =    -0.00214503   -0.00054848    0.00237440
     The non-local contrib.  to forces
     atom    1 type  1   force =     0.08451085    0.02161945   -0.02203177
     atom    2 type  1   force =    -0.08451085   -0.02161945    0.02203177
     atom    3 type  1   force =     0.06319455    0.01616666   -0.03405970
     atom    4 type  1   force =    -0.06319455   -0.01616666    0.03405970
     atom    5 type  2   force =     0.18446758    0.04718898    0.03704186
     atom    6 type  2   force =    -0.18446758   -0.04718898   -0.03704186
     atom    7 type  3   force =    -0.50770148   -0.12988531   -0.12006392
     atom    8 type  3   force =     0.50770148    0.12988531    0.12006392
     atom    9 type  3   force =     0.33178251    0.08487686   -0.08130343
     atom   10 type  3   force =    -0.33178251   -0.08487686    0.08130343
     atom   11 type  3   force =     0.00000000    0.00000000    0.00000000
     atom   12 type  3   force =    -0.17393715   -0.04449817   -0.62249716
     atom   13 type  3   force =     0.17393715    0.04449817    0.62249716
     atom   14 type  3   force =     0.18081651    0.04625797    0.14245211
     atom   15 type  3   force =    -0.18081651   -0.04625797   -0.14245211
     atom   16 type  4   force =     0.11000402    0.02813709    0.01019370
     atom   17 type  4   force =    -0.11000402   -0.02813709   -0.01019370
     The ionic contribution  to forces
     atom    1 type  1   force =    -2.07908334   -0.53188354    6.08352050
     atom    2 type  1   force =     2.07908334    0.53188354   -6.08352050
     atom    3 type  1   force =     1.63038499    0.41709484    1.24918247
     atom    4 type  1   force =    -1.63038499   -0.41709485   -1.24918247
     atom    5 type  2   force =    -4.74586668   -1.21411601   -4.59264452
     atom    6 type  2   force =     4.74586668    1.21411601    4.59264452
     atom    7 type  3   force =    -2.55734435   -0.65423514    6.42630287
     atom    8 type  3   force =     2.55734435    0.65423513   -6.42630287
     atom    9 type  3   force =     0.81361135    0.20814293   -2.72036864
     atom   10 type  3   force =    -0.81361135   -0.20814292    2.72036864
     atom   11 type  3   force =    -0.00000000    0.00000000   -0.00000000
     atom   12 type  3   force =     1.52278265    0.38956737    8.09882261
     atom   13 type  3   force =    -1.52278265   -0.38956737   -8.09882261
     atom   14 type  3   force =    -2.20908789   -0.56514208    0.85209711
     atom   15 type  3   force =     2.20908789    0.56514208   -0.85209711
     atom   16 type  4   force =     0.98206352    0.25123737    2.38933896
     atom   17 type  4   force =    -0.98206352   -0.25123737   -2.38933896
     The local contribution  to forces
     atom    1 type  1   force =     1.83593157    0.46967830   -6.04677885
     atom    2 type  1   force =    -1.83587629   -0.46966671    6.04652834
     atom    3 type  1   force =    -1.89689056   -0.48526695   -1.11137662
     atom    4 type  1   force =     1.89680880    0.48525201    1.11081933
     atom    5 type  2   force =     4.57680971    1.17086548    4.54403529
     atom    6 type  2   force =    -4.57684489   -1.17087752   -4.54347338
     atom    7 type  3   force =     3.21794323    0.82323401   -6.33593479
     atom    8 type  3   force =    -3.21776209   -0.82319169    6.33562034
     atom    9 type  3   force =    -1.33396494   -0.34126070    2.90108098
     atom   10 type  3   force =     1.33406164    0.34128287   -2.90146320
     atom   11 type  3   force =    -0.00009301   -0.00002130    0.00030853
     atom   12 type  3   force =    -1.37825922   -0.35259972   -7.52387147
     atom   13 type  3   force =     1.37792026    0.35250378    7.52376978
     atom   14 type  3   force =     2.03945454    0.52174679   -1.00067110
     atom   15 type  3   force =    -2.03945962   -0.52174335    1.00057622
     atom   16 type  4   force =    -1.09011508   -0.27887501   -2.40180384
     atom   17 type  4   force =     1.09025522    0.27892166    2.40197921
     The core correction contribution to forces
     atom    1 type  1   force =    -0.00547534   -0.00140082    0.00813278
     atom    2 type  1   force =     0.00547261    0.00139999   -0.00813104
     atom    3 type  1   force =    -0.01409881   -0.00360655    0.01186742
     atom    4 type  1   force =     0.01409174    0.00360498   -0.01186712
     atom    5 type  2   force =    -0.00994858   -0.00254515   -0.00146583
     atom    6 type  2   force =     0.00994867    0.00254570    0.00146692
     atom    7 type  3   force =     0.00709923    0.00181618    0.00007277
     atom    8 type  3   force =    -0.00710009   -0.00181643   -0.00007283
     atom    9 type  3   force =    -0.00479317   -0.00122623    0.00179008
     atom   10 type  3   force =     0.00479211    0.00122590   -0.00178912
     atom   11 type  3   force =     0.00000044    0.00000012   -0.00000057
     atom   12 type  3   force =     0.00175272    0.00044831    0.00603283
     atom   13 type  3   force =    -0.00175110   -0.00044805   -0.00603275
     atom   14 type  3   force =    -0.00052874   -0.00013527   -0.00082789
     atom   15 type  3   force =     0.00052828    0.00013518    0.00082791
     atom   16 type  4   force =     0.00000000    0.00000000    0.00000000
     atom   17 type  4   force =     0.00000000    0.00000000    0.00000000
     The Hubbard contrib.    to forces
     atom    1 type  1   force =     0.00000000    0.00000000    0.00000000
     atom    2 type  1   force =     0.00000000    0.00000000    0.00000000
     atom    3 type  1   force =     0.00000000    0.00000000    0.00000000
     atom    4 type  1   force =     0.00000000    0.00000000    0.00000000
     atom    5 type  2   force =     0.00000000    0.00000000    0.00000000
     atom    6 type  2   force =     0.00000000    0.00000000    0.00000000
     atom    7 type  3   force =     0.00000000    0.00000000    0.00000000
     atom    8 type  3   force =     0.00000000    0.00000000    0.00000000
     atom    9 type  3   force =     0.00000000    0.00000000    0.00000000
     atom   10 type  3   force =     0.00000000    0.00000000    0.00000000
     atom   11 type  3   force =     0.00000000    0.00000000    0.00000000
     atom   12 type  3   force =     0.00000000    0.00000000    0.00000000
     atom   13 type  3   force =     0.00000000    0.00000000    0.00000000
     atom   14 type  3   force =     0.00000000    0.00000000    0.00000000
     atom   15 type  3   force =     0.00000000    0.00000000    0.00000000
     atom   16 type  4   force =     0.00000000    0.00000000    0.00000000
     atom   17 type  4   force =     0.00000000    0.00000000    0.00000000
     The SCF correction term to forces
     atom    1 type  1   force =     0.00053320    0.00013506    0.00010687
     atom    2 type  1   force =    -0.00061871   -0.00015702    0.00017473
     atom    3 type  1   force =    -0.00045555   -0.00012099    0.00022156
     atom    4 type  1   force =     0.00049951    0.00012959    0.00039056
     atom    5 type  2   force =     0.00060928    0.00015883   -0.00041751
     atom    6 type  2   force =    -0.00057710   -0.00015358   -0.00021349
     atom    7 type  3   force =     0.00016390    0.00004332    0.00009012
     atom    8 type  3   force =    -0.00041284   -0.00010425    0.00021988
     atom    9 type  3   force =     0.00019761    0.00004939    0.00024548
     atom   10 type  3   force =    -0.00035391   -0.00008989    0.00018492
     atom   11 type  3   force =     0.00011814    0.00002828   -0.00034874
     atom   12 type  3   force =     0.00007818    0.00002410   -0.00008639
     atom   13 type  3   force =     0.00034130    0.00008587    0.00018155
     atom   14 type  3   force =    -0.00024014   -0.00006216   -0.00010599
     atom   15 type  3   force =     0.00021192    0.00005327    0.00020459
     atom   16 type  4   force =     0.00018464    0.00004766   -0.00012597
     atom   17 type  4   force =    -0.00034062   -0.00009705   -0.00009488

     Total force =     0.590229     Total SCF correction =     0.001899

     Computing stress (Cartesian axis) and pressure

     negative rho (up, down):  5.284E-03 0.000E+00
          total   stress  (Ry/bohr**3)                   (kbar)     P=     -275.29
  -0.00221393  -0.00036229  -0.00013490         -325.68      -53.29      -19.84
  -0.00036229  -0.00089046  -0.00003450          -53.29     -130.99       -5.07
  -0.00013490  -0.00003450  -0.00250969          -19.84       -5.07     -369.19

     kinetic stress (kbar)  23422.88      0.53     22.06
                                0.53  23420.94      5.64
                               22.06      5.64  23412.41

     local   stress (kbar)  -6392.09    242.60   4181.27
                              242.60  -7278.34   1069.68
                             4181.27   1069.68  -3273.73

     nonloc. stress (kbar)   4736.46    -19.57    -10.85
                              -19.57   4807.96     -2.77
                              -10.85     -2.77   4710.20

     hartree stress (kbar)   9904.70    -74.52  -1658.17
                              -74.52  10176.94   -424.20
                            -1658.17   -424.20   8463.48

     exc-cor stress (kbar)   1108.94      1.15     -1.65
                                1.15   1104.73     -0.42
                               -1.65     -0.42   1107.96

     corecor stress (kbar)  -7518.49      0.22      0.06
                                0.22  -7519.30      0.02
                                0.06      0.02  -7516.37

     ewald   stress (kbar) -25588.08   -203.71  -2552.56
                             -203.71 -24843.93   -653.01
                            -2552.56   -653.01 -27273.13

     hubbard stress (kbar)      0.00      0.00      0.00
                                0.00      0.00      0.00
                                0.00      0.00      0.00

     DFT-D   stress (kbar)      0.00      0.00      0.00
                                0.00      0.00      0.00
                                0.00      0.00      0.00

     XDM     stress (kbar)      0.00      0.00      0.00
                                0.00      0.00      0.00
                                0.00      0.00      0.00

     dft-nl  stress (kbar)      0.00      0.00      0.00
                                0.00      0.00      0.00
                                0.00      0.00      0.00

     TS-vdW  stress (kbar)      0.00      0.00      0.00
                                0.00      0.00      0.00
                                0.00      0.00      0.00

[...]

                                0.00      0.00      0.00

     Writing all to output data dir new_calculations/myprefix.save/

     General routines

     Parallel routines

     PAW routines

   This run was terminated on:   6: 9:36  21May2023

   JOB DONE.