     Program PWSCF v.7.0 starts on 20May2023 at 16:36:25

     Reading input from espresso_653.pwi
Warning: card &CELL ignored
Warning: card / ignored

     Current dimensions of program PWSCF are:
     Max number of different atomic species (ntypx) = 10
     Max number of k-points (npk) =  40000
     Max angular momentum in pseudopotentials (lmaxx) =  4
     file Nb.pbe-spn-kjpaw_psl.0.3.0.UPF: wavefunction(s)  4S 4P renormalized
     file O.pbe-n-kjpaw_psl.0.1.UPF: wavefunction(s)  2P renormalized

     gamma-point specific algorithms are used
     Message from routine setup:
     using ibrav=0 with symmetry is DISCOURAGED, use correct ibrav instead

     Subspace diagonalization in iterative solution of the eigenvalue problem:
     a serial algorithm will be used

     Using Slab Decomposition

     bravais-lattice index     =            0
     lattice parameter (alat)  =      10.7540  a.u.
     unit-cell volume          =     948.9937 (a.u.)^3
     number of atoms/cell      =           12
     number of atomic types    =            3
     number of electrons       =       108.00
     number of Kohn-Sham states=           65
     kinetic-energy cutoff     =      30.0000  Ry
     charge density cutoff     =     240.0000  Ry
     scf convergence threshold =      1.0E-06
     mixing beta               =       0.7000
     number of iterations used =            8  plain     mixing
     Exchange-correlation= SLA  PW   PBX  PBC
                           (   1   4   3   4   0   0   0)

     celldm(1)=  10.753951  celldm(2)=   0.000000  celldm(3)=   0.000000
     celldm(4)=   0.000000  celldm(5)=   0.000000  celldm(6)=   0.000000

     crystal axes: (cart. coord. in units of alat)
               a(1) = (   1.000000   0.000000   0.000000 )
               a(2) = (  -0.432543   0.901613   0.000000 )
               a(3) = (  -0.283729  -0.450807   0.846328 )

     reciprocal axes: (cart. coord. in units 2 pi/alat)
               b(1) = (  1.000000  0.479743  0.590787 )
               b(2) = (  0.000000  1.109123  0.590787 )
               b(3) = (  0.000000  0.000000  1.181575 )

     PseudoPot. # 1 for Nb read from file:
     /home/pragov/projects/rrg-bengioy-ad/pragov/crystal_structure_design/SSSP/Nb.pbe-spn-kjpaw_psl.0.3.0.UPF
     MD5 check sum: 411d72ad547312f8017e2943ceca08cc
     Pseudo is Projector augmented-wave + core cor, Zval = 13.0
     Generated using "atomic" code by A. Dal Corso  v.5.0.99 svn rev. 10869
     Shape of augmentation charge: PSQ
     Using radial grid of 1227 points,  6 beta functions with:
                l(1) =   0
                l(2) =   0
                l(3) =   1
                l(4) =   1
                l(5) =   2
                l(6) =   2
     Q(r) pseudized with 0 coefficients

     PseudoPot. # 2 for Rh read from file:
     /home/pragov/projects/rrg-bengioy-ad/pragov/crystal_structure_design/SSSP/Rh_ONCV_PBE-1.0.oncvpsp.upf
     MD5 check sum: ba07c69523b14cacd10683cd4c4284c1
     Pseudo is Norm-conserving, Zval = 17.0
     Generated using ONCVPSP code by D. R. Hamann
     Using radial grid of 1442 points,  6 beta functions with:
                l(1) =   0
                l(2) =   0
                l(3) =   1
                l(4) =   1
                l(5) =   2
                l(6) =   2

     PseudoPot. # 3 for O  read from file:
     /home/pragov/projects/rrg-bengioy-ad/pragov/crystal_structure_design/SSSP/O.pbe-n-kjpaw_psl.0.1.UPF
     MD5 check sum: 0234752ac141de4415c5fc33072bef88
     Pseudo is Projector augmented-wave + core cor, Zval =  6.0
     Generated using "atomic" code by A. Dal Corso  v.5.0.99 svn rev. 10869
     Shape of augmentation charge: BESSEL
     Using radial grid of 1095 points,  4 beta functions with:
                l(1) =   0
                l(2) =   0
                l(3) =   1
                l(4) =   1
     Q(r) pseudized with 0 coefficients

     atomic species   valence    mass     pseudopotential
        Nb            13.00    92.90637     Nb( 1.00)
        Rh            17.00   102.90550     Rh( 1.00)
        O              6.00    15.99900     O ( 1.00)

      2 Sym. Ops. (no inversion) found ( 1 have fractional translation)

                                    s                        frac. trans.

      isym =  1     identity

 cryst.   s( 1) = (     1          0          0      )
                  (     0          1          0      )
                  (     0          0          1      )

 cart.    s( 1) = (  1.0000000  0.0000000 -0.0000000 )
                  (  0.0000000  1.0000000 -0.0000000 )
                  (  0.0000000  0.0000000  1.0000000 )

      isym =  2     inv. 180 deg rotation - cart. axis [0,0,1]

 cryst.   s( 2) = (     1          0          0      )    f =( -0.2500000 )
                  (     0          1          0      )       (  0.2500000 )
                  (    -1         -1         -1      )       (  0.5000000 )

 cart.    s( 2) = (  1.0000000  0.0000000  0.0000000 )    f =( -0.5000000 )
                  (  0.0000000  1.0000000  0.0000000 )       ( -0.0000000 )
                  (  0.0000000  0.0000000 -1.0000000 )       (  0.4231641 )

   Cartesian axes

     site n.     atom                  positions (alat units)
         1           Nb  tau(   1) = (   0.5087689   0.0139326   0.4231641  )
         2           Nb  tau(   2) = (   0.2924975   0.4647393   0.0000000  )
         3           Rh  tau(   3) = (  -0.2176742   0.4485779   0.4231641  )
         4           Rh  tau(   4) = (   0.5660545   0.8993846   0.0000000  )
         5           O   tau(   5) = (   0.2842881   0.1428169   0.1645270  )
         6           O   tau(   6) = (   0.5661371   0.5725322   0.1741718  )
         7           O   tau(   7) = (   0.0680157   0.5936236   0.2586370  )
         8           O   tau(   8) = (   0.7824081   0.1217264   0.2489923  )
         9           O   tau(   9) = (   0.4875955   0.3072748   0.5973359  )
        10           O   tau(  10) = (   0.2220703  -0.1327143   0.5876911  )
        11           O   tau(  11) = (  -0.2779293  -0.1327152   0.6818011  )
        12           O   tau(  12) = (  -0.0124035   0.3072748   0.6721564  )

   Crystallographic axes

     site n.     atom                  positions (cryst. coord.)
         1           Nb  tau(   1) = (  0.7654530  0.2654530  0.5000000  )
         2           Nb  tau(   2) = (  0.5154530  0.5154530  0.0000000  )
         3           Rh  tau(   3) = (  0.2475280  0.7475280  0.5000000  )
         4           Rh  tau(   4) = (  0.9975280  0.9975280  0.0000000  )
         5           O   tau(   5) = (  0.4500040  0.2556020  0.1944010  )
         6           O   tau(   6) = (  0.9437040  0.7379070  0.2057970  )
         7           O   tau(   7) = (  0.5056020  0.8112010  0.3055990  )
         8           O   tau(   8) = (  0.9879070  0.2821110  0.2942030  )
         9           O   tau(   9) = (  0.9879070  0.6937040  0.7057970  )
        10           O   tau(  10) = (  0.5056020  0.2000040  0.6944010  )
        11           O   tau(  11) = (  0.0612010  0.2556020  0.8055990  )
        12           O   tau(  12) = (  0.5321110  0.7379070  0.7942030  )

     number of k points=     1  Methfessel-Paxton smearing, width (Ry)=  0.0010
                       cart. coord. in units 2pi/alat
        k(    1) = (   0.0000000   0.0000000   0.0000000), wk =   2.0000000

                       cryst. coord.
        k(    1) = (   0.0000000   0.0000000   0.0000000), wk =   2.0000000

     Check: negative core charge=   -0.000020

     Initial potential from superposition of free atoms

     starting charge     107.9949, renormalised to     108.0000
     Starting wfcs are   72 randomized atomic wfcs
     Checking if some PAW data can be deallocated...

     Self-consistent Calculation

     iteration #  1     ecut=    30.00 Ry     beta= 0.70
     Davidson diagonalization with overlap

     ethr =  1.00E-02,  avg # of iterations =  2.0

     total energy              =   -1432.95070587 Ry
     estimated scf accuracy    <       4.73806863 Ry

[...]

     total energy              =   -1435.42471986 Ry
     estimated scf accuracy    <       0.00000348 Ry

     iteration # 13     ecut=    30.00 Ry     beta= 0.70
     Davidson diagonalization with overlap

     ethr =  3.22E-09,  avg # of iterations =  2.0

     End of self-consistent calculation

          k = 0.0000 0.0000 0.0000 (  1297 PWs)   bands (ev):

   -67.7937 -67.7927 -44.9926 -44.9827 -35.7162 -35.7136 -35.6019 -35.6015
   -35.5612 -35.5608 -21.3005 -21.2844 -21.0846 -21.0831 -20.9464 -20.9451
    -7.9123  -7.1265  -7.0794  -7.0787  -6.4798  -6.4388  -6.0598  -6.0581
     3.9587   3.9714   5.1902   5.4303   5.4304   5.6091   5.7105   5.7223
     5.8151   5.8162   6.2222   6.4430   6.4436   7.9168   7.9172   8.2521
     8.2821   8.7762   9.0745   9.2381   9.2384   9.5571   9.5571   9.7805
     9.8344   9.8809  10.3851  10.3856  10.6090  10.8546  12.4559  12.7540
    13.0388  13.0397  13.0655  13.3076  14.0707  14.0708  14.8017  15.0966
    16.6341

     occupation numbers
     1.0000   1.0000   1.0000   1.0000   1.0000   1.0000   1.0000   1.0000
     1.0000   1.0000   1.0000   1.0000   1.0000   1.0000   1.0000   1.0000
     1.0000   1.0000   1.0000   1.0000   1.0000   1.0000   1.0000   1.0000
     1.0000   1.0000   1.0000   1.0000   1.0000   1.0000   1.0000   1.0000
     1.0000   1.0000   1.0000   1.0000   1.0000   1.0000   1.0000   1.0000
     1.0000   1.0000   1.0000   1.0000   1.0000   1.0000   1.0000   1.0000
     1.0000   1.0000   1.0000   1.0000   1.0000   1.0000  -0.0000  -0.0000
    -0.0000  -0.0000  -0.0000  -0.0000  -0.0000  -0.0000  -0.0000  -0.0000
    -0.0000

     the Fermi energy is    11.4764 ev

!    total energy              =   -1435.42471986 Ry
     estimated scf accuracy    <       0.00000065 Ry
     smearing contrib. (-TS)   =       0.00000000 Ry
     internal energy E=F+TS    =   -1435.42471986 Ry

     The total energy is F=E-TS. E is the sum of the following terms:
     one-electron contribution =    -322.39545982 Ry
     hartree contribution      =     220.07292020 Ry
     xc contribution           =    -160.74681047 Ry
     ewald contribution        =    -679.23787322 Ry
     one-center paw contrib.   =    -493.11749656 Ry
      -> PAW hartree energy AE =     369.07444813 Ry
      -> PAW hartree energy PS =    -367.48299673 Ry
      -> PAW xc energy AE      =    -608.66819841 Ry
      -> PAW xc energy PS      =     113.95925045 Ry
      -> total E_H with PAW    =     221.66437160 Ry
      -> total E_XC with PAW   =    -655.45575844 Ry

     convergence has been achieved in  13 iterations

     Forces acting on atoms (cartesian axes, Ry/au):

     atom    1 type  1   force =     0.00420112    0.00665578    0.00000197
     atom    2 type  1   force =     0.00420112    0.00665578   -0.00000197
     atom    3 type  2   force =     0.01661397    0.02639124    0.00000532
     atom    4 type  2   force =     0.01661397    0.02639124   -0.00000532
     atom    5 type  3   force =     0.00611951   -0.01080324    0.01093589
     atom    6 type  3   force =    -0.01366085   -0.00752278   -0.00755535
     atom    7 type  3   force =     0.00611951   -0.01080324   -0.01093589
     atom    8 type  3   force =    -0.01366085   -0.00752278    0.00755535
     atom    9 type  3   force =    -0.00088010   -0.01556996   -0.00754997
     atom   10 type  3   force =    -0.01239365    0.00084895    0.01094040
     atom   11 type  3   force =    -0.01239365    0.00084895   -0.01094040
     atom   12 type  3   force =    -0.00088010   -0.01556996    0.00754997
     The non-local contrib.  to forces
     atom    1 type  1   force =     0.01601762    0.02543758    0.00000393
     atom    2 type  1   force =     0.01601762    0.02543758   -0.00000393
     atom    3 type  2   force =    -0.07223999   -0.11477761    0.00000228
     atom    4 type  2   force =    -0.07223999   -0.11477761   -0.00000228
     atom    5 type  3   force =    -0.17539615   -0.03206164   -0.13136495
     atom    6 type  3   force =    -0.04903048    0.14594474   -0.11924820
     atom    7 type  3   force =    -0.17539615   -0.03206164    0.13136495
     atom    8 type  3   force =    -0.04903048    0.14594474    0.11924820
     atom    9 type  3   force =     0.15279295    0.01893897   -0.11922785
     atom   10 type  3   force =     0.04695347   -0.17200899   -0.13134960
     atom   11 type  3   force =     0.04695347   -0.17200899    0.13134960
     atom   12 type  3   force =     0.15279295    0.01893897    0.11922785
     The ionic contribution  to forces
     atom    1 type  1   force =    -1.47892600   -2.34993134    0.00003073
     atom    2 type  1   force =    -1.47903082   -2.34986538    0.00003073
     atom    3 type  2   force =     0.62929410    0.99987134    0.00011771
     atom    4 type  2   force =     0.62930077    0.99986714    0.00011771
     atom    5 type  3   force =     2.90166328   -0.17684073    2.54992207
     atom    6 type  3   force =     0.54890325   -1.05248800    1.02519422
     atom    7 type  3   force =     2.90173086   -0.17681462   -2.54999928
     atom    8 type  3   force =     0.54894154   -1.05255548   -1.02526544
     atom    9 type  3   force =    -1.18636143    0.03965243    1.02519422
     atom   10 type  3   force =    -1.41453551    2.53968733    2.54992207
     atom   11 type  3   force =    -1.41454121    2.53975955   -2.54999928
     atom   12 type  3   force =    -1.18643884    0.03965776   -1.02526544
     The local contribution  to forces
     atom    1 type  1   force =     1.46872080    2.33316670    0.00001846
     atom    2 type  1   force =     1.46899420    2.33425217    0.00003072
     atom    3 type  2   force =    -0.53987736   -0.85804671   -0.00035730
     atom    4 type  2   force =    -0.54097737   -0.85908584   -0.00013548
     atom    5 type  3   force =    -2.72274097    0.19625140   -2.40881851
     atom    6 type  3   force =    -0.51167013    0.90193494   -0.91348156
     atom    7 type  3   force =    -2.72335576    0.19667512    2.40961903
     atom    8 type  3   force =    -0.51211333    0.90178955    0.91377120
     atom    9 type  3   force =     1.03448675   -0.07171131   -0.91373638
     atom   10 type  3   force =     1.35535672   -2.37020977   -2.40956981
     atom   11 type  3   force =     1.35457150   -2.37008333    2.40889061
     atom   12 type  3   force =     1.03461400   -0.07123803    0.91358734
     The core correction contribution to forces
     atom    1 type  1   force =    -0.00166305   -0.00264654    0.00000296
     atom    2 type  1   force =    -0.00166516   -0.00264309    0.00000321
     atom    3 type  2   force =     0.00000000    0.00000000    0.00000000
     atom    4 type  2   force =     0.00000000    0.00000000    0.00000000
     atom    5 type  3   force =     0.00267413    0.00148743    0.00147096
     atom    6 type  3   force =    -0.00139772   -0.00266126    0.00023389
     atom    7 type  3   force =     0.00267185    0.00148371   -0.00147147
     atom    8 type  3   force =    -0.00139617   -0.00266090   -0.00023544
     atom    9 type  3   force =    -0.00179534   -0.00241012    0.00023483
     atom   10 type  3   force =     0.00018198    0.00305167    0.00147138
     atom   11 type  3   force =     0.00018472    0.00305364   -0.00147056
     atom   12 type  3   force =    -0.00179471   -0.00241154   -0.00023390
     The Hubbard contrib.    to forces
     atom    1 type  1   force =     0.00000000    0.00000000    0.00000000
     atom    2 type  1   force =     0.00000000    0.00000000    0.00000000
     atom    3 type  2   force =     0.00000000    0.00000000    0.00000000
     atom    4 type  2   force =     0.00000000    0.00000000    0.00000000
     atom    5 type  3   force =     0.00000000    0.00000000    0.00000000
     atom    6 type  3   force =     0.00000000    0.00000000    0.00000000
     atom    7 type  3   force =     0.00000000    0.00000000    0.00000000
     atom    8 type  3   force =     0.00000000    0.00000000    0.00000000
     atom    9 type  3   force =     0.00000000    0.00000000    0.00000000
     atom   10 type  3   force =     0.00000000    0.00000000    0.00000000
     atom   11 type  3   force =     0.00000000    0.00000000    0.00000000
     atom   12 type  3   force =     0.00000000    0.00000000    0.00000000
     The SCF correction term to forces
     atom    1 type  1   force =     0.00007972    0.00068759   -0.00005176
     atom    2 type  1   force =    -0.00013455   -0.00057765   -0.00006034
     atom    3 type  2   force =    -0.00061656   -0.00073053    0.00025155
     atom    4 type  2   force =     0.00059247    0.00046835    0.00002365
     atom    5 type  3   force =    -0.00003076    0.00050673   -0.00032079
     atom    6 type  3   force =    -0.00052416   -0.00028020   -0.00030788
     atom    7 type  3   force =     0.00042683   -0.00022620   -0.00049623
     atom    8 type  3   force =     0.00000414   -0.00000765   -0.00001736
     atom    9 type  3   force =    -0.00002166    0.00002867    0.00002410
     atom   10 type  3   force =    -0.00044044    0.00029382    0.00051624
     atom   11 type  3   force =     0.00053614    0.00016901    0.00033912
     atom   12 type  3   force =    -0.00002671   -0.00057968    0.00027301

     Total force =     0.066072     Total SCF correction =     0.002251

     Computing stress (Cartesian axis) and pressure

          total   stress  (Ry/bohr**3)                   (kbar)     P=     -472.00
  -0.00315204  -0.00051393  -0.00000000         -463.68      -75.60       -0.00
  -0.00051393  -0.00364514  -0.00000000          -75.60     -536.22       -0.00
  -0.00000000  -0.00000000  -0.00282862           -0.00       -0.00     -416.10

     kinetic stress (kbar)  37425.94   -368.73      0.00
                             -368.73  37072.14      0.00
                                0.00      0.00  37658.01

     local   stress (kbar) -13962.51 -10860.69      0.13
                           -10860.69 -24383.23     -0.06
                                0.13     -0.06  -7127.01

     nonloc. stress (kbar)   7886.38     25.85      0.00
                               25.85   7911.18      0.00
                                0.00      0.00   7870.11

     hartree stress (kbar)  10928.08   4027.79     -0.12
                             4027.79  14792.72      0.05
                               -0.12      0.05   8393.07

     exc-cor stress (kbar)  -1624.30      5.53      0.00
                                5.53  -1619.00     -0.00
                                0.00     -0.00  -1627.79

     corecor stress (kbar)  -5240.07      0.53      0.00
                                0.53  -5239.56      0.00
                                0.00      0.00  -5240.40

     ewald   stress (kbar) -35877.20   7094.12      0.00
                             7094.12 -29070.49      0.00
                                0.00      0.00 -40342.10

     hubbard stress (kbar)      0.00      0.00      0.00
                                0.00      0.00      0.00
                                0.00      0.00      0.00

     DFT-D   stress (kbar)      0.00      0.00      0.00
                                0.00      0.00      0.00
                                0.00      0.00      0.00

     XDM     stress (kbar)      0.00      0.00      0.00
                                0.00      0.00      0.00
                                0.00      0.00      0.00

     dft-nl  stress (kbar)      0.00      0.00      0.00
                                0.00      0.00      0.00
                                0.00      0.00      0.00

     TS-vdW  stress (kbar)      0.00      0.00      0.00
                                0.00      0.00      0.00
                                0.00      0.00      0.00

[...]

                                0.00      0.00      0.00

     Writing all to output data dir new_calculations/myprefix.save/

     General routines

     Parallel routines

     PAW routines

   This run was terminated on:  16:36:49  20May2023

   JOB DONE.