     Program PWSCF v.7.0 starts on 21May2023 at  4: 5:23

     Reading input from espresso_19720.pwi
Warning: card &CELL ignored
Warning: card / ignored

     Current dimensions of program PWSCF are:
     Max number of different atomic species (ntypx) = 10
     Max number of k-points (npk) =  40000
     Max angular momentum in pseudopotentials (lmaxx) =  4

     gamma-point specific algorithms are used
     Message from routine setup:
     using ibrav=0 with symmetry is DISCOURAGED, use correct ibrav instead

     Subspace diagonalization in iterative solution of the eigenvalue problem:
     a serial algorithm will be used

     Using Slab Decomposition

     bravais-lattice index     =            0
     lattice parameter (alat)  =      15.3162  a.u.
     unit-cell volume          =    3927.3807 (a.u.)^3
     number of atoms/cell      =           14
     number of atomic types    =            3
     number of electrons       =       142.00
     number of Kohn-Sham states=           85
     kinetic-energy cutoff     =      30.0000  Ry
     charge density cutoff     =     240.0000  Ry
     scf convergence threshold =      1.0E-06
     mixing beta               =       0.7000
     number of iterations used =            8  plain     mixing
     Exchange-correlation= SLA  PW   PBX  PBC
                           (   1   4   3   4   0   0   0)

     celldm(1)=  15.316187  celldm(2)=   0.000000  celldm(3)=   0.000000
     celldm(4)=   0.000000  celldm(5)=   0.000000  celldm(6)=   0.000000

     crystal axes: (cart. coord. in units of alat)
               a(1) = (   1.000000   0.000000   0.000000 )
               a(2) = (   0.000000   0.958612   0.000000 )
               a(3) = (   0.000000   0.379408   1.140272 )

     reciprocal axes: (cart. coord. in units 2 pi/alat)
               b(1) = (  1.000000  0.000000  0.000000 )
               b(2) = (  0.000000  1.043175 -0.347101 )
               b(3) = (  0.000000  0.000000  0.876984 )

     PseudoPot. # 1 for Tl read from file:
     /home/pragov/projects/rrg-bengioy-ad/pragov/crystal_structure_design/SSSP/Tl_pbe_v1.2.uspp.F.UPF
     MD5 check sum: b76cf1f7e72655a2b2c53cf6385d7059
     Pseudo is Ultrasoft + core correction, Zval = 13.0
     Generated by new atomic code, or converted to UPF format
     Using radial grid of  899 points,  6 beta functions with:
                l(1) =   0
                l(2) =   0
                l(3) =   1
                l(4) =   1
                l(5) =   2
                l(6) =   2
     Q(r) pseudized with  6 coefficients,  rinner =    1.100   1.100   1.100
                                                       1.100   1.100

     PseudoPot. # 2 for Co read from file:
     /home/pragov/projects/rrg-bengioy-ad/pragov/crystal_structure_design/SSSP/Co_pbe_v1.2.uspp.F.UPF
     MD5 check sum: 5f91765df6ddd3222702df6e7b74a16d
     Pseudo is Ultrasoft + core correction, Zval = 17.0
     Generated by new atomic code, or converted to UPF format
     Using radial grid of  863 points,  6 beta functions with:
                l(1) =   0
                l(2) =   0
                l(3) =   1
                l(4) =   1
                l(5) =   2
                l(6) =   2
     Q(r) pseudized with  8 coefficients,  rinner =    1.200   1.200   1.200
                                                       1.200   1.200

     PseudoPot. # 3 for I  read from file:
     /home/pragov/projects/rrg-bengioy-ad/pragov/crystal_structure_design/SSSP/I.pbe-n-kjpaw_psl.0.2.UPF
     MD5 check sum: d4ef18d9c8f18dc85e5843bca1e50dc0
     Pseudo is Projector augmented-wave + core cor, Zval =  7.0
     Generated using "atomic" code by A. Dal Corso  v.5.0.99 svn rev. 10869
     Shape of augmentation charge: PSQ
     Using radial grid of 1247 points,  4 beta functions with:
                l(1) =   0
                l(2) =   0
                l(3) =   1
                l(4) =   1
     Q(r) pseudized with 0 coefficients

     atomic species   valence    mass     pseudopotential
        Tl            13.00   204.38000     Tl( 1.00)
        Co            17.00    58.93319     Co( 1.00)
        I              7.00   126.90447     I ( 1.00)

      4 Sym. Ops., with inversion, found ( 2 have fractional translation)

                                    s                        frac. trans.

      isym =  1     identity

 cryst.   s( 1) = (     1          0          0      )
                  (     0          1          0      )
                  (     0          0          1      )

 cart.    s( 1) = (  1.0000000  0.0000000  0.0000000 )
                  (  0.0000000  1.0000000 -0.0000000 )
                  (  0.0000000  0.0000000  1.0000000 )

      isym =  2     180 deg rotation - cart. axis [1,0,0]

 cryst.   s( 2) = (     1          0          0      )    f =(  0.5000000 )
                  (     0         -1          0      )       (  0.0000000 )
                  (     0          0         -1      )       ( -0.0000000 )

 cart.    s( 2) = (  1.0000000  0.0000000  0.0000000 )    f =(  0.5000000 )
                  (  0.0000000 -1.0000000  0.0000000 )       (  0.0000000 )
                  (  0.0000000  0.0000000 -1.0000000 )       ( -0.0000000 )

      isym =  3     inversion

 cryst.   s( 3) = (    -1          0          0      )
                  (     0         -1          0      )
                  (     0          0         -1      )

 cart.    s( 3) = ( -1.0000000  0.0000000  0.0000000 )
                  (  0.0000000 -1.0000000  0.0000000 )
                  (  0.0000000  0.0000000 -1.0000000 )

      isym =  4     inv. 180 deg rotation - cart. axis [1,0,0]

 cryst.   s( 4) = (    -1          0          0      )    f =(  0.5000000 )
                  (     0          1          0      )       (  0.0000000 )
                  (     0          0          1      )       (  0.0000000 )

 cart.    s( 4) = ( -1.0000000  0.0000000  0.0000000 )    f =(  0.5000000 )
                  (  0.0000000  1.0000000 -0.0000000 )       (  0.0000000 )
                  (  0.0000000  0.0000000  1.0000000 )       (  0.0000000 )

   Cartesian axes

     site n.     atom                  positions (alat units)
         1           Tl  tau(   1) = (   0.7500000   0.9580963   0.6285759  )
         2           Tl  tau(   2) = (   0.2500000   0.3799239   0.5116957  )
         3           Tl  tau(   3) = (   0.7500000   0.7321106   0.0775989  )
         4           Tl  tau(   4) = (   0.2500000   0.6059096   1.0626727  )
         5           Co  tau(   5) = (   0.7500000   0.4776714   0.7998332  )
         6           Co  tau(   6) = (   0.2500000   0.8603488   0.3404383  )
         7           I   tau(   7) = (   0.7500000   0.5450705   0.4887193  )
         8           I   tau(   8) = (   0.2500000   0.7929497   0.6515523  )
         9           I   tau(   9) = (   0.0008240   1.0432087   0.2701360  )
        10           I   tau(  10) = (   0.9991760   0.2948115   0.8701355  )
        11           I   tau(  11) = (   0.5008240   0.2948115   0.8701355  )
        12           I   tau(  12) = (   0.4991760   1.0432087   0.2701360  )
        13           I   tau(  13) = (   0.7500000   0.7309904   0.9926851  )
        14           I   tau(  14) = (   0.2500000   0.6070298   0.1475865  )

   Crystallographic axes

     site n.     atom                  positions (cryst. coord.)
         1           Tl  tau(   1) = (  0.7500000  0.7812830  0.5512510  )
         2           Tl  tau(   2) = (  0.2500000  0.2187170  0.4487490  )
         3           Tl  tau(   3) = (  0.7500000  0.7367850  0.0680530  )
         4           Tl  tau(   4) = (  0.2500000  0.2632150  0.9319470  )
         5           Co  tau(   5) = (  0.7500000  0.2206720  0.7014410  )
         6           Co  tau(   6) = (  0.2500000  0.7793280  0.2985590  )
         7           I   tau(   7) = (  0.7500000  0.3989690  0.4285990  )
         8           I   tau(   8) = (  0.2500000  0.6010310  0.5714010  )
         9           I   tau(   9) = (  0.0008240  0.9944850  0.2369050  )
        10           I   tau(  10) = (  0.9991760  0.0055150  0.7630950  )
        11           I   tau(  11) = (  0.5008240  0.0055150  0.7630950  )
        12           I   tau(  12) = (  0.4991760  0.9944850  0.2369050  )
        13           I   tau(  13) = (  0.7500000  0.4179890  0.8705690  )
        14           I   tau(  14) = (  0.2500000  0.5820110  0.1294310  )

     number of k points=     1  Methfessel-Paxton smearing, width (Ry)=  0.0010
                       cart. coord. in units 2pi/alat
        k(    1) = (   0.0000000   0.0000000   0.0000000), wk =   2.0000000

                       cryst. coord.
        k(    1) = (   0.0000000   0.0000000   0.0000000), wk =   2.0000000

     Check: negative core charge=   -0.000004

     Initial potential from superposition of free atoms

     starting charge     139.9799, renormalised to     142.0000

     negative rho (up, down):  2.051E-01 0.000E+00
     Starting wfcs are   94 randomized atomic wfcs
     Checking if some PAW data can be deallocated...

     Self-consistent Calculation

     iteration #  1     ecut=    30.00 Ry     beta= 0.70
     Davidson diagonalization with overlap

     ethr =  1.00E-02,  avg # of iterations =  2.0

     negative rho (up, down):  2.036E-01 0.000E+00

     total energy              =   -4205.57783529 Ry
     estimated scf accuracy    <       3.87988896 Ry

[...]

     total energy              =   -4208.24640642 Ry
     estimated scf accuracy    <       0.00000215 Ry

     iteration # 42     ecut=    30.00 Ry     beta= 0.70
     Davidson diagonalization with overlap

     ethr =  1.28E-09,  avg # of iterations =  1.0

[...]

     End of self-consistent calculation

          k = 0.0000 0.0000 0.0000 (  5451 PWs)   bands (ev):

   -90.2379 -90.2379 -53.7475 -53.7468 -53.5744 -53.5733 -53.2584 -53.2581
    -8.7694  -8.6270  -8.3594  -8.3202  -8.2812  -8.2508  -8.1772  -8.1490
    -7.1015  -7.1004  -7.0988  -7.0978  -7.0958  -7.0912  -7.0883  -7.0853
    -7.0756  -7.0697  -6.9659  -6.9641  -6.9531  -6.9479  -6.9442  -6.9309
    -6.9302  -6.9296  -6.9272  -6.9070  -1.8417  -1.6824  -1.2398  -1.1487
    -0.2542  -0.1397   0.3545   0.9179   1.0218   1.1317   1.1789   1.1875
     1.2672   1.2706   1.3217   1.4109   1.5991   1.6161   1.7730   1.8634
     2.0404   2.0799   2.1181   2.1800   2.2665   2.4089   2.4770   2.4837
     3.5628   3.5638   3.6291   3.8067   4.1377   4.1588   4.1794   4.1880
     4.2362   4.3061   6.0939   6.3763   6.7449   6.8353   6.8447   6.9934
     7.6304   7.6666   7.7819   7.8840   8.1120

     occupation numbers
     1.0000   1.0000   1.0000   1.0000   1.0000   1.0000   1.0000   1.0000
     1.0000   1.0000   1.0000   1.0000   1.0000   1.0000   1.0000   1.0000
     1.0000   1.0000   1.0000   1.0000   1.0000   1.0000   1.0000   1.0000
     1.0000   1.0000   1.0000   1.0000   1.0000   1.0000   1.0000   1.0000
     1.0000   1.0000   1.0000   1.0000   1.0000   1.0000   1.0000   1.0000
     1.0000   1.0000   1.0000   1.0000   1.0000   1.0000   1.0000   1.0000
     1.0000   1.0000   1.0000   1.0000   1.0000   1.0000   1.0000   1.0000
     1.0000   1.0000   1.0000   1.0000   1.0000   1.0000   1.0000   1.0000
     1.0000   1.0000   1.0000   1.0000   1.0000   1.0136   0.7479   0.2385
    -0.0000  -0.0000  -0.0000  -0.0000  -0.0000  -0.0000  -0.0000  -0.0000
    -0.0000  -0.0000  -0.0000  -0.0000  -0.0000

     the Fermi energy is     4.1836 ev

!    total energy              =   -4208.24640640 Ry
     estimated scf accuracy    <       0.00000004 Ry
     smearing contrib. (-TS)   =      -0.00034897 Ry
     internal energy E=F+TS    =   -4208.24605743 Ry

     The total energy is F=E-TS. E is the sum of the following terms:
     one-electron contribution =    -888.78681919 Ry
     hartree contribution      =     510.60146828 Ry
     xc contribution           =    -646.95201404 Ry
     ewald contribution        =    -618.92444156 Ry
     one-center paw contrib.   =   -2564.18425093 Ry
      -> PAW hartree energy AE =      75.65272979 Ry
      -> PAW hartree energy PS =     -76.12721311 Ry
      -> PAW xc energy AE      =   -2887.01431401 Ry
      -> PAW xc energy PS      =     323.30454640 Ry
      -> total E_H with PAW    =     510.12698497 Ry
      -> total E_XC with PAW   =   -3210.66178165 Ry

     convergence has been achieved in  42 iterations

     negative rho (up, down):  2.008E-01 0.000E+00

     Forces acting on atoms (cartesian axes, Ry/au):

     atom    1 type  1   force =     0.00000000   -0.00578254    0.00051452
     atom    2 type  1   force =     0.00000000    0.00578254   -0.00051452
     atom    3 type  1   force =     0.00000000   -0.01218576    0.00719836
     atom    4 type  1   force =     0.00000000    0.01218576   -0.00719836
     atom    5 type  2   force =     0.00000000   -0.00326239    0.00170985
     atom    6 type  2   force =     0.00000000    0.00326239   -0.00170985
     atom    7 type  3   force =     0.00000000   -0.00735233    0.00036027
     atom    8 type  3   force =     0.00000000    0.00735233   -0.00036027
     atom    9 type  3   force =     0.01607738   -0.00637501   -0.00156115
     atom   10 type  3   force =    -0.01607738    0.00637501    0.00156115
     atom   11 type  3   force =     0.01607738    0.00637501    0.00156115
     atom   12 type  3   force =    -0.01607738   -0.00637501   -0.00156115
     atom   13 type  3   force =     0.00000000   -0.00768246    0.00311350
     atom   14 type  3   force =     0.00000000    0.00768246   -0.00311350
     The non-local contrib.  to forces
     atom    1 type  1   force =     0.00000000   -0.03381317    0.00806038
     atom    2 type  1   force =     0.00000000    0.03381317   -0.00806038
     atom    3 type  1   force =     0.00000000    0.06983465   -0.01887733
     atom    4 type  1   force =     0.00000000   -0.06983465    0.01887733
     atom    5 type  2   force =     0.00000000   -0.30060580    0.20388863
     atom    6 type  2   force =     0.00000000    0.30060580   -0.20388863
     atom    7 type  3   force =    -0.00000000    0.00081936    0.08281296
     atom    8 type  3   force =    -0.00000000   -0.00081936   -0.08281296
     atom    9 type  3   force =     0.08028107   -0.06070825    0.02026169
     atom   10 type  3   force =    -0.08028107    0.06070825   -0.02026169
     atom   11 type  3   force =     0.08028107    0.06070825   -0.02026169
     atom   12 type  3   force =    -0.08028107   -0.06070825    0.02026169
     atom   13 type  3   force =     0.00000000   -0.05136090   -0.06579581
     atom   14 type  3   force =     0.00000000    0.05136090    0.06579581
     The ionic contribution  to forces
     atom    1 type  1   force =     0.00000000    0.48366313    0.29240205
     atom    2 type  1   force =    -0.00000000   -0.48366313   -0.29240205
     atom    3 type  1   force =     0.00000000   -4.51424128    0.30264244
     atom    4 type  1   force =     0.00000000    4.51424128   -0.30264244
     atom    5 type  2   force =     0.00000000    2.19096074    0.84524400
     atom    6 type  2   force =     0.00000000   -2.19096074   -0.84524400
     atom    7 type  3   force =     0.00000000   -0.44274078   -7.96472222
     atom    8 type  3   force =     0.00000000    0.44274078    7.96472222
     atom    9 type  3   force =    -6.17296471    5.13006342   -2.33931906
     atom   10 type  3   force =     6.17296471   -5.13006342    2.33931906
     atom   11 type  3   force =    -6.17296471   -5.13006342    2.33931906
     atom   12 type  3   force =     6.17296471    5.13006342   -2.33931906
     atom   13 type  3   force =     0.00000000    5.28245734    6.35859853
     atom   14 type  3   force =    -0.00000000   -5.28245734   -6.35859853
     The local contribution  to forces
     atom    1 type  1   force =     0.00001169   -0.45531518   -0.29978014
     atom    2 type  1   force =    -0.00001226    0.45534239    0.30002263
     atom    3 type  1   force =     0.00002130    4.43711801   -0.27868831
     atom    4 type  1   force =    -0.00002139   -4.43712285    0.27845379
     atom    5 type  2   force =     0.00004837   -1.90381882   -1.04108987
     atom    6 type  2   force =    -0.00007429    1.90365218    1.04116691
     atom    7 type  3   force =    -0.00000627    0.43408103    7.89285432
     atom    8 type  3   force =     0.00000656   -0.43411346   -7.89268714
     atom    9 type  3   force =     6.12310647   -5.08480609    2.31974124
     atom   10 type  3   force =    -6.12317015    5.08486973   -2.31977124
     atom   11 type  3   force =     6.12316281    5.08488371   -2.31977731
     atom   12 type  3   force =    -6.12309998   -5.08482440    2.31974990
     atom   13 type  3   force =    -0.00000061   -5.24758806   -6.29988227
     atom   14 type  3   force =     0.00000388    5.24750991    6.29976964
     The core correction contribution to forces
     atom    1 type  1   force =     0.00000004   -0.00029059   -0.00004755
     atom    2 type  1   force =    -0.00000014    0.00029102    0.00004882
     atom    3 type  1   force =     0.00000041   -0.00488219    0.00200021
     atom    4 type  1   force =    -0.00000038    0.00488237   -0.00200178
     atom    5 type  2   force =     0.00000283    0.01007265   -0.00626561
     atom    6 type  2   force =    -0.00000427   -0.01007809    0.00626543
     atom    7 type  3   force =    -0.00000057    0.00046999   -0.01050952
     atom    8 type  3   force =    -0.00000006   -0.00047083    0.01050920
     atom    9 type  3   force =    -0.01437118    0.00911332   -0.00227033
     atom   10 type  3   force =     0.01437061   -0.00911331    0.00227005
     atom   11 type  3   force =    -0.01437485   -0.00911464    0.00226958
     atom   12 type  3   force =     0.01437669    0.00911501   -0.00227003
     atom   13 type  3   force =    -0.00000008    0.00876424    0.01014165
     atom   14 type  3   force =     0.00000017   -0.00876399   -0.01014138
     The Hubbard contrib.    to forces
     atom    1 type  1   force =     0.00000000    0.00000000    0.00000000
     atom    2 type  1   force =     0.00000000    0.00000000    0.00000000
     atom    3 type  1   force =     0.00000000    0.00000000    0.00000000
     atom    4 type  1   force =     0.00000000    0.00000000    0.00000000
     atom    5 type  2   force =     0.00000000    0.00000000    0.00000000
     atom    6 type  2   force =     0.00000000    0.00000000    0.00000000
     atom    7 type  3   force =     0.00000000    0.00000000    0.00000000
     atom    8 type  3   force =     0.00000000    0.00000000    0.00000000
     atom    9 type  3   force =     0.00000000    0.00000000    0.00000000
     atom   10 type  3   force =     0.00000000    0.00000000    0.00000000
     atom   11 type  3   force =     0.00000000    0.00000000    0.00000000
     atom   12 type  3   force =     0.00000000    0.00000000    0.00000000
     atom   13 type  3   force =     0.00000000    0.00000000    0.00000000
     atom   14 type  3   force =     0.00000000    0.00000000    0.00000000
     The SCF correction term to forces
     atom    1 type  1   force =    -0.00001101   -0.00002625   -0.00011870
     atom    2 type  1   force =     0.00001140   -0.00000043   -0.00012200
     atom    3 type  1   force =    -0.00001893   -0.00001469    0.00012049
     atom    4 type  1   force =     0.00002005    0.00001989    0.00011388
     atom    5 type  2   force =    -0.00002004    0.00009865   -0.00008141
     atom    6 type  2   force =     0.00003481    0.00001306   -0.00002368
     atom    7 type  3   force =     0.00000634    0.00001752   -0.00007431
     atom    8 type  3   force =    -0.00000553    0.00001467   -0.00009062
     atom    9 type  3   force =     0.00002699   -0.00003498    0.00002461
     atom   10 type  3   force =     0.00003502   -0.00002805    0.00000448
     atom   11 type  3   force =    -0.00002780   -0.00003689    0.00001209
     atom   12 type  3   force =    -0.00003384   -0.00002304    0.00001717
     atom   13 type  3   force =    -0.00000212    0.00004404    0.00005060
     atom   14 type  3   force =    -0.00000178    0.00003211    0.00006016

     Total force =     0.044127     Total SCF correction =     0.000331

     Computing stress (Cartesian axis) and pressure

     negative rho (up, down):  2.008E-01 0.000E+00
          total   stress  (Ry/bohr**3)                   (kbar)     P=      -38.63
  -0.00029174   0.00000000   0.00000000          -42.92        0.00        0.00
   0.00000000  -0.00033345   0.00003480            0.00      -49.05        5.12
   0.00000000   0.00003480  -0.00016260            0.00        5.12      -23.92

     kinetic stress (kbar)   4639.06      0.00      0.00
                                0.00   4653.65     15.72
                                0.00     15.72   4704.55

     local   stress (kbar)  -2485.00      0.09     -0.06
                                0.09  -4010.84    488.47
                               -0.06    488.47  -3432.87

     nonloc. stress (kbar)   2706.49      0.00      0.00
                                0.00   2724.72      4.81
                                0.00      4.81   2751.88

     hartree stress (kbar)   6115.27     -0.04      0.03
                               -0.04   6678.76   -261.33
                                0.03   -261.33   6331.21

     exc-cor stress (kbar)  15592.53     -0.00      0.00
                               -0.00  15594.84      0.64
                                0.00      0.64  15596.56

     corecor stress (kbar) -18362.70      0.00     -0.00
                                0.00 -18364.13     -1.30
                               -0.00     -1.30 -18367.25

     ewald   stress (kbar)  -8248.56     -0.00     -0.00
                               -0.00  -7326.05   -241.90
                               -0.00   -241.90  -7608.00

     hubbard stress (kbar)      0.00      0.00      0.00
                                0.00      0.00      0.00
                                0.00      0.00      0.00

     DFT-D   stress (kbar)      0.00      0.00      0.00
                                0.00      0.00      0.00
                                0.00      0.00      0.00

     XDM     stress (kbar)      0.00      0.00      0.00
                                0.00      0.00      0.00
                                0.00      0.00      0.00

     dft-nl  stress (kbar)      0.00      0.00      0.00
                                0.00      0.00      0.00
                                0.00      0.00      0.00

     TS-vdW  stress (kbar)      0.00      0.00      0.00
                                0.00      0.00      0.00
                                0.00      0.00      0.00

[...]

                                0.00      0.00      0.00

     Writing all to output data dir new_calculations/myprefix.save/

     General routines

     Parallel routines

     PAW routines

   This run was terminated on:   4: 7:51  21May2023

   JOB DONE.