     Program PWSCF v.7.0 starts on 20May2023 at 18:11:20

     Reading input from espresso_23031.pwi
Warning: card &CELL ignored
Warning: card / ignored

     Current dimensions of program PWSCF are:
     Max number of different atomic species (ntypx) = 10
     Max number of k-points (npk) =  40000
     Max angular momentum in pseudopotentials (lmaxx) =  4
     file O.pbe-n-kjpaw_psl.0.1.UPF: wavefunction(s)  2P renormalized

     gamma-point specific algorithms are used

     Subspace diagonalization in iterative solution of the eigenvalue problem:
     a serial algorithm will be used

     Using Slab Decomposition

     bravais-lattice index     =            0
     lattice parameter (alat)  =      14.7228  a.u.
     unit-cell volume          =    1509.0110 (a.u.)^3
     number of atoms/cell      =           16
     number of atomic types    =            4
     number of electrons       =        80.00
     number of Kohn-Sham states=           48
     kinetic-energy cutoff     =      30.0000  Ry
     charge density cutoff     =     240.0000  Ry
     scf convergence threshold =      1.0E-06
     mixing beta               =       0.7000
     number of iterations used =            8  plain     mixing
     Exchange-correlation= SLA  PW   PBX  PBC
                           (   1   4   3   4   0   0   0)

     celldm(1)=  14.722837  celldm(2)=   0.000000  celldm(3)=   0.000000
     celldm(4)=   0.000000  celldm(5)=   0.000000  celldm(6)=   0.000000

     crystal axes: (cart. coord. in units of alat)
               a(1) = (   1.000000   0.000000   0.000000 )
               a(2) = (   0.505717   0.688170   0.000000 )
               a(3) = (   0.494283  -0.038299   0.687103 )

     reciprocal axes: (cart. coord. in units 2 pi/alat)
               b(1) = (  1.000000 -0.734873 -0.760333 )
               b(2) = (  0.000000  1.453129  0.080998 )
               b(3) = (  0.000000  0.000000  1.455385 )

     PseudoPot. # 1 for Rb read from file:
     /home/pragov/projects/rrg-bengioy-ad/pragov/crystal_structure_design/SSSP/Rb_ONCV_PBE-1.0.oncvpsp.upf
     MD5 check sum: 55a5172d6bfbce6759a58e35d43f6aa9
     Pseudo is Norm-conserving, Zval =  9.0
     Generated using ONCVPSP code by D. R. Hamann
     Using radial grid of 2308 points,  6 beta functions with:
                l(1) =   0
                l(2) =   0
                l(3) =   1
                l(4) =   1
                l(5) =   2
                l(6) =   2

     PseudoPot. # 2 for P  read from file:
     /home/pragov/projects/rrg-bengioy-ad/pragov/crystal_structure_design/SSSP/P.pbe-n-rrkjus_psl.1.0.0.UPF
     MD5 check sum: 8b930f418f0a4573dca56cd030ffe088
     Pseudo is Ultrasoft + core correction, Zval =  5.0
     Generated using "atomic" code by A. Dal Corso  v.5.1
     Using radial grid of 1147 points,  6 beta functions with:
                l(1) =   0
                l(2) =   0
                l(3) =   1
                l(4) =   1
                l(5) =   2
                l(6) =   2
     Q(r) pseudized with 0 coefficients

     PseudoPot. # 3 for H  read from file:
     /home/pragov/projects/rrg-bengioy-ad/pragov/crystal_structure_design/SSSP/H.pbe-rrkjus_psl.1.0.0.UPF
     MD5 check sum: f52b6d4d1c606e5624b1dc7b2218f220
     Pseudo is Ultrasoft, Zval =  1.0
     Generated using "atomic" code by A. Dal Corso  v.5.1
     Using radial grid of  929 points,  2 beta functions with:
                l(1) =   0
                l(2) =   0
     Q(r) pseudized with 0 coefficients

     PseudoPot. # 4 for O  read from file:
     /home/pragov/projects/rrg-bengioy-ad/pragov/crystal_structure_design/SSSP/O.pbe-n-kjpaw_psl.0.1.UPF
     MD5 check sum: 0234752ac141de4415c5fc33072bef88
     Pseudo is Projector augmented-wave + core cor, Zval =  6.0
     Generated using "atomic" code by A. Dal Corso  v.5.0.99 svn rev. 10869
     Shape of augmentation charge: BESSEL
     Using radial grid of 1095 points,  4 beta functions with:
                l(1) =   0
                l(2) =   0
                l(3) =   1
                l(4) =   1
     Q(r) pseudized with 0 coefficients

     atomic species   valence    mass     pseudopotential
        Rb             9.00    85.46780     Rb( 1.00)
        P              5.00    30.97376     P ( 1.00)
        H              1.00     1.00800     H ( 1.00)
        O              6.00    15.99900     O ( 1.00)

     No symmetry found

                                    s                        frac. trans.

      isym =  1     identity

 cryst.   s( 1) = (     1          0          0      )
                  (     0          1          0      )
                  (     0          0          1      )

 cart.    s( 1) = (  1.0000000  0.0000000  0.0000000 )
                  (  0.0000000  1.0000000 -0.0000000 )
                  (  0.0000000  0.0000000  1.0000000 )

   Cartesian axes

     site n.     atom                  positions (alat units)
         1           Rb  tau(   1) = (   1.5000000   0.4978529   0.5263762  )
         2           Rb  tau(   2) = (   1.0000000   0.3353852   0.3546004  )
         3           P   tau(   3) = (   0.5000000   0.1617404   0.1710070  )
         4           P   tau(   4) = (   1.0000000   0.6491434   0.6863346  )
         5           H   tau(   5) = (   0.6350965   0.4087481   0.1100169  )
         6           H   tau(   6) = (   1.3649035   0.0870979   0.4142375  )
         7           H   tau(   7) = (   1.2828226   0.6773210   0.1814372  )
         8           H   tau(   8) = (   0.7171774   0.1434603   0.6863690  )
         9           O   tau(   9) = (   1.5821358   0.1457833   0.6822251  )
        10           O   tau(  10) = (   1.4178652   0.6730542   0.1835260  )
        11           O   tau(  11) = (   1.3619123   0.1842674   0.3203860  )
        12           O   tau(  12) = (   0.6380867   0.3096342   0.2018126  )
        13           O   tau(  13) = (   1.1385676   0.5108690   0.6724153  )
        14           O   tau(  14) = (   1.8614324   0.6429411   0.5474999  )
        15           O   tau(  15) = (   1.0950211   0.6762520   0.1905544  )
        16           O   tau(  16) = (   0.9049789   0.1526229   0.6858090  )

   Crystallographic axes

     site n.     atom                  positions (cryst. coord.)
         1           Rb  tau(   1) = (  0.7339200  0.7660800  0.7660800  )
         2           Rb  tau(   2) = (  0.4839200  0.5160800  0.5160800  )
         3           P   tau(   3) = (  0.2511190  0.2488810  0.2488810  )
         4           P   tau(   4) = (  0.0011190  0.9988810  0.9988810  )
         5           H   tau(   5) = (  0.2510690  0.6028750  0.1601170  )
         6           H   tau(   6) = (  0.9859390  0.1601170  0.6028750  )
         7           H   tau(   7) = (  0.6471250  0.9989310  0.2640610  )
         8           H   tau(   8) = (  0.0898830  0.2640610  0.9989310  )
         9           O   tau(   9) = (  0.9562850  0.2671010  0.9929000  )
        10           O   tau(  10) = (  0.7837150  0.9929000  0.2671010  )
        11           O   tau(  11) = (  0.9828990  0.2937150  0.4662850  )
        12           O   tau(  12) = (  0.2571000  0.4662850  0.2937150  )
        13           O   tau(  13) = (  0.2518840  0.7968230  0.9786230  )
        14           O   tau(  14) = (  0.9726700  0.9786230  0.7968230  )
        15           O   tau(  15) = (  0.4531770  0.9981160  0.2773300  )
        16           O   tau(  16) = (  0.2713770  0.2773300  0.9981160  )

     number of k points=     1  Methfessel-Paxton smearing, width (Ry)=  0.0010
                       cart. coord. in units 2pi/alat
        k(    1) = (   0.0000000   0.0000000   0.0000000), wk =   2.0000000

                       cryst. coord.
        k(    1) = (   0.0000000   0.0000000   0.0000000), wk =   2.0000000

     Check: negative core charge=   -0.000011

     Initial potential from superposition of free atoms

     starting charge      79.9501, renormalised to      80.0000
     Starting wfcs are   54 randomized atomic wfcs
     Checking if some PAW data can be deallocated...

     Self-consistent Calculation

     iteration #  1     ecut=    30.00 Ry     beta= 0.70
     Davidson diagonalization with overlap

     ethr =  1.00E-02,  avg # of iterations =  4.0

     total energy              =    -463.41595953 Ry
     estimated scf accuracy    <       2.33586835 Ry

[...]

     total energy              =    -464.40917384 Ry
     estimated scf accuracy    <       0.00000976 Ry

     iteration #  9     ecut=    30.00 Ry     beta= 0.70
     Davidson diagonalization with overlap

     ethr =  1.22E-08,  avg # of iterations =  3.0

     End of self-consistent calculation

          k = 0.0000 0.0000 0.0000 (  2097 PWs)   bands (ev):

   -22.2238 -22.1955 -18.6689 -18.1572 -16.8473 -16.7506 -16.2660 -15.6684
   -15.4534 -15.3819  -7.1195  -6.4548  -6.4498  -6.4107  -6.3028  -6.2902
    -6.2556  -5.9756  -5.0382  -4.7186  -4.1655  -2.7581  -2.3540  -2.2624
    -1.7699  -1.3575  -1.1995  -0.8098  -0.5907   0.0333   0.1713   0.1942
     0.2716   0.3665   0.9110   1.3198   1.3722   1.3990   1.5369   1.7355
     6.8912   9.2770  10.5751  10.6149  10.7143  10.7324  10.9783  11.0818

     occupation numbers
     1.0000   1.0000   1.0000   1.0000   1.0000   1.0000   1.0000   1.0000
     1.0000   1.0000   1.0000   1.0000   1.0000   1.0000   1.0000   1.0000
     1.0000   1.0000   1.0000   1.0000   1.0000   1.0000   1.0000   1.0000
     1.0000   1.0000   1.0000   1.0000   1.0000   1.0000   1.0000   1.0000
     1.0000   1.0000   1.0000   1.0000   1.0000   1.0000   1.0000   1.0000
    -0.0000  -0.0000  -0.0000  -0.0000  -0.0000  -0.0000  -0.0000  -0.0000

     the Fermi energy is     2.8234 ev

!    total energy              =    -464.40917661 Ry
     estimated scf accuracy    <       0.00000013 Ry
     smearing contrib. (-TS)   =       0.00000000 Ry
     internal energy E=F+TS    =    -464.40917661 Ry

     The total energy is F=E-TS. E is the sum of the following terms:
     one-electron contribution =    -208.30316665 Ry
     hartree contribution      =     140.45509122 Ry
     xc contribution           =     -87.11534992 Ry
     ewald contribution        =    -233.32520953 Ry
     one-center paw contrib.   =     -76.12054173 Ry
      -> PAW hartree energy AE =     252.38492601 Ry
      -> PAW hartree energy PS =    -251.49231972 Ry
      -> PAW xc energy AE      =    -139.68801325 Ry
      -> PAW xc energy PS      =      62.67486523 Ry
      -> total E_H with PAW    =     141.34769751 Ry
      -> total E_XC with PAW   =    -164.12849794 Ry

     convergence has been achieved in   9 iterations

     Forces acting on atoms (cartesian axes, Ry/au):

     atom    1 type  1   force =    -0.00003089    0.00067806    0.00067932
     atom    2 type  1   force =    -0.00002974    0.00067706    0.00069756
     atom    3 type  2   force =    -0.00006847    0.00146684    0.00155804
     atom    4 type  2   force =     0.00006786    0.00132995    0.00138722
     atom    5 type  3   force =    -0.00241155    0.00577695   -0.00443461
     atom    6 type  3   force =     0.00234257   -0.00487186    0.00548639
     atom    7 type  3   force =    -0.00724305    0.00221654   -0.00127882
     atom    8 type  3   force =     0.00719054   -0.00143257    0.00203731
     atom    9 type  4   force =    -0.00395188    0.00925237   -0.00320290
     atom   10 type  4   force =     0.00355382   -0.00576031    0.00624793
     atom   11 type  4   force =    -0.00878478    0.00651229    0.00090363
     atom   12 type  4   force =     0.00829602   -0.00187624    0.00324641
     atom   13 type  4   force =     0.00967328   -0.00638051   -0.00054822
     atom   14 type  4   force =    -0.00923603   -0.00040931   -0.00572327
     atom   15 type  4   force =     0.00399363   -0.01071643    0.00292387
     atom   16 type  4   force =    -0.00336133    0.00353717   -0.00997987
     The non-local contrib.  to forces
     atom    1 type  1   force =    -0.00006454   -0.01076691   -0.01132639
     atom    2 type  1   force =     0.00006914   -0.01072821   -0.01138088
     atom    3 type  2   force =    -0.00000737    0.09825321    0.10392856
     atom    4 type  2   force =     0.00011973    0.09800011    0.10372430
     atom    5 type  3   force =    -0.00038578   -0.05103723    0.04580344
     atom    6 type  3   force =     0.00038543    0.04856243   -0.04841008
     atom    7 type  3   force =     0.06853851   -0.00151671   -0.00102669
     atom    8 type  3   force =    -0.06854221   -0.00094616   -0.00157649
     atom    9 type  4   force =     0.57155714   -1.52646143    0.10453405
     atom   10 type  4   force =    -0.57137100    0.18952112   -1.51806833
     atom   11 type  4   force =     1.17377314   -1.09389499   -0.30436551
     atom   12 type  4   force =    -1.17372643   -0.24315283   -1.10878045
     atom   13 type  4   force =    -1.31808220    1.02356124    0.33509931
     atom   14 type  4   force =     1.31738976    0.27540056    1.04154068
     atom   15 type  4   force =    -0.49952776    1.61150974   -0.22066154
     atom   16 type  4   force =     0.49890639   -0.31224526    1.59754583
     The ionic contribution  to forces
     atom    1 type  1   force =    -0.00000034   -0.32636542   -0.34505169
     atom    2 type  1   force =    -0.00001604   -0.32634285   -0.34505234
     atom    3 type  2   force =    -0.00000838   -0.08490526   -0.08972597
     atom    4 type  2   force =    -0.00001268   -0.08485815   -0.08976402
     atom    5 type  3   force =     0.49517939    1.29033248   -1.04446744
     atom    6 type  3   force =    -0.49515683   -1.11466036    1.23020589
     atom    7 type  3   force =    -1.66068417   -0.25814520    0.42008828
     atom    8 type  3   force =     1.66072945    0.43380357   -0.23436640
     atom    9 type  4   force =    -0.03589960    8.05577954   -0.56020765
     atom   10 type  4   force =     0.03581980   -1.00765215    8.01215348
     atom   11 type  4   force =    -6.23680103    3.60191943    3.65232310
     atom   12 type  4   force =     6.23682018    3.44623222    3.79962445
     atom   13 type  4   force =     6.82480946   -4.90503225   -2.18391428
     atom   14 type  4   force =    -6.82480169   -1.90753253   -5.01895991
     atom   15 type  4   force =     1.98475548   -8.38144108    1.10412389
     atom   16 type  4   force =    -1.98473300    1.56886802   -8.30700938
     The local contribution  to forces
     atom    1 type  1   force =    -0.00001585    0.33729086    0.35659271
     atom    2 type  1   force =     0.00000301    0.33728704    0.35659301
     atom    3 type  2   force =    -0.00000735   -0.00541672   -0.00562607
     atom    4 type  2   force =     0.00012725   -0.00531266   -0.00557032
     atom    5 type  3   force =    -0.49717003   -1.23408888    0.99357566
     atom    6 type  3   force =     0.49713070    1.06062391   -1.17693404
     atom    7 type  3   force =     1.58486927    0.26125783   -0.42094458
     atom    8 type  3   force =    -1.58497046   -0.43490006    0.23736277
     atom    9 type  4   force =    -0.53394213   -6.53457637    0.45284627
     atom   10 type  4   force =     0.53346069    0.81359087   -6.50218867
     atom   11 type  4   force =     5.06492088   -2.51239840   -3.35010740
     atom   12 type  4   force =    -5.06545901   -3.20731992   -2.69856040
     atom   13 type  4   force =    -5.50834025    3.88297423    1.85069186
     atom   14 type  4   force =     5.50958531    1.63364711    3.97980401
     atom   15 type  4   force =    -1.48521962    6.77236767   -0.88308567
     atom   16 type  4   force =     1.48644402   -1.25647856    6.71262956
     The core correction contribution to forces
     atom    1 type  1   force =     0.00000000    0.00000000    0.00000000
     atom    2 type  1   force =     0.00000000    0.00000000    0.00000000
     atom    3 type  2   force =     0.00000429   -0.00718084   -0.00759560
     atom    4 type  2   force =    -0.00000277   -0.00718165   -0.00759982
     atom    5 type  3   force =     0.00000000    0.00000000    0.00000000
     atom    6 type  3   force =     0.00000000    0.00000000    0.00000000
     atom    7 type  3   force =     0.00000000    0.00000000    0.00000000
     atom    8 type  3   force =     0.00000000    0.00000000    0.00000000
     atom    9 type  4   force =    -0.00558694    0.01398405   -0.00099975
     atom   10 type  4   force =     0.00558344   -0.00185603    0.01381324
     atom   11 type  4   force =    -0.01075177    0.01028153    0.00250648
     atom   12 type  4   force =     0.01074790    0.00185079    0.01030010
     atom   13 type  4   force =     0.01152853   -0.00869423   -0.00312131
     atom   14 type  4   force =    -0.01149747   -0.00258648   -0.00886727
     atom   15 type  4   force =     0.00407340   -0.01405206    0.00194082
     atom   16 type  4   force =    -0.00402696    0.00276186   -0.01394507
     The Hubbard contrib.    to forces
     atom    1 type  1   force =     0.00000000    0.00000000    0.00000000
     atom    2 type  1   force =     0.00000000    0.00000000    0.00000000
     atom    3 type  2   force =     0.00000000    0.00000000    0.00000000
     atom    4 type  2   force =     0.00000000    0.00000000    0.00000000
     atom    5 type  3   force =     0.00000000    0.00000000    0.00000000
     atom    6 type  3   force =     0.00000000    0.00000000    0.00000000
     atom    7 type  3   force =     0.00000000    0.00000000    0.00000000
     atom    8 type  3   force =     0.00000000    0.00000000    0.00000000
     atom    9 type  4   force =     0.00000000    0.00000000    0.00000000
     atom   10 type  4   force =     0.00000000    0.00000000    0.00000000
     atom   11 type  4   force =     0.00000000    0.00000000    0.00000000
     atom   12 type  4   force =     0.00000000    0.00000000    0.00000000
     atom   13 type  4   force =     0.00000000    0.00000000    0.00000000
     atom   14 type  4   force =     0.00000000    0.00000000    0.00000000
     atom   15 type  4   force =     0.00000000    0.00000000    0.00000000
     atom   16 type  4   force =     0.00000000    0.00000000    0.00000000
     The SCF correction term to forces
     atom    1 type  1   force =     0.00007127   -0.00008934   -0.00014672
     atom    2 type  1   force =    -0.00006442   -0.00014779   -0.00007366
     atom    3 type  2   force =    -0.00002824    0.00010757   -0.00003430
     atom    4 type  2   force =    -0.00014224    0.00007343   -0.00001434
     atom    5 type  3   force =    -0.00001370   -0.00003828    0.00004231
     atom    6 type  3   force =     0.00000470   -0.00000671    0.00001320
     atom    7 type  3   force =     0.00005478    0.00001175   -0.00000726
     atom    8 type  3   force =    -0.00000480    0.00000121    0.00000601
     atom    9 type  4   force =    -0.00005892   -0.00008229    0.00001275
     atom   10 type  4   force =     0.00008232    0.00002702   -0.00007322
     atom   11 type  4   force =     0.00009544   -0.00000415   -0.00006447
     atom   12 type  4   force =    -0.00006520   -0.00009537    0.00005128
     atom   13 type  4   force =    -0.00022085    0.00020162    0.00008478
     atom   14 type  4   force =     0.00010949    0.00005316    0.00014779
     atom   15 type  4   force =    -0.00006644    0.00029044   -0.00000505
     atom   16 type  4   force =     0.00006964    0.00002224    0.00018777

     Total force =     0.034065     Total SCF correction =     0.000654

     Computing stress (Cartesian axis) and pressure

          total   stress  (Ry/bohr**3)                   (kbar)     P=     -245.78
  -0.00168685  -0.00000915   0.00001008         -248.14       -1.35        1.48
  -0.00000915  -0.00166447   0.00002238           -1.35     -244.85        3.29
   0.00001008   0.00002238  -0.00166095            1.48        3.29     -244.33

     kinetic stress (kbar)  11752.66     29.00    -27.17
                               29.00  11927.75    185.79
                              -27.17    185.79  11948.31

     local   stress (kbar)  -9110.32    162.50   -153.35
                              162.50  -7836.27   1352.42
                             -153.35   1352.42  -7685.45

     nonloc. stress (kbar)   1731.24     -9.64      8.69
                               -9.64   1731.78      0.45
                                8.69      0.45   1732.12

     hartree stress (kbar)   4905.89     -2.08      1.98
                               -2.08   4421.70   -512.01
                                1.98   -512.01   4364.59

     exc-cor stress (kbar)  -2092.66     -0.96      0.91
                               -0.96  -2097.71     -5.37
                                0.91     -5.37  -2098.31

     corecor stress (kbar)   -529.06      1.13     -1.07
                                1.13   -529.01      0.09
                               -1.07      0.09   -529.00

     ewald   stress (kbar)  -6905.89   -181.30    171.48
                             -181.30  -7863.09  -1018.07
                              171.48  -1018.07  -7976.59

     hubbard stress (kbar)      0.00      0.00      0.00
                                0.00      0.00      0.00
                                0.00      0.00      0.00

     DFT-D   stress (kbar)      0.00      0.00      0.00
                                0.00      0.00      0.00
                                0.00      0.00      0.00

     XDM     stress (kbar)      0.00      0.00      0.00
                                0.00      0.00      0.00
                                0.00      0.00      0.00

     dft-nl  stress (kbar)      0.00      0.00      0.00
                                0.00      0.00      0.00
                                0.00      0.00      0.00

     TS-vdW  stress (kbar)      0.00      0.00      0.00
                                0.00      0.00      0.00
                                0.00      0.00      0.00

[...]

                                0.00      0.00      0.00

     Writing all to output data dir new_calculations/myprefix.save/

     General routines

     Parallel routines

     PAW routines

   This run was terminated on:  18:11:44  20May2023

   JOB DONE.