     Program PWSCF v.7.0 starts on 21May2023 at  1:36:13

     Reading input from espresso_5818.pwi
Warning: card &CELL ignored
Warning: card / ignored

     Current dimensions of program PWSCF are:
     Max number of different atomic species (ntypx) = 10
     Max number of k-points (npk) =  40000
     Max angular momentum in pseudopotentials (lmaxx) =  4

     gamma-point specific algorithms are used
     Message from routine setup:
     using ibrav=0 with symmetry is DISCOURAGED, use correct ibrav instead

     Subspace diagonalization in iterative solution of the eigenvalue problem:
     a serial algorithm will be used

     Using Slab Decomposition

     bravais-lattice index     =            0
     lattice parameter (alat)  =      12.6135  a.u.
     unit-cell volume          =    1419.0291 (a.u.)^3
     number of atoms/cell      =           10
     number of atomic types    =            4
     number of electrons       =        78.00
     number of Kohn-Sham states=           47
     kinetic-energy cutoff     =      30.0000  Ry
     charge density cutoff     =     240.0000  Ry
     scf convergence threshold =      1.0E-06
     mixing beta               =       0.7000
     number of iterations used =            8  plain     mixing
     Exchange-correlation=  SLA  PW   PBX  PBC
                           (   1   4   3   4   0   0   0)

     celldm(1)=  12.613495  celldm(2)=   0.000000  celldm(3)=   0.000000
     celldm(4)=   0.000000  celldm(5)=   0.000000  celldm(6)=   0.000000

     crystal axes: (cart. coord. in units of alat)
               a(1) = (   1.000000   0.000000   0.000000 )
               a(2) = (   0.500000   0.866025   0.000000 )
               a(3) = (   0.500000   0.288675   0.816497 )

     reciprocal axes: (cart. coord. in units 2 pi/alat)
               b(1) = (  1.000000 -0.577350 -0.408248 )
               b(2) = (  0.000000  1.154701 -0.408248 )
               b(3) = (  0.000000  0.000000  1.224745 )

     PseudoPot. # 1 for Rb read from file:
     /home/pragov/projects/rrg-bengioy-ad/pragov/crystal_structure_design/SSSP/Rb_ONCV_PBE-1.0.oncvpsp.upf
     MD5 check sum: 55a5172d6bfbce6759a58e35d43f6aa9
     Pseudo is Norm-conserving, Zval =  9.0
     Generated using ONCVPSP code by D. R. Hamann
     Using radial grid of 2308 points,  6 beta functions with:
                l(1) =   0
                l(2) =   0
                l(3) =   1
                l(4) =   1
                l(5) =   2
                l(6) =   2

     PseudoPot. # 2 for Tl read from file:
     /home/pragov/projects/rrg-bengioy-ad/pragov/crystal_structure_design/SSSP/Tl_pbe_v1.2.uspp.F.UPF
     MD5 check sum: b76cf1f7e72655a2b2c53cf6385d7059
     Pseudo is Ultrasoft + core correction, Zval = 13.0
     Generated by new atomic code, or converted to UPF format
     Using radial grid of  899 points,  6 beta functions with:
                l(1) =   0
                l(2) =   0
                l(3) =   1
                l(4) =   1
                l(5) =   2
                l(6) =   2
     Q(r) pseudized with  6 coefficients,  rinner =    1.100   1.100   1.100
                                                       1.100   1.100

     PseudoPot. # 3 for As read from file:
     /home/pragov/projects/rrg-bengioy-ad/pragov/crystal_structure_design/SSSP/As.pbe-n-rrkjus_psl.0.2.UPF
     MD5 check sum: 767315de957beeeb34f87d97bf945c8f
     Pseudo is Ultrasoft + core correction, Zval =  5.0
     Generated using "atomic" code by A. Dal Corso  v.5.0.99 svn rev. 10869
     Using radial grid of 1209 points,  4 beta functions with:
                l(1) =   0
                l(2) =   0
                l(3) =   1
                l(4) =   1
     Q(r) pseudized with 0 coefficients

     PseudoPot. # 4 for F  read from file:
     /home/pragov/projects/rrg-bengioy-ad/pragov/crystal_structure_design/SSSP/f_pbe_v1.4.uspp.F.UPF
     MD5 check sum: 4c38b6a325caf53ec0e86aed9459de46
     Pseudo is Ultrasoft, Zval =  7.0
     Generated by new atomic code, or converted to UPF format
     Using radial grid of  799 points,  4 beta functions with:
                l(1) =   0
                l(2) =   0
                l(3) =   1
                l(4) =   1
     Q(r) pseudized with  8 coefficients,  rinner =    0.950   0.950   0.950

     atomic species   valence    mass     pseudopotential
        Rb             9.00    85.46780     Rb( 1.00)
        Tl            13.00   204.38000     Tl( 1.00)
        As             5.00    74.92159     As( 1.00)
        F              7.00    18.99840     F ( 1.00)

     12 Sym. Ops., with inversion, found

                                    s                        frac. trans.

      isym =  1     identity

 cryst.   s( 1) = (     1          0          0      )
                  (     0          1          0      )
                  (     0          0          1      )

 cart.    s( 1) = (  1.0000000  0.0000000  0.0000000 )
                  (  0.0000000  1.0000000 -0.0000000 )
                  (  0.0000000  0.0000000  1.0000000 )

      isym =  2     180 deg rotation - cart. axis [1,0,0]

[...]

      isym =  3     120 deg rotation - cryst. axis [0,0,1]

[...]

      isym =  6     180 deg rotation - cryst. axis [1,1,0]

[...]

      isym =  7     inversion

[...]

      isym =  8     inv. 180 deg rotation - cart. axis [1,0,0]

[...]

      isym =  9     inv. 120 deg rotation - cryst. axis [0,0,1]

 cryst.   s( 9) = (     1         -1          0      )
                  (     1          0          0      )
                  (     1          0         -1      )

 cart.    s( 9) = (  0.5000000  0.8660254 -0.0000000 )
                  ( -0.8660254  0.5000000 -0.0000000 )
                  (  0.0000000  0.0000000 -1.0000000 )

[...]

 cryst.   s(10) = (     0          1          0      )
                  (    -1          1          0      )
                  (     0          1         -1      )

 cart.    s(10) = (  0.5000000 -0.8660254  0.0000000 )
                  (  0.8660254  0.5000000 -0.0000000 )
                  (  0.0000000  0.0000000 -1.0000000 )

[...]

      isym = 12     inv. 180 deg rotation - cryst. axis [1,1,0]

 cryst.   s(12) = (     1         -1          0      )
                  (     0         -1          0      )
                  (     0         -1          1      )

 cart.    s(12) = (  0.5000000 -0.8660254  0.0000000 )
                  ( -0.8660254 -0.5000000  0.0000000 )
                  (  0.0000000  0.0000000  1.0000000 )

   Cartesian axes

     site n.     atom                  positions (alat units)
         1           Rb  tau(   1) = (   1.5000000   0.8660254   0.6123724  )
         2           Rb  tau(   2) = (   0.5000000   0.2886751   0.2041241  )
         3           Tl  tau(   3) = (   1.0000000   0.5773503   0.4082483  )
         4           As  tau(   4) = (   0.0000000   0.0000000   0.0000000  )
         5           F   tau(   5) = (   1.0000000   0.2532074   0.1790446  )
         6           F   tau(   6) = (   0.7192840   0.4152788   0.6374519  )
         7           F   tau(   7) = (   1.0000000   0.9014932   0.6374519  )
         8           F   tau(   8) = (   0.7192840   0.7394217   0.1790446  )
         9           F   tau(   9) = (   1.2807160   0.4152788   0.6374519  )
        10           F   tau(  10) = (   1.2807160   0.7394217   0.1790446  )

   Crystallographic axes

     site n.     atom                  positions (cryst. coord.)
         1           Rb  tau(   1) = (  0.7500000  0.7500000  0.7500000  )
         2           Rb  tau(   2) = (  0.2500000  0.2500000  0.2500000  )
         3           Tl  tau(   3) = (  0.5000000  0.5000000  0.5000000  )
         4           As  tau(   4) = (  0.0000000  0.0000000  0.0000000  )
         5           F   tau(   5) = (  0.7807160  0.2192840  0.2192840  )
         6           F   tau(   6) = (  0.2192840  0.2192840  0.7807160  )
         7           F   tau(   7) = (  0.2192840  0.7807160  0.7807160  )
         8           F   tau(   8) = (  0.2192840  0.7807160  0.2192840  )
         9           F   tau(   9) = (  0.7807160  0.2192840  0.7807160  )
        10           F   tau(  10) = (  0.7807160  0.7807160  0.2192840  )

     number of k points=     1  Methfessel-Paxton smearing, width (Ry)=  0.0010
                       cart. coord. in units 2pi/alat
        k(    1) = (   0.0000000   0.0000000   0.0000000), wk =   2.0000000

                       cryst. coord.
        k(    1) = (   0.0000000   0.0000000   0.0000000), wk =   2.0000000

     Check: negative core charge=   -0.000004

     Initial potential from superposition of free atoms

     starting charge      77.9454, renormalised to      78.0000

     negative rho (up, down):  5.046E-02 0.000E+00
     Starting wfcs are   47 randomized atomic wfcs

     Self-consistent Calculation

     iteration #  1     ecut=    30.00 Ry     beta= 0.70
     Davidson diagonalization with overlap

     ethr =  1.00E-02,  avg # of iterations =  2.0

     negative rho (up, down):  4.991E-02 0.000E+00

     total energy              =    -552.45441778 Ry
     estimated scf accuracy    <       1.49000168 Ry

[...]

     total energy              =    -553.17245476 Ry
     estimated scf accuracy    <       0.00000103 Ry

     iteration #  9     ecut=    30.00 Ry     beta= 0.70
     Davidson diagonalization with overlap

     ethr =  1.32E-09,  avg # of iterations =  2.0

[...]

     End of self-consistent calculation

          k = 0.0000 0.0000 0.0000 (  1920 PWs)   bands (ev):

   -22.4086 -22.3953 -18.5930 -18.1647 -18.1644 -18.1642 -18.0028 -18.0025
    -6.5792  -6.5791  -6.5791  -6.5568  -6.4639  -6.4638  -6.4638  -6.1633
    -6.1633  -6.1312  -6.1312  -6.1311  -1.6848  -1.6846  -1.6845  -0.5067
     0.0944   0.0945   0.0947   0.3443   0.3446   0.7737   0.7739   0.7740
     0.7883   0.7883   0.7884   1.1551   1.1552   1.1554   4.5474   7.0951
     7.0951   7.0952   8.3560   9.8511  10.3190  10.3192  10.3194

     occupation numbers
     1.0000   1.0000   1.0000   1.0000   1.0000   1.0000   1.0000   1.0000
     1.0000   1.0000   1.0000   1.0000   1.0000   1.0000   1.0000   1.0000
     1.0000   1.0000   1.0000   1.0000   1.0000   1.0000   1.0000   1.0000
     1.0000   1.0000   1.0000   1.0000   1.0000   1.0000   1.0000   1.0000
     1.0000   1.0000   1.0000   1.0000   1.0000   1.0000   1.0000  -0.0000
    -0.0000  -0.0000  -0.0000  -0.0000  -0.0000  -0.0000  -0.0000

     the Fermi energy is     6.3304 ev

!    total energy              =    -553.17245476 Ry
     estimated scf accuracy    <       0.00000017 Ry
     smearing contrib. (-TS)   =       0.00000000 Ry
     internal energy E=F+TS    =    -553.17245476 Ry

     The total energy is F=E-TS. E is the sum of the following terms:
     one-electron contribution =    -244.61212928 Ry
     hartree contribution      =     165.35952834 Ry
     xc contribution           =    -142.57586839 Ry
     ewald contribution        =    -331.34398543 Ry

     convergence has been achieved in   9 iterations

     negative rho (up, down):  4.947E-02 0.000E+00

     Forces acting on atoms (cartesian axes, Ry/au):

     atom    1 type  1   force =     0.00000000    0.00000000    0.00000419
     atom    2 type  1   force =    -0.00000000   -0.00000000   -0.00000419
     atom    3 type  2   force =     0.00000000    0.00000000   -0.00000000
     atom    4 type  3   force =    -0.00000000   -0.00000000    0.00000000
     atom    5 type  4   force =     0.00000000   -0.00510972   -0.00361367
     atom    6 type  4   force =    -0.00442515   -0.00255486    0.00361367
     atom    7 type  4   force =     0.00000000    0.00510972    0.00361367
     atom    8 type  4   force =    -0.00442515    0.00255486   -0.00361367
     atom    9 type  4   force =     0.00442515   -0.00255486    0.00361367
     atom   10 type  4   force =     0.00442515    0.00255486   -0.00361367
     The non-local contrib.  to forces
     atom    1 type  1   force =     0.00000000   -0.00000000   -0.00000032
     atom    2 type  1   force =    -0.00000000    0.00000000    0.00000032
     atom    3 type  2   force =     0.00000000    0.00000000    0.00000000
     atom    4 type  3   force =    -0.00000000   -0.00000000   -0.00000000
     atom    5 type  4   force =     0.00000000   -0.39039024   -0.27604656
     atom    6 type  4   force =    -0.33808786   -0.19519512    0.27604656
     atom    7 type  4   force =     0.00000000    0.39039024    0.27604656
     atom    8 type  4   force =    -0.33808786    0.19519512   -0.27604656
     atom    9 type  4   force =     0.33808786   -0.19519512    0.27604656
     atom   10 type  4   force =     0.33808786    0.19519512   -0.27604656
     The ionic contribution  to forces
     atom    1 type  1   force =     0.00000000   -0.00000000   -0.00000000
     atom    2 type  1   force =     0.00000000    0.00000000    0.00000000
     atom    3 type  2   force =     0.00000000    0.00000000    0.00000000
     atom    4 type  3   force =    -0.00000000    0.00000000   -0.00000000
     atom    5 type  4   force =    -0.00000000    1.88180126    1.33063443
     atom    6 type  4   force =     1.62968770    0.94090063   -1.33063443
     atom    7 type  4   force =    -0.00000000   -1.88180126   -1.33063443
     atom    8 type  4   force =     1.62968770   -0.94090063    1.33063443
     atom    9 type  4   force =    -1.62968770    0.94090063   -1.33063443
     atom   10 type  4   force =    -1.62968770   -0.94090063    1.33063443
     The local contribution  to forces
     atom    1 type  1   force =     0.00000264    0.00001669   -0.00000224
     atom    2 type  1   force =    -0.00001506    0.00000649    0.00001136
     atom    3 type  2   force =    -0.00002358    0.00000712    0.00006519
     atom    4 type  3   force =     0.00004024   -0.00002855    0.00002867
     atom    5 type  4   force =     0.00001447   -1.49657281   -1.05823356
     atom    6 type  4   force =    -1.29606141   -0.74827693    1.05821721
     atom    7 type  4   force =     0.00000878    1.49655625    1.05822734
     atom    8 type  4   force =    -1.29607290    0.74829053   -1.05824330
     atom    9 type  4   force =     1.29604948   -0.74827211    1.05821851
     atom   10 type  4   force =     1.29606725    0.74827814   -1.05821223
     The core correction contribution to forces
     atom    1 type  1   force =     0.00000000    0.00000000    0.00000000
     atom    2 type  1   force =     0.00000000    0.00000000    0.00000000
     atom    3 type  2   force =    -0.00000071   -0.00000298    0.00000495
     atom    4 type  3   force =     0.00000348   -0.00000235    0.00000281
     atom    5 type  4   force =     0.00000000    0.00000000    0.00000000
     atom    6 type  4   force =     0.00000000    0.00000000    0.00000000
     atom    7 type  4   force =     0.00000000    0.00000000    0.00000000
     atom    8 type  4   force =     0.00000000    0.00000000    0.00000000
     atom    9 type  4   force =     0.00000000    0.00000000    0.00000000
     atom   10 type  4   force =     0.00000000    0.00000000    0.00000000
     The Hubbard contrib.    to forces
     atom    1 type  1   force =     0.00000000    0.00000000    0.00000000
     atom    2 type  1   force =     0.00000000    0.00000000    0.00000000
     atom    3 type  2   force =     0.00000000    0.00000000    0.00000000
     atom    4 type  3   force =     0.00000000    0.00000000    0.00000000
     atom    5 type  4   force =     0.00000000    0.00000000    0.00000000
     atom    6 type  4   force =     0.00000000    0.00000000    0.00000000
     atom    7 type  4   force =     0.00000000    0.00000000    0.00000000
     atom    8 type  4   force =     0.00000000    0.00000000    0.00000000
     atom    9 type  4   force =     0.00000000    0.00000000    0.00000000
     atom   10 type  4   force =     0.00000000    0.00000000    0.00000000
     The SCF correction term to forces
     atom    1 type  1   force =     0.00000030   -0.00000922    0.00001133
     atom    2 type  1   force =     0.00001584   -0.00000873   -0.00001129
     atom    3 type  2   force =     0.00004720   -0.00000351   -0.00005899
     atom    4 type  3   force =    -0.00002650    0.00002083   -0.00001732
     atom    5 type  4   force =    -0.00002103    0.00006023    0.00003816
     atom    6 type  4   force =     0.00004030    0.00001185   -0.00001338
     atom    7 type  4   force =    -0.00001587   -0.00003595   -0.00002779
     atom    8 type  4   force =     0.00003695   -0.00002488    0.00003650
     atom    9 type  4   force =    -0.00003588    0.00001372   -0.00002646
     atom   10 type  4   force =    -0.00003904   -0.00000675    0.00000056

     Total force =     0.015330     Total SCF correction =     0.000157

     Computing stress (Cartesian axis) and pressure

     negative rho (up, down):  4.947E-02 0.000E+00
          total   stress  (Ry/bohr**3)                   (kbar)     P=      -38.77
  -0.00026357  -0.00000000  -0.00000000          -38.77       -0.00       -0.00
  -0.00000000  -0.00026357   0.00000000           -0.00      -38.77        0.00
  -0.00000000   0.00000000  -0.00026359           -0.00        0.00      -38.77

     kinetic stress (kbar)  10600.97     -0.00     -0.00
                               -0.00  10600.97     -0.00
                               -0.00     -0.00  10600.97

     local   stress (kbar)  -3732.70     -0.01      0.01
                               -0.01  -3732.68      0.02
                                0.01      0.02  -3732.69

     nonloc. stress (kbar)   2203.01      0.00      0.00
                                0.00   2203.01     -0.00
                                0.00     -0.00   2203.01

     hartree stress (kbar)   5714.06      0.01     -0.01
                                0.01   5714.04     -0.01
                               -0.01     -0.01   5714.05

     exc-cor stress (kbar)   2268.02     -0.00      0.00
                               -0.00   2268.02      0.00
                                0.00      0.00   2268.02

     corecor stress (kbar)  -5642.44      0.00     -0.00
                                0.00  -5642.44     -0.00
                               -0.00     -0.00  -5642.44

     ewald   stress (kbar) -11449.70     -0.00      0.00
                               -0.00 -11449.70     -0.00
                                0.00     -0.00 -11449.70

     hubbard stress (kbar)      0.00      0.00      0.00
                                0.00      0.00      0.00
                                0.00      0.00      0.00

     DFT-D   stress (kbar)      0.00      0.00      0.00
                                0.00      0.00      0.00
                                0.00      0.00      0.00

     XDM     stress (kbar)      0.00      0.00      0.00
                                0.00      0.00      0.00
                                0.00      0.00      0.00

     dft-nl  stress (kbar)      0.00      0.00      0.00
                                0.00      0.00      0.00
                                0.00      0.00      0.00

     TS-vdW  stress (kbar)      0.00      0.00      0.00
                                0.00      0.00      0.00
                                0.00      0.00      0.00

[...]

                                0.00      0.00      0.00

     Writing all to output data dir new_calculations/myprefix.save/

     General routines

     Parallel routines

   This run was terminated on:   1:36:56  21May2023

   JOB DONE.