     Program PWSCF v.7.0 starts on 20May2023 at 23:41:14

     Reading input from espresso_10808.pwi
Warning: card &CELL ignored
Warning: card / ignored

     Current dimensions of program PWSCF are:
     Max number of different atomic species (ntypx) = 10
     Max number of k-points (npk) =  40000
     Max angular momentum in pseudopotentials (lmaxx) =  4
     file O.pbe-n-kjpaw_psl.0.1.UPF: wavefunction(s)  2P renormalized

     gamma-point specific algorithms are used
     Message from routine setup:
     using ibrav=0 with symmetry is DISCOURAGED, use correct ibrav instead

     Subspace diagonalization in iterative solution of the eigenvalue problem:
     a serial algorithm will be used

     Using Slab Decomposition

     bravais-lattice index     =            0
     lattice parameter (alat)  =      10.2407  a.u.
     unit-cell volume          =     759.3968 (a.u.)^3
     number of atoms/cell      =            8
     number of atomic types    =            3
     number of electrons       =        56.00
     number of Kohn-Sham states=           34
     kinetic-energy cutoff     =      30.0000  Ry
     charge density cutoff     =     240.0000  Ry
     scf convergence threshold =      1.0E-06
     mixing beta               =       0.7000
     number of iterations used =            8  plain     mixing
     Exchange-correlation= SLA  PW   PBX  PBC
                           (   1   4   3   4   0   0   0)

     celldm(1)=  10.240659  celldm(2)=   0.000000  celldm(3)=   0.000000
     celldm(4)=   0.000000  celldm(5)=   0.000000  celldm(6)=   0.000000

     crystal axes: (cart. coord. in units of alat)
               a(1) = (   1.000000   0.000000   0.000000 )
               a(2) = (   0.500000   0.866025   0.000000 )
               a(3) = (   0.500000   0.288675   0.816497 )

     reciprocal axes: (cart. coord. in units 2 pi/alat)
               b(1) = (  1.000000 -0.577350 -0.408248 )
               b(2) = (  0.000000  1.154701 -0.408248 )
               b(3) = (  0.000000  0.000000  1.224745 )

     PseudoPot. # 1 for Te read from file:
     /home/pragov/projects/rrg-bengioy-ad/pragov/crystal_structure_design/SSSP/Te_pbe_v1.uspp.F.UPF
     MD5 check sum: c319670d6894cc26e93307826a071b75
     Pseudo is Ultrasoft + core correction, Zval =  6.0
     Generated by new atomic code, or converted to UPF format
     Using radial grid of  891 points,  5 beta functions with:
                l(1) =   0
                l(2) =   0
                l(3) =   1
                l(4) =   1
                l(5) =   2
     Q(r) pseudized with  6 coefficients,  rinner =    1.800   1.800   1.800
                                                       1.800   1.800

     PseudoPot. # 2 for W  read from file:
     /home/pragov/projects/rrg-bengioy-ad/pragov/crystal_structure_design/SSSP/W_pbe_v1.2.uspp.F.UPF
     MD5 check sum: 9c083fa34c2a2ea0f02f1f893e16e1c8
     Pseudo is Ultrasoft + core correction, Zval = 14.0
     Generated by new atomic code, or converted to UPF format
     Using radial grid of  923 points,  8 beta functions with:
                l(1) =   0
                l(2) =   0
                l(3) =   0
                l(4) =   1
                l(5) =   1
                l(6) =   2
                l(7) =   2
                l(8) =   3
     Q(r) pseudized with  6 coefficients,  rinner =    1.350   1.350   1.350
                                                       1.350   1.350   1.350
                                                       1.350

     PseudoPot. # 3 for O  read from file:
     /home/pragov/projects/rrg-bengioy-ad/pragov/crystal_structure_design/SSSP/O.pbe-n-kjpaw_psl.0.1.UPF
     MD5 check sum: 0234752ac141de4415c5fc33072bef88
     Pseudo is Projector augmented-wave + core cor, Zval =  6.0
     Generated using "atomic" code by A. Dal Corso  v.5.0.99 svn rev. 10869
     Shape of augmentation charge: BESSEL
     Using radial grid of 1095 points,  4 beta functions with:
                l(1) =   0
                l(2) =   0
                l(3) =   1
                l(4) =   1
     Q(r) pseudized with 0 coefficients

     atomic species   valence    mass     pseudopotential
        Te             6.00   127.60000     Te( 1.00)
        W             14.00   183.84000     W ( 1.00)
        O              6.00    15.99900     O ( 1.00)

     12 Sym. Ops., with inversion, found

                                    s                        frac. trans.

      isym =  1     identity

 cryst.   s( 1) = (     1          0          0      )
                  (     0          1          0      )
                  (     0          0          1      )

 cart.    s( 1) = (  1.0000000  0.0000000  0.0000000 )
                  (  0.0000000  1.0000000  0.0000000 )
                  (  0.0000000  0.0000000  1.0000000 )

      isym =  2     180 deg rotation - cart. axis [1,0,0]

[...]

      isym =  3     120 deg rotation - cryst. axis [0,0,1]

[...]

      isym =  6     180 deg rotation - cryst. axis [1,1,0]

[...]

      isym =  7     inversion

[...]

      isym =  8     inv. 180 deg rotation - cart. axis [1,0,0]

[...]

      isym =  9     inv. 120 deg rotation - cryst. axis [0,0,1]

 cryst.   s( 9) = (     1         -1          0      )
                  (     1          0          0      )
                  (     1          0         -1      )

 cart.    s( 9) = (  0.5000000  0.8660254  0.0000000 )
                  ( -0.8660254  0.5000000 -0.0000000 )
                  (  0.0000000  0.0000000 -1.0000000 )

[...]

 cryst.   s(10) = (     0          1          0      )
                  (    -1          1          0      )
                  (     0          1         -1      )

 cart.    s(10) = (  0.5000000 -0.8660254  0.0000000 )
                  (  0.8660254  0.5000000  0.0000000 )
                  (  0.0000000  0.0000000 -1.0000000 )

[...]

      isym = 12     inv. 180 deg rotation - cryst. axis [1,1,0]

 cryst.   s(12) = (     1         -1          0      )
                  (     0         -1          0      )
                  (     0         -1          1      )

 cart.    s(12) = (  0.5000000 -0.8660254  0.0000000 )
                  ( -0.8660254 -0.5000000 -0.0000000 )
                  (  0.0000000  0.0000000  1.0000000 )

   Cartesian axes

     site n.     atom                  positions (alat units)
         1           Te  tau(   1) = (   1.0000000   0.5773503   0.4082483  )
         2           W   tau(   2) = (   0.0000000   0.0000000   0.0000000  )
         3           O   tau(   3) = (   1.2490540   0.7211417   0.2048966  )
         4           O   tau(   4) = (   0.7509460   0.4335589   0.6116000  )
         5           O   tau(   5) = (   1.2490540   0.4335589   0.6116000  )
         6           O   tau(   6) = (   1.0000000   0.2897675   0.2048966  )
         7           O   tau(   7) = (   1.0000000   0.8649331   0.6116000  )
         8           O   tau(   8) = (   0.7509460   0.7211417   0.2048966  )

   Crystallographic axes

     site n.     atom                  positions (cryst. coord.)
         1           Te  tau(   1) = (  0.5000000  0.5000000  0.5000000  )
         2           W   tau(   2) = (  0.0000000  0.0000000  0.0000000  )
         3           O   tau(   3) = (  0.7490540  0.7490540  0.2509460  )
         4           O   tau(   4) = (  0.2509460  0.2509460  0.7490540  )
         5           O   tau(   5) = (  0.7490540  0.2509460  0.7490540  )
         6           O   tau(   6) = (  0.7490540  0.2509460  0.2509460  )
         7           O   tau(   7) = (  0.2509460  0.7490540  0.7490540  )
         8           O   tau(   8) = (  0.2509460  0.7490540  0.2509460  )

     number of k points=     1  Methfessel-Paxton smearing, width (Ry)=  0.0010
                       cart. coord. in units 2pi/alat
        k(    1) = (   0.0000000   0.0000000   0.0000000), wk =   2.0000000

                       cryst. coord.
        k(    1) = (   0.0000000   0.0000000   0.0000000), wk =   2.0000000

     Check: negative core charge=   -0.000008

     Initial potential from superposition of free atoms

     starting charge      55.8994, renormalised to      56.0000

     negative rho (up, down):  6.374E-02 0.000E+00
     Starting wfcs are   41 randomized atomic wfcs
     Checking if some PAW data can be deallocated...

     Self-consistent Calculation

     iteration #  1     ecut=    30.00 Ry     beta= 0.70
     Davidson diagonalization with overlap

     ethr =  1.00E-02,  avg # of iterations =  3.0

     negative rho (up, down):  5.975E-02 0.000E+00

     total energy              =    -433.16064538 Ry
     estimated scf accuracy    <       3.22771597 Ry

[...]

     total energy              =    -434.68638767 Ry
     estimated scf accuracy    <       0.00000496 Ry

     iteration # 11     ecut=    30.00 Ry     beta= 0.70
     Davidson diagonalization with overlap

     ethr =  8.85E-09,  avg # of iterations =  2.0

[...]

     End of self-consistent calculation

          k = 0.0000 0.0000 0.0000 (  1043 PWs)   bands (ev):

   -70.4902 -34.5926 -34.5926 -34.5925 -14.8319 -12.0246 -12.0242 -12.0240
   -11.7853 -11.7850  -5.9964  -0.4957  -0.4955  -0.4954  -0.1812  -0.1810
     0.7904   0.7904   0.7905   4.4593   4.4593   4.4594   4.5725   4.5725
     4.5727   5.6576   5.6577   5.6579   7.6604   7.6604   7.6605   7.7480
    12.3904  13.6724

     occupation numbers
     1.0000   1.0000   1.0000   1.0000   1.0000   1.0000   1.0000   1.0000
     1.0000   1.0000   1.0000   1.0000   1.0000   1.0000   1.0000   1.0000
     1.0000   1.0000   1.0000   1.0000   1.0000   1.0000   1.0000   1.0000
     1.0000   1.0000   1.0000   1.0000  -0.0000  -0.0000  -0.0000  -0.0000
    -0.0000  -0.0000

     the Fermi energy is     5.8927 ev

!    total energy              =    -434.68638795 Ry
     estimated scf accuracy    <       0.00000032 Ry
     smearing contrib. (-TS)   =       0.00000000 Ry
     internal energy E=F+TS    =    -434.68638795 Ry

     The total energy is F=E-TS. E is the sum of the following terms:
     one-electron contribution =    -177.38476458 Ry
     hartree contribution      =     115.80273222 Ry
     xc contribution           =    -100.59027719 Ry
     ewald contribution        =    -215.46772137 Ry
     one-center paw contrib.   =     -57.04635703 Ry
      -> PAW hartree energy AE =     188.08454280 Ry
      -> PAW hartree energy PS =    -187.36785735 Ry
      -> PAW xc energy AE      =    -104.59761402 Ry
      -> PAW xc energy PS      =      46.83457154 Ry
      -> total E_H with PAW    =     116.51941766 Ry
      -> total E_XC with PAW   =    -158.35331967 Ry

     convergence has been achieved in  11 iterations

     negative rho (up, down):  6.112E-02 0.000E+00

     Forces acting on atoms (cartesian axes, Ry/au):

     atom    1 type  1   force =     0.00000000    0.00000000   -0.00000000
     atom    2 type  2   force =     0.00000000    0.00000000    0.00000000
     atom    3 type  3   force =     0.08326726    0.04807438   -0.06798796
     atom    4 type  3   force =    -0.08326726   -0.04807438    0.06798796
     atom    5 type  3   force =     0.08326726   -0.04807438    0.06798796
     atom    6 type  3   force =     0.00000000   -0.09614875   -0.06798796
     atom    7 type  3   force =     0.00000000    0.09614875    0.06798796
     atom    8 type  3   force =    -0.08326726    0.04807438   -0.06798796
     The non-local contrib.  to forces
     atom    1 type  1   force =     0.00000000    0.00000000   -0.00000000
     atom    2 type  2   force =     0.00000000    0.00000000    0.00000000
     atom    3 type  3   force =    -0.43623114   -0.25185816    0.35617906
     atom    4 type  3   force =     0.43623114    0.25185816   -0.35617906
     atom    5 type  3   force =    -0.43623114    0.25185816   -0.35617906
     atom    6 type  3   force =     0.00000000    0.50371633    0.35617906
     atom    7 type  3   force =     0.00000000   -0.50371633   -0.35617906
     atom    8 type  3   force =     0.43623114   -0.25185816    0.35617906
     The ionic contribution  to forces
     atom    1 type  1   force =    -0.00000000   -0.00000000    0.00000000
     atom    2 type  2   force =     0.00000000    0.00000000    0.00000000
     atom    3 type  3   force =    -3.81584531   -2.20307931    3.11562465
     atom    4 type  3   force =     3.81584531    2.20307932   -3.11562465
     atom    5 type  3   force =    -3.81584531    2.20307932   -3.11562465
     atom    6 type  3   force =    -0.00000000    4.40615863    3.11562465
     atom    7 type  3   force =    -0.00000000   -4.40615863   -3.11562465
     atom    8 type  3   force =     3.81584531   -2.20307931    3.11562465
     The local contribution  to forces
     atom    1 type  1   force =    -0.00002575    0.00005505   -0.00008146
     atom    2 type  2   force =    -0.00001197   -0.00002541    0.00004291
     atom    3 type  3   force =     4.33019099    2.50007459   -3.53558715
     atom    4 type  3   force =    -4.33027150   -2.50005544    3.53561407
     atom    5 type  3   force =     4.33020257   -2.50005576    3.53561347
     atom    6 type  3   force =    -0.00000103   -5.00021989   -3.53568622
     atom    7 type  3   force =     0.00002595    5.00021901    3.53570104
     atom    8 type  3   force =    -4.33012644    2.49998760   -3.53552929
     The core correction contribution to forces
     atom    1 type  1   force =     0.00000142   -0.00000278    0.00000325
     atom    2 type  2   force =    -0.00000097    0.00000017   -0.00000185
     atom    3 type  3   force =     0.00546606    0.00315626   -0.00446301
     atom    4 type  3   force =    -0.00546709   -0.00315609    0.00446341
     atom    5 type  3   force =     0.00546762   -0.00315675    0.00446458
     atom    6 type  3   force =    -0.00000019   -0.00631499   -0.00446532
     atom    7 type  3   force =     0.00000026    0.00631481    0.00446540
     atom    8 type  3   force =    -0.00546740    0.00315647   -0.00446396
     The Hubbard contrib.    to forces
     atom    1 type  1   force =     0.00000000    0.00000000    0.00000000
     atom    2 type  2   force =     0.00000000    0.00000000    0.00000000
     atom    3 type  3   force =     0.00000000    0.00000000    0.00000000
     atom    4 type  3   force =     0.00000000    0.00000000    0.00000000
     atom    5 type  3   force =     0.00000000    0.00000000    0.00000000
     atom    6 type  3   force =     0.00000000    0.00000000    0.00000000
     atom    7 type  3   force =     0.00000000    0.00000000    0.00000000
     atom    8 type  3   force =     0.00000000    0.00000000    0.00000000
     The SCF correction term to forces
     atom    1 type  1   force =     0.00000278   -0.00003132    0.00005309
     atom    2 type  2   force =     0.00000024    0.00003910   -0.00005771
     atom    3 type  3   force =    -0.00036161   -0.00021311    0.00030051
     atom    4 type  3   force =     0.00040201    0.00022961   -0.00031718
     atom    5 type  3   force =    -0.00032668    0.00019120   -0.00026281
     atom    6 type  3   force =    -0.00000316    0.00043522    0.00031334
     atom    7 type  3   force =    -0.00000846   -0.00046187   -0.00031944
     atom    8 type  3   force =     0.00030599   -0.00017292    0.00025360

     Total force =     0.288447     Total SCF correction =     0.001262

     Computing stress (Cartesian axis) and pressure

     negative rho (up, down):  6.112E-02 0.000E+00
          total   stress  (Ry/bohr**3)                   (kbar)     P=     -279.84
  -0.00190228   0.00000000  -0.00000000         -279.84        0.00       -0.00
  -0.00000000  -0.00190228   0.00000000           -0.00     -279.84        0.00
   0.00000000   0.00000000  -0.00190228            0.00        0.00     -279.84

     kinetic stress (kbar)  20055.63      0.00      0.00
                                0.00  20055.63      0.00
                                0.00      0.00  20055.63

     local   stress (kbar)  -7517.55      0.06     -0.09
                                0.06  -7517.37      0.13
                               -0.09      0.13  -7517.47

     nonloc. stress (kbar)  -1695.55      0.00      0.00
                                0.00  -1695.55     -0.00
                                0.00     -0.00  -1695.54

     hartree stress (kbar)   7477.57     -0.05      0.07
                               -0.05   7477.43     -0.09
                                0.07     -0.09   7477.50

     exc-cor stress (kbar)   2966.05      0.00     -0.00
                                0.00   2966.05      0.00
                               -0.00      0.00   2966.05

     corecor stress (kbar)  -7653.03     -0.00      0.00
                               -0.00  -7653.03     -0.00
                                0.00     -0.00  -7653.03

     ewald   stress (kbar) -13912.97      0.00      0.00
                                0.00 -13912.97      0.00
                                0.00      0.00 -13912.97

     hubbard stress (kbar)      0.00      0.00      0.00
                                0.00      0.00      0.00
                                0.00      0.00      0.00

     DFT-D   stress (kbar)      0.00      0.00      0.00
                                0.00      0.00      0.00
                                0.00      0.00      0.00

     XDM     stress (kbar)      0.00      0.00      0.00
                                0.00      0.00      0.00
                                0.00      0.00      0.00

     dft-nl  stress (kbar)      0.00      0.00      0.00
                                0.00      0.00      0.00
                                0.00      0.00      0.00

     TS-vdW  stress (kbar)      0.00      0.00      0.00
                                0.00      0.00      0.00
                                0.00      0.00      0.00

[...]

                                0.00      0.00      0.00

     Writing all to output data dir new_calculations/myprefix.save/

     General routines

     Parallel routines

     PAW routines

   This run was terminated on:  23:41:43  20May2023

   JOB DONE.