     Program PWSCF v.7.0 starts on 21May2023 at 11:11:10

     Reading input from espresso_25513.pwi
Warning: card &CELL ignored
Warning: card / ignored

     Current dimensions of program PWSCF are:
     Max number of different atomic species (ntypx) = 10
     Max number of k-points (npk) =  40000
     Max angular momentum in pseudopotentials (lmaxx) =  4
     file Mg.pbe-n-kjpaw_psl.0.3.0.UPF: wavefunction(s)  3S renormalized
     file O.pbe-n-kjpaw_psl.0.1.UPF: wavefunction(s)  2P renormalized

     gamma-point specific algorithms are used

     Subspace diagonalization in iterative solution of the eigenvalue problem:
     a serial algorithm will be used

     Using Slab Decomposition

     bravais-lattice index     =            0
     lattice parameter (alat)  =      11.4266  a.u.
     unit-cell volume          =    1017.7353 (a.u.)^3
     number of atoms/cell      =           13
     number of atomic types    =            3
     number of electrons       =       110.00
     number of Kohn-Sham states=           66
     kinetic-energy cutoff     =      30.0000  Ry
     charge density cutoff     =     240.0000  Ry
     scf convergence threshold =      1.0E-06
     mixing beta               =       0.7000
     number of iterations used =            8  plain     mixing
     Exchange-correlation= SLA  PW   PBX  PBC
                           (   1   4   3   4   0   0   0)

     celldm(1)=  11.426589  celldm(2)=   0.000000  celldm(3)=   0.000000
     celldm(4)=   0.000000  celldm(5)=   0.000000  celldm(6)=   0.000000

     crystal axes: (cart. coord. in units of alat)
               a(1) = (   1.000000   0.000000   0.000000 )
               a(2) = (   0.065308   0.997865   0.000000 )
               a(3) = (  -0.530177  -0.501577   0.683618 )

     reciprocal axes: (cart. coord. in units 2 pi/alat)
               b(1) = (  1.000000 -0.065448  0.727527 )
               b(2) = (  0.000000  1.002139  0.735279 )
               b(3) = (  0.000000  0.000000  1.462806 )

     PseudoPot. # 1 for Mg read from file:
     /home/pragov/projects/rrg-bengioy-ad/pragov/crystal_structure_design/SSSP/Mg.pbe-n-kjpaw_psl.0.3.0.UPF
     MD5 check sum: 24ecedc7f3e3cbe212e682f4413594e4
     Pseudo is Projector augmented-wave + core cor, Zval =  2.0
     Generated using "atomic" code by A. Dal Corso  v.5.0.99 svn rev. 10869
     Shape of augmentation charge: PSQ
     Using radial grid of 1129 points,  4 beta functions with:
                l(1) =   0
                l(2) =   0
                l(3) =   1
                l(4) =   1
     Q(r) pseudized with 0 coefficients

     PseudoPot. # 2 for Mn read from file:
     /home/pragov/projects/rrg-bengioy-ad/pragov/crystal_structure_design/SSSP/mn_pbe_v1.5.uspp.F.UPF
     MD5 check sum: 82ef2b46521d7a7d9e736dc3972e4928
     Pseudo is Ultrasoft + core correction, Zval = 15.0
     Generated by new atomic code, or converted to UPF format
     Using radial grid of  859 points,  6 beta functions with:
                l(1) =   0
                l(2) =   0
                l(3) =   1
                l(4) =   1
                l(5) =   2
                l(6) =   2
     Q(r) pseudized with  8 coefficients,  rinner =    0.950   0.950   0.950
                                                       0.950   0.950

     PseudoPot. # 3 for O  read from file:
     /home/pragov/projects/rrg-bengioy-ad/pragov/crystal_structure_design/SSSP/O.pbe-n-kjpaw_psl.0.1.UPF
     MD5 check sum: 0234752ac141de4415c5fc33072bef88
     Pseudo is Projector augmented-wave + core cor, Zval =  6.0
     Generated using "atomic" code by A. Dal Corso  v.5.0.99 svn rev. 10869
     Shape of augmentation charge: BESSEL
     Using radial grid of 1095 points,  4 beta functions with:
                l(1) =   0
                l(2) =   0
                l(3) =   1
                l(4) =   1
     Q(r) pseudized with 0 coefficients

     atomic species   valence    mass     pseudopotential
        Mg             2.00    24.30500     Mg( 1.00)
        Mn            15.00    54.93804     Mn( 1.00)
        O              6.00    15.99900     O ( 1.00)

     No symmetry found

                                    s                        frac. trans.

      isym =  1     identity

 cryst.   s( 1) = (     1          0          0      )
                  (     0          1          0      )
                  (     0          0          1      )

 cart.    s( 1) = (  1.0000000  0.0000000 -0.0000000 )
                  (  0.0000000  1.0000000 -0.0000000 )
                  (  0.0000000  0.0000000  1.0000000 )

   Cartesian axes

     site n.     atom                  positions (alat units)
         1           Mg  tau(   1) = (   0.3561285  -0.1372452   0.3418088  )
         2           Mn  tau(   2) = (  -0.0817184   0.6170295   0.5088821  )
         3           Mn  tau(   3) = (   0.1455060   0.3744476   0.1747354  )
         4           Mn  tau(   4) = (   0.6520766   0.3709005   0.1741570  )
         5           Mn  tau(   5) = (  -0.1174829   0.1248851   0.5094605  )
         6           O   tau(   6) = (  -0.0655656   0.6054634   0.1958783  )
         7           O   tau(   7) = (   0.1350196   0.3913223   0.4877392  )
         8           O   tau(   8) = (  -0.3031860   0.3890501   0.4938173  )
         9           O   tau(   9) = (  -0.0964502   0.1683427   0.1898002  )
        10           O   tau(  10) = (  -0.3697916  -0.1405654   0.5305973  )
        11           O   tau(  11) = (   0.3707140   0.1364664   0.1530203  )
        12           O   tau(  12) = (   0.4029825   0.5874670   0.1540764  )
        13           O   tau(  13) = (   0.0823535  -0.1378207   0.5295411  )

   Crystallographic axes

     site n.     atom                  positions (cryst. coord.)
         1           Mg  tau(   1) = (  0.6137860  0.1137860  0.5000000  )
         2           Mn  tau(   2) = (  0.2481240  0.9925200  0.7443960  )
         3           Mn  tau(   3) = (  0.2481240  0.5037280  0.2556040  )
         4           Mn  tau(   4) = (  0.7545060  0.4997480  0.2547580  )
         5           Mn  tau(   5) = (  0.2449900  0.4997480  0.7452420  )
         6           O   tau(   6) = (  0.0373150  0.7507840  0.2865320  )
         7           O   tau(   7) = (  0.4642520  0.7507840  0.7134680  )
         8           O   tau(   8) = (  0.0306170  0.7529760  0.7223590  )
         9           O   tau(   9) = (  0.0306170  0.3082590  0.2776410  )
        10           O   tau(  10) = (  0.0254320  0.2492710  0.7761610  )
        11           O   tau(  11) = (  0.4731090  0.2492710  0.2238390  )
        12           O   tau(  12) = (  0.4766290  0.7020130  0.2253840  )
        13           O   tau(  13) = (  0.4766290  0.2512450  0.7746160  )

     number of k points=     1  Methfessel-Paxton smearing, width (Ry)=  0.0010
                       cart. coord. in units 2pi/alat
        k(    1) = (   0.0000000   0.0000000   0.0000000), wk =   2.0000000

                       cryst. coord.
        k(    1) = (   0.0000000   0.0000000   0.0000000), wk =   2.0000000

     Check: negative core charge=   -0.000028

     Initial potential from superposition of free atoms

     starting charge     107.9987, renormalised to     110.0000
     Starting wfcs are   88 randomized atomic wfcs
     Checking if some PAW data can be deallocated...

     Self-consistent Calculation

     iteration #  1     ecut=    30.00 Ry     beta= 0.70
     Davidson diagonalization with overlap

     ethr =  1.00E-02,  avg # of iterations =  3.0

     total energy              =   -1205.32258649 Ry
     estimated scf accuracy    <       9.00651701 Ry

[...]

     negative rho (up, down):  5.102E-08 0.000E+00

[...]

     total energy              =   -1211.18902537 Ry
     estimated scf accuracy    <       0.00058868 Ry

     iteration # 65     ecut=    30.00 Ry     beta= 0.70
     Davidson diagonalization with overlap

     ethr =  4.87E-08,  avg # of iterations =  1.0

[...]

     End of self-consistent calculation

          k = 0.0000 0.0000 0.0000 (  1404 PWs)   bands (ev):

   -73.1249 -72.3875 -72.1034 -72.0297 -40.9554 -40.9167 -40.8361 -40.7582
   -40.7242 -40.7027 -40.6613 -40.6517 -40.6207 -40.4152 -40.1236 -39.7236
   -11.8630 -11.0263 -11.0066 -10.7975 -10.4755 -10.2370 -10.1581 -10.1359
     0.9916   1.5026   1.5898   1.7180   2.5938   2.8218   2.8343   2.8961
     3.0284   3.2214   3.8276   4.0619   4.1069   4.3176   4.5762   4.6559
     4.8599   4.8714   5.0430   5.2252   5.2658   5.8607   5.9376   5.9985
     6.6841   6.7144   7.3337   7.5481   7.6063   7.7540   7.7612   7.7664
     7.7982   7.9818   8.1060   8.2695   9.3862   9.4818  10.2216  10.5188
    10.5196  10.5812

     occupation numbers
     1.0000   1.0000   1.0000   1.0000   1.0000   1.0000   1.0000   1.0000
     1.0000   1.0000   1.0000   1.0000   1.0000   1.0000   1.0000   1.0000
     1.0000   1.0000   1.0000   1.0000   1.0000   1.0000   1.0000   1.0000
     1.0000   1.0000   1.0000   1.0000   1.0000   1.0000   1.0000   1.0000
     1.0000   1.0000   1.0000   1.0000   1.0000   1.0000   1.0000   1.0000
     1.0000   1.0000   1.0000   1.0000   1.0000   1.0000   1.0000   1.0000
     1.0000   1.0000   1.0000   1.0000   1.0000   0.9717   0.6753   0.3541
    -0.0011  -0.0000  -0.0000  -0.0000  -0.0000  -0.0000  -0.0000  -0.0000
    -0.0000  -0.0000

     the Fermi energy is     7.7641 ev

!    total energy              =   -1211.18903216 Ry
     estimated scf accuracy    <       0.00000052 Ry
     smearing contrib. (-TS)   =      -0.00048254 Ry
     internal energy E=F+TS    =   -1211.18854962 Ry

     The total energy is F=E-TS. E is the sum of the following terms:
     one-electron contribution =    -799.58327789 Ry
     hartree contribution      =     446.22904357 Ry
     xc contribution           =    -166.03925794 Ry
     ewald contribution        =    -584.31438273 Ry
     one-center paw contrib.   =    -107.48067463 Ry
      -> PAW hartree energy AE =     228.55649066 Ry
      -> PAW hartree energy PS =    -227.77221243 Ry
      -> PAW xc energy AE      =    -168.46459896 Ry
      -> PAW xc energy PS      =      60.19964610 Ry
      -> total E_H with PAW    =     447.01332181 Ry
      -> total E_XC with PAW   =    -274.30421080 Ry

     convergence has been achieved in  65 iterations

     negative rho (up, down):  2.221E-04 0.000E+00

     Forces acting on atoms (cartesian axes, Ry/au):

     atom    1 type  1   force =    -0.00248818    0.01853176   -0.01323760
     atom    2 type  2   force =     0.04286178   -0.04442900   -0.08432582
     atom    3 type  2   force =    -0.04172270    0.04194621    0.08683498
     atom    4 type  2   force =     0.03644483    0.00462826    0.00210752
     atom    5 type  2   force =     0.01024414    0.03337699    0.00034801
     atom    6 type  3   force =     0.02708965   -0.11933030   -0.02414370
     atom    7 type  3   force =    -0.10977846    0.04844703    0.02196944
     atom    8 type  3   force =     0.07808306   -0.08893210   -0.22944465
     atom    9 type  3   force =    -0.09562001    0.09703780    0.22172355
     atom   10 type  3   force =     0.09000863   -0.04010946   -0.02097291
     atom   11 type  3   force =    -0.01702867    0.09273221    0.03162178
     atom   12 type  3   force =     0.06586949   -0.10277013   -0.19978546
     atom   13 type  3   force =    -0.08396354    0.05887071    0.20730485
     The non-local contrib.  to forces
     atom    1 type  1   force =    -0.00051480    0.02340372   -0.02208343
     atom    2 type  2   force =     0.03947382   -0.06881640   -0.09471958
     atom    3 type  2   force =    -0.06949753    0.04087457    0.09497572
     atom    4 type  2   force =     0.03284164   -0.01758647    0.01907071
     atom    5 type  2   force =    -0.01719947    0.03646981   -0.02276419
     atom    6 type  3   force =     0.07399559   -0.96909614    0.65120413
     atom    7 type  3   force =    -0.96968321    0.12701000   -0.64786022
     atom    8 type  3   force =     0.85941771   -0.15425015   -0.80446554
     atom    9 type  3   force =    -0.09733875    0.86865484    0.81913837
     atom   10 type  3   force =     0.36640518   -0.02021021    0.18754959
     atom   11 type  3   force =    -0.01162088    0.35819237   -0.18675831
     atom   12 type  3   force =     0.13497750   -0.27827238   -0.39619931
     atom   13 type  3   force =    -0.26830534    0.15187512    0.38700799
     The ionic contribution  to forces
     atom    1 type  1   force =     0.26867473    0.25166398   -0.00000106
     atom    2 type  2   force =    -0.14181611    3.55793493    2.70800685
     atom    3 type  2   force =     3.54107660   -0.37379487   -2.70798159
     atom    4 type  2   force =    -2.59613494   -0.24422317   -1.58809053
     atom    5 type  2   force =    -0.41319199   -2.57456613    1.58806553
     atom    6 type  3   force =    -2.51455493   15.40522805  -12.89377508
     atom    7 type  3   force =    15.20812771   -3.51530243   12.89377085
     atom    8 type  3   force =   -15.51172721    0.34343161   10.91257303
     atom    9 type  3   force =    -0.67035272  -15.50107339  -10.91254418
     atom   10 type  3   force =   -12.64619504    2.81235930  -10.64128777
     atom   11 type  3   force =     1.98049156  -12.80289054   10.64127085
     atom   12 type  3   force =     0.47336114   13.01913063    9.22692725
     atom   13 type  3   force =    13.02224121   -0.37789797   -9.22693416
     The local contribution  to forces
     atom    1 type  1   force =    -0.27097432   -0.25352228    0.00649263
     atom    2 type  2   force =     0.14512819   -3.53481145   -2.70191081
     atom    3 type  2   force =    -3.51808264    0.37819322    2.70102576
     atom    4 type  2   force =     2.60007008    0.26738570    1.57213078
     atom    5 type  2   force =     0.43788350    2.57558607   -1.56933310
     atom    6 type  3   force =     2.46633651  -14.56253729   12.22324254
     atom    7 type  3   force =   -14.35904757    3.43972130  -12.23176782
     atom    8 type  3   force =    14.73740730   -0.27644934  -10.34610262
     atom    9 type  3   force =     0.67048739   14.74020610   10.32009778
     atom   10 type  3   force =    12.37296997   -2.82890763   10.43277360
     atom   11 type  3   force =    -1.98563957   12.54384603  -10.42652963
     atom   12 type  3   force =    -0.54219541  -12.84337887   -9.03453747
     atom   13 type  3   force =   -12.84081236    0.28843643    9.04844535
     The core correction contribution to forces
     atom    1 type  1   force =    -0.00045867   -0.00034060    0.00072443
     atom    2 type  2   force =    -0.00085267    0.00391042    0.00270695
     atom    3 type  2   force =     0.00396870   -0.00069423   -0.00287474
     atom    4 type  2   force =    -0.00115489    0.00170302   -0.00255832
     atom    5 type  2   force =     0.00186682   -0.00132979    0.00269214
     atom    6 type  3   force =     0.00016287    0.00966758   -0.00647770
     atom    7 type  3   force =     0.01012293   -0.00017097    0.00636090
     atom    8 type  3   force =    -0.00805464    0.00125235    0.00651934
     atom    9 type  3   force =     0.00039767   -0.00782279   -0.00695720
     atom   10 type  3   force =    -0.00409572   -0.00079191   -0.00182574
     atom   11 type  3   force =    -0.00073025   -0.00363109    0.00201589
     atom   12 type  3   force =    -0.00072254    0.00220701    0.00270076
     atom   13 type  3   force =     0.00231485   -0.00106844   -0.00247611
     The Hubbard contrib.    to forces
     atom    1 type  1   force =     0.00000000    0.00000000    0.00000000
     atom    2 type  2   force =     0.00000000    0.00000000    0.00000000
     atom    3 type  2   force =     0.00000000    0.00000000    0.00000000
     atom    4 type  2   force =     0.00000000    0.00000000    0.00000000
     atom    5 type  2   force =     0.00000000    0.00000000    0.00000000
     atom    6 type  3   force =     0.00000000    0.00000000    0.00000000
     atom    7 type  3   force =     0.00000000    0.00000000    0.00000000
     atom    8 type  3   force =     0.00000000    0.00000000    0.00000000
     atom    9 type  3   force =     0.00000000    0.00000000    0.00000000
     atom   10 type  3   force =     0.00000000    0.00000000    0.00000000
     atom   11 type  3   force =     0.00000000    0.00000000    0.00000000
     atom   12 type  3   force =     0.00000000    0.00000000    0.00000000
     atom   13 type  3   force =     0.00000000    0.00000000    0.00000000
     The SCF correction term to forces
     atom    1 type  1   force =    -0.00001635    0.00001648   -0.00001533
     atom    2 type  2   force =     0.00012731    0.00004304   -0.00005438
     atom    3 type  2   force =     0.00001093    0.00005707    0.00004466
     atom    4 type  2   force =     0.00002171    0.00003872   -0.00009026
     atom    5 type  2   force =     0.00008406   -0.00009344    0.00004248
     atom    6 type  3   force =     0.00034837    0.00009705    0.00001726
     atom    7 type  3   force =    -0.00009954   -0.00012132   -0.00017944
     atom    8 type  3   force =     0.00023866   -0.00022703    0.00038599
     atom    9 type  3   force =     0.00038516   -0.00023743    0.00034362
     atom   10 type  3   force =     0.00012301    0.00013053    0.00017225
     atom   11 type  3   force =    -0.00033077   -0.00009503   -0.00002217
     atom   12 type  3   force =    -0.00035245    0.00023303   -0.00032185
     atom   13 type  3   force =    -0.00020312    0.00021511   -0.00038336

     Total force =     0.564105     Total SCF correction =     0.001233

     Computing stress (Cartesian axis) and pressure

     negative rho (up, down):  2.221E-04 0.000E+00
          total   stress  (Ry/bohr**3)                   (kbar)     P=     -674.55
  -0.00456003  -0.00018190  -0.00019118         -670.80      -26.76      -28.12
  -0.00018190  -0.00448394   0.00012243          -26.76     -659.61       18.01
  -0.00019118   0.00012243  -0.00471260          -28.12       18.01     -693.25

     kinetic stress (kbar)  29516.42    -40.44    -68.64
                              -40.44  29542.53     52.82
                              -68.64     52.82  29535.10

     local   stress (kbar) -26575.21   1872.16   4124.12
                             1872.16 -26845.33  -4376.75
                             4124.12  -4376.75 -28691.18

     nonloc. stress (kbar)  11291.99     96.28     -6.87
                               96.28  11290.14     -6.22
                               -6.87     -6.22  11201.09

     hartree stress (kbar)  21289.11   -488.81  -1857.95
                             -488.81  21354.66   1979.33
                            -1857.95   1979.33  21854.88

     exc-cor stress (kbar)  -4775.46     -6.35     -1.17
                               -6.35  -4774.46      1.06
                               -1.17      1.06  -4768.01

     corecor stress (kbar)  -2671.43     -2.16      0.59
                               -2.16  -2671.61     -0.34
                                0.59     -0.34  -2669.17

     ewald   stress (kbar) -28746.24  -1457.45  -2218.21
                            -1457.45 -28555.54   2368.12
                            -2218.21   2368.12 -27155.95

     hubbard stress (kbar)      0.00      0.00      0.00
                                0.00      0.00      0.00
                                0.00      0.00      0.00

     DFT-D   stress (kbar)      0.00      0.00      0.00
                                0.00      0.00      0.00
                                0.00      0.00      0.00

     XDM     stress (kbar)      0.00      0.00      0.00
                                0.00      0.00      0.00
                                0.00      0.00      0.00

     dft-nl  stress (kbar)      0.00      0.00      0.00
                                0.00      0.00      0.00
                                0.00      0.00      0.00

     TS-vdW  stress (kbar)      0.00      0.00      0.00
                                0.00      0.00      0.00
                                0.00      0.00      0.00

[...]

                                0.00      0.00      0.00

     Writing all to output data dir new_calculations/myprefix.save/

     General routines

     Parallel routines

     PAW routines

   This run was terminated on:  11:13: 8  21May2023

   JOB DONE.