     Program PWSCF v.7.0 starts on 21May2023 at 17:45:49

     Reading input from espresso_26938.pwi
Warning: card &CELL ignored
Warning: card / ignored

     Current dimensions of program PWSCF are:
     Max number of different atomic species (ntypx) = 10
     Max number of k-points (npk) =  40000
     Max angular momentum in pseudopotentials (lmaxx) =  4

     gamma-point specific algorithms are used
     Message from routine setup:
     using ibrav=0 with symmetry is DISCOURAGED, use correct ibrav instead

     Subspace diagonalization in iterative solution of the eigenvalue problem:
     a serial algorithm will be used

     Using Slab Decomposition

     bravais-lattice index     =            0
     lattice parameter (alat)  =      10.4238  a.u.
     unit-cell volume          =     555.7572 (a.u.)^3
     number of atoms/cell      =            6
     number of atomic types    =            3
     number of electrons       =        71.00
     number of Kohn-Sham states=           43
     kinetic-energy cutoff     =      30.0000  Ry
     charge density cutoff     =     240.0000  Ry
     scf convergence threshold =      1.0E-06
     mixing beta               =       0.7000
     number of iterations used =            8  plain     mixing
     Exchange-correlation= PBE
                           (   1   4   3   4   0   0   0)

     celldm(1)=  10.423807  celldm(2)=   0.000000  celldm(3)=   0.000000
     celldm(4)=   0.000000  celldm(5)=   0.000000  celldm(6)=   0.000000

     crystal axes: (cart. coord. in units of alat)
               a(1) = (   1.000000   0.000000   0.000000 )
               a(2) = (  -0.500000   0.866025   0.000000 )
               a(3) = (   0.000000   0.000000   0.566599 )

     reciprocal axes: (cart. coord. in units 2 pi/alat)
               b(1) = (  1.000000  0.577351  0.000000 )
               b(2) = (  0.000000  1.154701  0.000000 )
               b(3) = (  0.000000  0.000000  1.764918 )

     PseudoPot. # 1 for Nd read from file:
     /home/pragov/projects/rrg-bengioy-ad/pragov/crystal_structure_design/SSSP/Nd.GGA-PBE-paw-v1.0.UPF
     MD5 check sum: 1d1e94942b6eb1cde76049b71bb7dcb0
     Pseudo is Projector augmented-wave + core cor, Zval = 14.0
     Generated using ATOMPAW code
     Shape of augmentation charge: BESSEL
     Using radial grid of 1105 points,  8 beta functions with:
                l(1) =   0
                l(2) =   0
                l(3) =   1
                l(4) =   1
                l(5) =   2
                l(6) =   2
                l(7) =   3
                l(8) =   3
     Q(r) pseudized with 0 coefficients

     PseudoPot. # 2 for B  read from file:
     /home/pragov/projects/rrg-bengioy-ad/pragov/crystal_structure_design/SSSP/b_pbe_v1.4.uspp.F.UPF
     MD5 check sum: cc6de2960df11db49a60e589f9ebb39b
     Pseudo is Ultrasoft + core correction, Zval =  3.0
     Generated by new atomic code, or converted to UPF format
     Using radial grid of  781 points,  4 beta functions with:
                l(1) =   0
                l(2) =   0
                l(3) =   1
                l(4) =   1
     Q(r) pseudized with  8 coefficients,  rinner =    1.100   1.100   1.100

     PseudoPot. # 3 for Rh read from file:
     /home/pragov/projects/rrg-bengioy-ad/pragov/crystal_structure_design/SSSP/Rh_ONCV_PBE-1.0.oncvpsp.upf
     MD5 check sum: ba07c69523b14cacd10683cd4c4284c1
     Pseudo is Norm-conserving, Zval = 17.0
     Generated using ONCVPSP code by D. R. Hamann
     Using radial grid of 1442 points,  6 beta functions with:
                l(1) =   0
                l(2) =   0
                l(3) =   1
                l(4) =   1
                l(5) =   2
                l(6) =   2

     atomic species   valence    mass     pseudopotential
        Nd            14.00   144.24200     Nd( 1.00)
        B              3.00    10.81000     B ( 1.00)
        Rh            17.00   102.90550     Rh( 1.00)

     24 Sym. Ops., with inversion, found

                                    s                        frac. trans.

      isym =  1     identity

 cryst.   s( 1) = (     1          0          0      )
                  (     0          1          0      )
                  (     0          0          1      )

 cart.    s( 1) = (  1.0000000 -0.0000000  0.0000000 )
                  (  0.0000000  1.0000000  0.0000000 )
                  (  0.0000000  0.0000000  1.0000000 )

      isym =  2     180 deg rotation - cart. axis [0,0,1]

[...]

      isym =  4     180 deg rotation - cart. axis [1,0,0]

[...]

      isym =  5      60 deg rotation - cryst. axis [0,0,1]

[...]

 cryst.   s( 9) = (     0         -1          0      )
                  (    -1          0          0      )
                  (     0          0         -1      )

 cart.    s( 9) = (  0.5000002 -0.8660253  0.0000000 )
                  ( -0.8660253 -0.5000002  0.0000000 )
                  (  0.0000000  0.0000000 -1.0000000 )

[...]

 cryst.   s(10) = (     1          1          0      )
                  (     0         -1          0      )
                  (     0          0         -1      )

 cart.    s(10) = (  0.4999998  0.8660257  0.0000000 )
                  (  0.8660253 -0.4999998  0.0000000 )
                  (  0.0000000  0.0000000 -1.0000000 )

[...]

      isym = 12     180 deg rotation - cryst. axis [1,1,0]

[...]

      isym = 13     inversion

[...]

      isym = 14     inv. 180 deg rotation - cart. axis [0,0,1]

[...]

      isym = 16     inv. 180 deg rotation - cart. axis [1,0,0]

[...]

      isym = 17     inv.  60 deg rotation - cryst. axis [0,0,1]

[...]

      isym = 24     inv. 180 deg rotation - cryst. axis [1,1,0]

 cryst.   s(24) = (     0         -1          0      )
                  (    -1          0          0      )
                  (     0          0          1      )

 cart.    s(24) = (  0.5000002 -0.8660253  0.0000000 )
                  ( -0.8660253 -0.5000002  0.0000000 )
                  (  0.0000000  0.0000000  1.0000000 )

   Cartesian axes

     site n.     atom                  positions (alat units)
         1           Nd  tau(   1) = (   0.0000000   0.0000000   0.0000000  )
         2           B   tau(   2) = (   0.5000004   0.2886748   0.0000000  )
         3           B   tau(   3) = (  -0.0000006   0.5773505   0.0000000  )
         4           Rh  tau(   4) = (   0.5000000   0.0000000   0.2832993  )
         5           Rh  tau(   5) = (  -0.2500001   0.4330126   0.2832993  )
         6           Rh  tau(   6) = (   0.2499999   0.4330126   0.2832993  )

   Crystallographic axes

     site n.     atom                  positions (cryst. coord.)
         1           Nd  tau(   1) = (  0.0000000  0.0000000  0.0000000  )
         2           B   tau(   2) = (  0.6666670  0.3333330  0.0000000  )
         3           B   tau(   3) = (  0.3333330  0.6666670  0.0000000  )
         4           Rh  tau(   4) = (  0.5000000  0.0000000  0.5000000  )
         5           Rh  tau(   5) = ( -0.0000000  0.5000000  0.5000000  )
         6           Rh  tau(   6) = (  0.5000000  0.5000000  0.5000000  )

     number of k points=     1  Methfessel-Paxton smearing, width (Ry)=  0.0010
                       cart. coord. in units 2pi/alat
        k(    1) = (   0.0000000   0.0000000   0.0000000), wk =   2.0000000

                       cryst. coord.
        k(    1) = (   0.0000000   0.0000000   0.0000000), wk =   2.0000000

     Initial potential from superposition of free atoms

     starting charge      70.9919, renormalised to      71.0000
     Starting wfcs are   70 randomized atomic wfcs
     Checking if some PAW data can be deallocated...

     Self-consistent Calculation

     iteration #  1     ecut=    30.00 Ry     beta= 0.70
     Davidson diagonalization with overlap

     ethr =  1.00E-02,  avg # of iterations =  2.0

     total energy              =   -1193.90011676 Ry
     estimated scf accuracy    <       7.44756378 Ry

[...]

     total energy              =   -1200.81684937 Ry
     estimated scf accuracy    <       0.00000120 Ry

     iteration # 66     ecut=    30.00 Ry     beta= 0.70
     Davidson diagonalization with overlap

     ethr =  1.70E-09,  avg # of iterations =  1.0

     End of self-consistent calculation

          k = 0.0000 0.0000 0.0000 (   771 PWs)   bands (ev):

   -60.4392 -60.3960 -60.3958 -28.9502 -28.6199 -28.6198 -28.3293 -28.3293
   -28.2239 -27.8650 -27.8147 -27.8146 -18.8137  -0.0335  -0.0335   0.8083
     8.1383  12.3610  12.3679  12.3680  12.9891  13.1258  13.8055  14.4463
    14.4465  15.8864  15.8864  16.3179  16.3179  17.3470  17.3470  17.6256
    18.1750  18.1751  18.2487  18.2487  18.2498  18.3308  18.5352  18.5539
    18.5542  18.9424  19.0426

     occupation numbers
     1.0000   1.0000   1.0000   1.0000   1.0000   1.0000   1.0000   1.0000
     1.0000   1.0000   1.0000   1.0000   1.0000   1.0000   1.0000   1.0000
     1.0000   1.0000   1.0000   1.0000   1.0000   1.0000   1.0000   1.0000
     1.0000   1.0000   1.0000   1.0000   1.0000   1.0000   1.0000   1.0000
     1.0000   1.0000   0.5233   0.5209   0.4558  -0.0000  -0.0000  -0.0000
    -0.0000  -0.0000  -0.0000

     the Fermi energy is    18.2491 ev

!    total energy              =   -1200.81684817 Ry
     estimated scf accuracy    <       0.00000074 Ry
     smearing contrib. (-TS)   =      -0.00084281 Ry
     internal energy E=F+TS    =   -1200.81600536 Ry

     The total energy is F=E-TS. E is the sum of the following terms:
     one-electron contribution =    -224.80182270 Ry
     hartree contribution      =     159.03692418 Ry
     xc contribution           =     -85.83469113 Ry
     ewald contribution        =    -619.07552403 Ry
     one-center paw contrib.   =    -430.14089169 Ry
      -> PAW hartree energy AE =      81.13398586 Ry
      -> PAW hartree energy PS =     -80.82083143 Ry
      -> PAW xc energy AE      =    -443.01424559 Ry
      -> PAW xc energy PS      =      12.56019947 Ry
      -> total E_H with PAW    =     159.35007862 Ry
      -> total E_XC with PAW   =    -516.28873725 Ry

     convergence has been achieved in  66 iterations

     Forces acting on atoms (cartesian axes, Ry/au):

     atom    1 type  1   force =     0.00000000    0.00000000    0.00000000
     atom    2 type  2   force =     0.00000000    0.00000000    0.00000000
     atom    3 type  2   force =    -0.00000000    0.00000000   -0.00000000
     atom    4 type  3   force =     0.00000000    0.00000000    0.00000000
     atom    5 type  3   force =    -0.00000000   -0.00000000    0.00000000
     atom    6 type  3   force =     0.00000000    0.00000000    0.00000000
     The non-local contrib.  to forces
     atom    1 type  1   force =     0.00000000    0.00000000   -0.00000000
     atom    2 type  2   force =     0.00000000    0.00000000    0.00000000
     atom    3 type  2   force =    -0.00000000    0.00000000    0.00000000
     atom    4 type  3   force =    -0.00000000    0.00000000    0.00000000
     atom    5 type  3   force =    -0.00000000   -0.00000000   -0.00000000
     atom    6 type  3   force =    -0.00000000   -0.00000000    0.00000000
     The ionic contribution  to forces
     atom    1 type  1   force =     0.00000000   -0.00000000   -0.00000000
     atom    2 type  2   force =    -0.00001223    0.00000706   -0.00000000
     atom    3 type  2   force =     0.00001222   -0.00000706   -0.00000000
     atom    4 type  3   force =    -0.00000000   -0.00000000   -0.00000000
     atom    5 type  3   force =     0.00000000    0.00000000   -0.00000000
     atom    6 type  3   force =     0.00000000    0.00000000   -0.00000000
     The local contribution  to forces
     atom    1 type  1   force =    -0.00014883   -0.00004628    0.00000116
     atom    2 type  2   force =     0.00004399   -0.00004676    0.00000002
     atom    3 type  2   force =    -0.00003207    0.00004792    0.00000002
     atom    4 type  3   force =     0.00011783   -0.00016167   -0.00000009
     atom    5 type  3   force =     0.00008185    0.00008012   -0.00000065
     atom    6 type  3   force =    -0.00012549    0.00013141    0.00000062
     The core correction contribution to forces
     atom    1 type  1   force =    -0.00000002   -0.00000000    0.00000000
     atom    2 type  2   force =     0.00000023   -0.00000006    0.00000000
     atom    3 type  2   force =    -0.00000031    0.00000010   -0.00000000
     atom    4 type  3   force =     0.00000000    0.00000000    0.00000000
     atom    5 type  3   force =     0.00000000    0.00000000    0.00000000
     atom    6 type  3   force =     0.00000000    0.00000000    0.00000000
     The Hubbard contrib.    to forces
     atom    1 type  1   force =     0.00000000    0.00000000    0.00000000
     atom    2 type  2   force =     0.00000000    0.00000000    0.00000000
     atom    3 type  2   force =     0.00000000    0.00000000    0.00000000
     atom    4 type  3   force =     0.00000000    0.00000000    0.00000000
     atom    5 type  3   force =     0.00000000    0.00000000    0.00000000
     atom    6 type  3   force =     0.00000000    0.00000000    0.00000000
     The SCF correction term to forces
     atom    1 type  1   force =     0.00011896    0.00004576   -0.00000130
     atom    2 type  2   force =    -0.00001346    0.00002731   -0.00000002
     atom    3 type  2   force =     0.00000088   -0.00002768   -0.00000003
     atom    4 type  3   force =    -0.00013343    0.00016264    0.00000007
     atom    5 type  3   force =    -0.00012121   -0.00006194    0.00000046
     atom    6 type  3   force =     0.00015353   -0.00012485   -0.00000046

     Total force =     0.000000     Total SCF correction =     0.000346

     Computing stress (Cartesian axis) and pressure

          total   stress  (Ry/bohr**3)                   (kbar)     P=       63.72
   0.00013065   0.00000000   0.00000000           19.22        0.00        0.00
   0.00000000   0.00013065  -0.00000000            0.00       19.22       -0.00
   0.00000000   0.00000000   0.00103828            0.00        0.00      152.74

     kinetic stress (kbar)  41219.70      0.01      0.00
                                0.01  41219.71      0.00
                                0.00      0.00  42921.48

     local   stress (kbar)  -5913.18     -0.01      0.00
                               -0.01  -5912.28      0.00
                                0.00      0.00   1514.01

     nonloc. stress (kbar)   9502.85      0.00     -0.00
                                0.00   9502.86      0.00
                               -0.00      0.00   9019.42

     hartree stress (kbar)  15010.39      0.02     -0.00
                                0.02  15010.32     -0.00
                               -0.00     -0.00  12075.26

     exc-cor stress (kbar)  -6632.65     -0.00     -0.00
                               -0.00  -6632.65     -0.00
                               -0.00     -0.00  -6620.48

     corecor stress (kbar)   -413.40      0.00      0.00
                                0.00   -413.40      0.00
                                0.00      0.00   -401.80

     ewald   stress (kbar) -52754.93      0.03     -0.00
                                0.03 -52754.90      0.00
                               -0.00      0.00 -58355.16

     hubbard stress (kbar)      0.00      0.00      0.00
                                0.00      0.00      0.00
                                0.00      0.00      0.00

     DFT-D   stress (kbar)      0.00      0.00      0.00
                                0.00      0.00      0.00
                                0.00      0.00      0.00

     XDM     stress (kbar)      0.00      0.00      0.00
                                0.00      0.00      0.00
                                0.00      0.00      0.00

     dft-nl  stress (kbar)      0.00      0.00      0.00
                                0.00      0.00      0.00
                                0.00      0.00      0.00

     TS-vdW  stress (kbar)      0.00      0.00      0.00
                                0.00      0.00      0.00
                                0.00      0.00      0.00

[...]

                                0.00      0.00      0.00

     Writing all to output data dir new_calculations/myprefix.save/

     General routines

     Parallel routines

     PAW routines

   This run was terminated on:  17:46:39  21May2023

   JOB DONE.