     Program PWSCF v.7.0 starts on 20May2023 at 19:24: 0

     Reading input from espresso_2677.pwi
Warning: card &CELL ignored
Warning: card / ignored

     Current dimensions of program PWSCF are:
     Max number of different atomic species (ntypx) = 10
     Max number of k-points (npk) =  40000
     Max angular momentum in pseudopotentials (lmaxx) =  4

     gamma-point specific algorithms are used

     Subspace diagonalization in iterative solution of the eigenvalue problem:
     a serial algorithm will be used

     Using Slab Decomposition

     bravais-lattice index     =            0
     lattice parameter (alat)  =      14.4278  a.u.
     unit-cell volume          =    1841.9473 (a.u.)^3
     number of atoms/cell      =           15
     number of atomic types    =            3
     number of electrons       =       113.00
     number of Kohn-Sham states=           68
     kinetic-energy cutoff     =      30.0000  Ry
     charge density cutoff     =     240.0000  Ry
     scf convergence threshold =      1.0E-06
     mixing beta               =       0.7000
     number of iterations used =            8  plain     mixing
     Exchange-correlation=  SLA  PW   PBX  PBC
                           (   1   4   3   4   0   0   0)

     celldm(1)=  14.427842  celldm(2)=   0.000000  celldm(3)=   0.000000
     celldm(4)=   0.000000  celldm(5)=   0.000000  celldm(6)=   0.000000

     crystal axes: (cart. coord. in units of alat)
               a(1) = (   1.000000   0.000000   0.000000 )
               a(2) = (   0.583347   0.812223   0.000000 )
               a(3) = (   0.583347   0.299245   0.755088 )

     reciprocal axes: (cart. coord. in units 2 pi/alat)
               b(1) = (  1.000000 -0.718211 -0.487925 )
               b(2) = (  0.000000  1.231189 -0.487925 )
               b(3) = (  0.000000  0.000000  1.324348 )

     PseudoPot. # 1 for Li read from file:
     /home/pragov/projects/rrg-bengioy-ad/pragov/crystal_structure_design/SSSP/li_pbe_v1.4.uspp.F.UPF
     MD5 check sum: e912e257baa3777c20ea3d68f190483c
     Pseudo is Ultrasoft, Zval =  3.0
     Generated by new atomic code, or converted to UPF format
     Using radial grid of  751 points,  5 beta functions with:
                l(1) =   0
                l(2) =   0
                l(3) =   0
                l(4) =   1
                l(5) =   1
     Q(r) pseudized with 10 coefficients,  rinner =    1.150   1.150   1.150

     PseudoPot. # 2 for Cr read from file:
     /home/pragov/projects/rrg-bengioy-ad/pragov/crystal_structure_design/SSSP/cr_pbe_v1.5.uspp.F.UPF
     MD5 check sum: 0d52af634a40206e4dee301ad30da4bf
     Pseudo is Ultrasoft + core correction, Zval = 14.0
     Generated by new atomic code, or converted to UPF format
     Using radial grid of  857 points,  6 beta functions with:
                l(1) =   0
                l(2) =   0
                l(3) =   1
                l(4) =   1
                l(5) =   2
                l(6) =   2
     Q(r) pseudized with  8 coefficients,  rinner =    0.950   0.950   0.950
                                                       0.950   0.950

     PseudoPot. # 3 for S  read from file:
     /home/pragov/projects/rrg-bengioy-ad/pragov/crystal_structure_design/SSSP/s_pbe_v1.4.uspp.F.UPF
     MD5 check sum: 88d86576ff6df21479756cfb9bdac1df
     Pseudo is Ultrasoft + core correction, Zval =  6.0
     Generated by new atomic code, or converted to UPF format
     Using radial grid of  907 points,  6 beta functions with:
                l(1) =   0
                l(2) =   0
                l(3) =   1
                l(4) =   1
                l(5) =   2
                l(6) =   2
     Q(r) pseudized with  8 coefficients,  rinner =    1.300   1.300   1.300
                                                       1.300   1.300

     atomic species   valence    mass     pseudopotential
        Li             3.00     6.94000     Li( 1.00)
        Cr            14.00    51.99610     Cr( 1.00)
        S              6.00    32.06000     S ( 1.00)

     No symmetry found

                                    s                        frac. trans.

      isym =  1     identity

 cryst.   s( 1) = (     1          0          0      )
                  (     0          1          0      )
                  (     0          0          1      )

 cart.    s( 1) = (  1.0000000  0.0000000  0.0000000 )
                  (  0.0000000  1.0000000 -0.0000000 )
                  (  0.0000000  0.0000000  1.0000000 )

   Cartesian axes

     site n.     atom                  positions (alat units)
         1           Li  tau(   1) = (   0.8873557   0.7140533   0.4851006  )
         2           Li  tau(   2) = (   1.0976069   0.3041894   0.4851006  )
         3           Li  tau(   3) = (   1.0976069   0.5630485   0.1040678  )
         4           Cr  tau(   4) = (   2.1636938   1.1099280   0.7540427  )
         5           Cr  tau(   5) = (   0.7750376   0.1497135   0.3683284  )
         6           Cr  tau(   6) = (   0.5737168   0.5421682   0.3683284  )
         7           Cr  tau(   7) = (   0.7750375   0.3975775   0.0034802  )
         8           S   tau(   8) = (   1.5848787   0.8130084   0.5523268  )
         9           S   tau(   9) = (   0.7957228   0.4081886   0.5507819  )
        10           S   tau(  10) = (   1.3643312   0.4427850   0.5773512  )
        11           S   tau(  11) = (   1.1555191   0.8498435   0.5773512  )
        12           S   tau(  12) = (   0.7957228   0.6624257   0.1765525  )
        13           S   tau(  13) = (   1.0022200   0.2598800   0.1765525  )
        14           S   tau(  14) = (   1.3643312   0.6998723   0.1989266  )
        15           S   tau(  15) = (   0.5613776   0.2879745   0.1956389  )

   Crystallographic axes

     site n.     atom                  positions (cryst. coord.)
         1           Li  tau(   1) = (  0.1378220  0.6424420  0.6424420  )
         2           Li  tau(   2) = (  0.6424420  0.1378220  0.6424420  )
         3           Li  tau(   3) = (  0.6424420  0.6424420  0.1378220  )
         4           Cr  tau(   4) = (  0.9986150  0.9986150  0.9986150  )
         5           Cr  tau(   5) = (  0.4877950  0.0046090  0.4877950  )
         6           Cr  tau(   6) = (  0.0046090  0.4877950  0.4877950  )
         7           Cr  tau(   7) = (  0.4877950  0.4877950  0.0046090  )
         8           S   tau(   8) = (  0.7314730  0.7314730  0.7314730  )
         9           S   tau(   9) = (  0.2338170  0.2338170  0.7294270  )
        10           S   tau(  10) = (  0.7646140  0.2634480  0.7646140  )
        11           S   tau(  11) = (  0.2634480  0.7646140  0.7646140  )
        12           S   tau(  12) = (  0.2338170  0.7294270  0.2338170  )
        13           S   tau(  13) = (  0.7294270  0.2338170  0.2338170  )
        14           S   tau(  14) = (  0.7646140  0.7646140  0.2634480  )
        15           S   tau(  15) = (  0.2590940  0.2590940  0.2590940  )

     number of k points=     1  Methfessel-Paxton smearing, width (Ry)=  0.0010
                       cart. coord. in units 2pi/alat
        k(    1) = (   0.0000000   0.0000000   0.0000000), wk =   2.0000000

                       cryst. coord.
        k(    1) = (   0.0000000   0.0000000   0.0000000), wk =   2.0000000

     Check: negative core charge=   -0.000006

     Initial potential from superposition of free atoms

     starting charge     107.6474, renormalised to     113.0000

     negative rho (up, down):  3.201E-03 0.000E+00
     Starting wfcs are   87 randomized atomic wfcs

     Self-consistent Calculation

     iteration #  1     ecut=    30.00 Ry     beta= 0.70
     Davidson diagonalization with overlap

     ethr =  1.00E-02,  avg # of iterations =  4.0

     negative rho (up, down):  1.412E-02 0.000E+00

     total energy              =    -929.00435596 Ry
     estimated scf accuracy    <      13.66791927 Ry

[...]

     ethr =  4.68E-05,  avg # of iterations =  1.0
     Minimization algorithm failed to find Fermi energy: reverting to bisection
     Possible cause: smearing is larger than the electronic band-gap.

[...]

     ethr =  3.15E-06,  avg # of iterations =  2.0
     Minimization algorithm failed to find Fermi energy: reverting to bisection
     Possible cause: smearing is larger than the electronic band-gap.

[...]

     total energy              =    -938.62020619 Ry
     estimated scf accuracy    <       0.00000500 Ry

     iteration # 41     ecut=    30.00 Ry     beta= 0.70
     Davidson diagonalization with overlap

     ethr =  1.28E-09,  avg # of iterations =  1.0

[...]

     End of self-consistent calculation

          k = 0.0000 0.0000 0.0000 (  2567 PWs)   bands (ev):

   -65.3832 -65.3814 -65.3814 -65.3604 -39.2458 -39.2433 -39.2432 -36.8142
   -36.8142 -36.8019 -36.8015 -36.7764 -36.7764 -36.7471 -36.7470 -36.5173
   -36.4927 -36.4874 -36.4874  -7.0669  -5.6715  -5.5329  -5.5329  -5.5124
    -5.3966  -5.3966  -5.3418   1.1333   1.1364   1.1365   1.5067   2.1596
     2.1596   2.3355   3.4825   3.4825   3.6149   3.6149   3.6931   3.7703
     3.7703   3.8477   4.2623   4.2623   4.3359   4.5823   4.7535   4.7536
     5.5036   6.0866   6.0866   6.0876   6.1524   6.1524   6.3770   6.3770
     6.7053   6.7053   6.7081   6.7095   7.0133   7.0827   7.0827   9.1222
     9.1222   9.1919   9.1920   9.2438

     occupation numbers
     1.0000   1.0000   1.0000   1.0000   1.0000   1.0000   1.0000   1.0000
     1.0000   1.0000   1.0000   1.0000   1.0000   1.0000   1.0000   1.0000
     1.0000   1.0000   1.0000   1.0000   1.0000   1.0000   1.0000   1.0000
     1.0000   1.0000   1.0000   1.0000   1.0000   1.0000   1.0000   1.0000
     1.0000   1.0000   1.0000   1.0000   1.0000   1.0000   1.0000   1.0000
     1.0000   1.0000   1.0000   1.0000   1.0000   1.0000   1.0000   1.0000
     1.0000   1.0000   1.0000   1.0000   1.0000   1.0000   1.0000   1.0000
     0.1918   0.1913   0.0787   0.0382  -0.0000  -0.0000  -0.0000  -0.0000
    -0.0000  -0.0000  -0.0000  -0.0000

     the Fermi energy is     6.6999 ev

!    total energy              =    -938.62020613 Ry
     estimated scf accuracy    <       0.00000017 Ry
     smearing contrib. (-TS)   =      -0.00038425 Ry
     internal energy E=F+TS    =    -938.61982188 Ry

     The total energy is F=E-TS. E is the sum of the following terms:
     one-electron contribution =    -696.79362382 Ry
     hartree contribution      =     377.99669500 Ry
     xc contribution           =    -167.36642628 Ry
     ewald contribution        =    -452.45646677 Ry

     convergence has been achieved in  41 iterations

     negative rho (up, down):  3.241E-03 0.000E+00

     Forces acting on atoms (cartesian axes, Ry/au):

     atom    1 type  1   force =     0.00066998    0.00166185    0.00112774
     atom    2 type  1   force =     0.00174276   -0.00042124    0.00113033
     atom    3 type  1   force =     0.00174943    0.00089850   -0.00080837
     atom    4 type  2   force =     0.02704969    0.01387848    0.00943387
     atom    5 type  2   force =     0.00069092    0.04786647   -0.01858800
     atom    6 type  2   force =     0.03928365   -0.02736648   -0.01858856
     atom    7 type  2   force =     0.00069675    0.00035730    0.05133967
     atom    8 type  3   force =    -0.03098549   -0.01589865   -0.01080050
     atom    9 type  3   force =    -0.02320757   -0.01189860   -0.00985218
     atom   10 type  3   force =     0.00931691    0.00534719    0.00300225
     atom   11 type  3   force =     0.00977279    0.00444657    0.00301149
     atom   12 type  3   force =    -0.02320824   -0.01353879   -0.00742404
     atom   13 type  3   force =    -0.02452683   -0.01095286   -0.00743315
     atom   14 type  3   force =     0.00931646    0.00476975    0.00386870
     atom   15 type  3   force =     0.00163880    0.00085050    0.00058073
     The non-local contrib.  to forces
     atom    1 type  1   force =     0.02074010    0.00764395    0.00519078
     atom    2 type  1   force =     0.01830290    0.01238877    0.00519184
     atom    3 type  1   force =     0.01830538    0.00939290    0.00960276
     atom    4 type  2   force =    -0.01224151   -0.00627867   -0.00426541
     atom    5 type  2   force =    -0.00309770    0.00215771   -0.00256532
     atom    6 type  2   force =    -0.00005314   -0.00378319   -0.00256324
     atom    7 type  2   force =    -0.00309633   -0.00159320    0.00295120
     atom    8 type  3   force =    -0.04255103   -0.02182687   -0.01483044
     atom    9 type  3   force =    -0.08299777   -0.04257379   -0.06607204
     atom   10 type  3   force =     0.09004480    0.03654960    0.03518980
     atom   11 type  3   force =     0.08220873    0.05180938    0.03519210
     atom   12 type  3   force =    -0.08299892   -0.07710359   -0.01523081
     atom   13 type  3   force =    -0.11104097   -0.02243709   -0.01523924
     atom   14 type  3   force =     0.09004135    0.04618594    0.02101814
     atom   15 type  3   force =     0.15292016    0.07844719    0.05329348
     The ionic contribution  to forces
     atom    1 type  1   force =     2.23967496    1.25181697    0.85043649
     atom    2 type  1   force =     2.32326267    1.08887106    0.85043649
     atom    3 type  1   force =     2.32326270    1.19178337    0.69895271
     atom    4 type  2   force =     0.87722889    0.44999939    0.30571245
     atom    5 type  2   force =    -1.37480023   -2.50202618    0.23295736
     atom    6 type  2   force =    -2.83418878    0.34290611    0.23295736
     atom    7 type  2   force =    -1.37480030   -0.70524273   -2.41185356
     atom    8 type  3   force =     9.46851494    4.85714279    3.29975598
     atom    9 type  3   force =    10.59096979    5.43293778    4.78655418
     atom   10 type  3   force =   -10.56457225   -5.40695447   -3.68666016
     atom   11 type  3   force =   -10.55446662   -5.42665439   -3.68666016
     atom   12 type  3   force =    10.59096970    6.45149328    3.28727158
     atom   13 type  3   force =    11.41826376    4.83876610    3.28727158
     atom   14 type  3   force =   -10.56457218   -5.41939638   -3.66834617
     atom   15 type  3   force =   -12.56474706   -6.44544271   -4.37878610
     The local contribution  to forces
     atom    1 type  1   force =    -2.25976639   -1.25780047   -0.85450887
     atom    2 type  1   force =    -2.33981793   -1.10168642   -0.85450148
     atom    3 type  1   force =    -2.33980053   -1.20026634   -0.70936058
     atom    4 type  2   force =    -0.84060025   -0.43124196   -0.29294524
     atom    5 type  2   force =     1.37614476    2.54530450   -0.24930775
     atom    6 type  2   force =     2.87013600   -0.36704195   -0.24935446
     atom    7 type  2   force =     1.37615117    0.70599423    2.45811867
     atom    8 type  3   force =    -9.45906439   -4.85236159   -3.29657042
     atom    9 type  3   force =   -10.53557592   -5.40443823   -4.73376402
     atom   10 type  3   force =    10.48863400    5.37738509    3.65627982
     atom   11 type  3   force =    10.48608248    5.38220704    3.65636396
     atom   12 type  3   force =   -10.53557178   -6.39184194   -3.28017507
     atom   13 type  3   force =   -11.33741407   -4.82853819   -3.28023262
     atom   14 type  3   force =    10.48863382    5.38034086    3.65209984
     atom   15 type  3   force =    12.42123309    6.37191565    4.32891203
     The core correction contribution to forces
     atom    1 type  1   force =     0.00000000    0.00000000    0.00000000
     atom    2 type  1   force =     0.00000000    0.00000000    0.00000000
     atom    3 type  1   force =     0.00000000    0.00000000    0.00000000
     atom    4 type  2   force =     0.00283655    0.00145503    0.00098876
     atom    5 type  2   force =     0.00243534    0.00252437    0.00034350
     atom    6 type  2   force =     0.00347135    0.00050604    0.00034322
     atom    7 type  2   force =     0.00243522    0.00124982    0.00221999
     atom    8 type  3   force =     0.00222975    0.00114359    0.00077694
     atom    9 type  3   force =     0.00427990    0.00219563    0.00353209
     atom   10 type  3   force =    -0.00466011   -0.00180140   -0.00185732
     atom   11 type  3   force =    -0.00418148   -0.00273387   -0.00185720
     atom   12 type  3   force =     0.00427999    0.00409231    0.00073962
     atom   13 type  3   force =     0.00582070    0.00108926    0.00073995
     atom   14 type  3   force =    -0.00465988   -0.00239054   -0.00099054
     atom   15 type  3   force =    -0.00791414   -0.00405968   -0.00275779
     The Hubbard contrib.    to forces
     atom    1 type  1   force =     0.00000000    0.00000000    0.00000000
     atom    2 type  1   force =     0.00000000    0.00000000    0.00000000
     atom    3 type  1   force =     0.00000000    0.00000000    0.00000000
     atom    4 type  2   force =     0.00000000    0.00000000    0.00000000
     atom    5 type  2   force =     0.00000000    0.00000000    0.00000000
     atom    6 type  2   force =     0.00000000    0.00000000    0.00000000
     atom    7 type  2   force =     0.00000000    0.00000000    0.00000000
     atom    8 type  3   force =     0.00000000    0.00000000    0.00000000
     atom    9 type  3   force =     0.00000000    0.00000000    0.00000000
     atom   10 type  3   force =     0.00000000    0.00000000    0.00000000
     atom   11 type  3   force =     0.00000000    0.00000000    0.00000000
     atom   12 type  3   force =     0.00000000    0.00000000    0.00000000
     atom   13 type  3   force =     0.00000000    0.00000000    0.00000000
     atom   14 type  3   force =     0.00000000    0.00000000    0.00000000
     atom   15 type  3   force =     0.00000000    0.00000000    0.00000000
     The SCF correction term to forces
     atom    1 type  1   force =     0.00002095    0.00000237    0.00000932
     atom    2 type  1   force =    -0.00000524    0.00000631    0.00000346
     atom    3 type  1   force =    -0.00001848   -0.00001047   -0.00000329
     atom    4 type  2   force =    -0.00017434   -0.00005435   -0.00005671
     atom    5 type  2   force =     0.00000838   -0.00009298   -0.00001581
     atom    6 type  2   force =    -0.00008214    0.00004747    0.00002854
     atom    7 type  2   force =     0.00000662   -0.00004985   -0.00009666
     atom    8 type  3   force =    -0.00011512    0.00000440    0.00006742
     atom    9 type  3   force =     0.00011606   -0.00001903   -0.00010241
     atom   10 type  3   force =    -0.00012988    0.00016934    0.00005009
     atom   11 type  3   force =     0.00012931   -0.00018062   -0.00002722
     atom   12 type  3   force =     0.00011241   -0.00017788   -0.00002938
     atom   13 type  3   force =    -0.00015661    0.00016802    0.00002716
     atom   14 type  3   force =    -0.00012701    0.00003084    0.00008741
     atom   15 type  3   force =     0.00014637   -0.00000899   -0.00008092

     Total force =     0.113911     Total SCF correction =     0.000600

     Computing stress (Cartesian axis) and pressure

     negative rho (up, down):  3.241E-03 0.000E+00
          total   stress  (Ry/bohr**3)                   (kbar)     P=      -85.81
  -0.00044220   0.00013441   0.00009144          -65.05       19.77       13.45
   0.00013441  -0.00063535   0.00004691           19.77      -93.46        6.90
   0.00009144   0.00004691  -0.00067237           13.45        6.90      -98.91

     kinetic stress (kbar)  12200.72    108.40     73.61
                              108.40  12045.04     37.76
                               73.61     37.76  12015.07

     local   stress (kbar)   7571.34  18246.87  12396.34
                            18246.87 -18638.95   6359.06
                            12396.34   6359.06 -23679.05

     nonloc. stress (kbar)   5022.12     12.81      8.68
                               12.81   5003.74      4.45
                                8.68      4.45   5000.18

     hartree stress (kbar)   1202.86  -8440.50  -5734.19
                            -8440.50  13327.00  -2941.52
                            -5734.19  -2941.52  15658.43

     exc-cor stress (kbar)   -305.97      0.28      0.19
                                0.28   -306.37      0.10
                                0.19      0.10   -306.45

     corecor stress (kbar)  -3311.89     -1.11     -0.75
                               -1.11  -3310.30     -0.39
                               -0.75     -0.39  -3309.99

     ewald   stress (kbar) -22444.23  -9906.99  -6730.43
                            -9906.99  -8213.62  -3452.56
                            -6730.43  -3452.56  -5477.09

     hubbard stress (kbar)      0.00      0.00      0.00
                                0.00      0.00      0.00
                                0.00      0.00      0.00

     DFT-D   stress (kbar)      0.00      0.00      0.00
                                0.00      0.00      0.00
                                0.00      0.00      0.00

     XDM     stress (kbar)      0.00      0.00      0.00
                                0.00      0.00      0.00
                                0.00      0.00      0.00

     dft-nl  stress (kbar)      0.00      0.00      0.00
                                0.00      0.00      0.00
                                0.00      0.00      0.00

     TS-vdW  stress (kbar)      0.00      0.00      0.00
                                0.00      0.00      0.00
                                0.00      0.00      0.00

[...]

                                0.00      0.00      0.00

     Writing all to output data dir new_calculations/myprefix.save/

     General routines

     Parallel routines

   This run was terminated on:  19:26:15  20May2023

   JOB DONE.