     Program PWSCF v.7.0 starts on 20May2023 at 14:20:42

     Reading input from espresso_8535.pwi
Warning: card &CELL ignored
Warning: card / ignored

     Current dimensions of program PWSCF are:
     Max number of different atomic species (ntypx) = 10
     Max number of k-points (npk) =  40000
     Max angular momentum in pseudopotentials (lmaxx) =  4

     gamma-point specific algorithms are used
     Message from routine setup:
     using ibrav=0 with symmetry is DISCOURAGED, use correct ibrav instead

     Subspace diagonalization in iterative solution of the eigenvalue problem:
     a serial algorithm will be used

     Using Slab Decomposition

     bravais-lattice index     =            0
     lattice parameter (alat)  =       9.6456  a.u.
     unit-cell volume          =     634.5654 (a.u.)^3
     number of atoms/cell      =            9
     number of atomic types    =            3
     number of electrons       =        42.00
     number of Kohn-Sham states=           25
     kinetic-energy cutoff     =      30.0000  Ry
     charge density cutoff     =     240.0000  Ry
     scf convergence threshold =      1.0E-06
     mixing beta               =       0.7000
     number of iterations used =            8  plain     mixing
     Exchange-correlation= PBE
                           (   1   4   3   4   0   0   0)

     celldm(1)=   9.645627  celldm(2)=   0.000000  celldm(3)=   0.000000
     celldm(4)=   0.000000  celldm(5)=   0.000000  celldm(6)=   0.000000

     crystal axes: (cart. coord. in units of alat)
               a(1) = (   1.000000   0.000000   0.000000 )
               a(2) = (   0.500000   0.866025   0.000000 )
               a(3) = (   0.500000   0.288675   0.816497 )

     reciprocal axes: (cart. coord. in units 2 pi/alat)
               b(1) = (  1.000000 -0.577350 -0.408248 )
               b(2) = (  0.000000  1.154701 -0.408248 )
               b(3) = (  0.000000  0.000000  1.224745 )

     PseudoPot. # 1 for Ca read from file:
     /home/pragov/projects/rrg-bengioy-ad/pragov/crystal_structure_design/SSSP/Ca_pbe_v1.uspp.F.UPF
     MD5 check sum: 403a4c14b9e4d4dfdc3024c9a3812218
     Pseudo is Ultrasoft + core correction, Zval = 10.0
     Generated by new atomic code, or converted to UPF format
     Using radial grid of  845 points,  6 beta functions with:
                l(1) =   0
                l(2) =   0
                l(3) =   1
                l(4) =   1
                l(5) =   2
                l(6) =   2
     Q(r) pseudized with  8 coefficients,  rinner =    1.500   1.500   1.500
                                                       1.500   1.500

     PseudoPot. # 2 for H  read from file:
     /home/pragov/projects/rrg-bengioy-ad/pragov/crystal_structure_design/SSSP/H.pbe-rrkjus_psl.1.0.0.UPF
     MD5 check sum: f52b6d4d1c606e5624b1dc7b2218f220
     Pseudo is Ultrasoft, Zval =  1.0
     Generated using "atomic" code by A. Dal Corso  v.5.1
     Using radial grid of  929 points,  2 beta functions with:
                l(1) =   0
                l(2) =   0
     Q(r) pseudized with 0 coefficients

     PseudoPot. # 3 for Ru read from file:
     /home/pragov/projects/rrg-bengioy-ad/pragov/crystal_structure_design/SSSP/Ru_ONCV_PBE-1.0.oncvpsp.upf
     MD5 check sum: be037bb81c227cfb9b1461a9f099f4bd
     Pseudo is Norm-conserving, Zval = 16.0
     Generated using ONCVPSP code by D. R. Hamann
     Using radial grid of 1458 points,  6 beta functions with:
                l(1) =   0
                l(2) =   0
                l(3) =   1
                l(4) =   1
                l(5) =   2
                l(6) =   2

     atomic species   valence    mass     pseudopotential
        Ca            10.00    40.07800     Ca( 1.00)
        H              1.00     1.00800     H ( 1.00)
        Ru            16.00   101.07000     Ru( 1.00)

     12 Sym. Ops., with inversion, found

                                    s                        frac. trans.

      isym =  1     identity

 cryst.   s( 1) = (     1          0          0      )
                  (     0          1          0      )
                  (     0          0          1      )

 cart.    s( 1) = (  1.0000000  0.0000000  0.0000000 )
                  (  0.0000000  1.0000000 -0.0000000 )
                  (  0.0000000  0.0000000  1.0000000 )

      isym =  2     180 deg rotation - cart. axis [1,0,0]

[...]

      isym =  3     120 deg rotation - cryst. axis [0,0,1]

[...]

      isym =  6     180 deg rotation - cryst. axis [1,1,0]

[...]

      isym =  7     inversion

[...]

      isym =  8     inv. 180 deg rotation - cart. axis [1,0,0]

[...]

      isym =  9     inv. 120 deg rotation - cryst. axis [0,0,1]

 cryst.   s( 9) = (     1         -1          0      )
                  (     1          0          0      )
                  (     1          0         -1      )

 cart.    s( 9) = (  0.5000000  0.8660254  0.0000000 )
                  ( -0.8660254  0.5000000  0.0000000 )
                  (  0.0000000  0.0000000 -1.0000000 )

[...]

 cryst.   s(10) = (     0          1          0      )
                  (    -1          1          0      )
                  (     0          1         -1      )

 cart.    s(10) = (  0.5000000 -0.8660254 -0.0000000 )
                  (  0.8660254  0.5000000  0.0000000 )
                  (  0.0000000  0.0000000 -1.0000000 )

[...]

      isym = 12     inv. 180 deg rotation - cryst. axis [1,1,0]

 cryst.   s(12) = (     1         -1          0      )
                  (     0         -1          0      )
                  (     0         -1          1      )

 cart.    s(12) = (  0.5000000 -0.8660254 -0.0000000 )
                  ( -0.8660254 -0.5000000 -0.0000000 )
                  (  0.0000000  0.0000000  1.0000000 )

   Cartesian axes

     site n.     atom                  positions (alat units)
         1           Ca  tau(   1) = (   1.5000000   0.8660254   0.6123724  )
         2           Ca  tau(   2) = (   0.5000000   0.2886751   0.2041241  )
         3           H   tau(   3) = (   1.2623670   0.7288279   0.1940265  )
         4           H   tau(   4) = (   0.7376330   0.7288279   0.1940265  )
         5           H   tau(   5) = (   1.0000000   0.2743950   0.1940265  )
         6           H   tau(   6) = (   0.7376330   0.4258726   0.6224700  )
         7           H   tau(   7) = (   1.2623670   0.4258726   0.6224700  )
         8           H   tau(   8) = (   1.0000000   0.8803056   0.6224700  )
         9           Ru  tau(   9) = (   0.0000000   0.0000000   0.0000000  )

   Crystallographic axes

     site n.     atom                  positions (cryst. coord.)
         1           Ca  tau(   1) = (  0.7500000  0.7500000  0.7500000  )
         2           Ca  tau(   2) = (  0.2500000  0.2500000  0.2500000  )
         3           H   tau(   3) = (  0.7623670  0.7623670  0.2376330  )
         4           H   tau(   4) = (  0.2376330  0.7623670  0.2376330  )
         5           H   tau(   5) = (  0.7623670  0.2376330  0.2376330  )
         6           H   tau(   6) = (  0.2376330  0.2376330  0.7623670  )
         7           H   tau(   7) = (  0.7623670  0.2376330  0.7623670  )
         8           H   tau(   8) = (  0.2376330  0.7623670  0.7623670  )
         9           Ru  tau(   9) = (  0.0000000  0.0000000  0.0000000  )

     number of k points=     1  Methfessel-Paxton smearing, width (Ry)=  0.0010
                       cart. coord. in units 2pi/alat
        k(    1) = (   0.0000000   0.0000000   0.0000000), wk =   2.0000000

                       cryst. coord.
        k(    1) = (   0.0000000   0.0000000   0.0000000), wk =   2.0000000

     Initial potential from superposition of free atoms

     starting charge      41.9885, renormalised to      42.0000
     Starting wfcs are   36 randomized atomic wfcs

     Self-consistent Calculation

     iteration #  1     ecut=    30.00 Ry     beta= 0.70
     Davidson diagonalization with overlap

     ethr =  1.00E-02,  avg # of iterations =  3.0

     total energy              =    -345.55717220 Ry
     estimated scf accuracy    <       0.71590441 Ry

[...]

     total energy              =    -345.87019808 Ry
     estimated scf accuracy    <       0.00000493 Ry

     iteration #  8     ecut=    30.00 Ry     beta= 0.70
     Davidson diagonalization with overlap

     ethr =  1.17E-08,  avg # of iterations =  3.0

     End of self-consistent calculation

          k = 0.0000 0.0000 0.0000 (   904 PWs)   bands (ev):

   -63.9884 -34.0137 -34.0137 -34.0136 -32.5691 -32.5274 -13.6461 -13.6460
   -13.6460 -13.5071 -13.5071 -13.5071   0.2236   2.9583   2.9585   4.6463
     4.6464   4.6465   6.4784   6.4784   6.4785  10.7754  10.7755  12.6316
    13.2824

     occupation numbers
     1.0000   1.0000   1.0000   1.0000   1.0000   1.0000   1.0000   1.0000
     1.0000   1.0000   1.0000   1.0000   1.0000   1.0000   1.0000   1.0000
     1.0000   1.0000   1.0000   1.0000   1.0000  -0.0000  -0.0000  -0.0000
    -0.0000

     the Fermi energy is     8.5720 ev

!    total energy              =    -345.87019944 Ry
     estimated scf accuracy    <       0.00000037 Ry
     smearing contrib. (-TS)   =       0.00000000 Ry
     internal energy E=F+TS    =    -345.87019944 Ry

     The total energy is F=E-TS. E is the sum of the following terms:
     one-electron contribution =    -175.14813259 Ry
     hartree contribution      =      96.99836664 Ry
     xc contribution           =     -48.04850711 Ry
     ewald contribution        =    -219.67192638 Ry

     convergence has been achieved in   8 iterations

     Forces acting on atoms (cartesian axes, Ry/au):

     atom    1 type  1   force =     0.00000000   -0.00000000    0.00001792
     atom    2 type  1   force =     0.00000000    0.00000000   -0.00001792
     atom    3 type  2   force =    -0.00674497   -0.00389421    0.00550633
     atom    4 type  2   force =     0.00674497   -0.00389421    0.00550633
     atom    5 type  2   force =     0.00000000    0.00778842    0.00550633
     atom    6 type  2   force =     0.00674497    0.00389421   -0.00550633
     atom    7 type  2   force =    -0.00674497    0.00389421   -0.00550633
     atom    8 type  2   force =     0.00000000   -0.00778842   -0.00550633
     atom    9 type  3   force =     0.00000000    0.00000000    0.00000000
     The non-local contrib.  to forces
     atom    1 type  1   force =     0.00000000    0.00000000    0.00000657
     atom    2 type  1   force =    -0.00000000   -0.00000000   -0.00000657
     atom    3 type  2   force =     0.01327271    0.00766300   -0.01083708
     atom    4 type  2   force =    -0.01327271    0.00766300   -0.01083708
     atom    5 type  2   force =     0.00000000   -0.01532600   -0.01083708
     atom    6 type  2   force =    -0.01327271   -0.00766300    0.01083708
     atom    7 type  2   force =     0.01327271   -0.00766300    0.01083708
     atom    8 type  2   force =     0.00000000    0.01532600    0.01083708
     atom    9 type  3   force =     0.00000000    0.00000000   -0.00000000
     The ionic contribution  to forces
     atom    1 type  1   force =     0.00000000    0.00000000   -0.00000000
     atom    2 type  1   force =    -0.00000000   -0.00000000   -0.00000000
     atom    3 type  2   force =    -1.73415749   -1.00121629    1.41593366
     atom    4 type  2   force =     1.73415749   -1.00121629    1.41593366
     atom    5 type  2   force =     0.00000000    2.00243259    1.41593366
     atom    6 type  2   force =     1.73415749    1.00121629   -1.41593366
     atom    7 type  2   force =    -1.73415749    1.00121629   -1.41593366
     atom    8 type  2   force =    -0.00000000   -2.00243259   -1.41593366
     atom    9 type  3   force =    -0.00000000   -0.00000000    0.00000000
     The local contribution  to forces
     atom    1 type  1   force =     0.00017897   -0.00000604    0.00010531
     atom    2 type  1   force =     0.00007352    0.00025111    0.00002495
     atom    3 type  2   force =     1.71420522    0.98968848   -1.39966029
     atom    4 type  2   force =    -1.71420219    0.98966924   -1.39962800
     atom    5 type  2   force =    -0.00001222   -1.97936849   -1.39963000
     atom    6 type  2   force =    -1.71419802   -0.98968787    1.39961439
     atom    7 type  2   force =     1.71421118   -0.98971219    1.39964786
     atom    8 type  2   force =    -0.00001819    1.97940631    1.39965305
     atom    9 type  3   force =    -0.00087893   -0.00067736   -0.00042818
     The core correction contribution to forces
     atom    1 type  1   force =     0.00000340   -0.00000123    0.00000276
     atom    2 type  1   force =     0.00000024    0.00000741   -0.00000126
     atom    3 type  2   force =     0.00000000    0.00000000    0.00000000
     atom    4 type  2   force =     0.00000000    0.00000000    0.00000000
     atom    5 type  2   force =     0.00000000    0.00000000    0.00000000
     atom    6 type  2   force =     0.00000000    0.00000000    0.00000000
     atom    7 type  2   force =     0.00000000    0.00000000    0.00000000
     atom    8 type  2   force =     0.00000000    0.00000000    0.00000000
     atom    9 type  3   force =     0.00000000    0.00000000    0.00000000
     The Hubbard contrib.    to forces
     atom    1 type  1   force =     0.00000000    0.00000000    0.00000000
     atom    2 type  1   force =     0.00000000    0.00000000    0.00000000
     atom    3 type  2   force =     0.00000000    0.00000000    0.00000000
     atom    4 type  2   force =     0.00000000    0.00000000    0.00000000
     atom    5 type  2   force =     0.00000000    0.00000000    0.00000000
     atom    6 type  2   force =     0.00000000    0.00000000    0.00000000
     atom    7 type  2   force =     0.00000000    0.00000000    0.00000000
     atom    8 type  2   force =     0.00000000    0.00000000    0.00000000
     atom    9 type  3   force =     0.00000000    0.00000000    0.00000000
     The SCF correction term to forces
     atom    1 type  1   force =    -0.00016402    0.00000102   -0.00009900
     atom    2 type  1   force =    -0.00007358   -0.00020078   -0.00003732
     atom    3 type  2   force =    -0.00006447   -0.00002936    0.00006692
     atom    4 type  2   force =     0.00006041   -0.00001411    0.00004261
     atom    5 type  2   force =     0.00001004    0.00005464    0.00004131
     atom    6 type  2   force =     0.00005998    0.00003302   -0.00002806
     atom    7 type  2   force =    -0.00006802    0.00005362   -0.00005234
     atom    8 type  2   force =     0.00001519   -0.00008336   -0.00006091
     atom    9 type  3   force =     0.00092204    0.00071599    0.00046128

     Total force =     0.023364     Total SCF correction =     0.001306

     Computing stress (Cartesian axis) and pressure

          total   stress  (Ry/bohr**3)                   (kbar)     P=     -103.38
  -0.00070279  -0.00000000  -0.00000000         -103.38       -0.00       -0.00
  -0.00000000  -0.00070279  -0.00000000           -0.00     -103.38       -0.00
  -0.00000000  -0.00000000  -0.00070278           -0.00       -0.00     -103.38

     kinetic stress (kbar)  16709.14      0.00     -0.00
                                0.00  16709.14      0.00
                                0.00      0.00  16709.13

     local   stress (kbar)  -7737.11      0.01      0.01
                                0.01  -7737.14      0.06
                                0.01      0.06  -7737.11

     nonloc. stress (kbar)   3863.62      0.00      0.00
                                0.00   3863.62      0.00
                                0.00      0.00   3863.63

     hartree stress (kbar)   7495.37     -0.00      0.01
                               -0.00   7495.42     -0.01
                                0.01     -0.01   7495.39

     exc-cor stress (kbar)  -2672.42      0.00      0.00
                                0.00  -2672.42     -0.00
                                0.00     -0.00  -2672.42

     corecor stress (kbar)   -787.21      0.00      0.00
                                0.00   -787.21      0.00
                                0.00      0.00   -787.21

     ewald   stress (kbar) -16974.80     -0.00     -0.00
                               -0.00 -16974.80     -0.00
                               -0.00     -0.00 -16974.80

     hubbard stress (kbar)      0.00      0.00      0.00
                                0.00      0.00      0.00
                                0.00      0.00      0.00

     DFT-D   stress (kbar)      0.00      0.00      0.00
                                0.00      0.00      0.00
                                0.00      0.00      0.00

     XDM     stress (kbar)      0.00      0.00      0.00
                                0.00      0.00      0.00
                                0.00      0.00      0.00

     dft-nl  stress (kbar)      0.00      0.00      0.00
                                0.00      0.00      0.00
                                0.00      0.00      0.00

     TS-vdW  stress (kbar)      0.00      0.00      0.00
                                0.00      0.00      0.00
                                0.00      0.00      0.00

[...]

                                0.00      0.00      0.00

     Writing all to output data dir new_calculations/myprefix.save/

     General routines

     Parallel routines

   This run was terminated on:  14:20:47  20May2023

   JOB DONE.