     Program PWSCF v.7.0 starts on 20May2023 at  8:29:49

     Reading input from espresso_8293.pwi
Warning: card &CELL ignored
Warning: card / ignored

     Current dimensions of program PWSCF are:
     Max number of different atomic species (ntypx) = 10
     Max number of k-points (npk) =  40000
     Max angular momentum in pseudopotentials (lmaxx) =  4

     gamma-point specific algorithms are used
     Message from routine setup:
     using ibrav=0 with symmetry is DISCOURAGED, use correct ibrav instead

     Subspace diagonalization in iterative solution of the eigenvalue problem:
     a serial algorithm will be used

     Using Slab Decomposition

     bravais-lattice index     =            0
     lattice parameter (alat)  =      12.5739  a.u.
     unit-cell volume          =    1034.8626 (a.u.)^3
     number of atoms/cell      =           10
     number of atomic types    =            3
     number of electrons       =        80.00
     number of Kohn-Sham states=           48
     kinetic-energy cutoff     =      30.0000  Ry
     charge density cutoff     =     240.0000  Ry
     scf convergence threshold =      1.0E-06
     mixing beta               =       0.7000
     number of iterations used =            8  plain     mixing
     Exchange-correlation= PBE
                           (   1   4   3   4   0   0   0)

     celldm(1)=  12.573875  celldm(2)=   0.000000  celldm(3)=   0.000000
     celldm(4)=   0.000000  celldm(5)=   0.000000  celldm(6)=   0.000000

     crystal axes: (cart. coord. in units of alat)
               a(1) = (   1.000000   0.000000   0.000000 )
               a(2) = (  -0.799693   0.600409   0.000000 )
               a(3) = (   0.000000   0.000000   0.867019 )

     reciprocal axes: (cart. coord. in units 2 pi/alat)
               b(1) = (  1.000000  1.331915  0.000000 )
               b(2) = (  0.000000  1.665533  0.000000 )
               b(3) = (  0.000000  0.000000  1.153378 )

     PseudoPot. # 1 for Sr read from file:
     /home/pragov/projects/rrg-bengioy-ad/pragov/crystal_structure_design/SSSP/Sr_pbe_v1.uspp.F.UPF
     MD5 check sum: 6b418c05fbe9db5448babca5e47b7a5b
     Pseudo is Ultrasoft + core correction, Zval = 10.0
     Generated by new atomic code, or converted to UPF format
     Using radial grid of  883 points,  6 beta functions with:
                l(1) =   0
                l(2) =   0
                l(3) =   1
                l(4) =   1
                l(5) =   2
                l(6) =   2
     Q(r) pseudized with  6 coefficients,  rinner =    1.400   1.400   1.400
                                                       1.400   1.400

     PseudoPot. # 2 for Tc read from file:
     /home/pragov/projects/rrg-bengioy-ad/pragov/crystal_structure_design/SSSP/Tc_ONCV_PBE-1.0.oncvpsp.upf
     MD5 check sum: 1c2b1e6c8b361b656073c0c20ed4f60a
     Pseudo is Norm-conserving, Zval = 15.0
     Generated using ONCVPSP code by D. R. Hamann
     Using radial grid of 1492 points,  6 beta functions with:
                l(1) =   0
                l(2) =   0
                l(3) =   1
                l(4) =   1
                l(5) =   2
                l(6) =   2

     PseudoPot. # 3 for N  read from file:
     /home/pragov/projects/rrg-bengioy-ad/pragov/crystal_structure_design/SSSP/N.pbe-n-radius_5.UPF
     MD5 check sum: 16739722b17309cd8fe442a2ace49922
     Pseudo is Ultrasoft + core correction, Zval =  5.0
     Generated using "atomic" code by A. Dal Corso  v.5.1
     Using radial grid of 1085 points,  4 beta functions with:
                l(1) =   0
                l(2) =   0
                l(3) =   1
                l(4) =   1
     Q(r) pseudized with 0 coefficients

     atomic species   valence    mass     pseudopotential
        Sr            10.00    87.62000     Sr( 1.00)
        Tc            15.00    97.90721     Tc( 1.00)
        N              5.00    14.00700     N ( 1.00)

      4 Sym. Ops., with inversion, found ( 2 have fractional translation)

                                    s                        frac. trans.

      isym =  1     identity

 cryst.   s( 1) = (     1          0          0      )
                  (     0          1          0      )
                  (     0          0          1      )

 cart.    s( 1) = (  1.0000000  0.0000000  0.0000000 )
                  (  0.0000000  1.0000000  0.0000000 )
                  (  0.0000000  0.0000000  1.0000000 )

      isym =  2     180 deg rotation - cart. axis [0,0,1]

 cryst.   s( 2) = (    -1          0          0      )    f =( -0.0000000 )
                  (     0         -1          0      )       ( -0.0000000 )
                  (     0          0          1      )       ( -0.5000000 )

 cart.    s( 2) = ( -1.0000000 -0.0000000  0.0000000 )    f =( -0.0000000 )
                  (  0.0000000 -1.0000000  0.0000000 )       ( -0.0000000 )
                  (  0.0000000  0.0000000  1.0000000 )       ( -0.4335093 )

      isym =  3     inversion

 cryst.   s( 3) = (    -1          0          0      )
                  (     0         -1          0      )
                  (     0          0         -1      )

 cart.    s( 3) = ( -1.0000000 -0.0000000  0.0000000 )
                  (  0.0000000 -1.0000000  0.0000000 )
                  (  0.0000000  0.0000000 -1.0000000 )

      isym =  4     inv. 180 deg rotation - cart. axis [0,0,1]

 cryst.   s( 4) = (     1          0          0      )    f =(  0.0000000 )
                  (     0          1          0      )       (  0.0000000 )
                  (     0          0         -1      )       (  0.5000000 )

 cart.    s( 4) = (  1.0000000  0.0000000  0.0000000 )    f =(  0.0000000 )
                  (  0.0000000  1.0000000  0.0000000 )       (  0.0000000 )
                  (  0.0000000  0.0000000 -1.0000000 )       (  0.4335093 )

   Cartesian axes

     site n.     atom                  positions (alat units)
         1           Sr  tau(   1) = (   0.3327151   0.2226177   0.2167546  )
         2           Sr  tau(   2) = (  -0.1324085   0.3777909   0.6502639  )
         3           Tc  tau(   3) = (  -0.6285138   0.5433001   0.6502639  )
         4           Tc  tau(   4) = (   0.8288204   0.0571085   0.2167546  )
         5           N   tau(   5) = (  -0.2238801   0.5089543   0.2167546  )
         6           N   tau(   6) = (  -0.2843094   0.3278207   0.2167546  )
         7           N   tau(   7) = (   0.0000000   0.0000000   0.4335093  )
         8           N   tau(   8) = (   0.4241867   0.0914542   0.6502639  )
         9           N   tau(   9) = (   0.4846160   0.2725879   0.6502639  )
        10           N   tau(  10) = (   0.0000000   0.0000000   0.0000000  )

   Crystallographic axes

     site n.     atom                  positions (cryst. coord.)
         1           Sr  tau(   1) = (  0.6292230  0.3707770  0.2500000  )
         2           Sr  tau(   2) = (  0.3707770  0.6292230  0.7500000  )
         3           Tc  tau(   3) = (  0.0951160  0.9048840  0.7500000  )
         4           Tc  tau(   4) = (  0.9048840  0.0951160  0.2500000  )
         5           N   tau(   5) = (  0.4540040  0.8476800  0.2500000  )
         6           N   tau(   6) = (  0.1523200  0.5459960  0.2500000  )
         7           N   tau(   7) = (  0.0000000  0.0000000  0.5000000  )
         8           N   tau(   8) = (  0.5459960  0.1523200  0.7500000  )
         9           N   tau(   9) = (  0.8476800  0.4540040  0.7500000  )
        10           N   tau(  10) = (  0.0000000  0.0000000  0.0000000  )

     number of k points=     1  Methfessel-Paxton smearing, width (Ry)=  0.0010
                       cart. coord. in units 2pi/alat
        k(    1) = (   0.0000000   0.0000000   0.0000000), wk =   2.0000000

                       cryst. coord.
        k(    1) = (   0.0000000   0.0000000   0.0000000), wk =   2.0000000

     Check: negative core charge=   -0.000004

     Initial potential from superposition of free atoms

     starting charge      79.9312, renormalised to      80.0000

     negative rho (up, down):  1.281E-01 0.000E+00
     Starting wfcs are   70 randomized atomic wfcs

     Self-consistent Calculation

     iteration #  1     ecut=    30.00 Ry     beta= 0.70
     Davidson diagonalization with overlap

     ethr =  1.00E-02,  avg # of iterations =  2.0

     negative rho (up, down):  1.303E-01 0.000E+00

     total energy              =    -582.61012627 Ry
     estimated scf accuracy    <       2.53373495 Ry

[...]

     total energy              =    -583.87275832 Ry
     estimated scf accuracy    <       0.00000361 Ry

     iteration # 23     ecut=    30.00 Ry     beta= 0.70
     Davidson diagonalization with overlap

     ethr =  4.51E-09,  avg # of iterations =  2.0

[...]

     End of self-consistent calculation

          k = 0.0000 0.0000 0.0000 (  1429 PWs)   bands (ev):

   -56.8738 -56.8724 -29.2452 -29.2201 -29.1760 -29.1591 -28.8267 -28.8229
   -24.6624 -24.6537 -10.6428 -10.5154  -6.8933  -6.7818  -6.7529  -6.6587
    -6.6420  -6.6190  -3.8387  -3.4962  -1.0304  -0.8640   2.4809   2.6524
     3.4545   3.6086   3.7943   4.0269   4.9432   5.2408   6.0145   6.0830
     6.5642   7.7336   8.6582   8.9792   9.1000  10.1653  10.4259  10.6283
    10.6337  11.1143  11.9683  12.6785  13.1457  13.5601  13.7088  13.8076

     occupation numbers
     1.0000   1.0000   1.0000   1.0000   1.0000   1.0000   1.0000   1.0000
     1.0000   1.0000   1.0000   1.0000   1.0000   1.0000   1.0000   1.0000
     1.0000   1.0000   1.0000   1.0000   1.0000   1.0000   1.0000   1.0000
     1.0000   1.0000   1.0000   1.0000   1.0000   1.0000   1.0000   1.0000
     1.0000   1.0000   1.0000   1.0000   1.0000   1.0000   1.0000   0.6625
     0.3375  -0.0000  -0.0000  -0.0000  -0.0000  -0.0000  -0.0000  -0.0000

     the Fermi energy is    10.6310 ev

!    total energy              =    -583.87275778 Ry
     estimated scf accuracy    <       0.00000091 Ry
     smearing contrib. (-TS)   =      -0.00050110 Ry
     internal energy E=F+TS    =    -583.87225668 Ry

     The total energy is F=E-TS. E is the sum of the following terms:
     one-electron contribution =    -224.82217404 Ry
     hartree contribution      =     145.90018988 Ry
     xc contribution           =    -104.20699879 Ry
     ewald contribution        =    -400.74327373 Ry

     convergence has been achieved in  23 iterations

     negative rho (up, down):  1.341E-01 0.000E+00

     Forces acting on atoms (cartesian axes, Ry/au):

     atom    1 type  1   force =    -0.02445002    0.00815684    0.00000000
     atom    2 type  1   force =     0.02445002   -0.00815684    0.00000000
     atom    3 type  2   force =    -0.32179348    0.10735508    0.00000000
     atom    4 type  2   force =     0.32179348   -0.10735508    0.00000000
     atom    5 type  3   force =    -0.15619801    0.08226218    0.00000000
     atom    6 type  3   force =    -0.17430130    0.02799786    0.00000000
     atom    7 type  3   force =     0.00000000    0.00000000    0.00000000
     atom    8 type  3   force =     0.15619801   -0.08226218    0.00000000
     atom    9 type  3   force =     0.17430130   -0.02799786    0.00000000
     atom   10 type  3   force =     0.00000000    0.00000000    0.00000000
     The non-local contrib.  to forces
     atom    1 type  1   force =     0.02148740   -0.00716881    0.00000000
     atom    2 type  1   force =    -0.02148740    0.00716881    0.00000000
     atom    3 type  2   force =     0.04928955   -0.01644469    0.00000000
     atom    4 type  2   force =    -0.04928955    0.01644469    0.00000000
     atom    5 type  3   force =     0.25728704   -1.32146927    0.00000000
     atom    6 type  3   force =     0.99917315    0.90229293    0.00000000
     atom    7 type  3   force =     0.00000000    0.00000000    0.00000000
     atom    8 type  3   force =    -0.25728704    1.32146927    0.00000000
     atom    9 type  3   force =    -0.99917315   -0.90229293    0.00000000
     atom   10 type  3   force =     0.00000000    0.00000000    0.00000000
     The ionic contribution  to forces
     atom    1 type  1   force =    -0.21656589    0.07225009    0.00000000
     atom    2 type  1   force =     0.21656589   -0.07225009   -0.00000000
     atom    3 type  2   force =     1.78703520   -0.59618557   -0.00000000
     atom    4 type  2   force =    -1.78703520    0.59618557    0.00000000
     atom    5 type  3   force =    -4.05902866    3.48748217    0.00000000
     atom    6 type  3   force =    -5.33989265   -0.35184093    0.00000000
     atom    7 type  3   force =    -0.00000000   -0.00000000   -0.00000000
     atom    8 type  3   force =     4.05902866   -3.48748217   -0.00000000
     atom    9 type  3   force =     5.33989265    0.35184093   -0.00000000
     atom   10 type  3   force =    -0.00000000   -0.00000000    0.00000000
     The local contribution  to forces
     atom    1 type  1   force =     0.17210215   -0.05741685   -0.00016452
     atom    2 type  1   force =    -0.17202073    0.05738988    0.00016998
     atom    3 type  2   force =    -2.15954423    0.72046849    0.00062122
     atom    4 type  2   force =     2.15929233   -0.72037453   -0.00065555
     atom    5 type  3   force =     3.64843009   -2.09373418   -0.00014359
     atom    6 type  3   force =     4.17472057   -0.51620540   -0.00016847
     atom    7 type  3   force =     0.00036010   -0.00011726    0.00042883
     atom    8 type  3   force =    -3.64905135    2.09380815    0.00014161
     atom    9 type  3   force =    -4.17526557    0.51650871    0.00016680
     atom   10 type  3   force =     0.00034287   -0.00010891   -0.00042145
     The core correction contribution to forces
     atom    1 type  1   force =    -0.00187259    0.00062475   -0.00000028
     atom    2 type  1   force =     0.00187378   -0.00062513    0.00000012
     atom    3 type  2   force =     0.00000000    0.00000000    0.00000000
     atom    4 type  2   force =     0.00000000    0.00000000    0.00000000
     atom    5 type  3   force =    -0.00293426    0.01011129   -0.00000081
     atom    6 type  3   force =    -0.00841742   -0.00632420   -0.00000115
     atom    7 type  3   force =     0.00000006   -0.00000002   -0.00000084
     atom    8 type  3   force =     0.00293334   -0.01011049    0.00000079
     atom    9 type  3   force =     0.00841621    0.00632407    0.00000113
     atom   10 type  3   force =    -0.00000004    0.00000006    0.00000106
     The Hubbard contrib.    to forces
     atom    1 type  1   force =     0.00000000    0.00000000    0.00000000
     atom    2 type  1   force =     0.00000000    0.00000000    0.00000000
     atom    3 type  2   force =     0.00000000    0.00000000    0.00000000
     atom    4 type  2   force =     0.00000000    0.00000000    0.00000000
     atom    5 type  3   force =     0.00000000    0.00000000    0.00000000
     atom    6 type  3   force =     0.00000000    0.00000000    0.00000000
     atom    7 type  3   force =     0.00000000    0.00000000    0.00000000
     atom    8 type  3   force =     0.00000000    0.00000000    0.00000000
     atom    9 type  3   force =     0.00000000    0.00000000    0.00000000
     atom   10 type  3   force =     0.00000000    0.00000000    0.00000000
     The SCF correction term to forces
     atom    1 type  1   force =     0.00041316   -0.00013699    0.00016141
     atom    2 type  1   force =    -0.00046726    0.00015505   -0.00016632
     atom    3 type  2   force =     0.00126713   -0.00043094   -0.00058018
     atom    4 type  2   force =    -0.00133295    0.00044141    0.00060498
     atom    5 type  3   force =     0.00003788   -0.00008067    0.00007618
     atom    6 type  3   force =     0.00007841    0.00004273    0.00007675
     atom    7 type  3   force =    -0.00035911    0.00011829   -0.00047547
     atom    8 type  3   force =     0.00056449    0.00010023   -0.00007511
     atom    9 type  3   force =     0.00039453   -0.00041138   -0.00007615
     atom   10 type  3   force =    -0.00034681    0.00011429    0.00048594

     Total force =     0.596775     Total SCF correction =     0.002526

     Computing stress (Cartesian axis) and pressure

     negative rho (up, down):  1.341E-01 0.000E+00
          total   stress  (Ry/bohr**3)                   (kbar)     P=      -12.90
   0.00061004  -0.00043888   0.00000000           89.74      -64.56        0.00
  -0.00043888  -0.00055907   0.00000000          -64.56      -82.24        0.00
   0.00000000   0.00000000  -0.00031404            0.00        0.00      -46.20

     kinetic stress (kbar)  20337.35   -203.14      0.00
                             -203.14  19796.21      0.00
                                0.00      0.00  19769.82

     local   stress (kbar) -13853.97   -250.04      0.17
                             -250.04 -14520.04     -0.08
                                0.17     -0.08  -7514.70

     nonloc. stress (kbar)   8279.43    -33.92      0.00
                              -33.92   8189.09      0.00
                                0.00      0.00   8206.98

     hartree stress (kbar)   7546.28     49.76     -0.15
                               49.76   7678.82      0.06
                               -0.15      0.06   5514.52

     exc-cor stress (kbar)  -1001.04      2.80      0.00
                                2.80   -993.58      0.00
                                0.00      0.00  -1015.56

     corecor stress (kbar)  -3166.70      1.21     -0.00
                                1.21  -3163.48      0.00
                               -0.00      0.00  -3162.73

     ewald   stress (kbar) -18051.62    368.78     -0.00
                              368.78 -17069.26     -0.00
                               -0.00     -0.00 -21844.53

     hubbard stress (kbar)      0.00      0.00      0.00
                                0.00      0.00      0.00
                                0.00      0.00      0.00

     DFT-D   stress (kbar)      0.00      0.00      0.00
                                0.00      0.00      0.00
                                0.00      0.00      0.00

     XDM     stress (kbar)      0.00      0.00      0.00
                                0.00      0.00      0.00
                                0.00      0.00      0.00

     dft-nl  stress (kbar)      0.00      0.00      0.00
                                0.00      0.00      0.00
                                0.00      0.00      0.00

     TS-vdW  stress (kbar)      0.00      0.00      0.00
                                0.00      0.00      0.00
                                0.00      0.00      0.00

[...]

                                0.00      0.00      0.00

     Writing all to output data dir new_calculations/myprefix.save/

     General routines

     Parallel routines

   This run was terminated on:   8:30: 3  20May2023

   JOB DONE.