     Program PWSCF v.7.0 starts on 20May2023 at  8:33:15

     Reading input from espresso_5264.pwi
Warning: card &CELL ignored
Warning: card / ignored

     Current dimensions of program PWSCF are:
     Max number of different atomic species (ntypx) = 10
     Max number of k-points (npk) =  40000
     Max angular momentum in pseudopotentials (lmaxx) =  4

     gamma-point specific algorithms are used
     Message from routine setup:
     using ibrav=0 with symmetry is DISCOURAGED, use correct ibrav instead

     Subspace diagonalization in iterative solution of the eigenvalue problem:
     a serial algorithm will be used

     Using Slab Decomposition

     bravais-lattice index     =            0
     lattice parameter (alat)  =       7.3731  a.u.
     unit-cell volume          =    1254.9517 (a.u.)^3
     number of atoms/cell      =           12
     number of atomic types    =            3
     number of electrons       =       140.00
     number of Kohn-Sham states=           84
     kinetic-energy cutoff     =      30.0000  Ry
     charge density cutoff     =     240.0000  Ry
     scf convergence threshold =      1.0E-06
     mixing beta               =       0.7000
     number of iterations used =            8  plain     mixing
     Exchange-correlation= PBE
                           (   1   4   3   4   0   0   0)

     celldm(1)=   7.373086  celldm(2)=   0.000000  celldm(3)=   0.000000
     celldm(4)=   0.000000  celldm(5)=   0.000000  celldm(6)=   0.000000

     crystal axes: (cart. coord. in units of alat)
               a(1) = (   1.000000   0.000000   0.000000 )
               a(2) = (   0.000000   1.664910   0.000000 )
               a(3) = (   0.000000   0.000000   1.880565 )

     reciprocal axes: (cart. coord. in units 2 pi/alat)
               b(1) = (  1.000000  0.000000  0.000000 )
               b(2) = (  0.000000  0.600633  0.000000 )
               b(3) = (  0.000000  0.000000  0.531755 )

     PseudoPot. # 1 for Zr read from file:
     /home/pragov/projects/rrg-bengioy-ad/pragov/crystal_structure_design/SSSP/Zr_pbe_v1.uspp.F.UPF
     MD5 check sum: 5db81b1e868ab7776c4564c113de050b
     Pseudo is Ultrasoft + core correction, Zval = 12.0
     Generated by new atomic code, or converted to UPF format
     Using radial grid of  887 points,  6 beta functions with:
                l(1) =   0
                l(2) =   0
                l(3) =   1
                l(4) =   1
                l(5) =   2
                l(6) =   2
     Q(r) pseudized with  6 coefficients,  rinner =    1.200   1.200   1.200
                                                       1.200   1.200

     PseudoPot. # 2 for Ni read from file:
     /home/pragov/projects/rrg-bengioy-ad/pragov/crystal_structure_design/SSSP/ni_pbe_v1.4.uspp.F.UPF
     MD5 check sum: 1ee80287db30b12d2bc1f57a5b5d6409
     Pseudo is Ultrasoft + core correction, Zval = 18.0
     Generated by new atomic code, or converted to UPF format
     Using radial grid of  865 points,  6 beta functions with:
                l(1) =   0
                l(2) =   0
                l(3) =   1
                l(4) =   1
                l(5) =   2
                l(6) =   2
     Q(r) pseudized with 10 coefficients,  rinner =    0.980   0.980   0.980
                                                       0.980   0.980

     PseudoPot. # 3 for As read from file:
     /home/pragov/projects/rrg-bengioy-ad/pragov/crystal_structure_design/SSSP/As.pbe-n-rrkjus_psl.0.2.UPF
     MD5 check sum: 767315de957beeeb34f87d97bf945c8f
     Pseudo is Ultrasoft + core correction, Zval =  5.0
     Generated using "atomic" code by A. Dal Corso  v.5.0.99 svn rev. 10869
     Using radial grid of 1209 points,  4 beta functions with:
                l(1) =   0
                l(2) =   0
                l(3) =   1
                l(4) =   1
     Q(r) pseudized with 0 coefficients

     atomic species   valence    mass     pseudopotential
        Zr            12.00    91.22400     Zr( 1.00)
        Ni            18.00    58.69340     Ni( 1.00)
        As             5.00    74.92159     As( 1.00)

      8 Sym. Ops., with inversion, found ( 6 have fractional translation)

                                    s                        frac. trans.

      isym =  1     identity

 cryst.   s( 1) = (     1          0          0      )
                  (     0          1          0      )
                  (     0          0          1      )

 cart.    s( 1) = (  1.0000000  0.0000000  0.0000000 )
                  (  0.0000000  1.0000000  0.0000000 )
                  (  0.0000000  0.0000000  1.0000000 )

      isym =  2     180 deg rotation - cart. axis [0,0,1]

 cryst.   s( 2) = (    -1          0          0      )    f =(  0.0000000 )
                  (     0         -1          0      )       (  0.5000000 )
                  (     0          0          1      )       ( -0.5000000 )

 cart.    s( 2) = ( -1.0000000  0.0000000  0.0000000 )    f =(  0.0000000 )
                  (  0.0000000 -1.0000000  0.0000000 )       (  0.8324552 )
                  (  0.0000000  0.0000000  1.0000000 )       ( -0.9402824 )

[...]

      isym =  4     180 deg rotation - cart. axis [1,0,0]

[...]

      isym =  5     inversion

 cryst.   s( 5) = (    -1          0          0      )
                  (     0         -1          0      )
                  (     0          0         -1      )

 cart.    s( 5) = ( -1.0000000  0.0000000  0.0000000 )
                  (  0.0000000 -1.0000000  0.0000000 )
                  (  0.0000000  0.0000000 -1.0000000 )

      isym =  6     inv. 180 deg rotation - cart. axis [0,0,1]

[...]

      isym =  8     inv. 180 deg rotation - cart. axis [1,0,0]

 cryst.   s( 8) = (    -1          0          0      )    f =(  0.5000000 )
                  (     0          1          0      )       (  0.0000000 )
                  (     0          0          1      )       (  0.0000000 )

 cart.    s( 8) = ( -1.0000000  0.0000000  0.0000000 )    f =(  0.5000000 )
                  (  0.0000000  1.0000000  0.0000000 )       (  0.0000000 )
                  (  0.0000000  0.0000000  1.0000000 )       (  0.0000000 )

   Cartesian axes

     site n.     atom                  positions (alat units)
         1           Zr  tau(   1) = (   0.2500000   0.8111044   0.3549265  )
         2           Zr  tau(   2) = (   0.7500000   0.8538060   1.5256382  )
         3           Zr  tau(   3) = (   0.7500000   0.0213508   1.2952088  )
         4           Zr  tau(   4) = (   0.2500000   1.6435595   0.5853559  )
         5           Ni  tau(   5) = (   0.2500000   1.3891229   1.7399774  )
         6           Ni  tau(   6) = (   0.7500000   0.2757874   0.1405873  )
         7           Ni  tau(   7) = (   0.7500000   1.1082426   0.7996951  )
         8           Ni  tau(   8) = (   0.2500000   0.5566678   1.0808696  )
         9           As  tau(   9) = (   0.2500000   1.1936858   1.1367073  )
        10           As  tau(  10) = (   0.7500000   0.4712246   0.7438574  )
        11           As  tau(  11) = (   0.7500000   1.3036797   0.1964250  )
        12           As  tau(  12) = (   0.2500000   0.3612306   1.6841397  )

   Crystallographic axes

     site n.     atom                  positions (cryst. coord.)
         1           Zr  tau(   1) = (  0.2500000  0.4871760  0.1887340  )
         2           Zr  tau(   2) = (  0.7500000  0.5128240  0.8112660  )
         3           Zr  tau(   3) = (  0.7500000  0.0128240  0.6887340  )
         4           Zr  tau(   4) = (  0.2500000  0.9871760  0.3112660  )
         5           Ni  tau(   5) = (  0.2500000  0.8343530  0.9252420  )
         6           Ni  tau(   6) = (  0.7500000  0.1656470  0.0747580  )
         7           Ni  tau(   7) = (  0.7500000  0.6656470  0.4252420  )
         8           Ni  tau(   8) = (  0.2500000  0.3343530  0.5747580  )
         9           As  tau(   9) = (  0.2500000  0.7169670  0.6044500  )
        10           As  tau(  10) = (  0.7500000  0.2830330  0.3955500  )
        11           As  tau(  11) = (  0.7500000  0.7830330  0.1044500  )
        12           As  tau(  12) = (  0.2500000  0.2169670  0.8955500  )

     number of k points=     1  Methfessel-Paxton smearing, width (Ry)=  0.0010
                       cart. coord. in units 2pi/alat
        k(    1) = (   0.0000000   0.0000000   0.0000000), wk =   2.0000000

                       cryst. coord.
        k(    1) = (   0.0000000   0.0000000   0.0000000), wk =   2.0000000

     Check: negative core charge=   -0.000003

     Initial potential from superposition of free atoms

     starting charge     131.9905, renormalised to     140.0000

     negative rho (up, down):  2.559E-01 0.000E+00
     Starting wfcs are  120 randomized atomic wfcs

     Self-consistent Calculation

     iteration #  1     ecut=    30.00 Ry     beta= 0.70
     Davidson diagonalization with overlap

     ethr =  1.00E-02,  avg # of iterations =  4.0

     negative rho (up, down):  2.239E-01 0.000E+00

     total energy              =   -1713.40572953 Ry
     estimated scf accuracy    <     169.04169386 Ry

[...]

     total energy              =   -1842.19026532 Ry
     estimated scf accuracy    <       0.00000641 Ry

     iteration # 25     ecut=    30.00 Ry     beta= 0.70
     Davidson diagonalization with overlap

     ethr =  4.58E-09,  avg # of iterations =  2.0

[...]

     End of self-consistent calculation

          k = 0.0000 0.0000 0.0000 (  1761 PWs)   bands (ev):

   -88.4731 -88.4713 -88.4698 -88.4695 -49.0067 -49.0065 -48.9989 -48.9952
   -48.8953 -48.8927 -48.8868 -48.8810 -48.5661 -48.5630 -48.5506 -48.5454
   -33.1206 -33.0947 -33.0927 -33.0676 -11.5297 -11.4897 -11.3531 -11.2884
   -11.2835 -11.2777 -11.1483 -11.1017 -11.0618 -11.0171 -10.9948 -10.9471
     2.2133   3.5399   3.5742   3.8907   8.9082   9.1206  10.1993  10.3231
    10.5441  10.6917  11.1551  11.2467  11.2548  11.6856  11.7723  11.8242
    12.1336  12.5277  12.8464  12.9137  12.9165  12.9181  12.9466  13.0912
    13.3997  13.4316  13.4424  13.5118  13.8018  13.8933  13.9315  14.1433
    14.2490  14.4889  14.8604  14.9926  15.8276  15.8725  16.0390  16.1158
    16.3132  16.3896  16.5469  17.0692  17.3818  17.4194  17.8036  17.9191
    18.0115  18.1601  18.4585  18.6997

     occupation numbers
     1.0000   1.0000   1.0000   1.0000   1.0000   1.0000   1.0000   1.0000
     1.0000   1.0000   1.0000   1.0000   1.0000   1.0000   1.0000   1.0000
     1.0000   1.0000   1.0000   1.0000   1.0000   1.0000   1.0000   1.0000
     1.0000   1.0000   1.0000   1.0000   1.0000   1.0000   1.0000   1.0000
     1.0000   1.0000   1.0000   1.0000   1.0000   1.0000   1.0000   1.0000
     1.0000   1.0000   1.0000   1.0000   1.0000   1.0000   1.0000   1.0000
     1.0000   1.0000   1.0000   1.0000   1.0000   1.0000   1.0000   1.0000
     1.0000   1.0000   1.0000   1.0000   1.0000   1.0000   1.0000   1.0000
     1.0000   1.0000   1.0000   1.0000   1.0000   1.0000  -0.0000  -0.0000
    -0.0000  -0.0000  -0.0000  -0.0000  -0.0000  -0.0000  -0.0000  -0.0000
    -0.0000  -0.0000  -0.0000  -0.0000

     the Fermi energy is    15.9503 ev

!    total energy              =   -1842.19026538 Ry
     estimated scf accuracy    <       0.00000069 Ry
     smearing contrib. (-TS)   =       0.00000000 Ry
     internal energy E=F+TS    =   -1842.19026538 Ry

     The total energy is F=E-TS. E is the sum of the following terms:
     one-electron contribution =   -1121.01637706 Ry
     hartree contribution      =     636.12771046 Ry
     xc contribution           =    -251.24671914 Ry
     ewald contribution        =   -1106.05487965 Ry

     convergence has been achieved in  25 iterations

     negative rho (up, down):  2.423E-01 0.000E+00

     Forces acting on atoms (cartesian axes, Ry/au):

     atom    1 type  1   force =     0.00000000    0.00514530    0.02810435
     atom    2 type  1   force =     0.00000000   -0.00514530   -0.02810435
     atom    3 type  1   force =     0.00000000   -0.00514530    0.02810435
     atom    4 type  1   force =    -0.00000000    0.00514530   -0.02810435
     atom    5 type  2   force =     0.00000000    0.00230004   -0.02476087
     atom    6 type  2   force =     0.00000000   -0.00230004    0.02476087
     atom    7 type  2   force =     0.00000000   -0.00230004   -0.02476087
     atom    8 type  2   force =     0.00000000    0.00230004    0.02476087
     atom    9 type  3   force =     0.00000000    0.03233258    0.10152145
     atom   10 type  3   force =     0.00000000   -0.03233258   -0.10152145
     atom   11 type  3   force =     0.00000000   -0.03233258    0.10152145
     atom   12 type  3   force =     0.00000000    0.03233258   -0.10152145
     The non-local contrib.  to forces
     atom    1 type  1   force =     0.00000000   -0.00254839    0.06017742
     atom    2 type  1   force =     0.00000000    0.00254839   -0.06017742
     atom    3 type  1   force =     0.00000000    0.00254839    0.06017742
     atom    4 type  1   force =     0.00000000   -0.00254839   -0.06017742
     atom    5 type  2   force =     0.00000000   -0.15656646    0.63866258
     atom    6 type  2   force =     0.00000000    0.15656646   -0.63866258
     atom    7 type  2   force =    -0.00000000    0.15656646    0.63866258
     atom    8 type  2   force =     0.00000000   -0.15656646   -0.63866258
     atom    9 type  3   force =     0.00000000    0.04460716   -0.01169775
     atom   10 type  3   force =     0.00000000   -0.04460716    0.01169775
     atom   11 type  3   force =     0.00000000   -0.04460716   -0.01169775
     atom   12 type  3   force =     0.00000000    0.04460716    0.01169775
     The ionic contribution  to forces
     atom    1 type  1   force =     0.00000000   -0.07898179   -5.26683149
     atom    2 type  1   force =    -0.00000000    0.07898179    5.26683149
     atom    3 type  1   force =    -0.00000000    0.07898179   -5.26683149
     atom    4 type  1   force =     0.00000000   -0.07898179    5.26683149
     atom    5 type  2   force =     0.00000000   -6.57512221   -2.53169109
     atom    6 type  2   force =     0.00000000    6.57512221    2.53169109
     atom    7 type  2   force =    -0.00000000    6.57512221   -2.53169109
     atom    8 type  2   force =    -0.00000000   -6.57512221    2.53169109
     atom    9 type  3   force =     0.00000000    3.10895707    1.19136649
     atom   10 type  3   force =     0.00000000   -3.10895707   -1.19136649
     atom   11 type  3   force =     0.00000000   -3.10895707    1.19136649
     atom   12 type  3   force =     0.00000000    3.10895707   -1.19136649
     The local contribution  to forces
     atom    1 type  1   force =    -0.00000346    0.08658903    5.23692206
     atom    2 type  1   force =     0.00000501   -0.08699799   -5.23675918
     atom    3 type  1   force =     0.00000470   -0.08650204    5.23800895
     atom    4 type  1   force =    -0.00000383    0.08669949   -5.23891132
     atom    5 type  2   force =    -0.00000385    6.72775057    1.87875551
     atom    6 type  2   force =     0.00000384   -6.72756223   -1.87637061
     atom    7 type  2   force =     0.00000407   -6.73132355    1.87551000
     atom    8 type  2   force =    -0.00000571    6.73141300   -1.87721183
     atom    9 type  3   force =    -0.00000123   -3.11768019   -1.08112797
     atom   10 type  3   force =     0.00000095    3.11770676    1.08068879
     atom   11 type  3   force =     0.00000101    3.11641923   -1.08115197
     atom   12 type  3   force =    -0.00000101   -3.11635539    1.08178492
     The core correction contribution to forces
     atom    1 type  1   force =    -0.00000004   -0.00000899   -0.00314086
     atom    2 type  1   force =     0.00000008    0.00000407    0.00313648
     atom    3 type  1   force =     0.00000006    0.00000960   -0.00313439
     atom    4 type  1   force =    -0.00000003   -0.00000505    0.00313132
     atom    5 type  2   force =     0.00000001    0.00427735   -0.00845341
     atom    6 type  2   force =    -0.00000001   -0.00427670    0.00845188
     atom    7 type  2   force =    -0.00000001   -0.00427746   -0.00845350
     atom    8 type  2   force =     0.00000001    0.00427699    0.00845306
     atom    9 type  3   force =    -0.00000007   -0.00416033    0.00303430
     atom   10 type  3   force =     0.00000004    0.00416438   -0.00302721
     atom   11 type  3   force =     0.00000004    0.00412965    0.00301852
     atom   12 type  3   force =    -0.00000005   -0.00412972   -0.00300496
     The Hubbard contrib.    to forces
     atom    1 type  1   force =     0.00000000    0.00000000    0.00000000
     atom    2 type  1   force =     0.00000000    0.00000000    0.00000000
     atom    3 type  1   force =     0.00000000    0.00000000    0.00000000
     atom    4 type  1   force =     0.00000000    0.00000000    0.00000000
     atom    5 type  2   force =     0.00000000    0.00000000    0.00000000
     atom    6 type  2   force =     0.00000000    0.00000000    0.00000000
     atom    7 type  2   force =     0.00000000    0.00000000    0.00000000
     atom    8 type  2   force =     0.00000000    0.00000000    0.00000000
     atom    9 type  3   force =     0.00000000    0.00000000    0.00000000
     atom   10 type  3   force =     0.00000000    0.00000000    0.00000000
     atom   11 type  3   force =     0.00000000    0.00000000    0.00000000
     atom   12 type  3   force =     0.00000000    0.00000000    0.00000000
     The SCF correction term to forces
     atom    1 type  1   force =     0.00000298    0.00010608    0.00086829
     atom    2 type  1   force =    -0.00000384    0.00030207   -0.00110599
     atom    3 type  1   force =    -0.00000367   -0.00018529   -0.00005998
     atom    4 type  1   force =     0.00000340   -0.00004820    0.00093909
     atom    5 type  2   force =     0.00000560    0.00189183   -0.00206563
     atom    6 type  2   force =    -0.00000546   -0.00212343   -0.00036709
     atom    7 type  2   force =    -0.00000568    0.00154631    0.00118377
     atom    8 type  2   force =     0.00000789   -0.00167195    0.00045075
     atom    9 type  3   force =     0.00000091    0.00050780    0.00004350
     atom   10 type  3   force =    -0.00000077   -0.00049163    0.00044677
     atom   11 type  3   force =    -0.00000090    0.00056159   -0.00005263
     atom   12 type  3   force =     0.00000084   -0.00061881   -0.00053543

     Total force =     0.226157     Total SCF correction =     0.004896

     Computing stress (Cartesian axis) and pressure

     negative rho (up, down):  2.423E-01 0.000E+00
          total   stress  (Ry/bohr**3)                   (kbar)     P=     -459.02
  -0.00174671   0.00000000   0.00000000         -256.95        0.00        0.00
   0.00000000  -0.00429787   0.00000000            0.00     -632.24        0.00
   0.00000000   0.00000000  -0.00331657            0.00        0.00     -487.88

     kinetic stress (kbar)  25253.88      0.00      0.00
                                0.00  25386.46      0.00
                                0.00      0.00  24840.37

     local   stress (kbar) -15793.10      0.00      0.00
                                0.00 -10866.15      0.04
                                0.00      0.04 -10588.65

     nonloc. stress (kbar)  13484.27      0.00      0.00
                                0.00  13644.92      0.00
                                0.00      0.00  13497.20

     hartree stress (kbar)  26317.86     -0.00     -0.00
                               -0.00  24414.40      0.03
                               -0.00      0.03  23834.45

     exc-cor stress (kbar)  -1739.69     -0.00     -0.00
                               -0.00  -1737.63     -0.00
                               -0.00     -0.00  -1747.76

     corecor stress (kbar)  -6647.11      0.00     -0.00
                                0.00  -6643.90      0.00
                               -0.00      0.00  -6635.46

     ewald   stress (kbar) -41133.07      0.00      0.00
                                0.00 -44830.34     -0.00
                                0.00     -0.00 -43688.03

     hubbard stress (kbar)      0.00      0.00      0.00
                                0.00      0.00      0.00
                                0.00      0.00      0.00

     DFT-D   stress (kbar)      0.00      0.00      0.00
                                0.00      0.00      0.00
                                0.00      0.00      0.00

     XDM     stress (kbar)      0.00      0.00      0.00
                                0.00      0.00      0.00
                                0.00      0.00      0.00

     dft-nl  stress (kbar)      0.00      0.00      0.00
                                0.00      0.00      0.00
                                0.00      0.00      0.00

     TS-vdW  stress (kbar)      0.00      0.00      0.00
                                0.00      0.00      0.00
                                0.00      0.00      0.00

[...]

                                0.00      0.00      0.00

     Writing all to output data dir new_calculations/myprefix.save/

     General routines

     Parallel routines

   This run was terminated on:   8:33:57  20May2023

   JOB DONE.