     Program PWSCF v.7.0 starts on 21May2023 at  5:57: 4

     Reading input from espresso_21621.pwi
Warning: card &CELL ignored
Warning: card / ignored

     Current dimensions of program PWSCF are:
     Max number of different atomic species (ntypx) = 10
     Max number of k-points (npk) =  40000
     Max angular momentum in pseudopotentials (lmaxx) =  4
     file O.pbe-n-kjpaw_psl.0.1.UPF: wavefunction(s)  2P renormalized

     gamma-point specific algorithms are used
     Message from routine setup:
     using ibrav=0 with symmetry is DISCOURAGED, use correct ibrav instead

     Subspace diagonalization in iterative solution of the eigenvalue problem:
     a serial algorithm will be used

     Using Slab Decomposition

     bravais-lattice index     =            0
     lattice parameter (alat)  =       9.7608  a.u.
     unit-cell volume          =    1158.5774 (a.u.)^3
     number of atoms/cell      =           14
     number of atomic types    =            4
     number of electrons       =        98.00
     number of Kohn-Sham states=           59
     kinetic-energy cutoff     =      30.0000  Ry
     charge density cutoff     =     240.0000  Ry
     scf convergence threshold =      1.0E-06
     mixing beta               =       0.7000
     number of iterations used =            8  plain     mixing
     Exchange-correlation=  SLA  PW   PBX  PBC
                           (   1   4   3   4   0   0   0)

     celldm(1)=   9.760848  celldm(2)=   0.000000  celldm(3)=   0.000000
     celldm(4)=   0.000000  celldm(5)=   0.000000  celldm(6)=   0.000000

     crystal axes: (cart. coord. in units of alat)
               a(1) = (   1.000000   0.000000   0.000000 )
               a(2) = (  -0.009562   0.999954   0.000000 )
               a(3) = (   0.458350   0.462754   1.245897 )

     reciprocal axes: (cart. coord. in units 2 pi/alat)
               b(1) = (  1.000000  0.009562 -0.371439 )
               b(2) = (  0.000000  1.000046 -0.371439 )
               b(3) = (  0.000000  0.000000  0.802634 )

     PseudoPot. # 1 for V  read from file:
     /home/pragov/projects/rrg-bengioy-ad/pragov/crystal_structure_design/SSSP/v_pbe_v1.4.uspp.F.UPF
     MD5 check sum: 22b79981416ebb76fdaf5b1b8640f6fb
     Pseudo is Ultrasoft + core correction, Zval = 13.0
     Generated by new atomic code, or converted to UPF format
     Using radial grid of  853 points,  6 beta functions with:
                l(1) =   0
                l(2) =   0
                l(3) =   1
                l(4) =   1
                l(5) =   2
                l(6) =   2
     Q(r) pseudized with  8 coefficients,  rinner =    1.100   1.100   1.100
                                                       1.100   1.100

     PseudoPot. # 2 for P  read from file:
     /home/pragov/projects/rrg-bengioy-ad/pragov/crystal_structure_design/SSSP/P.pbe-n-rrkjus_psl.1.0.0.UPF
     MD5 check sum: 8b930f418f0a4573dca56cd030ffe088
     Pseudo is Ultrasoft + core correction, Zval =  5.0
     Generated using "atomic" code by A. Dal Corso  v.5.1
     Using radial grid of 1147 points,  6 beta functions with:
                l(1) =   0
                l(2) =   0
                l(3) =   1
                l(4) =   1
                l(5) =   2
                l(6) =   2
     Q(r) pseudized with 0 coefficients

     PseudoPot. # 3 for O  read from file:
     /home/pragov/projects/rrg-bengioy-ad/pragov/crystal_structure_design/SSSP/O.pbe-n-kjpaw_psl.0.1.UPF
     MD5 check sum: 0234752ac141de4415c5fc33072bef88
     Pseudo is Projector augmented-wave + core cor, Zval =  6.0
     Generated using "atomic" code by A. Dal Corso  v.5.0.99 svn rev. 10869
     Shape of augmentation charge: BESSEL
     Using radial grid of 1095 points,  4 beta functions with:
                l(1) =   0
                l(2) =   0
                l(3) =   1
                l(4) =   1
     Q(r) pseudized with 0 coefficients

     PseudoPot. # 4 for F  read from file:
     /home/pragov/projects/rrg-bengioy-ad/pragov/crystal_structure_design/SSSP/f_pbe_v1.4.uspp.F.UPF
     MD5 check sum: 4c38b6a325caf53ec0e86aed9459de46
     Pseudo is Ultrasoft, Zval =  7.0
     Generated by new atomic code, or converted to UPF format
     Using radial grid of  799 points,  4 beta functions with:
                l(1) =   0
                l(2) =   0
                l(3) =   1
                l(4) =   1
     Q(r) pseudized with  8 coefficients,  rinner =    0.950   0.950   0.950

     atomic species   valence    mass     pseudopotential
        V             13.00    50.94150     V ( 1.00)
        P              5.00    30.97376     P ( 1.00)
        O              6.00    15.99900     O ( 1.00)
        F              7.00    18.99840     F ( 1.00)

      2 Sym. Ops., with inversion, found

                                    s                        frac. trans.

      isym =  1     identity

 cryst.   s( 1) = (     1          0          0      )
                  (     0          1          0      )
                  (     0          0          1      )

 cart.    s( 1) = (  1.0000000  0.0000000 -0.0000000 )
                  (  0.0000000  1.0000000 -0.0000000 )
                  (  0.0000000  0.0000000  1.0000000 )

      isym =  2     inversion

 cryst.   s( 2) = (    -1          0          0      )
                  (     0         -1          0      )
                  (     0          0         -1      )

 cart.    s( 2) = ( -1.0000000 -0.0000000  0.0000000 )
                  (  0.0000000 -1.0000000  0.0000000 )
                  (  0.0000000  0.0000000 -1.0000000 )

   Cartesian axes

     site n.     atom                  positions (alat units)
         1           V   tau(   1) = (   0.7291751   0.2313770   0.6229486  )
         2           V   tau(   2) = (  -0.0047809   0.4999771   0.0000000  )
         3           P   tau(   3) = (   0.4909742   0.7333673   0.3114743  )
         4           P   tau(   4) = (   0.9578143   0.7293410   0.9344229  )
         5           O   tau(   5) = (   0.5166253   0.5297991   0.5269323  )
         6           O   tau(   6) = (   0.6947783   0.7096638   0.0960163  )
         7           O   tau(   7) = (   0.9321631   0.9329091   0.7189649  )
         8           O   tau(   8) = (   0.7540102   0.7530445   1.1498809  )
         9           O   tau(   9) = (   0.2142956   0.7154612   0.1926693  )
        10           O   tau(  10) = (   0.5062339   1.0102044   0.4302793  )
        11           O   tau(  11) = (   1.2344929   0.7472470   1.0532279  )
        12           O   tau(  12) = (   0.9425546   0.4525038   0.8156179  )
        13           F   tau(  13) = (   0.5041011   1.1787365   0.9344229  )
        14           F   tau(  14) = (   0.9446874   0.2839718   0.3114743  )

   Crystallographic axes

     site n.     atom                  positions (cryst. coord.)
         1           V   tau(   1) = (  0.5000000 -0.0000000  0.5000000  )
         2           V   tau(   2) = ( -0.0000000  0.5000000  0.0000000  )
         3           P   tau(   3) = (  0.3822930  0.6177070  0.2500000  )
         4           P   tau(   4) = (  0.6177070  0.3822930  0.7500000  )
         5           O   tau(   5) = (  0.3259680  0.3341000  0.4229340  )
         6           O   tau(   6) = (  0.6659000  0.6740320  0.0770660  )
         7           O   tau(   7) = (  0.6740320  0.6659000  0.5770660  )
         8           O   tau(   8) = (  0.3341000  0.3259680  0.9229340  )
         9           O   tau(   9) = (  0.1495720  0.6439290  0.1546430  )
        10           O   tau(  10) = (  0.3560710  0.8504280  0.3453570  )
        11           O   tau(  11) = (  0.8504280  0.3560710  0.8453570  )
        12           O   tau(  12) = (  0.6439290  0.1495720  0.6546430  )
        13           F   tau(  13) = (  0.1682910  0.8317090  0.7500000  )
        14           F   tau(  14) = (  0.8317090  0.1682910  0.2500000  )

     number of k points=     1  Methfessel-Paxton smearing, width (Ry)=  0.0010
                       cart. coord. in units 2pi/alat
        k(    1) = (   0.0000000   0.0000000   0.0000000), wk =   2.0000000

                       cryst. coord.
        k(    1) = (   0.0000000   0.0000000   0.0000000), wk =   2.0000000

     Check: negative core charge=   -0.000013

     Initial potential from superposition of free atoms

     starting charge      97.9972, renormalised to      98.0000

     negative rho (up, down):  2.884E-03 0.000E+00
     Starting wfcs are   68 randomized atomic wfcs
     Checking if some PAW data can be deallocated...

     Self-consistent Calculation

     iteration #  1     ecut=    30.00 Ry     beta= 0.70
     Davidson diagonalization with overlap

     ethr =  1.00E-02,  avg # of iterations =  2.0

     negative rho (up, down):  4.498E-03 0.000E+00

     total energy              =    -746.66697466 Ry
     estimated scf accuracy    <       4.28572824 Ry

[...]

     total energy              =    -748.97089474 Ry
     estimated scf accuracy    <       0.00002201 Ry

     iteration # 35     ecut=    30.00 Ry     beta= 0.70
     Davidson diagonalization with overlap

     ethr =  1.08E-09,  avg # of iterations =  1.0

[...]

     End of self-consistent calculation

          k = 0.0000 0.0000 0.0000 (  1600 PWs)   bands (ev):

   -60.6700 -60.6690 -34.6306 -34.6283 -34.5316 -34.4865 -34.2412 -34.2393
   -18.5270 -18.2040 -16.5727 -16.2329 -14.2197 -13.9178 -13.9121 -13.8810
   -13.8617 -13.7573  -4.6442  -3.6276  -2.2481  -2.1370  -1.9638  -1.8006
    -1.3212  -1.0775  -0.9095  -0.4464  -0.3249  -0.2891   0.1321   0.3730
     0.5184   0.7402   1.3304   1.3343   1.5288   1.5672   1.7492   2.3079
     2.5160   2.6386   2.7903   3.2702   3.3094   3.4669   3.5562   3.7789
     5.6788   5.6807   5.6832   5.8417   5.9977   6.0363   6.7662   8.4214
     8.5161   8.9493  10.6427

     occupation numbers
     1.0000   1.0000   1.0000   1.0000   1.0000   1.0000   1.0000   1.0000
     1.0000   1.0000   1.0000   1.0000   1.0000   1.0000   1.0000   1.0000
     1.0000   1.0000   1.0000   1.0000   1.0000   1.0000   1.0000   1.0000
     1.0000   1.0000   1.0000   1.0000   1.0000   1.0000   1.0000   1.0000
     1.0000   1.0000   1.0000   1.0000   1.0000   1.0000   1.0000   1.0000
     1.0000   1.0000   1.0000   1.0000   1.0000   1.0000   1.0000   1.0000
     0.4544   0.3405   0.2051  -0.0000  -0.0000  -0.0000  -0.0000  -0.0000
    -0.0000  -0.0000  -0.0000

     the Fermi energy is     5.6780 ev

!    total energy              =    -748.97089473 Ry
     estimated scf accuracy    <       0.00000016 Ry
     smearing contrib. (-TS)   =      -0.00070684 Ry
     internal energy E=F+TS    =    -748.97018789 Ry

     The total energy is F=E-TS. E is the sum of the following terms:
     one-electron contribution =    -384.84722441 Ry
     hartree contribution      =     236.08589633 Ry
     xc contribution           =    -126.49151452 Ry
     ewald contribution        =    -397.59833207 Ry
     one-center paw contrib.   =     -76.11901323 Ry
      -> PAW hartree energy AE =     251.08158340 Ry
      -> PAW hartree energy PS =    -250.18314165 Ry
      -> PAW xc energy AE      =    -139.50027813 Ry
      -> PAW xc energy PS      =      62.48282315 Ry
      -> total E_H with PAW    =     236.98433808 Ry
      -> total E_XC with PAW   =    -203.50896950 Ry

     convergence has been achieved in  35 iterations

     negative rho (up, down):  3.862E-03 0.000E+00

     Forces acting on atoms (cartesian axes, Ry/au):

     atom    1 type  1   force =     0.00000000    0.00000000    0.00000000
     atom    2 type  1   force =     0.00000000    0.00000000    0.00000000
     atom    3 type  2   force =    -0.00752092    0.00743307   -0.00002035
     atom    4 type  2   force =     0.00752092   -0.00743307    0.00002035
     atom    5 type  3   force =     0.02070817   -0.01212009    0.02020175
     atom    6 type  3   force =     0.01231051   -0.02057523   -0.02019498
     atom    7 type  3   force =    -0.02070817    0.01212009   -0.02020175
     atom    8 type  3   force =    -0.01231051    0.02057523    0.02019498
     atom    9 type  3   force =    -0.00449504   -0.00681824   -0.00411357
     atom   10 type  3   force =     0.00677658    0.00455624    0.00413147
     atom   11 type  3   force =     0.00449504    0.00681824    0.00411357
     atom   12 type  3   force =    -0.00677658   -0.00455624   -0.00413147
     atom   13 type  4   force =     0.01055740   -0.01047545   -0.00003224
     atom   14 type  4   force =    -0.01055740    0.01047545    0.00003224
     The non-local contrib.  to forces
     atom    1 type  1   force =     0.00000000    0.00000000    0.00000000
     atom    2 type  1   force =     0.00000000    0.00000000    0.00000000
     atom    3 type  2   force =    -0.06137216    0.06082217    0.00001017
     atom    4 type  2   force =     0.06137216   -0.06082217   -0.00001017
     atom    5 type  3   force =     0.31570517    0.69111483   -1.29682710
     atom    6 type  3   force =    -0.68807417   -0.32232926    1.29681649
     atom    7 type  3   force =    -0.31570517   -0.69111483    1.29682710
     atom    8 type  3   force =     0.68807417    0.32232926   -1.29681649
     atom    9 type  3   force =     1.29411915   -0.43591391    0.26216591
     atom   10 type  3   force =     0.44832177   -1.28993735   -0.26214004
     atom   11 type  3   force =    -1.29411915    0.43591391   -0.26216591
     atom   12 type  3   force =    -0.44832177    1.28993735    0.26214004
     atom   13 type  4   force =     0.49606583   -0.49136686   -0.00002742
     atom   14 type  4   force =    -0.49606583    0.49136686    0.00002742
     The ionic contribution  to forces
     atom    1 type  1   force =    -0.00000000   -0.00000000    0.00000000
     atom    2 type  1   force =     0.00000000    0.00000000   -0.00000000
     atom    3 type  2   force =    -1.10063818    1.09016399   -0.00000000
     atom    4 type  2   force =     1.10063818   -1.09016399    0.00000000
     atom    5 type  3   force =    -6.20057057    1.77891065    3.73062392
     atom    6 type  3   force =    -1.83811764    6.18327762   -3.73062392
     atom    7 type  3   force =     6.20057057   -1.77891065   -3.73062392
     atom    8 type  3   force =     1.83811764   -6.18327762    3.73062392
     atom    9 type  3   force =    -0.47893464    7.00027258    3.08739377
     atom   10 type  3   force =    -7.00453202    0.41197789   -3.08739377
     atom   11 type  3   force =     0.47893464   -7.00027258   -3.08739377
     atom   12 type  3   force =     7.00453202   -0.41197789    3.08739377
     atom   13 type  4   force =    -5.84412247    5.78850705   -0.00000000
     atom   14 type  4   force =     5.84412247   -5.78850705   -0.00000000
     The local contribution  to forces
     atom    1 type  1   force =    -0.00000055   -0.00000063   -0.00000102
     atom    2 type  1   force =     0.00000031    0.00000057    0.00000093
     atom    3 type  2   force =     1.15094786   -1.14006037   -0.00011340
     atom    4 type  2   force =    -1.15094858    1.14006081    0.00011307
     atom    5 type  3   force =     5.90864609   -2.47659785   -2.42537133
     atom    6 type  3   force =     2.53304339   -5.88474455    2.42527232
     atom    7 type  3   force =    -5.90864641    2.47659745    2.42537119
     atom    8 type  3   force =    -2.53304307    5.88474463   -2.42527232
     atom    9 type  3   force =    -0.80788021   -6.57514864   -3.35152257
     atom   10 type  3   force =     6.56697956    0.87072968    3.35124819
     atom   11 type  3   force =     0.80788029    6.57514872    3.35152312
     atom   12 type  3   force =    -6.56697986   -0.87072996   -3.35124886
     atom   13 type  4   force =     5.35867990   -5.30764294    0.00018351
     atom   14 type  4   force =    -5.35867995    5.30764287   -0.00018353
     The core correction contribution to forces
     atom    1 type  1   force =    -0.00000000   -0.00000001   -0.00000001
     atom    2 type  1   force =     0.00000002    0.00000001    0.00000002
     atom    3 type  2   force =     0.00354403   -0.00351260   -0.00000124
     atom    4 type  2   force =    -0.00354406    0.00351260    0.00000123
     atom    5 type  3   force =    -0.00308335   -0.00553279    0.01170280
     atom    6 type  3   force =     0.00550316    0.00313676   -0.01170267
     atom    7 type  3   force =     0.00308335    0.00553279   -0.01170280
     atom    8 type  3   force =    -0.00550316   -0.00313676    0.01170267
     atom    9 type  3   force =    -0.01182271    0.00387569   -0.00227036
     atom   10 type  3   force =    -0.00398927    0.01178573    0.00227021
     atom   11 type  3   force =     0.01182270   -0.00387569    0.00227036
     atom   12 type  3   force =     0.00398926   -0.01178574   -0.00227022
     atom   13 type  4   force =     0.00000000    0.00000000    0.00000000
     atom   14 type  4   force =     0.00000000    0.00000000    0.00000000
     The Hubbard contrib.    to forces
     atom    1 type  1   force =     0.00000000    0.00000000    0.00000000
     atom    2 type  1   force =     0.00000000    0.00000000    0.00000000
     atom    3 type  2   force =     0.00000000    0.00000000    0.00000000
     atom    4 type  2   force =     0.00000000    0.00000000    0.00000000
     atom    5 type  3   force =     0.00000000    0.00000000    0.00000000
     atom    6 type  3   force =     0.00000000    0.00000000    0.00000000
     atom    7 type  3   force =     0.00000000    0.00000000    0.00000000
     atom    8 type  3   force =     0.00000000    0.00000000    0.00000000
     atom    9 type  3   force =     0.00000000    0.00000000    0.00000000
     atom   10 type  3   force =     0.00000000    0.00000000    0.00000000
     atom   11 type  3   force =     0.00000000    0.00000000    0.00000000
     atom   12 type  3   force =     0.00000000    0.00000000    0.00000000
     atom   13 type  4   force =     0.00000000    0.00000000    0.00000000
     atom   14 type  4   force =     0.00000000    0.00000000    0.00000000
     The SCF correction term to forces
     atom    1 type  1   force =     0.00000045    0.00000073    0.00000103
     atom    2 type  1   force =    -0.00000046   -0.00000067   -0.00000110
     atom    3 type  2   force =    -0.00000265    0.00001988    0.00008401
     atom    4 type  2   force =     0.00000304   -0.00002031   -0.00008389
     atom    5 type  3   force =     0.00001083   -0.00001508    0.00007356
     atom    6 type  3   force =    -0.00004410    0.00008415    0.00004261
     atom    7 type  3   force =    -0.00001051    0.00001519   -0.00007321
     atom    8 type  3   force =     0.00004403   -0.00008434   -0.00004300
     atom    9 type  3   force =     0.00002331    0.00009598    0.00011972
     atom   10 type  3   force =    -0.00000356    0.00000012    0.00014675
     atom   11 type  3   force =    -0.00002351   -0.00009618   -0.00012019
     atom   12 type  3   force =     0.00000367   -0.00000019   -0.00014633
     atom   13 type  4   force =    -0.00006591    0.00002732   -0.00018836
     atom   14 type  4   force =     0.00006585   -0.00002721    0.00018834

     Total force =     0.070242     Total SCF correction =     0.000470

     Computing stress (Cartesian axis) and pressure

     negative rho (up, down):  3.862E-03 0.000E+00
          total   stress  (Ry/bohr**3)                   (kbar)     P=     -398.73
  -0.00263418   0.00009643  -0.00000050         -387.50       14.19       -0.07
   0.00009643  -0.00263197  -0.00000071           14.19     -387.18       -0.10
  -0.00000050  -0.00000071  -0.00286548           -0.07       -0.10     -421.53

     kinetic stress (kbar)  21946.19    -64.16     52.12
                              -64.16  21944.95     52.69
                               52.12     52.69  21749.00

     local   stress (kbar) -11186.96  -2005.73   1026.90
                            -2005.73 -11225.10   1036.59
                             1026.90   1036.59 -16400.94

     nonloc. stress (kbar)   2497.31    -15.06      5.51
                              -15.06   2496.97      5.57
                                5.51      5.57   2461.73

     hartree stress (kbar)   9197.43    798.42   -603.36
                              798.42   9212.60   -609.09
                             -603.36   -609.09  11565.90

     exc-cor stress (kbar)  -3643.66      0.36      2.12
                                0.36  -3643.65      2.14
                                2.12      2.14  -3645.19

     corecor stress (kbar)  -1346.77      1.54      0.63
                                1.54  -1346.74      0.64
                                0.63      0.64  -1346.03

     ewald   stress (kbar) -17851.04   1298.83   -483.99
                             1298.83 -17826.20   -488.64
                             -483.99   -488.64 -14805.99

     hubbard stress (kbar)      0.00      0.00      0.00
                                0.00      0.00      0.00
                                0.00      0.00      0.00

     DFT-D   stress (kbar)      0.00      0.00      0.00
                                0.00      0.00      0.00
                                0.00      0.00      0.00

     XDM     stress (kbar)      0.00      0.00      0.00
                                0.00      0.00      0.00
                                0.00      0.00      0.00

     dft-nl  stress (kbar)      0.00      0.00      0.00
                                0.00      0.00      0.00
                                0.00      0.00      0.00

     TS-vdW  stress (kbar)      0.00      0.00      0.00
                                0.00      0.00      0.00
                                0.00      0.00      0.00

[...]

                                0.00      0.00      0.00

     Writing all to output data dir new_calculations/myprefix.save/

     General routines

     Parallel routines

     PAW routines

   This run was terminated on:   5:57:35  21May2023

   JOB DONE.