     Program PWSCF v.7.0 starts on 20May2023 at  4:48:22

     Reading input from espresso_11073.pwi
Warning: card &CELL ignored
Warning: card / ignored

     Current dimensions of program PWSCF are:
     Max number of different atomic species (ntypx) = 10
     Max number of k-points (npk) =  40000
     Max angular momentum in pseudopotentials (lmaxx) =  4
     file In.pbe-dn-rrkjus_psl.0.2.2.UPF: wavefunction(s)  5S renormalized
     file O.pbe-n-kjpaw_psl.0.1.UPF: wavefunction(s)  2P renormalized

     gamma-point specific algorithms are used
     Message from routine setup:
     using ibrav=0 with symmetry is DISCOURAGED, use correct ibrav instead

     Subspace diagonalization in iterative solution of the eigenvalue problem:
     a serial algorithm will be used

     Using Slab Decomposition

     bravais-lattice index     =            0
     lattice parameter (alat)  =      10.4584  a.u.
     unit-cell volume          =    2148.3732 (a.u.)^3
     number of atoms/cell      =           20
     number of atomic types    =            3
     number of electrons       =       164.00
     number of Kohn-Sham states=           98
     kinetic-energy cutoff     =      30.0000  Ry
     charge density cutoff     =     240.0000  Ry
     scf convergence threshold =      1.0E-06
     mixing beta               =       0.7000
     number of iterations used =            8  plain     mixing
     Exchange-correlation= SLA  PW   PBX  PBC
                           (   1   4   3   4   0   0   0)

     celldm(1)=  10.458444  celldm(2)=   0.000000  celldm(3)=   0.000000
     celldm(4)=   0.000000  celldm(5)=   0.000000  celldm(6)=   0.000000

     crystal axes: (cart. coord. in units of alat)
               a(1) = (   1.000000   0.000000   0.000000 )
               a(2) = (   0.000000   1.348787   0.000000 )
               a(3) = (   0.000000   0.000000   1.392404 )

     reciprocal axes: (cart. coord. in units 2 pi/alat)
               b(1) = (  1.000000  0.000000  0.000000 )
               b(2) = (  0.000000  0.741407  0.000000 )
               b(3) = (  0.000000  0.000000  0.718182 )

     PseudoPot. # 1 for Na read from file:
     /home/pragov/projects/rrg-bengioy-ad/pragov/crystal_structure_design/SSSP/na_pbe_v1.5.uspp.F.UPF
     MD5 check sum: 44600605ef58000f06b90626533354dc
     Pseudo is Ultrasoft, Zval =  9.0
     Generated by new atomic code, or converted to UPF format
     Using radial grid of  819 points,  5 beta functions with:
                l(1) =   0
                l(2) =   0
                l(3) =   1
                l(4) =   1
                l(5) =   2
     Q(r) pseudized with  8 coefficients,  rinner =    1.250   1.250   1.250
                                                       1.250   1.250

     PseudoPot. # 2 for In read from file:
     /home/pragov/projects/rrg-bengioy-ad/pragov/crystal_structure_design/SSSP/In.pbe-dn-rrkjus_psl.0.2.2.UPF
     MD5 check sum: 25e7c42c3b55b68f4bf926be2e7201a4
     Pseudo is Ultrasoft + core correction, Zval = 13.0
     Generated using "atomic" code by A. Dal Corso  v.5.0.99 svn rev. 10869
     Using radial grid of 1241 points,  6 beta functions with:
                l(1) =   0
                l(2) =   0
                l(3) =   1
                l(4) =   1
                l(5) =   2
                l(6) =   2
     Q(r) pseudized with 0 coefficients

     PseudoPot. # 3 for O  read from file:
     /home/pragov/projects/rrg-bengioy-ad/pragov/crystal_structure_design/SSSP/O.pbe-n-kjpaw_psl.0.1.UPF
     MD5 check sum: 0234752ac141de4415c5fc33072bef88
     Pseudo is Projector augmented-wave + core cor, Zval =  6.0
     Generated using "atomic" code by A. Dal Corso  v.5.0.99 svn rev. 10869
     Shape of augmentation charge: BESSEL
     Using radial grid of 1095 points,  4 beta functions with:
                l(1) =   0
                l(2) =   0
                l(3) =   1
                l(4) =   1
     Q(r) pseudized with 0 coefficients

     atomic species   valence    mass     pseudopotential
        Na             9.00    22.98977     Na( 1.00)
        In            13.00   114.81800     In( 1.00)
        O              6.00    15.99900     O ( 1.00)

      8 Sym. Ops., with inversion, found ( 4 have fractional translation)

                                    s                        frac. trans.

      isym =  1     identity

 cryst.   s( 1) = (     1          0          0      )
                  (     0          1          0      )
                  (     0          0          1      )

 cart.    s( 1) = (  1.0000000  0.0000000  0.0000000 )
                  (  0.0000000  1.0000000  0.0000000 )
                  (  0.0000000  0.0000000  1.0000000 )

      isym =  2     180 deg rotation - cart. axis [0,0,1]

 cryst.   s( 2) = (    -1          0          0      )    f =(  0.0000000 )
                  (     0         -1          0      )       ( -0.5000000 )
                  (     0          0          1      )       (  0.5000000 )

 cart.    s( 2) = ( -1.0000000  0.0000000  0.0000000 )    f =(  0.0000000 )
                  (  0.0000000 -1.0000000  0.0000000 )       ( -0.6743934 )
                  (  0.0000000  0.0000000  1.0000000 )       (  0.6962020 )

[...]

      isym =  4     180 deg rotation - cart. axis [1,0,0]

[...]

      isym =  5     inversion

[...]

      isym =  6     inv. 180 deg rotation - cart. axis [0,0,1]

[...]

 cryst.   s( 7) = (     1          0          0      )
                  (     0         -1          0      )
                  (     0          0          1      )

 cart.    s( 7) = (  1.0000000  0.0000000  0.0000000 )
                  (  0.0000000 -1.0000000  0.0000000 )
                  (  0.0000000  0.0000000  1.0000000 )

      isym =  8     inv. 180 deg rotation - cart. axis [1,0,0]

 cryst.   s( 8) = (    -1          0          0      )    f =(  0.0000000 )
                  (     0          1          0      )       ( -0.5000000 )
                  (     0          0          1      )       (  0.5000000 )

 cart.    s( 8) = ( -1.0000000  0.0000000  0.0000000 )    f =(  0.0000000 )
                  (  0.0000000  1.0000000  0.0000000 )       ( -0.6743934 )
                  (  0.0000000  0.0000000  1.0000000 )       (  0.6962020 )

   Cartesian axes

     site n.     atom                  positions (alat units)
         1           Na  tau(   1) = (   0.2553360   0.9975195   0.9666013  )
         2           Na  tau(   2) = (   0.7446640   0.3231261   1.1220047  )
         3           Na  tau(   3) = (   0.8035690   0.0000000   0.6962020  )
         4           Na  tau(   4) = (   0.1964310   0.6743934   0.0000000  )
         5           Na  tau(   5) = (   0.2553360   0.3512672   0.9666013  )
         6           Na  tau(   6) = (   0.2553360   0.9975195   0.4258027  )
         7           Na  tau(   7) = (   0.7446640   1.0256606   1.1220047  )
         8           Na  tau(   8) = (   0.7446640   0.3231261   0.2703993  )
         9           Na  tau(   9) = (   0.7446640   1.0256606   0.2703993  )
        10           Na  tau(  10) = (   0.2553360   0.3512672   0.4258027  )
        11           In  tau(  11) = (   0.2216160   0.0000000   0.0000000  )
        12           In  tau(  12) = (   0.7783840   0.6743934   0.6962020  )
        13           O   tau(  13) = (   0.0181110   0.0000000   0.3239679  )
        14           O   tau(  14) = (   0.0181110   0.0000000   1.0684362  )
        15           O   tau(  15) = (   0.4221770   1.0273439   0.0000000  )
        16           O   tau(  16) = (   0.4221770   0.3214429   0.0000000  )
        17           O   tau(  17) = (   0.5778230   0.3529505   0.6962020  )
        18           O   tau(  18) = (   0.5778230   0.9958362   0.6962020  )
        19           O   tau(  19) = (   0.9818890   0.6743934   0.3722341  )
        20           O   tau(  20) = (   0.9818890   0.6743934   1.0201699  )

   Crystallographic axes

     site n.     atom                  positions (cryst. coord.)
         1           Na  tau(   1) = (  0.2553360  0.7395680  0.6941960  )
         2           Na  tau(   2) = (  0.7446640  0.2395680  0.8058040  )
         3           Na  tau(   3) = (  0.8035690  0.0000000  0.5000000  )
         4           Na  tau(   4) = (  0.1964310  0.5000000  0.0000000  )
         5           Na  tau(   5) = (  0.2553360  0.2604320  0.6941960  )
         6           Na  tau(   6) = (  0.2553360  0.7395680  0.3058040  )
         7           Na  tau(   7) = (  0.7446640  0.7604320  0.8058040  )
         8           Na  tau(   8) = (  0.7446640  0.2395680  0.1941960  )
         9           Na  tau(   9) = (  0.7446640  0.7604320  0.1941960  )
        10           Na  tau(  10) = (  0.2553360  0.2604320  0.3058040  )
        11           In  tau(  11) = (  0.2216160  0.0000000  0.0000000  )
        12           In  tau(  12) = (  0.7783840  0.5000000  0.5000000  )
        13           O   tau(  13) = (  0.0181110  0.0000000  0.2326680  )
        14           O   tau(  14) = (  0.0181110  0.0000000  0.7673320  )
        15           O   tau(  15) = (  0.4221770  0.7616800  0.0000000  )
        16           O   tau(  16) = (  0.4221770  0.2383200  0.0000000  )
        17           O   tau(  17) = (  0.5778230  0.2616800  0.5000000  )
        18           O   tau(  18) = (  0.5778230  0.7383200  0.5000000  )
        19           O   tau(  19) = (  0.9818890  0.5000000  0.2673320  )
        20           O   tau(  20) = (  0.9818890  0.5000000  0.7326680  )

     number of k points=     1  Methfessel-Paxton smearing, width (Ry)=  0.0010
                       cart. coord. in units 2pi/alat
        k(    1) = (   0.0000000   0.0000000   0.0000000), wk =   2.0000000

                       cryst. coord.
        k(    1) = (   0.0000000   0.0000000   0.0000000), wk =   2.0000000

     Check: negative core charge=   -0.000009

     Initial potential from superposition of free atoms

     starting charge     163.9296, renormalised to     164.0000
     Starting wfcs are  100 randomized atomic wfcs
     Checking if some PAW data can be deallocated...

     Self-consistent Calculation

     iteration #  1     ecut=    30.00 Ry     beta= 0.70
     Davidson diagonalization with overlap

     ethr =  1.00E-02,  avg # of iterations =  7.0

     total energy              =   -1573.82530506 Ry
     estimated scf accuracy    <       5.48088821 Ry

[...]

     total energy              =   -1576.66579481 Ry
     estimated scf accuracy    <       0.00000262 Ry

     iteration # 10     ecut=    30.00 Ry     beta= 0.70
     Davidson diagonalization with overlap

     ethr =  1.60E-09,  avg # of iterations =  3.0

     End of self-consistent calculation

          k = 0.0000 0.0000 0.0000 (  2980 PWs)   bands (ev):

   -46.6338 -46.6337 -46.6280 -46.6269 -46.6166 -46.6158 -46.6106 -46.6104
   -46.3773 -46.3768 -18.6909 -18.6835 -18.6589 -18.6526 -18.6483 -18.6426
   -18.5986 -18.5853 -18.5826 -18.5766 -18.5610 -18.5466 -18.5425 -18.5320
   -18.5295 -18.5206 -18.5110 -18.5077 -18.5075 -18.4947 -18.4573 -18.4552
   -18.4348 -18.4286 -18.3136 -18.3104 -18.3020 -18.2976 -18.2889 -18.2808
   -12.2884 -12.1688 -12.1462 -12.1208 -12.1134 -12.0978 -12.0898 -12.0575
    -8.7090  -8.7066  -8.7037  -8.7027  -8.4583  -8.4460  -8.4349  -8.4227
    -8.3483  -8.3461  -0.4135  -0.3275   1.4744   1.5639   1.7051   1.7120
     1.9195   1.9938   2.1465   2.2516   2.4971   2.6310   2.6617   2.8807
     2.9144   2.9623   2.9717   2.9974   3.1264   3.1446   3.1456   3.2014
     3.2799   3.2946   4.9685   7.6522   8.5295   8.6179   8.7613   8.8883
     8.9887   9.0491  10.4978  10.5611  10.7140  11.4606  12.0282  12.2701
    12.3665  12.3854

     occupation numbers
     1.0000   1.0000   1.0000   1.0000   1.0000   1.0000   1.0000   1.0000
     1.0000   1.0000   1.0000   1.0000   1.0000   1.0000   1.0000   1.0000
     1.0000   1.0000   1.0000   1.0000   1.0000   1.0000   1.0000   1.0000
     1.0000   1.0000   1.0000   1.0000   1.0000   1.0000   1.0000   1.0000
     1.0000   1.0000   1.0000   1.0000   1.0000   1.0000   1.0000   1.0000
     1.0000   1.0000   1.0000   1.0000   1.0000   1.0000   1.0000   1.0000
     1.0000   1.0000   1.0000   1.0000   1.0000   1.0000   1.0000   1.0000
     1.0000   1.0000   1.0000   1.0000   1.0000   1.0000   1.0000   1.0000
     1.0000   1.0000   1.0000   1.0000   1.0000   1.0000   1.0000   1.0000
     1.0000   1.0000   1.0000   1.0000   1.0000   1.0000   1.0000   1.0000
     1.0000   1.0000  -0.0000  -0.0000  -0.0000  -0.0000  -0.0000  -0.0000
    -0.0000  -0.0000  -0.0000  -0.0000  -0.0000  -0.0000  -0.0000  -0.0000
    -0.0000  -0.0000

     the Fermi energy is     4.1836 ev

!    total energy              =   -1576.66579495 Ry
     estimated scf accuracy    <       0.00000074 Ry
     smearing contrib. (-TS)   =       0.00000000 Ry
     internal energy E=F+TS    =   -1576.66579495 Ry

     The total energy is F=E-TS. E is the sum of the following terms:
     one-electron contribution =    -955.86315242 Ry
     hartree contribution      =     550.70190371 Ry
     xc contribution           =    -299.34525590 Ry
     ewald contribution        =    -795.97303749 Ry
     one-center paw contrib.   =     -76.18625285 Ry
      -> PAW hartree energy AE =     230.08274386 Ry
      -> PAW hartree energy PS =    -229.27969189 Ry
      -> PAW xc energy AE      =    -136.24354769 Ry
      -> PAW xc energy PS      =      59.25424287 Ry
      -> total E_H with PAW    =     551.50495568 Ry
      -> total E_XC with PAW   =    -376.33456072 Ry

     convergence has been achieved in  10 iterations

     Forces acting on atoms (cartesian axes, Ry/au):

     atom    1 type  1   force =    -0.00094426   -0.00006635    0.00063649
     atom    2 type  1   force =     0.00094426   -0.00006635   -0.00063649
     atom    3 type  1   force =    -0.00077743    0.00000000    0.00000000
     atom    4 type  1   force =     0.00077743    0.00000000    0.00000000
     atom    5 type  1   force =    -0.00094426    0.00006635    0.00063649
     atom    6 type  1   force =    -0.00094426   -0.00006635   -0.00063649
     atom    7 type  1   force =     0.00094426    0.00006635   -0.00063649
     atom    8 type  1   force =     0.00094426   -0.00006635    0.00063649
     atom    9 type  1   force =     0.00094426    0.00006635    0.00063649
     atom   10 type  1   force =    -0.00094426    0.00006635   -0.00063649
     atom   11 type  2   force =    -0.00112667   -0.00000000    0.00000000
     atom   12 type  2   force =     0.00112667    0.00000000   -0.00000000
     atom   13 type  3   force =    -0.00414717    0.00000000    0.00386131
     atom   14 type  3   force =    -0.00414717    0.00000000   -0.00386131
     atom   15 type  3   force =     0.00366950   -0.00010622    0.00000000
     atom   16 type  3   force =     0.00366950    0.00010622    0.00000000
     atom   17 type  3   force =    -0.00366950   -0.00010622   -0.00000000
     atom   18 type  3   force =    -0.00366950    0.00010622    0.00000000
     atom   19 type  3   force =     0.00414717    0.00000000   -0.00386131
     atom   20 type  3   force =     0.00414717    0.00000000    0.00386131
     The non-local contrib.  to forces
     atom    1 type  1   force =     0.02321905    0.01976990   -0.09921706
     atom    2 type  1   force =    -0.02321905    0.01976990    0.09921706
     atom    3 type  1   force =     0.13529540    0.00000000    0.00000000
     atom    4 type  1   force =    -0.13529540   -0.00000000   -0.00000000
     atom    5 type  1   force =     0.02321905   -0.01976990   -0.09921706
     atom    6 type  1   force =     0.02321905    0.01976990    0.09921706
     atom    7 type  1   force =    -0.02321905   -0.01976990    0.09921706
     atom    8 type  1   force =    -0.02321905    0.01976990   -0.09921706
     atom    9 type  1   force =    -0.02321905   -0.01976990   -0.09921706
     atom   10 type  1   force =     0.02321905   -0.01976990    0.09921706
     atom   11 type  2   force =    -0.02278783    0.00000000    0.00000000
     atom   12 type  2   force =     0.02278783    0.00000000    0.00000000
     atom   13 type  3   force =     0.31315011    0.00000000   -0.53838336
     atom   14 type  3   force =     0.31315011   -0.00000000    0.53838336
     atom   15 type  3   force =    -0.33318953    0.58755594   -0.00000000
     atom   16 type  3   force =    -0.33318953   -0.58755594    0.00000000
     atom   17 type  3   force =     0.33318953    0.58755594   -0.00000000
     atom   18 type  3   force =     0.33318953   -0.58755594   -0.00000000
     atom   19 type  3   force =    -0.31315011    0.00000000    0.53838336
     atom   20 type  3   force =    -0.31315011    0.00000000   -0.53838336
     The ionic contribution  to forces
     atom    1 type  1   force =     1.33546187    0.17814164   -2.92786302
     atom    2 type  1   force =    -1.33546187    0.17814164    2.92786302
     atom    3 type  1   force =    -0.20899322   -0.00000000    0.00000000
     atom    4 type  1   force =     0.20899322   -0.00000000    0.00000000
     atom    5 type  1   force =     1.33546187   -0.17814164   -2.92786302
     atom    6 type  1   force =     1.33546187    0.17814164    2.92786302
     atom    7 type  1   force =    -1.33546187   -0.17814164    2.92786302
     atom    8 type  1   force =    -1.33546187    0.17814164   -2.92786302
     atom    9 type  1   force =    -1.33546187   -0.17814164   -2.92786302
     atom   10 type  1   force =     1.33546187   -0.17814164    2.92786302
     atom   11 type  2   force =     0.94556765   -0.00000000    0.00000000
     atom   12 type  2   force =    -0.94556765    0.00000000    0.00000000
     atom   13 type  3   force =    -1.40528434   -0.00000000    3.42212340
     atom   14 type  3   force =    -1.40528434   -0.00000000   -3.42212340
     atom   15 type  3   force =     3.28855723   -3.61801262    0.00000000
     atom   16 type  3   force =     3.28855723    3.61801262    0.00000000
     atom   17 type  3   force =    -3.28855723   -3.61801262    0.00000000
     atom   18 type  3   force =    -3.28855723    3.61801262   -0.00000000
     atom   19 type  3   force =     1.40528434   -0.00000000   -3.42212340
     atom   20 type  3   force =     1.40528434   -0.00000000    3.42212340
     The local contribution  to forces
     atom    1 type  1   force =    -1.35958229   -0.19796771    3.02777768
     atom    2 type  1   force =     1.35964953   -0.19795372   -3.02793216
     atom    3 type  1   force =     0.07267902    0.00000240   -0.00000452
     atom    4 type  1   force =    -0.07295878    0.00002431   -0.00007361
     atom    5 type  1   force =    -1.35958215    0.19796453    3.02776198
     atom    6 type  1   force =    -1.35955820   -0.19790433   -3.02775619
     atom    7 type  1   force =     1.35963299    0.19795317   -3.02790514
     atom    8 type  1   force =     1.35963057   -0.19801270    3.02791581
     atom    9 type  1   force =     1.35961366    0.19800887    3.02789291
     atom   10 type  1   force =    -1.35955759    0.19790342   -3.02773485
     atom   11 type  2   force =    -0.92469516   -0.00002789    0.00001306
     atom   12 type  2   force =     0.92470472   -0.00000405    0.00007817
     atom   13 type  3   force =     1.09178336   -0.00000363   -2.88624693
     atom   14 type  3   force =     1.09177340    0.00000046    2.88623720
     atom   15 type  3   force =    -2.95559991    3.03735339   -0.00000580
     atom   16 type  3   force =    -2.95560295   -3.03732543   -0.00001424
     atom   17 type  3   force =     2.95558748    3.03716354   -0.00001895
     atom   18 type  3   force =     2.95559083   -3.03714544   -0.00001847
     atom   19 type  3   force =    -1.09158596    0.00000808    2.88606502
     atom   20 type  3   force =    -1.09162887    0.00000414   -2.88614977
     The core correction contribution to forces
     atom    1 type  1   force =     0.00000000    0.00000000    0.00000000
     atom    2 type  1   force =     0.00000000    0.00000000    0.00000000
     atom    3 type  1   force =     0.00000000    0.00000000    0.00000000
     atom    4 type  1   force =     0.00000000    0.00000000    0.00000000
     atom    5 type  1   force =     0.00000000    0.00000000    0.00000000
     atom    6 type  1   force =     0.00000000    0.00000000    0.00000000
     atom    7 type  1   force =     0.00000000    0.00000000    0.00000000
     atom    8 type  1   force =     0.00000000    0.00000000    0.00000000
     atom    9 type  1   force =     0.00000000    0.00000000    0.00000000
     atom   10 type  1   force =     0.00000000    0.00000000    0.00000000
     atom   11 type  2   force =     0.00092974    0.00000182   -0.00000038
     atom   12 type  2   force =    -0.00092383    0.00000061   -0.00000461
     atom   13 type  3   force =    -0.00357704    0.00000006    0.00614999
     atom   14 type  3   force =    -0.00357721    0.00000003   -0.00615014
     atom   15 type  3   force =     0.00375327   -0.00672541   -0.00000006
     atom   16 type  3   force =     0.00375336    0.00672600   -0.00000001
     atom   17 type  3   force =    -0.00375220   -0.00672392   -0.00000041
     atom   18 type  3   force =    -0.00375218    0.00672420   -0.00000029
     atom   19 type  3   force =     0.00357886    0.00000001   -0.00615224
     atom   20 type  3   force =     0.00357791    0.00000004    0.00615047
     The Hubbard contrib.    to forces
     atom    1 type  1   force =     0.00000000    0.00000000    0.00000000
     atom    2 type  1   force =     0.00000000    0.00000000    0.00000000
     atom    3 type  1   force =     0.00000000    0.00000000    0.00000000
     atom    4 type  1   force =     0.00000000    0.00000000    0.00000000
     atom    5 type  1   force =     0.00000000    0.00000000    0.00000000
     atom    6 type  1   force =     0.00000000    0.00000000    0.00000000
     atom    7 type  1   force =     0.00000000    0.00000000    0.00000000
     atom    8 type  1   force =     0.00000000    0.00000000    0.00000000
     atom    9 type  1   force =     0.00000000    0.00000000    0.00000000
     atom   10 type  1   force =     0.00000000    0.00000000    0.00000000
     atom   11 type  2   force =     0.00000000    0.00000000    0.00000000
     atom   12 type  2   force =     0.00000000    0.00000000    0.00000000
     atom   13 type  3   force =     0.00000000    0.00000000    0.00000000
     atom   14 type  3   force =     0.00000000    0.00000000    0.00000000
     atom   15 type  3   force =     0.00000000    0.00000000    0.00000000
     atom   16 type  3   force =     0.00000000    0.00000000    0.00000000
     atom   17 type  3   force =     0.00000000    0.00000000    0.00000000
     atom   18 type  3   force =     0.00000000    0.00000000    0.00000000
     atom   19 type  3   force =     0.00000000    0.00000000    0.00000000
     atom   20 type  3   force =     0.00000000    0.00000000    0.00000000
     The SCF correction term to forces
     atom    1 type  1   force =    -0.00004924   -0.00004875    0.00002318
     atom    2 type  1   force =    -0.00004405    0.00001840    0.00030449
     atom    3 type  1   force =     0.00033608   -0.00000383    0.00001469
     atom    4 type  1   force =     0.00013310   -0.00002715    0.00012334
     atom    5 type  1   force =    -0.00004675    0.00005356    0.00003990
     atom    6 type  1   force =    -0.00008758   -0.00015303   -0.00003822
     atom    7 type  1   force =    -0.00003839   -0.00001753    0.00027535
     atom    8 type  1   force =    -0.00000554    0.00010824   -0.00028423
     atom    9 type  1   force =     0.00000463   -0.00010778   -0.00025314
     atom   10 type  1   force =    -0.00009427    0.00015135   -0.00007174
     atom   11 type  2   force =    -0.00011707    0.00005195   -0.00001992
     atom   12 type  2   force =     0.00014957    0.00001787   -0.00014151
     atom   13 type  3   force =    -0.00018502    0.00000928    0.00017257
     atom   14 type  3   force =    -0.00018726    0.00000398   -0.00017735
     atom   15 type  3   force =     0.00017779   -0.00032275   -0.00000041
     atom   16 type  3   force =     0.00018674    0.00032336    0.00001503
     atom   17 type  3   force =    -0.00010418   -0.00002316   -0.00000165
     atom   18 type  3   force =    -0.00010868    0.00001719    0.00000222
     atom   19 type  3   force =     0.00006883   -0.00000837   -0.00011673
     atom   20 type  3   force =     0.00007120   -0.00000003    0.00011447

     Total force =     0.014018     Total SCF correction =     0.001046

     Computing stress (Cartesian axis) and pressure

          total   stress  (Ry/bohr**3)                   (kbar)     P=     -222.52
  -0.00147529   0.00000000   0.00000000         -217.02        0.00        0.00
   0.00000000  -0.00153234   0.00000000            0.00     -225.41        0.00
   0.00000000   0.00000000  -0.00153037            0.00        0.00     -225.12

     kinetic stress (kbar)  16773.42      0.00      0.00
                                0.00  16725.22      0.00
                                0.00      0.00  16671.21

     local   stress (kbar)  21345.20      0.00     -0.02
                                0.00  20675.28      0.00
                               -0.02      0.00  17969.18

     nonloc. stress (kbar) -25872.11      0.00      0.00
                                0.00 -25849.07      0.00
                                0.00      0.00 -25872.08

     hartree stress (kbar)  12037.37     -0.00      0.02
                               -0.00  12269.26     -0.00
                                0.02     -0.00  13401.46

     exc-cor stress (kbar)  -1240.88     -0.00     -0.00
                               -0.00  -1239.47      0.00
                               -0.00      0.00  -1240.03

     corecor stress (kbar)  -4239.63     -0.00     -0.00
                               -0.00  -4239.85      0.00
                               -0.00      0.00  -4239.55

     ewald   stress (kbar) -19020.40      0.00     -0.00
                                0.00 -18566.79     -0.00
                               -0.00     -0.00 -16915.30

     hubbard stress (kbar)      0.00      0.00      0.00
                                0.00      0.00      0.00
                                0.00      0.00      0.00

     DFT-D   stress (kbar)      0.00      0.00      0.00
                                0.00      0.00      0.00
                                0.00      0.00      0.00

     XDM     stress (kbar)      0.00      0.00      0.00
                                0.00      0.00      0.00
                                0.00      0.00      0.00

     dft-nl  stress (kbar)      0.00      0.00      0.00
                                0.00      0.00      0.00
                                0.00      0.00      0.00

     TS-vdW  stress (kbar)      0.00      0.00      0.00
                                0.00      0.00      0.00
                                0.00      0.00      0.00

[...]

                                0.00      0.00      0.00

     Writing all to output data dir new_calculations/myprefix.save/

     General routines

     Parallel routines

     PAW routines

   This run was terminated on:   4:48:43  20May2023

   JOB DONE.