     Program PWSCF v.7.0 starts on 20May2023 at 23:29:48

     Reading input from espresso_10804.pwi
Warning: card &CELL ignored
Warning: card / ignored

     Current dimensions of program PWSCF are:
     Max number of different atomic species (ntypx) = 10
     Max number of k-points (npk) =  40000
     Max angular momentum in pseudopotentials (lmaxx) =  4

     gamma-point specific algorithms are used
     Message from routine setup:
     using ibrav=0 with symmetry is DISCOURAGED, use correct ibrav instead

     Subspace diagonalization in iterative solution of the eigenvalue problem:
     a serial algorithm will be used

     Using Slab Decomposition

     bravais-lattice index     =            0
     lattice parameter (alat)  =       6.1776  a.u.
     unit-cell volume          =     621.5993 (a.u.)^3
     number of atoms/cell      =            8
     number of atomic types    =            2
     number of electrons       =        88.00
     number of Kohn-Sham states=           53
     kinetic-energy cutoff     =      30.0000  Ry
     charge density cutoff     =     240.0000  Ry
     scf convergence threshold =      1.0E-06
     mixing beta               =       0.7000
     number of iterations used =            8  plain     mixing
     Exchange-correlation= PBE
                           (   1   4   3   4   0   0   0)

     celldm(1)=   6.177624  celldm(2)=   0.000000  celldm(3)=   0.000000
     celldm(4)=   0.000000  celldm(5)=   0.000000  celldm(6)=   0.000000

     crystal axes: (cart. coord. in units of alat)
               a(1) = (   1.000000   0.000000   0.000000 )
               a(2) = (   0.000000   1.551581   0.000000 )
               a(3) = (   0.000000   0.000000   1.699306 )

     reciprocal axes: (cart. coord. in units 2 pi/alat)
               b(1) = (  1.000000  0.000000  0.000000 )
               b(2) = (  0.000000  0.644504  0.000000 )
               b(3) = (  0.000000  0.000000  0.588476 )

     PseudoPot. # 1 for Co read from file:
     /home/pragov/projects/rrg-bengioy-ad/pragov/crystal_structure_design/SSSP/Co_pbe_v1.2.uspp.F.UPF
     MD5 check sum: 5f91765df6ddd3222702df6e7b74a16d
     Pseudo is Ultrasoft + core correction, Zval = 17.0
     Generated by new atomic code, or converted to UPF format
     Using radial grid of  863 points,  6 beta functions with:
                l(1) =   0
                l(2) =   0
                l(3) =   1
                l(4) =   1
                l(5) =   2
                l(6) =   2
     Q(r) pseudized with  8 coefficients,  rinner =    1.200   1.200   1.200
                                                       1.200   1.200

     PseudoPot. # 2 for P  read from file:
     /home/pragov/projects/rrg-bengioy-ad/pragov/crystal_structure_design/SSSP/P.pbe-n-rrkjus_psl.1.0.0.UPF
     MD5 check sum: 8b930f418f0a4573dca56cd030ffe088
     Pseudo is Ultrasoft + core correction, Zval =  5.0
     Generated using "atomic" code by A. Dal Corso  v.5.1
     Using radial grid of 1147 points,  6 beta functions with:
                l(1) =   0
                l(2) =   0
                l(3) =   1
                l(4) =   1
                l(5) =   2
                l(6) =   2
     Q(r) pseudized with 0 coefficients

     atomic species   valence    mass     pseudopotential
        Co            17.00    58.93319     Co( 1.00)
        P              5.00    30.97376     P ( 1.00)

      8 Sym. Ops., with inversion, found ( 6 have fractional translation)

                                    s                        frac. trans.

      isym =  1     identity

 cryst.   s( 1) = (     1          0          0      )
                  (     0          1          0      )
                  (     0          0          1      )

 cart.    s( 1) = (  1.0000000  0.0000000  0.0000000 )
                  (  0.0000000  1.0000000  0.0000000 )
                  (  0.0000000  0.0000000  1.0000000 )

      isym =  2     180 deg rotation - cart. axis [0,0,1]

 cryst.   s( 2) = (    -1          0          0      )    f =( -0.0000000 )
                  (     0         -1          0      )       ( -0.5000000 )
                  (     0          0          1      )       ( -0.5000000 )

 cart.    s( 2) = ( -1.0000000  0.0000000  0.0000000 )    f =( -0.0000000 )
                  (  0.0000000 -1.0000000  0.0000000 )       ( -0.7757906 )
                  (  0.0000000  0.0000000  1.0000000 )       ( -0.8496529 )

[...]

      isym =  4     180 deg rotation - cart. axis [1,0,0]

[...]

      isym =  5     inversion

 cryst.   s( 5) = (    -1          0          0      )
                  (     0         -1          0      )
                  (     0          0         -1      )

 cart.    s( 5) = ( -1.0000000  0.0000000  0.0000000 )
                  (  0.0000000 -1.0000000  0.0000000 )
                  (  0.0000000  0.0000000 -1.0000000 )

      isym =  6     inv. 180 deg rotation - cart. axis [0,0,1]

[...]

      isym =  8     inv. 180 deg rotation - cart. axis [1,0,0]

 cryst.   s( 8) = (    -1          0          0      )    f =(  0.5000000 )
                  (     0          1          0      )       (  0.0000000 )
                  (     0          0          1      )       (  0.0000000 )

 cart.    s( 8) = ( -1.0000000  0.0000000  0.0000000 )    f =(  0.5000000 )
                  (  0.0000000  1.0000000  0.0000000 )       (  0.0000000 )
                  (  0.0000000  0.0000000  1.0000000 )       (  0.0000000 )

   Cartesian axes

     site n.     atom                  positions (alat units)
         1           Co  tau(   1) = (   0.2500000   0.7777239   1.1834730  )
         2           Co  tau(   2) = (   0.7500000   0.7738573   0.5158328  )
         3           Co  tau(   3) = (   0.2500000   0.0019333   1.3654856  )
         4           Co  tau(   4) = (   0.7500000   1.5496479   0.3338201  )
         5           P   tau(   5) = (   0.2500000   1.0721737   0.1389335  )
         6           P   tau(   6) = (   0.7500000   0.4794076   1.5603722  )
         7           P   tau(   7) = (   0.2500000   0.2963830   0.7107193  )
         8           P   tau(   8) = (   0.7500000   1.2551982   0.9885864  )

   Crystallographic axes

     site n.     atom                  positions (cryst. coord.)
         1           Co  tau(   1) = (  0.2500000  0.5012460  0.6964450  )
         2           Co  tau(   2) = (  0.7500000  0.4987540  0.3035550  )
         3           Co  tau(   3) = (  0.2500000  0.0012460  0.8035550  )
         4           Co  tau(   4) = (  0.7500000  0.9987540  0.1964450  )
         5           P   tau(   5) = (  0.2500000  0.6910200  0.0817590  )
         6           P   tau(   6) = (  0.7500000  0.3089800  0.9182410  )
         7           P   tau(   7) = (  0.2500000  0.1910200  0.4182410  )
         8           P   tau(   8) = (  0.7500000  0.8089800  0.5817590  )

     number of k points=     1  Methfessel-Paxton smearing, width (Ry)=  0.0010
                       cart. coord. in units 2pi/alat
        k(    1) = (   0.0000000   0.0000000   0.0000000), wk =   2.0000000

                       cryst. coord.
        k(    1) = (   0.0000000   0.0000000   0.0000000), wk =   2.0000000

     Check: negative core charge=   -0.000018

     Initial potential from superposition of free atoms

     starting charge      83.9993, renormalised to      88.0000
     Starting wfcs are   68 randomized atomic wfcs

     Self-consistent Calculation

     iteration #  1     ecut=    30.00 Ry     beta= 0.70
     Davidson diagonalization with overlap

     ethr =  1.00E-02,  avg # of iterations =  4.0

     total energy              =   -1206.42542468 Ry
     estimated scf accuracy    <      59.26806539 Ry

[...]

     total energy              =   -1250.09466390 Ry
     estimated scf accuracy    <       0.00003105 Ry

     iteration # 18     ecut=    30.00 Ry     beta= 0.70
     Davidson diagonalization with overlap

     ethr =  2.56E-09,  avg # of iterations =  2.0

     End of self-consistent calculation

          k = 0.0000 0.0000 0.0000 (   869 PWs)   bands (ev):

   -78.4411 -78.4352 -78.4296 -78.4251 -41.8915 -41.8738 -41.8651 -41.8588
   -41.8483 -41.8471 -41.8019 -41.7771 -41.5665 -41.5410 -41.5099 -41.4904
     0.7603   3.5786   5.1341   5.2232   8.4355   8.5551  11.0376  11.0768
    11.2169  11.8542  12.1063  12.4699  12.7653  12.7830  13.5192  14.0106
    14.0456  14.3849  14.6477  14.7084  14.8130  14.8660  15.0579  15.0963
    15.2668  15.5784  15.9037  16.5389  17.4317  17.4647  18.1619  18.6251
    18.6624  18.8716  19.9124  20.8005  21.3546

     occupation numbers
     1.0000   1.0000   1.0000   1.0000   1.0000   1.0000   1.0000   1.0000
     1.0000   1.0000   1.0000   1.0000   1.0000   1.0000   1.0000   1.0000
     1.0000   1.0000   1.0000   1.0000   1.0000   1.0000   1.0000   1.0000
     1.0000   1.0000   1.0000   1.0000   1.0000   1.0000   1.0000   1.0000
     1.0000   1.0000   1.0000   1.0000   1.0000   1.0000   1.0000   1.0000
     1.0000   1.0000   1.0000   1.0000  -0.0000  -0.0000  -0.0000  -0.0000
    -0.0000  -0.0000  -0.0000  -0.0000  -0.0000

     the Fermi energy is    16.8000 ev

!    total energy              =   -1250.09466506 Ry
     estimated scf accuracy    <       0.00000033 Ry
     smearing contrib. (-TS)   =       0.00000000 Ry
     internal energy E=F+TS    =   -1250.09466506 Ry

     The total energy is F=E-TS. E is the sum of the following terms:
     one-electron contribution =    -813.15699883 Ry
     hartree contribution      =     461.57780942 Ry
     xc contribution           =    -149.11932418 Ry
     ewald contribution        =    -749.39615147 Ry

     convergence has been achieved in  18 iterations

     Forces acting on atoms (cartesian axes, Ry/au):

     atom    1 type  1   force =    -0.00000000   -0.03788972   -0.00861571
     atom    2 type  1   force =    -0.00000000    0.03788972    0.00861571
     atom    3 type  1   force =     0.00000000   -0.03788972    0.00861571
     atom    4 type  1   force =     0.00000000    0.03788972   -0.00861571
     atom    5 type  2   force =     0.00000000    0.00377229    0.01394704
     atom    6 type  2   force =     0.00000000   -0.00377229   -0.01394704
     atom    7 type  2   force =    -0.00000000    0.00377229   -0.01394704
     atom    8 type  2   force =     0.00000000   -0.00377229    0.01394704
     The non-local contrib.  to forces
     atom    1 type  1   force =     0.00000000    0.02434969    0.20640044
     atom    2 type  1   force =    -0.00000000   -0.02434969   -0.20640044
     atom    3 type  1   force =     0.00000000    0.02434969   -0.20640044
     atom    4 type  1   force =    -0.00000000   -0.02434969    0.20640044
     atom    5 type  2   force =     0.00000000   -0.07405946   -0.10210326
     atom    6 type  2   force =     0.00000000    0.07405946    0.10210326
     atom    7 type  2   force =    -0.00000000   -0.07405946    0.10210326
     atom    8 type  2   force =     0.00000000    0.07405946   -0.10210326
     The ionic contribution  to forces
     atom    1 type  1   force =    -0.00000000    0.71764737    4.28833970
     atom    2 type  1   force =    -0.00000000   -0.71764737   -4.28833970
     atom    3 type  1   force =    -0.00000000    0.71764737   -4.28833970
     atom    4 type  1   force =    -0.00000000   -0.71764737    4.28833970
     atom    5 type  2   force =    -0.00000000   -2.65527087    0.03320783
     atom    6 type  2   force =     0.00000000    2.65527087   -0.03320783
     atom    7 type  2   force =     0.00000000   -2.65527087   -0.03320783
     atom    8 type  2   force =    -0.00000000    2.65527087    0.03320783
     The local contribution  to forces
     atom    1 type  1   force =    -0.00001196   -0.77893322   -4.49796959
     atom    2 type  1   force =    -0.00000134    0.78094394    4.49885814
     atom    3 type  1   force =    -0.00000061   -0.78067252    4.49781438
     atom    4 type  1   force =    -0.00000073    0.77871227   -4.49840083
     atom    5 type  2   force =     0.00000158    2.72835362    0.07746736
     atom    6 type  2   force =     0.00000052   -2.72813393   -0.07807599
     atom    7 type  2   force =     0.00000354    2.72852406   -0.07742974
     atom    8 type  2   force =    -0.00000047   -2.72866646    0.07795439
     The core correction contribution to forces
     atom    1 type  1   force =    -0.00000006    0.00001893   -0.00487727
     atom    2 type  1   force =     0.00000011   -0.00002073    0.00488155
     atom    3 type  1   force =    -0.00000006    0.00002094    0.00487999
     atom    4 type  1   force =    -0.00000001   -0.00001909   -0.00487998
     atom    5 type  2   force =     0.00000010    0.00468761    0.00512202
     atom    6 type  2   force =     0.00000006   -0.00468611   -0.00512351
     atom    7 type  2   force =    -0.00000003    0.00468808   -0.00512358
     atom    8 type  2   force =     0.00000004   -0.00468582    0.00512182
     The Hubbard contrib.    to forces
     atom    1 type  1   force =     0.00000000    0.00000000    0.00000000
     atom    2 type  1   force =     0.00000000    0.00000000    0.00000000
     atom    3 type  1   force =     0.00000000    0.00000000    0.00000000
     atom    4 type  1   force =     0.00000000    0.00000000    0.00000000
     atom    5 type  2   force =     0.00000000    0.00000000    0.00000000
     atom    6 type  2   force =     0.00000000    0.00000000    0.00000000
     atom    7 type  2   force =     0.00000000    0.00000000    0.00000000
     atom    8 type  2   force =     0.00000000    0.00000000    0.00000000
     The SCF correction term to forces
     atom    1 type  1   force =     0.00001625   -0.00106381   -0.00047039
     atom    2 type  1   force =     0.00001002   -0.00123739   -0.00048820
     atom    3 type  1   force =     0.00000309    0.00086752    0.00072181
     atom    4 type  1   force =     0.00000507    0.00140593   -0.00015765
     atom    5 type  2   force =    -0.00000039    0.00007931    0.00023564
     atom    6 type  2   force =    -0.00000040   -0.00028339    0.00034351
     atom    7 type  2   force =    -0.00000226   -0.00009293   -0.00029867
     atom    8 type  2   force =     0.00000102    0.00028499   -0.00023931

     Total force =     0.082912     Total SCF correction =     0.002626

     Computing stress (Cartesian axis) and pressure

          total   stress  (Ry/bohr**3)                   (kbar)     P=     -382.10
  -0.00291361   0.00000000   0.00000000         -428.61        0.00        0.00
   0.00000000  -0.00348154   0.00000000            0.00     -512.15        0.00
   0.00000000   0.00000000  -0.00139719            0.00        0.00     -205.53

     kinetic stress (kbar)  30702.81      0.00      0.00
                                0.00  30709.48      0.00
                                0.00      0.00  31260.82

     local   stress (kbar)  -5302.66     -0.00      0.00
                               -0.00 -25805.76      0.00
                                0.00      0.00 -10187.50

     nonloc. stress (kbar)  15968.67      0.00      0.00
                                0.00  16109.99      0.00
                                0.00      0.00  16135.75

     hartree stress (kbar)  33171.36      0.00     -0.00
                                0.00  41491.45     -0.03
                               -0.00     -0.03  34572.25

     exc-cor stress (kbar)  -7795.08      0.00      0.00
                                0.00  -7785.60      0.00
                                0.00      0.00  -7783.48

     corecor stress (kbar)  -3089.09     -0.00     -0.00
                               -0.00  -3083.64     -0.00
                               -0.00     -0.00  -3087.12

     ewald   stress (kbar) -64084.62     -0.00     -0.00
                               -0.00 -52148.07     -0.00
                               -0.00     -0.00 -61116.25

     hubbard stress (kbar)      0.00      0.00      0.00
                                0.00      0.00      0.00
                                0.00      0.00      0.00

     DFT-D   stress (kbar)      0.00      0.00      0.00
                                0.00      0.00      0.00
                                0.00      0.00      0.00

     XDM     stress (kbar)      0.00      0.00      0.00
                                0.00      0.00      0.00
                                0.00      0.00      0.00

     dft-nl  stress (kbar)      0.00      0.00      0.00
                                0.00      0.00      0.00
                                0.00      0.00      0.00

     TS-vdW  stress (kbar)      0.00      0.00      0.00
                                0.00      0.00      0.00
                                0.00      0.00      0.00

[...]

                                0.00      0.00      0.00

     Writing all to output data dir new_calculations/myprefix.save/

     General routines

     Parallel routines

   This run was terminated on:  23:30: 9  20May2023

   JOB DONE.