     Program PWSCF v.7.0 starts on 21May2023 at  2:27:25

     Reading input from espresso_16790.pwi
Warning: card &CELL ignored
Warning: card / ignored

     Current dimensions of program PWSCF are:
     Max number of different atomic species (ntypx) = 10
     Max number of k-points (npk) =  40000
     Max angular momentum in pseudopotentials (lmaxx) =  4

     gamma-point specific algorithms are used
     Message from routine setup:
     using ibrav=0 with symmetry is DISCOURAGED, use correct ibrav instead

     Subspace diagonalization in iterative solution of the eigenvalue problem:
     a serial algorithm will be used

     Using Slab Decomposition

     bravais-lattice index     =            0
     lattice parameter (alat)  =      16.9592  a.u.
     unit-cell volume          =    2853.4643 (a.u.)^3
     number of atoms/cell      =           14
     number of atomic types    =            2
     number of electrons       =       172.00
     number of Kohn-Sham states=          103
     kinetic-energy cutoff     =      30.0000  Ry
     charge density cutoff     =     240.0000  Ry
     scf convergence threshold =      1.0E-06
     mixing beta               =       0.7000
     number of iterations used =            8  plain     mixing
     Exchange-correlation= PBE
                           (   1   4   3   4   0   0   0)

     celldm(1)=  16.959210  celldm(2)=   0.000000  celldm(3)=   0.000000
     celldm(4)=   0.000000  celldm(5)=   0.000000  celldm(6)=   0.000000

     crystal axes: (cart. coord. in units of alat)
               a(1) = (   1.000000   0.000000   0.000000 )
               a(2) = (   0.724487   0.689289   0.000000 )
               a(3) = (   0.102273   0.040879   0.848700 )

     reciprocal axes: (cart. coord. in units 2 pi/alat)
               b(1) = (  1.000000 -1.051064 -0.069879 )
               b(2) = (  0.000000  1.450770 -0.069879 )
               b(3) = (  0.000000  0.000000  1.178272 )

     PseudoPot. # 1 for Ca read from file:
     /home/pragov/projects/rrg-bengioy-ad/pragov/crystal_structure_design/SSSP/Ca_pbe_v1.uspp.F.UPF
     MD5 check sum: 403a4c14b9e4d4dfdc3024c9a3812218
     Pseudo is Ultrasoft + core correction, Zval = 10.0
     Generated by new atomic code, or converted to UPF format
     Using radial grid of  845 points,  6 beta functions with:
                l(1) =   0
                l(2) =   0
                l(3) =   1
                l(4) =   1
                l(5) =   2
                l(6) =   2
     Q(r) pseudized with  8 coefficients,  rinner =    1.500   1.500   1.500
                                                       1.500   1.500

     PseudoPot. # 2 for Pd read from file:
     /home/pragov/projects/rrg-bengioy-ad/pragov/crystal_structure_design/SSSP/Pd_ONCV_PBE-1.0.oncvpsp.upf
     MD5 check sum: eb77f42b51d86fb18e25f68156a31cf1
     Pseudo is Norm-conserving, Zval = 18.0
     Generated using ONCVPSP code by D. R. Hamann
     Using radial grid of 1410 points,  6 beta functions with:
                l(1) =   0
                l(2) =   0
                l(3) =   1
                l(4) =   1
                l(5) =   2
                l(6) =   2

     atomic species   valence    mass     pseudopotential
        Ca            10.00    40.07800     Ca( 1.00)
        Pd            18.00   106.42000     Pd( 1.00)

      2 Sym. Ops., with inversion, found

                                    s                        frac. trans.

      isym =  1     identity

 cryst.   s( 1) = (     1          0          0      )
                  (     0          1          0      )
                  (     0          0          1      )

 cart.    s( 1) = (  1.0000000 -0.0000000 -0.0000000 )
                  (  0.0000000  1.0000000  0.0000000 )
                  (  0.0000000  0.0000000  1.0000000 )

      isym =  2     inversion

 cryst.   s( 2) = (    -1          0          0      )
                  (     0         -1          0      )
                  (     0          0         -1      )

 cart.    s( 2) = ( -1.0000000  0.0000000  0.0000000 )
                  (  0.0000000 -1.0000000 -0.0000000 )
                  (  0.0000000  0.0000000 -1.0000000 )

   Cartesian axes

     site n.     atom                  positions (alat units)
         1           Ca  tau(   1) = (   0.6915415   0.5879948   0.7798146  )
         2           Ca  tau(   2) = (   0.9715847   0.6999300   0.4932357  )
         3           Ca  tau(   3) = (   1.1352177   0.1421732   0.0688856  )
         4           Ca  tau(   4) = (   0.8551745   0.0302380   0.3554645  )
         5           Ca  tau(   5) = (   0.5936215   0.1730313   0.6956566  )
         6           Ca  tau(   6) = (   1.3285561   0.4667896   0.5773936  )
         7           Ca  tau(   7) = (   1.2331377   0.5571367   0.1530436  )
         8           Ca  tau(   8) = (   0.4982030   0.2633784   0.2713065  )
         9           Ca  tau(   9) = (   0.9606337   0.3210491   0.6365251  )
        10           Ca  tau(  10) = (   0.8661255   0.4091189   0.2121750  )
        11           Pd  tau(  11) = (   0.6745829   0.4343449   0.4931364  )
        12           Pd  tau(  12) = (   1.0897801   0.6003020   0.7799139  )
        13           Pd  tau(  13) = (   1.1521762   0.2958231   0.3555638  )
        14           Pd  tau(  14) = (   0.7369791   0.1298660   0.0687863  )

   Crystallographic axes

     site n.     atom                  positions (cryst. coord.)
         1           Ca  tau(   1) = (  0.0190290  0.7985530  0.9188340  )
         2           Ca  tau(   2) = (  0.2014470  0.9809710  0.5811660  )
         3           Ca  tau(   3) = (  0.9809710  0.2014470  0.0811660  )
         4           Ca  tau(   4) = (  0.7985530  0.0190290  0.4188340  )
         5           Ca  tau(   5) = (  0.3631430  0.2024170  0.8196730  )
         6           Ca  tau(   6) = (  0.7975830  0.6368570  0.6803270  )
         7           Ca  tau(   7) = (  0.6368570  0.7975830  0.1803270  )
         8           Ca  tau(   8) = (  0.2024170  0.3631430  0.3196730  )
         9           Ca  tau(   9) = (  0.5787110  0.4212890  0.7500000  )
        10           Ca  tau(  10) = (  0.4212890  0.5787110  0.2500000  )
        11           Pd  tau(  11) = (  0.1835990  0.5956750  0.5810490  )
        12           Pd  tau(  12) = (  0.4043250  0.8164010  0.9189510  )
        13           Pd  tau(  13) = (  0.8164010  0.4043250  0.4189510  )
        14           Pd  tau(  14) = (  0.5956750  0.1835990  0.0810490  )

     number of k points=     1  Methfessel-Paxton smearing, width (Ry)=  0.0010
                       cart. coord. in units 2pi/alat
        k(    1) = (   0.0000000   0.0000000   0.0000000), wk =   2.0000000

                       cryst. coord.
        k(    1) = (   0.0000000   0.0000000   0.0000000), wk =   2.0000000

     Initial potential from superposition of free atoms

     starting charge     171.9440, renormalised to     172.0000
     Starting wfcs are  140 randomized atomic wfcs

     Self-consistent Calculation

     iteration #  1     ecut=    30.00 Ry     beta= 0.70
     Davidson diagonalization with overlap

     ethr =  1.00E-02,  avg # of iterations =  5.0

     total energy              =   -1760.15498071 Ry
     estimated scf accuracy    <       2.49804870 Ry

[...]

     total energy              =   -1761.62847708 Ry
     estimated scf accuracy    <       0.00000481 Ry

     iteration # 19     ecut=    30.00 Ry     beta= 0.70
     Davidson diagonalization with overlap

     ethr =  9.30E-10,  avg # of iterations =  2.0

     End of self-consistent calculation

          k = 0.0000 0.0000 0.0000 (  3969 PWs)   bands (ev):

   -77.3176 -77.3176 -77.3174 -77.3172 -42.7492 -42.7485 -42.7483 -42.7481
   -42.7117 -42.7114 -42.7112 -42.7111 -42.6869 -42.6866 -42.6863 -42.6857
   -33.5460 -33.5386 -33.5385 -33.5367 -33.4820 -33.4729 -33.4694 -33.4668
   -33.3278 -33.3245 -14.6317 -14.6272 -14.6044 -14.6005 -14.5956 -14.5921
   -14.5917 -14.5801 -14.5735 -14.5380 -14.5297 -14.5292 -14.5276 -14.5093
   -14.4984 -14.4921 -14.4894 -14.4705 -14.4634 -14.4576 -14.4489 -14.4224
   -14.4148 -14.4138 -14.3876 -14.3553 -14.3325 -14.3276 -14.3180 -14.2962
     3.2890   4.8304   4.9634   4.9696   5.0454   5.0891   5.1081   5.1571
     5.1675   5.1759   5.2051   5.2116   5.2378   5.2763   5.3032   5.3102
     5.3562   5.3566   5.3596   5.3840   5.3891   5.6898   5.8633   5.9574
     6.0152   6.6463   7.4063   7.6032   7.6059   7.9723   8.0249   8.3749
     8.4363   8.5439   8.6006   8.7132   8.7475   9.0094   9.0617   9.3464
     9.4189   9.4387   9.5293   9.7803   9.8248   9.9515   9.9805

     occupation numbers
     1.0000   1.0000   1.0000   1.0000   1.0000   1.0000   1.0000   1.0000
     1.0000   1.0000   1.0000   1.0000   1.0000   1.0000   1.0000   1.0000
     1.0000   1.0000   1.0000   1.0000   1.0000   1.0000   1.0000   1.0000
     1.0000   1.0000   1.0000   1.0000   1.0000   1.0000   1.0000   1.0000
     1.0000   1.0000   1.0000   1.0000   1.0000   1.0000   1.0000   1.0000
     1.0000   1.0000   1.0000   1.0000   1.0000   1.0000   1.0000   1.0000
     1.0000   1.0000   1.0000   1.0000   1.0000   1.0000   1.0000   1.0000
     1.0000   1.0000   1.0000   1.0000   1.0000   1.0000   1.0000   1.0000
     1.0000   1.0000   1.0000   1.0000   1.0000   1.0000   1.0000   1.0000
     1.0000   1.0000   1.0000   1.0000   1.0000   1.0000   1.0000   1.0000
     1.0000   1.0000   1.0000   1.0000   1.0000   1.0099  -0.0099  -0.0000
    -0.0000  -0.0000  -0.0000  -0.0000  -0.0000  -0.0000  -0.0000  -0.0000
    -0.0000  -0.0000  -0.0000  -0.0000  -0.0000  -0.0000  -0.0000

     the Fermi energy is     7.9986 ev

!    total energy              =   -1761.62847729 Ry
     estimated scf accuracy    <       0.00000008 Ry
     smearing contrib. (-TS)   =       0.00008712 Ry
     internal energy E=F+TS    =   -1761.62856441 Ry

     The total energy is F=E-TS. E is the sum of the following terms:
     one-electron contribution =   -1070.76421262 Ry
     hartree contribution      =     563.52548515 Ry
     xc contribution           =    -217.61978720 Ry
     ewald contribution        =   -1036.77004974 Ry

     convergence has been achieved in  19 iterations

     Forces acting on atoms (cartesian axes, Ry/au):

     atom    1 type  1   force =     0.00243214   -0.00077602    0.00789916
     atom    2 type  1   force =    -0.00123782   -0.00222630   -0.00790228
     atom    3 type  1   force =    -0.00243214    0.00077602   -0.00789916
     atom    4 type  1   force =     0.00123782    0.00222630    0.00790228
     atom    5 type  1   force =    -0.00153435   -0.00268805    0.00263365
     atom    6 type  1   force =     0.00297641   -0.00090751   -0.00262895
     atom    7 type  1   force =     0.00153435    0.00268805   -0.00263365
     atom    8 type  1   force =    -0.00297641    0.00090751    0.00262895
     atom    9 type  1   force =     0.00059245   -0.00148268    0.00000067
     atom   10 type  1   force =    -0.00059245    0.00148268   -0.00000067
     atom   11 type  2   force =     0.00265851   -0.00287619    0.00391007
     atom   12 type  2   force =     0.00006518   -0.00390197   -0.00389824
     atom   13 type  2   force =    -0.00265851    0.00287619   -0.00391007
     atom   14 type  2   force =    -0.00006518    0.00390197    0.00389824
     The non-local contrib.  to forces
     atom    1 type  1   force =     0.03400351   -0.03884823    0.06063241
     atom    2 type  1   force =     0.00213599   -0.05157747   -0.06063438
     atom    3 type  1   force =    -0.03400351    0.03884823   -0.06063241
     atom    4 type  1   force =    -0.00213599    0.05157747    0.06063438
     atom    5 type  1   force =     0.03008742   -0.06284174    0.01328745
     atom    6 type  1   force =     0.02152760   -0.06628140   -0.01328362
     atom    7 type  1   force =    -0.03008742    0.06284174   -0.01328745
     atom    8 type  1   force =    -0.02152760    0.06628140    0.01328362
     atom    9 type  1   force =     0.01587397   -0.03971364    0.00000064
     atom   10 type  1   force =    -0.01587397    0.03971364   -0.00000064
     atom   11 type  2   force =    -0.05181379    0.05884918   -0.03187782
     atom   12 type  2   force =    -0.00302456    0.07834791    0.03188805
     atom   13 type  2   force =     0.05181379   -0.05884918    0.03187782
     atom   14 type  2   force =     0.00302456   -0.07834791   -0.03188805
     The ionic contribution  to forces
     atom    1 type  1   force =    -2.47244545   -1.00212654    2.97257335
     atom    2 type  1   force =     2.48200819    0.97820213   -2.97257335
     atom    3 type  1   force =     2.47244545    1.00212654   -2.97257335
     atom    4 type  1   force =    -2.48200819   -0.97820213    2.97257335
     atom    5 type  1   force =    -3.67565288   -1.06368025   -1.75021519
     atom    6 type  1   force =     3.39614409    1.76296487    1.75021519
     atom    7 type  1   force =     3.67565288    1.06368025    1.75021519
     atom    8 type  1   force =    -3.39614409   -1.76296487   -1.75021519
     atom    9 type  1   force =     1.62975186   -4.07736867   -0.00000000
     atom   10 type  1   force =    -1.62975186    4.07736867    0.00000000
     atom   11 type  2   force =    -4.38263087    0.37265259   -0.29833607
     atom   12 type  2   force =     2.91829178    3.29088080    0.29833607
     atom   13 type  2   force =     4.38263087   -0.37265259    0.29833607
     atom   14 type  2   force =    -2.91829178   -3.29088080   -0.29833607
     The local contribution  to forces
     atom    1 type  1   force =     2.44167914    1.03937617   -3.02516819
     atom    2 type  1   force =    -2.48537717   -0.93002041    3.02515692
     atom    3 type  1   force =    -2.44166201   -1.03931132    3.02507247
     atom    4 type  1   force =     2.48546051    0.92992742   -3.02507414
     atom    5 type  1   force =     3.64572460    1.12222589    1.74055369
     atom    6 type  1   force =    -3.41483219   -1.69998888   -1.74050289
     atom    7 type  1   force =    -3.64575298   -1.12229715   -1.74054690
     atom    8 type  1   force =     3.41475747    1.70001346    1.74055499
     atom    9 type  1   force =    -1.64510243    4.11589805    0.00001767
     atom   10 type  1   force =     1.64518373   -4.11583323    0.00000364
     atom   11 type  2   force =     4.43683543   -0.43386617    0.33407919
     atom   12 type  2   force =    -2.91522543   -3.37274171   -0.33406924
     atom   13 type  2   force =    -4.43673353    0.43413613   -0.33399954
     atom   14 type  2   force =     2.91531598    3.37265993    0.33384325
     The core correction contribution to forces
     atom    1 type  1   force =    -0.00086736    0.00095294   -0.00010822
     atom    2 type  1   force =    -0.00002756    0.00128930    0.00010871
     atom    3 type  1   force =     0.00086858   -0.00095296    0.00010809
     atom    4 type  1   force =     0.00002910   -0.00128911   -0.00010692
     atom    5 type  1   force =    -0.00182332    0.00152632   -0.00097728
     atom    6 type  1   force =     0.00026891    0.00236341    0.00097686
     atom    7 type  1   force =     0.00182403   -0.00152772    0.00097709
     atom    8 type  1   force =    -0.00026903   -0.00236185   -0.00097699
     atom    9 type  1   force =     0.00018837   -0.00047215   -0.00000006
     atom   10 type  1   force =    -0.00018887    0.00047230    0.00000040
     atom   11 type  2   force =     0.00000000    0.00000000    0.00000000
     atom   12 type  2   force =     0.00000000    0.00000000    0.00000000
     atom   13 type  2   force =     0.00000000    0.00000000    0.00000000
     atom   14 type  2   force =     0.00000000    0.00000000    0.00000000
     The Hubbard contrib.    to forces
     atom    1 type  1   force =     0.00000000    0.00000000    0.00000000
     atom    2 type  1   force =     0.00000000    0.00000000    0.00000000
     atom    3 type  1   force =     0.00000000    0.00000000    0.00000000
     atom    4 type  1   force =     0.00000000    0.00000000    0.00000000
     atom    5 type  1   force =     0.00000000    0.00000000    0.00000000
     atom    6 type  1   force =     0.00000000    0.00000000    0.00000000
     atom    7 type  1   force =     0.00000000    0.00000000    0.00000000
     atom    8 type  1   force =     0.00000000    0.00000000    0.00000000
     atom    9 type  1   force =     0.00000000    0.00000000    0.00000000
     atom   10 type  1   force =     0.00000000    0.00000000    0.00000000
     atom   11 type  2   force =     0.00000000    0.00000000    0.00000000
     atom   12 type  2   force =     0.00000000    0.00000000    0.00000000
     atom   13 type  2   force =     0.00000000    0.00000000    0.00000000
     atom   14 type  2   force =     0.00000000    0.00000000    0.00000000
     The SCF correction term to forces
     atom    1 type  1   force =     0.00007037   -0.00012188   -0.00003557
     atom    2 type  1   force =     0.00003808   -0.00012106    0.00004697
     atom    3 type  1   force =    -0.00007257    0.00007401    0.00012066
     atom    4 type  1   force =    -0.00009226    0.00021142   -0.00011724
     atom    5 type  1   force =     0.00011849    0.00007567   -0.00001340
     atom    6 type  1   force =    -0.00013829    0.00003206   -0.00002563
     atom    7 type  1   force =    -0.00011352   -0.00001513    0.00001005
     atom    8 type  1   force =     0.00020055   -0.00006306   -0.00000863
     atom    9 type  1   force =    -0.00010529    0.00017949   -0.00001487
     atom   10 type  1   force =     0.00005255   -0.00023294   -0.00000137
     atom   11 type  2   force =     0.00026417   -0.00049878    0.00004807
     atom   12 type  2   force =     0.00004928   -0.00038921   -0.00004147
     atom   13 type  2   force =    -0.00037321    0.00025484   -0.00012111
     atom   14 type  2   force =    -0.00008807    0.00047052    0.00029077

     Total force =     0.021659     Total SCF correction =     0.001157

     Computing stress (Cartesian axis) and pressure

          total   stress  (Ry/bohr**3)                   (kbar)     P=     -234.55
  -0.00156766  -0.00000798   0.00009231         -230.61       -1.17       13.58
  -0.00000798  -0.00155088   0.00003690           -1.17     -228.14        5.43
   0.00009231   0.00003690  -0.00166473           13.58        5.43     -244.89

     kinetic stress (kbar)  18757.15      2.54     15.53
                                2.54  18751.81      6.20
                               15.53      6.20  18729.55

     local   stress (kbar) -11515.25   -907.03  -1901.48
                             -907.03  -9608.55   -760.03
                            -1901.48   -760.03 -13498.55

     nonloc. stress (kbar)   4181.38     -6.24      6.18
                               -6.24   4194.50      2.47
                                6.18      2.47   4176.40

     hartree stress (kbar)   9701.51    407.86    837.03
                              407.86   8844.12    334.56
                              837.03    334.56  10505.89

     exc-cor stress (kbar)  -2615.50      0.16      0.25
                                0.16  -2615.83      0.10
                                0.25      0.10  -2614.45

     corecor stress (kbar)   -876.32      0.13     -0.31
                                0.13   -876.60     -0.12
                               -0.31     -0.12   -876.13

     ewald   stress (kbar) -17863.58    501.41   1056.39
                              501.41 -18917.60    422.24
                             1056.39    422.24 -16667.59

     hubbard stress (kbar)      0.00      0.00      0.00
                                0.00      0.00      0.00
                                0.00      0.00      0.00

     DFT-D   stress (kbar)      0.00      0.00      0.00
                                0.00      0.00      0.00
                                0.00      0.00      0.00

     XDM     stress (kbar)      0.00      0.00      0.00
                                0.00      0.00      0.00
                                0.00      0.00      0.00

     dft-nl  stress (kbar)      0.00      0.00      0.00
                                0.00      0.00      0.00
                                0.00      0.00      0.00

     TS-vdW  stress (kbar)      0.00      0.00      0.00
                                0.00      0.00      0.00
                                0.00      0.00      0.00

[...]

                                0.00      0.00      0.00

     Writing all to output data dir new_calculations/myprefix.save/

     General routines

     Parallel routines

   This run was terminated on:   2:28:14  21May2023

   JOB DONE.