     Program PWSCF v.7.0 starts on 21May2023 at 15:47:48

     Reading input from espresso_26834.pwi
Warning: card &CELL ignored
Warning: card / ignored

     Current dimensions of program PWSCF are:
     Max number of different atomic species (ntypx) = 10
     Max number of k-points (npk) =  40000
     Max angular momentum in pseudopotentials (lmaxx) =  4
     file O.pbe-n-kjpaw_psl.0.1.UPF: wavefunction(s)  2P renormalized

     gamma-point specific algorithms are used
     Message from routine setup:
     using ibrav=0 with symmetry is DISCOURAGED, use correct ibrav instead

     Subspace diagonalization in iterative solution of the eigenvalue problem:
     a serial algorithm will be used

     Using Slab Decomposition

     bravais-lattice index     =            0
     lattice parameter (alat)  =      10.6788  a.u.
     unit-cell volume          =     933.8722 (a.u.)^3
     number of atoms/cell      =           12
     number of atomic types    =            3
     number of electrons       =       100.00
     number of Kohn-Sham states=           60
     kinetic-energy cutoff     =      30.0000  Ry
     charge density cutoff     =     240.0000  Ry
     scf convergence threshold =      1.0E-06
     mixing beta               =       0.7000
     number of iterations used =            8  plain     mixing
     Exchange-correlation= SLA  PW   PBX  PBC
                           (   1   4   3   4   0   0   0)

     celldm(1)=  10.678777  celldm(2)=   0.000000  celldm(3)=   0.000000
     celldm(4)=   0.000000  celldm(5)=   0.000000  celldm(6)=   0.000000

     crystal axes: (cart. coord. in units of alat)
               a(1) = (   1.000000   0.000000   0.000000 )
               a(2) = (  -0.315029   0.948780   0.000000 )
               a(3) = (   0.394051   0.436858   0.808272 )

     reciprocal axes: (cart. coord. in units 2 pi/alat)
               b(1) = (  1.000000  0.332036 -0.666983 )
               b(2) = (  0.000000  1.053985 -0.569662 )
               b(3) = (  0.000000  0.000000  1.237208 )

     PseudoPot. # 1 for Ta read from file:
     /home/pragov/projects/rrg-bengioy-ad/pragov/crystal_structure_design/SSSP/Ta_pbe_v1.uspp.F.UPF
     MD5 check sum: f8bbe9446314a3b8ea5d9f3e3836c939
     Pseudo is Ultrasoft + core correction, Zval = 13.0
     Generated by new atomic code, or converted to UPF format
     Using radial grid of  921 points,  7 beta functions with:
                l(1) =   0
                l(2) =   0
                l(3) =   1
                l(4) =   1
                l(5) =   2
                l(6) =   2
                l(7) =   3
     Q(r) pseudized with  6 coefficients,  rinner =    1.300   1.300   1.300
                                                       1.300   1.300   1.300
                                                       1.300

     PseudoPot. # 2 for V  read from file:
     /home/pragov/projects/rrg-bengioy-ad/pragov/crystal_structure_design/SSSP/v_pbe_v1.4.uspp.F.UPF
     MD5 check sum: 22b79981416ebb76fdaf5b1b8640f6fb
     Pseudo is Ultrasoft + core correction, Zval = 13.0
     Generated by new atomic code, or converted to UPF format
     Using radial grid of  853 points,  6 beta functions with:
                l(1) =   0
                l(2) =   0
                l(3) =   1
                l(4) =   1
                l(5) =   2
                l(6) =   2
     Q(r) pseudized with  8 coefficients,  rinner =    1.100   1.100   1.100
                                                       1.100   1.100

     PseudoPot. # 3 for O  read from file:
     /home/pragov/projects/rrg-bengioy-ad/pragov/crystal_structure_design/SSSP/O.pbe-n-kjpaw_psl.0.1.UPF
     MD5 check sum: 0234752ac141de4415c5fc33072bef88
     Pseudo is Projector augmented-wave + core cor, Zval =  6.0
     Generated using "atomic" code by A. Dal Corso  v.5.0.99 svn rev. 10869
     Shape of augmentation charge: BESSEL
     Using radial grid of 1095 points,  4 beta functions with:
                l(1) =   0
                l(2) =   0
                l(3) =   1
                l(4) =   1
     Q(r) pseudized with 0 coefficients

     atomic species   valence    mass     pseudopotential
        Ta            13.00   180.94788     Ta( 1.00)
        V             13.00    50.94150     V ( 1.00)
        O              6.00    15.99900     O ( 1.00)

      2 Sym. Ops., with inversion, found ( 1 have fractional translation)

                                    s                        frac. trans.

      isym =  1     identity

 cryst.   s( 1) = (     1          0          0      )
                  (     0          1          0      )
                  (     0          0          1      )

 cart.    s( 1) = (  1.0000000 -0.0000000 -0.0000000 )
                  (  0.0000000  1.0000000 -0.0000000 )
                  (  0.0000000  0.0000000  1.0000000 )

      isym =  2     inversion

 cryst.   s( 2) = (    -1          0          0      )    f =( -0.5000000 )
                  (     0         -1          0      )       ( -0.0000000 )
                  (     0          0         -1      )       ( -0.5000000 )

 cart.    s( 2) = ( -1.0000000  0.0000000  0.0000000 )    f =( -0.6970255 )
                  (  0.0000000 -1.0000000  0.0000000 )       ( -0.2184290 )
                  (  0.0000000  0.0000000 -1.0000000 )       ( -0.4041358 )

   Cartesian axes

     site n.     atom                  positions (alat units)
         1           Ta  tau(   1) = (   0.0790249   1.3856198   0.8082571  )
         2           Ta  tau(   2) = (   0.6970221   0.2184473   0.4041504  )
         3           V   tau(   3) = (   0.1909980   0.5836045   0.2020679  )
         4           V   tau(   4) = (   0.8880234   0.8020322   0.6062029  )
         5           O   tau(   5) = (   0.7118644   0.2078680   0.0463043  )
         6           O   tau(   6) = (   0.4088970   0.4262919   0.4504482  )
         7           O   tau(   7) = (   0.6701316   0.9593411   0.3578315  )
         8           O   tau(   8) = (   0.3671500   1.1777752   0.7619593  )
         9           O   tau(   9) = (   0.2040938   0.2827432   0.0000283  )
        10           O   tau(  10) = (   0.9010994   0.5011650   0.4041770  )
        11           O   tau(  11) = (   0.8749467   1.1029021   0.8082304  )
        12           O   tau(  12) = (   0.1779022   0.8844659   0.4041075  )

   Crystallographic axes

     site n.     atom                  positions (cryst. coord.)
         1           Ta  tau(   1) = (  0.0000070  0.9999890  0.9999820  )
         2           Ta  tau(   2) = (  0.4999930  0.0000110  0.5000180  )
         3           V   tau(   3) = (  0.2500000  0.5000000  0.2500000  )
         4           V   tau(   4) = (  0.7500000  0.4999990  0.7499990  )
         5           O   tau(   5) = (  0.7500000  0.1927120  0.0572880  )
         6           O   tau(   6) = (  0.2500000  0.1927020  0.5572980  )
         7           O   tau(   7) = (  0.7500000  0.8072880  0.4427120  )
         8           O   tau(   8) = (  0.2500000  0.8072980  0.9427020  )
         9           O   tau(   9) = (  0.2979560  0.2979910  0.0000350  )
        10           O   tau(  10) = (  0.7979250  0.2979760  0.5000510  )
        11           O   tau(  11) = (  0.7020740  0.7020240  0.9999490  )
        12           O   tau(  12) = (  0.2020440  0.7020090  0.4999650  )

     number of k points=     1  Methfessel-Paxton smearing, width (Ry)=  0.0010
                       cart. coord. in units 2pi/alat
        k(    1) = (   0.0000000   0.0000000   0.0000000), wk =   2.0000000

                       cryst. coord.
        k(    1) = (   0.0000000   0.0000000   0.0000000), wk =   2.0000000

     Check: negative core charge=   -0.000012

     Initial potential from superposition of free atoms

     starting charge      99.9953, renormalised to     100.0000

     negative rho (up, down):  1.958E-01 0.000E+00
     Starting wfcs are   78 randomized atomic wfcs
     Checking if some PAW data can be deallocated...

     Self-consistent Calculation

     iteration #  1     ecut=    30.00 Ry     beta= 0.70
     Davidson diagonalization with overlap

     ethr =  1.00E-02,  avg # of iterations =  2.0

     negative rho (up, down):  1.979E-01 0.000E+00

     total energy              =    -904.98690950 Ry
     estimated scf accuracy    <       4.52235610 Ry

[...]

     total energy              =    -907.34577780 Ry
     estimated scf accuracy    <       0.00000616 Ry

     iteration # 32     ecut=    30.00 Ry     beta= 0.70
     Davidson diagonalization with overlap

     ethr =  3.68E-09,  avg # of iterations =  1.0

[...]

     End of self-consistent calculation

          k = 0.0000 0.0000 0.0000 (  1294 PWs)   bands (ev):

   -58.5253 -58.5057 -54.0401 -54.0297 -28.0466 -28.0359 -27.8035 -27.7624
   -27.7343 -27.6599 -25.4024 -25.0731 -25.0386 -25.0099 -24.8984 -24.8724
    -8.7869  -7.9227  -7.6715  -7.4289  -7.1232  -6.9609  -6.9037  -6.6812
     3.3917   4.1150   4.3592   4.4433   4.6990   4.9469   5.1519   5.2999
     5.4445   6.2945   6.4312   6.4709   6.9326   7.3251   7.3327   7.5105
     7.9971   8.2920   8.6796   8.8184   8.9193   8.9634   8.9886   9.5575
    11.2369  11.5342  11.5412  11.5448  11.6120  12.0159  12.1580  12.3662
    13.0722  13.6504  13.7670  13.9522

     occupation numbers
     1.0000   1.0000   1.0000   1.0000   1.0000   1.0000   1.0000   1.0000
     1.0000   1.0000   1.0000   1.0000   1.0000   1.0000   1.0000   1.0000
     1.0000   1.0000   1.0000   1.0000   1.0000   1.0000   1.0000   1.0000
     1.0000   1.0000   1.0000   1.0000   1.0000   1.0000   1.0000   1.0000
     1.0000   1.0000   1.0000   1.0000   1.0000   1.0000   1.0000   1.0000
     1.0000   1.0000   1.0000   1.0000   1.0000   1.0000   1.0000   1.0000
     1.0000   0.6638   0.2478   0.0884  -0.0000  -0.0000  -0.0000  -0.0000
    -0.0000  -0.0000  -0.0000  -0.0000

     the Fermi energy is    11.5369 ev

!    total energy              =    -907.34577766 Ry
     estimated scf accuracy    <       0.00000038 Ry
     smearing contrib. (-TS)   =      -0.00052009 Ry
     internal energy E=F+TS    =    -907.34525756 Ry

     The total energy is F=E-TS. E is the sum of the following terms:
     one-electron contribution =    -267.34729978 Ry
     hartree contribution      =     184.04756663 Ry
     xc contribution           =    -183.19803991 Ry
     ewald contribution        =    -564.75160065 Ry
     one-center paw contrib.   =     -76.09588386 Ry
      -> PAW hartree energy AE =     244.88030288 Ry
      -> PAW hartree energy PS =    -243.97347075 Ry
      -> PAW xc energy AE      =    -138.53349838 Ry
      -> PAW xc energy PS      =      61.53078239 Ry
      -> total E_H with PAW    =     184.95439876 Ry
      -> total E_XC with PAW   =    -260.20075590 Ry

     convergence has been achieved in  32 iterations

     negative rho (up, down):  1.991E-01 0.000E+00

     Forces acting on atoms (cartesian axes, Ry/au):

     atom    1 type  1   force =    -0.00003783    0.00012603    0.00011386
     atom    2 type  1   force =     0.00003783   -0.00012603   -0.00011386
     atom    3 type  2   force =     0.00000000    0.00000000    0.00000000
     atom    4 type  2   force =     0.00000000    0.00000000    0.00000000
     atom    5 type  3   force =    -0.02477012    0.01788445   -0.02824600
     atom    6 type  3   force =    -0.02481909    0.01791698   -0.02829941
     atom    7 type  3   force =     0.02477012   -0.01788445    0.02824600
     atom    8 type  3   force =     0.02481909   -0.01791698    0.02829941
     atom    9 type  3   force =     0.02439145    0.03372215   -0.00004000
     atom   10 type  3   force =     0.02442331    0.03374700   -0.00005035
     atom   11 type  3   force =    -0.02442331   -0.03374700    0.00005035
     atom   12 type  3   force =    -0.02439145   -0.03372215    0.00004000
     The non-local contrib.  to forces
     atom    1 type  1   force =     0.00005593    0.00002511   -0.00003071
     atom    2 type  1   force =    -0.00005593   -0.00002511    0.00003071
     atom    3 type  2   force =     0.00000000    0.00000000    0.00000000
     atom    4 type  2   force =     0.00000000    0.00000000    0.00000000
     atom    5 type  3   force =     0.20439570   -0.14756579    0.23299159
     atom    6 type  3   force =     0.20456773   -0.14768456    0.23318483
     atom    7 type  3   force =    -0.20439570    0.14756579   -0.23299159
     atom    8 type  3   force =    -0.20456773    0.14768456   -0.23318483
     atom    9 type  3   force =    -0.01935933   -0.02630351    0.00032756
     atom   10 type  3   force =    -0.01953034   -0.02645278    0.00037480
     atom   11 type  3   force =     0.01953034    0.02645278   -0.00037480
     atom   12 type  3   force =     0.01935933    0.02630351   -0.00032756
     The ionic contribution  to forces
     atom    1 type  1   force =    -0.00196706    0.00429961    0.00446944
     atom    2 type  1   force =     0.00192240   -0.00438858   -0.00447659
     atom    3 type  2   force =     0.00001509   -0.00003456   -0.00001932
     atom    4 type  2   force =    -0.00001714    0.00014920    0.00012538
     atom    5 type  3   force =    -1.81511128    1.31045520   -2.06902465
     atom    6 type  3   force =    -1.81844289    1.31280293   -2.07282991
     atom    7 type  3   force =     1.81511653   -1.31039952    2.06904862
     atom    8 type  3   force =     1.81841485   -1.31283828    2.07282544
     atom    9 type  3   force =    -0.48053951   -0.67499671   -0.00594422
     atom   10 type  3   force =    -0.47671854   -0.67327402   -0.00821527
     atom   11 type  3   force =     0.47678113    0.67316721    0.00806072
     atom   12 type  3   force =     0.48054641    0.67505753    0.00598035
     The local contribution  to forces
     atom    1 type  1   force =     0.00187646   -0.00405792   -0.00426111
     atom    2 type  1   force =    -0.00191722    0.00406755    0.00424498
     atom    3 type  2   force =     0.00007091    0.00005605   -0.00001028
     atom    4 type  2   force =     0.00002460   -0.00008281   -0.00007235
     atom    5 type  3   force =     1.58717309   -1.14589120    1.80926571
     atom    6 type  3   force =     1.59010282   -1.14797581    1.81246247
     atom    7 type  3   force =    -1.58725082    1.14588039   -1.80920438
     atom    8 type  3   force =    -1.59002216    1.14796022   -1.81255777
     atom    9 type  3   force =     0.52493208    0.73621791    0.00577830
     atom   10 type  3   force =     0.52147845    0.73422298    0.00755868
     atom   11 type  3   force =    -0.52159112   -0.73419250   -0.00741822
     atom   12 type  3   force =    -0.52487033   -0.73618128   -0.00580722
     The core correction contribution to forces
     atom    1 type  1   force =     0.00000367   -0.00000540   -0.00000724
     atom    2 type  1   force =    -0.00000552    0.00000396    0.00000669
     atom    3 type  2   force =     0.00000015    0.00000044    0.00000028
     atom    4 type  2   force =     0.00000028    0.00000057    0.00000026
     atom    5 type  3   force =    -0.00127907    0.00092356   -0.00145826
     atom    6 type  3   force =    -0.00127962    0.00092378   -0.00145859
     atom    7 type  3   force =     0.00127929   -0.00092355    0.00145809
     atom    8 type  3   force =     0.00127954   -0.00092365    0.00145857
     atom    9 type  3   force =    -0.00056942   -0.00079073   -0.00000132
     atom   10 type  3   force =    -0.00056935   -0.00079048   -0.00000120
     atom   11 type  3   force =     0.00056942    0.00079061    0.00000105
     atom   12 type  3   force =     0.00056927    0.00079064    0.00000138
     The Hubbard contrib.    to forces
     atom    1 type  1   force =     0.00000000    0.00000000    0.00000000
     atom    2 type  1   force =     0.00000000    0.00000000    0.00000000
     atom    3 type  2   force =     0.00000000    0.00000000    0.00000000
     atom    4 type  2   force =     0.00000000    0.00000000    0.00000000
     atom    5 type  3   force =     0.00000000    0.00000000    0.00000000
     atom    6 type  3   force =     0.00000000    0.00000000    0.00000000
     atom    7 type  3   force =     0.00000000    0.00000000    0.00000000
     atom    8 type  3   force =     0.00000000    0.00000000    0.00000000
     atom    9 type  3   force =     0.00000000    0.00000000    0.00000000
     atom   10 type  3   force =     0.00000000    0.00000000    0.00000000
     atom   11 type  3   force =     0.00000000    0.00000000    0.00000000
     atom   12 type  3   force =     0.00000000    0.00000000    0.00000000
     The SCF correction term to forces
     atom    1 type  1   force =    -0.00000253   -0.00013489   -0.00005401
     atom    2 type  1   force =     0.00009839    0.00021665    0.00008287
     atom    3 type  2   force =    -0.00008518   -0.00001826    0.00002547
     atom    4 type  2   force =    -0.00000834   -0.00006505   -0.00005141
     atom    5 type  3   force =     0.00005663   -0.00003558   -0.00002367
     atom    6 type  3   force =     0.00023094   -0.00014560    0.00034096
     atom    7 type  3   force =     0.00002601   -0.00000581   -0.00006803
     atom    8 type  3   force =    -0.00028736    0.00020395   -0.00024286
     atom    9 type  3   force =    -0.00007598   -0.00040547   -0.00019776
     atom   10 type  3   force =    -0.00023463    0.00004100    0.00022517
     atom   11 type  3   force =     0.00028921    0.00003462   -0.00022586
     atom   12 type  3   force =     0.00000027    0.00030679    0.00019561

     Total force =     0.117785     Total SCF correction =     0.001034

     Computing stress (Cartesian axis) and pressure

     negative rho (up, down):  1.991E-01 0.000E+00
          total   stress  (Ry/bohr**3)                   (kbar)     P=     -424.75
  -0.00284466   0.00024266   0.00065323         -418.46       35.70       96.09
   0.00024266  -0.00267416  -0.00046549           35.70     -393.38      -68.48
   0.00065323  -0.00046549  -0.00314330           96.09      -68.48     -462.40

     kinetic stress (kbar)  30580.91    217.96    111.40
                              217.96  30726.11    -80.02
                              111.40    -80.02  30402.08

     local   stress (kbar)    245.09   2453.32   9136.82
                             2453.32   1858.93  -6604.57
                             9136.82  -6604.57  -3309.76

     nonloc. stress (kbar)  -3333.64    -27.88     -6.38
                              -27.88  -3351.84      4.79
                               -6.38      4.79  -3312.13

     hartree stress (kbar)   9427.22   -962.59  -3322.98
                             -962.59   8793.46   2401.91
                            -3322.98   2401.91  10770.80

     exc-cor stress (kbar)   3171.99      0.08     -9.72
                                0.08   3172.07      7.03
                               -9.72      7.03   3173.83

     corecor stress (kbar) -10442.78      0.04      2.27
                                0.04 -10442.74     -1.63
                                2.27     -1.63 -10443.25

     ewald   stress (kbar) -30067.26  -1645.24  -5815.32
                            -1645.24 -31149.38   4204.00
                            -5815.32   4204.00 -27743.96

     hubbard stress (kbar)      0.00      0.00      0.00
                                0.00      0.00      0.00
                                0.00      0.00      0.00

     DFT-D   stress (kbar)      0.00      0.00      0.00
                                0.00      0.00      0.00
                                0.00      0.00      0.00

     XDM     stress (kbar)      0.00      0.00      0.00
                                0.00      0.00      0.00
                                0.00      0.00      0.00

     dft-nl  stress (kbar)      0.00      0.00      0.00
                                0.00      0.00      0.00
                                0.00      0.00      0.00

     TS-vdW  stress (kbar)      0.00      0.00      0.00
                                0.00      0.00      0.00
                                0.00      0.00      0.00

[...]

                                0.00      0.00      0.00

     Writing all to output data dir new_calculations/myprefix.save/

     General routines

     Parallel routines

     PAW routines

   This run was terminated on:  15:48:18  21May2023

   JOB DONE.