     Program PWSCF v.7.0 starts on 20May2023 at 20:55:45

     Reading input from espresso_10718.pwi
Warning: card &CELL ignored
Warning: card / ignored

     Current dimensions of program PWSCF are:
     Max number of different atomic species (ntypx) = 10
     Max number of k-points (npk) =  40000
     Max angular momentum in pseudopotentials (lmaxx) =  4
     file Nb.pbe-spn-kjpaw_psl.0.3.0.UPF: wavefunction(s)  4S 4P renormalized

     gamma-point specific algorithms are used
     Message from routine setup:
     using ibrav=0 with symmetry is DISCOURAGED, use correct ibrav instead

     Subspace diagonalization in iterative solution of the eigenvalue problem:
     a serial algorithm will be used

     Using Slab Decomposition

     bravais-lattice index     =            0
     lattice parameter (alat)  =      18.2331  a.u.
     unit-cell volume          =    1855.7215 (a.u.)^3
     number of atoms/cell      =           15
     number of atomic types    =            3
     number of electrons       =       140.00
     number of Kohn-Sham states=           84
     kinetic-energy cutoff     =      30.0000  Ry
     charge density cutoff     =     240.0000  Ry
     scf convergence threshold =      1.0E-06
     mixing beta               =       0.7000
     number of iterations used =            8  plain     mixing
     Exchange-correlation=  SLA  PW   PBX  PBC
                           (   1   4   3   4   0   0   0)

     celldm(1)=  18.233088  celldm(2)=   0.000000  celldm(3)=   0.000000
     celldm(4)=   0.000000  celldm(5)=   0.000000  celldm(6)=   0.000000

     crystal axes: (cart. coord. in units of alat)
               a(1) = (   1.000000   0.000000   0.000000 )
               a(2) = (  -0.500000   0.866025   0.000000 )
               a(3) = (   0.000000   0.000000   0.353510 )

     reciprocal axes: (cart. coord. in units 2 pi/alat)
               b(1) = (  1.000000  0.577350  0.000000 )
               b(2) = (  0.000000  1.154701  0.000000 )
               b(3) = (  0.000000  0.000000  2.828775 )

     PseudoPot. # 1 for Nb read from file:
     /home/pragov/projects/rrg-bengioy-ad/pragov/crystal_structure_design/SSSP/Nb.pbe-spn-kjpaw_psl.0.3.0.UPF
     MD5 check sum: 411d72ad547312f8017e2943ceca08cc
     Pseudo is Projector augmented-wave + core cor, Zval = 13.0
     Generated using "atomic" code by A. Dal Corso  v.5.0.99 svn rev. 10869
     Shape of augmentation charge: PSQ
     Using radial grid of 1227 points,  6 beta functions with:
                l(1) =   0
                l(2) =   0
                l(3) =   1
                l(4) =   1
                l(5) =   2
                l(6) =   2
     Q(r) pseudized with 0 coefficients

     PseudoPot. # 2 for Sn read from file:
     /home/pragov/projects/rrg-bengioy-ad/pragov/crystal_structure_design/SSSP/Sn_pbe_v1.uspp.F.UPF
     MD5 check sum: 4cf58ce39ec5d5d420df3dd08604eb00
     Pseudo is Ultrasoft + core correction, Zval = 14.0
     Generated by new atomic code, or converted to UPF format
     Using radial grid of  891 points,  6 beta functions with:
                l(1) =   0
                l(2) =   0
                l(3) =   1
                l(4) =   1
                l(5) =   2
                l(6) =   2
     Q(r) pseudized with  6 coefficients,  rinner =    1.200   1.200   1.200
                                                       1.200   1.200

     PseudoPot. # 3 for S  read from file:
     /home/pragov/projects/rrg-bengioy-ad/pragov/crystal_structure_design/SSSP/s_pbe_v1.4.uspp.F.UPF
     MD5 check sum: 88d86576ff6df21479756cfb9bdac1df
     Pseudo is Ultrasoft + core correction, Zval =  6.0
     Generated by new atomic code, or converted to UPF format
     Using radial grid of  907 points,  6 beta functions with:
                l(1) =   0
                l(2) =   0
                l(3) =   1
                l(4) =   1
                l(5) =   2
                l(6) =   2
     Q(r) pseudized with  8 coefficients,  rinner =    1.300   1.300   1.300
                                                       1.300   1.300

     atomic species   valence    mass     pseudopotential
        Nb            13.00    92.90637     Nb( 1.00)
        Sn            14.00   118.71000     Sn( 1.00)
        S              6.00    32.06000     S ( 1.00)

      6 Sym. Ops., with inversion, found

                                    s                        frac. trans.

      isym =  1     identity

 cryst.   s( 1) = (     1          0          0      )
                  (     0          1          0      )
                  (     0          0          1      )

 cart.    s( 1) = (  1.0000000 -0.0000000  0.0000000 )
                  (  0.0000000  1.0000000  0.0000000 )
                  (  0.0000000  0.0000000  1.0000000 )

      isym =  2     120 deg rotation - cryst. axis [0,0,1]

[...]

      isym =  3     120 deg rotation - cryst. axis [0,0,-1]

[...]

      isym =  4     inversion

[...]

      isym =  5     inv. 120 deg rotation - cryst. axis [0,0,1]

[...]

      isym =  6     inv. 120 deg rotation - cryst. axis [0,0,-1]

 cryst.   s( 6) = (     1          1          0      )
                  (    -1          0          0      )
                  (     0          0         -1      )

 cart.    s( 6) = (  0.5000000 -0.8660254  0.0000000 )
                  (  0.8660254  0.5000000  0.0000000 )
                  (  0.0000000  0.0000000 -1.0000000 )

   Cartesian axes

     site n.     atom                  positions (alat units)
         1           Nb  tau(   1) = (   0.2997665   0.3244850   0.2647722  )
         2           Nb  tau(   2) = (   0.5691045   0.0973629   0.2647722  )
         3           Nb  tau(   3) = (   0.6311290   0.4441775   0.2647722  )
         4           Nb  tau(   4) = (   0.2002335   0.5415404   0.0887377  )
         5           Nb  tau(   5) = (  -0.0691045   0.7686625   0.0887377  )
         6           Nb  tau(   6) = (  -0.1311290   0.4218479   0.0887377  )
         7           Sn  tau(   7) = (   0.0000000   0.0000000   0.1767549  )
         8           S   tau(   8) = (  -0.0000005   0.5773505   0.2652338  )
         9           S   tau(   9) = (   0.5000005   0.2886748   0.0882760  )
        10           S   tau(  10) = (   0.3123875   0.0472443   0.2656340  )
        11           S   tau(  11) = (   0.8028915   0.2469134   0.2656340  )
        12           S   tau(  12) = (   0.3847210   0.5718677   0.2656340  )
        13           S   tau(  13) = (   0.1876125   0.8187811   0.0878758  )
        14           S   tau(  14) = (  -0.3028915   0.6191120   0.0878758  )
        15           S   tau(  15) = (   0.1152790   0.2941576   0.0878758  )

   Crystallographic axes

     site n.     atom                  positions (cryst. coord.)
         1           Nb  tau(   1) = (  0.4871080  0.3746830  0.7489810  )
         2           Nb  tau(   2) = (  0.6253170  0.1124250  0.7489810  )
         3           Nb  tau(   3) = (  0.8875750  0.5128920  0.7489810  )
         4           Nb  tau(   4) = (  0.5128920  0.6253170  0.2510190  )
         5           Nb  tau(   5) = (  0.3746830  0.8875750  0.2510190  )
         6           Nb  tau(   6) = (  0.1124250  0.4871080  0.2510190  )
         7           Sn  tau(   7) = (  0.0000000  0.0000000  0.5000000  )
         8           S   tau(   8) = (  0.3333330  0.6666670  0.7502870  )
         9           S   tau(   9) = (  0.6666670  0.3333330  0.2497130  )
        10           S   tau(  10) = (  0.3396640  0.0545530  0.7514190  )
        11           S   tau(  11) = (  0.9454470  0.2851110  0.7514190  )
        12           S   tau(  12) = (  0.7148890  0.6603360  0.7514190  )
        13           S   tau(  13) = (  0.6603360  0.9454470  0.2485810  )
        14           S   tau(  14) = (  0.0545530  0.7148890  0.2485810  )
        15           S   tau(  15) = (  0.2851110  0.3396640  0.2485810  )

     number of k points=     1  Methfessel-Paxton smearing, width (Ry)=  0.0010
                       cart. coord. in units 2pi/alat
        k(    1) = (   0.0000000   0.0000000   0.0000000), wk =   2.0000000

                       cryst. coord.
        k(    1) = (   0.0000000   0.0000000   0.0000000), wk =   2.0000000

     Check: negative core charge=   -0.000013

     Initial potential from superposition of free atoms

     starting charge     138.9869, renormalised to     140.0000
     Starting wfcs are  101 randomized atomic wfcs
     Checking if some PAW data can be deallocated...

     Self-consistent Calculation

     iteration #  1     ecut=    30.00 Ry     beta= 0.70
     Davidson diagonalization with overlap

     ethr =  1.00E-02,  avg # of iterations =  3.0

     total energy              =   -2356.09328167 Ry
     estimated scf accuracy    <       8.60702433 Ry

[...]

     total energy              =   -2361.87473223 Ry
     estimated scf accuracy    <       0.00000294 Ry

     iteration # 58     ecut=    30.00 Ry     beta= 0.70
     Davidson diagonalization with overlap

     ethr =  2.10E-09,  avg # of iterations =  1.0

     End of self-consistent calculation

          k = 0.0000 0.0000 0.0000 (  2610 PWs)   bands (ev):

   -42.1625 -42.1513 -42.1512 -42.0550 -42.0448 -42.0447 -18.7134 -18.7134
   -18.6979 -18.3262 -18.3165 -18.3165 -18.1890 -18.1499 -18.1480 -18.1320
   -18.1320 -18.0976 -18.0976 -18.0754 -18.0753 -17.8874 -17.8712 -17.8712
   -11.2805 -11.1403 -11.1403 -11.0349 -11.0349  -1.9027  -0.8330  -0.8330
    -0.7969  -0.6698  -0.6697  -0.4120  -0.3275   3.4071   6.6420   6.6420
     7.0187   7.0188   7.0323   7.0324   7.3776   8.0279   8.0279   8.4832
     8.6135   8.9051   8.9406   9.2995   9.3803   9.3804   9.9648   9.9649
    10.0867  10.0867  10.3448  10.6678  10.6678  10.7829  11.3448  11.8636
    11.8636  11.9702  12.1840  12.1840  12.6356  12.6356  12.6616  12.6616
    12.7825  14.0735  14.0735  14.2992  14.6721  15.0899  15.0899  15.1353
    15.1353  15.1624  15.1625  15.2771

     occupation numbers
     1.0000   1.0000   1.0000   1.0000   1.0000   1.0000   1.0000   1.0000
     1.0000   1.0000   1.0000   1.0000   1.0000   1.0000   1.0000   1.0000
     1.0000   1.0000   1.0000   1.0000   1.0000   1.0000   1.0000   1.0000
     1.0000   1.0000   1.0000   1.0000   1.0000   1.0000   1.0000   1.0000
     1.0000   1.0000   1.0000   1.0000   1.0000   1.0000   1.0000   1.0000
     1.0000   1.0000   1.0000   1.0000   1.0000   1.0000   1.0000   1.0000
     1.0000   1.0000   1.0000   1.0000   1.0000   1.0000   1.0000   1.0000
     1.0000   1.0000   1.0000   1.0000   1.0000   1.0000   1.0000   1.0000
     1.0000   1.0000   1.0000   1.0000   1.0199   1.0196  -0.0196  -0.0198
    -0.0000  -0.0000  -0.0000  -0.0000  -0.0000  -0.0000  -0.0000  -0.0000
    -0.0000  -0.0000  -0.0000  -0.0000

     the Fermi energy is    12.6486 ev

!    total energy              =   -2361.87473168 Ry
     estimated scf accuracy    <       0.00000065 Ry
     smearing contrib. (-TS)   =       0.00037296 Ry
     internal energy E=F+TS    =   -2361.87510464 Ry

     The total energy is F=E-TS. E is the sum of the following terms:
     one-electron contribution =    -284.81593370 Ry
     hartree contribution      =     221.01647946 Ry
     xc contribution           =    -289.55857058 Ry
     ewald contribution        =    -757.62821187 Ry
     one-center paw contrib.   =   -1250.88886795 Ry
      -> PAW hartree energy AE =     413.61199604 Ry
      -> PAW hartree energy PS =    -411.39838550 Ry
      -> PAW xc energy AE      =   -1415.41919377 Ry
      -> PAW xc energy PS      =     162.31671528 Ry
      -> total E_H with PAW    =     223.23009000 Ry
      -> total E_XC with PAW   =   -1542.66104907 Ry

     convergence has been achieved in  58 iterations

     Forces acting on atoms (cartesian axes, Ry/au):

     atom    1 type  1   force =     0.04438514   -0.02665064    0.00273893
     atom    2 type  1   force =     0.00088756    0.05176398    0.00273893
     atom    3 type  1   force =    -0.04527270   -0.02511334    0.00273893
     atom    4 type  1   force =    -0.04438514    0.02665064   -0.00273893
     atom    5 type  1   force =    -0.00088756   -0.05176398   -0.00273893
     atom    6 type  1   force =     0.04527270    0.02511334   -0.00273893
     atom    7 type  2   force =     0.00000000    0.00000000   -0.00000000
     atom    8 type  3   force =     0.00000000   -0.00000000   -0.00028476
     atom    9 type  3   force =     0.00000000    0.00000000    0.00028476
     atom   10 type  3   force =     0.02639746   -0.00777138   -0.00006819
     atom   11 type  3   force =    -0.00646851    0.02674656   -0.00006819
     atom   12 type  3   force =    -0.01992895   -0.01897518   -0.00006819
     atom   13 type  3   force =    -0.02639746    0.00777138    0.00006819
     atom   14 type  3   force =     0.00646851   -0.02674656    0.00006819
     atom   15 type  3   force =     0.01992895    0.01897518    0.00006819
     The non-local contrib.  to forces
     atom    1 type  1   force =    -0.13099932   -0.00514326   -0.00291628
     atom    2 type  1   force =     0.06995385   -0.11087711   -0.00291628
     atom    3 type  1   force =     0.06104547    0.11602037   -0.00291628
     atom    4 type  1   force =     0.13099932    0.00514326    0.00291628
     atom    5 type  1   force =    -0.06995385    0.11087711    0.00291628
     atom    6 type  1   force =    -0.06104547   -0.11602037    0.00291628
     atom    7 type  2   force =    -0.00000000   -0.00000000    0.00000000
     atom    8 type  3   force =     0.00000000    0.00000000    0.00144059
     atom    9 type  3   force =     0.00000000   -0.00000000   -0.00144059
     atom   10 type  3   force =     0.00278924    0.03987416   -0.01458577
     atom   11 type  3   force =    -0.03592666   -0.01752153   -0.01458577
     atom   12 type  3   force =     0.03313742   -0.02235263   -0.01458577
     atom   13 type  3   force =    -0.00278924   -0.03987416    0.01458577
     atom   14 type  3   force =     0.03592666    0.01752153    0.01458577
     atom   15 type  3   force =    -0.03313742    0.02235263    0.01458577
     The ionic contribution  to forces
     atom    1 type  1   force =    -3.83504252   -7.84593366    0.05046039
     atom    2 type  1   force =     8.71231338    0.60170272    0.05046050
     atom    3 type  1   force =    -4.87729181    7.24424346    0.05046046
     atom    4 type  1   force =     3.83504252    7.84593366   -0.05046039
     atom    5 type  1   force =    -8.71231338   -0.60170272   -0.05046050
     atom    6 type  1   force =     4.87729181   -7.24424346   -0.05046046
     atom    7 type  2   force =    -0.00000000    0.00000000    0.00000000
     atom    8 type  3   force =     0.00003215   -0.00001818    0.02223757
     atom    9 type  3   force =    -0.00003215    0.00001818   -0.02223757
     atom   10 type  3   force =   -10.04783505   -0.05769588    0.19662278
     atom   11 type  3   force =     5.07390091   -8.67282318    0.19662275
     atom   12 type  3   force =     4.97393279    8.73051971    0.19662282
     atom   13 type  3   force =    10.04783505    0.05769588   -0.19662278
     atom   14 type  3   force =    -5.07390091    8.67282318   -0.19662275
     atom   15 type  3   force =    -4.97393280   -8.73051971   -0.19662282
     The local contribution  to forces
     atom    1 type  1   force =     3.99843939    7.82600236   -0.04516627
     atom    2 type  1   force =    -8.77673963   -0.45021891   -0.04514260
     atom    3 type  1   force =     4.77760732   -7.37589254   -0.04511426
     atom    4 type  1   force =    -3.99874353   -7.82572933    0.04495137
     atom    5 type  1   force =     8.77684140    0.44980716    0.04497140
     atom    6 type  1   force =    -4.77728011    7.37606865    0.04498998
     atom    7 type  2   force =    -0.00007621   -0.00003821    0.00001002
     atom    8 type  3   force =     0.00017563    0.00010372   -0.02382508
     atom    9 type  3   force =    -0.00019904   -0.00009895    0.02392003
     atom   10 type  3   force =    10.07161755    0.01250375   -0.18278738
     atom   11 type  3   force =    -5.04660579    8.71577904   -0.18278878
     atom   12 type  3   force =    -5.02519083   -8.72849106   -0.18273558
     atom   13 type  3   force =   -10.07159911   -0.01266200    0.18298103
     atom   14 type  3   force =     5.04676933   -8.71571021    0.18296195
     atom   15 type  3   force =     5.02506137    8.72863347    0.18303517
     The core correction contribution to forces
     atom    1 type  1   force =     0.01186643   -0.00090534    0.00025342
     atom    2 type  1   force =    -0.00515063    0.01072897    0.00025451
     atom    3 type  1   force =    -0.00671805   -0.00982405    0.00025466
     atom    4 type  1   force =    -0.01186706    0.00090624   -0.00025564
     atom    5 type  1   force =     0.00514937   -0.01072978   -0.00025493
     atom    6 type  1   force =     0.00671729    0.00982551   -0.00025493
     atom    7 type  2   force =    -0.00000023   -0.00000078    0.00000038
     atom    8 type  3   force =    -0.00000185    0.00000057   -0.00008944
     atom    9 type  3   force =    -0.00000074    0.00000055    0.00009136
     atom   10 type  3   force =     0.00053754   -0.00242346    0.00079429
     atom   11 type  3   force =     0.00182832    0.00167687    0.00079459
     atom   12 type  3   force =    -0.00236496    0.00074589    0.00079607
     atom   13 type  3   force =    -0.00053698    0.00242425   -0.00078821
     atom   14 type  3   force =    -0.00182770   -0.00167605   -0.00078847
     atom   15 type  3   force =     0.00236681   -0.00074606   -0.00078617
     The Hubbard contrib.    to forces
     atom    1 type  1   force =     0.00000000    0.00000000    0.00000000
     atom    2 type  1   force =     0.00000000    0.00000000    0.00000000
     atom    3 type  1   force =     0.00000000    0.00000000    0.00000000
     atom    4 type  1   force =     0.00000000    0.00000000    0.00000000
     atom    5 type  1   force =     0.00000000    0.00000000    0.00000000
     atom    6 type  1   force =     0.00000000    0.00000000    0.00000000
     atom    7 type  2   force =     0.00000000    0.00000000    0.00000000
     atom    8 type  3   force =     0.00000000    0.00000000    0.00000000
     atom    9 type  3   force =     0.00000000    0.00000000    0.00000000
     atom   10 type  3   force =     0.00000000    0.00000000    0.00000000
     atom   11 type  3   force =     0.00000000    0.00000000    0.00000000
     atom   12 type  3   force =     0.00000000    0.00000000    0.00000000
     atom   13 type  3   force =     0.00000000    0.00000000    0.00000000
     atom   14 type  3   force =     0.00000000    0.00000000    0.00000000
     atom   15 type  3   force =     0.00000000    0.00000000    0.00000000
     The SCF correction term to forces
     atom    1 type  1   force =     0.00010271   -0.00064969    0.00006591
     atom    2 type  1   force =     0.00048576    0.00040895    0.00005777
     atom    3 type  1   force =     0.00004572    0.00035106    0.00003639
     atom    4 type  1   force =     0.00020661    0.00039665    0.00007163
     atom    5 type  1   force =    -0.00062735   -0.00001619    0.00006323
     atom    6 type  1   force =    -0.00038971   -0.00047803    0.00004887
     atom    7 type  2   force =     0.00007367    0.00003472   -0.00001318
     atom    8 type  3   force =    -0.00023227   -0.00007517   -0.00001640
     atom    9 type  3   force =     0.00021498    0.00009198   -0.00001648
     atom   10 type  3   force =    -0.00070204   -0.00006310   -0.00004307
     atom   11 type  3   force =     0.00031898   -0.00036867   -0.00003958
     atom   12 type  3   force =     0.00057701    0.00060735   -0.00005967
     atom   13 type  3   force =     0.00069392    0.00021619   -0.00001460
     atom   14 type  3   force =    -0.00046750    0.00032036   -0.00000486
     atom   15 type  3   force =    -0.00041757   -0.00074330   -0.00003374

     Total force =     0.143772     Total SCF correction =     0.002258

     Computing stress (Cartesian axis) and pressure

          total   stress  (Ry/bohr**3)                   (kbar)     P=        4.00
  -0.00073417  -0.00000000   0.00000000         -108.00       -0.00        0.00
  -0.00000000  -0.00073417  -0.00000000           -0.00     -108.00       -0.00
   0.00000000   0.00000000   0.00154983            0.00        0.00      227.99

     kinetic stress (kbar)  17967.63      0.00      0.00
                                0.00  17967.63     -0.00
                                0.00     -0.00  18779.17

     local   stress (kbar)  -4530.21      0.07     -0.00
                                0.07  -4530.44      0.00
                               -0.00      0.00 -14658.01

     nonloc. stress (kbar)   8545.65      0.00      0.00
                                0.00   8545.65      0.00
                                0.00      0.00   8397.07

     hartree stress (kbar)   4306.27     -0.11      0.00
                               -0.11   4306.42      0.00
                                0.00      0.00   8907.53

     exc-cor stress (kbar)   7339.47      0.00      0.00
                                0.00   7339.47     -0.00
                                0.00     -0.00   7339.86

     corecor stress (kbar) -11984.68     -0.00     -0.00
                               -0.00 -11984.68      0.00
                               -0.00      0.00 -11983.79

     ewald   stress (kbar) -21752.11      0.02      0.00
                                0.02 -21752.07     -0.00
                                0.00     -0.00 -16553.84

     hubbard stress (kbar)      0.00      0.00      0.00
                                0.00      0.00      0.00
                                0.00      0.00      0.00

     DFT-D   stress (kbar)      0.00      0.00      0.00
                                0.00      0.00      0.00
                                0.00      0.00      0.00

     XDM     stress (kbar)      0.00      0.00      0.00
                                0.00      0.00      0.00
                                0.00      0.00      0.00

     dft-nl  stress (kbar)      0.00      0.00      0.00
                                0.00      0.00      0.00
                                0.00      0.00      0.00

     TS-vdW  stress (kbar)      0.00      0.00      0.00
                                0.00      0.00      0.00
                                0.00      0.00      0.00

[...]

                                0.00      0.00      0.00

     Writing all to output data dir new_calculations/myprefix.save/

     General routines

     Parallel routines

     PAW routines

   This run was terminated on:  20:58: 9  20May2023

   JOB DONE.