     Program PWSCF v.7.0 starts on 21May2023 at  3:34: 4

     Reading input from espresso_15467.pwi
Warning: card &CELL ignored
Warning: card / ignored

     Current dimensions of program PWSCF are:
     Max number of different atomic species (ntypx) = 10
     Max number of k-points (npk) =  40000
     Max angular momentum in pseudopotentials (lmaxx) =  4
     file O.pbe-n-kjpaw_psl.0.1.UPF: wavefunction(s)  2P renormalized

     gamma-point specific algorithms are used
     Message from routine setup:
     using ibrav=0 with symmetry is DISCOURAGED, use correct ibrav instead

     Subspace diagonalization in iterative solution of the eigenvalue problem:
     a serial algorithm will be used

     Using Slab Decomposition

     bravais-lattice index     =            0
     lattice parameter (alat)  =       9.6676  a.u.
     unit-cell volume          =    1166.3296 (a.u.)^3
     number of atoms/cell      =           20
     number of atomic types    =            3
     number of electrons       =       112.00
     number of Kohn-Sham states=           67
     kinetic-energy cutoff     =      30.0000  Ry
     charge density cutoff     =     240.0000  Ry
     scf convergence threshold =      1.0E-06
     mixing beta               =       0.7000
     number of iterations used =            8  plain     mixing
     Exchange-correlation= SLA  PW   PBX  PBC
                           (   1   4   3   4   0   0   0)

     celldm(1)=   9.667627  celldm(2)=   0.000000  celldm(3)=   0.000000
     celldm(4)=   0.000000  celldm(5)=   0.000000  celldm(6)=   0.000000

     crystal axes: (cart. coord. in units of alat)
               a(1) = (   1.000000   0.000000   0.000000 )
               a(2) = (  -0.415852   1.419196   0.000000 )
               a(3) = (  -0.207010  -0.288155   0.909534 )

     reciprocal axes: (cart. coord. in units 2 pi/alat)
               b(1) = (  1.000000  0.293020  0.320433 )
               b(2) = (  0.000000  0.704624  0.223236 )
               b(3) = (  0.000000  0.000000  1.099464 )

     PseudoPot. # 1 for Li read from file:
     /home/pragov/projects/rrg-bengioy-ad/pragov/crystal_structure_design/SSSP/li_pbe_v1.4.uspp.F.UPF
     MD5 check sum: e912e257baa3777c20ea3d68f190483c
     Pseudo is Ultrasoft, Zval =  3.0
     Generated by new atomic code, or converted to UPF format
     Using radial grid of  751 points,  5 beta functions with:
                l(1) =   0
                l(2) =   0
                l(3) =   0
                l(4) =   1
                l(5) =   1
     Q(r) pseudized with 10 coefficients,  rinner =    1.150   1.150   1.150

     PseudoPot. # 2 for Cr read from file:
     /home/pragov/projects/rrg-bengioy-ad/pragov/crystal_structure_design/SSSP/cr_pbe_v1.5.uspp.F.UPF
     MD5 check sum: 0d52af634a40206e4dee301ad30da4bf
     Pseudo is Ultrasoft + core correction, Zval = 14.0
     Generated by new atomic code, or converted to UPF format
     Using radial grid of  857 points,  6 beta functions with:
                l(1) =   0
                l(2) =   0
                l(3) =   1
                l(4) =   1
                l(5) =   2
                l(6) =   2
     Q(r) pseudized with  8 coefficients,  rinner =    0.950   0.950   0.950
                                                       0.950   0.950

     PseudoPot. # 3 for O  read from file:
     /home/pragov/projects/rrg-bengioy-ad/pragov/crystal_structure_design/SSSP/O.pbe-n-kjpaw_psl.0.1.UPF
     MD5 check sum: 0234752ac141de4415c5fc33072bef88
     Pseudo is Projector augmented-wave + core cor, Zval =  6.0
     Generated using "atomic" code by A. Dal Corso  v.5.0.99 svn rev. 10869
     Shape of augmentation charge: BESSEL
     Using radial grid of 1095 points,  4 beta functions with:
                l(1) =   0
                l(2) =   0
                l(3) =   1
                l(4) =   1
     Q(r) pseudized with 0 coefficients

     atomic species   valence    mass     pseudopotential
        Li             3.00     6.94000     Li( 1.00)
        Cr            14.00    51.99610     Cr( 1.00)
        O              6.00    15.99900     O ( 1.00)

      2 Sym. Ops., with inversion, found

                                    s                        frac. trans.

      isym =  1     identity

 cryst.   s( 1) = (     1          0          0      )
                  (     0          1          0      )
                  (     0          0          1      )

 cart.    s( 1) = (  1.0000000  0.0000000 -0.0000000 )
                  (  0.0000000  1.0000000  0.0000000 )
                  (  0.0000000  0.0000000  1.0000000 )

      isym =  2     inversion

 cryst.   s( 2) = (    -1          0          0      )
                  (     0         -1          0      )
                  (     0          0         -1      )

 cart.    s( 2) = ( -1.0000000 -0.0000000  0.0000000 )
                  (  0.0000000 -1.0000000 -0.0000000 )
                  (  0.0000000  0.0000000 -1.0000000 )

   Cartesian axes

     site n.     atom                  positions (alat units)
         1           Li  tau(   1) = (  -0.2264456   0.8333626   0.5339622  )
         2           Li  tau(   2) = (   0.7920738   0.7095982   0.0000000  )
         3           Li  tau(   3) = (   0.4806429   1.2751190   0.4547672  )
         4           Li  tau(   4) = (  -0.0272504   1.2223381   0.1892577  )
         5           Li  tau(   5) = (   0.0792679   0.3565383   0.6207399  )
         6           Li  tau(   6) = (   0.2978702   0.7745033   0.2887944  )
         7           Li  tau(   7) = (   0.4043884  -0.0912965   0.7202766  )
         8           Li  tau(   8) = (   0.6035836   0.2976789   0.3755722  )
         9           Cr  tau(   9) = (   0.1402506   0.2832801   0.0838172  )
        10           Cr  tau(  10) = (   0.2368874   0.8477615   0.8257171  )
        11           O   tau(  11) = (  -0.3904541   1.1352231   0.7962310  )
        12           O   tau(  12) = (  -0.2505279   0.1223454   0.7136953  )
        13           O   tau(  13) = (  -0.0566085   0.4947246   0.2895193  )
        14           O   tau(  14) = (  -0.0389861   0.6640347   0.8602021  )
        15           O   tau(  15) = (   0.1395977   1.0257537   0.5337948  )
        16           O   tau(  16) = (   0.2375403   0.1052879   0.3757396  )
        17           O   tau(  17) = (   0.4161242   0.4670068   0.0493322  )
        18           O   tau(  18) = (   0.4337465   0.6363170   0.6200150  )
        19           O   tau(  19) = (   0.6276660   1.0086962   0.1958391  )
        20           O   tau(  20) = (   0.7675921  -0.0041815   0.1133034  )

   Crystallographic axes

     site n.     atom                  positions (cryst. coord.)
         1           Li  tau(   1) = (  0.1888450  0.7064070  0.5870720  )
         2           Li  tau(   2) = (  1.0000000  0.5000000  0.0000000  )
         3           Li  tau(   3) = (  1.0000000  1.0000000  0.5000000  )
         4           Li  tau(   4) = (  0.3915630  0.9035380  0.2080820  )
         5           Li  tau(   5) = (  0.3826460  0.3897970  0.6824810  )
         6           Li  tau(   6) = (  0.6173540  0.6102030  0.3175190  )
         7           Li  tau(   7) = (  0.6084370  0.0964620  0.7919180  )
         8           Li  tau(   8) = (  0.8111550  0.2935930  0.4129280  )
         9           Cr  tau(   9) = (  0.2501150  0.2183170  0.0921540  )
        10           Cr  tau(  10) = (  0.7498850  0.7816830  0.9078460  )
        11           O   tau(  11) = (  0.1973270  0.9776530  0.8754270  )
        12           O   tau(  12) = (  0.0140130  0.2455300  0.7846820  )
        13           O   tau(  13) = (  0.1811270  0.4132260  0.3183160  )
        14           O   tau(  14) = (  0.4312260  0.6599230  0.9457610  )
        15           O   tau(  15) = (  0.6112090  0.8419330  0.5868880  )
        16           O   tau(  16) = (  0.3887910  0.1580670  0.4131120  )
        17           O   tau(  17) = (  0.5687740  0.3400770  0.0542390  )
        18           O   tau(  18) = (  0.8188730  0.5867740  0.6816840  )
        19           O   tau(  19) = (  0.9859870  0.7544700  0.2153180  )
        20           O   tau(  20) = (  0.8026730  0.0223470  0.1245730  )

     number of k points=     1  Methfessel-Paxton smearing, width (Ry)=  0.0010
                       cart. coord. in units 2pi/alat
        k(    1) = (   0.0000000   0.0000000   0.0000000), wk =   2.0000000

                       cryst. coord.
        k(    1) = (   0.0000000   0.0000000   0.0000000), wk =   2.0000000

     Check: negative core charge=   -0.000018

     Initial potential from superposition of free atoms

     starting charge     106.3940, renormalised to     112.0000

     negative rho (up, down):  6.665E-04 0.000E+00
     Starting wfcs are  100 randomized atomic wfcs
     Checking if some PAW data can be deallocated...

     Self-consistent Calculation

     iteration #  1     ecut=    30.00 Ry     beta= 0.70
     Davidson diagonalization with overlap

     ethr =  1.00E-02,  avg # of iterations =  2.0

     negative rho (up, down):  1.298E-02 0.000E+00

     total energy              =    -874.90202774 Ry
     estimated scf accuracy    <      14.44635175 Ry

[...]

     total energy              =    -884.15236672 Ry
     estimated scf accuracy    <       0.00001011 Ry

     iteration # 15     ecut=    30.00 Ry     beta= 0.70
     Davidson diagonalization with overlap

     ethr =  9.03E-09,  avg # of iterations =  2.0

[...]

     End of self-consistent calculation

          k = 0.0000 0.0000 0.0000 (  1621 PWs)   bands (ev):

   -67.6521 -67.6511 -39.0062 -39.0054 -38.9561 -38.9545 -38.8741 -38.8605
   -37.8886 -37.8832 -37.5606 -37.5501 -37.5253 -37.5100 -37.3829 -37.1659
   -12.5955 -12.1984 -11.8071 -11.4698 -11.0672 -11.0234 -10.9920 -10.9577
   -10.8355 -10.7301   0.4937   0.7300   0.7840   0.8367   0.9427   1.2636
     1.3027   1.3334   1.4986   1.6486   1.6909   1.8930   2.1453   2.5297
     2.8527   2.8996   2.9411   3.3523   3.4229   3.8221   4.0121   4.3828
     4.4040   4.6191   4.6308   4.8166   4.8605   4.9202   5.1701   5.2595
     6.5586   6.6317   6.8451   6.8865   7.0172   7.0185   8.7661   9.1566
     9.7415   9.8576  12.9364

     occupation numbers
     1.0000   1.0000   1.0000   1.0000   1.0000   1.0000   1.0000   1.0000
     1.0000   1.0000   1.0000   1.0000   1.0000   1.0000   1.0000   1.0000
     1.0000   1.0000   1.0000   1.0000   1.0000   1.0000   1.0000   1.0000
     1.0000   1.0000   1.0000   1.0000   1.0000   1.0000   1.0000   1.0000
     1.0000   1.0000   1.0000   1.0000   1.0000   1.0000   1.0000   1.0000
     1.0000   1.0000   1.0000   1.0000   1.0000   1.0000   1.0000   1.0000
     1.0000   1.0000   1.0000   1.0000   1.0000   1.0000   1.0000   1.0000
    -0.0000  -0.0000  -0.0000  -0.0000  -0.0000  -0.0000  -0.0000  -0.0000
    -0.0000  -0.0000  -0.0000

     the Fermi energy is     5.4918 ev

!    total energy              =    -884.15236772 Ry
     estimated scf accuracy    <       0.00000063 Ry
     smearing contrib. (-TS)   =       0.00000000 Ry
     internal energy E=F+TS    =    -884.15236772 Ry

     The total energy is F=E-TS. E is the sum of the following terms:
     one-electron contribution =    -413.27938980 Ry
     hartree contribution      =     246.71323698 Ry
     xc contribution           =    -146.55594897 Ry
     ewald contribution        =    -475.78277834 Ry
     one-center paw contrib.   =     -95.24748758 Ry
      -> PAW hartree energy AE =     293.70219726 Ry
      -> PAW hartree energy PS =    -292.67473684 Ry
      -> PAW xc energy AE      =    -171.31167225 Ry
      -> PAW xc energy PS      =      75.03672426 Ry
      -> total E_H with PAW    =     247.74069739 Ry
      -> total E_XC with PAW   =    -242.83089696 Ry

     convergence has been achieved in  15 iterations

     negative rho (up, down):  3.468E-03 0.000E+00

     Forces acting on atoms (cartesian axes, Ry/au):

     atom    1 type  1   force =    -0.00239883   -0.00265439    0.00302480
     atom    2 type  1   force =     0.00000000    0.00000000    0.00000000
     atom    3 type  1   force =     0.00000000    0.00000000    0.00000000
     atom    4 type  1   force =    -0.00257183   -0.00443579    0.00144467
     atom    5 type  1   force =    -0.00144892   -0.00028005   -0.00237391
     atom    6 type  1   force =     0.00144892    0.00028005    0.00237391
     atom    7 type  1   force =     0.00257183    0.00443579   -0.00144467
     atom    8 type  1   force =     0.00239883    0.00265439   -0.00302480
     atom    9 type  2   force =     0.06357418    0.03631234   -0.00538283
     atom   10 type  2   force =    -0.06357418   -0.03631234    0.00538283
     atom   11 type  3   force =     0.00310954    0.00623913   -0.00464654
     atom   12 type  3   force =    -0.01265690   -0.00994806    0.00720998
     atom   13 type  3   force =    -0.00081639    0.00283693   -0.00190387
     atom   14 type  3   force =     0.01132932    0.02343959    0.00391310
     atom   15 type  3   force =     0.02905613    0.00616932   -0.00550926
     atom   16 type  3   force =    -0.02905613   -0.00616932    0.00550926
     atom   17 type  3   force =    -0.01132932   -0.02343959   -0.00391310
     atom   18 type  3   force =     0.00081639   -0.00283693    0.00190387
     atom   19 type  3   force =     0.01265690    0.00994806   -0.00720998
     atom   20 type  3   force =    -0.00310954   -0.00623913    0.00464654
     The non-local contrib.  to forces
     atom    1 type  1   force =     0.02407883   -0.00424283   -0.00245171
     atom    2 type  1   force =     0.00000000    0.00000000    0.00000000
     atom    3 type  1   force =     0.00000000    0.00000000    0.00000000
     atom    4 type  1   force =     0.05079450   -0.03570928    0.01191924
     atom    5 type  1   force =     0.01072561    0.02095773    0.04895143
     atom    6 type  1   force =    -0.01072561   -0.02095773   -0.04895143
     atom    7 type  1   force =    -0.05079450    0.03570928   -0.01191924
     atom    8 type  1   force =    -0.02407883    0.00424283    0.00245171
     atom    9 type  2   force =    -0.06403078   -0.01272207    0.02743242
     atom   10 type  2   force =     0.06403078    0.01272207   -0.02743242
     atom   11 type  3   force =    -0.20136318    0.41097751    0.35399642
     atom   12 type  3   force =     0.32474365   -0.12749450    0.50307479
     atom   13 type  3   force =     0.31547705   -0.41138826   -0.34045707
     atom   14 type  3   force =     0.79489643    0.42000741   -0.06541432
     atom   15 type  3   force =     0.05339417   -0.34930603    0.53747328
     atom   16 type  3   force =    -0.05339417    0.34930603   -0.53747328
     atom   17 type  3   force =    -0.79489643   -0.42000741    0.06541432
     atom   18 type  3   force =    -0.31547705    0.41138826    0.34045707
     atom   19 type  3   force =    -0.32474365    0.12749450   -0.50307479
     atom   20 type  3   force =     0.20136318   -0.41097751   -0.35399642
     The ionic contribution  to forces
     atom    1 type  1   force =    -0.20744908   -0.69568518   -1.48518664
     atom    2 type  1   force =     0.00000000   -0.00000000    0.00000000
     atom    3 type  1   force =     0.00000000   -0.00000000   -0.00000000
     atom    4 type  1   force =     0.56176910   -1.46514416    1.62645442
     atom    5 type  1   force =     0.05013073    0.53120377    0.15440215
     atom    6 type  1   force =    -0.05013073   -0.53120377   -0.15440215
     atom    7 type  1   force =    -0.56176910    1.46514416   -1.62645442
     atom    8 type  1   force =     0.20744908    0.69568518    1.48518664
     atom    9 type  2   force =    -1.46862793    3.00690313    1.93335468
     atom   10 type  2   force =     1.46862793   -3.00690313   -1.93335469
     atom   11 type  3   force =     6.30762742   -6.12624373   -6.96625782
     atom   12 type  3   force =    -6.24395120    5.65994766   -8.32856756
     atom   13 type  3   force =    -6.96753612    7.59444614    6.36691393
     atom   14 type  3   force =   -11.12174332   -7.33336059    0.79227512
     atom   15 type  3   force =    -4.29181833    4.59470264   -9.67523299
     atom   16 type  3   force =     4.29181833   -4.59470264    9.67523299
     atom   17 type  3   force =    11.12174332    7.33336059   -0.79227512
     atom   18 type  3   force =     6.96753612   -7.59444614   -6.36691393
     atom   19 type  3   force =     6.24395120   -5.65994766    8.32856756
     atom   20 type  3   force =    -6.30762742    6.12624373    6.96625782
     The local contribution  to forces
     atom    1 type  1   force =     0.18091661    0.69728034    1.49060283
     atom    2 type  1   force =    -0.00016919    0.00015722    0.00008991
     atom    3 type  1   force =     0.00004177   -0.00023555   -0.00005867
     atom    4 type  1   force =    -0.61519187    1.49622501   -1.63697388
     atom    5 type  1   force =    -0.06218008   -0.55233344   -0.20551517
     atom    6 type  1   force =     0.06242970    0.55244304    0.20563130
     atom    7 type  1   force =     0.61503696   -1.49638821    1.63697278
     atom    8 type  1   force =    -0.18109683   -0.69708315   -1.49075914
     atom    9 type  2   force =     1.59297248   -2.95862729   -1.96490019
     atom   10 type  2   force =    -1.59139813    2.95867266    1.96485938
     atom   11 type  3   force =    -6.10495255    5.72464666    6.61070591
     atom   12 type  3   force =     5.90952483   -5.54325140    7.83762312
     atom   13 type  3   force =     6.65383879   -7.18355691   -6.03138132
     atom   14 type  3   force =    10.34525360    6.93982899   -0.72337919
     atom   15 type  3   force =     4.26758886   -4.24244365    9.13694966
     atom   16 type  3   force =    -4.26751430    4.24250115   -9.13717784
     atom   17 type  3   force =   -10.34491332   -6.93951314    0.72345468
     atom   18 type  3   force =    -6.65394934    7.18396935    6.03143859
     atom   19 type  3   force =    -5.90952141    5.54303537   -7.83756454
     atom   20 type  3   force =     6.10504256   -5.72504459   -6.61097915
     The core correction contribution to forces
     atom    1 type  1   force =     0.00000000    0.00000000    0.00000000
     atom    2 type  1   force =     0.00000000    0.00000000    0.00000000
     atom    3 type  1   force =     0.00000000    0.00000000    0.00000000
     atom    4 type  1   force =     0.00000000    0.00000000    0.00000000
     atom    5 type  1   force =     0.00000000    0.00000000    0.00000000
     atom    6 type  1   force =     0.00000000    0.00000000    0.00000000
     atom    7 type  1   force =     0.00000000    0.00000000    0.00000000
     atom    8 type  1   force =     0.00000000    0.00000000    0.00000000
     atom    9 type  2   force =     0.00462655    0.00158643   -0.00149809
     atom   10 type  2   force =    -0.00460801   -0.00158457    0.00149651
     atom   11 type  3   force =     0.00187730   -0.00323887   -0.00312398
     atom   12 type  3   force =    -0.00290877    0.00093253   -0.00477753
     atom   13 type  3   force =    -0.00261435    0.00367296    0.00300032
     atom   14 type  3   force =    -0.00687595   -0.00313672    0.00048335
     atom   15 type  3   force =    -0.00012239    0.00311094   -0.00487552
     atom   16 type  3   force =     0.00012296   -0.00310868    0.00487587
     atom   17 type  3   force =     0.00687637    0.00313676   -0.00048454
     atom   18 type  3   force =     0.00261384   -0.00367278   -0.00300030
     atom   19 type  3   force =     0.00290900   -0.00093341    0.00477550
     atom   20 type  3   force =    -0.00187683    0.00324002    0.00312427
     The Hubbard contrib.    to forces
     atom    1 type  1   force =     0.00000000    0.00000000    0.00000000
     atom    2 type  1   force =     0.00000000    0.00000000    0.00000000
     atom    3 type  1   force =     0.00000000    0.00000000    0.00000000
     atom    4 type  1   force =     0.00000000    0.00000000    0.00000000
     atom    5 type  1   force =     0.00000000    0.00000000    0.00000000
     atom    6 type  1   force =     0.00000000    0.00000000    0.00000000
     atom    7 type  1   force =     0.00000000    0.00000000    0.00000000
     atom    8 type  1   force =     0.00000000    0.00000000    0.00000000
     atom    9 type  2   force =     0.00000000    0.00000000    0.00000000
     atom   10 type  2   force =     0.00000000    0.00000000    0.00000000
     atom   11 type  3   force =     0.00000000    0.00000000    0.00000000
     atom   12 type  3   force =     0.00000000    0.00000000    0.00000000
     atom   13 type  3   force =     0.00000000    0.00000000    0.00000000
     atom   14 type  3   force =     0.00000000    0.00000000    0.00000000
     atom   15 type  3   force =     0.00000000    0.00000000    0.00000000
     atom   16 type  3   force =     0.00000000    0.00000000    0.00000000
     atom   17 type  3   force =     0.00000000    0.00000000    0.00000000
     atom   18 type  3   force =     0.00000000    0.00000000    0.00000000
     atom   19 type  3   force =     0.00000000    0.00000000    0.00000000
     atom   20 type  3   force =     0.00000000    0.00000000    0.00000000
     The SCF correction term to forces
     atom    1 type  1   force =     0.00004580    0.00001022    0.00005133
     atom    2 type  1   force =     0.00014979   -0.00014737   -0.00007520
     atom    3 type  1   force =    -0.00003423    0.00021637    0.00006488
     atom    4 type  1   force =     0.00004213    0.00018779    0.00004157
     atom    5 type  1   force =    -0.00011349   -0.00010797   -0.00020523
     atom    6 type  1   force =    -0.00011276   -0.00000135    0.00010327
     atom    7 type  1   force =     0.00008418   -0.00003429   -0.00004712
     atom    8 type  1   force =     0.00011640   -0.00017353    0.00008701
     atom    9 type  2   force =    -0.00125836   -0.00074706    0.00021768
     atom   10 type  2   force =    -0.00011896    0.00086144   -0.00019662
     atom   11 type  3   force =    -0.00004581    0.00013567    0.00001223
     atom   12 type  3   force =    -0.00004568   -0.00010648   -0.00015911
     atom   13 type  3   force =     0.00002869   -0.00034590    0.00000985
     atom   14 type  3   force =    -0.00019236    0.00011788   -0.00008057
     atom   15 type  3   force =    -0.00002429    0.00017307    0.00014072
     atom   16 type  3   force =    -0.00012706   -0.00009752    0.00001593
     atom   17 type  3   force =    -0.00013018   -0.00039902   -0.00005115
     atom   18 type  3   force =     0.00010328   -0.00008450   -0.00008801
     atom   19 type  3   force =     0.00008150    0.00027513    0.00007002
     atom   20 type  3   force =     0.00002260    0.00033732    0.00021932

     Total force =     0.122039     Total SCF correction =     0.002012

     Computing stress (Cartesian axis) and pressure

     negative rho (up, down):  3.468E-03 0.000E+00
          total   stress  (Ry/bohr**3)                   (kbar)     P=     -478.68
  -0.00319625  -0.00000050   0.00006935         -470.18       -0.07       10.20
  -0.00000050  -0.00320885   0.00003541           -0.07     -472.04        5.21
   0.00006935   0.00003541  -0.00335699           10.20        5.21     -493.83

     kinetic stress (kbar)  23203.72     48.08      5.54
                               48.08  23165.26      4.21
                                5.54      4.21  23104.11

     local   stress (kbar)  -8344.07   -243.18   -616.51
                             -243.18 -14425.29  -1108.69
                             -616.51  -1108.69 -12513.72

     nonloc. stress (kbar)   3550.87      6.09     11.35
                                6.09   3571.81      5.83
                               11.35      5.83   3574.95

     hartree stress (kbar)   9002.05    358.77    230.17
                              358.77  11581.87    494.34
                              230.17    494.34  10533.16

     exc-cor stress (kbar)  -4635.56     -3.91      0.72
                               -3.91  -4632.03      0.38
                                0.72      0.38  -4629.08

     corecor stress (kbar)  -1178.35     -0.60     -0.19
                               -0.60  -1178.59     -0.14
                               -0.19     -0.14  -1178.32

     ewald   stress (kbar) -22068.85   -165.31    379.13
                             -165.31 -18555.05    609.29
                              379.13    609.29 -19384.92

     hubbard stress (kbar)      0.00      0.00      0.00
                                0.00      0.00      0.00
                                0.00      0.00      0.00

     DFT-D   stress (kbar)      0.00      0.00      0.00
                                0.00      0.00      0.00
                                0.00      0.00      0.00

     XDM     stress (kbar)      0.00      0.00      0.00
                                0.00      0.00      0.00
                                0.00      0.00      0.00

     dft-nl  stress (kbar)      0.00      0.00      0.00
                                0.00      0.00      0.00
                                0.00      0.00      0.00

     TS-vdW  stress (kbar)      0.00      0.00      0.00
                                0.00      0.00      0.00
                                0.00      0.00      0.00

[...]

                                0.00      0.00      0.00

     Writing all to output data dir new_calculations/myprefix.save/

     General routines

     Parallel routines

     PAW routines

   This run was terminated on:   3:34:30  21May2023

   JOB DONE.