     Program PWSCF v.7.0 starts on 21May2023 at 15:19:42

     Reading input from espresso_20701.pwi
Warning: card &CELL ignored
Warning: card / ignored

     Current dimensions of program PWSCF are:
     Max number of different atomic species (ntypx) = 10
     Max number of k-points (npk) =  40000
     Max angular momentum in pseudopotentials (lmaxx) =  4

     gamma-point specific algorithms are used
     Message from routine setup:
     using ibrav=0 with symmetry is DISCOURAGED, use correct ibrav instead

     Subspace diagonalization in iterative solution of the eigenvalue problem:
     a serial algorithm will be used

     Using Slab Decomposition

     bravais-lattice index     =            0
     lattice parameter (alat)  =      14.5608  a.u.
     unit-cell volume          =    1582.2016 (a.u.)^3
     number of atoms/cell      =            6
     number of atomic types    =            3
     number of electrons       =        56.00
     number of Kohn-Sham states=           34
     kinetic-energy cutoff     =      30.0000  Ry
     charge density cutoff     =     240.0000  Ry
     scf convergence threshold =      1.0E-06
     mixing beta               =       0.7000
     number of iterations used =            8  plain     mixing
     Exchange-correlation= SLA  PW   PBX  PBC
                           (   1   4   3   4   0   0   0)

     celldm(1)=  14.560767  celldm(2)=   0.000000  celldm(3)=   0.000000
     celldm(4)=   0.000000  celldm(5)=   0.000000  celldm(6)=   0.000000

     crystal axes: (cart. coord. in units of alat)
               a(1) = (   1.000000   0.000000   0.000000 )
               a(2) = (   0.844268   0.535921   0.000000 )
               a(3) = (   0.797067   0.231618   0.956331 )

     reciprocal axes: (cart. coord. in units 2 pi/alat)
               b(1) = (  1.000000 -1.575359 -0.451921 )
               b(2) = (  0.000000  1.865946 -0.451921 )
               b(3) = (  0.000000  0.000000  1.045663 )

     PseudoPot. # 1 for Sb read from file:
     /home/pragov/projects/rrg-bengioy-ad/pragov/crystal_structure_design/SSSP/sb_pbe_v1.4.uspp.F.UPF
     MD5 check sum: 9bc50dfb53373b713f5709b9110fe27f
     Pseudo is Ultrasoft + core correction, Zval = 15.0
     Generated by new atomic code, or converted to UPF format
     Using radial grid of  891 points,  6 beta functions with:
                l(1) =   0
                l(2) =   0
                l(3) =   1
                l(4) =   1
                l(5) =   2
                l(6) =   2
     Q(r) pseudized with  8 coefficients,  rinner =    1.350   1.350   1.350
                                                       1.350   1.350

     PseudoPot. # 2 for Te read from file:
     /home/pragov/projects/rrg-bengioy-ad/pragov/crystal_structure_design/SSSP/Te_pbe_v1.uspp.F.UPF
     MD5 check sum: c319670d6894cc26e93307826a071b75
     Pseudo is Ultrasoft + core correction, Zval =  6.0
     Generated by new atomic code, or converted to UPF format
     Using radial grid of  891 points,  5 beta functions with:
                l(1) =   0
                l(2) =   0
                l(3) =   1
                l(4) =   1
                l(5) =   2
     Q(r) pseudized with  6 coefficients,  rinner =    1.800   1.800   1.800
                                                       1.800   1.800

     PseudoPot. # 3 for I  read from file:
     /home/pragov/projects/rrg-bengioy-ad/pragov/crystal_structure_design/SSSP/I.pbe-n-kjpaw_psl.0.2.UPF
     MD5 check sum: d4ef18d9c8f18dc85e5843bca1e50dc0
     Pseudo is Projector augmented-wave + core cor, Zval =  7.0
     Generated using "atomic" code by A. Dal Corso  v.5.0.99 svn rev. 10869
     Shape of augmentation charge: PSQ
     Using radial grid of 1247 points,  4 beta functions with:
                l(1) =   0
                l(2) =   0
                l(3) =   1
                l(4) =   1
     Q(r) pseudized with 0 coefficients

     atomic species   valence    mass     pseudopotential
        Sb            15.00   121.76000     Sb( 1.00)
        Te             6.00   127.60000     Te( 1.00)
        I              7.00   126.90447     I ( 1.00)

      2 Sym. Ops., with inversion, found

                                    s                        frac. trans.

      isym =  1     identity

 cryst.   s( 1) = (     1          0          0      )
                  (     0          1          0      )
                  (     0          0          1      )

 cart.    s( 1) = (  1.0000000  0.0000000  0.0000000 )
                  (  0.0000000  1.0000000 -0.0000000 )
                  (  0.0000000  0.0000000  1.0000000 )

      isym =  2     inversion

 cryst.   s( 2) = (    -1          0          0      )
                  (     0         -1          0      )
                  (     0          0         -1      )

 cart.    s( 2) = ( -1.0000000 -0.0000000 -0.0000000 )
                  (  0.0000000 -1.0000000  0.0000000 )
                  (  0.0000000  0.0000000 -1.0000000 )

   Cartesian axes

     site n.     atom                  positions (alat units)
         1           Sb  tau(   1) = (   0.4347855   0.1263432   0.2327499  )
         2           Sb  tau(   2) = (   2.2065497   0.6411956   0.7235809  )
         3           Te  tau(   3) = (   1.0576081   0.3073276   0.8642122  )
         4           Te  tau(   4) = (   1.5837271   0.4602112   0.0921186  )
         5           I   tau(   5) = (   1.0800112   0.3138377   0.3503891  )
         6           I   tau(   6) = (   1.5613239   0.4537011   0.6059417  )

   Crystallographic axes

     site n.     atom                  positions (cryst. coord.)
         1           Sb  tau(   1) = (  0.1305650  0.1305650  0.2433780  )
         2           Sb  tau(   2) = (  0.8694350  0.8694350  0.7566220  )
         3           Te  tau(   3) = (  0.1829010  0.1829010  0.9036750  )
         4           Te  tau(   4) = (  0.8170990  0.8170990  0.0963250  )
         5           I   tau(   5) = (  0.4272560  0.4272560  0.3663890  )
         6           I   tau(   6) = (  0.5727440  0.5727440  0.6336110  )

     number of k points=     1  Methfessel-Paxton smearing, width (Ry)=  0.0010
                       cart. coord. in units 2pi/alat
        k(    1) = (   0.0000000   0.0000000   0.0000000), wk =   2.0000000

                       cryst. coord.
        k(    1) = (   0.0000000   0.0000000   0.0000000), wk =   2.0000000

     Check: negative core charge=   -0.000002

     Initial potential from superposition of free atoms

     starting charge      53.9994, renormalised to      56.0000
     Starting wfcs are   34 randomized atomic wfcs
     Checking if some PAW data can be deallocated...

     Self-consistent Calculation

     iteration #  1     ecut=    30.00 Ry     beta= 0.70
     Davidson diagonalization with overlap

     ethr =  1.00E-02,  avg # of iterations =  2.0

     total energy              =   -1179.93797431 Ry
     estimated scf accuracy    <       0.81890173 Ry

[...]

     negative rho (up, down):  6.494E-07 0.000E+00

[...]

     total energy              =   -1180.27397312 Ry
     estimated scf accuracy    <       0.00000486 Ry

     iteration # 10     ecut=    30.00 Ry     beta= 0.70
     Davidson diagonalization with overlap

     ethr =  8.68E-09,  avg # of iterations =  2.0

     End of self-consistent calculation

          k = 0.0000 0.0000 0.0000 (  2194 PWs)   bands (ev):

   -24.2894 -24.2843 -24.2694 -24.2635 -24.2346 -24.2299 -24.2149 -24.2136
   -24.2052 -24.2018  -7.8696  -7.2918  -6.6156  -5.5475  -3.8927  -2.6755
     0.6991   1.6820   2.3851   2.5944   2.8018   2.9257   2.9823   3.5865
     3.8730   3.9794   4.0616   4.7647   6.3006   6.7412   6.7866   7.0148
     7.7384   7.8543

     occupation numbers
     1.0000   1.0000   1.0000   1.0000   1.0000   1.0000   1.0000   1.0000
     1.0000   1.0000   1.0000   1.0000   1.0000   1.0000   1.0000   1.0000
     1.0000   1.0000   1.0000   1.0000   1.0000   1.0000   1.0000   1.0000
     1.0000   1.0000   1.0000   1.0000  -0.0000  -0.0000  -0.0000  -0.0000
    -0.0000  -0.0000

     the Fermi energy is     5.9643 ev

!    total energy              =   -1180.27397363 Ry
     estimated scf accuracy    <       0.00000047 Ry
     smearing contrib. (-TS)   =       0.00000000 Ry
     internal energy E=F+TS    =   -1180.27397363 Ry

     The total energy is F=E-TS. E is the sum of the following terms:
     one-electron contribution =    -276.01304228 Ry
     hartree contribution      =     162.49147672 Ry
     xc contribution           =    -200.38255776 Ry
     ewald contribution        =    -225.31466168 Ry
     one-center paw contrib.   =    -641.05518862 Ry
      -> PAW hartree energy AE =      19.12448471 Ry
      -> PAW hartree energy PS =     -19.24446801 Ry
      -> PAW xc energy AE      =    -721.82797784 Ry
      -> PAW xc energy PS      =      80.89277252 Ry
      -> total E_H with PAW    =     162.37149341 Ry
      -> total E_XC with PAW   =    -841.31776308 Ry

     convergence has been achieved in  10 iterations

     Forces acting on atoms (cartesian axes, Ry/au):

     atom    1 type  1   force =     0.00957908    0.00279798   -0.01213604
     atom    2 type  1   force =    -0.00957908   -0.00279798    0.01213604
     atom    3 type  2   force =     0.00821447    0.00238931    0.01191377
     atom    4 type  2   force =    -0.00821447   -0.00238931   -0.01191377
     atom    5 type  3   force =    -0.00865421   -0.00251412   -0.00918169
     atom    6 type  3   force =     0.00865421    0.00251412    0.00918169
     The non-local contrib.  to forces
     atom    1 type  1   force =    -0.11458540   -0.03327780   -0.40628385
     atom    2 type  1   force =     0.11458540    0.03327780    0.40628385
     atom    3 type  2   force =    -0.06870776   -0.01998007   -0.08049915
     atom    4 type  2   force =     0.06870776    0.01998007    0.08049915
     atom    5 type  3   force =     0.06254604    0.01817628   -0.00320704
     atom    6 type  3   force =    -0.06254604   -0.01817628    0.00320704
     The ionic contribution  to forces
     atom    1 type  1   force =     1.20548793    0.35029966    2.84941583
     atom    2 type  1   force =    -1.20548793   -0.35029966   -2.84941583
     atom    3 type  2   force =    -7.66689754   -2.22790417   -1.62085673
     atom    4 type  2   force =     7.66689754    2.22790417    1.62085673
     atom    5 type  3   force =    -7.09457608   -2.06159474   -0.03510443
     atom    6 type  3   force =     7.09457608    2.06159474    0.03510443
     The local contribution  to forces
     atom    1 type  1   force =    -1.08142249   -0.31424540   -2.45775899
     atom    2 type  1   force =     1.08265315    0.31463530    2.45773436
     atom    3 type  2   force =     7.76235791    2.25565193    1.72600478
     atom    4 type  2   force =    -7.76213328   -2.25560228   -1.72600848
     atom    5 type  3   force =     7.03077374    2.04305258    0.03470328
     atom    6 type  3   force =    -7.03078874   -2.04306224   -0.03477192
     The core correction contribution to forces
     atom    1 type  1   force =     0.00074268    0.00021468    0.00221237
     atom    2 type  1   force =    -0.00073535   -0.00021339   -0.00221231
     atom    3 type  2   force =    -0.01779059   -0.00517054   -0.01259985
     atom    4 type  2   force =     0.01777024    0.00516617    0.01260842
     atom    5 type  3   force =    -0.00670297   -0.00194917   -0.00565182
     atom    6 type  3   force =     0.00668923    0.00194318    0.00564908
     The Hubbard contrib.    to forces
     atom    1 type  1   force =     0.00000000    0.00000000    0.00000000
     atom    2 type  1   force =     0.00000000    0.00000000    0.00000000
     atom    3 type  2   force =     0.00000000    0.00000000    0.00000000
     atom    4 type  2   force =     0.00000000    0.00000000    0.00000000
     atom    5 type  3   force =     0.00000000    0.00000000    0.00000000
     atom    6 type  3   force =     0.00000000    0.00000000    0.00000000
     The SCF correction term to forces
     atom    1 type  1   force =    -0.00064103   -0.00020571    0.00028713
     atom    2 type  1   force =    -0.00059174   -0.00021060   -0.00024551
     atom    3 type  2   force =    -0.00065665   -0.00018896   -0.00016698
     atom    4 type  2   force =     0.00063417    0.00018143    0.00009868
     atom    5 type  3   force =    -0.00068605   -0.00019569    0.00007871
     atom    6 type  3   force =     0.00073257    0.00021811   -0.00000653

     Total force =     0.035426     Total SCF correction =     0.001741

     Computing stress (Cartesian axis) and pressure

          total   stress  (Ry/bohr**3)                   (kbar)     P=       11.46
  -0.00040944  -0.00043572  -0.00010274          -60.23      -64.10      -15.11
  -0.00043572   0.00096342  -0.00002986          -64.10      141.72       -4.39
  -0.00010274  -0.00002986  -0.00032030          -15.11       -4.39      -47.12

     kinetic stress (kbar)   5773.25    -60.51    -11.93
                              -60.51   5963.90     -3.47
                              -11.93     -3.47   5797.09

     local   stress (kbar)  10608.77   4717.71   2748.48
                             4717.71  -4255.40    798.67
                             2748.48    798.67  -5216.65

     nonloc. stress (kbar)  -1868.42      4.16     29.56
                                4.16  -1881.51      8.59
                               29.56      8.59  -1826.92

     hartree stress (kbar)    311.79  -2174.36  -1230.37
                            -2174.36   7162.58   -357.53
                            -1230.37   -357.53   7633.27

     exc-cor stress (kbar)  10702.05     -0.02     -0.50
                               -0.02  10702.13     -0.14
                               -0.50     -0.14  10703.45

     corecor stress (kbar) -13105.73      2.34      2.35
                                2.34 -13113.09      0.68
                                2.35      0.68 -13107.55

     ewald   stress (kbar) -12481.93  -2553.41  -1552.70
                            -2553.41  -4436.87   -451.20
                            -1552.70   -451.20  -4029.81

     hubbard stress (kbar)      0.00      0.00      0.00
                                0.00      0.00      0.00
                                0.00      0.00      0.00

     DFT-D   stress (kbar)      0.00      0.00      0.00
                                0.00      0.00      0.00
                                0.00      0.00      0.00

     XDM     stress (kbar)      0.00      0.00      0.00
                                0.00      0.00      0.00
                                0.00      0.00      0.00

     dft-nl  stress (kbar)      0.00      0.00      0.00
                                0.00      0.00      0.00
                                0.00      0.00      0.00

     TS-vdW  stress (kbar)      0.00      0.00      0.00
                                0.00      0.00      0.00
                                0.00      0.00      0.00

[...]

                                0.00      0.00      0.00

     Writing all to output data dir new_calculations/myprefix.save/

     General routines

     Parallel routines

     PAW routines

   This run was terminated on:  15:20: 3  21May2023

   JOB DONE.