     Program PWSCF v.7.0 starts on 21May2023 at  3:39:31

     Reading input from espresso_25294.pwi
Warning: card &CELL ignored
Warning: card / ignored

     Current dimensions of program PWSCF are:
     Max number of different atomic species (ntypx) = 10
     Max number of k-points (npk) =  40000
     Max angular momentum in pseudopotentials (lmaxx) =  4
     file Pb.pbe-dn-kjpaw_psl.0.2.2.UPF: wavefunction(s)  6S renormalized

     gamma-point specific algorithms are used
     Message from routine setup:
     using ibrav=0 with symmetry is DISCOURAGED, use correct ibrav instead

     Subspace diagonalization in iterative solution of the eigenvalue problem:
     a serial algorithm will be used

     Using Slab Decomposition

     bravais-lattice index     =            0
     lattice parameter (alat)  =      10.9233  a.u.
     unit-cell volume          =    2478.8629 (a.u.)^3
     number of atoms/cell      =           16
     number of atomic types    =            3
     number of electrons       =       204.00
     number of Kohn-Sham states=          122
     kinetic-energy cutoff     =      30.0000  Ry
     charge density cutoff     =     240.0000  Ry
     scf convergence threshold =      1.0E-06
     mixing beta               =       0.7000
     number of iterations used =            8  plain     mixing
     Exchange-correlation= SLA  PW   PBX  PBC
                           (   1   4   3   4   0   0   0)

     celldm(1)=  10.923332  celldm(2)=   0.000000  celldm(3)=   0.000000
     celldm(4)=   0.000000  celldm(5)=   0.000000  celldm(6)=   0.000000

     crystal axes: (cart. coord. in units of alat)
               a(1) = (   1.000000   0.000000   0.000000 )
               a(2) = (   0.001965   1.492608   0.000000 )
               a(3) = (  -0.000983  -0.746304   1.274211 )

     reciprocal axes: (cart. coord. in units 2 pi/alat)
               b(1) = (  1.000000 -0.001317  0.000000 )
               b(2) = (  0.000000  0.669968  0.392400 )
               b(3) = (  0.000000  0.000000  0.784799 )

     PseudoPot. # 1 for Zr read from file:
     /home/pragov/projects/rrg-bengioy-ad/pragov/crystal_structure_design/SSSP/Zr_pbe_v1.uspp.F.UPF
     MD5 check sum: 5db81b1e868ab7776c4564c113de050b
     Pseudo is Ultrasoft + core correction, Zval = 12.0
     Generated by new atomic code, or converted to UPF format
     Using radial grid of  887 points,  6 beta functions with:
                l(1) =   0
                l(2) =   0
                l(3) =   1
                l(4) =   1
                l(5) =   2
                l(6) =   2
     Q(r) pseudized with  6 coefficients,  rinner =    1.200   1.200   1.200
                                                       1.200   1.200

     PseudoPot. # 2 for Ti read from file:
     /home/pragov/projects/rrg-bengioy-ad/pragov/crystal_structure_design/SSSP/ti_pbe_v1.4.uspp.F.UPF
     MD5 check sum: 88a00a6731bd790ddea75d31a80cb452
     Pseudo is Ultrasoft + core correction, Zval = 12.0
     Generated by new atomic code, or converted to UPF format
     Using radial grid of  851 points,  6 beta functions with:
                l(1) =   0
                l(2) =   0
                l(3) =   1
                l(4) =   1
                l(5) =   2
                l(6) =   2
     Q(r) pseudized with  6 coefficients,  rinner =    1.000   1.000   1.000
                                                       1.000   1.000

     PseudoPot. # 3 for Pb read from file:
     /home/pragov/projects/rrg-bengioy-ad/pragov/crystal_structure_design/SSSP/Pb.pbe-dn-kjpaw_psl.0.2.2.UPF
     MD5 check sum: 9d431e6316058b74ade52399a6cf67da
     Pseudo is Projector augmented-wave + core cor, Zval = 14.0
     Generated using "atomic" code by A. Dal Corso  v.5.0.99 svn rev. 10869
     Shape of augmentation charge: PSQ
     Using radial grid of 1281 points,  6 beta functions with:
                l(1) =   0
                l(2) =   0
                l(3) =   1
                l(4) =   1
                l(5) =   2
                l(6) =   2
     Q(r) pseudized with 0 coefficients

     atomic species   valence    mass     pseudopotential
        Zr            12.00    91.22400     Zr( 1.00)
        Ti            12.00    47.86700     Ti( 1.00)
        Pb            14.00   207.20000     Pb( 1.00)

      2 Sym. Ops. (no inversion) found

                                    s                        frac. trans.

      isym =  1     identity

 cryst.   s( 1) = (     1          0          0      )
                  (     0          1          0      )
                  (     0          0          1      )

 cart.    s( 1) = (  1.0000000  0.0000000  0.0000000 )
                  (  0.0000000  1.0000000  0.0000000 )
                  (  0.0000000  0.0000000  1.0000000 )

      isym =  2     inv. 180 deg rotation - cart. axis [0,0,1]

 cryst.   s( 2) = (     1          0          0      )
                  (     0          1          0      )
                  (     0         -1         -1      )

 cart.    s( 2) = (  1.0000000  0.0000000  0.0000001 )
                  (  0.0000000  1.0000000 -0.0000001 )
                  (  0.0000000  0.0000000 -1.0000000 )

   Cartesian axes

     site n.     atom                  positions (alat units)
         1           Zr  tau(   1) = (   0.7509456   0.5670925   0.9724474  )
         2           Zr  tau(   2) = (   0.7519283   1.3133979   0.3017638  )
         3           Zr  tau(   3) = (   0.2513395   1.1304490   0.0000000  )
         4           Zr  tau(   4) = (   0.2500190   0.1738941   0.2990535  )
         5           Zr  tau(   5) = (   0.2510016   0.9201980   0.9751576  )
         6           Ti  tau(   6) = (   0.4999306   0.0019703   0.8464330  )
         7           Ti  tau(   7) = (   0.5009132   0.7482742   0.4277782  )
         8           Ti  tau(   8) = (   0.0011194   0.7484003   0.4278381  )
         9           Ti  tau(   9) = (   0.0001367   0.0020964   0.8463731  )
        10           Ti  tau(  10) = (   0.7507029   0.3728221   0.0000000  )
        11           Pb  tau(  11) = (   0.7512284   0.8881002   0.0000000  )
        12           Pb  tau(  12) = (   0.7503618   0.3006493   0.4955624  )
        13           Pb  tau(  13) = (   0.7493792  -0.4456546   0.7786488  )
        14           Pb  tau(  14) = (   0.2506483   0.5934057   0.0000000  )
        15           Pb  tau(  15) = (   0.2505777   0.4471234   0.7625198  )
        16           Pb  tau(  16) = (   0.2495950  -0.2991805   0.5116913  )

   Crystallographic axes

     site n.     atom                  positions (cryst. coord.)
         1           Zr  tau(   1) = (  0.7501990  0.7615220  0.7631760  )
         2           Zr  tau(   2) = (  0.7501990  0.9983470  0.2368240  )
         3           Zr  tau(   3) = (  0.2498510  0.7573650  0.0000000  )
         4           Zr  tau(   4) = (  0.2497900  0.2338520  0.2346970  )
         5           Zr  tau(   5) = (  0.2497900  0.9991550  0.7653030  )
         6           Ti  tau(   6) = (  0.4999280  0.3334600  0.6642800  )
         7           Ti  tau(   7) = (  0.4999280  0.6691800  0.3357200  )
         8           Ti  tau(   8) = (  0.0001340  0.6692880  0.3357670  )
         9           Ti  tau(   9) = (  0.0001340  0.3335210  0.6642330  )
        10           Ti  tau(  10) = (  0.7502120  0.2497790  0.0000000  )
        11           Pb  tau(  11) = (  0.7500590  0.5949990  0.0000000  )
        12           Pb  tau(  12) = (  0.7499660  0.3958840  0.3889170  )
        13           Pb  tau(  13) = (  0.7499660  0.0069670  0.6110830  )
        14           Pb  tau(  14) = (  0.2498670  0.3975630  0.0000000  )
        15           Pb  tau(  15) = (  0.2499890  0.5987710  0.5984250  )
        16           Pb  tau(  16) = (  0.2499890  0.0003460  0.4015750  )

     number of k points=     1  Methfessel-Paxton smearing, width (Ry)=  0.0010
                       cart. coord. in units 2pi/alat
        k(    1) = (   0.0000000   0.0000000   0.0000000), wk =   2.0000000

                       cryst. coord.
        k(    1) = (   0.0000000   0.0000000   0.0000000), wk =   2.0000000

     Check: negative core charge=   -0.000004

     Initial potential from superposition of free atoms

     starting charge     198.9749, renormalised to     204.0000

     negative rho (up, down):  3.212E-01 0.000E+00
     Starting wfcs are  169 randomized atomic wfcs
     Checking if some PAW data can be deallocated...

     Self-consistent Calculation

     iteration #  1     ecut=    30.00 Ry     beta= 0.70
     Davidson diagonalization with overlap

     ethr =  1.00E-02,  avg # of iterations =  2.0

     negative rho (up, down):  3.133E-01 0.000E+00

     total energy              =   -6253.96342019 Ry
     estimated scf accuracy    <      77.21759168 Ry

[...]

     total energy              =   -6315.59499582 Ry
     estimated scf accuracy    <       0.00000269 Ry

     iteration # 38     ecut=    30.00 Ry     beta= 0.70
     Davidson diagonalization with overlap

     ethr =  1.32E-09,  avg # of iterations =  2.0

[...]

     End of self-consistent calculation

          k = 0.0000 0.0000 0.0000 (  3427 PWs)   bands (ev):

   -44.2221 -43.6203 -43.6201 -43.5782 -43.5781 -36.0973 -36.0880 -36.0578
   -36.0486 -36.0035 -20.6367 -20.5162 -20.2388 -19.9917 -19.9912 -19.9827
   -19.9816 -19.9498 -19.9497 -19.9400 -19.9399 -19.8146 -19.8133 -19.4492
   -19.4489 -14.2558 -14.2147 -14.2047 -14.1580 -14.1577 -14.1194 -14.1063
   -14.0733 -14.0342 -14.0328 -14.0008 -13.9765 -13.9665 -13.9545 -13.8900
    -3.2342  -3.2181  -3.2090  -3.2075  -3.1884  -3.1851  -3.1841  -3.1840
    -3.1594  -3.1572  -3.1489  -3.1476  -3.1451  -3.1421  -3.1334  -3.1288
    -3.1234  -3.1190  -3.1026  -3.0983  -3.0893  -3.0636  -3.0467  -3.0437
    -3.0406  -3.0255  -3.0246  -3.0225  -3.0172  -3.0166   2.8438   3.9821
     3.9829   5.2732   5.3080   5.4360   8.6829   9.5319   9.8209  10.1608
    10.2694  10.5660  10.5869  10.6275  10.6428  11.4670  11.4730  11.5008
    11.7982  11.9496  11.9880  12.0128  12.2517  12.2599  12.2971  12.4928
    12.5194  12.5707  12.6967  12.9262  13.0320  13.0599  13.1537  13.3239
    13.5633  13.5927  13.5969  13.9692  14.2396  14.3577  14.3981  14.6657
    14.8040  14.8655  14.8662  14.8854  15.0082  15.0146  15.0917  15.3621
    15.3769  15.3772

     occupation numbers
     1.0000   1.0000   1.0000   1.0000   1.0000   1.0000   1.0000   1.0000
     1.0000   1.0000   1.0000   1.0000   1.0000   1.0000   1.0000   1.0000
     1.0000   1.0000   1.0000   1.0000   1.0000   1.0000   1.0000   1.0000
     1.0000   1.0000   1.0000   1.0000   1.0000   1.0000   1.0000   1.0000
     1.0000   1.0000   1.0000   1.0000   1.0000   1.0000   1.0000   1.0000
     1.0000   1.0000   1.0000   1.0000   1.0000   1.0000   1.0000   1.0000
     1.0000   1.0000   1.0000   1.0000   1.0000   1.0000   1.0000   1.0000
     1.0000   1.0000   1.0000   1.0000   1.0000   1.0000   1.0000   1.0000
     1.0000   1.0000   1.0000   1.0000   1.0000   1.0000   1.0000   1.0000
     1.0000   1.0000   1.0000   1.0000   1.0000   1.0000   1.0000   1.0000
     1.0000   1.0000   1.0000   1.0000   1.0000   1.0000   1.0000   1.0000
     1.0000   1.0000   1.0000   1.0000   1.0000   1.0000   1.0000   1.0000
     1.0000   1.0000   1.0000   1.0000   1.0000   1.0000  -0.0000  -0.0000
    -0.0000  -0.0000  -0.0000  -0.0000  -0.0000  -0.0000  -0.0000  -0.0000
    -0.0000  -0.0000  -0.0000  -0.0000  -0.0000  -0.0000  -0.0000  -0.0000
    -0.0000  -0.0000

     the Fermi energy is    13.1068 ev

!    total energy              =   -6315.59499545 Ry
     estimated scf accuracy    <       0.00000070 Ry
     smearing contrib. (-TS)   =       0.00000009 Ry
     internal energy E=F+TS    =   -6315.59499554 Ry

     The total energy is F=E-TS. E is the sum of the following terms:
     one-electron contribution =    -484.76408853 Ry
     hartree contribution      =     364.14758571 Ry
     xc contribution           =    -445.72678482 Ry
     ewald contribution        =   -1378.28733344 Ry
     one-center paw contrib.   =   -4370.96437445 Ry
      -> PAW hartree energy AE =     625.61906027 Ry
      -> PAW hartree energy PS =    -624.49323034 Ry
      -> PAW xc energy AE      =   -4636.96734360 Ry
      -> PAW xc energy PS      =     264.87713923 Ry
      -> total E_H with PAW    =     365.27341564 Ry
      -> total E_XC with PAW   =   -4817.81698920 Ry

     convergence has been achieved in  38 iterations

     negative rho (up, down):  3.154E-01 0.000E+00

     Forces acting on atoms (cartesian axes, Ry/au):

     atom    1 type  1   force =    -0.00029593   -0.02078699   -0.03270576
     atom    2 type  1   force =    -0.00029593   -0.02078699    0.03270576
     atom    3 type  1   force =    -0.00005125   -0.02649659    0.00000000
     atom    4 type  1   force =     0.00021695    0.01371578    0.01478447
     atom    5 type  1   force =     0.00021695    0.01371578   -0.01478447
     atom    6 type  2   force =     0.00064242    0.00303181   -0.00195126
     atom    7 type  2   force =     0.00064242    0.00303181    0.00195126
     atom    8 type  2   force =    -0.00074426    0.00269023    0.00178808
     atom    9 type  2   force =    -0.00074426    0.00269023   -0.00178808
     atom   10 type  2   force =     0.00011426    0.02589607   -0.00000000
     atom   11 type  3   force =    -0.00051280   -0.02171872    0.00000000
     atom   12 type  3   force =    -0.00005581    0.01394028    0.03048514
     atom   13 type  3   force =    -0.00005581    0.01394028   -0.03048514
     atom   14 type  3   force =     0.00053705    0.02674539   -0.00000000
     atom   15 type  3   force =     0.00019300   -0.01480418   -0.02397003
     atom   16 type  3   force =     0.00019300   -0.01480418    0.02397003
     The non-local contrib.  to forces
     atom    1 type  1   force =    -0.00046271   -0.01917732   -0.04569936
     atom    2 type  1   force =    -0.00046271   -0.01917732    0.04569936
     atom    3 type  1   force =    -0.00059943   -0.04154626    0.00000000
     atom    4 type  1   force =     0.00037841    0.01723274    0.05233186
     atom    5 type  1   force =     0.00037841    0.01723274   -0.05233186
     atom    6 type  2   force =    -0.00008884   -0.00442164    0.00421853
     atom    7 type  2   force =    -0.00008884   -0.00442164   -0.00421853
     atom    8 type  2   force =     0.00002630   -0.00434779   -0.00405398
     atom    9 type  2   force =     0.00002630   -0.00434779    0.00405398
     atom   10 type  2   force =     0.00007610    0.02084107   -0.00000000
     atom   11 type  3   force =     0.00042008    0.08965840   -0.00000000
     atom   12 type  3   force =    -0.00017003   -0.04097896   -0.06151851
     atom   13 type  3   force =    -0.00017003   -0.04097896    0.06151851
     atom   14 type  3   force =    -0.00034205   -0.04963371    0.00000000
     atom   15 type  3   force =     0.00031935    0.04042023    0.06609905
     atom   16 type  3   force =     0.00031935    0.04042023   -0.06609905
     The ionic contribution  to forces
     atom    1 type  1   force =    -0.03005745    3.92925243    7.00815346
     atom    2 type  1   force =    -0.03005793    3.92909826   -7.00818612
     atom    3 type  1   force =     0.02212019    8.48298657    0.00001442
     atom    4 type  1   force =     0.03059239   -4.57162795   -6.83380241
     atom    5 type  1   force =     0.03059272   -4.57163566    6.83378933
     atom    6 type  2   force =     0.03217085    0.50366168   -0.73596949
     atom    7 type  2   force =     0.03218351    0.50369912    0.73597715
     atom    8 type  2   force =    -0.03511628    0.50019036    0.73965658
     atom    9 type  2   force =    -0.03510363    0.50015276   -0.73964887
     atom   10 type  2   force =    -0.02725173   -9.36246024   -0.00001742
     atom   11 type  3   force =    -0.03040616    5.94484421    0.00004294
     atom   12 type  3   force =    -0.01773601   -2.94010867   -2.91501968
     atom   13 type  3   force =    -0.01773568   -2.94016696    2.91501380
     atom   14 type  3   force =     0.03621420   -4.31031344    0.00000150
     atom   15 type  3   force =     0.01979563    2.20123428    4.02349746
     atom   16 type  3   force =     0.01979537    2.20119325   -4.02350263
     The local contribution  to forces
     atom    1 type  1   force =     0.03038623   -3.93266524   -6.99837644
     atom    2 type  1   force =     0.03039250   -3.93197378    6.99824072
     atom    3 type  1   force =    -0.02178915   -8.47054378   -0.00013338
     atom    4 type  1   force =    -0.03091889    4.56918384    6.79976077
     atom    5 type  1   force =    -0.03092219    4.56889092   -6.79937062
     atom    6 type  2   force =    -0.03205793   -0.49534877    0.72956630
     atom    7 type  2   force =    -0.03208559   -0.49610153   -0.72978421
     atom    8 type  2   force =     0.03497874   -0.49299175   -0.73379915
     atom    9 type  2   force =     0.03497564   -0.49221252    0.73356821
     atom   10 type  2   force =     0.02751997    9.37209918    0.00035921
     atom   11 type  3   force =     0.02991197   -6.05420966   -0.00016444
     atom   12 type  3   force =     0.01826064    2.99445139    3.00651482
     atom   13 type  3   force =     0.01825918    2.99449834   -3.00641786
     atom   14 type  3   force =    -0.03574518    4.38565518    0.00025441
     atom   15 type  3   force =    -0.02033607   -2.25606810   -4.11267585
     atom   16 type  3   force =    -0.02034945   -2.25534176    4.11222780
     The core correction contribution to forces
     atom    1 type  1   force =     0.00001219    0.00149934    0.00308170
     atom    2 type  1   force =     0.00001176    0.00150054   -0.00308065
     atom    3 type  1   force =     0.00004193    0.00271914   -0.00000105
     atom    4 type  1   force =    -0.00000749   -0.00100082   -0.00359798
     atom    5 type  1   force =    -0.00000780   -0.00100179    0.00359780
     atom    6 type  2   force =     0.00029086   -0.00048864    0.00022498
     atom    7 type  2   force =     0.00028991   -0.00050476   -0.00022796
     atom    8 type  2   force =    -0.00029252   -0.00053514   -0.00021889
     atom    9 type  2   force =    -0.00029224   -0.00051882    0.00021477
     atom   10 type  2   force =    -0.00006726   -0.00450739    0.00000326
     atom   11 type  3   force =     0.00000500   -0.00219946   -0.00000128
     atom   12 type  3   force =     0.00002710    0.00063077    0.00050032
     atom   13 type  3   force =     0.00002726    0.00062748   -0.00049744
     atom   14 type  3   force =    -0.00003225    0.00091607    0.00000137
     atom   15 type  3   force =    -0.00004152   -0.00071043   -0.00100627
     atom   16 type  3   force =    -0.00004175   -0.00070897    0.00100473
     The Hubbard contrib.    to forces
     atom    1 type  1   force =     0.00000000    0.00000000    0.00000000
     atom    2 type  1   force =     0.00000000    0.00000000    0.00000000
     atom    3 type  1   force =     0.00000000    0.00000000    0.00000000
     atom    4 type  1   force =     0.00000000    0.00000000    0.00000000
     atom    5 type  1   force =     0.00000000    0.00000000    0.00000000
     atom    6 type  2   force =     0.00000000    0.00000000    0.00000000
     atom    7 type  2   force =     0.00000000    0.00000000    0.00000000
     atom    8 type  2   force =     0.00000000    0.00000000    0.00000000
     atom    9 type  2   force =     0.00000000    0.00000000    0.00000000
     atom   10 type  2   force =     0.00000000    0.00000000    0.00000000
     atom   11 type  3   force =     0.00000000    0.00000000    0.00000000
     atom   12 type  3   force =     0.00000000    0.00000000    0.00000000
     atom   13 type  3   force =     0.00000000    0.00000000    0.00000000
     atom   14 type  3   force =     0.00000000    0.00000000    0.00000000
     atom   15 type  3   force =     0.00000000    0.00000000    0.00000000
     atom   16 type  3   force =     0.00000000    0.00000000    0.00000000
     The SCF correction term to forces
     atom    1 type  1   force =    -0.00017835    0.00030616    0.00014907
     atom    2 type  1   force =    -0.00017957   -0.00024628    0.00004665
     atom    3 type  1   force =     0.00017312   -0.00011687    0.00009407
     atom    4 type  1   force =     0.00017041   -0.00006841    0.00007673
     atom    5 type  1   force =     0.00017379    0.00021672   -0.00048461
     atom    6 type  2   force =     0.00032843   -0.00036636    0.00000229
     atom    7 type  2   force =     0.00033830    0.00034694    0.00019869
     atom    8 type  2   force =    -0.00034510    0.00035709    0.00019445
     atom    9 type  2   force =    -0.00034990   -0.00037518    0.00001474
     atom   10 type  2   force =    -0.00016491   -0.00008116   -0.00032182
     atom   11 type  3   force =    -0.00044578    0.00018319    0.00013255
     atom   12 type  3   force =    -0.00043590   -0.00006236    0.00000637
     atom   13 type  3   force =    -0.00044232   -0.00004075   -0.00010398
     atom   14 type  3   force =     0.00044025    0.00011667   -0.00026867
     atom   15 type  3   force =     0.00046063    0.00033739    0.00013539
     atom   16 type  3   force =     0.00046030   -0.00039371    0.00035900

     Total force =     0.101297     Total SCF correction =     0.001903

     Computing stress (Cartesian axis) and pressure

     negative rho (up, down):  3.154E-01 0.000E+00
          total   stress  (Ry/bohr**3)                   (kbar)     P=      -69.00
  -0.00048850  -0.00000373  -0.00000000          -71.86       -0.55       -0.00
  -0.00000373  -0.00047492   0.00000000           -0.55      -69.86        0.00
  -0.00000000   0.00000000  -0.00044384           -0.00        0.00      -65.29

     kinetic stress (kbar)  18046.68     -0.98      0.00
                               -0.98  17856.39     -0.00
                                0.00     -0.00  17885.24

     local   stress (kbar)   -101.57     15.92     -0.00
                               15.92   2453.06      0.10
                               -0.00      0.10   1885.80

     nonloc. stress (kbar)   6592.92      0.05      0.00
                                0.05   6611.52     -0.00
                                0.00     -0.00   6605.03

     hartree stress (kbar)   8066.93     -5.46     -0.00
                               -5.46   6613.27     -0.08
                               -0.00     -0.08   6929.69

     exc-cor stress (kbar)   7200.17     -0.03      0.00
                               -0.03   7200.22     -0.00
                                0.00     -0.00   7200.34

     corecor stress (kbar) -13155.56      0.00     -0.00
                                0.00 -13151.91      0.00
                               -0.00      0.00 -13152.47

     ewald   stress (kbar) -26721.44    -10.06      0.00
                              -10.06 -27652.42     -0.01
                                0.00     -0.01 -27418.92

     hubbard stress (kbar)      0.00      0.00      0.00
                                0.00      0.00      0.00
                                0.00      0.00      0.00

     DFT-D   stress (kbar)      0.00      0.00      0.00
                                0.00      0.00      0.00
                                0.00      0.00      0.00

     XDM     stress (kbar)      0.00      0.00      0.00
                                0.00      0.00      0.00
                                0.00      0.00      0.00

     dft-nl  stress (kbar)      0.00      0.00      0.00
                                0.00      0.00      0.00
                                0.00      0.00      0.00

     TS-vdW  stress (kbar)      0.00      0.00      0.00
                                0.00      0.00      0.00
                                0.00      0.00      0.00

[...]

                                0.00      0.00      0.00

     Writing all to output data dir new_calculations/myprefix.save/

     General routines

     Parallel routines

     PAW routines

   This run was terminated on:   3:42: 2  21May2023

   JOB DONE.