     Program PWSCF v.7.0 starts on 21May2023 at  6:16:17

     Reading input from espresso_18940.pwi
Warning: card &CELL ignored
Warning: card / ignored

     Current dimensions of program PWSCF are:
     Max number of different atomic species (ntypx) = 10
     Max number of k-points (npk) =  40000
     Max angular momentum in pseudopotentials (lmaxx) =  4

     gamma-point specific algorithms are used
     Message from routine setup:
     using ibrav=0 with symmetry is DISCOURAGED, use correct ibrav instead

     Subspace diagonalization in iterative solution of the eigenvalue problem:
     a serial algorithm will be used

     Using Slab Decomposition

     bravais-lattice index     =            0
     lattice parameter (alat)  =       7.4467  a.u.
     unit-cell volume          =     590.6801 (a.u.)^3
     number of atoms/cell      =            4
     number of atomic types    =            2
     number of electrons       =        36.00
     number of Kohn-Sham states=           22
     kinetic-energy cutoff     =      30.0000  Ry
     charge density cutoff     =     240.0000  Ry
     scf convergence threshold =      1.0E-06
     mixing beta               =       0.7000
     number of iterations used =            8  plain     mixing
     Exchange-correlation=  SLA  PW   PBX  PBC
                           (   1   4   3   4   0   0   0)

     celldm(1)=   7.446690  celldm(2)=   0.000000  celldm(3)=   0.000000
     celldm(4)=   0.000000  celldm(5)=   0.000000  celldm(6)=   0.000000

     crystal axes: (cart. coord. in units of alat)
               a(1) = (   1.000000   0.000000   0.000000 )
               a(2) = (  -0.500000   0.866025   0.000000 )
               a(3) = (   0.000000   0.000000   1.651703 )

     reciprocal axes: (cart. coord. in units 2 pi/alat)
               b(1) = (  1.000000  0.577351  0.000000 )
               b(2) = (  0.000000  1.154701  0.000000 )
               b(3) = (  0.000000  0.000000  0.605436 )

     PseudoPot. # 1 for Si read from file:
     /home/pragov/projects/rrg-bengioy-ad/pragov/crystal_structure_design/SSSP/Si.pbe-n-rrkjus_psl.1.0.0.UPF
     MD5 check sum: 0b0bb1205258b0d07b9f9672cf965d36
     Pseudo is Ultrasoft + core correction, Zval =  4.0
     Generated using "atomic" code by A. Dal Corso  v.5.1
     Using radial grid of 1141 points,  6 beta functions with:
                l(1) =   0
                l(2) =   0
                l(3) =   1
                l(4) =   1
                l(5) =   2
                l(6) =   2
     Q(r) pseudized with 0 coefficients

     PseudoPot. # 2 for Ge read from file:
     /home/pragov/projects/rrg-bengioy-ad/pragov/crystal_structure_design/SSSP/ge_pbe_v1.4.uspp.F.UPF
     MD5 check sum: 9c9eaa91e581c3f09632fb3098b2c6b2
     Pseudo is Ultrasoft + core correction, Zval = 14.0
     Generated by new atomic code, or converted to UPF format
     Using radial grid of  873 points,  6 beta functions with:
                l(1) =   0
                l(2) =   0
                l(3) =   1
                l(4) =   1
                l(5) =   2
                l(6) =   2
     Q(r) pseudized with  8 coefficients,  rinner =    1.400   1.400   1.400
                                                       1.400   1.400

     atomic species   valence    mass     pseudopotential
        Si             4.00    28.08500     Si( 1.00)
        Ge            14.00    72.63000     Ge( 1.00)

     12 Sym. Ops. (no inversion) found ( 6 have fractional translation)

                                    s                        frac. trans.

      isym =  1     identity

 cryst.   s( 1) = (     1          0          0      )
                  (     0          1          0      )
                  (     0          0          1      )

 cart.    s( 1) = (  1.0000000  0.0000000  0.0000000 )
                  (  0.0000000  1.0000000  0.0000000 )
                  (  0.0000000  0.0000000  1.0000000 )

      isym =  2     180 deg rotation - cart. axis [0,0,1]

 cryst.   s( 2) = (    -1          0          0      )    f =( -0.0000000 )
                  (     0         -1          0      )       ( -0.0000000 )
                  (     0          0          1      )       (  0.5000000 )

 cart.    s( 2) = ( -1.0000000 -0.0000000  0.0000000 )    f =( -0.0000000 )
                  (  0.0000000 -1.0000000  0.0000000 )       ( -0.0000000 )
                  (  0.0000000  0.0000000  1.0000000 )       (  0.8258514 )

      isym =  3      60 deg rotation - cryst. axis [0,0,1]

[...]

      isym =  6     120 deg rotation - cryst. axis [0,0,-1]

[...]

      isym =  7     inv. 180 deg rotation - cart. axis [0,1,0]

[...]

      isym =  8     inv. 180 deg rotation - cart. axis [1,0,0]

 cryst.   s( 8) = (    -1          0          0      )
                  (     1          1          0      )
                  (     0          0          1      )

 cart.    s( 8) = ( -1.0000000 -0.0000004  0.0000000 )
                  (  0.0000000  1.0000000  0.0000000 )
                  (  0.0000000  0.0000000  1.0000000 )

      isym =  9     inv. 180 deg rotation - cryst. axis [1,-1,0]

 cryst.   s( 9) = (     0          1          0      )    f =( -0.0000000 )
                  (     1          0          0      )       ( -0.0000000 )
                  (     0          0          1      )       (  0.5000000 )

 cart.    s( 9) = ( -0.5000002  0.8660253  0.0000000 )    f =( -0.0000000 )
                  (  0.8660253  0.5000002  0.0000000 )       ( -0.0000000 )
                  (  0.0000000  0.0000000  1.0000000 )       (  0.8258514 )

[...]

 cryst.   s(10) = (    -1         -1          0      )    f =( -0.0000000 )
                  (     0          1          0      )       (  0.0000010 )
                  (     0          0          1      )       (  0.5000000 )

 cart.    s(10) = ( -0.4999998 -0.8660257  0.0000000 )    f =( -0.0000005 )
                  ( -0.8660253  0.4999998  0.0000000 )       (  0.0000009 )
                  (  0.0000000  0.0000000  1.0000000 )       (  0.8258514 )

[...]

 cryst.   s(11) = (     1          1          0      )
                  (     0         -1          0      )
                  (     0          0          1      )

 cart.    s(11) = (  0.4999998  0.8660257  0.0000000 )
                  (  0.8660253 -0.4999998  0.0000000 )
                  (  0.0000000  0.0000000  1.0000000 )

      isym = 12     inv. 180 deg rotation - cryst. axis [1,1,0]

 cryst.   s(12) = (     0         -1          0      )
                  (    -1          0          0      )
                  (     0          0          1      )

 cart.    s(12) = (  0.5000002 -0.8660253  0.0000000 )
                  ( -0.8660253 -0.5000002  0.0000000 )
                  (  0.0000000  0.0000000  1.0000000 )

   Cartesian axes

     site n.     atom                  positions (alat units)
         1           Si  tau(   1) = (   0.5000004   0.2886748   1.4445132  )
         2           Si  tau(   2) = (  -0.0000006   0.5773505   0.6186618  )
         3           Ge  tau(   3) = (   0.5000004   0.2886748   0.8265765  )
         4           Ge  tau(   4) = (  -0.0000006   0.5773505   0.0007251  )

   Crystallographic axes

     site n.     atom                  positions (cryst. coord.)
         1           Si  tau(   1) = (  0.6666670  0.3333330  0.8745600  )
         2           Si  tau(   2) = (  0.3333330  0.6666670  0.3745600  )
         3           Ge  tau(   3) = (  0.6666670  0.3333330  0.5004390  )
         4           Ge  tau(   4) = (  0.3333330  0.6666670  0.0004390  )

     number of k points=     1  Methfessel-Paxton smearing, width (Ry)=  0.0010
                       cart. coord. in units 2pi/alat
        k(    1) = (   0.0000000   0.0000000   0.0000000), wk =   2.0000000

                       cryst. coord.
        k(    1) = (   0.0000000   0.0000000   0.0000000), wk =   2.0000000

     Initial potential from superposition of free atoms

     starting charge      35.9971, renormalised to      36.0000
     Starting wfcs are   26 randomized atomic wfcs

     Self-consistent Calculation

     iteration #  1     ecut=    30.00 Ry     beta= 0.70
     Davidson diagonalization with overlap

     ethr =  1.00E-02,  avg # of iterations =  2.0

     Threshold (ethr) on eigenvalues was too large:
     Diagonalizing with lowered threshold

     Davidson diagonalization with overlap

[...]

     total energy              =    -448.54137733 Ry
     estimated scf accuracy    <       0.34358860 Ry

[...]

     total energy              =    -448.55605618 Ry
     estimated scf accuracy    <       0.00000615 Ry

     iteration #  8     ecut=    30.00 Ry     beta= 0.70
     Davidson diagonalization with overlap

     ethr =  1.71E-08,  avg # of iterations =  2.0

     End of self-consistent calculation

          k = 0.0000 0.0000 0.0000 (   839 PWs)   bands (ev):

   -16.3979 -16.3922 -16.3507 -16.3507 -16.3410 -16.3410 -16.2877 -16.2877
   -16.2819 -16.2819  -4.5943  -2.5069   0.5455   6.3075   6.3075   7.6454
     7.8818   7.8818   8.1550   9.2143   9.7743   9.7743

     occupation numbers
     1.0000   1.0000   1.0000   1.0000   1.0000   1.0000   1.0000   1.0000
     1.0000   1.0000   1.0000   1.0000   1.0000   1.0000   1.0000   1.0000
     1.0000   1.0000  -0.0000  -0.0000  -0.0000  -0.0000

     the Fermi energy is     8.0510 ev

!    total energy              =    -448.55605665 Ry
     estimated scf accuracy    <       0.00000068 Ry
     smearing contrib. (-TS)   =       0.00000000 Ry
     internal energy E=F+TS    =    -448.55605665 Ry

     The total energy is F=E-TS. E is the sum of the following terms:
     one-electron contribution =    -298.74609864 Ry
     hartree contribution      =     180.13572604 Ry
     xc contribution           =    -129.21866309 Ry
     ewald contribution        =    -200.72702096 Ry

     convergence has been achieved in   8 iterations

     Forces acting on atoms (cartesian axes, Ry/au):

     atom    1 type  1   force =     0.00000000   -0.00000000   -0.03500159
     atom    2 type  1   force =     0.00000000    0.00000000   -0.03500159
     atom    3 type  2   force =    -0.00000000   -0.00000000    0.03500159
     atom    4 type  2   force =     0.00000000   -0.00000000    0.03500159
     The non-local contrib.  to forces
     atom    1 type  1   force =     0.00000000    0.00000000    0.09051237
     atom    2 type  1   force =     0.00000000   -0.00000000    0.09051237
     atom    3 type  2   force =     0.00000000    0.00000000   -0.31641784
     atom    4 type  2   force =     0.00000000   -0.00000000   -0.31641784
     The ionic contribution  to forces
     atom    1 type  1   force =    -0.00001750    0.00001010   -0.18847219
     atom    2 type  1   force =     0.00001750   -0.00001010   -0.18847219
     atom    3 type  2   force =    -0.00002035    0.00001175    0.18847219
     atom    4 type  2   force =     0.00002035   -0.00001175    0.18847219
     The local contribution  to forces
     atom    1 type  1   force =    -0.00001791    0.00001547    0.07161103
     atom    2 type  1   force =    -0.00000149   -0.00003931    0.07213617
     atom    3 type  2   force =     0.00000822   -0.00026304    0.15658769
     atom    4 type  2   force =    -0.00016146    0.00014722    0.15503061
     The core correction contribution to forces
     atom    1 type  1   force =    -0.00000279    0.00000403   -0.00849543
     atom    2 type  1   force =     0.00000278   -0.00000486   -0.00842794
     atom    3 type  2   force =    -0.00000063   -0.00000491    0.00658414
     atom    4 type  2   force =    -0.00000234    0.00000303    0.00652962
     The Hubbard contrib.    to forces
     atom    1 type  1   force =     0.00000000    0.00000000    0.00000000
     atom    2 type  1   force =     0.00000000    0.00000000    0.00000000
     atom    3 type  2   force =     0.00000000    0.00000000    0.00000000
     atom    4 type  2   force =     0.00000000    0.00000000    0.00000000
     The SCF correction term to forces
     atom    1 type  1   force =     0.00000644    0.00000505   -0.00005874
     atom    2 type  1   force =    -0.00000044    0.00000452   -0.00002501
     atom    3 type  2   force =     0.00008279    0.00025231    0.00042681
     atom    4 type  2   force =     0.00008617   -0.00018586    0.00155924

     Total force =     0.070003     Total SCF correction =     0.001652

     Computing stress (Cartesian axis) and pressure

          total   stress  (Ry/bohr**3)                   (kbar)     P=      172.71
   0.00168236   0.00000000  -0.00000000          247.48        0.00       -0.00
   0.00000000   0.00168236   0.00000000            0.00      247.48        0.00
  -0.00000000   0.00000000   0.00015753           -0.00        0.00       23.17

     kinetic stress (kbar)   6731.62      0.00      0.00
                                0.00   6731.62      0.00
                                0.00      0.00   6357.07

     local   stress (kbar)  -1184.00     -0.03      0.03
                               -0.03  -1183.94      0.03
                                0.03      0.03  -1155.11

     nonloc. stress (kbar)   2091.19      0.00      0.00
                                0.00   2091.19      0.00
                                0.00      0.00   1912.48

     hartree stress (kbar)  14917.07     -0.00     -0.02
                               -0.00  14916.99     -0.02
                               -0.02     -0.02  15027.58

     exc-cor stress (kbar)  11525.16     -0.00     -0.00
                               -0.00  11525.16     -0.00
                               -0.00     -0.00  11522.91

     corecor stress (kbar) -17112.24      0.00     -0.00
                                0.00 -17112.25      0.00
                               -0.00      0.00 -17094.59

     ewald   stress (kbar) -16721.33      0.04      0.00
                                0.04 -16721.28     -0.00
                                0.00     -0.00 -16547.16

     hubbard stress (kbar)      0.00      0.00      0.00
                                0.00      0.00      0.00
                                0.00      0.00      0.00

     DFT-D   stress (kbar)      0.00      0.00      0.00
                                0.00      0.00      0.00
                                0.00      0.00      0.00

     XDM     stress (kbar)      0.00      0.00      0.00
                                0.00      0.00      0.00
                                0.00      0.00      0.00

     dft-nl  stress (kbar)      0.00      0.00      0.00
                                0.00      0.00      0.00
                                0.00      0.00      0.00

     TS-vdW  stress (kbar)      0.00      0.00      0.00
                                0.00      0.00      0.00
                                0.00      0.00      0.00

[...]

                                0.00      0.00      0.00

     Writing all to output data dir new_calculations/myprefix.save/

     General routines

     Parallel routines

   This run was terminated on:   6:16:23  21May2023

   JOB DONE.