     Program PWSCF v.7.0 starts on 20May2023 at 18:46:48

     Reading input from espresso_14652.pwi
Warning: card &CELL ignored
Warning: card / ignored

     Current dimensions of program PWSCF are:
     Max number of different atomic species (ntypx) = 10
     Max number of k-points (npk) =  40000
     Max angular momentum in pseudopotentials (lmaxx) =  4
     file Al.pbe-n-kjpaw_psl.1.0.0.UPF: wavefunction(s)  3S 3P renormalized

     gamma-point specific algorithms are used

     Subspace diagonalization in iterative solution of the eigenvalue problem:
     a serial algorithm will be used

     Using Slab Decomposition

     bravais-lattice index     =            0
     lattice parameter (alat)  =      13.7204  a.u.
     unit-cell volume          =    1577.5423 (a.u.)^3
     number of atoms/cell      =           11
     number of atomic types    =            3
     number of electrons       =       102.00
     number of Kohn-Sham states=           61
     kinetic-energy cutoff     =      30.0000  Ry
     charge density cutoff     =     240.0000  Ry
     scf convergence threshold =      1.0E-06
     mixing beta               =       0.7000
     number of iterations used =            8  plain     mixing
     Exchange-correlation=  SLA  PW   PBX  PBC
                           (   1   4   3   4   0   0   0)

     celldm(1)=  13.720438  celldm(2)=   0.000000  celldm(3)=   0.000000
     celldm(4)=   0.000000  celldm(5)=   0.000000  celldm(6)=   0.000000

     crystal axes: (cart. coord. in units of alat)
               a(1) = (   1.000000   0.000000   0.000000 )
               a(2) = (   0.585473   0.810692   0.000000 )
               a(3) = (   0.585473   0.299367   0.753393 )

     reciprocal axes: (cart. coord. in units 2 pi/alat)
               b(1) = (  1.000000 -0.722190 -0.490148 )
               b(2) = (  0.000000  1.233515 -0.490148 )
               b(3) = (  0.000000  0.000000  1.327329 )

     PseudoPot. # 1 for Al read from file:
     /home/pragov/projects/rrg-bengioy-ad/pragov/crystal_structure_design/SSSP/Al.pbe-n-kjpaw_psl.1.0.0.UPF
     MD5 check sum: cfc449ca30b5f3223ec38ddd88ac046d
     Pseudo is Projector augmented-wave + core cor, Zval =  3.0
     Generated using "atomic" code by A. Dal Corso  v.5.1
     Shape of augmentation charge: PSQ
     Using radial grid of 1135 points,  6 beta functions with:
                l(1) =   0
                l(2) =   0
                l(3) =   1
                l(4) =   1
                l(5) =   2
                l(6) =   2
     Q(r) pseudized with 0 coefficients

     PseudoPot. # 2 for Zn read from file:
     /home/pragov/projects/rrg-bengioy-ad/pragov/crystal_structure_design/SSSP/Zn_pbe_v1.uspp.F.UPF
     MD5 check sum: df62231357ef9e81f77b2b3087fa5675
     Pseudo is Ultrasoft, Zval = 20.0
     Generated by new atomic code, or converted to UPF format
     Using radial grid of  943 points,  6 beta functions with:
                l(1) =   0
                l(2) =   0
                l(3) =   1
                l(4) =   1
                l(5) =   2
                l(6) =   2
     Q(r) pseudized with  8 coefficients,  rinner =    1.100   1.100   1.100
                                                       1.100   1.100

     PseudoPot. # 3 for S  read from file:
     /home/pragov/projects/rrg-bengioy-ad/pragov/crystal_structure_design/SSSP/s_pbe_v1.4.uspp.F.UPF
     MD5 check sum: 88d86576ff6df21479756cfb9bdac1df
     Pseudo is Ultrasoft + core correction, Zval =  6.0
     Generated by new atomic code, or converted to UPF format
     Using radial grid of  907 points,  6 beta functions with:
                l(1) =   0
                l(2) =   0
                l(3) =   1
                l(4) =   1
                l(5) =   2
                l(6) =   2
     Q(r) pseudized with  8 coefficients,  rinner =    1.300   1.300   1.300
                                                       1.300   1.300

     atomic species   valence    mass     pseudopotential
        Al             3.00    26.98154     Al( 1.00)
        Zn            20.00    65.38000     Zn( 1.00)
        S              6.00    32.06000     S ( 1.00)

     No symmetry found

                                    s                        frac. trans.

      isym =  1     identity

 cryst.   s( 1) = (     1          0          0      )
                  (     0          1          0      )
                  (     0          0          1      )

 cart.    s( 1) = (  1.0000000 -0.0000000  0.0000000 )
                  (  0.0000000  1.0000000  0.0000000 )
                  (  0.0000000  0.0000000  1.0000000 )

   Cartesian axes

     site n.     atom                  positions (alat units)
         1           Al  tau(   1) = (   0.0016651   0.0008514   0.0005779  )
         2           Al  tau(   2) = (   1.4412525   0.7369479   0.5001638  )
         3           Zn  tau(   3) = (   1.2168913   0.2978851   0.3803767  )
         4           Zn  tau(   4) = (   1.0882074   0.7151608   0.1363678  )
         5           Zn  tau(   5) = (   0.9539505   0.6533862   0.6142569  )
         6           S   tau(   6) = (   1.4978236   0.4284111   0.4818639  )
         7           S   tau(   7) = (   1.3682207   0.8594721   0.2201918  )
         8           S   tau(   8) = (   1.2242452   0.8035826   0.7174144  )
         9           S   tau(   9) = (   1.7116569   0.8752124   0.5940034  )
        10           S   tau(  10) = (   0.9826204   0.5024381   0.3410028  )
        11           S   tau(  11) = (   0.2722801   0.1392236   0.0944905  )

   Crystallographic axes

     site n.     atom                  positions (cryst. coord.)
         1           Al  tau(   1) = (  0.0007670  0.0007670  0.0007670  )
         2           Al  tau(   2) = (  0.6638820  0.6638820  0.6638820  )
         3           Zn  tau(   3) = (  0.8153210  0.1810050  0.5048850  )
         4           Zn  tau(   4) = (  0.5048850  0.8153210  0.1810050  )
         5           Zn  tau(   5) = (  0.1810050  0.5048850  0.8153210  )
         6           S   tau(   6) = (  0.9522450  0.2922670  0.6395920  )
         7           S   tau(   7) = (  0.6395920  0.9522450  0.2922670  )
         8           S   tau(   8) = (  0.2922670  0.6395920  0.9522450  )
         9           S   tau(   9) = (  0.7884380  0.7884380  0.7884380  )
        10           S   tau(  10) = (  0.4526230  0.4526230  0.4526230  )
        11           S   tau(  11) = (  0.1254200  0.1254200  0.1254200  )

     number of k points=     1  Methfessel-Paxton smearing, width (Ry)=  0.0010
                       cart. coord. in units 2pi/alat
        k(    1) = (   0.0000000   0.0000000   0.0000000), wk =   2.0000000

                       cryst. coord.
        k(    1) = (   0.0000000   0.0000000   0.0000000), wk =   2.0000000

     Initial potential from superposition of free atoms

     starting charge     101.9948, renormalised to     102.0000
     Starting wfcs are   71 randomized atomic wfcs
     Checking if some PAW data can be deallocated...

     Self-consistent Calculation

     iteration #  1     ecut=    30.00 Ry     beta= 0.70
     Davidson diagonalization with overlap

     ethr =  1.00E-02,  avg # of iterations =  4.0

     Threshold (ethr) on eigenvalues was too large:
     Diagonalizing with lowered threshold

     Davidson diagonalization with overlap

[...]

     total energy              =   -1608.38645470 Ry
     estimated scf accuracy    <       0.74756029 Ry

[...]

     total energy              =   -1608.68549645 Ry
     estimated scf accuracy    <       0.00000204 Ry

     iteration #  8     ecut=    30.00 Ry     beta= 0.70
     Davidson diagonalization with overlap

     ethr =  2.00E-09,  avg # of iterations =  4.0

     End of self-consistent calculation

          k = 0.0000 0.0000 0.0000 (  2189 PWs)   bands (ev):

  -119.9483-119.9478-119.9476 -74.0690 -74.0686 -74.0672 -74.0668 -74.0634
   -74.0587 -74.0440 -74.0378 -74.0374  -7.9805  -6.9338  -6.8776  -6.6307
    -6.6306  -6.2311  -1.1829  -1.1829  -1.1811  -1.0892  -1.0891  -0.9590
    -0.9388  -0.9385  -0.9052  -0.8301  -0.8299  -0.8083  -0.8082  -0.6717
    -0.5851  -0.2558  -0.2025   0.3890   0.3890   1.5185   1.5185   2.3210
     2.3838   2.3838   3.0269   3.4175   3.4175   3.8247   4.1639   4.1639
     4.9511   4.9511   5.2050   7.6215   8.5475   9.3547   9.5071   9.5071
    10.2025  10.2025  10.9072  11.3271  11.3272

     occupation numbers
     1.0000   1.0000   1.0000   1.0000   1.0000   1.0000   1.0000   1.0000
     1.0000   1.0000   1.0000   1.0000   1.0000   1.0000   1.0000   1.0000
     1.0000   1.0000   1.0000   1.0000   1.0000   1.0000   1.0000   1.0000
     1.0000   1.0000   1.0000   1.0000   1.0000   1.0000   1.0000   1.0000
     1.0000   1.0000   1.0000   1.0000   1.0000   1.0000   1.0000   1.0000
     1.0000   1.0000   1.0000   1.0000   1.0000   1.0000   1.0000   1.0000
     1.0000   1.0000   1.0000  -0.0000  -0.0000  -0.0000  -0.0000  -0.0000
    -0.0000  -0.0000  -0.0000  -0.0000  -0.0000

     the Fermi energy is     7.3524 ev

!    total energy              =   -1608.68549730 Ry
     estimated scf accuracy    <       0.00000016 Ry
     smearing contrib. (-TS)   =       0.00000000 Ry
     internal energy E=F+TS    =   -1608.68549730 Ry

     The total energy is F=E-TS. E is the sum of the following terms:
     one-electron contribution =   -1614.05344412 Ry
     hartree contribution      =     834.76939172 Ry
     xc contribution           =    -182.67270932 Ry
     ewald contribution        =    -577.40366715 Ry
     one-center paw contrib.   =     -69.32506843 Ry
      -> PAW hartree energy AE =       2.89226996 Ry
      -> PAW hartree energy PS =      -2.88454194 Ry
      -> PAW xc energy AE      =     -73.19620525 Ry
      -> PAW xc energy PS      =       3.86340879 Ry
      -> total E_H with PAW    =     834.77711974 Ry
      -> total E_XC with PAW   =    -252.00550578 Ry

     convergence has been achieved in   8 iterations

     Forces acting on atoms (cartesian axes, Ry/au):

     atom    1 type  1   force =     0.00683911    0.00349785    0.00237109
     atom    2 type  1   force =     0.01233234    0.00630386    0.00427885
     atom    3 type  2   force =     0.00441735    0.00837586    0.00501998
     atom    4 type  2   force =     0.00884097   -0.00095455    0.00591652
     atom    5 type  2   force =     0.00935871    0.00416415   -0.00307909
     atom    6 type  3   force =     0.00118680   -0.00098081   -0.00240522
     atom    7 type  3   force =    -0.00141135    0.00248211   -0.00002158
     atom    8 type  3   force =    -0.00009756   -0.00167798    0.00231497
     atom    9 type  3   force =    -0.01898329   -0.00970802   -0.00659058
     atom   10 type  3   force =    -0.00653491   -0.00333969   -0.00226883
     atom   11 type  3   force =    -0.01594816   -0.00816278   -0.00553610
     The non-local contrib.  to forces
     atom    1 type  1   force =     0.02330301    0.01191495    0.00808872
     atom    2 type  1   force =     0.01383214    0.00707562    0.00480143
     atom    3 type  2   force =     0.32562049   -0.34730767    0.01355422
     atom    4 type  2   force =     0.09688830    0.33165739   -0.32775489
     atom    5 type  2   force =    -0.09089144    0.18518177    0.42928401
     atom    6 type  3   force =    -0.17780062    0.03831362    0.18312582
     atom    7 type  3   force =     0.04533990   -0.25205985   -0.03201771
     atom    8 type  3   force =    -0.07302718    0.10866449   -0.22241892
     atom    9 type  3   force =    -0.00008182   -0.00005172   -0.00002384
     atom   10 type  3   force =     0.33558052    0.17159374    0.11645912
     atom   11 type  3   force =    -0.02077470   -0.01062993   -0.00721663
     The ionic contribution  to forces
     atom    1 type  1   force =     0.02397219    0.01225817    0.00831921
     atom    2 type  1   force =     0.32681238    0.16710784    0.11341483
     atom    3 type  2   force =     2.75367487   -2.41730106   -0.76108797
     atom    4 type  2   force =     0.31514693    3.16909890   -1.96539787
     atom    5 type  2   force =    -0.34748015    0.63968271    3.67087908
     atom    6 type  3   force =     8.19539151    2.89084857    1.50069220
     atom    7 type  3   force =     6.79421876    5.20241859    2.13236017
     atom    8 type  3   force =     7.14177073    3.22305239    4.04729155
     atom    9 type  3   force =    -7.65256022   -3.91293998   -2.65569715
     atom   10 type  3   force =   -10.93064049   -5.58910294   -3.79330332
     atom   11 type  3   force =    -6.62030652   -3.38512319   -2.29747073
     The local contribution  to forces
     atom    1 type  1   force =    -0.03778314   -0.01931654   -0.01311427
     atom    2 type  1   force =    -0.32694020   -0.16717744   -0.11346233
     atom    3 type  2   force =    -3.07483697    2.77258899    0.75247313
     atom    4 type  2   force =    -0.40329097   -3.50155047    2.29877209
     atom    5 type  2   force =     0.44746529   -0.82067956   -4.10298397
     atom    6 type  3   force =    -8.02613497   -2.92807112   -1.67648027
     atom    7 type  3   force =    -6.83872256   -4.96151214   -2.10204090
     atom    8 type  3   force =    -7.07290181   -3.32771344   -3.83461870
     atom    9 type  3   force =     7.63401277    3.90343204    2.64924375
     atom   10 type  3   force =    10.60702636    5.42364126    3.68103977
     atom   11 type  3   force =     6.62437068    3.38722942    2.29885812
     The core correction contribution to forces
     atom    1 type  1   force =    -0.00259276   -0.00132570   -0.00089992
     atom    2 type  1   force =    -0.00129800   -0.00066408   -0.00045059
     atom    3 type  2   force =     0.00000000    0.00000000    0.00000000
     atom    4 type  2   force =     0.00000000    0.00000000    0.00000000
     atom    5 type  2   force =     0.00000000    0.00000000    0.00000000
     atom    6 type  3   force =     0.00983841   -0.00193560   -0.00984204
     atom    7 type  3   force =    -0.00223440    0.01374896    0.00183585
     atom    8 type  3   force =     0.00418989   -0.00578255    0.01209867
     atom    9 type  3   force =    -0.00033971   -0.00017311   -0.00011844
     atom   10 type  3   force =    -0.01848656   -0.00945244   -0.00641542
     atom   11 type  3   force =     0.00078070    0.00040009    0.00027175
     The Hubbard contrib.    to forces
     atom    1 type  1   force =     0.00000000    0.00000000    0.00000000
     atom    2 type  1   force =     0.00000000    0.00000000    0.00000000
     atom    3 type  2   force =     0.00000000    0.00000000    0.00000000
     atom    4 type  2   force =     0.00000000    0.00000000    0.00000000
     atom    5 type  2   force =     0.00000000    0.00000000    0.00000000
     atom    6 type  3   force =     0.00000000    0.00000000    0.00000000
     atom    7 type  3   force =     0.00000000    0.00000000    0.00000000
     atom    8 type  3   force =     0.00000000    0.00000000    0.00000000
     atom    9 type  3   force =     0.00000000    0.00000000    0.00000000
     atom   10 type  3   force =     0.00000000    0.00000000    0.00000000
     atom   11 type  3   force =     0.00000000    0.00000000    0.00000000
     The SCF correction term to forces
     atom    1 type  1   force =    -0.00002413   -0.00001424   -0.00000926
     atom    2 type  1   force =    -0.00003792   -0.00001930   -0.00001107
     atom    3 type  2   force =    -0.00000500    0.00041438    0.00009400
     atom    4 type  2   force =     0.00013275   -0.00014159    0.00031060
     atom    5 type  2   force =     0.00030106   -0.00000198   -0.00024481
     atom    6 type  3   force =    -0.00007147   -0.00011750    0.00011247
     atom    7 type  3   force =     0.00002299   -0.00009466   -0.00014558
     atom    8 type  3   force =    -0.00009314    0.00011992   -0.00002423
     atom    9 type  3   force =     0.00002173    0.00004355    0.00001851
     atom   10 type  3   force =     0.00002131   -0.00000052   -0.00003558
     atom   11 type  3   force =     0.00001772   -0.00002038    0.00003480

     Total force =     0.039386     Total SCF correction =     0.000749

     Computing stress (Cartesian axis) and pressure

          total   stress  (Ry/bohr**3)                   (kbar)     P=     -127.47
  -0.00086239   0.00000390   0.00000265         -126.86        0.57        0.39
   0.00000390  -0.00086804   0.00000136            0.57     -127.69        0.20
   0.00000265   0.00000136  -0.00086911            0.39        0.20     -127.85

     kinetic stress (kbar)  10673.12     11.18      7.58
                               11.18  10656.98      3.88
                                7.58      3.88  10653.90

     local   stress (kbar)    288.11  14929.57  10132.64
                            14929.57 -21275.86   5181.07
                            10132.64   5181.07 -25393.34

     nonloc. stress (kbar)   1542.46      2.02      1.37
                                2.02   1539.54      0.70
                                1.37      0.70   1538.99

     hartree stress (kbar)  18193.08  -7350.99  -4989.09
                            -7350.99  28810.71  -2551.04
                            -4989.09  -2551.04  30838.06

     exc-cor stress (kbar)  -2506.58      0.23      0.15
                                0.23  -2506.91      0.08
                                0.15      0.08  -2506.97

     corecor stress (kbar)  -2362.06     -0.35     -0.23
                               -0.35  -2361.56     -0.12
                               -0.23     -0.12  -2361.47

     ewald   stress (kbar) -25955.00  -7591.08  -5152.04
                            -7591.08 -14990.60  -2634.36
                            -5152.04  -2634.36 -12897.02

     hubbard stress (kbar)      0.00      0.00      0.00
                                0.00      0.00      0.00
                                0.00      0.00      0.00

     DFT-D   stress (kbar)      0.00      0.00      0.00
                                0.00      0.00      0.00
                                0.00      0.00      0.00

     XDM     stress (kbar)      0.00      0.00      0.00
                                0.00      0.00      0.00
                                0.00      0.00      0.00

     dft-nl  stress (kbar)      0.00      0.00      0.00
                                0.00      0.00      0.00
                                0.00      0.00      0.00

     TS-vdW  stress (kbar)      0.00      0.00      0.00
                                0.00      0.00      0.00
                                0.00      0.00      0.00

[...]

                                0.00      0.00      0.00

     Writing all to output data dir new_calculations/myprefix.save/

     General routines

     Parallel routines

     PAW routines

   This run was terminated on:  18:47: 7  20May2023

   JOB DONE.