     Program PWSCF v.7.0 starts on 20May2023 at 18:56:39

     Reading input from espresso_18525.pwi
Warning: card &CELL ignored
Warning: card / ignored

     Current dimensions of program PWSCF are:
     Max number of different atomic species (ntypx) = 10
     Max number of k-points (npk) =  40000
     Max angular momentum in pseudopotentials (lmaxx) =  4

     gamma-point specific algorithms are used
     Message from routine setup:
     using ibrav=0 with symmetry is DISCOURAGED, use correct ibrav instead

     Subspace diagonalization in iterative solution of the eigenvalue problem:
     a serial algorithm will be used

     Using Slab Decomposition

     bravais-lattice index     =            0
     lattice parameter (alat)  =      10.5424  a.u.
     unit-cell volume          =     808.0561 (a.u.)^3
     number of atoms/cell      =            8
     number of atomic types    =            2
     number of electrons       =       126.00
     number of Kohn-Sham states=           76
     kinetic-energy cutoff     =      30.0000  Ry
     charge density cutoff     =     240.0000  Ry
     scf convergence threshold =      1.0E-06
     mixing beta               =       0.7000
     number of iterations used =            8  plain     mixing
     Exchange-correlation= PBE
                           (   1   4   3   4   0   0   0)

     celldm(1)=  10.542435  celldm(2)=   0.000000  celldm(3)=   0.000000
     celldm(4)=   0.000000  celldm(5)=   0.000000  celldm(6)=   0.000000

     crystal axes: (cart. coord. in units of alat)
               a(1) = (   1.000000   0.000000   0.000000 )
               a(2) = (  -0.500000   0.866025   0.000000 )
               a(3) = (   0.000000   0.000000   0.796321 )

     reciprocal axes: (cart. coord. in units 2 pi/alat)
               b(1) = (  1.000000  0.577350  0.000000 )
               b(2) = (  0.000000  1.154701  0.000000 )
               b(3) = (  0.000000  0.000000  1.255775 )

     PseudoPot. # 1 for Re read from file:
     /home/pragov/projects/rrg-bengioy-ad/pragov/crystal_structure_design/SSSP/Re_pbe_v1.2.uspp.F.UPF
     MD5 check sum: 85f993410f3e006da9d71c142b4ad953
     Pseudo is Ultrasoft + core correction, Zval = 15.0
     Generated by new atomic code, or converted to UPF format
     Using radial grid of  981 points,  8 beta functions with:
                l(1) =   0
                l(2) =   0
                l(3) =   1
                l(4) =   1
                l(5) =   2
                l(6) =   2
                l(7) =   3
                l(8) =   3
     Q(r) pseudized with  8 coefficients,  rinner =    1.150   1.150   1.150
                                                       1.150   1.150   1.150
                                                       1.150

     PseudoPot. # 2 for Pd read from file:
     /home/pragov/projects/rrg-bengioy-ad/pragov/crystal_structure_design/SSSP/Pd_ONCV_PBE-1.0.oncvpsp.upf
     MD5 check sum: eb77f42b51d86fb18e25f68156a31cf1
     Pseudo is Norm-conserving, Zval = 18.0
     Generated using ONCVPSP code by D. R. Hamann
     Using radial grid of 1410 points,  6 beta functions with:
                l(1) =   0
                l(2) =   0
                l(3) =   1
                l(4) =   1
                l(5) =   2
                l(6) =   2

     atomic species   valence    mass     pseudopotential
        Re            15.00   186.20700     Re( 1.00)
        Pd            18.00   106.42000     Pd( 1.00)

     24 Sym. Ops., with inversion, found (12 have fractional translation)

                                    s                        frac. trans.

      isym =  1     identity

 cryst.   s( 1) = (     1          0          0      )
                  (     0          1          0      )
                  (     0          0          1      )

 cart.    s( 1) = (  1.0000000 -0.0000000  0.0000000 )
                  (  0.0000000  1.0000000  0.0000000 )
                  (  0.0000000  0.0000000  1.0000000 )

      isym =  2     180 deg rotation - cart. axis [0,0,1]

 cryst.   s( 2) = (    -1          0          0      )    f =(  0.0000000 )
                  (     0         -1          0      )       ( -0.0000000 )
                  (     0          0          1      )       ( -0.5000000 )

 cart.    s( 2) = ( -1.0000000  0.0000000  0.0000000 )    f =(  0.0000000 )
                  (  0.0000000 -1.0000000  0.0000000 )       ( -0.0000000 )
                  (  0.0000000  0.0000000  1.0000000 )       ( -0.3981604 )

[...]

      isym =  4     180 deg rotation - cart. axis [1,0,0]

[...]

      isym =  5      60 deg rotation - cryst. axis [0,0,1]

[...]

 cryst.   s( 8) = (    -1         -1          0      )
                  (     1          0          0      )
                  (     0          0          1      )

 cart.    s( 8) = ( -0.4999999  0.8660255  0.0000000 )
                  ( -0.8660253 -0.5000001  0.0000000 )
                  (  0.0000000  0.0000000  1.0000000 )

[...]

 cryst.   s( 9) = (     0         -1          0      )    f =( -0.0000000 )
                  (    -1          0          0      )       ( -0.0000000 )
                  (     0          0         -1      )       ( -0.5000000 )

 cart.    s( 9) = (  0.5000001 -0.8660253  0.0000000 )    f =( -0.0000000 )
                  ( -0.8660253 -0.5000001  0.0000000 )       ( -0.0000000 )
                  (  0.0000000  0.0000000 -1.0000000 )       ( -0.3981604 )

[...]

 cryst.   s(10) = (     1          1          0      )    f =(  0.0000000 )
                  (     0         -1          0      )       (  0.0000010 )
                  (     0          0         -1      )       ( -0.5000000 )

 cart.    s(10) = (  0.4999999  0.8660256  0.0000000 )    f =( -0.0000005 )
                  (  0.8660253 -0.4999999  0.0000000 )       (  0.0000009 )
                  (  0.0000000  0.0000000 -1.0000000 )       ( -0.3981604 )

[...]

 cryst.   s(11) = (    -1         -1          0      )
                  (     0          1          0      )
                  (     0          0         -1      )

 cart.    s(11) = ( -0.4999999 -0.8660256  0.0000000 )
                  ( -0.8660253  0.4999999  0.0000000 )
                  (  0.0000000  0.0000000 -1.0000000 )

      isym = 12     180 deg rotation - cryst. axis [1,1,0]

[...]

      isym = 13     inversion

[...]

      isym = 14     inv. 180 deg rotation - cart. axis [0,0,1]

[...]

      isym = 16     inv. 180 deg rotation - cart. axis [1,0,0]

[...]

      isym = 17     inv.  60 deg rotation - cryst. axis [0,0,1]

[...]

 cryst.   s(22) = (    -1         -1          0      )    f =(  0.0000000 )
                  (     0          1          0      )       (  0.0000010 )
                  (     0          0          1      )       ( -0.5000000 )

 cart.    s(22) = ( -0.4999999 -0.8660256  0.0000000 )    f =( -0.0000005 )
                  ( -0.8660253  0.4999999  0.0000000 )       (  0.0000009 )
                  (  0.0000000  0.0000000  1.0000000 )       ( -0.3981604 )

[...]

      isym = 24     inv. 180 deg rotation - cryst. axis [1,1,0]

 cryst.   s(24) = (     0         -1          0      )
                  (    -1          0          0      )
                  (     0          0          1      )

 cart.    s(24) = (  0.5000001 -0.8660253  0.0000000 )
                  ( -0.8660253 -0.5000001  0.0000000 )
                  (  0.0000000  0.0000000  1.0000000 )

   Cartesian axes

     site n.     atom                  positions (alat units)
         1           Re  tau(   1) = (   0.7604380   0.1383112   0.5972406  )
         2           Re  tau(   2) = (   0.2395630   0.1383112   0.5972406  )
         3           Re  tau(   3) = (   0.5000004   0.5894021   0.5972406  )
         4           Re  tau(   4) = (  -0.2604381   0.7277142   0.1990802  )
         5           Re  tau(   5) = (   0.2604369   0.7277142   0.1990802  )
         6           Re  tau(   6) = (  -0.0000005   0.2766232   0.1990802  )
         7           Pd  tau(   7) = (   0.5000005   0.2886748   0.1990802  )
         8           Pd  tau(   8) = (  -0.0000006   0.5773505   0.5972406  )

   Crystallographic axes

     site n.     atom                  positions (cryst. coord.)
         1           Re  tau(   1) = (  0.8402920  0.1597080  0.7500000  )
         2           Re  tau(   2) = (  0.3194170  0.1597080  0.7500000  )
         3           Re  tau(   3) = (  0.8402920  0.6805830  0.7500000  )
         4           Re  tau(   4) = (  0.1597080  0.8402920  0.2500000  )
         5           Re  tau(   5) = (  0.6805830  0.8402920  0.2500000  )
         6           Re  tau(   6) = (  0.1597080  0.3194170  0.2500000  )
         7           Pd  tau(   7) = (  0.6666670  0.3333330  0.2500000  )
         8           Pd  tau(   8) = (  0.3333330  0.6666670  0.7500000  )

     number of k points=     1  Methfessel-Paxton smearing, width (Ry)=  0.0010
                       cart. coord. in units 2pi/alat
        k(    1) = (   0.0000000   0.0000000   0.0000000), wk =   2.0000000

                       cryst. coord.
        k(    1) = (   0.0000000   0.0000000   0.0000000), wk =   2.0000000

     Initial potential from superposition of free atoms

     starting charge     122.9990, renormalised to     126.0000

     negative rho (up, down):  7.916E-01 0.000E+00
     Starting wfcs are   98 randomized atomic wfcs

     Self-consistent Calculation

     iteration #  1     ecut=    30.00 Ry     beta= 0.70
     Davidson diagonalization with overlap

     ethr =  1.00E-02,  avg # of iterations =  2.0

     negative rho (up, down):  7.801E-01 0.000E+00

     total energy              =   -1647.98755860 Ry
     estimated scf accuracy    <       3.41675506 Ry

[...]

     total energy              =   -1649.91013103 Ry
     estimated scf accuracy    <       0.00001908 Ry

     iteration # 12     ecut=    30.00 Ry     beta= 0.70
     Davidson diagonalization with overlap

     ethr =  1.51E-08,  avg # of iterations =  1.0

[...]

     End of self-consistent calculation

          k = 0.0000 0.0000 0.0000 (  1127 PWs)   bands (ev):

   -63.3207 -63.3193 -57.0189 -56.9391 -56.9389 -56.9255 -56.8929 -56.8927
   -28.8309 -28.8308 -28.8294 -28.8294 -28.4880 -28.4807 -19.5038 -19.2869
   -19.1761 -19.1760 -19.1230 -19.1229 -18.9057 -18.8834 -18.6019 -18.6003
   -18.6001 -18.5869 -18.5868 -18.5544 -18.5542 -18.0920 -18.0918 -17.9347
    13.7259  16.4644  16.8264  16.8265  16.9434  17.0628  17.0629  17.5569
    17.8109  17.8109  17.8418  19.4818  19.4818  20.1463  20.2418  20.2418
    20.7531  20.8265  20.8265  21.2404  21.3211  21.3211  21.4402  21.7206
    21.7206  21.9886  21.9887  22.0248  22.3018  22.3018  23.8653  24.8349
    24.8350  25.0761  25.0762  25.3664  25.3664  25.8199  25.8200  26.5269
    26.6503  27.0913  27.6716  27.9756

     occupation numbers
     1.0000   1.0000   1.0000   1.0000   1.0000   1.0000   1.0000   1.0000
     1.0000   1.0000   1.0000   1.0000   1.0000   1.0000   1.0000   1.0000
     1.0000   1.0000   1.0000   1.0000   1.0000   1.0000   1.0000   1.0000
     1.0000   1.0000   1.0000   1.0000   1.0000   1.0000   1.0000   1.0000
     1.0000   1.0000   1.0000   1.0000   1.0000   1.0000   1.0000   1.0000
     1.0000   1.0000   1.0000   1.0000   1.0000   1.0000   1.0000   1.0000
     1.0000   1.0000   1.0000   1.0000   1.0000   1.0000   1.0000   1.0000
     1.0000   1.0000   1.0000   1.0000   1.0000   1.0000   1.0000  -0.0000
    -0.0000  -0.0000  -0.0000  -0.0000  -0.0000  -0.0000  -0.0000  -0.0000
    -0.0000  -0.0000  -0.0000  -0.0000

     the Fermi energy is    24.5347 ev

!    total energy              =   -1649.91013304 Ry
     estimated scf accuracy    <       0.00000022 Ry
     smearing contrib. (-TS)   =       0.00000000 Ry
     internal energy E=F+TS    =   -1649.91013304 Ry

     The total energy is F=E-TS. E is the sum of the following terms:
     one-electron contribution =    -265.61234313 Ry
     hartree contribution      =     214.53736568 Ry
     xc contribution           =    -364.78377677 Ry
     ewald contribution        =   -1234.05137882 Ry

     convergence has been achieved in  12 iterations

     negative rho (up, down):  7.860E-01 0.000E+00

     Forces acting on atoms (cartesian axes, Ry/au):

     atom    1 type  1   force =    -0.06258295    0.03613228   -0.00000000
     atom    2 type  1   force =     0.06258295    0.03613229   -0.00000000
     atom    3 type  1   force =    -0.00000000   -0.07226457   -0.00000000
     atom    4 type  1   force =     0.06258295   -0.03613228    0.00000000
     atom    5 type  1   force =    -0.06258295   -0.03613229    0.00000000
     atom    6 type  1   force =    -0.00000000    0.07226457    0.00000000
     atom    7 type  2   force =    -0.00000000    0.00000000    0.00000000
     atom    8 type  2   force =     0.00000000    0.00000000    0.00000000
     The non-local contrib.  to forces
     atom    1 type  1   force =    -0.11366564    0.06562488   -0.00000000
     atom    2 type  1   force =     0.11366564    0.06562491    0.00000000
     atom    3 type  1   force =     0.00000000   -0.13124979    0.00000000
     atom    4 type  1   force =     0.11366564   -0.06562488    0.00000000
     atom    5 type  1   force =    -0.11366564   -0.06562491   -0.00000000
     atom    6 type  1   force =     0.00000000    0.13124979    0.00000000
     atom    7 type  2   force =    -0.00000000   -0.00000000    0.00000000
     atom    8 type  2   force =     0.00000000    0.00000000   -0.00000000
     The ionic contribution  to forces
     atom    1 type  1   force =    -3.25932027    1.88176919   -0.00000000
     atom    2 type  1   force =     3.25929634    1.88199317   -0.00000000
     atom    3 type  1   force =    -0.00020531   -3.76363001   -0.00000000
     atom    4 type  1   force =     3.25932027   -1.88176919    0.00000000
     atom    5 type  1   force =    -3.25929634   -1.88199317    0.00000000
     atom    6 type  1   force =     0.00020531    3.76363002    0.00000000
     atom    7 type  2   force =    -0.00022793    0.00013159    0.00000000
     atom    8 type  2   force =     0.00022793   -0.00013159   -0.00000000
     The local contribution  to forces
     atom    1 type  1   force =     3.31648132   -1.91447723   -0.00003881
     atom    2 type  1   force =    -3.31647660   -1.91532131   -0.00007561
     atom    3 type  1   force =     0.00072956    3.82967060   -0.00006899
     atom    4 type  1   force =    -3.31657472    1.91479398    0.00006296
     atom    5 type  1   force =     3.31668336    1.91534256    0.00002160
     atom    6 type  1   force =    -0.00041369   -3.82991506    0.00003868
     atom    7 type  2   force =     0.00037440   -0.00008328    0.00012672
     atom    8 type  2   force =    -0.00102056    0.00010548   -0.00002985
     The core correction contribution to forces
     atom    1 type  1   force =    -0.00668778    0.00386664   -0.00000047
     atom    2 type  1   force =     0.00668895    0.00385235   -0.00000239
     atom    3 type  1   force =     0.00001412   -0.00771843   -0.00000129
     atom    4 type  1   force =     0.00668735   -0.00386213    0.00000076
     atom    5 type  1   force =    -0.00668948   -0.00385648    0.00000049
     atom    6 type  1   force =    -0.00000432    0.00772229    0.00000087
     atom    7 type  2   force =     0.00000000    0.00000000    0.00000000
     atom    8 type  2   force =     0.00000000    0.00000000    0.00000000
     The Hubbard contrib.    to forces
     atom    1 type  1   force =     0.00000000    0.00000000    0.00000000
     atom    2 type  1   force =     0.00000000    0.00000000    0.00000000
     atom    3 type  1   force =     0.00000000    0.00000000    0.00000000
     atom    4 type  1   force =     0.00000000    0.00000000    0.00000000
     atom    5 type  1   force =     0.00000000    0.00000000    0.00000000
     atom    6 type  1   force =     0.00000000    0.00000000    0.00000000
     atom    7 type  2   force =     0.00000000    0.00000000    0.00000000
     atom    8 type  2   force =     0.00000000    0.00000000    0.00000000
     The SCF correction term to forces
     atom    1 type  1   force =     0.00060032   -0.00069176    0.00007806
     atom    2 type  1   force =    -0.00057815    0.00001367    0.00009085
     atom    3 type  1   force =    -0.00060290    0.00066643    0.00009515
     atom    4 type  1   force =    -0.00050753    0.00038691   -0.00009623
     atom    5 type  1   force =     0.00040215   -0.00006762   -0.00005065
     atom    6 type  1   force =     0.00030110   -0.00043087   -0.00006566
     atom    7 type  2   force =    -0.00033374   -0.00002926   -0.00015937
     atom    8 type  2   force =     0.00084631    0.00004128    0.00006065

     Total force =     0.177011     Total SCF correction =     0.001931

     Computing stress (Cartesian axis) and pressure

     negative rho (up, down):  7.860E-01 0.000E+00
          total   stress  (Ry/bohr**3)                   (kbar)     P=     -451.00
  -0.00445090  -0.00000000   0.00000000         -654.75       -0.00        0.00
  -0.00000000  -0.00445091   0.00000000           -0.00     -654.75        0.00
   0.00000000   0.00000000  -0.00029579            0.00        0.00      -43.51

     kinetic stress (kbar)  56196.75      0.01      0.00
                                0.01  56196.76     -0.00
                                0.00     -0.00  59312.90

     local   stress (kbar)  37218.46      0.00      0.00
                                0.00  37218.43     -0.00
                                0.00     -0.00  31708.98

     nonloc. stress (kbar) -17850.10     -0.00      0.00
                               -0.00 -17850.11     -0.00
                                0.00     -0.00 -18279.42

     hartree stress (kbar)  12444.93      0.01     -0.00
                                0.01  12444.95      0.00
                               -0.00      0.00  14166.24

     exc-cor stress (kbar)  26254.52     -0.00     -0.00
                               -0.00  26254.52     -0.00
                               -0.00     -0.00  26290.19

     corecor stress (kbar) -39461.47     -0.00      0.00
                               -0.00 -39461.47     -0.00
                                0.00     -0.00 -39501.36

     ewald   stress (kbar) -75457.83      0.01      0.00
                                0.01 -75457.82      0.00
                                0.00      0.00 -73741.05

     hubbard stress (kbar)      0.00      0.00      0.00
                                0.00      0.00      0.00
                                0.00      0.00      0.00

     DFT-D   stress (kbar)      0.00      0.00      0.00
                                0.00      0.00      0.00
                                0.00      0.00      0.00

     XDM     stress (kbar)      0.00      0.00      0.00
                                0.00      0.00      0.00
                                0.00      0.00      0.00

     dft-nl  stress (kbar)      0.00      0.00      0.00
                                0.00      0.00      0.00
                                0.00      0.00      0.00

     TS-vdW  stress (kbar)      0.00      0.00      0.00
                                0.00      0.00      0.00
                                0.00      0.00      0.00

[...]

                                0.00      0.00      0.00

     Writing all to output data dir new_calculations/myprefix.save/

     General routines

     Parallel routines

   This run was terminated on:  18:57: 2  20May2023

   JOB DONE.