     Program PWSCF v.7.0 starts on 21May2023 at  5:24:13

     Reading input from espresso_23423.pwi
Warning: card &CELL ignored
Warning: card / ignored

     Current dimensions of program PWSCF are:
     Max number of different atomic species (ntypx) = 10
     Max number of k-points (npk) =  40000
     Max angular momentum in pseudopotentials (lmaxx) =  4
     file O.pbe-n-kjpaw_psl.0.1.UPF: wavefunction(s)  2P renormalized

     gamma-point specific algorithms are used
     Message from routine setup:
     using ibrav=0 with symmetry is DISCOURAGED, use correct ibrav instead

     Subspace diagonalization in iterative solution of the eigenvalue problem:
     a serial algorithm will be used

     Using Slab Decomposition

     bravais-lattice index     =            0
     lattice parameter (alat)  =      11.5878  a.u.
     unit-cell volume          =    2074.3703 (a.u.)^3
     number of atoms/cell      =           20
     number of atomic types    =            3
     number of electrons       =       144.00
     number of Kohn-Sham states=           86
     kinetic-energy cutoff     =      30.0000  Ry
     charge density cutoff     =     240.0000  Ry
     scf convergence threshold =      1.0E-06
     mixing beta               =       0.7000
     number of iterations used =            8  plain     mixing
     Exchange-correlation= SLA  PW   PBX  PBC
                           (   1   4   3   4   0   0   0)

     celldm(1)=  11.587816  celldm(2)=   0.000000  celldm(3)=   0.000000
     celldm(4)=   0.000000  celldm(5)=   0.000000  celldm(6)=   0.000000

     crystal axes: (cart. coord. in units of alat)
               a(1) = (   1.000000   0.000000   0.000000 )
               a(2) = (   0.000000   0.964117   0.000000 )
               a(3) = (   0.000000   0.964744   1.382775 )

     reciprocal axes: (cart. coord. in units 2 pi/alat)
               b(1) = (  1.000000  0.000000  0.000000 )
               b(2) = (  0.000000  1.037218 -0.723653 )
               b(3) = (  0.000000  0.000000  0.723183 )

     PseudoPot. # 1 for Sr read from file:
     /home/pragov/projects/rrg-bengioy-ad/pragov/crystal_structure_design/SSSP/Sr_pbe_v1.uspp.F.UPF
     MD5 check sum: 6b418c05fbe9db5448babca5e47b7a5b
     Pseudo is Ultrasoft + core correction, Zval = 10.0
     Generated by new atomic code, or converted to UPF format
     Using radial grid of  883 points,  6 beta functions with:
                l(1) =   0
                l(2) =   0
                l(3) =   1
                l(4) =   1
                l(5) =   2
                l(6) =   2
     Q(r) pseudized with  6 coefficients,  rinner =    1.400   1.400   1.400
                                                       1.400   1.400

     PseudoPot. # 2 for Te read from file:
     /home/pragov/projects/rrg-bengioy-ad/pragov/crystal_structure_design/SSSP/Te_pbe_v1.uspp.F.UPF
     MD5 check sum: c319670d6894cc26e93307826a071b75
     Pseudo is Ultrasoft + core correction, Zval =  6.0
     Generated by new atomic code, or converted to UPF format
     Using radial grid of  891 points,  5 beta functions with:
                l(1) =   0
                l(2) =   0
                l(3) =   1
                l(4) =   1
                l(5) =   2
     Q(r) pseudized with  6 coefficients,  rinner =    1.800   1.800   1.800
                                                       1.800   1.800

     PseudoPot. # 3 for O  read from file:
     /home/pragov/projects/rrg-bengioy-ad/pragov/crystal_structure_design/SSSP/O.pbe-n-kjpaw_psl.0.1.UPF
     MD5 check sum: 0234752ac141de4415c5fc33072bef88
     Pseudo is Projector augmented-wave + core cor, Zval =  6.0
     Generated using "atomic" code by A. Dal Corso  v.5.0.99 svn rev. 10869
     Shape of augmentation charge: BESSEL
     Using radial grid of 1095 points,  4 beta functions with:
                l(1) =   0
                l(2) =   0
                l(3) =   1
                l(4) =   1
     Q(r) pseudized with 0 coefficients

     atomic species   valence    mass     pseudopotential
        Sr            10.00    87.62000     Sr( 1.00)
        Te             6.00   127.60000     Te( 1.00)
        O              6.00    15.99900     O ( 1.00)

      4 Sym. Ops., with inversion, found ( 2 have fractional translation)

                                    s                        frac. trans.

      isym =  1     identity

 cryst.   s( 1) = (     1          0          0      )
                  (     0          1          0      )
                  (     0          0          1      )

 cart.    s( 1) = (  1.0000000  0.0000000  0.0000000 )
                  (  0.0000000  1.0000000 -0.0000000 )
                  (  0.0000000  0.0000000  1.0000000 )

      isym =  2     180 deg rotation - cart. axis [1,0,0]

 cryst.   s( 2) = (     1          0          0      )    f =(  0.5000000 )
                  (     0         -1          0      )       ( -0.0000000 )
                  (     0          0         -1      )       ( -0.5000000 )

 cart.    s( 2) = (  1.0000000  0.0000000  0.0000000 )    f =(  0.5000000 )
                  (  0.0000000 -1.0000000  0.0000000 )       ( -0.4823719 )
                  (  0.0000000  0.0000000 -1.0000000 )       ( -0.6913876 )

      isym =  3     inversion

 cryst.   s( 3) = (    -1          0          0      )
                  (     0         -1          0      )
                  (     0          0         -1      )

 cart.    s( 3) = ( -1.0000000  0.0000000  0.0000000 )
                  (  0.0000000 -1.0000000  0.0000000 )
                  (  0.0000000  0.0000000 -1.0000000 )

      isym =  4     inv. 180 deg rotation - cart. axis [1,0,0]

 cryst.   s( 4) = (    -1          0          0      )    f =(  0.5000000 )
                  (     0          1          0      )       ( -0.0000000 )
                  (     0          0          1      )       ( -0.5000000 )

 cart.    s( 4) = ( -1.0000000  0.0000000  0.0000000 )    f =(  0.5000000 )
                  (  0.0000000  1.0000000 -0.0000000 )       ( -0.4823719 )
                  (  0.0000000  0.0000000  1.0000000 )       ( -0.6913876 )

   Cartesian axes

     site n.     atom                  positions (alat units)
         1           Sr  tau(   1) = (   0.5000000   0.9644307   0.6913876  )
         2           Sr  tau(   2) = (   0.9519120   0.9508985   0.3511807  )
         3           Sr  tau(   3) = (   0.4519120   0.4955909   0.3402070  )
         4           Sr  tau(   4) = (   0.0000000   0.4820587   0.0000000  )
         5           Sr  tau(   5) = (   0.5480880   1.4332704   1.0425683  )
         6           Sr  tau(   6) = (   0.0480880   0.9779629   1.0315946  )
         7           Te  tau(   7) = (   0.5000000   0.0000000   0.0000000  )
         8           Te  tau(   8) = (   0.0000000   0.4823719   0.6913876  )
         9           O   tau(   9) = (   0.4515990   0.8677473   1.0815003  )
        10           O   tau(  10) = (   0.2378200   0.8009464   0.0893715  )
        11           O   tau(  11) = (   0.1770450   0.7411779   0.6322588  )
        12           O   tau(  12) = (   0.6770450   0.7053115   0.0591289  )
        13           O   tau(  13) = (   0.7378200   0.6455430   0.6020161  )
        14           O   tau(  14) = (   0.9515990   1.5434859   0.9926626  )
        15           O   tau(  15) = (   0.0484010   0.3853754   0.3901127  )
        16           O   tau(  16) = (   0.2621800   1.2833183   0.7807592  )
        17           O   tau(  17) = (   0.3229550   1.2235498   1.3236464  )
        18           O   tau(  18) = (   0.8229550   1.1876834   0.7505165  )
        19           O   tau(  19) = (   0.7621800   1.1279150   1.2934037  )
        20           O   tau(  20) = (   0.5484010   1.0611140   0.3012749  )

   Crystallographic axes

     site n.     atom                  positions (cryst. coord.)
         1           Sr  tau(   1) = (  0.5000000  0.5000000  0.5000000  )
         2           Sr  tau(   2) = (  0.9519120  0.7321560  0.2539680  )
         3           Sr  tau(   3) = (  0.4519120  0.2678440  0.2460320  )
         4           Sr  tau(   4) = (  0.0000000  0.5000000  0.0000000  )
         5           Sr  tau(   5) = (  0.5480880  0.7321560  0.7539680  )
         6           Sr  tau(   6) = (  0.0480880  0.2678440  0.7460320  )
         7           Te  tau(   7) = (  0.5000000  0.0000000  0.0000000  )
         8           Te  tau(   8) = (  0.0000000  0.0000000  0.5000000  )
         9           O   tau(   9) = (  0.4515990  0.1174120  0.7821230  )
        10           O   tau(  10) = (  0.2378200  0.7660820  0.0646320  )
        11           O   tau(  11) = (  0.1770450  0.3112270  0.4572390  )
        12           O   tau(  12) = (  0.6770450  0.6887730  0.0427610  )
        13           O   tau(  13) = (  0.7378200  0.2339180  0.4353680  )
        14           O   tau(  14) = (  0.9515990  0.8825880  0.7178770  )
        15           O   tau(  15) = (  0.0484010  0.1174120  0.2821230  )
        16           O   tau(  16) = (  0.2621800  0.7660820  0.5646320  )
        17           O   tau(  17) = (  0.3229550  0.3112270  0.9572390  )
        18           O   tau(  18) = (  0.8229550  0.6887730  0.5427610  )
        19           O   tau(  19) = (  0.7621800  0.2339180  0.9353680  )
        20           O   tau(  20) = (  0.5484010  0.8825880  0.2178770  )

     number of k points=     1  Methfessel-Paxton smearing, width (Ry)=  0.0010
                       cart. coord. in units 2pi/alat
        k(    1) = (   0.0000000   0.0000000   0.0000000), wk =   2.0000000

                       cryst. coord.
        k(    1) = (   0.0000000   0.0000000   0.0000000), wk =   2.0000000

     Check: negative core charge=   -0.000009

     Initial potential from superposition of free atoms

     starting charge     143.7976, renormalised to     144.0000

     negative rho (up, down):  3.802E-01 0.000E+00
     Starting wfcs are  134 randomized atomic wfcs
     Checking if some PAW data can be deallocated...

     Self-consistent Calculation

     iteration #  1     ecut=    30.00 Ry     beta= 0.70
     Davidson diagonalization with overlap

     ethr =  1.00E-02,  avg # of iterations =  2.0

     negative rho (up, down):  3.883E-01 0.000E+00

     total energy              =    -971.77622371 Ry
     estimated scf accuracy    <       5.71459728 Ry

[...]

     total energy              =    -974.51970054 Ry
     estimated scf accuracy    <       0.00000520 Ry

     iteration # 10     ecut=    30.00 Ry     beta= 0.70
     Davidson diagonalization with overlap

     ethr =  3.61E-09,  avg # of iterations =  2.0

[...]

     End of self-consistent calculation

          k = 0.0000 0.0000 0.0000 (  2864 PWs)   bands (ev):

   -25.2472 -25.2286 -25.2183 -25.2124 -24.9452 -24.9331 -11.4641 -11.3721
    -9.9765  -9.9619  -9.7106  -9.6485  -9.5385  -9.5318  -9.0449  -9.0331
    -8.7923  -8.7707  -7.4004  -7.3710  -7.3392  -7.3030  -7.2955  -7.2791
    -7.2633  -7.1151  -7.0323  -6.9702  -6.8378  -6.8371  -6.8335  -6.8309
    -6.7059  -6.6998  -6.6713  -6.6413  -1.6457  -1.4783   2.8254   2.9235
     2.9257   3.0101   3.0145   3.1111   4.2924   4.7787   4.8673   4.9272
     5.0290   5.1932   5.3216   5.3352   5.6116   5.6868   5.8548   6.0566
     6.2860   6.3453   6.4237   6.5229   6.6081   6.6418   6.7191   6.7374
     6.7552   6.7832   6.8082   6.8199   6.9066   6.9577   6.9681   7.1697
    10.2996  10.6058  13.2342  13.4254  13.5526  13.7524  13.7711  13.8992
    13.9212  13.9878  14.0252  14.1241  14.1676  14.7519

     occupation numbers
     1.0000   1.0000   1.0000   1.0000   1.0000   1.0000   1.0000   1.0000
     1.0000   1.0000   1.0000   1.0000   1.0000   1.0000   1.0000   1.0000
     1.0000   1.0000   1.0000   1.0000   1.0000   1.0000   1.0000   1.0000
     1.0000   1.0000   1.0000   1.0000   1.0000   1.0000   1.0000   1.0000
     1.0000   1.0000   1.0000   1.0000   1.0000   1.0000   1.0000   1.0000
     1.0000   1.0000   1.0000   1.0000   1.0000   1.0000   1.0000   1.0000
     1.0000   1.0000   1.0000   1.0000   1.0000   1.0000   1.0000   1.0000
     1.0000   1.0000   1.0000   1.0000   1.0000   1.0000   1.0000   1.0000
     1.0000   1.0000   1.0000   1.0000   1.0000   1.0000   1.0000   1.0000
    -0.0000  -0.0000  -0.0000  -0.0000  -0.0000  -0.0000  -0.0000  -0.0000
    -0.0000  -0.0000  -0.0000  -0.0000  -0.0000  -0.0000

     the Fermi energy is     9.8540 ev

!    total energy              =    -974.51970108 Ry
     estimated scf accuracy    <       0.00000041 Ry
     smearing contrib. (-TS)   =       0.00000000 Ry
     internal energy E=F+TS    =    -974.51970108 Ry

     The total energy is F=E-TS. E is the sum of the following terms:
     one-electron contribution =    -162.90449970 Ry
     hartree contribution      =     165.48401639 Ry
     xc contribution           =    -229.23252264 Ry
     ewald contribution        =    -633.58258826 Ry
     one-center paw contrib.   =    -114.28410687 Ry
      -> PAW hartree energy AE =     356.66656719 Ry
      -> PAW hartree energy PS =    -355.42536649 Ry
      -> PAW xc energy AE      =    -206.21533967 Ry
      -> PAW xc energy PS      =      90.69003209 Ry
      -> total E_H with PAW    =     166.72521710 Ry
      -> total E_XC with PAW   =    -344.75783022 Ry

     convergence has been achieved in  10 iterations

     negative rho (up, down):  3.999E-01 0.000E+00

     Forces acting on atoms (cartesian axes, Ry/au):

     atom    1 type  1   force =     0.00000000    0.00000000    0.00000000
     atom    2 type  1   force =    -0.00675952   -0.00409830    0.00083385
     atom    3 type  1   force =    -0.00675952    0.00409830   -0.00083385
     atom    4 type  1   force =     0.00000000    0.00000000    0.00000000
     atom    5 type  1   force =     0.00675952   -0.00409830    0.00083385
     atom    6 type  1   force =     0.00675952    0.00409830   -0.00083385
     atom    7 type  2   force =    -0.00000000    0.00000000    0.00000000
     atom    8 type  2   force =     0.00000000    0.00000000    0.00000000
     atom    9 type  3   force =    -0.01138469   -0.01675298   -0.03497933
     atom   10 type  3   force =    -0.04213673   -0.02157341    0.02414986
     atom   11 type  3   force =     0.02511775    0.04830992   -0.01508260
     atom   12 type  3   force =     0.02511775   -0.04830992    0.01508260
     atom   13 type  3   force =    -0.04213673    0.02157341   -0.02414986
     atom   14 type  3   force =    -0.01138469    0.01675298    0.03497933
     atom   15 type  3   force =     0.01138469   -0.01675298   -0.03497933
     atom   16 type  3   force =     0.04213673   -0.02157341    0.02414986
     atom   17 type  3   force =    -0.02511775    0.04830992   -0.01508260
     atom   18 type  3   force =    -0.02511775   -0.04830992    0.01508260
     atom   19 type  3   force =     0.04213673    0.02157341   -0.02414986
     atom   20 type  3   force =     0.01138469    0.01675298    0.03497933
     The non-local contrib.  to forces
     atom    1 type  1   force =     0.00000000    0.00000000    0.00000000
     atom    2 type  1   force =     0.00213162   -0.00588858   -0.00861896
     atom    3 type  1   force =     0.00213162    0.00588858    0.00861896
     atom    4 type  1   force =     0.00000000    0.00000000   -0.00000000
     atom    5 type  1   force =    -0.00213162   -0.00588858   -0.00861896
     atom    6 type  1   force =    -0.00213162    0.00588858    0.00861896
     atom    7 type  2   force =    -0.00000000    0.00000000   -0.00000000
     atom    8 type  2   force =     0.00000000    0.00000000    0.00000000
     atom    9 type  3   force =     0.11954530    0.27800648    0.79503320
     atom   10 type  3   force =     0.72948203    0.41300473   -0.21117582
     atom   11 type  3   force =    -0.50662866   -0.73340247    0.12725306
     atom   12 type  3   force =    -0.50662866    0.73340247   -0.12725306
     atom   13 type  3   force =     0.72948203   -0.41300473    0.21117582
     atom   14 type  3   force =     0.11954530   -0.27800648   -0.79503320
     atom   15 type  3   force =    -0.11954530    0.27800648    0.79503320
     atom   16 type  3   force =    -0.72948203    0.41300473   -0.21117582
     atom   17 type  3   force =     0.50662866   -0.73340247    0.12725306
     atom   18 type  3   force =     0.50662866    0.73340247   -0.12725306
     atom   19 type  3   force =    -0.72948203   -0.41300473    0.21117582
     atom   20 type  3   force =    -0.11954530   -0.27800648   -0.79503320
     The ionic contribution  to forces
     atom    1 type  1   force =    -0.00000000   -0.00000000    0.00000000
     atom    2 type  1   force =     1.02560236    0.67551493   -0.67448575
     atom    3 type  1   force =     1.02560236   -0.67551493    0.67448575
     atom    4 type  1   force =     0.00000000    0.00000000   -0.00000000
     atom    5 type  1   force =    -1.02560236    0.67551493   -0.67448575
     atom    6 type  1   force =    -1.02560236   -0.67551493    0.67448575
     atom    7 type  2   force =    -0.00000000   -0.00000000    0.00000000
     atom    8 type  2   force =    -0.00000000   -0.00000000    0.00000000
     atom    9 type  3   force =     0.27874208   -1.24645257   -2.49421801
     atom   10 type  3   force =    -2.38131440   -0.69783804    0.40852922
     atom   11 type  3   force =     1.74621213    2.20745596   -0.11833342
     atom   12 type  3   force =     1.74621213   -2.20745596    0.11833342
     atom   13 type  3   force =    -2.38131440    0.69783804   -0.40852922
     atom   14 type  3   force =     0.27874208    1.24645257    2.49421801
     atom   15 type  3   force =    -0.27874208   -1.24645257   -2.49421801
     atom   16 type  3   force =     2.38131440   -0.69783804    0.40852922
     atom   17 type  3   force =    -1.74621213    2.20745596   -0.11833342
     atom   18 type  3   force =    -1.74621213   -2.20745596    0.11833342
     atom   19 type  3   force =     2.38131440    0.69783804   -0.40852922
     atom   20 type  3   force =    -0.27874208    1.24645257    2.49421801
     The local contribution  to forces
     atom    1 type  1   force =    -0.00001529   -0.00004465    0.00002794
     atom    2 type  1   force =    -1.03419780   -0.67383960    0.68287864
     atom    3 type  1   force =    -1.03418371    0.67389821   -0.68363974
     atom    4 type  1   force =    -0.00004241    0.00002033    0.00004227
     atom    5 type  1   force =     1.03416475   -0.67381456    0.68364583
     atom    6 type  1   force =     1.03424330    0.67381478   -0.68288014
     atom    7 type  2   force =     0.00002167   -0.00002893   -0.00000222
     atom    8 type  2   force =     0.00000342    0.00000112   -0.00007299
     atom    9 type  3   force =    -0.40832768    0.95455566    1.67242114
     atom   10 type  3   force =     1.61736891    0.26759370   -0.17547089
     atom   11 type  3   force =    -1.21958459   -1.43327557   -0.02271123
     atom   12 type  3   force =    -1.21964308    1.43338910    0.02262311
     atom   13 type  3   force =     1.61727716   -0.26754029    0.17534291
     atom   14 type  3   force =    -0.40829608   -0.95456491   -1.67212009
     atom   15 type  3   force =     0.40828928    0.95458087    1.67212763
     atom   16 type  3   force =    -1.61729588    0.26755441   -0.17533715
     atom   17 type  3   force =     1.21961587   -1.43337656   -0.02261901
     atom   18 type  3   force =     1.21959370    1.43327728    0.02269987
     atom   19 type  3   force =    -1.61735964   -0.26758893    0.17547712
     atom   20 type  3   force =     0.40831385   -0.95457354   -1.67241150
     The core correction contribution to forces
     atom    1 type  1   force =    -0.00000021   -0.00000094    0.00000049
     atom    2 type  1   force =    -0.00027831    0.00015962    0.00062419
     atom    3 type  1   force =    -0.00027940   -0.00015903   -0.00062807
     atom    4 type  1   force =    -0.00000117    0.00000090   -0.00000042
     atom    5 type  1   force =     0.00027801    0.00016087    0.00062812
     atom    6 type  1   force =     0.00028017   -0.00016036   -0.00062549
     atom    7 type  2   force =    -0.00000125    0.00000066    0.00000053
     atom    8 type  2   force =     0.00000007    0.00000002    0.00000350
     atom    9 type  3   force =    -0.00133531   -0.00285506   -0.00792734
     atom   10 type  3   force =    -0.00750787   -0.00420898    0.00214115
     atom   11 type  3   force =     0.00506955    0.00743690   -0.00129873
     atom   12 type  3   force =     0.00506960   -0.00743643    0.00129910
     atom   13 type  3   force =    -0.00750817    0.00420909   -0.00214036
     atom   14 type  3   force =    -0.00133481    0.00285443    0.00792520
     atom   15 type  3   force =     0.00133476   -0.00285431   -0.00792489
     atom   16 type  3   force =     0.00750810   -0.00420898    0.00214075
     atom   17 type  3   force =    -0.00506996    0.00743688   -0.00129917
     atom   18 type  3   force =    -0.00506966   -0.00743694    0.00129897
     atom   19 type  3   force =     0.00750770    0.00420930   -0.00214114
     atom   20 type  3   force =     0.00133506    0.00285515    0.00792765
     The Hubbard contrib.    to forces
     atom    1 type  1   force =     0.00000000    0.00000000    0.00000000
     atom    2 type  1   force =     0.00000000    0.00000000    0.00000000
     atom    3 type  1   force =     0.00000000    0.00000000    0.00000000
     atom    4 type  1   force =     0.00000000    0.00000000    0.00000000
     atom    5 type  1   force =     0.00000000    0.00000000    0.00000000
     atom    6 type  1   force =     0.00000000    0.00000000    0.00000000
     atom    7 type  2   force =     0.00000000    0.00000000    0.00000000
     atom    8 type  2   force =     0.00000000    0.00000000    0.00000000
     atom    9 type  3   force =     0.00000000    0.00000000    0.00000000
     atom   10 type  3   force =     0.00000000    0.00000000    0.00000000
     atom   11 type  3   force =     0.00000000    0.00000000    0.00000000
     atom   12 type  3   force =     0.00000000    0.00000000    0.00000000
     atom   13 type  3   force =     0.00000000    0.00000000    0.00000000
     atom   14 type  3   force =     0.00000000    0.00000000    0.00000000
     atom   15 type  3   force =     0.00000000    0.00000000    0.00000000
     atom   16 type  3   force =     0.00000000    0.00000000    0.00000000
     atom   17 type  3   force =     0.00000000    0.00000000    0.00000000
     atom   18 type  3   force =     0.00000000    0.00000000    0.00000000
     atom   19 type  3   force =     0.00000000    0.00000000    0.00000000
     atom   20 type  3   force =     0.00000000    0.00000000    0.00000000
     The SCF correction term to forces
     atom    1 type  1   force =     0.00001632    0.00003978   -0.00001476
     atom    2 type  1   force =    -0.00001275   -0.00004811    0.00043947
     atom    3 type  1   force =    -0.00003598   -0.00000662    0.00033438
     atom    4 type  1   force =     0.00003099   -0.00001753   -0.00004338
     atom    5 type  1   force =     0.00005122   -0.00006956   -0.00034013
     atom    6 type  1   force =    -0.00003137    0.00006024   -0.00043905
     atom    7 type  2   force =    -0.00001186    0.00002890    0.00000023
     atom    8 type  2   force =    -0.00000444   -0.00000170    0.00004665
     atom    9 type  3   force =    -0.00001899   -0.00002153   -0.00036835
     atom   10 type  3   force =    -0.00016388   -0.00012740    0.00015302
     atom   11 type  3   force =     0.00003566    0.00009587    0.00002838
     atom   12 type  3   force =     0.00011059   -0.00019609    0.00009314
     atom   13 type  3   force =    -0.00008130    0.00006375    0.00003969
     atom   14 type  3   force =    -0.00003407   -0.00000128   -0.00008896
     atom   15 type  3   force =     0.00003823   -0.00001041    0.00009783
     atom   16 type  3   force =     0.00009920   -0.00007291   -0.00002324
     atom   17 type  3   force =    -0.00009926    0.00020462   -0.00009582
     atom   18 type  3   force =    -0.00005004   -0.00010051   -0.00000079
     atom   19 type  3   force =     0.00014286    0.00013730   -0.00016045
     atom   20 type  3   force =     0.00003015    0.00005292    0.00037178

     Total force =     0.175652     Total SCF correction =     0.001114

     Computing stress (Cartesian axis) and pressure

     negative rho (up, down):  3.999E-01 0.000E+00
          total   stress  (Ry/bohr**3)                   (kbar)     P=     -227.47
  -0.00145980   0.00000000   0.00000000         -214.74        0.00        0.00
   0.00000000  -0.00153884  -0.00001520            0.00     -226.37       -2.24
   0.00000000  -0.00001520  -0.00164040            0.00       -2.24     -241.31

     kinetic stress (kbar)  16161.86      0.00      0.00
                                0.00  16114.68     -7.10
                                0.00     -7.10  16048.92

     local   stress (kbar)  -7329.64      0.00      0.01
                                0.00  -7193.95    104.33
                                0.01    104.33  -6657.18

     nonloc. stress (kbar)   5822.89      0.00      0.00
                                0.00   5820.77      4.71
                                0.00      4.71   5826.09

     hartree stress (kbar)   3982.54     -0.00     -0.01
                               -0.00   3925.97    -40.91
                               -0.01    -40.91   3826.88

     exc-cor stress (kbar)   2129.46      0.00      0.00
                                0.00   2128.82     -0.34
                                0.00     -0.34   2127.28

     corecor stress (kbar)  -6162.27     -0.00     -0.00
                               -0.00  -6162.60      0.05
                               -0.00      0.05  -6162.10

     ewald   stress (kbar) -14819.59      0.00     -0.00
                                0.00 -14860.05    -62.97
                               -0.00    -62.97 -15251.21

     hubbard stress (kbar)      0.00      0.00      0.00
                                0.00      0.00      0.00
                                0.00      0.00      0.00

     DFT-D   stress (kbar)      0.00      0.00      0.00
                                0.00      0.00      0.00
                                0.00      0.00      0.00

     XDM     stress (kbar)      0.00      0.00      0.00
                                0.00      0.00      0.00
                                0.00      0.00      0.00

     dft-nl  stress (kbar)      0.00      0.00      0.00
                                0.00      0.00      0.00
                                0.00      0.00      0.00

     TS-vdW  stress (kbar)      0.00      0.00      0.00
                                0.00      0.00      0.00
                                0.00      0.00      0.00

[...]

                                0.00      0.00      0.00

     Writing all to output data dir new_calculations/myprefix.save/

     General routines

     Parallel routines

     PAW routines

   This run was terminated on:   5:24:50  21May2023

   JOB DONE.