     Program PWSCF v.7.0 starts on 21May2023 at  3:40:40

     Reading input from espresso_9959.pwi
Warning: card &CELL ignored
Warning: card / ignored

     Current dimensions of program PWSCF are:
     Max number of different atomic species (ntypx) = 10
     Max number of k-points (npk) =  40000
     Max angular momentum in pseudopotentials (lmaxx) =  4

     gamma-point specific algorithms are used

     Subspace diagonalization in iterative solution of the eigenvalue problem:
     a serial algorithm will be used

     Using Slab Decomposition

     bravais-lattice index     =            0
     lattice parameter (alat)  =      16.8887  a.u.
     unit-cell volume          =    1600.0126 (a.u.)^3
     number of atoms/cell      =           14
     number of atomic types    =            3
     number of electrons       =       126.00
     number of Kohn-Sham states=           76
     kinetic-energy cutoff     =      30.0000  Ry
     charge density cutoff     =     240.0000  Ry
     scf convergence threshold =      1.0E-06
     mixing beta               =       0.7000
     number of iterations used =            8  plain     mixing
     Exchange-correlation=  SLA  PW   PBX  PBC
                           (   1   4   3   4   0   0   0)

     celldm(1)=  16.888656  celldm(2)=   0.000000  celldm(3)=   0.000000
     celldm(4)=   0.000000  celldm(5)=   0.000000  celldm(6)=   0.000000

     crystal axes: (cart. coord. in units of alat)
               a(1) = (   1.000000   0.000000   0.000000 )
               a(2) = (   0.933385   0.358876   0.000000 )
               a(3) = (   0.238822   0.044330   0.925537 )

     reciprocal axes: (cart. coord. in units 2 pi/alat)
               b(1) = (  1.000000 -2.600857 -0.133463 )
               b(2) = (  0.000000  2.786478 -0.133463 )
               b(3) = (  0.000000  0.000000  1.080454 )

     PseudoPot. # 1 for Tl read from file:
     /home/pragov/projects/rrg-bengioy-ad/pragov/crystal_structure_design/SSSP/Tl_pbe_v1.2.uspp.F.UPF
     MD5 check sum: b76cf1f7e72655a2b2c53cf6385d7059
     Pseudo is Ultrasoft + core correction, Zval = 13.0
     Generated by new atomic code, or converted to UPF format
     Using radial grid of  899 points,  6 beta functions with:
                l(1) =   0
                l(2) =   0
                l(3) =   1
                l(4) =   1
                l(5) =   2
                l(6) =   2
     Q(r) pseudized with  6 coefficients,  rinner =    1.100   1.100   1.100
                                                       1.100   1.100

     PseudoPot. # 2 for V  read from file:
     /home/pragov/projects/rrg-bengioy-ad/pragov/crystal_structure_design/SSSP/v_pbe_v1.4.uspp.F.UPF
     MD5 check sum: 22b79981416ebb76fdaf5b1b8640f6fb
     Pseudo is Ultrasoft + core correction, Zval = 13.0
     Generated by new atomic code, or converted to UPF format
     Using radial grid of  853 points,  6 beta functions with:
                l(1) =   0
                l(2) =   0
                l(3) =   1
                l(4) =   1
                l(5) =   2
                l(6) =   2
     Q(r) pseudized with  8 coefficients,  rinner =    1.100   1.100   1.100
                                                       1.100   1.100

     PseudoPot. # 3 for S  read from file:
     /home/pragov/projects/rrg-bengioy-ad/pragov/crystal_structure_design/SSSP/s_pbe_v1.4.uspp.F.UPF
     MD5 check sum: 88d86576ff6df21479756cfb9bdac1df
     Pseudo is Ultrasoft + core correction, Zval =  6.0
     Generated by new atomic code, or converted to UPF format
     Using radial grid of  907 points,  6 beta functions with:
                l(1) =   0
                l(2) =   0
                l(3) =   1
                l(4) =   1
                l(5) =   2
                l(6) =   2
     Q(r) pseudized with  8 coefficients,  rinner =    1.300   1.300   1.300
                                                       1.300   1.300

     atomic species   valence    mass     pseudopotential
        Tl            13.00   204.38000     Tl( 1.00)
        V             13.00    50.94150     V ( 1.00)
        S              6.00    32.06000     S ( 1.00)

     No symmetry found

                                    s                        frac. trans.

      isym =  1     identity

 cryst.   s( 1) = (     1          0          0      )
                  (     0          1          0      )
                  (     0          0          1      )

 cart.    s( 1) = (  1.0000000 -0.0000000  0.0000000 )
                  (  0.0000000  1.0000000 -0.0000000 )
                  (  0.0000000  0.0000000  1.0000000 )

   Cartesian axes

     site n.     atom                  positions (alat units)
         1           Tl  tau(   1) = (   0.9990320   0.0052148   0.0000000  )
         2           V   tau(   2) = (   1.7630408   0.3407794   0.4598279  )
         3           V   tau(   3) = (   0.4043135   0.0885717   0.4657088  )
         4           V   tau(   4) = (   1.0836563   0.2147875   0.4627684  )
         5           V   tau(   5) = (   0.4390599   0.0951933   0.1308663  )
         6           V   tau(   6) = (   1.7282327   0.3344902   0.7946705  )
         7           S   tau(   7) = (   0.2176891   0.0541147   0.2967511  )
         8           S   tau(   8) = (   1.9495990   0.3755928   0.6287856  )
         9           S   tau(   9) = (   0.8765862   0.1761491   0.2962051  )
        10           S   tau(  10) = (   1.2907990   0.2530355   0.6293317  )
        11           S   tau(  11) = (   1.5115934   0.2942359   0.3146464  )
        12           S   tau(  12) = (   0.6557141   0.1353671   0.6108903  )
        13           S   tau(  13) = (   1.5138028   0.2946015   0.9253655  )
        14           S   tau(  14) = (   0.6535206   0.1349154   0.0001712  )

   Crystallographic axes

     site n.     atom                  positions (cryst. coord.)
         1           Tl  tau(   1) = (  0.9854690  0.0145310  0.0000000  )
         2           V   tau(   2) = (  0.8153520  0.8882040  0.4968230  )
         3           V   tau(   3) = (  0.1117960  0.1846480  0.5031770  )
         4           V   tau(   4) = (  0.4632620  0.5367380  0.5000000  )
         5           V   tau(   5) = (  0.1740100  0.2477880  0.1413950  )
         6           V   tau(   6) = (  0.7522120  0.8259900  0.8586050  )
         7           S   tau(   7) = (  0.0373390  0.1111840  0.3206260  )
         8           S   tau(   8) = (  0.8888160  0.9626610  0.6793740  )
         9           S   tau(   9) = (  0.3789150  0.4513030  0.3200360  )
        10           S   tau(  10) = (  0.5486970  0.6210850  0.6799640  )
        11           S   tau(  11) = (  0.7043340  0.7778880  0.3399610  )
        12           S   tau(  12) = (  0.2221120  0.2956660  0.6600390  )
        13           S   tau(  13) = (  0.6240840  0.6973980  0.9998150  )
        14           S   tau(  14) = (  0.3026020  0.3759160  0.0001850  )

     number of k points=     1  Methfessel-Paxton smearing, width (Ry)=  0.0010
                       cart. coord. in units 2pi/alat
        k(    1) = (   0.0000000   0.0000000   0.0000000), wk =   2.0000000

                       cryst. coord.
        k(    1) = (   0.0000000   0.0000000   0.0000000), wk =   2.0000000

     Check: negative core charge=   -0.000005

     Initial potential from superposition of free atoms

     starting charge     125.9887, renormalised to     126.0000

     negative rho (up, down):  5.417E-02 0.000E+00
     Starting wfcs are   91 randomized atomic wfcs

     Self-consistent Calculation

     iteration #  1     ecut=    30.00 Ry     beta= 0.70
     Davidson diagonalization with overlap

     ethr =  1.00E-02,  avg # of iterations =  2.0

     Threshold (ethr) on eigenvalues was too large:
     Diagonalizing with lowered threshold

     Davidson diagonalization with overlap

[...]

     negative rho (up, down):  5.665E-02 0.000E+00

     total energy              =   -1062.62025663 Ry
     estimated scf accuracy    <       1.19683495 Ry

[...]

     total energy              =   -1063.17534773 Ry
     estimated scf accuracy    <       0.00000191 Ry

     iteration # 34     ecut=    30.00 Ry     beta= 0.70
     Davidson diagonalization with overlap

     ethr =  1.52E-09,  avg # of iterations =  1.0

[...]

     End of self-consistent calculation

          k = 0.0000 0.0000 0.0000 (  2230 PWs)   bands (ev):

   -53.3892 -53.3882 -53.3154 -53.2952 -53.2706 -27.7038 -27.6589 -27.5857
   -27.4743 -27.3857 -27.1162 -27.1080 -27.0566 -27.0411 -27.0091 -26.9944
   -26.9919 -26.9636 -26.9578 -26.7947  -3.9238  -2.9412  -2.8304  -2.5672
    -2.5017  -2.2326  -2.0393  -1.7601  -1.2227  -0.7046  -0.6584  -0.6233
    -0.5906   3.0956   4.9196   5.3340   5.4660   5.6532   5.9467   6.0453
     6.2825   6.3473   6.8364   7.1232   7.7898   7.8106   7.8324   7.8977
     8.0850   8.1329   8.3582   8.4383   8.5550   8.8873   9.1518   9.4803
     9.8013  10.2150  10.3484  10.3971  10.8396  11.0608  11.0656  11.0773
    11.1389  11.4727  11.7250  11.9126  11.9610  12.1813  12.4963  12.5161
    12.5529  12.7024  12.7436  13.2007

     occupation numbers
     1.0000   1.0000   1.0000   1.0000   1.0000   1.0000   1.0000   1.0000
     1.0000   1.0000   1.0000   1.0000   1.0000   1.0000   1.0000   1.0000
     1.0000   1.0000   1.0000   1.0000   1.0000   1.0000   1.0000   1.0000
     1.0000   1.0000   1.0000   1.0000   1.0000   1.0000   1.0000   1.0000
     1.0000   1.0000   1.0000   1.0000   1.0000   1.0000   1.0000   1.0000
     1.0000   1.0000   1.0000   1.0000   1.0000   1.0000   1.0000   1.0000
     1.0000   1.0000   1.0000   1.0000   1.0000   1.0000   1.0000   1.0000
     1.0000   1.0000   1.0000   1.0000   1.0000   0.9889   0.8345   0.1766
    -0.0000  -0.0000  -0.0000  -0.0000  -0.0000  -0.0000  -0.0000  -0.0000
    -0.0000  -0.0000  -0.0000  -0.0000

     the Fermi energy is    11.0716 ev

!    total energy              =   -1063.17534741 Ry
     estimated scf accuracy    <       0.00000040 Ry
     smearing contrib. (-TS)   =      -0.00025612 Ry
     internal energy E=F+TS    =   -1063.17509128 Ry

     The total energy is F=E-TS. E is the sum of the following terms:
     one-electron contribution =    -465.61970856 Ry
     hartree contribution      =     292.04861177 Ry
     xc contribution           =    -228.50459782 Ry
     ewald contribution        =    -661.09939668 Ry

     convergence has been achieved in  34 iterations

     negative rho (up, down):  5.682E-02 0.000E+00

     Forces acting on atoms (cartesian axes, Ry/au):

     atom    1 type  1   force =    -0.00013125    0.00058994    0.00007126
     atom    2 type  2   force =     0.01830947    0.00319717    0.01561008
     atom    3 type  2   force =    -0.01814588   -0.00358041   -0.01565376
     atom    4 type  2   force =    -0.00013236    0.00065641    0.00000180
     atom    5 type  2   force =    -0.02041706   -0.00400281    0.03584664
     atom    6 type  2   force =     0.02045887    0.00359866   -0.03584650
     atom    7 type  3   force =     0.01475630    0.00241205    0.06855841
     atom    8 type  3   force =    -0.01461623   -0.00305534   -0.06856146
     atom    9 type  3   force =    -0.02148954   -0.00392029    0.08020341
     atom   10 type  3   force =     0.02148203    0.00404383   -0.08023797
     atom   11 type  3   force =    -0.03299212   -0.00615429   -0.00419303
     atom   12 type  3   force =     0.03295657    0.00608373    0.00423373
     atom   13 type  3   force =     0.07421566    0.01385630    0.03961868
     atom   14 type  3   force =    -0.07425448   -0.01372496   -0.03965129
     The non-local contrib.  to forces
     atom    1 type  1   force =     0.00079744   -0.00442080    0.00007164
     atom    2 type  2   force =     0.03476304    0.00650578   -0.05180170
     atom    3 type  2   force =    -0.03473763   -0.00639937    0.05176095
     atom    4 type  2   force =    -0.00003446    0.00009931    0.00000265
     atom    5 type  2   force =    -0.07438376   -0.01416538   -0.01173075
     atom    6 type  2   force =     0.07453068    0.01346878    0.01174511
     atom    7 type  3   force =     0.02702180    0.00485262    0.01956137
     atom    8 type  3   force =    -0.02695231   -0.00514299   -0.01956102
     atom    9 type  3   force =     0.05268603    0.01070127    0.00219168
     atom   10 type  3   force =    -0.05299655   -0.00890597   -0.00220782
     atom   11 type  3   force =    -0.04641477   -0.00853560   -0.01921710
     atom   12 type  3   force =     0.04638350    0.00868534    0.01927778
     atom   13 type  3   force =    -0.01673113   -0.00191661   -0.02064082
     atom   14 type  3   force =     0.01627505    0.00421799    0.02061793
     The ionic contribution  to forces
     atom    1 type  1   force =    -0.01923316    0.10361544   -0.00000000
     atom    2 type  2   force =    -4.87166860   -0.90413195   -7.99849293
     atom    3 type  2   force =     4.87161483    0.90442165    7.99849293
     atom    4 type  2   force =     0.00019122   -0.00103014    0.00000000
     atom    5 type  2   force =    -1.48668600   -0.27531975    0.10534871
     atom    6 type  2   force =     1.48645642    0.27655657   -0.10534872
     atom    7 type  3   force =    -4.91086491   -0.90040419   -9.00138830
     atom    8 type  3   force =     4.90686228    0.92196769    9.00138830
     atom    9 type  3   force =    -0.84239394   -0.18999780  -12.21666230
     atom   10 type  3   force =     0.85446372    0.12497385   12.21666230
     atom   11 type  3   force =     5.69354083    1.05532506   -2.12718832
     atom   12 type  3   force =    -5.69299782   -1.05825047    2.12718832
     atom   13 type  3   force =   -11.62948238   -2.18852832   -3.05398855
     atom   14 type  3   force =    11.64019750    2.13080237    3.05398855
     The local contribution  to forces
     atom    1 type  1   force =     0.01825285   -0.09805191   -0.00016637
     atom    2 type  2   force =     4.85972547    0.90161269    8.06090460
     atom    3 type  2   force =    -4.85974713   -0.90252842   -8.06081032
     atom    4 type  2   force =     0.00034352    0.00168930    0.00010461
     atom    5 type  2   force =     1.53586728    0.28456699   -0.06065250
     atom    6 type  2   force =    -1.53574486   -0.28555446    0.06103454
     atom    7 type  3   force =     4.89938044    0.89810511    9.05085231
     atom    8 type  3   force =    -4.89493861   -0.91997018   -9.05054487
     atom    9 type  3   force =     0.77178859    0.17609371   12.29346193
     atom   10 type  3   force =    -0.78341168   -0.11261821  -12.29387835
     atom   11 type  3   force =    -5.68261705   -1.05340263    2.14115520
     atom   12 type  3   force =     5.68152621    1.05601427   -2.14089654
     atom   13 type  3   force =    11.71773612    2.20387509    3.11272904
     atom   14 type  3   force =   -11.72809041   -2.14819238   -3.11286668
     The core correction contribution to forces
     atom    1 type  1   force =     0.00010040   -0.00054233    0.00000154
     atom    2 type  2   force =    -0.00373259   -0.00064428    0.00495862
     atom    3 type  2   force =     0.00371838    0.00073886   -0.00496308
     atom    4 type  2   force =    -0.00000462    0.00001671   -0.00000055
     atom    5 type  2   force =     0.00441018    0.00083829    0.00343305
     atom    6 type  2   force =    -0.00441838   -0.00079747   -0.00343258
     atom    7 type  3   force =    -0.00099471   -0.00017551    0.00002068
     atom    8 type  3   force =     0.00099159    0.00019157   -0.00002026
     atom    9 type  3   force =    -0.00308044   -0.00062186    0.00110476
     atom   10 type  3   force =     0.00309765    0.00052431   -0.00110482
     atom   11 type  3   force =     0.00220100    0.00040442    0.00125877
     atom   12 type  3   force =    -0.00220072   -0.00041232   -0.00126138
     atom   13 type  3   force =     0.00232904    0.00036473    0.00151485
     atom   14 type  3   force =    -0.00230298   -0.00049572   -0.00151377
     The Hubbard contrib.    to forces
     atom    1 type  1   force =     0.00000000    0.00000000    0.00000000
     atom    2 type  2   force =     0.00000000    0.00000000    0.00000000
     atom    3 type  2   force =     0.00000000    0.00000000    0.00000000
     atom    4 type  2   force =     0.00000000    0.00000000    0.00000000
     atom    5 type  2   force =     0.00000000    0.00000000    0.00000000
     atom    6 type  2   force =     0.00000000    0.00000000    0.00000000
     atom    7 type  3   force =     0.00000000    0.00000000    0.00000000
     atom    8 type  3   force =     0.00000000    0.00000000    0.00000000
     atom    9 type  3   force =     0.00000000    0.00000000    0.00000000
     atom   10 type  3   force =     0.00000000    0.00000000    0.00000000
     atom   11 type  3   force =     0.00000000    0.00000000    0.00000000
     atom   12 type  3   force =     0.00000000    0.00000000    0.00000000
     atom   13 type  3   force =     0.00000000    0.00000000    0.00000000
     atom   14 type  3   force =     0.00000000    0.00000000    0.00000000
     The SCF correction term to forces
     atom    1 type  1   force =    -0.00005030   -0.00001121    0.00016793
     atom    2 type  2   force =    -0.00077937   -0.00014581    0.00004498
     atom    3 type  2   force =     0.00100415    0.00018612   -0.00013075
     atom    4 type  2   force =    -0.00062954   -0.00011951   -0.00010142
     atom    5 type  2   force =     0.00037372    0.00007629   -0.00054838
     atom    6 type  2   force =    -0.00036651   -0.00007550    0.00015863
     atom    7 type  3   force =     0.00021215    0.00003328   -0.00048416
     atom    8 type  3   force =    -0.00058071   -0.00010218    0.00017988
     atom    9 type  3   force =    -0.00049130   -0.00009635    0.00011083
     atom   10 type  3   force =     0.00032737    0.00006912    0.00029421
     atom   11 type  3   force =     0.00029635    0.00005372   -0.00019808
     atom   12 type  3   force =     0.00024388    0.00004617   -0.00007097
     atom   13 type  3   force =     0.00036249    0.00006067    0.00000765
     atom   14 type  3   force =    -0.00033517   -0.00005798    0.00012618

     Total force =     0.212400     Total SCF correction =     0.002083

     Computing stress (Cartesian axis) and pressure

     negative rho (up, down):  5.682E-02 0.000E+00
          total   stress  (Ry/bohr**3)                   (kbar)     P=       18.27
  -0.00018905  -0.00020783  -0.00016366          -27.81      -30.57      -24.07
  -0.00020783   0.00089203  -0.00003032          -30.57      131.22       -4.46
  -0.00016366  -0.00003032  -0.00033037          -24.07       -4.46      -48.60

     kinetic stress (kbar)  15659.95   -132.72    -82.94
                             -132.72  16349.82    -15.43
                              -82.94    -15.43  15930.99

     local   stress (kbar)    602.89   2725.86   5534.83
                             2725.86 -13575.45   1027.44
                             5534.83   1027.44   1420.03

     nonloc. stress (kbar)   4047.18    -13.63    -10.97
                              -13.63   4118.02     -2.04
                              -10.97     -2.04   4083.59

     hartree stress (kbar)   7017.43  -1237.27  -2452.67
                            -1237.27  13453.11   -455.29
                            -2452.67   -455.29   6380.40

     exc-cor stress (kbar)   3622.49     -0.56     -1.76
                               -0.56   3625.42     -0.33
                               -1.76     -0.33   3628.14

     corecor stress (kbar)  -8503.15      2.42      1.49
                                2.42  -8515.73      0.28
                                1.49      0.28  -8508.87

     ewald   stress (kbar) -22474.59  -1374.67  -3012.05
                            -1374.67 -15323.98   -559.10
                            -3012.05   -559.10 -22982.88

     hubbard stress (kbar)      0.00      0.00      0.00
                                0.00      0.00      0.00
                                0.00      0.00      0.00

     DFT-D   stress (kbar)      0.00      0.00      0.00
                                0.00      0.00      0.00
                                0.00      0.00      0.00

     XDM     stress (kbar)      0.00      0.00      0.00
                                0.00      0.00      0.00
                                0.00      0.00      0.00

     dft-nl  stress (kbar)      0.00      0.00      0.00
                                0.00      0.00      0.00
                                0.00      0.00      0.00

     TS-vdW  stress (kbar)      0.00      0.00      0.00
                                0.00      0.00      0.00
                                0.00      0.00      0.00

[...]

                                0.00      0.00      0.00

     Writing all to output data dir new_calculations/myprefix.save/

     General routines

     Parallel routines

   This run was terminated on:   3:41:27  21May2023

   JOB DONE.