     Program PWSCF v.7.0 starts on 20May2023 at  8:20:21

     Reading input from espresso_17167.pwi
Warning: card &CELL ignored
Warning: card / ignored

     Current dimensions of program PWSCF are:
     Max number of different atomic species (ntypx) = 10
     Max number of k-points (npk) =  40000
     Max angular momentum in pseudopotentials (lmaxx) =  4
     file O.pbe-n-kjpaw_psl.0.1.UPF: wavefunction(s)  2P renormalized

     gamma-point specific algorithms are used
     Message from routine setup:
     using ibrav=0 with symmetry is DISCOURAGED, use correct ibrav instead

     Subspace diagonalization in iterative solution of the eigenvalue problem:
     a serial algorithm will be used

     Using Slab Decomposition

     bravais-lattice index     =            0
     lattice parameter (alat)  =      12.7714  a.u.
     unit-cell volume          =    2711.5829 (a.u.)^3
     number of atoms/cell      =           18
     number of atomic types    =            3
     number of electrons       =       144.00
     number of Kohn-Sham states=           86
     kinetic-energy cutoff     =      30.0000  Ry
     charge density cutoff     =     240.0000  Ry
     scf convergence threshold =      1.0E-06
     mixing beta               =       0.7000
     number of iterations used =            8  plain     mixing
     Exchange-correlation= SLA  PW   PBX  PBC
                           (   1   4   3   4   0   0   0)

     celldm(1)=  12.771374  celldm(2)=   0.000000  celldm(3)=   0.000000
     celldm(4)=   0.000000  celldm(5)=   0.000000  celldm(6)=   0.000000

     crystal axes: (cart. coord. in units of alat)
               a(1) = (   1.000000   0.000000   0.000000 )
               a(2) = (   0.400252   0.917587   0.000000 )
               a(3) = (   0.272325   0.389647   1.418609 )

     reciprocal axes: (cart. coord. in units 2 pi/alat)
               b(1) = (  1.000000 -0.436200 -0.072156 )
               b(2) = (  0.000000  1.089815 -0.299337 )
               b(3) = (  0.000000  0.000000  0.704916 )

     PseudoPot. # 1 for Rb read from file:
     /home/pragov/projects/rrg-bengioy-ad/pragov/crystal_structure_design/SSSP/Rb_ONCV_PBE-1.0.oncvpsp.upf
     MD5 check sum: 55a5172d6bfbce6759a58e35d43f6aa9
     Pseudo is Norm-conserving, Zval =  9.0
     Generated using ONCVPSP code by D. R. Hamann
     Using radial grid of 2308 points,  6 beta functions with:
                l(1) =   0
                l(2) =   0
                l(3) =   1
                l(4) =   1
                l(5) =   2
                l(6) =   2

     PseudoPot. # 2 for Ti read from file:
     /home/pragov/projects/rrg-bengioy-ad/pragov/crystal_structure_design/SSSP/ti_pbe_v1.4.uspp.F.UPF
     MD5 check sum: 88a00a6731bd790ddea75d31a80cb452
     Pseudo is Ultrasoft + core correction, Zval = 12.0
     Generated by new atomic code, or converted to UPF format
     Using radial grid of  851 points,  6 beta functions with:
                l(1) =   0
                l(2) =   0
                l(3) =   1
                l(4) =   1
                l(5) =   2
                l(6) =   2
     Q(r) pseudized with  6 coefficients,  rinner =    1.000   1.000   1.000
                                                       1.000   1.000

     PseudoPot. # 3 for O  read from file:
     /home/pragov/projects/rrg-bengioy-ad/pragov/crystal_structure_design/SSSP/O.pbe-n-kjpaw_psl.0.1.UPF
     MD5 check sum: 0234752ac141de4415c5fc33072bef88
     Pseudo is Projector augmented-wave + core cor, Zval =  6.0
     Generated using "atomic" code by A. Dal Corso  v.5.0.99 svn rev. 10869
     Shape of augmentation charge: BESSEL
     Using radial grid of 1095 points,  4 beta functions with:
                l(1) =   0
                l(2) =   0
                l(3) =   1
                l(4) =   1
     Q(r) pseudized with 0 coefficients

     atomic species   valence    mass     pseudopotential
        Rb             9.00    85.46780     Rb( 1.00)
        Ti            12.00    47.86700     Ti( 1.00)
        O              6.00    15.99900     O ( 1.00)

      2 Sym. Ops., with inversion, found

                                    s                        frac. trans.

      isym =  1     identity

 cryst.   s( 1) = (     1          0          0      )
                  (     0          1          0      )
                  (     0          0          1      )

 cart.    s( 1) = (  1.0000000 -0.0000000  0.0000000 )
                  (  0.0000000  1.0000000 -0.0000000 )
                  (  0.0000000  0.0000000  1.0000000 )

      isym =  2     inversion

 cryst.   s( 2) = (    -1          0          0      )
                  (     0         -1          0      )
                  (     0          0         -1      )

 cart.    s( 2) = ( -1.0000000  0.0000000 -0.0000000 )
                  (  0.0000000 -1.0000000  0.0000000 )
                  (  0.0000000  0.0000000 -1.0000000 )

   Cartesian axes

     site n.     atom                  positions (alat units)
         1           Rb  tau(   1) = (   0.5535430   0.7121277   0.0430292  )
         2           Rb  tau(   2) = (   0.5988738   0.6390578   0.6227041  )
         3           Rb  tau(   3) = (   0.6469473   0.6981150   1.1906668  )
         4           Rb  tau(   4) = (   0.7730505   1.1282082   0.8792084  )
         5           Rb  tau(   5) = (   0.8995258   0.1790256   0.5394005  )
         6           Rb  tau(   6) = (   1.0256290   0.6091188   0.2279421  )
         7           Rb  tau(   7) = (   1.0737026   0.6681760   0.7959049  )
         8           Rb  tau(   8) = (   1.1190333   0.5951060   1.3755797  )
         9           Ti  tau(   9) = (   0.4027480   0.2414851   0.3514930  )
        10           Ti  tau(  10) = (   1.2698283   1.0657487   1.0671159  )
        11           O   tau(  11) = (   0.2306473   0.1873286   0.1459976  )
        12           O   tau(  12) = (   0.2706038   0.4127681   0.5209600  )
        13           O   tau(  13) = (   0.6302786   0.3728212   0.2705245  )
        14           O   tau(  14) = (   0.7948278   0.3734056   0.9287448  )
        15           O   tau(  15) = (   0.8777485   0.9338281   0.4898641  )
        16           O   tau(  16) = (   1.0422977   0.9344125   1.1480845  )
        17           O   tau(  17) = (   1.4019726   0.8944656   0.8976489  )
        18           O   tau(  18) = (   1.4419290   1.1199051   1.2726114  )

   Crystallographic axes

     site n.     atom                  positions (cryst. coord.)
         1           Rb  tau(   1) = (  0.2398080  0.7632070  0.0303320  )
         2           Rb  tau(   2) = (  0.2751850  0.5100560  0.4389540  )
         3           Rb  tau(   3) = (  0.2565160  0.4044050  0.8393200  )
         4           Rb  tau(   4) = (  0.2174860  0.9663580  0.6197680  )
         5           Rb  tau(   5) = (  0.7825140  0.0336420  0.3802320  )
         6           Rb  tau(   6) = (  0.7434840  0.5955950  0.1606800  )
         7           Rb  tau(   7) = (  0.7248150  0.4899440  0.5610460  )
         8           Rb  tau(   8) = (  0.7601920  0.2367930  0.9696680  )
         9           Ti  tau(   9) = (  0.2720500  0.1579590  0.2477730  )
        10           Ti  tau(  10) = (  0.7279500  0.8420410  0.7522270  )
        11           O   tau(  11) = (  0.1384000  0.1604510  0.1029160  )
        12           O   tau(  12) = (  0.0529640  0.2938980  0.3672330  )
        13           O   tau(  13) = (  0.4481340  0.3253280  0.1906970  )
        14           O   tau(  14) = (  0.5649340  0.1289350  0.6546870  )
        15           O   tau(  15) = (  0.4350660  0.8710650  0.3453130  )
        16           O   tau(  16) = (  0.5518660  0.6746720  0.8093030  )
        17           O   tau(  17) = (  0.9470360  0.7061020  0.6327670  )
        18           O   tau(  18) = (  0.8616000  0.8395490  0.8970840  )

     number of k points=     1  Methfessel-Paxton smearing, width (Ry)=  0.0010
                       cart. coord. in units 2pi/alat
        k(    1) = (   0.0000000   0.0000000   0.0000000), wk =   2.0000000

                       cryst. coord.
        k(    1) = (   0.0000000   0.0000000   0.0000000), wk =   2.0000000

     Check: negative core charge=   -0.000009

     Initial potential from superposition of free atoms

     starting charge     141.8018, renormalised to     144.0000

     negative rho (up, down):  3.052E-03 0.000E+00
     Starting wfcs are   92 randomized atomic wfcs
     Checking if some PAW data can be deallocated...

     Self-consistent Calculation

     iteration #  1     ecut=    30.00 Ry     beta= 0.70
     Davidson diagonalization with overlap

     ethr =  1.00E-02,  avg # of iterations =  4.0

     negative rho (up, down):  2.155E-03 0.000E+00

     total energy              =    -962.34868070 Ry
     estimated scf accuracy    <       4.33028598 Ry

[...]

     total energy              =    -964.22166488 Ry
     estimated scf accuracy    <       0.00000260 Ry

     iteration # 11     ecut=    30.00 Ry     beta= 0.70
     Davidson diagonalization with overlap

     ethr =  1.80E-09,  avg # of iterations =  3.0

[...]

     End of self-consistent calculation

          k = 0.0000 0.0000 0.0000 (  3762 PWs)   bands (ev):

   -49.9229 -49.9191 -26.3162 -26.3126 -26.3076 -26.3040 -26.2914 -26.2878
   -20.9956 -20.9532 -20.8567 -20.7906 -20.7528 -20.7327 -20.7016 -20.6975
   -10.6558 -10.5645 -10.3718 -10.3368 -10.2796 -10.2685 -10.2011 -10.1998
    -5.5954  -5.5327  -5.5277  -5.3634  -5.3608  -5.2034  -5.1477  -5.1027
    -5.0813  -5.0489  -4.9759  -4.9447  -4.8708  -4.8394  -4.7979  -4.6946
    -4.6541  -4.6461  -4.6057  -4.6056  -4.5611  -4.5333  -4.5129  -4.5100
     3.0695   3.0882   3.2017   3.2645   3.2940   3.3235   3.3709   3.3810
     3.3992   3.4646   3.4800   3.5057   3.8885   4.0013   4.0664   4.0775
     4.1635   4.2191   4.5687   4.6166   4.6600   4.7170   4.7970   4.8034
     7.6589   8.8447   9.6382   9.7474   9.8325   9.8569   9.9197  10.1502
    10.1558  10.4386  10.5320  10.6221  10.6774  10.7284

     occupation numbers
     1.0000   1.0000   1.0000   1.0000   1.0000   1.0000   1.0000   1.0000
     1.0000   1.0000   1.0000   1.0000   1.0000   1.0000   1.0000   1.0000
     1.0000   1.0000   1.0000   1.0000   1.0000   1.0000   1.0000   1.0000
     1.0000   1.0000   1.0000   1.0000   1.0000   1.0000   1.0000   1.0000
     1.0000   1.0000   1.0000   1.0000   1.0000   1.0000   1.0000   1.0000
     1.0000   1.0000   1.0000   1.0000   1.0000   1.0000   1.0000   1.0000
     1.0000   1.0000   1.0000   1.0000   1.0000   1.0000   1.0000   1.0000
     1.0000   1.0000   1.0000   1.0000   1.0000   1.0000   1.0000   1.0000
     1.0000   1.0000   1.0000   1.0000   1.0000   1.0000   1.0000   1.0000
    -0.0000  -0.0000  -0.0000  -0.0000  -0.0000  -0.0000  -0.0000  -0.0000
    -0.0000  -0.0000  -0.0000  -0.0000  -0.0000  -0.0000

     the Fermi energy is     7.0567 ev

!    total energy              =    -964.22166484 Ry
     estimated scf accuracy    <       0.00000090 Ry
     smearing contrib. (-TS)   =       0.00000000 Ry
     internal energy E=F+TS    =    -964.22166484 Ry

     The total energy is F=E-TS. E is the sum of the following terms:
     one-electron contribution =    -431.09703643 Ry
     hartree contribution      =     272.84490522 Ry
     xc contribution           =    -155.97110104 Ry
     ewald contribution        =    -573.79448966 Ry
     one-center paw contrib.   =     -76.20394294 Ry
      -> PAW hartree energy AE =     231.64603061 Ry
      -> PAW hartree energy PS =    -230.84443455 Ry
      -> PAW xc energy AE      =    -136.51094188 Ry
      -> PAW xc energy PS      =      59.50540289 Ry
      -> total E_H with PAW    =     273.64650127 Ry
      -> total E_XC with PAW   =    -232.97664003 Ry

     convergence has been achieved in  11 iterations

     negative rho (up, down):  2.613E-03 0.000E+00

     Forces acting on atoms (cartesian axes, Ry/au):

     atom    1 type  1   force =     0.00335537    0.00156742    0.00063465
     atom    2 type  1   force =    -0.00025298    0.00209902   -0.00244399
     atom    3 type  1   force =    -0.00311384    0.00003632    0.00056165
     atom    4 type  1   force =     0.00089744   -0.00262504   -0.00160295
     atom    5 type  1   force =    -0.00089744    0.00262504    0.00160295
     atom    6 type  1   force =     0.00311384   -0.00003632   -0.00056165
     atom    7 type  1   force =     0.00025298   -0.00209902    0.00244399
     atom    8 type  1   force =    -0.00335537   -0.00156742   -0.00063465
     atom    9 type  2   force =    -0.00651114   -0.00165795   -0.00183075
     atom   10 type  2   force =     0.00651114    0.00165795    0.00183075
     atom   11 type  3   force =     0.00230253    0.00334694    0.00560952
     atom   12 type  3   force =     0.00173482   -0.00295206   -0.00031530
     atom   13 type  3   force =    -0.00220006   -0.00146486    0.00040788
     atom   14 type  3   force =     0.00106048    0.00105861    0.00391382
     atom   15 type  3   force =    -0.00106048   -0.00105861   -0.00391382
     atom   16 type  3   force =     0.00220006    0.00146486   -0.00040788
     atom   17 type  3   force =    -0.00173482    0.00295206    0.00031530
     atom   18 type  3   force =    -0.00230253   -0.00334694   -0.00560952
     The non-local contrib.  to forces
     atom    1 type  1   force =    -0.01910780    0.01489823    0.02315319
     atom    2 type  1   force =     0.02522327    0.01235425    0.00260748
     atom    3 type  1   force =     0.02182966   -0.00842221   -0.00117573
     atom    4 type  1   force =    -0.01614738    0.03588606    0.04035243
     atom    5 type  1   force =     0.01614738   -0.03588606   -0.04035243
     atom    6 type  1   force =    -0.02182966    0.00842221    0.00117573
     atom    7 type  1   force =    -0.02522327   -0.01235425   -0.00260748
     atom    8 type  1   force =     0.01910780   -0.01489823   -0.02315319
     atom    9 type  2   force =     0.00002619   -0.01748523   -0.00399686
     atom   10 type  2   force =    -0.00002619    0.01748523    0.00399686
     atom   11 type  3   force =     0.31114589    0.09675354    0.36115751
     atom   12 type  3   force =     0.23456845   -0.28823057   -0.30489532
     atom   13 type  3   force =    -0.38955172   -0.22037740    0.12751773
     atom   14 type  3   force =     0.13828940   -0.37672596    0.22847229
     atom   15 type  3   force =    -0.13828940    0.37672596   -0.22847229
     atom   16 type  3   force =     0.38955172    0.22037740   -0.12751773
     atom   17 type  3   force =    -0.23456845    0.28823057    0.30489532
     atom   18 type  3   force =    -0.31114589   -0.09675354   -0.36115751
     The ionic contribution  to forces
     atom    1 type  1   force =    -0.85039751    1.92776963    0.45893596
     atom    2 type  1   force =     0.37841960    1.63509250    0.38264442
     atom    3 type  1   force =    -0.11486115   -2.18834121   -0.18499970
     atom    4 type  1   force =    -0.50558093    1.78568250    2.53433562
     atom    5 type  1   force =     0.50558093   -1.78568250   -2.53433562
     atom    6 type  1   force =     0.11486115    2.18834121    0.18499970
     atom    7 type  1   force =    -0.37841960   -1.63509250   -0.38264442
     atom    8 type  1   force =     0.85039751   -1.92776963   -0.45893596
     atom    9 type  2   force =    -0.00210982   -2.02519109   -2.73977001
     atom   10 type  2   force =     0.00210982    2.02519109    2.73977001
     atom   11 type  3   force =    -5.92565647   -2.73325531   -7.44729074
     atom   12 type  3   force =    -4.91549681    6.74492236    5.20773198
     atom   13 type  3   force =     7.63106922    4.22828144   -3.40667442
     atom   14 type  3   force =    -2.71797704    8.58177699   -3.43623143
     atom   15 type  3   force =     2.71797704   -8.58177699    3.43623143
     atom   16 type  3   force =    -7.63106922   -4.22828144    3.40667442
     atom   17 type  3   force =     4.91549680   -6.74492235   -5.20773198
     atom   18 type  3   force =     5.92565647    2.73325531    7.44729074
     The local contribution  to forces
     atom    1 type  1   force =     0.87292512   -1.94132457   -0.48136177
     atom    2 type  1   force =    -0.40422381   -1.64543828   -0.38781665
     atom    3 type  1   force =     0.08982594    2.19698441    0.18661224
     atom    4 type  1   force =     0.52257342   -1.82434749   -2.57680756
     atom    5 type  1   force =    -0.52254637    1.82424825    2.57654934
     atom    6 type  1   force =    -0.08967286   -2.19692886   -0.18656250
     atom    7 type  1   force =     0.40416183    1.64547367    0.38770191
     atom    8 type  1   force =    -0.87303971    1.94123380    0.48154433
     atom    9 type  2   force =    -0.00531687    2.04133524    2.74307885
     atom   10 type  2   force =     0.00545127   -2.04152598   -2.74309540
     atom   11 type  3   force =     5.61939365    2.64079838    7.09497542
     atom   12 type  3   force =     4.68456534   -6.46202184   -4.90577585
     atom   13 type  3   force =    -7.24698784   -4.01116332    3.28074174
     atom   14 type  3   force =     2.58171067   -8.20650184    3.21301796
     atom   15 type  3   force =    -2.58194851    8.20711108   -3.21344679
     atom   16 type  3   force =     7.24633242    4.01077009   -3.28045850
     atom   17 type  3   force =    -4.68413858    6.46152739    4.90522350
     atom   18 type  3   force =    -5.61894281   -2.64066148   -7.09432525
     The core correction contribution to forces
     atom    1 type  1   force =     0.00000000    0.00000000    0.00000000
     atom    2 type  1   force =     0.00000000    0.00000000    0.00000000
     atom    3 type  1   force =     0.00000000    0.00000000    0.00000000
     atom    4 type  1   force =     0.00000000    0.00000000    0.00000000
     atom    5 type  1   force =     0.00000000    0.00000000    0.00000000
     atom    6 type  1   force =     0.00000000    0.00000000    0.00000000
     atom    7 type  1   force =     0.00000000    0.00000000    0.00000000
     atom    8 type  1   force =     0.00000000    0.00000000    0.00000000
     atom    9 type  2   force =     0.00073979    0.00000159   -0.00042220
     atom   10 type  2   force =    -0.00073705   -0.00000516    0.00042103
     atom   11 type  3   force =    -0.00217614   -0.00073400   -0.00259277
     atom   12 type  3   force =    -0.00157541    0.00198421    0.00230753
     atom   13 type  3   force =     0.00273652    0.00152736   -0.00085979
     atom   14 type  3   force =    -0.00098712    0.00252345   -0.00154668
     atom   15 type  3   force =     0.00098793   -0.00252577    0.00154826
     atom   16 type  3   force =    -0.00273406   -0.00152612    0.00085902
     atom   17 type  3   force =     0.00157374   -0.00198196   -0.00230514
     atom   18 type  3   force =     0.00217342    0.00073326    0.00258963
     The Hubbard contrib.    to forces
     atom    1 type  1   force =     0.00000000    0.00000000    0.00000000
     atom    2 type  1   force =     0.00000000    0.00000000    0.00000000
     atom    3 type  1   force =     0.00000000    0.00000000    0.00000000
     atom    4 type  1   force =     0.00000000    0.00000000    0.00000000
     atom    5 type  1   force =     0.00000000    0.00000000    0.00000000
     atom    6 type  1   force =     0.00000000    0.00000000    0.00000000
     atom    7 type  1   force =     0.00000000    0.00000000    0.00000000
     atom    8 type  1   force =     0.00000000    0.00000000    0.00000000
     atom    9 type  2   force =     0.00000000    0.00000000    0.00000000
     atom   10 type  2   force =     0.00000000    0.00000000    0.00000000
     atom   11 type  3   force =     0.00000000    0.00000000    0.00000000
     atom   12 type  3   force =     0.00000000    0.00000000    0.00000000
     atom   13 type  3   force =     0.00000000    0.00000000    0.00000000
     atom   14 type  3   force =     0.00000000    0.00000000    0.00000000
     atom   15 type  3   force =     0.00000000    0.00000000    0.00000000
     atom   16 type  3   force =     0.00000000    0.00000000    0.00000000
     atom   17 type  3   force =     0.00000000    0.00000000    0.00000000
     atom   18 type  3   force =     0.00000000    0.00000000    0.00000000
     The SCF correction term to forces
     atom    1 type  1   force =    -0.00006151    0.00022267   -0.00014410
     atom    2 type  1   force =     0.00033108    0.00009351    0.00016257
     atom    3 type  1   force =     0.00008526   -0.00018424    0.00009464
     atom    4 type  1   force =     0.00005022    0.00015010    0.00056323
     atom    5 type  1   force =    -0.00008150   -0.00005842   -0.00021167
     atom    6 type  1   force =    -0.00025124    0.00012955   -0.00020477
     atom    7 type  1   force =    -0.00026286   -0.00012300    0.00003579
     atom    8 type  1   force =     0.00018196   -0.00013482   -0.00014120
     atom    9 type  2   force =     0.00016287   -0.00032642   -0.00072682
     atom   10 type  2   force =    -0.00027341    0.00050480    0.00073197
     atom   11 type  3   force =    -0.00048116   -0.00023764   -0.00074024
     atom   12 type  3   force =    -0.00037120    0.00046396    0.00039031
     atom   13 type  3   force =     0.00061345    0.00031240   -0.00034570
     atom   14 type  3   force =     0.00005415   -0.00009701    0.00026089
     atom   15 type  3   force =     0.00024203   -0.00067587    0.00028479
     atom   16 type  3   force =     0.00019888    0.00017025    0.00000660
     atom   17 type  3   force =    -0.00014276    0.00016859    0.00030755
     atom   18 type  3   force =    -0.00012048    0.00005753   -0.00010747

     Total force =     0.018860     Total SCF correction =     0.002307
     SCF correction compared to forces is large: reduce conv_thr to get better values

     Computing stress (Cartesian axis) and pressure

     negative rho (up, down):  2.613E-03 0.000E+00
          total   stress  (Ry/bohr**3)                   (kbar)     P=     -140.48
  -0.00095368   0.00000186  -0.00001644         -140.29        0.27       -2.42
   0.00000186  -0.00093754  -0.00000135            0.27     -137.92       -0.20
  -0.00001644  -0.00000135  -0.00097377           -2.42       -0.20     -143.25

     kinetic stress (kbar)  10843.14      6.74      0.17
                                6.74  10854.08     -3.03
                                0.17     -3.03  10857.49

     local   stress (kbar)  -5247.91   -212.11   -968.91
                             -212.11  -3016.39    672.33
                             -968.91    672.33  -4871.12

     nonloc. stress (kbar)   1446.97      0.74      0.54
                                0.74   1447.76     -0.39
                                0.54     -0.39   1448.53

     hartree stress (kbar)   5305.24     96.92    373.14
                               96.92   4292.86   -308.77
                              373.14   -308.77   5203.91

     exc-cor stress (kbar)  -2038.84      0.10      1.08
                                0.10  -2039.08     -0.25
                                1.08     -0.25  -2039.02

     corecor stress (kbar)   -580.09     -0.03     -0.04
                               -0.03   -580.12      0.04
                               -0.04      0.04   -580.16

     ewald   stress (kbar)  -9868.80    107.91    591.60
                              107.91 -11097.03   -360.13
                              591.60   -360.13 -10162.88

     hubbard stress (kbar)      0.00      0.00      0.00
                                0.00      0.00      0.00
                                0.00      0.00      0.00

     DFT-D   stress (kbar)      0.00      0.00      0.00
                                0.00      0.00      0.00
                                0.00      0.00      0.00

     XDM     stress (kbar)      0.00      0.00      0.00
                                0.00      0.00      0.00
                                0.00      0.00      0.00

     dft-nl  stress (kbar)      0.00      0.00      0.00
                                0.00      0.00      0.00
                                0.00      0.00      0.00

     TS-vdW  stress (kbar)      0.00      0.00      0.00
                                0.00      0.00      0.00
                                0.00      0.00      0.00

[...]

                                0.00      0.00      0.00

     Writing all to output data dir new_calculations/myprefix.save/

     General routines

     Parallel routines

     PAW routines

   This run was terminated on:   8:20:51  20May2023

   JOB DONE.