     Program PWSCF v.7.0 starts on 21May2023 at  2:45:46

     Reading input from espresso_9918.pwi
Warning: card &CELL ignored
Warning: card / ignored

     Current dimensions of program PWSCF are:
     Max number of different atomic species (ntypx) = 10
     Max number of k-points (npk) =  40000
     Max angular momentum in pseudopotentials (lmaxx) =  4
     file O.pbe-n-kjpaw_psl.0.1.UPF: wavefunction(s)  2P renormalized

     gamma-point specific algorithms are used
     Message from routine setup:
     using ibrav=0 with symmetry is DISCOURAGED, use correct ibrav instead

     Subspace diagonalization in iterative solution of the eigenvalue problem:
     a serial algorithm will be used

     Using Slab Decomposition

     bravais-lattice index     =            0
     lattice parameter (alat)  =       6.9709  a.u.
     unit-cell volume          =     687.5769 (a.u.)^3
     number of atoms/cell      =            6
     number of atomic types    =            2
     number of electrons       =        48.00
     number of Kohn-Sham states=           29
     kinetic-energy cutoff     =      30.0000  Ry
     charge density cutoff     =     240.0000  Ry
     scf convergence threshold =      1.0E-06
     mixing beta               =       0.7000
     number of iterations used =            8  plain     mixing
     Exchange-correlation= SLA  PW   PBX  PBC
                           (   1   4   3   4   0   0   0)

     celldm(1)=   6.970867  celldm(2)=   0.000000  celldm(3)=   0.000000
     celldm(4)=   0.000000  celldm(5)=   0.000000  celldm(6)=   0.000000

     crystal axes: (cart. coord. in units of alat)
               a(1) = (   1.000000   0.000000   0.000000 )
               a(2) = (   0.000000   1.385706   0.000000 )
               a(3) = (   0.000000   0.000000   1.464839 )

     reciprocal axes: (cart. coord. in units 2 pi/alat)
               b(1) = (  1.000000  0.000000  0.000000 )
               b(2) = (  0.000000  0.721654  0.000000 )
               b(3) = (  0.000000  0.000000  0.682669 )

     PseudoPot. # 1 for Na read from file:
     /home/pragov/projects/rrg-bengioy-ad/pragov/crystal_structure_design/SSSP/na_pbe_v1.5.uspp.F.UPF
     MD5 check sum: 44600605ef58000f06b90626533354dc
     Pseudo is Ultrasoft, Zval =  9.0
     Generated by new atomic code, or converted to UPF format
     Using radial grid of  819 points,  5 beta functions with:
                l(1) =   0
                l(2) =   0
                l(3) =   1
                l(4) =   1
                l(5) =   2
     Q(r) pseudized with  8 coefficients,  rinner =    1.250   1.250   1.250
                                                       1.250   1.250

     PseudoPot. # 2 for O  read from file:
     /home/pragov/projects/rrg-bengioy-ad/pragov/crystal_structure_design/SSSP/O.pbe-n-kjpaw_psl.0.1.UPF
     MD5 check sum: 0234752ac141de4415c5fc33072bef88
     Pseudo is Projector augmented-wave + core cor, Zval =  6.0
     Generated using "atomic" code by A. Dal Corso  v.5.0.99 svn rev. 10869
     Shape of augmentation charge: BESSEL
     Using radial grid of 1095 points,  4 beta functions with:
                l(1) =   0
                l(2) =   0
                l(3) =   1
                l(4) =   1
     Q(r) pseudized with 0 coefficients

     atomic species   valence    mass     pseudopotential
        Na             9.00    22.98977     Na( 1.00)
        O              6.00    15.99900     O ( 1.00)

      8 Sym. Ops., with inversion, found ( 4 have fractional translation)

                                    s                        frac. trans.

      isym =  1     identity

 cryst.   s( 1) = (     1          0          0      )
                  (     0          1          0      )
                  (     0          0          1      )

 cart.    s( 1) = (  1.0000000  0.0000000  0.0000000 )
                  (  0.0000000  1.0000000  0.0000000 )
                  (  0.0000000  0.0000000  1.0000000 )

      isym =  2     180 deg rotation - cart. axis [0,0,1]

 cryst.   s( 2) = (    -1          0          0      )    f =(  0.5000000 )
                  (     0         -1          0      )       (  0.5000000 )
                  (     0          0          1      )       ( -0.5000000 )

 cart.    s( 2) = ( -1.0000000  0.0000000  0.0000000 )    f =(  0.5000000 )
                  (  0.0000000 -1.0000000  0.0000000 )       (  0.6928529 )
                  (  0.0000000  0.0000000  1.0000000 )       ( -0.7324193 )

[...]

      isym =  4     180 deg rotation - cart. axis [1,0,0]

[...]

      isym =  5     inversion

[...]

      isym =  6     inv. 180 deg rotation - cart. axis [0,0,1]

[...]

 cryst.   s( 7) = (     1          0          0      )    f =(  0.5000000 )
                  (     0         -1          0      )       (  0.5000000 )
                  (     0          0          1      )       ( -0.5000000 )

 cart.    s( 7) = (  1.0000000  0.0000000  0.0000000 )    f =(  0.5000000 )
                  (  0.0000000 -1.0000000  0.0000000 )       (  0.6928529 )
                  (  0.0000000  0.0000000  1.0000000 )       ( -0.7324193 )

      isym =  8     inv. 180 deg rotation - cart. axis [1,0,0]

 cryst.   s( 8) = (    -1          0          0      )
                  (     0          1          0      )
                  (     0          0          1      )

 cart.    s( 8) = ( -1.0000000  0.0000000  0.0000000 )
                  (  0.0000000  1.0000000  0.0000000 )
                  (  0.0000000  0.0000000  1.0000000 )

   Cartesian axes

     site n.     atom                  positions (alat units)
         1           Na  tau(   1) = (   0.5000000   1.1431547   0.2983203  )
         2           Na  tau(   2) = (   0.0000000   0.4503017   0.4340991  )
         3           Na  tau(   3) = (   0.0000000   0.9354041   1.0307396  )
         4           Na  tau(   4) = (   0.5000000   0.2425512   1.1665184  )
         5           O   tau(   5) = (   0.0000000   0.0000000   0.0000000  )
         6           O   tau(   6) = (   0.5000000   0.6928529   0.7324193  )

   Crystallographic axes

     site n.     atom                  positions (cryst. coord.)
         1           Na  tau(   1) = (  0.5000000  0.8249620  0.2036540  )
         2           Na  tau(   2) = (  0.0000000  0.3249620  0.2963460  )
         3           Na  tau(   3) = (  0.0000000  0.6750380  0.7036540  )
         4           Na  tau(   4) = (  0.5000000  0.1750380  0.7963460  )
         5           O   tau(   5) = (  0.0000000  0.0000000  0.0000000  )
         6           O   tau(   6) = (  0.5000000  0.5000000  0.5000000  )

     number of k points=     1  Methfessel-Paxton smearing, width (Ry)=  0.0010
                       cart. coord. in units 2pi/alat
        k(    1) = (   0.0000000   0.0000000   0.0000000), wk =   2.0000000

                       cryst. coord.
        k(    1) = (   0.0000000   0.0000000   0.0000000), wk =   2.0000000

     Check: negative core charge=   -0.000009

     Initial potential from superposition of free atoms

     starting charge      47.9748, renormalised to      48.0000
     Starting wfcs are   28 randomized atomic wfcs +    1 random wfcs
     Checking if some PAW data can be deallocated...

     Self-consistent Calculation

     iteration #  1     ecut=    30.00 Ry     beta= 0.70
     Davidson diagonalization with overlap

     ethr =  1.00E-02,  avg # of iterations =  5.0

     total energy              =    -463.62907374 Ry
     estimated scf accuracy    <       2.04067173 Ry

[...]

     total energy              =    -464.61055029 Ry
     estimated scf accuracy    <       0.00000227 Ry

     iteration # 11     ecut=    30.00 Ry     beta= 0.70
     Davidson diagonalization with overlap

     ethr =  4.72E-09,  avg # of iterations =  2.0

     End of self-consistent calculation

          k = 0.0000 0.0000 0.0000 (   951 PWs)   bands (ev):

   -47.8955 -47.8791 -47.8780 -47.8734 -19.9927 -19.9695 -19.9333 -19.8986
   -19.8828 -19.7756 -19.7309 -19.7282 -19.7064 -19.7036 -19.6815 -19.6573
   -11.6641 -11.4078   1.8896   2.0513   2.8608   2.8616   3.1221   3.2234
     3.5683   6.3783  10.0166  10.3951  10.7376

     occupation numbers
     1.0000   1.0000   1.0000   1.0000   1.0000   1.0000   1.0000   1.0000
     1.0000   1.0000   1.0000   1.0000   1.0000   1.0000   1.0000   1.0000
     1.0000   1.0000   1.0000   1.0000   1.0000   1.0000   1.0000   1.0000
    -0.0000  -0.0000  -0.0000  -0.0000  -0.0000

     the Fermi energy is     3.3955 ev

!    total energy              =    -464.61055055 Ry
     estimated scf accuracy    <       0.00000014 Ry
     smearing contrib. (-TS)   =       0.00000000 Ry
     internal energy E=F+TS    =    -464.61055055 Ry

     The total energy is F=E-TS. E is the sum of the following terms:
     one-electron contribution =    -330.86350575 Ry
     hartree contribution      =     180.33127640 Ry
     xc contribution           =     -72.68361516 Ry
     ewald contribution        =    -222.36768828 Ry
     one-center paw contrib.   =     -19.02701777 Ry
      -> PAW hartree energy AE =      58.11322330 Ry
      -> PAW hartree energy PS =     -57.90116371 Ry
      -> PAW xc energy AE      =     -34.13972582 Ry
      -> PAW xc energy PS      =      14.90064845 Ry
      -> total E_H with PAW    =     180.54333600 Ry
      -> total E_XC with PAW   =     -91.92269252 Ry

     convergence has been achieved in  11 iterations

     Forces acting on atoms (cartesian axes, Ry/au):

     atom    1 type  1   force =    -0.00000000    0.01037556   -0.01391431
     atom    2 type  1   force =     0.00000000    0.01037556    0.01391431
     atom    3 type  1   force =     0.00000000   -0.01037556   -0.01391431
     atom    4 type  1   force =    -0.00000000   -0.01037556    0.01391431
     atom    5 type  2   force =     0.00000000    0.00000000    0.00000000
     atom    6 type  2   force =     0.00000000   -0.00000000    0.00000000
     The non-local contrib.  to forces
     atom    1 type  1   force =    -0.00000000    0.07998778    0.05295272
     atom    2 type  1   force =     0.00000000    0.07998778   -0.05295272
     atom    3 type  1   force =     0.00000000   -0.07998778    0.05295272
     atom    4 type  1   force =     0.00000000   -0.07998778   -0.05295272
     atom    5 type  2   force =     0.00000000    0.00000000    0.00000000
     atom    6 type  2   force =     0.00000000   -0.00000000    0.00000000
     The ionic contribution  to forces
     atom    1 type  1   force =    -0.00000000   -0.83302772    1.38999203
     atom    2 type  1   force =     0.00000000   -0.83302772   -1.38999203
     atom    3 type  1   force =     0.00000000    0.83302772    1.38999203
     atom    4 type  1   force =    -0.00000000    0.83302772   -1.38999203
     atom    5 type  2   force =     0.00000000   -0.00000000    0.00000000
     atom    6 type  2   force =    -0.00000000   -0.00000000   -0.00000000
     The local contribution  to forces
     atom    1 type  1   force =    -0.00000002    0.76333147   -1.45675001
     atom    2 type  1   force =     0.00000007    0.76333571    1.45675503
     atom    3 type  1   force =    -0.00000000   -0.76333550   -1.45675494
     atom    4 type  1   force =    -0.00000004   -0.76333182    1.45675012
     atom    5 type  2   force =    -0.00000116    0.00000065   -0.00000036
     atom    6 type  2   force =    -0.00000216    0.00000051    0.00000007
     The core correction contribution to forces
     atom    1 type  1   force =     0.00000000    0.00000000    0.00000000
     atom    2 type  1   force =     0.00000000    0.00000000    0.00000000
     atom    3 type  1   force =     0.00000000    0.00000000    0.00000000
     atom    4 type  1   force =     0.00000000    0.00000000    0.00000000
     atom    5 type  2   force =    -0.00000001    0.00000001   -0.00000000
     atom    6 type  2   force =    -0.00000002   -0.00000000   -0.00000000
     The Hubbard contrib.    to forces
     atom    1 type  1   force =     0.00000000    0.00000000    0.00000000
     atom    2 type  1   force =     0.00000000    0.00000000    0.00000000
     atom    3 type  1   force =     0.00000000    0.00000000    0.00000000
     atom    4 type  1   force =     0.00000000    0.00000000    0.00000000
     atom    5 type  2   force =     0.00000000    0.00000000    0.00000000
     atom    6 type  2   force =     0.00000000    0.00000000    0.00000000
     The SCF correction term to forces
     atom    1 type  1   force =     0.00000010    0.00008508   -0.00010846
     atom    2 type  1   force =     0.00000098    0.00007839    0.00010453
     atom    3 type  1   force =     0.00000073   -0.00007960   -0.00010478
     atom    4 type  1   force =     0.00000010   -0.00008438    0.00010835
     atom    5 type  2   force =     0.00000048    0.00000002    0.00000030
     atom    6 type  2   force =     0.00000075   -0.00000078   -0.00000010

     Total force =     0.034714     Total SCF correction =     0.000269

     Computing stress (Cartesian axis) and pressure

          total   stress  (Ry/bohr**3)                   (kbar)     P=     -186.20
  -0.00142871   0.00000000   0.00000000         -210.17        0.00        0.00
   0.00000000  -0.00111553   0.00000000            0.00     -164.10        0.00
   0.00000000   0.00000000  -0.00125298            0.00        0.00     -184.32

     kinetic stress (kbar)  14926.31      0.00      0.00
                                0.00  14613.97      0.00
                                0.00      0.00  14582.30

     local   stress (kbar)  21973.62      0.00      0.00
                                0.00  29388.71      0.00
                                0.00      0.00  28478.57

     nonloc. stress (kbar) -33552.67      0.00      0.00
                                0.00 -33568.12      0.00
                                0.00      0.00 -33562.33

     hartree stress (kbar)  15038.45     -0.00      0.00
                               -0.00  11563.25     -0.00
                                0.00     -0.00  11979.65

     exc-cor stress (kbar)  -4765.83      0.00      0.00
                                0.00  -4770.50      0.00
                                0.00      0.00  -4769.64

     corecor stress (kbar)   -180.81     -0.00      0.00
                               -0.00   -179.35      0.00
                                0.00      0.00   -179.25

     ewald   stress (kbar) -13649.24      0.00     -0.00
                                0.00 -17212.06      0.00
                               -0.00      0.00 -16713.62

     hubbard stress (kbar)      0.00      0.00      0.00
                                0.00      0.00      0.00
                                0.00      0.00      0.00

     DFT-D   stress (kbar)      0.00      0.00      0.00
                                0.00      0.00      0.00
                                0.00      0.00      0.00

     XDM     stress (kbar)      0.00      0.00      0.00
                                0.00      0.00      0.00
                                0.00      0.00      0.00

     dft-nl  stress (kbar)      0.00      0.00      0.00
                                0.00      0.00      0.00
                                0.00      0.00      0.00

     TS-vdW  stress (kbar)      0.00      0.00      0.00
                                0.00      0.00      0.00
                                0.00      0.00      0.00

[...]

                                0.00      0.00      0.00

     Writing all to output data dir new_calculations/myprefix.save/

     General routines

     Parallel routines

     PAW routines

   This run was terminated on:   2:46:22  21May2023

   JOB DONE.