     Program PWSCF v.7.0 starts on 20May2023 at 13: 2:35

     Reading input from espresso_2448.pwi
Warning: card &CELL ignored
Warning: card / ignored

     Current dimensions of program PWSCF are:
     Max number of different atomic species (ntypx) = 10
     Max number of k-points (npk) =  40000
     Max angular momentum in pseudopotentials (lmaxx) =  4
     file Fe.pbe-spn-kjpaw_psl.0.2.1.UPF: wavefunction(s)  3D renormalized
     file O.pbe-n-kjpaw_psl.0.1.UPF: wavefunction(s)  2P renormalized

     gamma-point specific algorithms are used
     Message from routine setup:
     using ibrav=0 with symmetry is DISCOURAGED, use correct ibrav instead

     Subspace diagonalization in iterative solution of the eigenvalue problem:
     a serial algorithm will be used

     Using Slab Decomposition

     bravais-lattice index     =            0
     lattice parameter (alat)  =       5.9005  a.u.
     unit-cell volume          =     944.7750 (a.u.)^3
     number of atoms/cell      =           12
     number of atomic types    =            3
     number of electrons       =       116.00
     number of Kohn-Sham states=           70
     kinetic-energy cutoff     =      30.0000  Ry
     charge density cutoff     =     240.0000  Ry
     scf convergence threshold =      1.0E-06
     mixing beta               =       0.7000
     number of iterations used =            8  plain     mixing
     Exchange-correlation=  SLA  PW   PBX  PBC
                           (   1   4   3   4   0   0   0)

     celldm(1)=   5.900509  celldm(2)=   0.000000  celldm(3)=   0.000000
     celldm(4)=   0.000000  celldm(5)=   0.000000  celldm(6)=   0.000000

     crystal axes: (cart. coord. in units of alat)
               a(1) = (   1.000000   0.000000   0.000000 )
               a(2) = (   0.000000   1.521619   0.000000 )
               a(3) = (   0.000000   0.005586   3.022414 )

     reciprocal axes: (cart. coord. in units 2 pi/alat)
               b(1) = (  1.000000  0.000000  0.000000 )
               b(2) = (  0.000000  0.657195 -0.001215 )
               b(3) = (  0.000000  0.000000  0.330861 )

     PseudoPot. # 1 for Fe read from file:
     /home/pragov/projects/rrg-bengioy-ad/pragov/crystal_structure_design/SSSP/Fe.pbe-spn-kjpaw_psl.0.2.1.UPF
     MD5 check sum: e86618425769142926afa95317d90200
     Pseudo is Projector augmented-wave + core cor, Zval = 16.0
     Generated using "atomic" code by A. Dal Corso  v.5.0.99 svn rev. 10869
     Shape of augmentation charge: PSQ
     Using radial grid of 1191 points,  6 beta functions with:
                l(1) =   0
                l(2) =   0
                l(3) =   1
                l(4) =   1
                l(5) =   2
                l(6) =   2
     Q(r) pseudized with 0 coefficients

     PseudoPot. # 2 for O  read from file:
     /home/pragov/projects/rrg-bengioy-ad/pragov/crystal_structure_design/SSSP/O.pbe-n-kjpaw_psl.0.1.UPF
     MD5 check sum: 0234752ac141de4415c5fc33072bef88
     Pseudo is Projector augmented-wave + core cor, Zval =  6.0
     Generated using "atomic" code by A. Dal Corso  v.5.0.99 svn rev. 10869
     Shape of augmentation charge: BESSEL
     Using radial grid of 1095 points,  4 beta functions with:
                l(1) =   0
                l(2) =   0
                l(3) =   1
                l(4) =   1
     Q(r) pseudized with 0 coefficients

     PseudoPot. # 3 for F  read from file:
     /home/pragov/projects/rrg-bengioy-ad/pragov/crystal_structure_design/SSSP/f_pbe_v1.4.uspp.F.UPF
     MD5 check sum: 4c38b6a325caf53ec0e86aed9459de46
     Pseudo is Ultrasoft, Zval =  7.0
     Generated by new atomic code, or converted to UPF format
     Using radial grid of  799 points,  4 beta functions with:
                l(1) =   0
                l(2) =   0
                l(3) =   1
                l(4) =   1
     Q(r) pseudized with  8 coefficients,  rinner =    0.950   0.950   0.950

     atomic species   valence    mass     pseudopotential
        Fe            16.00    55.84500     Fe( 1.00)
        O              6.00    15.99900     O ( 1.00)
        F              7.00    18.99840     F ( 1.00)

      2 Sym. Ops. (no inversion) found

                                    s                        frac. trans.

      isym =  1     identity

 cryst.   s( 1) = (     1          0          0      )
                  (     0          1          0      )
                  (     0          0          1      )

 cart.    s( 1) = (  1.0000000  0.0000000  0.0000000 )
                  (  0.0000000  1.0000000  0.0000000 )
                  (  0.0000000  0.0000000  1.0000000 )

      isym =  2     inv. 180 deg rotation - cart. axis [1,0,0]

 cryst.   s( 2) = (    -1          0          0      )
                  (     0          1          0      )
                  (     0          0          1      )

 cart.    s( 2) = ( -1.0000000  0.0000000  0.0000000 )
                  (  0.0000000  1.0000000  0.0000000 )
                  (  0.0000000  0.0000000  1.0000000 )

   Cartesian axes

     site n.     atom                  positions (alat units)
         1           Fe  tau(   1) = (   0.0000000   1.4905742   2.9886504  )
         2           Fe  tau(   2) = (   0.0000000   1.4906972   1.4745752  )
         3           Fe  tau(   3) = (   0.5000000   0.7373190   0.8389586  )
         4           Fe  tau(   4) = (   0.5000000   0.8389238   2.2336333  )
         5           O   tau(   5) = (   0.5000000   1.2272929   1.2103770  )
         6           O   tau(   6) = (   0.5000000   1.2316289   2.7363423  )
         7           O   tau(   7) = (   0.0000000   1.0788502   1.9688094  )
         8           O   tau(   8) = (   0.0000000   0.4552654   1.0586427  )
         9           F   tau(   9) = (   0.0000000   1.0585486   0.4588689  )
        10           F   tau(  10) = (   0.0000000   0.4723524   2.5655850  )
        11           F   tau(  11) = (   0.5000000   0.2979783   0.2846237  )
        12           F   tau(  12) = (   0.5000000   0.3082189   1.8266199  )

   Crystallographic axes

     site n.     atom                  positions (cryst. coord.)
         1           Fe  tau(   1) = (  0.0000000  0.9759670  0.9888290  )
         2           Fe  tau(   2) = (  0.0000000  0.9778870  0.4878800  )
         3           Fe  tau(   3) = (  0.5000000  0.4835430  0.2775790  )
         4           Fe  tau(   4) = (  0.5000000  0.5486230  0.7390230  )
         5           O   tau(   5) = (  0.5000000  0.8051000  0.4004670  )
         6           O   tau(   6) = (  0.5000000  0.8060960  0.9053500  )
         7           O   tau(   7) = (  0.0000000  0.7066230  0.6514030  )
         8           O   tau(   8) = (  0.0000000  0.2979120  0.3502640  )
         9           F   tau(   9) = (  0.0000000  0.6951150  0.1518220  )
        10           F   tau(  10) = (  0.0000000  0.3073110  0.8488530  )
        11           F   tau(  11) = (  0.5000000  0.1954840  0.0941710  )
        12           F   tau(  12) = (  0.5000000  0.2003410  0.6043580  )

     number of k points=     1  Methfessel-Paxton smearing, width (Ry)=  0.0010
                       cart. coord. in units 2pi/alat
        k(    1) = (   0.0000000   0.0000000   0.0000000), wk =   2.0000000

                       cryst. coord.
        k(    1) = (   0.0000000   0.0000000   0.0000000), wk =   2.0000000

     Check: negative core charge=   -0.000169

     Initial potential from superposition of free atoms

     starting charge     115.9982, renormalised to     116.0000
     Starting wfcs are   84 randomized atomic wfcs
     Checking if some PAW data can be deallocated...

     Self-consistent Calculation

     iteration #  1     ecut=    30.00 Ry     beta= 0.70
     Davidson diagonalization with overlap

     ethr =  1.00E-02,  avg # of iterations =  2.0

     total energy              =   -1675.23530864 Ry
     estimated scf accuracy    <       2.34570693 Ry

[...]

     negative rho (up, down):  1.091E-03 0.000E+00

[...]

     total energy              =   -1676.57204982 Ry
     estimated scf accuracy    <       0.00000553 Ry

     iteration # 69     ecut=    30.00 Ry     beta= 0.70
     Davidson diagonalization with overlap

     ethr =  4.14E-09,  avg # of iterations =  1.0

[...]

     End of self-consistent calculation

          k = 0.0000 0.0000 0.0000 (  1307 PWs)   bands (ev):

   -80.6166 -80.5186 -80.4531 -80.3036 -46.2263 -46.1639 -46.1402 -46.1354
   -46.1321 -46.1129 -46.0398 -45.9702 -45.9152 -45.8965 -45.8004 -45.7328
   -15.7105 -15.5560 -15.3987 -15.2179 -11.7450 -11.4907 -11.2185 -11.0246
     0.3209   1.1891   1.2535   1.3776   1.8224   2.2517   2.2753   2.3510
     2.3610   2.4928   2.4944   2.7535   2.8332   2.8823   3.0662   3.2517
     3.4566   3.6350   4.2016   4.2817   4.3554   4.4356   4.7291   5.2529
     5.8759   5.9334   5.9755   6.1337   6.1911   6.1945   6.2568   6.2643
     6.5285   6.7919   7.0676   7.1198   7.4721   8.2116   8.6056   8.6970
     8.7387   8.9877   9.0888   9.6170  11.6810  14.1789

     occupation numbers
     1.0000   1.0000   1.0000   1.0000   1.0000   1.0000   1.0000   1.0000
     1.0000   1.0000   1.0000   1.0000   1.0000   1.0000   1.0000   1.0000
     1.0000   1.0000   1.0000   1.0000   1.0000   1.0000   1.0000   1.0000
     1.0000   1.0000   1.0000   1.0000   1.0000   1.0000   1.0000   1.0000
     1.0000   1.0000   1.0000   1.0000   1.0000   1.0000   1.0000   1.0000
     1.0000   1.0000   1.0000   1.0000   1.0000   1.0000   1.0000   1.0000
     1.0000   1.0000   1.0000   1.0000   1.0000   1.0000   1.0000   1.0000
     1.0000   1.0000  -0.0000  -0.0000  -0.0000  -0.0000  -0.0000  -0.0000
    -0.0000  -0.0000  -0.0000  -0.0000  -0.0000  -0.0000

     the Fermi energy is     6.8878 ev

!    total energy              =   -1676.57205385 Ry
     estimated scf accuracy    <       0.00000036 Ry
     smearing contrib. (-TS)   =       0.00000000 Ry
     internal energy E=F+TS    =   -1676.57205385 Ry

     The total energy is F=E-TS. E is the sum of the following terms:
     one-electron contribution =    -806.66211972 Ry
     hartree contribution      =     457.00082343 Ry
     xc contribution           =    -204.87743953 Ry
     ewald contribution        =    -779.63715250 Ry
     one-center paw contrib.   =    -342.39616553 Ry
      -> PAW hartree energy AE =     942.08567115 Ry
      -> PAW hartree energy PS =    -938.55519423 Ry
      -> PAW xc energy AE      =    -511.74540156 Ry
      -> PAW xc energy PS      =     165.81875910 Ry
      -> total E_H with PAW    =     460.53130036 Ry
      -> total E_XC with PAW   =    -550.80408199 Ry

     convergence has been achieved in  69 iterations

     negative rho (up, down):  1.592E-04 0.000E+00

     Forces acting on atoms (cartesian axes, Ry/au):

     atom    1 type  1   force =     0.00000000   -0.01513849   -0.02708751
     atom    2 type  1   force =     0.00000000   -0.01063768   -0.02288579
     atom    3 type  1   force =     0.00000000   -0.00628882    0.01830368
     atom    4 type  1   force =     0.00000000    0.05915268    0.01278842
     atom    5 type  2   force =     0.00000000    0.01869289    0.03680977
     atom    6 type  2   force =     0.00000000    0.01284195    0.02020778
     atom    7 type  2   force =     0.00000000   -0.05835292    0.04362303
     atom    8 type  2   force =     0.00000000    0.03835641   -0.03860531
     atom    9 type  3   force =     0.00000000   -0.00669437    0.03522565
     atom   10 type  3   force =     0.00000000    0.00864764   -0.01559410
     atom   11 type  3   force =     0.00000000   -0.01159594   -0.03058181
     atom   12 type  3   force =     0.00000000   -0.02898335   -0.03220382
     The non-local contrib.  to forces
     atom    1 type  1   force =     0.00000000   -0.12734679   -0.14597362
     atom    2 type  1   force =     0.00000000   -0.10843448   -0.05546117
     atom    3 type  1   force =     0.00000000   -0.13057774    0.10059009
     atom    4 type  1   force =     0.00000000    0.14838621   -0.11787608
     atom    5 type  2   force =     0.00000000   -0.09780069    0.09393804
     atom    6 type  2   force =     0.00000000    0.13252340   -0.11687575
     atom    7 type  2   force =     0.00000000   -0.10525958    0.19863081
     atom    8 type  2   force =     0.00000000    0.29409639    0.07504277
     atom    9 type  3   force =     0.00000000    0.03877295   -0.10821914
     atom   10 type  3   force =     0.00000000   -0.07835124    0.03465619
     atom   11 type  3   force =     0.00000000   -0.26578358   -0.02113534
     atom   12 type  3   force =     0.00000000    0.01338764   -0.19062722
     The ionic contribution  to forces
     atom    1 type  1   force =     0.00000000    1.60821216    2.33418721
     atom    2 type  1   force =     0.00000000    1.92408331    0.90856115
     atom    3 type  1   force =    -0.00000000   -1.04548139   -7.11870365
     atom    4 type  1   force =    -0.00000000   -2.63924445    3.32449600
     atom    5 type  2   force =    -0.00000000   -0.34434105   -3.16678224
     atom    6 type  2   force =    -0.00000000   -3.05811039   -0.48456487
     atom    7 type  2   force =     0.00000000    2.16104145   -1.37241517
     atom    8 type  2   force =     0.00000000   -2.79839044    0.20298232
     atom    9 type  3   force =     0.00000000    0.09951447   -1.95335342
     atom   10 type  3   force =     0.00000000   -0.75241841    2.16134710
     atom   11 type  3   force =    -0.00000000    4.03281238    2.02235805
     atom   12 type  3   force =    -0.00000000    0.81232238    3.14188752
     The local contribution  to forces
     atom    1 type  1   force =    -0.00000000   -1.50787835   -2.22913583
     atom    2 type  1   force =    -0.00000000   -1.84122860   -0.88787685
     atom    3 type  1   force =     0.00000000    1.16756126    7.05903486
     atom    4 type  1   force =    -0.00000000    2.56916133   -3.19954337
     atom    5 type  2   force =    -0.00000000    0.45901712    3.10945858
     atom    6 type  2   force =    -0.00000000    2.93985638    0.62011182
     atom    7 type  2   force =    -0.00000000   -2.11529779    1.21918903
     atom    8 type  2   force =     0.00000000    2.54595693   -0.31635335
     atom    9 type  3   force =    -0.00000000   -0.14521203    2.09597091
     atom   10 type  3   force =    -0.00000000    0.83872613   -2.21138033
     atom   11 type  3   force =     0.00000000   -3.77913111   -2.03244781
     atom   12 type  3   force =     0.00000000   -0.85513023   -2.98411875
     The core correction contribution to forces
     atom    1 type  1   force =     0.00000000    0.01194058    0.01446672
     atom    2 type  1   force =    -0.00000000    0.01434669    0.01056347
     atom    3 type  1   force =     0.00000000    0.00209714   -0.02422521
     atom    4 type  1   force =    -0.00000000   -0.01950643    0.00562196
     atom    5 type  2   force =     0.00000000    0.00135789   -0.00088061
     atom    6 type  2   force =    -0.00000000   -0.00142491    0.00163699
     atom    7 type  2   force =    -0.00000000    0.00098525   -0.00238819
     atom    8 type  2   force =    -0.00000000   -0.00355385   -0.00135292
     atom    9 type  3   force =     0.00000000    0.00000000    0.00000000
     atom   10 type  3   force =     0.00000000    0.00000000    0.00000000
     atom   11 type  3   force =     0.00000000    0.00000000    0.00000000
     atom   12 type  3   force =     0.00000000    0.00000000    0.00000000
     The Hubbard contrib.    to forces
     atom    1 type  1   force =     0.00000000    0.00000000    0.00000000
     atom    2 type  1   force =     0.00000000    0.00000000    0.00000000
     atom    3 type  1   force =     0.00000000    0.00000000    0.00000000
     atom    4 type  1   force =     0.00000000    0.00000000    0.00000000
     atom    5 type  2   force =     0.00000000    0.00000000    0.00000000
     atom    6 type  2   force =     0.00000000    0.00000000    0.00000000
     atom    7 type  2   force =     0.00000000    0.00000000    0.00000000
     atom    8 type  2   force =     0.00000000    0.00000000    0.00000000
     atom    9 type  3   force =     0.00000000    0.00000000    0.00000000
     atom   10 type  3   force =     0.00000000    0.00000000    0.00000000
     atom   11 type  3   force =     0.00000000    0.00000000    0.00000000
     atom   12 type  3   force =     0.00000000    0.00000000    0.00000000
     The SCF correction term to forces
     atom    1 type  1   force =     0.00000000   -0.00040489   -0.00120984
     atom    2 type  1   force =     0.00000000    0.00025661    0.00074975
     atom    3 type  1   force =    -0.00000000   -0.00022689    0.00102972
     atom    4 type  1   force =     0.00000000    0.00001723   -0.00048796
     atom    5 type  2   force =     0.00000000    0.00012083    0.00049815
     atom    6 type  2   force =     0.00000000   -0.00034132   -0.00067827
     atom    7 type  2   force =     0.00000000   -0.00016104    0.00002870
     atom    8 type  2   force =    -0.00000000   -0.00009141    0.00049801
     atom    9 type  3   force =     0.00000000   -0.00010855    0.00024945
     atom   10 type  3   force =    -0.00000000    0.00035236   -0.00079492
     atom   11 type  3   force =    -0.00000000    0.00016758    0.00006544
     atom   12 type  3   force =    -0.00000000    0.00009806    0.00007679

     Total force =     0.143996     Total SCF correction =     0.002368

     Computing stress (Cartesian axis) and pressure

     negative rho (up, down):  1.592E-04 0.000E+00
          total   stress  (Ry/bohr**3)                   (kbar)     P=     -794.28
  -0.00586850   0.00000000   0.00000000         -863.29        0.00        0.00
   0.00000000  -0.00515598  -0.00009139            0.00     -758.47      -13.44
   0.00000000  -0.00009139  -0.00517378            0.00      -13.44     -761.09

     kinetic stress (kbar)  34016.60      0.00      0.00
                                0.00  34496.21     42.56
                                0.00     42.56  34438.14

     local   stress (kbar) -17851.47     -0.00      0.00
                               -0.00  13184.61    472.97
                                0.00    472.97  15186.26

     nonloc. stress (kbar) -12267.17      0.00      0.00
                                0.00 -12450.57      8.07
                                0.00      8.07 -12426.79

     hartree stress (kbar)  32513.27      0.00     -0.00
                                0.00  19725.98   -192.18
                               -0.00   -192.18  18917.52

     exc-cor stress (kbar)  -3810.67      0.00     -0.00
                                0.00  -3820.00      1.24
                               -0.00      1.24  -3820.97

     corecor stress (kbar)  -5667.97     -0.00      0.00
                               -0.00  -5675.98     -2.32
                                0.00     -2.32  -5677.38

     ewald   stress (kbar) -27795.88      0.00     -0.00
                                0.00 -46218.72   -343.79
                               -0.00   -343.79 -47377.87

     hubbard stress (kbar)      0.00      0.00      0.00
                                0.00      0.00      0.00
                                0.00      0.00      0.00

     DFT-D   stress (kbar)      0.00      0.00      0.00
                                0.00      0.00      0.00
                                0.00      0.00      0.00

     XDM     stress (kbar)      0.00      0.00      0.00
                                0.00      0.00      0.00
                                0.00      0.00      0.00

     dft-nl  stress (kbar)      0.00      0.00      0.00
                                0.00      0.00      0.00
                                0.00      0.00      0.00

     TS-vdW  stress (kbar)      0.00      0.00      0.00
                                0.00      0.00      0.00
                                0.00      0.00      0.00

[...]

                                0.00      0.00      0.00

     Writing all to output data dir new_calculations/myprefix.save/

     General routines

     Parallel routines

     PAW routines

   This run was terminated on:  13: 3:33  20May2023

   JOB DONE.