     Program PWSCF v.7.0 starts on 20May2023 at  0:42:20

     Reading input from espresso_2028.pwi
Warning: card &CELL ignored
Warning: card / ignored

     Current dimensions of program PWSCF are:
     Max number of different atomic species (ntypx) = 10
     Max number of k-points (npk) =  40000
     Max angular momentum in pseudopotentials (lmaxx) =  4
     file O.pbe-n-kjpaw_psl.0.1.UPF: wavefunction(s)  2P renormalized

     gamma-point specific algorithms are used
     Message from routine setup:
     using ibrav=0 with symmetry is DISCOURAGED, use correct ibrav instead

     Subspace diagonalization in iterative solution of the eigenvalue problem:
     a serial algorithm will be used

     Using Slab Decomposition

     bravais-lattice index     =            0
     lattice parameter (alat)  =       8.7638  a.u.
     unit-cell volume          =     711.0378 (a.u.)^3
     number of atoms/cell      =           12
     number of atomic types    =            4
     number of electrons       =        56.00
     number of Kohn-Sham states=           34
     kinetic-energy cutoff     =      30.0000  Ry
     charge density cutoff     =     240.0000  Ry
     scf convergence threshold =      1.0E-06
     mixing beta               =       0.7000
     number of iterations used =            8  plain     mixing
     Exchange-correlation= SLA  PW   PBX  PBC
                           (   1   4   3   4   0   0   0)

     celldm(1)=   8.763798  celldm(2)=   0.000000  celldm(3)=   0.000000
     celldm(4)=   0.000000  celldm(5)=   0.000000  celldm(6)=   0.000000

     crystal axes: (cart. coord. in units of alat)
               a(1) = (   1.000000   0.000000   0.000000 )
               a(2) = (   0.489685   0.888954   0.000000 )
               a(3) = (   0.387243   0.339981   1.188328 )

     reciprocal axes: (cart. coord. in units 2 pi/alat)
               b(1) = (  1.000000 -0.550855 -0.168272 )
               b(2) = (  0.000000  1.124918 -0.321839 )
               b(3) = (  0.000000  0.000000  0.841518 )

     PseudoPot. # 1 for Li read from file:
     /home/pragov/projects/rrg-bengioy-ad/pragov/crystal_structure_design/SSSP/li_pbe_v1.4.uspp.F.UPF
     MD5 check sum: e912e257baa3777c20ea3d68f190483c
     Pseudo is Ultrasoft, Zval =  3.0
     Generated by new atomic code, or converted to UPF format
     Using radial grid of  751 points,  5 beta functions with:
                l(1) =   0
                l(2) =   0
                l(3) =   0
                l(4) =   1
                l(5) =   1
     Q(r) pseudized with 10 coefficients,  rinner =    1.150   1.150   1.150

     PseudoPot. # 2 for Be read from file:
     /home/pragov/projects/rrg-bengioy-ad/pragov/crystal_structure_design/SSSP/be_pbe_v1.4.uspp.F.UPF
     MD5 check sum: 5ecff1440924c7c98ad504bef30f5264
     Pseudo is Ultrasoft, Zval =  4.0
     Generated by new atomic code, or converted to UPF format
     Using radial grid of  769 points,  6 beta functions with:
                l(1) =   0
                l(2) =   0
                l(3) =   0
                l(4) =   1
                l(5) =   1
                l(6) =   2
     Q(r) pseudized with 10 coefficients,  rinner =    1.000   1.000   1.000
                                                       1.000   1.000

     PseudoPot. # 3 for B  read from file:
     /home/pragov/projects/rrg-bengioy-ad/pragov/crystal_structure_design/SSSP/b_pbe_v1.4.uspp.F.UPF
     MD5 check sum: cc6de2960df11db49a60e589f9ebb39b
     Pseudo is Ultrasoft + core correction, Zval =  3.0
     Generated by new atomic code, or converted to UPF format
     Using radial grid of  781 points,  4 beta functions with:
                l(1) =   0
                l(2) =   0
                l(3) =   1
                l(4) =   1
     Q(r) pseudized with  8 coefficients,  rinner =    1.100   1.100   1.100

     PseudoPot. # 4 for O  read from file:
     /home/pragov/projects/rrg-bengioy-ad/pragov/crystal_structure_design/SSSP/O.pbe-n-kjpaw_psl.0.1.UPF
     MD5 check sum: 0234752ac141de4415c5fc33072bef88
     Pseudo is Projector augmented-wave + core cor, Zval =  6.0
     Generated using "atomic" code by A. Dal Corso  v.5.0.99 svn rev. 10869
     Shape of augmentation charge: BESSEL
     Using radial grid of 1095 points,  4 beta functions with:
                l(1) =   0
                l(2) =   0
                l(3) =   1
                l(4) =   1
     Q(r) pseudized with 0 coefficients

     atomic species   valence    mass     pseudopotential
        Li             3.00     6.94000     Li( 1.00)
        Be             4.00     9.01218     Be( 1.00)
        B              3.00    10.81000     B ( 1.00)
        O              6.00    15.99900     O ( 1.00)

      2 Sym. Ops., with inversion, found

                                    s                        frac. trans.

      isym =  1     identity

 cryst.   s( 1) = (     1          0          0      )
                  (     0          1          0      )
                  (     0          0          1      )

 cart.    s( 1) = (  1.0000000  0.0000000  0.0000000 )
                  (  0.0000000  1.0000000  0.0000000 )
                  (  0.0000000  0.0000000  1.0000000 )

      isym =  2     inversion

 cryst.   s( 2) = (    -1          0          0      )
                  (     0         -1          0      )
                  (     0          0         -1      )

 cart.    s( 2) = ( -1.0000000 -0.0000000 -0.0000000 )
                  (  0.0000000 -1.0000000 -0.0000000 )
                  (  0.0000000  0.0000000 -1.0000000 )

   Cartesian axes

     site n.     atom                  positions (alat units)
         1           Li  tau(   1) = (   1.0649327   0.3430803   0.7866257  )
         2           Li  tau(   2) = (   0.8119949   0.8858548   0.4017024  )
         3           Be  tau(   3) = (   1.0389908   0.9329640   1.0051806  )
         4           Be  tau(   4) = (   0.8379368   0.2959711   0.1831475  )
         5           B   tau(   5) = (   0.5657312   0.6186429   0.9176484  )
         6           B   tau(   6) = (   1.3111963   0.6102922   0.2706798  )
         7           O   tau(   7) = (   0.6704491   0.3457040   0.9047265  )
         8           O   tau(   8) = (   1.2064785   0.8832311   0.2836016  )
         9           O   tau(   9) = (   0.7375192   0.8518208   0.8422810  )
        10           O   tau(  10) = (   1.1394084   0.3771144   0.3460471  )
        11           O   tau(  11) = (   1.2770465   0.6624625   1.0047457  )
        12           O   tau(  12) = (   0.5998811   0.5664727   0.1835824  )

   Crystallographic axes

     site n.     atom                  positions (cryst. coord.)
         1           Li  tau(   1) = (  0.7435780  0.1327700  0.6619600  )
         2           Li  tau(   2) = (  0.2564220  0.8672300  0.3380400  )
         3           Be  tau(   3) = (  0.3559190  0.7260010  0.8458780  )
         4           Be  tau(   4) = (  0.6440810  0.2739990  0.1541220  )
         5           B   tau(   5) = (  0.0705340  0.4005870  0.7722180  )
         6           B   tau(   6) = (  0.9294660  0.5994130  0.2277820  )
         7           O   tau(   7) = (  0.3277760  0.0977120  0.7613440  )
         8           O   tau(   8) = (  0.6722240  0.9022880  0.2386560  )
         9           O   tau(   9) = (  0.1265570  0.6871490  0.7087950  )
        10           O   tau(  10) = (  0.8734430  0.3128510  0.2912050  )
        11           O   tau(  11) = (  0.7430550  0.4218490  0.8455120  )
        12           O   tau(  12) = (  0.2569450  0.5781510  0.1544880  )

     number of k points=     1  Methfessel-Paxton smearing, width (Ry)=  0.0010
                       cart. coord. in units 2pi/alat
        k(    1) = (   0.0000000   0.0000000   0.0000000), wk =   2.0000000

                       cryst. coord.
        k(    1) = (   0.0000000   0.0000000   0.0000000), wk =   2.0000000

     Check: negative core charge=   -0.000015

     Initial potential from superposition of free atoms

     starting charge      55.0976, renormalised to      56.0000
     Starting wfcs are   52 randomized atomic wfcs
     Checking if some PAW data can be deallocated...

     Self-consistent Calculation

     iteration #  1     ecut=    30.00 Ry     beta= 0.70
     Davidson diagonalization with overlap

     ethr =  1.00E-02,  avg # of iterations =  3.0

     total energy              =    -348.60966743 Ry
     estimated scf accuracy    <       1.21802757 Ry

[...]

     total energy              =    -349.09072315 Ry
     estimated scf accuracy    <       0.00000231 Ry

     iteration #  9     ecut=    30.00 Ry     beta= 0.70
     Davidson diagonalization with overlap

     ethr =  4.12E-09,  avg # of iterations =  2.0

     End of self-consistent calculation

          k = 0.0000 0.0000 0.0000 (   989 PWs)   bands (ev):

   -93.5713 -93.5703 -38.9477 -38.9306 -15.7324 -15.0148 -13.9110 -13.8806
   -13.6105 -13.5562  -3.6373  -2.7413  -2.3457  -1.8330  -1.8196  -1.3183
    -1.2316   0.7451   1.1666   1.3255   1.7745   2.2253   2.3872   2.5552
     2.6161   2.7133   2.9457   3.1495   9.2483  10.0230  11.5157  13.8942
    14.2764  14.4289

     occupation numbers
     1.0000   1.0000   1.0000   1.0000   1.0000   1.0000   1.0000   1.0000
     1.0000   1.0000   1.0000   1.0000   1.0000   1.0000   1.0000   1.0000
     1.0000   1.0000   1.0000   1.0000   1.0000   1.0000   1.0000   1.0000
     1.0000   1.0000   1.0000   1.0000  -0.0000  -0.0000  -0.0000  -0.0000
    -0.0000  -0.0000

     the Fermi energy is     7.7979 ev

!    total energy              =    -349.09072357 Ry
     estimated scf accuracy    <       0.00000013 Ry
     smearing contrib. (-TS)   =       0.00000000 Ry
     internal energy E=F+TS    =    -349.09072357 Ry

     The total energy is F=E-TS. E is the sum of the following terms:
     one-electron contribution =    -134.47688325 Ry
     hartree contribution      =      84.67902090 Ry
     xc contribution           =     -68.44548306 Ry
     ewald contribution        =    -173.84337369 Ry
     one-center paw contrib.   =     -57.00400446 Ry
      -> PAW hartree energy AE =     192.83826938 Ry
      -> PAW hartree energy PS =    -192.10439342 Ry
      -> PAW xc energy AE      =    -105.26274712 Ry
      -> PAW xc energy PS      =      47.52486670 Ry
      -> total E_H with PAW    =      85.41289686 Ry
      -> total E_XC with PAW   =    -126.18336348 Ry

     convergence has been achieved in   9 iterations

     Forces acting on atoms (cartesian axes, Ry/au):

     atom    1 type  1   force =     0.00321795    0.00515910   -0.00329024
     atom    2 type  1   force =    -0.00321795   -0.00515910    0.00329024
     atom    3 type  2   force =    -0.00193748    0.00310659    0.02631774
     atom    4 type  2   force =     0.00193748   -0.00310659   -0.02631774
     atom    5 type  3   force =     0.00751278    0.01134844    0.00882735
     atom    6 type  3   force =    -0.00751278   -0.01134844   -0.00882735
     atom    7 type  4   force =     0.02521797    0.00514937   -0.01500267
     atom    8 type  4   force =    -0.02521797   -0.00514937    0.01500267
     atom    9 type  4   force =    -0.02993024   -0.00191018   -0.04493461
     atom   10 type  4   force =     0.02993024    0.00191018    0.04493461
     atom   11 type  4   force =    -0.00233465   -0.01551317    0.04740322
     atom   12 type  4   force =     0.00233465    0.01551317   -0.04740322
     The non-local contrib.  to forces
     atom    1 type  1   force =     0.05063146    0.03983319   -0.03928663
     atom    2 type  1   force =    -0.05063146   -0.03983319    0.03928663
     atom    3 type  2   force =    -0.01803645   -0.05773303    0.06157629
     atom    4 type  2   force =     0.01803645    0.05773303   -0.06157629
     atom    5 type  3   force =    -0.04186850    0.04030824    0.02717293
     atom    6 type  3   force =     0.04186850   -0.04030824   -0.02717293
     atom    7 type  4   force =    -0.71223512    0.74476413    0.24848277
     atom    8 type  4   force =     0.71223512   -0.74476413   -0.24848277
     atom    9 type  4   force =    -0.28164757   -0.89199749    0.63930824
     atom   10 type  4   force =     0.28164757    0.89199749   -0.63930824
     atom   11 type  4   force =     0.82001416    0.15991885   -0.10037097
     atom   12 type  4   force =    -0.82001416   -0.15991885    0.10037097
     The ionic contribution  to forces
     atom    1 type  1   force =    -0.09114876    0.09265763   -0.76506810
     atom    2 type  1   force =     0.09114876   -0.09265763    0.76506810
     atom    3 type  2   force =     0.07433071    0.46764049   -1.50869363
     atom    4 type  2   force =    -0.07433071   -0.46764049    1.50869363
     atom    5 type  3   force =    -0.10560067    0.16796676   -1.01824701
     atom    6 type  3   force =     0.10560067   -0.16796676    1.01824701
     atom    7 type  4   force =     3.01737317   -1.43023131   -2.76069858
     atom    8 type  4   force =    -3.01737317    1.43023131    2.76069858
     atom    9 type  4   force =    -0.31244090    2.34406198   -4.19994810
     atom   10 type  4   force =     0.31244090   -2.34406198    4.19994810
     atom   11 type  4   force =    -1.41088082   -1.37191635   -3.30087497
     atom   12 type  4   force =     1.41088082    1.37191635    3.30087497
     The local contribution  to forces
     atom    1 type  1   force =     0.04370147   -0.12733147    0.80113733
     atom    2 type  1   force =    -0.04371535    0.12733515   -0.80114925
     atom    3 type  2   force =    -0.05818741   -0.40674355    1.47356456
     atom    4 type  2   force =     0.05820912    0.40677282   -1.47354305
     atom    5 type  3   force =     0.15167210   -0.19397883    1.00119939
     atom    6 type  3   force =    -0.15165342    0.19396208   -1.00118439
     atom    7 type  4   force =    -2.28632099    0.69655659    2.49973021
     atom    8 type  4   force =     2.28633527   -0.69657391   -2.49975244
     atom    9 type  4   force =     0.56216665   -1.46199085    3.52223345
     atom   10 type  4   force =    -0.56215591    1.46196956   -3.52225257
     atom   11 type  4   force =     0.59588200    1.19814228    3.44752243
     atom   12 type  4   force =    -0.59585491   -1.19815656   -3.44751841
     The core correction contribution to forces
     atom    1 type  1   force =     0.00000000    0.00000000    0.00000000
     atom    2 type  1   force =     0.00000000    0.00000000    0.00000000
     atom    3 type  2   force =     0.00000000    0.00000000    0.00000000
     atom    4 type  2   force =     0.00000000    0.00000000    0.00000000
     atom    5 type  3   force =     0.00335860   -0.00301985   -0.00119500
     atom    6 type  3   force =    -0.00335873    0.00302075    0.00119606
     atom    7 type  4   force =     0.00644898   -0.00606973   -0.00226265
     atom    8 type  4   force =    -0.00644885    0.00606919    0.00226258
     atom    9 type  4   force =     0.00210009    0.00804982   -0.00627542
     atom   10 type  4   force =    -0.00209948   -0.00804901    0.00627524
     atom   11 type  4   force =    -0.00742767   -0.00169303    0.00150880
     atom   12 type  4   force =     0.00742735    0.00169263   -0.00150933
     The Hubbard contrib.    to forces
     atom    1 type  1   force =     0.00000000    0.00000000    0.00000000
     atom    2 type  1   force =     0.00000000    0.00000000    0.00000000
     atom    3 type  2   force =     0.00000000    0.00000000    0.00000000
     atom    4 type  2   force =     0.00000000    0.00000000    0.00000000
     atom    5 type  3   force =     0.00000000    0.00000000    0.00000000
     atom    6 type  3   force =     0.00000000    0.00000000    0.00000000
     atom    7 type  4   force =     0.00000000    0.00000000    0.00000000
     atom    8 type  4   force =     0.00000000    0.00000000    0.00000000
     atom    9 type  4   force =     0.00000000    0.00000000    0.00000000
     atom   10 type  4   force =     0.00000000    0.00000000    0.00000000
     atom   11 type  4   force =     0.00000000    0.00000000    0.00000000
     atom   12 type  4   force =     0.00000000    0.00000000    0.00000000
     The SCF correction term to forces
     atom    1 type  1   force =     0.00003487   -0.00000205   -0.00006651
     atom    2 type  1   force =    -0.00001880   -0.00000524    0.00009108
     atom    3 type  2   force =    -0.00005381   -0.00004678   -0.00011312
     atom    4 type  2   force =     0.00001313    0.00003861    0.00012434
     atom    5 type  3   force =    -0.00004434    0.00008403   -0.00009811
     atom    6 type  3   force =     0.00003463   -0.00004435    0.00009175
     atom    7 type  4   force =    -0.00004368    0.00011537   -0.00025767
     atom    8 type  4   force =     0.00003806   -0.00012617    0.00027347
     atom    9 type  4   force =    -0.00009263   -0.00001916   -0.00024152
     atom   10 type  4   force =     0.00011303    0.00006861    0.00028334
     atom   11 type  4   force =     0.00005395    0.00002112   -0.00042343
     atom   12 type  4   force =    -0.00012819   -0.00003437    0.00033724

     Total force =     0.120965     Total SCF correction =     0.000856

     Computing stress (Cartesian axis) and pressure

          total   stress  (Ry/bohr**3)                   (kbar)     P=     -416.20
  -0.00287598   0.00006345   0.00005347         -423.07        9.33        7.87
   0.00006345  -0.00280607   0.00001447            9.33     -412.79        2.13
   0.00005347   0.00001447  -0.00280574            7.87        2.13     -412.74

     kinetic stress (kbar)  17201.49      5.64     78.17
                                5.64  17165.22     95.93
                               78.17     95.93  17739.37

     local   stress (kbar) -13503.03    477.41   2853.59
                              477.41 -15124.54   2306.69
                             2853.59   2306.69   1541.17

     nonloc. stress (kbar)   1779.06     -1.57     -4.41
                               -1.57   1784.57      5.74
                               -4.41      5.74   1745.81

     hartree stress (kbar)   7389.55   -203.62   -792.56
                             -203.62   7802.62   -770.18
                             -792.56   -770.18   2326.88

     exc-cor stress (kbar)  -3520.65     -0.22    -10.37
                               -0.22  -3514.87     -5.30
                              -10.37     -5.30  -3556.79

     corecor stress (kbar)   -847.85      0.51      4.24
                                0.51   -852.38      1.01
                                4.24      1.01   -838.16

     ewald   stress (kbar)  -8921.65   -268.79  -2120.79
                             -268.79  -7673.42  -1631.76
                            -2120.79  -1631.76 -19371.01

     hubbard stress (kbar)      0.00      0.00      0.00
                                0.00      0.00      0.00
                                0.00      0.00      0.00

     DFT-D   stress (kbar)      0.00      0.00      0.00
                                0.00      0.00      0.00
                                0.00      0.00      0.00

     XDM     stress (kbar)      0.00      0.00      0.00
                                0.00      0.00      0.00
                                0.00      0.00      0.00

     dft-nl  stress (kbar)      0.00      0.00      0.00
                                0.00      0.00      0.00
                                0.00      0.00      0.00

     TS-vdW  stress (kbar)      0.00      0.00      0.00
                                0.00      0.00      0.00
                                0.00      0.00      0.00

[...]

                                0.00      0.00      0.00

     Writing all to output data dir new_calculations/myprefix.save/

     General routines

     Parallel routines

     PAW routines

   This run was terminated on:   0:42:51  20May2023

   JOB DONE.