     Program PWSCF v.7.0 starts on 20May2023 at 21:49:14

     Reading input from espresso_1755.pwi
Warning: card &CELL ignored
Warning: card / ignored

     Current dimensions of program PWSCF are:
     Max number of different atomic species (ntypx) = 10
     Max number of k-points (npk) =  40000
     Max angular momentum in pseudopotentials (lmaxx) =  4

     gamma-point specific algorithms are used
     Message from routine setup:
     using ibrav=0 with symmetry is DISCOURAGED, use correct ibrav instead

     Subspace diagonalization in iterative solution of the eigenvalue problem:
     a serial algorithm will be used

     Using Slab Decomposition

     bravais-lattice index     =            0
     lattice parameter (alat)  =      11.0429  a.u.
     unit-cell volume          =    1516.5995 (a.u.)^3
     number of atoms/cell      =           14
     number of atomic types    =            4
     number of electrons       =       100.00
     number of Kohn-Sham states=           60
     kinetic-energy cutoff     =      30.0000  Ry
     charge density cutoff     =     240.0000  Ry
     scf convergence threshold =      1.0E-06
     mixing beta               =       0.7000
     number of iterations used =            8  plain     mixing
     Exchange-correlation=  SLA  PW   PBX  PBC
                           (   1   4   3   4   0   0   0)

     celldm(1)=  11.042893  celldm(2)=   0.000000  celldm(3)=   0.000000
     celldm(4)=   0.000000  celldm(5)=   0.000000  celldm(6)=   0.000000

     crystal axes: (cart. coord. in units of alat)
               a(1) = (   1.000000   0.000000   0.000000 )
               a(2) = (  -0.500000   0.866025   0.000000 )
               a(3) = (   0.000000   0.000000   1.300444 )

     reciprocal axes: (cart. coord. in units 2 pi/alat)
               b(1) = (  1.000000  0.577350  0.000000 )
               b(2) = (  0.000000  1.154700  0.000000 )
               b(3) = (  0.000000  0.000000  0.768968 )

     PseudoPot. # 1 for Rb read from file:
     /home/pragov/projects/rrg-bengioy-ad/pragov/crystal_structure_design/SSSP/Rb_ONCV_PBE-1.0.oncvpsp.upf
     MD5 check sum: 55a5172d6bfbce6759a58e35d43f6aa9
     Pseudo is Norm-conserving, Zval =  9.0
     Generated using ONCVPSP code by D. R. Hamann
     Using radial grid of 2308 points,  6 beta functions with:
                l(1) =   0
                l(2) =   0
                l(3) =   1
                l(4) =   1
                l(5) =   2
                l(6) =   2

     PseudoPot. # 2 for Na read from file:
     /home/pragov/projects/rrg-bengioy-ad/pragov/crystal_structure_design/SSSP/na_pbe_v1.5.uspp.F.UPF
     MD5 check sum: 44600605ef58000f06b90626533354dc
     Pseudo is Ultrasoft, Zval =  9.0
     Generated by new atomic code, or converted to UPF format
     Using radial grid of  819 points,  5 beta functions with:
                l(1) =   0
                l(2) =   0
                l(3) =   1
                l(4) =   1
                l(5) =   2
     Q(r) pseudized with  8 coefficients,  rinner =    1.250   1.250   1.250
                                                       1.250   1.250

     PseudoPot. # 3 for Be read from file:
     /home/pragov/projects/rrg-bengioy-ad/pragov/crystal_structure_design/SSSP/be_pbe_v1.4.uspp.F.UPF
     MD5 check sum: 5ecff1440924c7c98ad504bef30f5264
     Pseudo is Ultrasoft, Zval =  4.0
     Generated by new atomic code, or converted to UPF format
     Using radial grid of  769 points,  6 beta functions with:
                l(1) =   0
                l(2) =   0
                l(3) =   0
                l(4) =   1
                l(5) =   1
                l(6) =   2
     Q(r) pseudized with 10 coefficients,  rinner =    1.000   1.000   1.000
                                                       1.000   1.000

     PseudoPot. # 4 for F  read from file:
     /home/pragov/projects/rrg-bengioy-ad/pragov/crystal_structure_design/SSSP/f_pbe_v1.4.uspp.F.UPF
     MD5 check sum: 4c38b6a325caf53ec0e86aed9459de46
     Pseudo is Ultrasoft, Zval =  7.0
     Generated by new atomic code, or converted to UPF format
     Using radial grid of  799 points,  4 beta functions with:
                l(1) =   0
                l(2) =   0
                l(3) =   1
                l(4) =   1
     Q(r) pseudized with  8 coefficients,  rinner =    0.950   0.950   0.950

     atomic species   valence    mass     pseudopotential
        Rb             9.00    85.46780     Rb( 1.00)
        Na             9.00    22.98977     Na( 1.00)
        Be             4.00     9.01218     Be( 1.00)
        F              7.00    18.99840     F ( 1.00)

     12 Sym. Ops., with inversion, found

                                    s                        frac. trans.

      isym =  1     identity

 cryst.   s( 1) = (     1          0          0      )
                  (     0          1          0      )
                  (     0          0          1      )

 cart.    s( 1) = (  1.0000000  0.0000000  0.0000000 )
                  (  0.0000000  1.0000000  0.0000000 )
                  (  0.0000000  0.0000000  1.0000000 )

      isym =  2     180 deg rotation - cart. axis [1,0,0]

[...]

      isym =  3     120 deg rotation - cryst. axis [0,0,1]

[...]

      isym =  6     180 deg rotation - cryst. axis [1,1,0]

[...]

      isym =  7     inversion

[...]

      isym =  8     inv. 180 deg rotation - cart. axis [1,0,0]

[...]

      isym =  9     inv. 120 deg rotation - cryst. axis [0,0,1]

 cryst.   s( 9) = (     0         -1          0      )
                  (     1          1          0      )
                  (     0          0         -1      )

 cart.    s( 9) = (  0.4999999  0.8660254  0.0000000 )
                  ( -0.8660255  0.5000001  0.0000000 )
                  (  0.0000000  0.0000000 -1.0000000 )

[...]

 cryst.   s(10) = (     1          1          0      )
                  (    -1          0          0      )
                  (     0          0         -1      )

 cart.    s(10) = (  0.5000001 -0.8660254  0.0000000 )
                  (  0.8660255  0.4999999  0.0000000 )
                  (  0.0000000  0.0000000 -1.0000000 )

[...]

      isym = 12     inv. 180 deg rotation - cryst. axis [1,1,0]

 cryst.   s(12) = (     0         -1          0      )
                  (    -1          0          0      )
                  (     0          0          1      )

 cart.    s(12) = (  0.4999999 -0.8660255  0.0000000 )
                  ( -0.8660255 -0.4999999  0.0000000 )
                  (  0.0000000  0.0000000  1.0000000 )

   Cartesian axes

     site n.     atom                  positions (alat units)
         1           Rb  tau(   1) = (  -0.0000004   0.5773506   0.2352412  )
         2           Rb  tau(   2) = (   0.0000000   0.0000000   0.6502220  )
         3           Rb  tau(   3) = (   0.5000005   0.2886749   1.0652027  )
         4           Na  tau(   4) = (   0.0000000   0.0000000   0.0000000  )
         5           Be  tau(   5) = (  -0.0000004   0.5773506   0.9644769  )
         6           Be  tau(   6) = (   0.5000005   0.2886749   0.3359671  )
         7           F   tau(   7) = (   0.2802555   0.1618056   0.2374650  )
         8           F   tau(   8) = (   0.2197446   0.7042199   1.0629790  )
         9           F   tau(   9) = (   0.7197445   0.1618056   0.2374650  )
        10           F   tau(  10) = (   0.5000001   0.5424143   0.2374650  )
        11           F   tau(  11) = (  -0.0000004   0.5773506   0.7025479  )
        12           F   tau(  12) = (   0.5000005   0.2886749   0.5978960  )
        13           F   tau(  13) = (  -0.2197444   0.7042199   1.0629790  )
        14           F   tau(  14) = (   0.0000000   0.3236112   1.0629790  )

   Crystallographic axes

     site n.     atom                  positions (cryst. coord.)
         1           Rb  tau(   1) = (  0.3333330  0.6666670  0.1808930  )
         2           Rb  tau(   2) = (  0.0000000  0.0000000  0.5000000  )
         3           Rb  tau(   3) = (  0.6666670  0.3333330  0.8191070  )
         4           Na  tau(   4) = (  0.0000000  0.0000000  0.0000000  )
         5           Be  tau(   5) = (  0.3333330  0.6666670  0.7416520  )
         6           Be  tau(   6) = (  0.6666670  0.3333330  0.2583480  )
         7           F   tau(   7) = (  0.3736740  0.1868370  0.1826030  )
         8           F   tau(   8) = (  0.6263260  0.8131630  0.8173970  )
         9           F   tau(   9) = (  0.8131630  0.1868370  0.1826030  )
        10           F   tau(  10) = (  0.8131630  0.6263260  0.1826030  )
        11           F   tau(  11) = (  0.3333330  0.6666670  0.5402370  )
        12           F   tau(  12) = (  0.6666670  0.3333330  0.4597630  )
        13           F   tau(  13) = (  0.1868370  0.8131630  0.8173970  )
        14           F   tau(  14) = (  0.1868370  0.3736740  0.8173970  )

     number of k points=     1  Methfessel-Paxton smearing, width (Ry)=  0.0010
                       cart. coord. in units 2pi/alat
        k(    1) = (   0.0000000   0.0000000   0.0000000), wk =   2.0000000

                       cryst. coord.
        k(    1) = (   0.0000000   0.0000000   0.0000000), wk =   2.0000000

     Initial potential from superposition of free atoms

     starting charge      99.9191, renormalised to     100.0000
     Starting wfcs are   62 randomized atomic wfcs

     Self-consistent Calculation

     iteration #  1     ecut=    30.00 Ry     beta= 0.70
     Davidson diagonalization with overlap

     ethr =  1.00E-02,  avg # of iterations =  8.0

     total energy              =    -688.54798163 Ry
     estimated scf accuracy    <       1.44496727 Ry

[...]

     total energy              =    -689.14247356 Ry
     estimated scf accuracy    <       0.00001767 Ry

     iteration #  7     ecut=    30.00 Ry     beta= 0.70
     Davidson diagonalization with overlap

     ethr =  1.77E-08,  avg # of iterations =  2.0

     End of self-consistent calculation

          k = 0.0000 0.0000 0.0000 (  2107 PWs)   bands (ev):

   -94.3941 -94.3907 -46.6835 -22.0439 -21.7001 -21.6641 -19.1677 -19.0507
   -18.8877 -18.8876 -18.6073 -18.6071 -18.5298 -18.4637 -18.3492 -18.3294
   -18.3293  -6.1781  -6.1557  -6.1557  -6.0138  -6.0138  -5.9228  -5.8892
    -5.8892  -5.7908  -2.2626  -1.9896  -1.2763  -1.2219  -1.2075  -1.2074
    -1.1541  -1.1540  -0.1178  -0.1178   0.0575   0.0575   0.1750   0.4042
     0.4042   0.4783   0.5865   0.5865   0.7338   0.8242   0.8620   0.8620
     0.9460   0.9461   7.5846  10.2701  10.2701  10.2849  10.6995  11.0362
    11.0362  11.5390  11.5391  12.5388

     occupation numbers
     1.0000   1.0000   1.0000   1.0000   1.0000   1.0000   1.0000   1.0000
     1.0000   1.0000   1.0000   1.0000   1.0000   1.0000   1.0000   1.0000
     1.0000   1.0000   1.0000   1.0000   1.0000   1.0000   1.0000   1.0000
     1.0000   1.0000   1.0000   1.0000   1.0000   1.0000   1.0000   1.0000
     1.0000   1.0000   1.0000   1.0000   1.0000   1.0000   1.0000   1.0000
     1.0000   1.0000   1.0000   1.0000   1.0000   1.0000   1.0000   1.0000
     1.0000   1.0000  -0.0000  -0.0000  -0.0000  -0.0000  -0.0000  -0.0000
    -0.0000  -0.0000  -0.0000  -0.0000

     the Fermi energy is     5.9746 ev

!    total energy              =    -689.14247557 Ry
     estimated scf accuracy    <       0.00000082 Ry
     smearing contrib. (-TS)   =       0.00000000 Ry
     internal energy E=F+TS    =    -689.14247557 Ry

     The total energy is F=E-TS. E is the sum of the following terms:
     one-electron contribution =    -403.18758761 Ry
     hartree contribution      =     239.84228900 Ry
     xc contribution           =    -122.79667627 Ry
     ewald contribution        =    -403.00050069 Ry

     convergence has been achieved in   7 iterations

     Forces acting on atoms (cartesian axes, Ry/au):

     atom    1 type  1   force =     0.00000000   -0.00000000   -0.00309965
     atom    2 type  1   force =     0.00000000   -0.00000000    0.00000000
     atom    3 type  1   force =     0.00000000   -0.00000000    0.00309965
     atom    4 type  2   force =     0.00000000    0.00000000    0.00000000
     atom    5 type  3   force =     0.00000000    0.00000000    0.01153852
     atom    6 type  3   force =     0.00000000    0.00000000   -0.01153852
     atom    7 type  4   force =     0.00738017    0.00426094    0.00272482
     atom    8 type  4   force =    -0.00738017   -0.00426094   -0.00272482
     atom    9 type  4   force =    -0.00738017    0.00426094    0.00272482
     atom   10 type  4   force =     0.00000000   -0.00852188    0.00272482
     atom   11 type  4   force =     0.00000000   -0.00000000   -0.00273980
     atom   12 type  4   force =     0.00000000    0.00000000    0.00273980
     atom   13 type  4   force =     0.00738017   -0.00426094   -0.00272482
     atom   14 type  4   force =    -0.00000000    0.00852188   -0.00272482
     The non-local contrib.  to forces
     atom    1 type  1   force =     0.00000000   -0.00000000   -0.01376646
     atom    2 type  1   force =     0.00000000    0.00000000    0.00000000
     atom    3 type  1   force =     0.00000000    0.00000000    0.01376646
     atom    4 type  2   force =     0.00000000    0.00000000    0.00000000
     atom    5 type  3   force =     0.00000000    0.00000000    0.06060306
     atom    6 type  3   force =     0.00000000    0.00000000   -0.06060306
     atom    7 type  4   force =     0.61203553    0.35335879    0.23188400
     atom    8 type  4   force =    -0.61203553   -0.35335879   -0.23188400
     atom    9 type  4   force =    -0.61203553    0.35335892    0.23188400
     atom   10 type  4   force =    -0.00000000   -0.70671771    0.23188400
     atom   11 type  4   force =     0.00000000   -0.00000000    0.96215135
     atom   12 type  4   force =    -0.00000000    0.00000000   -0.96215135
     atom   13 type  4   force =     0.61203553   -0.35335892   -0.23188400
     atom   14 type  4   force =    -0.00000000    0.70671771   -0.23188400
     The ionic contribution  to forces
     atom    1 type  1   force =     0.00003745   -0.00002162    3.78668522
     atom    2 type  1   force =    -0.00000000    0.00000000   -0.00000000
     atom    3 type  1   force =    -0.00003745    0.00002162   -3.78668522
     atom    4 type  2   force =    -0.00000000   -0.00000000    0.00000000
     atom    5 type  3   force =     0.00002737   -0.00001580   -1.73219053
     atom    6 type  3   force =    -0.00002737    0.00001580    1.73219053
     atom    7 type  4   force =    -4.26898212   -2.46465804    1.57752138
     atom    8 type  4   force =     4.26898212    2.46465804   -1.57752138
     atom    9 type  4   force =     4.26900407   -2.46471095    1.57749654
     atom   10 type  4   force =    -0.00003406    4.92937599    1.57752138
     atom   11 type  4   force =     0.00002074   -0.00001198   -8.60508757
     atom   12 type  4   force =    -0.00002074    0.00001198    8.60508757
     atom   13 type  4   force =    -4.26900407    2.46471095   -1.57749654
     atom   14 type  4   force =     0.00003406   -4.92937598   -1.57752138
     The local contribution  to forces
     atom    1 type  1   force =    -0.00004670    0.00005860   -3.77600364
     atom    2 type  1   force =    -0.00003044   -0.00003398   -0.00004078
     atom    3 type  1   force =     0.00006152    0.00001528    3.77598425
     atom    4 type  2   force =    -0.00000423   -0.00000434    0.00000717
     atom    5 type  3   force =    -0.00002319    0.00002058    1.68311547
     atom    6 type  3   force =     0.00003402   -0.00001663   -1.68311401
     atom    7 type  4   force =     3.66480922    2.11584317   -1.80659548
     atom    8 type  4   force =    -3.66478654   -2.11583451    1.80661091
     atom    9 type  4   force =    -3.66480359    2.11587508   -1.80658616
     atom   10 type  4   force =     0.00003551   -4.23171998   -1.80659959
     atom   11 type  4   force =    -0.00002488    0.00002099    7.64069259
     atom   12 type  4   force =     0.00002718   -0.00001614   -7.64070912
     atom   13 type  4   force =     3.66481830   -2.11587645    1.80656624
     atom   14 type  4   force =    -0.00002737    4.23173151    1.80660055
     The core correction contribution to forces
     atom    1 type  1   force =     0.00000000    0.00000000    0.00000000
     atom    2 type  1   force =     0.00000000    0.00000000    0.00000000
     atom    3 type  1   force =     0.00000000    0.00000000    0.00000000
     atom    4 type  2   force =     0.00000000    0.00000000    0.00000000
     atom    5 type  3   force =     0.00000000    0.00000000    0.00000000
     atom    6 type  3   force =     0.00000000    0.00000000    0.00000000
     atom    7 type  4   force =     0.00000000    0.00000000    0.00000000
     atom    8 type  4   force =     0.00000000    0.00000000    0.00000000
     atom    9 type  4   force =     0.00000000    0.00000000    0.00000000
     atom   10 type  4   force =     0.00000000    0.00000000    0.00000000
     atom   11 type  4   force =     0.00000000    0.00000000    0.00000000
     atom   12 type  4   force =     0.00000000    0.00000000    0.00000000
     atom   13 type  4   force =     0.00000000    0.00000000    0.00000000
     atom   14 type  4   force =     0.00000000    0.00000000    0.00000000
     The Hubbard contrib.    to forces
     atom    1 type  1   force =     0.00000000    0.00000000    0.00000000
     atom    2 type  1   force =     0.00000000    0.00000000    0.00000000
     atom    3 type  1   force =     0.00000000    0.00000000    0.00000000
     atom    4 type  2   force =     0.00000000    0.00000000    0.00000000
     atom    5 type  3   force =     0.00000000    0.00000000    0.00000000
     atom    6 type  3   force =     0.00000000    0.00000000    0.00000000
     atom    7 type  4   force =     0.00000000    0.00000000    0.00000000
     atom    8 type  4   force =     0.00000000    0.00000000    0.00000000
     atom    9 type  4   force =     0.00000000    0.00000000    0.00000000
     atom   10 type  4   force =     0.00000000    0.00000000    0.00000000
     atom   11 type  4   force =     0.00000000    0.00000000    0.00000000
     atom   12 type  4   force =     0.00000000    0.00000000    0.00000000
     atom   13 type  4   force =     0.00000000    0.00000000    0.00000000
     atom   14 type  4   force =     0.00000000    0.00000000    0.00000000
     The SCF correction term to forces
     atom    1 type  1   force =     0.00000817   -0.00004835   -0.00002080
     atom    2 type  1   force =     0.00002777    0.00002890    0.00004024
     atom    3 type  1   force =    -0.00000923   -0.00002614    0.00002813
     atom    4 type  2   force =     0.00001005   -0.00000385   -0.00000614
     atom    5 type  3   force =    -0.00001258   -0.00001342    0.00001525
     atom    6 type  3   force =    -0.00001891   -0.00000278   -0.00000726
     atom    7 type  4   force =    -0.00048578   -0.00027887   -0.00008267
     atom    8 type  4   force =     0.00045114    0.00027011    0.00006505
     atom    9 type  4   force =     0.00046601   -0.00026570   -0.00007915
     atom   10 type  4   force =     0.00000344    0.00055275   -0.00008248
     atom   11 type  4   force =     0.00000199   -0.00001697   -0.00049286
     atom   12 type  4   force =    -0.00000490    0.00001468    0.00051600
     atom   13 type  4   force =    -0.00047073    0.00024947    0.00008907
     atom   14 type  4   force =    -0.00001759   -0.00054181    0.00007630

     Total force =     0.027943     Total SCF correction =     0.001522

     Computing stress (Cartesian axis) and pressure

          total   stress  (Ry/bohr**3)                   (kbar)     P=      -72.81
  -0.00038200   0.00000000   0.00000000          -56.19        0.00        0.00
   0.00000000  -0.00038200  -0.00000000            0.00      -56.19       -0.00
   0.00000000  -0.00000000  -0.00072092            0.00       -0.00     -106.05

     kinetic stress (kbar)  13702.78     -0.00      0.00
                               -0.00  13702.78     -0.00
                                0.00     -0.00  13620.62

     local   stress (kbar)  -2298.02      0.02      0.00
                                0.02  -2298.01     -0.00
                                0.00     -0.00    757.17

     nonloc. stress (kbar)  -3412.21      0.00      0.00
                                0.00  -3412.21      0.00
                                0.00      0.00  -3428.42

     hartree stress (kbar)   8273.73     -0.01     -0.00
                               -0.01   8273.73      0.00
                               -0.00      0.00   6716.44

     exc-cor stress (kbar)  -3776.54     -0.00     -0.00
                               -0.00  -3776.54      0.00
                               -0.00      0.00  -3774.04

     corecor stress (kbar)      0.00      0.00      0.00
                                0.00      0.00      0.00
                                0.00      0.00      0.00

     ewald   stress (kbar) -12545.94     -0.01     -0.00
                               -0.01 -12545.95      0.00
                               -0.00      0.00 -13997.81

     hubbard stress (kbar)      0.00      0.00      0.00
                                0.00      0.00      0.00
                                0.00      0.00      0.00

     DFT-D   stress (kbar)      0.00      0.00      0.00
                                0.00      0.00      0.00
                                0.00      0.00      0.00

     XDM     stress (kbar)      0.00      0.00      0.00
                                0.00      0.00      0.00
                                0.00      0.00      0.00

     dft-nl  stress (kbar)      0.00      0.00      0.00
                                0.00      0.00      0.00
                                0.00      0.00      0.00

     TS-vdW  stress (kbar)      0.00      0.00      0.00
                                0.00      0.00      0.00
                                0.00      0.00      0.00

[...]

                                0.00      0.00      0.00

     Writing all to output data dir new_calculations/myprefix.save/

     General routines

     Parallel routines

   This run was terminated on:  21:49:37  20May2023

   JOB DONE.