     Program PWSCF v.7.0 starts on 21May2023 at  8:10:23

     Reading input from espresso_12939.pwi
Warning: card &CELL ignored
Warning: card / ignored

     Current dimensions of program PWSCF are:
     Max number of different atomic species (ntypx) = 10
     Max number of k-points (npk) =  40000
     Max angular momentum in pseudopotentials (lmaxx) =  4
     file Mg.pbe-n-kjpaw_psl.0.3.0.UPF: wavefunction(s)  3S renormalized

     gamma-point specific algorithms are used
     Message from routine setup:
     using ibrav=0 with symmetry is DISCOURAGED, use correct ibrav instead

     Subspace diagonalization in iterative solution of the eigenvalue problem:
     a serial algorithm will be used

     Using Slab Decomposition

     bravais-lattice index     =            0
     lattice parameter (alat)  =       8.6858  a.u.
     unit-cell volume          =    2069.8981 (a.u.)^3
     number of atoms/cell      =           12
     number of atomic types    =            3
     number of electrons       =        64.00
     number of Kohn-Sham states=           38
     kinetic-energy cutoff     =      30.0000  Ry
     charge density cutoff     =     240.0000  Ry
     scf convergence threshold =      1.0E-06
     mixing beta               =       0.7000
     number of iterations used =            8  plain     mixing
     Exchange-correlation= PBE
                           (   1   4   3   4   0   0   0)

     celldm(1)=   8.685814  celldm(2)=   0.000000  celldm(3)=   0.000000
     celldm(4)=   0.000000  celldm(5)=   0.000000  celldm(6)=   0.000000

     crystal axes: (cart. coord. in units of alat)
               a(1) = (   1.000000   0.000000   0.000000 )
               a(2) = (   0.000000   1.701962   0.000000 )
               a(3) = (   0.000000   0.000000   1.855955 )

     reciprocal axes: (cart. coord. in units 2 pi/alat)
               b(1) = (  1.000000  0.000000  0.000000 )
               b(2) = (  0.000000  0.587557  0.000000 )
               b(3) = (  0.000000  0.000000  0.538806 )

     PseudoPot. # 1 for Sr read from file:
     /home/pragov/projects/rrg-bengioy-ad/pragov/crystal_structure_design/SSSP/Sr_pbe_v1.uspp.F.UPF
     MD5 check sum: 6b418c05fbe9db5448babca5e47b7a5b
     Pseudo is Ultrasoft + core correction, Zval = 10.0
     Generated by new atomic code, or converted to UPF format
     Using radial grid of  883 points,  6 beta functions with:
                l(1) =   0
                l(2) =   0
                l(3) =   1
                l(4) =   1
                l(5) =   2
                l(6) =   2
     Q(r) pseudized with  6 coefficients,  rinner =    1.400   1.400   1.400
                                                       1.400   1.400

     PseudoPot. # 2 for Mg read from file:
     /home/pragov/projects/rrg-bengioy-ad/pragov/crystal_structure_design/SSSP/Mg.pbe-n-kjpaw_psl.0.3.0.UPF
     MD5 check sum: 24ecedc7f3e3cbe212e682f4413594e4
     Pseudo is Projector augmented-wave + core cor, Zval =  2.0
     Generated using "atomic" code by A. Dal Corso  v.5.0.99 svn rev. 10869
     Shape of augmentation charge: PSQ
     Using radial grid of 1129 points,  4 beta functions with:
                l(1) =   0
                l(2) =   0
                l(3) =   1
                l(4) =   1
     Q(r) pseudized with 0 coefficients

     PseudoPot. # 3 for Si read from file:
     /home/pragov/projects/rrg-bengioy-ad/pragov/crystal_structure_design/SSSP/Si.pbe-n-rrkjus_psl.1.0.0.UPF
     MD5 check sum: 0b0bb1205258b0d07b9f9672cf965d36
     Pseudo is Ultrasoft + core correction, Zval =  4.0
     Generated using "atomic" code by A. Dal Corso  v.5.1
     Using radial grid of 1141 points,  6 beta functions with:
                l(1) =   0
                l(2) =   0
                l(3) =   1
                l(4) =   1
                l(5) =   2
                l(6) =   2
     Q(r) pseudized with 0 coefficients

     atomic species   valence    mass     pseudopotential
        Sr            10.00    87.62000     Sr( 1.00)
        Mg             2.00    24.30500     Mg( 1.00)
        Si             4.00    28.08500     Si( 1.00)

      8 Sym. Ops., with inversion, found ( 6 have fractional translation)

                                    s                        frac. trans.

      isym =  1     identity

 cryst.   s( 1) = (     1          0          0      )
                  (     0          1          0      )
                  (     0          0          1      )

 cart.    s( 1) = (  1.0000000  0.0000000  0.0000000 )
                  (  0.0000000  1.0000000  0.0000000 )
                  (  0.0000000  0.0000000  1.0000000 )

      isym =  2     180 deg rotation - cart. axis [0,0,1]

 cryst.   s( 2) = (    -1          0          0      )    f =(  0.0000000 )
                  (     0         -1          0      )       (  0.5000000 )
                  (     0          0          1      )       ( -0.5000000 )

 cart.    s( 2) = ( -1.0000000  0.0000000  0.0000000 )    f =(  0.0000000 )
                  (  0.0000000 -1.0000000  0.0000000 )       (  0.8509811 )
                  (  0.0000000  0.0000000  1.0000000 )       ( -0.9279775 )

[...]

      isym =  4     180 deg rotation - cart. axis [1,0,0]

[...]

      isym =  5     inversion

 cryst.   s( 5) = (    -1          0          0      )
                  (     0         -1          0      )
                  (     0          0         -1      )

 cart.    s( 5) = ( -1.0000000  0.0000000  0.0000000 )
                  (  0.0000000 -1.0000000  0.0000000 )
                  (  0.0000000  0.0000000 -1.0000000 )

      isym =  6     inv. 180 deg rotation - cart. axis [0,0,1]

[...]

      isym =  8     inv. 180 deg rotation - cart. axis [1,0,0]

 cryst.   s( 8) = (    -1          0          0      )    f =(  0.5000000 )
                  (     0          1          0      )       (  0.0000000 )
                  (     0          0          1      )       (  0.0000000 )

 cart.    s( 8) = ( -1.0000000  0.0000000  0.0000000 )    f =(  0.5000000 )
                  (  0.0000000  1.0000000  0.0000000 )       (  0.0000000 )
                  (  0.0000000  0.0000000  1.0000000 )       (  0.0000000 )

   Cartesian axes

     site n.     atom                  positions (alat units)
         1           Sr  tau(   1) = (   0.2500000   0.0254852   0.3404972  )
         2           Sr  tau(   2) = (   0.2500000   0.8764662   0.5874803  )
         3           Sr  tau(   3) = (   0.7500000   0.8254959   1.2684747  )
         4           Sr  tau(   4) = (   0.7500000   1.6764769   1.5154578  )
         5           Mg  tau(   5) = (   0.7500000   0.6073877   0.1183097  )
         6           Mg  tau(   6) = (   0.2500000   1.0945744   1.7376453  )
         7           Mg  tau(   7) = (   0.7500000   1.4583688   0.8096678  )
         8           Mg  tau(   8) = (   0.2500000   0.2435933   1.0462872  )
         9           Si  tau(   9) = (   0.7500000   0.3722957   0.7247319  )
        10           Si  tau(  10) = (   0.2500000   0.4786854   1.6527094  )
        11           Si  tau(  11) = (   0.2500000   1.3296664   1.1312231  )
        12           Si  tau(  12) = (   0.7500000   1.2232768   0.2032456  )

   Crystallographic axes

     site n.     atom                  positions (cryst. coord.)
         1           Sr  tau(   1) = (  0.2500000  0.0149740  0.1834620  )
         2           Sr  tau(   2) = (  0.2500000  0.5149740  0.3165380  )
         3           Sr  tau(   3) = (  0.7500000  0.4850260  0.6834620  )
         4           Sr  tau(   4) = (  0.7500000  0.9850260  0.8165380  )
         5           Mg  tau(   5) = (  0.7500000  0.3568750  0.0637460  )
         6           Mg  tau(   6) = (  0.2500000  0.6431250  0.9362540  )
         7           Mg  tau(   7) = (  0.7500000  0.8568750  0.4362540  )
         8           Mg  tau(   8) = (  0.2500000  0.1431250  0.5637460  )
         9           Si  tau(   9) = (  0.7500000  0.2187450  0.3904900  )
        10           Si  tau(  10) = (  0.2500000  0.2812550  0.8904900  )
        11           Si  tau(  11) = (  0.2500000  0.7812550  0.6095100  )
        12           Si  tau(  12) = (  0.7500000  0.7187450  0.1095100  )

     number of k points=     1  Methfessel-Paxton smearing, width (Ry)=  0.0010
                       cart. coord. in units 2pi/alat
        k(    1) = (   0.0000000   0.0000000   0.0000000), wk =   2.0000000

                       cryst. coord.
        k(    1) = (   0.0000000   0.0000000   0.0000000), wk =   2.0000000

     Check: negative core charge=   -0.000002

     Initial potential from superposition of free atoms

     starting charge      63.8595, renormalised to      64.0000

     negative rho (up, down):  2.566E-01 0.000E+00
     Starting wfcs are   84 randomized atomic wfcs
     Checking if some PAW data can be deallocated...

     Self-consistent Calculation

     iteration #  1     ecut=    30.00 Ry     beta= 0.70
     Davidson diagonalization with overlap

     ethr =  1.00E-02,  avg # of iterations =  2.0

     negative rho (up, down):  2.613E-01 0.000E+00

     total energy              =    -460.05051977 Ry
     estimated scf accuracy    <       1.15635196 Ry

[...]

     total energy              =    -460.50513187 Ry
     estimated scf accuracy    <       0.00000133 Ry

     iteration # 17     ecut=    30.00 Ry     beta= 0.70
     Davidson diagonalization with overlap

     ethr =  2.08E-09,  avg # of iterations =  2.0

[...]

     End of self-consistent calculation

          k = 0.0000 0.0000 0.0000 (  2862 PWs)   bands (ev):

   -28.7721 -28.7622 -28.7547 -28.7450 -11.0433 -11.0245 -10.9431 -10.8882
   -10.8603 -10.8514 -10.7895 -10.7649 -10.7425 -10.7105 -10.7103 -10.6874
    -1.5448  -0.4467  -0.2387  -0.1336   2.8285   2.9995   3.9409   4.3126
     4.6512   5.5390   5.6294   5.6567   5.9839   6.5361   6.5803   6.7006
     6.7171   6.9513   7.7123   7.9919   8.1645   8.2306

     occupation numbers
     1.0000   1.0000   1.0000   1.0000   1.0000   1.0000   1.0000   1.0000
     1.0000   1.0000   1.0000   1.0000   1.0000   1.0000   1.0000   1.0000
     1.0000   1.0000   1.0000   1.0000   1.0000   1.0000   1.0000   1.0000
     1.0000   1.0000   1.0000   1.0000   1.0000   1.0000   1.0000   0.9225
     0.0775  -0.0000  -0.0000  -0.0000  -0.0000  -0.0000

     the Fermi energy is     6.7088 ev

!    total energy              =    -460.50513195 Ry
     estimated scf accuracy    <       0.00000011 Ry
     smearing contrib. (-TS)   =      -0.00010423 Ry
     internal energy E=F+TS    =    -460.50502771 Ry

     The total energy is F=E-TS. E is the sum of the following terms:
     one-electron contribution =     -72.55783108 Ry
     hartree contribution      =      56.20248632 Ry
     xc contribution           =    -104.08879241 Ry
     ewald contribution        =    -214.91077071 Ry
     one-center paw contrib.   =    -125.15011983 Ry
      -> PAW hartree energy AE =       2.81668678 Ry
      -> PAW hartree energy PS =      -2.80980000 Ry
      -> PAW xc energy AE      =    -130.22489396 Ry
      -> PAW xc energy PS      =       5.06788735 Ry
      -> total E_H with PAW    =      56.20937310 Ry
      -> total E_XC with PAW   =    -229.24579902 Ry

     convergence has been achieved in  17 iterations

     negative rho (up, down):  2.664E-01 0.000E+00

     Forces acting on atoms (cartesian axes, Ry/au):

     atom    1 type  1   force =     0.00000000    0.02641335    0.01372170
     atom    2 type  1   force =     0.00000000    0.02641335   -0.01372170
     atom    3 type  1   force =    -0.00000000   -0.02641335    0.01372170
     atom    4 type  1   force =     0.00000000   -0.02641335   -0.01372170
     atom    5 type  2   force =     0.00000000   -0.00723552    0.00168427
     atom    6 type  2   force =     0.00000000    0.00723552   -0.00168427
     atom    7 type  2   force =     0.00000000   -0.00723552   -0.00168427
     atom    8 type  2   force =     0.00000000    0.00723552    0.00168427
     atom    9 type  3   force =     0.00000000   -0.03235795   -0.02686146
     atom   10 type  3   force =    -0.00000000    0.03235795   -0.02686146
     atom   11 type  3   force =     0.00000000    0.03235795    0.02686146
     atom   12 type  3   force =     0.00000000   -0.03235795    0.02686146
     The non-local contrib.  to forces
     atom    1 type  1   force =     0.00000000    0.02078596    0.02827566
     atom    2 type  1   force =     0.00000000    0.02078596   -0.02827566
     atom    3 type  1   force =     0.00000000   -0.02078596    0.02827566
     atom    4 type  1   force =     0.00000000   -0.02078596   -0.02827566
     atom    5 type  2   force =     0.00000000   -0.04611656   -0.00739394
     atom    6 type  2   force =     0.00000000    0.04611656    0.00739394
     atom    7 type  2   force =     0.00000000   -0.04611656    0.00739394
     atom    8 type  2   force =     0.00000000    0.04611656   -0.00739394
     atom    9 type  3   force =     0.00000000    0.02819655   -0.00527846
     atom   10 type  3   force =     0.00000000   -0.02819655   -0.00527846
     atom   11 type  3   force =    -0.00000000   -0.02819655    0.00527846
     atom   12 type  3   force =    -0.00000000    0.02819655    0.00527846
     The ionic contribution  to forces
     atom    1 type  1   force =    -0.00000000    0.02607974    0.84562930
     atom    2 type  1   force =     0.00000000    0.02607974   -0.84562930
     atom    3 type  1   force =    -0.00000000   -0.02607974    0.84562930
     atom    4 type  1   force =     0.00000000   -0.02607974   -0.84562930
     atom    5 type  2   force =     0.00000000    0.10885850   -0.01719782
     atom    6 type  2   force =     0.00000000   -0.10885850    0.01719782
     atom    7 type  2   force =    -0.00000000    0.10885850    0.01719782
     atom    8 type  2   force =     0.00000000   -0.10885850   -0.01719782
     atom    9 type  3   force =     0.00000000   -0.54611660    0.16751544
     atom   10 type  3   force =     0.00000000    0.54611660    0.16751544
     atom   11 type  3   force =    -0.00000000    0.54611660   -0.16751544
     atom   12 type  3   force =     0.00000000   -0.54611660   -0.16751544
     The local contribution  to forces
     atom    1 type  1   force =     0.00000023   -0.01894381   -0.85842042
     atom    2 type  1   force =     0.00000476   -0.01882710    0.85830339
     atom    3 type  1   force =    -0.00000417    0.01899323   -0.85834383
     atom    4 type  1   force =    -0.00000597    0.01906882    0.85834325
     atom    5 type  2   force =    -0.00000559   -0.07470526    0.02643008
     atom    6 type  2   force =     0.00000430    0.07468509   -0.02644448
     atom    7 type  2   force =    -0.00000450   -0.07466448   -0.02642987
     atom    8 type  2   force =     0.00000470    0.07462290    0.02646246
     atom    9 type  3   force =    -0.00000962    0.48861138   -0.18995657
     atom   10 type  3   force =     0.00000586   -0.48877409   -0.18990364
     atom   11 type  3   force =     0.00000802   -0.48859545    0.18990860
     atom   12 type  3   force =    -0.00001193    0.48873536    0.18995330
     The core correction contribution to forces
     atom    1 type  1   force =     0.00000018   -0.00150056   -0.00203040
     atom    2 type  1   force =     0.00000037   -0.00150035    0.00203015
     atom    3 type  1   force =    -0.00000037    0.00150180   -0.00203206
     atom    4 type  1   force =    -0.00000061    0.00150216    0.00203001
     atom    5 type  2   force =    -0.00000040    0.00467674   -0.00014909
     atom    6 type  2   force =     0.00000016   -0.00467690    0.00014971
     atom    7 type  2   force =    -0.00000020    0.00467712    0.00014961
     atom    8 type  2   force =     0.00000026   -0.00467835   -0.00014967
     atom    9 type  3   force =     0.00000056   -0.00304555    0.00081077
     atom   10 type  3   force =     0.00000066    0.00304503    0.00081177
     atom   11 type  3   force =    -0.00000019    0.00304562   -0.00081154
     atom   12 type  3   force =    -0.00000015   -0.00304617   -0.00081080
     The Hubbard contrib.    to forces
     atom    1 type  1   force =     0.00000000    0.00000000    0.00000000
     atom    2 type  1   force =     0.00000000    0.00000000    0.00000000
     atom    3 type  1   force =     0.00000000    0.00000000    0.00000000
     atom    4 type  1   force =     0.00000000    0.00000000    0.00000000
     atom    5 type  2   force =     0.00000000    0.00000000    0.00000000
     atom    6 type  2   force =     0.00000000    0.00000000    0.00000000
     atom    7 type  2   force =     0.00000000    0.00000000    0.00000000
     atom    8 type  2   force =     0.00000000    0.00000000    0.00000000
     atom    9 type  3   force =     0.00000000    0.00000000    0.00000000
     atom   10 type  3   force =     0.00000000    0.00000000    0.00000000
     atom   11 type  3   force =     0.00000000    0.00000000    0.00000000
     atom   12 type  3   force =     0.00000000    0.00000000    0.00000000
     The SCF correction term to forces
     atom    1 type  1   force =     0.00000003   -0.00000037    0.00028007
     atom    2 type  1   force =     0.00000415   -0.00012377   -0.00015720
     atom    3 type  1   force =    -0.00000121   -0.00003722    0.00017362
     atom    4 type  1   force =    -0.00000508   -0.00011536   -0.00018960
     atom    5 type  2   force =     0.00000087    0.00004585    0.00000064
     atom    6 type  2   force =    -0.00000121   -0.00002660    0.00002102
     atom    7 type  2   force =     0.00000135    0.00000883    0.00000471
     atom    8 type  2   force =    -0.00000148    0.00002253   -0.00003960
     atom    9 type  3   force =     0.00000590   -0.00000165    0.00004305
     atom   10 type  3   force =    -0.00000003    0.00016034   -0.00000460
     atom   11 type  3   force =    -0.00000373    0.00000094   -0.00000347
     atom   12 type  3   force =     0.00000388   -0.00012259   -0.00004156

     Total force =     0.104110     Total SCF correction =     0.000499

     Computing stress (Cartesian axis) and pressure

     negative rho (up, down):  2.664E-01 0.000E+00
          total   stress  (Ry/bohr**3)                   (kbar)     P=        4.41
   0.00072437   0.00000000   0.00000000          106.56        0.00        0.00
   0.00000000  -0.00050657   0.00000000            0.00      -74.52        0.00
   0.00000000   0.00000000  -0.00012784            0.00        0.00      -18.81

     kinetic stress (kbar)   4836.91      0.00      0.00
                                0.00   4549.01      0.00
                                0.00      0.00   4572.67

     local   stress (kbar)  -3661.02     -0.02     -0.00
                               -0.02  -3395.54      0.02
                               -0.00      0.02  -2973.77

     nonloc. stress (kbar)   3977.24      0.00      0.00
                                0.00   3954.81      0.00
                                0.00      0.00   3982.75

     hartree stress (kbar)   1460.85      0.00      0.00
                                0.00   1385.58     -0.01
                                0.00     -0.01   1147.81

     exc-cor stress (kbar)   2565.73      0.00      0.00
                                0.00   2563.23     -0.00
                                0.00     -0.00   2562.68

     corecor stress (kbar)  -4084.51     -0.00     -0.00
                               -0.00  -4077.20      0.00
                               -0.00      0.00  -4080.56

     ewald   stress (kbar)  -4988.65      0.00      0.00
                                0.00  -5054.41      0.00
                                0.00      0.00  -5230.39

     hubbard stress (kbar)      0.00      0.00      0.00
                                0.00      0.00      0.00
                                0.00      0.00      0.00

     DFT-D   stress (kbar)      0.00      0.00      0.00
                                0.00      0.00      0.00
                                0.00      0.00      0.00

     XDM     stress (kbar)      0.00      0.00      0.00
                                0.00      0.00      0.00
                                0.00      0.00      0.00

     dft-nl  stress (kbar)      0.00      0.00      0.00
                                0.00      0.00      0.00
                                0.00      0.00      0.00

     TS-vdW  stress (kbar)      0.00      0.00      0.00
                                0.00      0.00      0.00
                                0.00      0.00      0.00

[...]

                                0.00      0.00      0.00

     Writing all to output data dir new_calculations/myprefix.save/

     General routines

     Parallel routines

     PAW routines

   This run was terminated on:   8:10:43  21May2023

   JOB DONE.