     Program PWSCF v.7.0 starts on 20May2023 at 21:28:15

     Reading input from espresso_3764.pwi
Warning: card &CELL ignored
Warning: card / ignored

     Current dimensions of program PWSCF are:
     Max number of different atomic species (ntypx) = 10
     Max number of k-points (npk) =  40000
     Max angular momentum in pseudopotentials (lmaxx) =  4
     file O.pbe-n-kjpaw_psl.0.1.UPF: wavefunction(s)  2P renormalized

     gamma-point specific algorithms are used
     Message from routine setup:
     using ibrav=0 with symmetry is DISCOURAGED, use correct ibrav instead

     Subspace diagonalization in iterative solution of the eigenvalue problem:
     a serial algorithm will be used

     Using Slab Decomposition

     bravais-lattice index     =            0
     lattice parameter (alat)  =      14.2022  a.u.
     unit-cell volume          =    2451.0876 (a.u.)^3
     number of atoms/cell      =           14
     number of atomic types    =            3
     number of electrons       =       112.00
     number of Kohn-Sham states=           67
     kinetic-energy cutoff     =      30.0000  Ry
     charge density cutoff     =     240.0000  Ry
     scf convergence threshold =      1.0E-06
     mixing beta               =       0.7000
     number of iterations used =            8  plain     mixing
     Exchange-correlation= SLA  PW   PBX  PBC
                           (   1   4   3   4   0   0   0)

     celldm(1)=  14.202210  celldm(2)=   0.000000  celldm(3)=   0.000000
     celldm(4)=   0.000000  celldm(5)=   0.000000  celldm(6)=   0.000000

     crystal axes: (cart. coord. in units of alat)
               a(1) = (   1.000000   0.000000   0.000000 )
               a(2) = (   0.000000   0.961630   0.000000 )
               a(3) = (   0.000000   0.437797   0.889780 )

     reciprocal axes: (cart. coord. in units 2 pi/alat)
               b(1) = (  1.000000  0.000000  0.000000 )
               b(2) = (  0.000000  1.039901 -0.511660 )
               b(3) = (  0.000000  0.000000  1.123873 )

     PseudoPot. # 1 for Cs read from file:
     /home/pragov/projects/rrg-bengioy-ad/pragov/crystal_structure_design/SSSP/Cs_pbe_v1.uspp.F.UPF
     MD5 check sum: 3476d69cb178dfad3ffaa59df4e07ca4
     Pseudo is Ultrasoft + core correction, Zval =  9.0
     Generated by new atomic code, or converted to UPF format
     Using radial grid of  905 points,  6 beta functions with:
                l(1) =   0
                l(2) =   0
                l(3) =   1
                l(4) =   1
                l(5) =   2
                l(6) =   2
     Q(r) pseudized with  6 coefficients,  rinner =    1.500   1.500   1.500
                                                       1.500   1.500

     PseudoPot. # 2 for Sr read from file:
     /home/pragov/projects/rrg-bengioy-ad/pragov/crystal_structure_design/SSSP/Sr_pbe_v1.uspp.F.UPF
     MD5 check sum: 6b418c05fbe9db5448babca5e47b7a5b
     Pseudo is Ultrasoft + core correction, Zval = 10.0
     Generated by new atomic code, or converted to UPF format
     Using radial grid of  883 points,  6 beta functions with:
                l(1) =   0
                l(2) =   0
                l(3) =   1
                l(4) =   1
                l(5) =   2
                l(6) =   2
     Q(r) pseudized with  6 coefficients,  rinner =    1.400   1.400   1.400
                                                       1.400   1.400

     PseudoPot. # 3 for O  read from file:
     /home/pragov/projects/rrg-bengioy-ad/pragov/crystal_structure_design/SSSP/O.pbe-n-kjpaw_psl.0.1.UPF
     MD5 check sum: 0234752ac141de4415c5fc33072bef88
     Pseudo is Projector augmented-wave + core cor, Zval =  6.0
     Generated using "atomic" code by A. Dal Corso  v.5.0.99 svn rev. 10869
     Shape of augmentation charge: BESSEL
     Using radial grid of 1095 points,  4 beta functions with:
                l(1) =   0
                l(2) =   0
                l(3) =   1
                l(4) =   1
     Q(r) pseudized with 0 coefficients

     atomic species   valence    mass     pseudopotential
        Cs             9.00   132.90545     Cs( 1.00)
        Sr            10.00    87.62000     Sr( 1.00)
        O              6.00    15.99900     O ( 1.00)

      4 Sym. Ops., with inversion, found ( 2 have fractional translation)

                                    s                        frac. trans.

      isym =  1     identity

 cryst.   s( 1) = (     1          0          0      )
                  (     0          1          0      )
                  (     0          0          1      )

 cart.    s( 1) = (  1.0000000  0.0000000  0.0000000 )
                  (  0.0000000  1.0000000 -0.0000000 )
                  (  0.0000000  0.0000000  1.0000000 )

      isym =  2     180 deg rotation - cart. axis [1,0,0]

 cryst.   s( 2) = (     1          0          0      )    f =(  0.5000000 )
                  (     0         -1          0      )       (  0.0000000 )
                  (     0          0         -1      )       (  0.5000000 )

 cart.    s( 2) = (  1.0000000  0.0000000  0.0000000 )    f =(  0.5000000 )
                  (  0.0000000 -1.0000000  0.0000000 )       (  0.2188983 )
                  (  0.0000000  0.0000000 -1.0000000 )       (  0.4448902 )

      isym =  3     inversion

 cryst.   s( 3) = (    -1          0          0      )
                  (     0         -1          0      )
                  (     0          0         -1      )

 cart.    s( 3) = ( -1.0000000  0.0000000  0.0000000 )
                  (  0.0000000 -1.0000000  0.0000000 )
                  (  0.0000000  0.0000000 -1.0000000 )

      isym =  4     inv. 180 deg rotation - cart. axis [1,0,0]

 cryst.   s( 4) = (    -1          0          0      )    f =(  0.5000000 )
                  (     0          1          0      )       (  0.0000000 )
                  (     0          0          1      )       (  0.5000000 )

 cart.    s( 4) = ( -1.0000000  0.0000000  0.0000000 )    f =(  0.5000000 )
                  (  0.0000000  1.0000000 -0.0000000 )       (  0.2188983 )
                  (  0.0000000  0.0000000  1.0000000 )       (  0.4448902 )

   Cartesian axes

     site n.     atom                  positions (alat units)
         1           Cs  tau(   1) = (   0.3526540   1.1947043   0.8212050  )
         2           Cs  tau(   2) = (   0.1473460   0.9758060   0.3763148  )
         3           Cs  tau(   3) = (   0.8526540   0.4236210   0.5134656  )
         4           Cs  tau(   4) = (   0.6473460   0.2047227   0.0685754  )
         5           Sr  tau(   5) = (   0.6207030   0.8902050   0.5061578  )
         6           Sr  tau(   6) = (   0.1207030   0.7281203   0.8285128  )
         7           Sr  tau(   7) = (   0.8792970   0.6713067   0.0612676  )
         8           Sr  tau(   8) = (   0.3792970   0.5092220   0.3836226  )
         9           O   tau(   9) = (   0.5000000   0.2188983   0.4448902  )
        10           O   tau(  10) = (   0.0000000   0.0000000   0.0000000  )
        11           O   tau(  11) = (   0.8912690   0.9126569   0.6858374  )
        12           O   tau(  12) = (   0.3912690   0.7056683   0.6488332  )
        13           O   tau(  13) = (   0.6087310   0.6937587   0.2409472  )
        14           O   tau(  14) = (   0.1087310   0.4867701   0.2039430  )

   Crystallographic axes

     site n.     atom                  positions (cryst. coord.)
         1           Cs  tau(   1) = (  0.3526540  0.8221960  0.9229300  )
         2           Cs  tau(   2) = (  0.1473460  0.8221960  0.4229300  )
         3           Cs  tau(   3) = (  0.8526540  0.1778040  0.5770700  )
         4           Cs  tau(   4) = (  0.6473460  0.1778040  0.0770700  )
         5           Sr  tau(   5) = (  0.6207030  0.6667440  0.5688570  )
         6           Sr  tau(   6) = (  0.1207030  0.3332560  0.9311430  )
         7           Sr  tau(   7) = (  0.8792970  0.6667440  0.0688570  )
         8           Sr  tau(   8) = (  0.3792970  0.3332560  0.4311430  )
         9           O   tau(   9) = (  0.5000000  0.0000000  0.5000000  )
        10           O   tau(  10) = (  0.0000000  0.0000000  0.0000000  )
        11           O   tau(  11) = (  0.8912690  0.5981570  0.7707940  )
        12           O   tau(  12) = (  0.3912690  0.4018430  0.7292060  )
        13           O   tau(  13) = (  0.6087310  0.5981570  0.2707940  )
        14           O   tau(  14) = (  0.1087310  0.4018430  0.2292060  )

     number of k points=     1  Methfessel-Paxton smearing, width (Ry)=  0.0010
                       cart. coord. in units 2pi/alat
        k(    1) = (   0.0000000   0.0000000   0.0000000), wk =   2.0000000

                       cryst. coord.
        k(    1) = (   0.0000000   0.0000000   0.0000000), wk =   2.0000000

     Check: negative core charge=   -0.000007

     Initial potential from superposition of free atoms

     starting charge     111.7078, renormalised to     112.0000

     negative rho (up, down):  2.576E-01 0.000E+00
     Starting wfcs are  128 randomized atomic wfcs
     Checking if some PAW data can be deallocated...

     Self-consistent Calculation

     iteration #  1     ecut=    30.00 Ry     beta= 0.70
     Davidson diagonalization with overlap

     ethr =  1.00E-02,  avg # of iterations =  2.0

     negative rho (up, down):  2.627E-01 0.000E+00

     total energy              =    -780.43865120 Ry
     estimated scf accuracy    <       5.86921320 Ry

[...]

     total energy              =    -783.55337807 Ry
     estimated scf accuracy    <       0.00000778 Ry

     iteration # 12     ecut=    30.00 Ry     beta= 0.70
     Davidson diagonalization with overlap

     ethr =  6.90E-09,  avg # of iterations =  2.0

[...]

     End of self-consistent calculation

          k = 0.0000 0.0000 0.0000 (  3407 PWs)   bands (ev):

   -26.6095 -26.5941 -26.5696 -26.5640 -15.2309 -15.1385 -15.1141 -15.0682
   -10.3110 -10.0502 -10.0432  -9.9629  -9.7955  -9.0315  -8.8449  -8.7949
    -8.7927  -8.7394  -8.6895  -8.5960  -8.5412  -7.6414  -7.6032  -7.5355
    -7.3455  -7.2169  -2.6500  -2.4057  -2.4054  -2.1269  -1.9774  -1.9614
    -1.9262  -1.9179  -1.9036  -1.8359  -1.5696  -1.5600   4.7802   4.9302
     5.0109   5.1211   5.1329   5.2752   5.2885   5.3230   5.4212   5.4278
     5.5300   5.5742   5.6255   5.6928   5.7013   5.8358   5.9314   5.9445
     8.1372   9.6709   9.9343   9.9493  10.3173  10.3780  10.4626  10.7701
    10.9962  11.1680  11.4503

     occupation numbers
     1.0000   1.0000   1.0000   1.0000   1.0000   1.0000   1.0000   1.0000
     1.0000   1.0000   1.0000   1.0000   1.0000   1.0000   1.0000   1.0000
     1.0000   1.0000   1.0000   1.0000   1.0000   1.0000   1.0000   1.0000
     1.0000   1.0000   1.0000   1.0000   1.0000   1.0000   1.0000   1.0000
     1.0000   1.0000   1.0000   1.0000   1.0000   1.0000   1.0000   1.0000
     1.0000   1.0000   1.0000   1.0000   1.0000   1.0000   1.0000   1.0000
     1.0000   1.0000   1.0000   1.0000   1.0000   1.0000   1.0000   1.0000
    -0.0000  -0.0000  -0.0000  -0.0000  -0.0000  -0.0000  -0.0000  -0.0000
    -0.0000  -0.0000  -0.0000

     the Fermi energy is     6.7949 ev

!    total energy              =    -783.55337811 Ry
     estimated scf accuracy    <       0.00000092 Ry
     smearing contrib. (-TS)   =       0.00000000 Ry
     internal energy E=F+TS    =    -783.55337811 Ry

     The total energy is F=E-TS. E is the sum of the following terms:
     one-electron contribution =    -186.37463072 Ry
     hartree contribution      =     146.75364566 Ry
     xc contribution           =    -239.39777201 Ry
     ewald contribution        =    -447.37669482 Ry
     one-center paw contrib.   =     -57.15792621 Ry
      -> PAW hartree energy AE =     170.12840480 Ry
      -> PAW hartree energy PS =    -169.53977800 Ry
      -> PAW xc energy AE      =    -101.81291900 Ry
      -> PAW xc energy PS      =      44.06636599 Ry
      -> total E_H with PAW    =     147.34227246 Ry
      -> total E_XC with PAW   =    -297.14432503 Ry

     convergence has been achieved in  12 iterations

     negative rho (up, down):  2.688E-01 0.000E+00

     Forces acting on atoms (cartesian axes, Ry/au):

     atom    1 type  1   force =    -0.00045774   -0.00272887    0.00564747
     atom    2 type  1   force =     0.00045774   -0.00272887    0.00564747
     atom    3 type  1   force =    -0.00045774    0.00272887   -0.00564747
     atom    4 type  1   force =     0.00045774    0.00272887   -0.00564747
     atom    5 type  2   force =    -0.00254758    0.00187056   -0.00277756
     atom    6 type  2   force =    -0.00254758   -0.00187056    0.00277756
     atom    7 type  2   force =     0.00254758    0.00187056   -0.00277756
     atom    8 type  2   force =     0.00254758   -0.00187056    0.00277756
     atom    9 type  3   force =     0.00000000    0.00000000    0.00000000
     atom   10 type  3   force =     0.00000000    0.00000000    0.00000000
     atom   11 type  3   force =     0.00044807   -0.00120142    0.00854135
     atom   12 type  3   force =     0.00044807    0.00120142   -0.00854135
     atom   13 type  3   force =    -0.00044807   -0.00120142    0.00854135
     atom   14 type  3   force =    -0.00044807    0.00120142   -0.00854135
     The non-local contrib.  to forces
     atom    1 type  1   force =     0.00593414   -0.00280878   -0.01198469
     atom    2 type  1   force =    -0.00593414   -0.00280878   -0.01198469
     atom    3 type  1   force =     0.00593414    0.00280878    0.01198469
     atom    4 type  1   force =    -0.00593414    0.00280878    0.01198469
     atom    5 type  2   force =     0.01018070   -0.00131675    0.00205905
     atom    6 type  2   force =     0.01018070    0.00131675   -0.00205905
     atom    7 type  2   force =    -0.01018070   -0.00131675    0.00205905
     atom    8 type  2   force =    -0.01018070    0.00131675   -0.00205905
     atom    9 type  3   force =     0.00000000    0.00000000    0.00000000
     atom   10 type  3   force =     0.00000000    0.00000000   -0.00000000
     atom   11 type  3   force =    -0.03061649   -0.01168700    0.04389357
     atom   12 type  3   force =    -0.03061649    0.01168700   -0.04389357
     atom   13 type  3   force =     0.03061649   -0.01168700    0.04389357
     atom   14 type  3   force =     0.03061649    0.01168700   -0.04389357
     The ionic contribution  to forces
     atom    1 type  1   force =     0.78174117    1.05915099   -0.35417364
     atom    2 type  1   force =    -0.78174117    1.05915099   -0.35417364
     atom    3 type  1   force =     0.78174117   -1.05915099    0.35417364
     atom    4 type  1   force =    -0.78174117   -1.05915099    0.35417364
     atom    5 type  2   force =     1.77398969    1.68621901   -0.07437688
     atom    6 type  2   force =     1.77398969   -1.68621901    0.07437688
     atom    7 type  2   force =    -1.77398969    1.68621901   -0.07437688
     atom    8 type  2   force =    -1.77398969   -1.68621901    0.07437688
     atom    9 type  3   force =     0.00000000   -0.00000000   -0.00000000
     atom   10 type  3   force =     0.00000000    0.00000000   -0.00000000
     atom   11 type  3   force =     0.07284977    0.56434925   -2.27715965
     atom   12 type  3   force =     0.07284977   -0.56434925    2.27715965
     atom   13 type  3   force =    -0.07284977    0.56434925   -2.27715965
     atom   14 type  3   force =    -0.07284977   -0.56434925    2.27715965
     The local contribution  to forces
     atom    1 type  1   force =    -0.78752537   -1.05936045    0.37056207
     atom    2 type  1   force =     0.78739720   -1.05940112    0.37039833
     atom    3 type  1   force =    -0.78751140    1.05938378   -0.37047638
     atom    4 type  1   force =     0.78759903    1.05936197   -0.37047930
     atom    5 type  2   force =    -1.78639819   -1.68292493    0.06969049
     atom    6 type  2   force =    -1.78658839    1.68285174   -0.06961748
     atom    7 type  2   force =     1.78652295   -1.68286690    0.06970021
     atom    8 type  2   force =     1.78651226    1.68292363   -0.06971362
     atom    9 type  3   force =     0.00003630    0.00000418   -0.00001181
     atom   10 type  3   force =     0.00000073    0.00001593    0.00004155
     atom   11 type  3   force =    -0.04209002   -0.55392620    2.24191613
     atom   12 type  3   force =    -0.04207576    0.55391129   -2.24195325
     atom   13 type  3   force =     0.04208938   -0.55392208    2.24193128
     atom   14 type  3   force =     0.04206045    0.55392492   -2.24193417
     The core correction contribution to forces
     atom    1 type  1   force =    -0.00063922    0.00036048    0.00124286
     atom    2 type  1   force =     0.00063801    0.00036157    0.00124124
     atom    3 type  1   force =    -0.00064231   -0.00036171   -0.00124308
     atom    4 type  1   force =     0.00063973   -0.00036085   -0.00124174
     atom    5 type  2   force =    -0.00037649    0.00016774   -0.00020315
     atom    6 type  2   force =    -0.00037385   -0.00016475    0.00020404
     atom    7 type  2   force =     0.00037648    0.00016482   -0.00020473
     atom    8 type  2   force =     0.00037605   -0.00016747    0.00020570
     atom    9 type  3   force =    -0.00000011    0.00000002   -0.00000003
     atom   10 type  3   force =     0.00000026   -0.00000000    0.00000009
     atom   11 type  3   force =     0.00029509    0.00007256   -0.00017314
     atom   12 type  3   force =     0.00029489   -0.00007253    0.00017256
     atom   13 type  3   force =    -0.00029538    0.00007236   -0.00017262
     atom   14 type  3   force =    -0.00029468   -0.00007266    0.00017293
     The Hubbard contrib.    to forces
     atom    1 type  1   force =     0.00000000    0.00000000    0.00000000
     atom    2 type  1   force =     0.00000000    0.00000000    0.00000000
     atom    3 type  1   force =     0.00000000    0.00000000    0.00000000
     atom    4 type  1   force =     0.00000000    0.00000000    0.00000000
     atom    5 type  2   force =     0.00000000    0.00000000    0.00000000
     atom    6 type  2   force =     0.00000000    0.00000000    0.00000000
     atom    7 type  2   force =     0.00000000    0.00000000    0.00000000
     atom    8 type  2   force =     0.00000000    0.00000000    0.00000000
     atom    9 type  3   force =     0.00000000    0.00000000    0.00000000
     atom   10 type  3   force =     0.00000000    0.00000000    0.00000000
     atom   11 type  3   force =     0.00000000    0.00000000    0.00000000
     atom   12 type  3   force =     0.00000000    0.00000000    0.00000000
     atom   13 type  3   force =     0.00000000    0.00000000    0.00000000
     atom   14 type  3   force =     0.00000000    0.00000000    0.00000000
     The SCF correction term to forces
     atom    1 type  1   force =     0.00004482   -0.00007668    0.00000441
     atom    2 type  1   force =     0.00008417   -0.00003044    0.00015916
     atom    3 type  1   force =    -0.00001144    0.00003687   -0.00010018
     atom    4 type  1   force =    -0.00011084    0.00007763   -0.00007449
     atom    5 type  2   force =     0.00002205   -0.00024263    0.00007026
     atom    6 type  2   force =     0.00030214    0.00037978   -0.00013246
     atom    7 type  2   force =    -0.00019186   -0.00036430    0.00004719
     atom    8 type  2   force =    -0.00013671    0.00023764   -0.00000696
     atom    9 type  3   force =    -0.00004465   -0.00000486    0.00001399
     atom   10 type  3   force =     0.00001395   -0.00001418   -0.00004220
     atom   11 type  3   force =     0.00001156   -0.00001120    0.00004410
     atom   12 type  3   force =    -0.00000762    0.00002331   -0.00004451
     atom   13 type  3   force =    -0.00003432   -0.00001914    0.00006104
     atom   14 type  3   force =     0.00004357    0.00000663   -0.00003648

     Total force =     0.022965     Total SCF correction =     0.000812

     Computing stress (Cartesian axis) and pressure

     negative rho (up, down):  2.688E-01 0.000E+00
          total   stress  (Ry/bohr**3)                   (kbar)     P=     -118.00
  -0.00082149   0.00000000   0.00000000         -120.85        0.00        0.00
   0.00000000  -0.00079840   0.00002675            0.00     -117.45        3.94
   0.00000000   0.00002675  -0.00078648            0.00        3.94     -115.69

     kinetic stress (kbar)   9265.54      0.00      0.00
                                0.00   9263.80    -11.29
                                0.00    -11.29   9293.42

     local   stress (kbar)  -7858.41     -0.01     -0.00
                               -0.01  -8289.88   -269.14
                               -0.00   -269.14  -7109.61

     nonloc. stress (kbar)   7048.94      0.00      0.00
                                0.00   7059.64      6.04
                                0.00      6.04   7044.84

     hartree stress (kbar)   2975.16      0.01      0.00
                                0.01   3178.47    134.45
                                0.00    134.45   2653.97

     exc-cor stress (kbar)   5629.39      0.00     -0.00
                                0.00   5629.02     -0.19
                               -0.00     -0.19   5629.38

     corecor stress (kbar)  -8305.68     -0.00      0.00
                               -0.00  -8306.67     -0.36
                                0.00     -0.36  -8305.44

     ewald   stress (kbar)  -8875.79      0.00      0.00
                                0.00  -8651.82    144.43
                                0.00    144.43  -9322.26

     hubbard stress (kbar)      0.00      0.00      0.00
                                0.00      0.00      0.00
                                0.00      0.00      0.00

     DFT-D   stress (kbar)      0.00      0.00      0.00
                                0.00      0.00      0.00
                                0.00      0.00      0.00

     XDM     stress (kbar)      0.00      0.00      0.00
                                0.00      0.00      0.00
                                0.00      0.00      0.00

     dft-nl  stress (kbar)      0.00      0.00      0.00
                                0.00      0.00      0.00
                                0.00      0.00      0.00

     TS-vdW  stress (kbar)      0.00      0.00      0.00
                                0.00      0.00      0.00
                                0.00      0.00      0.00

[...]

                                0.00      0.00      0.00

     Writing all to output data dir new_calculations/myprefix.save/

     General routines

     Parallel routines

     PAW routines

   This run was terminated on:  21:28:50  20May2023

   JOB DONE.