     Program PWSCF v.7.0 starts on 21May2023 at  9:53:27

     Reading input from espresso_22676.pwi
Warning: card &CELL ignored
Warning: card / ignored

     Current dimensions of program PWSCF are:
     Max number of different atomic species (ntypx) = 10
     Max number of k-points (npk) =  40000
     Max angular momentum in pseudopotentials (lmaxx) =  4

     gamma-point specific algorithms are used
     Message from routine setup:
     using ibrav=0 with symmetry is DISCOURAGED, use correct ibrav instead

     Subspace diagonalization in iterative solution of the eigenvalue problem:
     a serial algorithm will be used

     Using Slab Decomposition

     bravais-lattice index     =            0
     lattice parameter (alat)  =       9.3582  a.u.
     unit-cell volume          =     579.5202 (a.u.)^3
     number of atoms/cell      =            6
     number of atomic types    =            3
     number of electrons       =       107.00
     number of Kohn-Sham states=           65
     kinetic-energy cutoff     =      30.0000  Ry
     charge density cutoff     =     240.0000  Ry
     scf convergence threshold =      1.0E-06
     mixing beta               =       0.7000
     number of iterations used =            8  plain     mixing
     Exchange-correlation= PBE
                           (   1   4   3   4   0   0   0)

     celldm(1)=   9.358248  celldm(2)=   0.000000  celldm(3)=   0.000000
     celldm(4)=   0.000000  celldm(5)=   0.000000  celldm(6)=   0.000000

     crystal axes: (cart. coord. in units of alat)
               a(1) = (   1.000000   0.000000   0.000000 )
               a(2) = (   0.500000   0.866025   0.000000 )
               a(3) = (   0.500000   0.288675   0.816497 )

     reciprocal axes: (cart. coord. in units 2 pi/alat)
               b(1) = (  1.000000 -0.577350 -0.408248 )
               b(2) = (  0.000000  1.154701 -0.408248 )
               b(3) = (  0.000000  0.000000  1.224745 )

     PseudoPot. # 1 for Zr read from file:
     /home/pragov/projects/rrg-bengioy-ad/pragov/crystal_structure_design/SSSP/Zr_pbe_v1.uspp.F.UPF
     MD5 check sum: 5db81b1e868ab7776c4564c113de050b
     Pseudo is Ultrasoft + core correction, Zval = 12.0
     Generated by new atomic code, or converted to UPF format
     Using radial grid of  887 points,  6 beta functions with:
                l(1) =   0
                l(2) =   0
                l(3) =   1
                l(4) =   1
                l(5) =   2
                l(6) =   2
     Q(r) pseudized with  6 coefficients,  rinner =    1.200   1.200   1.200
                                                       1.200   1.200

     PseudoPot. # 2 for Cu read from file:
     /home/pragov/projects/rrg-bengioy-ad/pragov/crystal_structure_design/SSSP/Cu_pbe_v1.2.uspp.F.UPF
     MD5 check sum: 6e991ff952a84172a2a52a1c1e996048
     Pseudo is Ultrasoft + core correction, Zval = 19.0
     Generated by new atomic code, or converted to UPF format
     Using radial grid of  867 points,  6 beta functions with:
                l(1) =   0
                l(2) =   0
                l(3) =   1
                l(4) =   1
                l(5) =   2
                l(6) =   2
     Q(r) pseudized with  8 coefficients,  rinner =    1.150   1.150   1.150
                                                       1.150   1.150

     PseudoPot. # 3 for Ag read from file:
     /home/pragov/projects/rrg-bengioy-ad/pragov/crystal_structure_design/SSSP/Ag_ONCV_PBE-1.0.oncvpsp.upf
     MD5 check sum: 94f47bd0669c641108e45594df92fabc
     Pseudo is Norm-conserving, Zval = 19.0
     Generated using ONCVPSP code by D. R. Hamann
     Using radial grid of 1398 points,  6 beta functions with:
                l(1) =   0
                l(2) =   0
                l(3) =   1
                l(4) =   1
                l(5) =   2
                l(6) =   2

     atomic species   valence    mass     pseudopotential
        Zr            12.00    91.22400     Zr( 1.00)
        Cu            19.00    63.54600     Cu( 1.00)
        Ag            19.00   107.86820     Ag( 1.00)

      6 Sym. Ops. (no inversion) found

                                    s                        frac. trans.

      isym =  1     identity

 cryst.   s( 1) = (     1          0          0      )
                  (     0          1          0      )
                  (     0          0          1      )

 cart.    s( 1) = (  1.0000000  0.0000000  0.0000000 )
                  (  0.0000000  1.0000000 -0.0000000 )
                  (  0.0000000  0.0000000  1.0000000 )

      isym =  2     120 deg rotation - cryst. axis [0,0,1]

[...]

      isym =  3     120 deg rotation - cryst. axis [0,0,-1]

[...]

      isym =  4     inv. 180 deg rotation - cart. axis [1,0,0]

[...]

      isym =  5     inv. 180 deg rotation - cryst. axis [0,1,0]

[...]

      isym =  6     inv. 180 deg rotation - cryst. axis [1,1,0]

 cryst.   s( 6) = (     1         -1          0      )
                  (     0         -1          0      )
                  (     0         -1          1      )

 cart.    s( 6) = (  0.5000000 -0.8660254  0.0000000 )
                  ( -0.8660254 -0.5000000  0.0000000 )
                  (  0.0000000  0.0000000  1.0000000 )

   Cartesian axes

     site n.     atom                  positions (alat units)
         1           Zr  tau(   1) = (   0.5000000   0.2886751   0.2041241  )
         2           Cu  tau(   2) = (   1.0000000   0.5773503   0.1007344  )
         3           Cu  tau(   3) = (   1.0000000   0.2874234   0.5107529  )
         4           Cu  tau(   4) = (   0.7489160   0.7223137   0.5107529  )
         5           Cu  tau(   5) = (   1.2510840   0.7223137   0.5107529  )
         6           Ag  tau(   6) = (   0.0000000   0.0000000   0.0000000  )

   Crystallographic axes

     site n.     atom                  positions (cryst. coord.)
         1           Zr  tau(   1) = (  0.2500000  0.2500000  0.2500000  )
         2           Cu  tau(   2) = (  0.6255420  0.6255420  0.1233740  )
         3           Cu  tau(   3) = (  0.6255420  0.1233740  0.6255420  )
         4           Cu  tau(   4) = (  0.1233740  0.6255420  0.6255420  )
         5           Cu  tau(   5) = (  0.6255420  0.6255420  0.6255420  )
         6           Ag  tau(   6) = (  0.0000000  0.0000000  0.0000000  )

     number of k points=     1  Methfessel-Paxton smearing, width (Ry)=  0.0010
                       cart. coord. in units 2pi/alat
        k(    1) = (   0.0000000   0.0000000   0.0000000), wk =   2.0000000

                       cryst. coord.
        k(    1) = (   0.0000000   0.0000000   0.0000000), wk =   2.0000000

     Check: negative core charge=   -0.000003

     Initial potential from superposition of free atoms

     starting charge     102.9976, renormalised to     107.0000

     negative rho (up, down):  6.461E-02 0.000E+00
     Starting wfcs are   75 randomized atomic wfcs

     Self-consistent Calculation

     iteration #  1     ecut=    30.00 Ry     beta= 0.70
     Davidson diagonalization with overlap

     ethr =  1.00E-02,  avg # of iterations =  3.0

     negative rho (up, down):  6.094E-02 0.000E+00

     total energy              =   -1993.38592888 Ry
     estimated scf accuracy    <      11.31495789 Ry

[...]

     total energy              =   -2000.72787193 Ry
     estimated scf accuracy    <       0.00000162 Ry

     iteration # 13     ecut=    30.00 Ry     beta= 0.70
     Davidson diagonalization with overlap

     ethr =  1.52E-09,  avg # of iterations =  2.0

[...]

     End of self-consistent calculation

          k = 0.0000 0.0000 0.0000 (   820 PWs)   bands (ev):

   -96.0131 -96.0019 -96.0013 -96.0011 -78.2718 -53.4697 -53.4236 -53.4236
   -53.4235 -53.4125 -53.4125 -53.3660 -53.3659 -53.3656 -53.3293 -53.3289
   -53.3288 -41.2529 -41.2529 -41.2528 -31.7685  -9.8587  -9.8586  -9.8585
     7.8102  10.4917  10.4918  10.4918  10.5544  10.5544  11.6863  12.5125
    12.5125  12.5127  12.8736  12.8737  12.8739  13.0424  13.0424  14.3373
    14.3373  14.3376  14.3880  14.3880  14.4041  14.4045  14.4046  15.1782
    15.1783  15.1786  15.7548  15.7548  15.7549  16.2195  17.2793  17.2794
    20.2248  20.2249  20.2249  20.4547  23.5973  23.5974  23.5975  23.9329
    23.9329

     occupation numbers
     1.0000   1.0000   1.0000   1.0000   1.0000   1.0000   1.0000   1.0000
     1.0000   1.0000   1.0000   1.0000   1.0000   1.0000   1.0000   1.0000
     1.0000   1.0000   1.0000   1.0000   1.0000   1.0000   1.0000   1.0000
     1.0000   1.0000   1.0000   1.0000   1.0000   1.0000   1.0000   1.0000
     1.0000   1.0000   1.0000   1.0000   1.0000   1.0000   1.0000   1.0000
     1.0000   1.0000   1.0000   1.0000   1.0000   1.0000   1.0000   1.0000
     1.0000   1.0000   1.0000   1.0000   1.0000   0.5000  -0.0000  -0.0000
    -0.0000  -0.0000  -0.0000  -0.0000  -0.0000  -0.0000  -0.0000  -0.0000
    -0.0000

     the Fermi energy is    16.2195 ev

!    total energy              =   -2000.72787216 Ry
     estimated scf accuracy    <       0.00000018 Ry
     smearing contrib. (-TS)   =      -0.00028209 Ry
     internal energy E=F+TS    =   -2000.72759007 Ry

     The total energy is F=E-TS. E is the sum of the following terms:
     one-electron contribution =   -1341.70580546 Ry
     hartree contribution      =     731.37094364 Ry
     xc contribution           =    -200.13512825 Ry
     ewald contribution        =   -1190.25760000 Ry

     convergence has been achieved in  13 iterations

     negative rho (up, down):  6.100E-02 0.000E+00

     Forces acting on atoms (cartesian axes, Ry/au):

     atom    1 type  1   force =     0.00000000    0.00000000   -0.00004090
     atom    2 type  2   force =     0.00000000    0.00000000   -0.01718271
     atom    3 type  2   force =     0.00000000   -0.01633648    0.00574171
     atom    4 type  2   force =    -0.01414780    0.00816824    0.00574171
     atom    5 type  2   force =     0.01414780    0.00816824    0.00574171
     atom    6 type  3   force =     0.00000000    0.00000000   -0.00000153
     The non-local contrib.  to forces
     atom    1 type  1   force =    -0.00000000   -0.00000000   -0.00001302
     atom    2 type  2   force =     0.00000000    0.00000000   -0.45096091
     atom    3 type  2   force =     0.00000000   -0.42521154    0.15035544
     atom    4 type  2   force =    -0.36824400    0.21260577    0.15035544
     atom    5 type  2   force =     0.36824400    0.21260577    0.15035544
     atom    6 type  3   force =     0.00000000    0.00000000    0.00000426
     The ionic contribution  to forces
     atom    1 type  1   force =    -0.00000000    0.00000000    0.00000000
     atom    2 type  2   force =    -0.00000000   -0.00000000    3.31986277
     atom    3 type  2   force =    -0.00000000    3.12999663   -1.10662092
     atom    4 type  2   force =     2.71065660   -1.56499832   -1.10662092
     atom    5 type  2   force =    -2.71065660   -1.56499832   -1.10662092
     atom    6 type  3   force =     0.00000000    0.00000000    0.00000000
     The local contribution  to forces
     atom    1 type  1   force =     0.00023125   -0.00001165   -0.00011074
     atom    2 type  2   force =    -0.00029775   -0.00013297   -2.88705930
     atom    3 type  2   force =    -0.00025403   -2.72182297    0.96228148
     atom    4 type  2   force =    -2.35737142    1.36068123    0.96223524
     atom    5 type  2   force =     2.35739880    1.36098062    0.96251518
     atom    6 type  3   force =     0.00022896    0.00065121    0.00006969
     The core correction contribution to forces
     atom    1 type  1   force =     0.00000302   -0.00000018   -0.00000094
     atom    2 type  2   force =     0.00000006    0.00000019    0.00067163
     atom    3 type  2   force =     0.00000023    0.00063335   -0.00022397
     atom    4 type  2   force =     0.00054848   -0.00031632   -0.00022405
     atom    5 type  2   force =    -0.00054855   -0.00031672   -0.00022411
     atom    6 type  3   force =     0.00000000    0.00000000    0.00000000
     The Hubbard contrib.    to forces
     atom    1 type  1   force =     0.00000000    0.00000000    0.00000000
     atom    2 type  2   force =     0.00000000    0.00000000    0.00000000
     atom    3 type  2   force =     0.00000000    0.00000000    0.00000000
     atom    4 type  2   force =     0.00000000    0.00000000    0.00000000
     atom    5 type  2   force =     0.00000000    0.00000000    0.00000000
     atom    6 type  3   force =     0.00000000    0.00000000    0.00000000
     The SCF correction term to forces
     atom    1 type  1   force =    -0.00019059    0.00001003    0.00010170
     atom    2 type  2   force =     0.00042115    0.00023136    0.00032101
     atom    3 type  2   force =     0.00043962    0.00006841   -0.00003982
     atom    4 type  2   force =     0.00028459    0.00042185    0.00008934
     atom    5 type  2   force =    -0.00037048   -0.00015054   -0.00033397
     atom    6 type  3   force =    -0.00028744   -0.00077105   -0.00005757

     Total force =     0.034566     Total SCF correction =     0.001341

     Computing stress (Cartesian axis) and pressure

     negative rho (up, down):  6.100E-02 0.000E+00
          total   stress  (Ry/bohr**3)                   (kbar)     P=     -875.00
  -0.00594820   0.00000000  -0.00000000         -875.01        0.00       -0.00
   0.00000000  -0.00594820   0.00000000            0.00     -875.01        0.00
   0.00000000   0.00000000  -0.00594803            0.00        0.00     -874.99

     kinetic stress (kbar)  49092.65      0.00      0.00
                                0.00  49092.65     -0.00
                                0.00     -0.00  49092.65

     local   stress (kbar) -18680.77      0.06     -0.00
                                0.06 -18680.89      0.05
                               -0.00      0.05 -18681.32

     nonloc. stress (kbar)  23545.07      0.00     -0.00
                                0.00  23545.07     -0.00
                                0.00     -0.00  23545.09

     hartree stress (kbar)  61883.36     -0.05     -0.01
                               -0.05  61883.50     -0.05
                               -0.01     -0.05  61883.91

     exc-cor stress (kbar) -14039.00     -0.00      0.00
                               -0.00 -14039.00      0.00
                                0.00      0.00 -14039.00

     corecor stress (kbar)  -1964.90      0.00     -0.00
                                0.00  -1964.90     -0.00
                               -0.00     -0.00  -1964.90

     ewald   stress (kbar)-100711.43      0.00      0.00
                                0.00-100711.43      0.00
                                0.00      0.00-100711.43

     hubbard stress (kbar)      0.00      0.00      0.00
                                0.00      0.00      0.00
                                0.00      0.00      0.00

     DFT-D   stress (kbar)      0.00      0.00      0.00
                                0.00      0.00      0.00
                                0.00      0.00      0.00

     XDM     stress (kbar)      0.00      0.00      0.00
                                0.00      0.00      0.00
                                0.00      0.00      0.00

     dft-nl  stress (kbar)      0.00      0.00      0.00
                                0.00      0.00      0.00
                                0.00      0.00      0.00

     TS-vdW  stress (kbar)      0.00      0.00      0.00
                                0.00      0.00      0.00
                                0.00      0.00      0.00

[...]

                                0.00      0.00      0.00

     Writing all to output data dir new_calculations/myprefix.save/

     General routines

     Parallel routines

   This run was terminated on:   9:53:36  21May2023

   JOB DONE.