     Program PWSCF v.7.0 starts on 21May2023 at  5:16:25

     Reading input from espresso_2973.pwi
Warning: card &CELL ignored
Warning: card / ignored

     Current dimensions of program PWSCF are:
     Max number of different atomic species (ntypx) = 10
     Max number of k-points (npk) =  40000
     Max angular momentum in pseudopotentials (lmaxx) =  4
     file O.pbe-n-kjpaw_psl.0.1.UPF: wavefunction(s)  2P renormalized

     gamma-point specific algorithms are used

     Subspace diagonalization in iterative solution of the eigenvalue problem:
     a serial algorithm will be used

     Using Slab Decomposition

     bravais-lattice index     =            0
     lattice parameter (alat)  =       5.7429  a.u.
     unit-cell volume          =    1105.4357 (a.u.)^3
     number of atoms/cell      =           16
     number of atomic types    =            3
     number of electrons       =       156.00
     number of Kohn-Sham states=           94
     kinetic-energy cutoff     =      30.0000  Ry
     charge density cutoff     =     240.0000  Ry
     scf convergence threshold =      1.0E-06
     mixing beta               =       0.7000
     number of iterations used =            8  plain     mixing
     Exchange-correlation= SLA  PW   PBX  PBC
                           (   1   4   3   4   0   0   0)

     celldm(1)=   5.742886  celldm(2)=   0.000000  celldm(3)=   0.000000
     celldm(4)=   0.000000  celldm(5)=   0.000000  celldm(6)=   0.000000

     crystal axes: (cart. coord. in units of alat)
               a(1) = (   1.000000   0.000000   0.000000 )
               a(2) = (   0.535151   3.611182   0.000000 )
               a(3) = (  -0.066191   0.390237   1.616194 )

     reciprocal axes: (cart. coord. in units 2 pi/alat)
               b(1) = (  1.000000 -0.148193  0.076736 )
               b(2) = (  0.000000  0.276918 -0.066863 )
               b(3) = (  0.000000  0.000000  0.618738 )

     PseudoPot. # 1 for Na read from file:
     /home/pragov/projects/rrg-bengioy-ad/pragov/crystal_structure_design/SSSP/na_pbe_v1.5.uspp.F.UPF
     MD5 check sum: 44600605ef58000f06b90626533354dc
     Pseudo is Ultrasoft, Zval =  9.0
     Generated by new atomic code, or converted to UPF format
     Using radial grid of  819 points,  5 beta functions with:
                l(1) =   0
                l(2) =   0
                l(3) =   1
                l(4) =   1
                l(5) =   2
     Q(r) pseudized with  8 coefficients,  rinner =    1.250   1.250   1.250
                                                       1.250   1.250

     PseudoPot. # 2 for Ni read from file:
     /home/pragov/projects/rrg-bengioy-ad/pragov/crystal_structure_design/SSSP/ni_pbe_v1.4.uspp.F.UPF
     MD5 check sum: 1ee80287db30b12d2bc1f57a5b5d6409
     Pseudo is Ultrasoft + core correction, Zval = 18.0
     Generated by new atomic code, or converted to UPF format
     Using radial grid of  865 points,  6 beta functions with:
                l(1) =   0
                l(2) =   0
                l(3) =   1
                l(4) =   1
                l(5) =   2
                l(6) =   2
     Q(r) pseudized with 10 coefficients,  rinner =    0.980   0.980   0.980
                                                       0.980   0.980

     PseudoPot. # 3 for O  read from file:
     /home/pragov/projects/rrg-bengioy-ad/pragov/crystal_structure_design/SSSP/O.pbe-n-kjpaw_psl.0.1.UPF
     MD5 check sum: 0234752ac141de4415c5fc33072bef88
     Pseudo is Projector augmented-wave + core cor, Zval =  6.0
     Generated using "atomic" code by A. Dal Corso  v.5.0.99 svn rev. 10869
     Shape of augmentation charge: BESSEL
     Using radial grid of 1095 points,  4 beta functions with:
                l(1) =   0
                l(2) =   0
                l(3) =   1
                l(4) =   1
     Q(r) pseudized with 0 coefficients

     atomic species   valence    mass     pseudopotential
        Na             9.00    22.98977     Na( 1.00)
        Ni            18.00    58.69340     Ni( 1.00)
        O              6.00    15.99900     O ( 1.00)

     No symmetry found

                                    s                        frac. trans.

      isym =  1     identity

 cryst.   s( 1) = (     1          0          0      )
                  (     0          1          0      )
                  (     0          0          1      )

 cart.    s( 1) = (  1.0000000  0.0000000  0.0000000 )
                  (  0.0000000  1.0000000  0.0000000 )
                  (  0.0000000  0.0000000  1.0000000 )

   Cartesian axes

     site n.     atom                  positions (alat units)
         1           Na  tau(   1) = (   0.9928239   0.9888423   0.3559652  )
         2           Na  tau(   2) = (   0.4325120   1.1851640   1.1654554  )
         3           Na  tau(   3) = (   0.4757319   3.0126742   1.2598703  )
         4           Na  tau(   4) = (   1.0359543   2.8163090   0.4506935  )
         5           Ni  tau(   5) = (   0.5013793   1.9024651   0.4045463  )
         6           Ni  tau(   6) = (   0.4668812   0.1955477   0.8077205  )
         7           Ni  tau(   7) = (   0.9682529   2.0979909   1.2124156  )
         8           Ni  tau(   8) = (   0.9337318   0.3905888   1.6158258  )
         9           O   tau(   9) = (   0.4165122   1.8343838   1.5836603  )
        10           O   tau(  10) = (   0.9472311   1.6381356   0.7764488  )
        11           O   tau(  11) = (   1.0530326   2.1666541   0.0333486  )
        12           O   tau(  12) = (   0.5219721   2.3626549   0.8404032  )
        13           O   tau(  13) = (   0.9429422   3.5985129   1.4036582  )
        14           O   tau(  14) = (   0.5616868   3.4024443   0.5956646  )
        15           O   tau(  15) = (   0.5258285   0.4033863   0.2119526  )
        16           O   tau(  16) = (   0.9069670   0.5995419   1.0200222  )

   Crystallographic axes

     site n.     atom                  positions (cryst. coord.)
         1           Na  tau(   1) = (  0.8736000  0.2500270  0.2202490  )
         2           Na  tau(   2) = (  0.3463120  0.2502670  0.7211110  )
         3           Na  tau(   3) = (  0.1259530  0.7500240  0.7795290  )
         4           Na  tau(   4) = (  0.6531820  0.7497510  0.2788610  )
         5           Ni  tau(   5) = (  0.2504910  0.4997770  0.2503080  )
         6           Ni  tau(   6) = (  0.4998840  0.0001440  0.4997670  )
         7           Ni  tau(   7) = (  0.7503820  0.4999050  0.7501670  )
         8           Ni  tau(   8) = (  0.9998420  0.0001220  0.9997720  )
         9           O   tau(   9) = (  0.2661940  0.4020850  0.9798700  )
        10           O   tau(  10) = (  0.7640530  0.4017130  0.4804180  )
        11           O   tau(  11) = (  0.7345090  0.5977550  0.0206340  )
        12           O   tau(  12) = (  0.2363330  0.5980690  0.5199890  )
        13           O   tau(  13) = (  0.5173800  0.9026390  0.8684960  )
        14           O   tau(  14) = (  0.1031780  0.9023690  0.3685600  )
        15           O   tau(  15) = (  0.4823140  0.0975330  0.1311430  )
        16           O   tau(  16) = (  0.8963920  0.0978220  0.6311260  )

     number of k points=     1  Methfessel-Paxton smearing, width (Ry)=  0.0010
                       cart. coord. in units 2pi/alat
        k(    1) = (   0.0000000   0.0000000   0.0000000), wk =   2.0000000

                       cryst. coord.
        k(    1) = (   0.0000000   0.0000000   0.0000000), wk =   2.0000000

     Check: negative core charge=   -0.000017

     Initial potential from superposition of free atoms

     starting charge     147.9748, renormalised to     156.0000
     Starting wfcs are  104 randomized atomic wfcs
     Checking if some PAW data can be deallocated...

     Self-consistent Calculation

     iteration #  1     ecut=    30.00 Ry     beta= 0.70
     Davidson diagonalization with overlap

     ethr =  1.00E-02,  avg # of iterations =  3.0

     total energy              =   -2041.03373760 Ry
     estimated scf accuracy    <      65.66581135 Ry

[...]

     total energy              =   -2086.23932914 Ry
     estimated scf accuracy    <       0.00001128 Ry

     iteration # 64     ecut=    30.00 Ry     beta= 0.70
     Davidson diagonalization with overlap

     ethr =  1.51E-09,  avg # of iterations =  1.0

     End of self-consistent calculation

          k = 0.0000 0.0000 0.0000 (  1526 PWs)   bands (ev):

   -94.8370 -94.6629 -94.6608 -94.5658 -55.4551 -55.4479 -55.4231 -55.3230
   -55.2674 -55.0122 -54.9957 -54.9639 -54.7227 -54.4429 -54.4392 -54.3237
   -41.9017 -41.8965 -41.8427 -41.8368 -14.0198 -14.0146 -13.8846 -13.8687
   -13.7768 -13.7713 -13.7468 -13.7420 -13.7199 -13.7142 -13.6967 -13.6905
    -9.9182  -9.6968  -8.6675  -8.6529  -8.5786  -8.4499  -8.4117  -8.3841
     2.9035   2.9054   3.1252   3.8361   4.2372   4.2930   4.3453   4.3985
     4.6515   4.8906   5.0603   5.0902   5.1270   5.3815   5.8208   5.9022
     6.1406   6.3073   6.5477   7.2750   7.2861   7.3696   7.4798   7.5237
     7.5326   7.6385   7.6681   7.6827   7.7093   7.7150   7.7399   7.8795
     8.3082   8.4152   8.4364   8.5553  10.0806  10.0840  10.0913  10.1265
    10.2660  10.3087  10.8039  10.8217  12.5726  14.3866  15.3824  16.3710
    16.3941  17.0180  18.4330  18.6322  18.6409  18.6912

     occupation numbers
     1.0000   1.0000   1.0000   1.0000   1.0000   1.0000   1.0000   1.0000
     1.0000   1.0000   1.0000   1.0000   1.0000   1.0000   1.0000   1.0000
     1.0000   1.0000   1.0000   1.0000   1.0000   1.0000   1.0000   1.0000
     1.0000   1.0000   1.0000   1.0000   1.0000   1.0000   1.0000   1.0000
     1.0000   1.0000   1.0000   1.0000   1.0000   1.0000   1.0000   1.0000
     1.0000   1.0000   1.0000   1.0000   1.0000   1.0000   1.0000   1.0000
     1.0000   1.0000   1.0000   1.0000   1.0000   1.0000   1.0000   1.0000
     1.0000   1.0000   1.0000   1.0000   1.0000   1.0000   1.0000   1.0000
     1.0000   1.0000   1.0000   1.0000   1.0000   1.0000   1.0000   1.0000
     1.0000   1.0000   1.0000   1.0000   0.9116   0.7623   0.3263  -0.0003
    -0.0000  -0.0000  -0.0000  -0.0000  -0.0000  -0.0000  -0.0000  -0.0000
    -0.0000  -0.0000  -0.0000  -0.0000  -0.0000  -0.0000

     the Fermi energy is    10.0885 ev

!    total energy              =   -2086.23932913 Ry
     estimated scf accuracy    <       0.00000010 Ry
     smearing contrib. (-TS)   =      -0.00050780 Ry
     internal energy E=F+TS    =   -2086.23882133 Ry

     The total energy is F=E-TS. E is the sum of the following terms:
     one-electron contribution =   -1423.83074856 Ry
     hartree contribution      =     787.76994497 Ry
     xc contribution           =    -258.98548583 Ry
     ewald contribution        =   -1115.04538895 Ry
     one-center paw contrib.   =     -76.14714297 Ry
      -> PAW hartree energy AE =     232.63531774 Ry
      -> PAW hartree energy PS =    -231.78441524 Ry
      -> PAW xc energy AE      =    -136.66142276 Ry
      -> PAW xc energy PS      =      59.66337728 Ry
      -> total E_H with PAW    =     788.62084748 Ry
      -> total E_XC with PAW   =    -335.98353130 Ry

     convergence has been achieved in  64 iterations

     Forces acting on atoms (cartesian axes, Ry/au):

     atom    1 type  1   force =     0.00017827   -0.00047869   -0.00257868
     atom    2 type  1   force =    -0.00035877   -0.00214993   -0.00456256
     atom    3 type  1   force =    -0.00001850    0.00048155    0.00270081
     atom    4 type  1   force =     0.00046555    0.00211980    0.00441033
     atom    5 type  2   force =    -0.00101851    0.00011167   -0.00010550
     atom    6 type  2   force =    -0.00034676   -0.00054300    0.00032137
     atom    7 type  2   force =    -0.00012946    0.00151927   -0.00002500
     atom    8 type  2   force =    -0.00012221   -0.00042072    0.00035081
     atom    9 type  3   force =    -0.00514680    0.04207585   -0.00367603
     atom   10 type  3   force =    -0.00474097    0.04357735   -0.00559078
     atom   11 type  3   force =     0.00557566   -0.04273462    0.00350628
     atom   12 type  3   force =     0.00525513   -0.04417103    0.00573380
     atom   13 type  3   force =    -0.00012924    0.04529868   -0.00980067
     atom   14 type  3   force =     0.01206842    0.02775139   -0.02226532
     atom   15 type  3   force =     0.00019659   -0.04504195    0.00957098
     atom   16 type  3   force =    -0.01172839   -0.02739560    0.02201016
     The non-local contrib.  to forces
     atom    1 type  1   force =     0.08167252   -0.01534152   -0.06250921
     atom    2 type  1   force =    -0.06651192    0.00172743   -0.05552886
     atom    3 type  1   force =    -0.08064046    0.01526239    0.06144107
     atom    4 type  1   force =     0.06674932   -0.00102707    0.05649017
     atom    5 type  2   force =    -0.00985053   -0.00031415   -0.00108869
     atom    6 type  2   force =    -0.00060716    0.00075312    0.00019690
     atom    7 type  2   force =     0.00888079   -0.00173928    0.00219738
     atom    8 type  2   force =     0.00031513    0.00059872    0.00000659
     atom    9 type  3   force =    -0.35767704    0.36342285   -0.04279070
     atom   10 type  3   force =    -0.35276129    0.37938423   -0.04442419
     atom   11 type  3   force =     0.35675423   -0.36282973    0.04215525
     atom   12 type  3   force =     0.35111318   -0.37868397    0.04436704
     atom   13 type  3   force =    -0.05390811    0.41082179   -0.13160324
     atom   14 type  3   force =     0.36388623    0.34839921   -0.19367501
     atom   15 type  3   force =     0.05475853   -0.41103157    0.13215560
     atom   16 type  3   force =    -0.36425672   -0.34983245    0.19340286
     The ionic contribution  to forces
     atom    1 type  1   force =     0.23443658   -0.05040388   -0.09096954
     atom    2 type  1   force =    -0.00327450   -0.14060441   -0.15336891
     atom    3 type  1   force =    -0.22599643    0.02456781    0.10441108
     atom    4 type  1   force =     0.00831538    0.12460822    0.15336591
     atom    5 type  2   force =    -0.01368509    0.10218625   -0.00929436
     atom    6 type  2   force =    -0.01161166   -0.14761376    0.03965768
     atom    7 type  2   force =    -0.00646405    0.24014172   -0.06880943
     atom    8 type  2   force =     0.00242283   -0.15639037    0.04542447
     atom    9 type  3   force =     1.68831968  -15.91303954    2.75233654
     atom   10 type  3   force =     1.51930709  -15.95124808    2.74030558
     atom   11 type  3   force =    -1.68793350   16.00369940   -2.78766936
     atom   12 type  3   force =    -1.51035181   16.04239423   -2.75974282
     atom   13 type  3   force =     0.47132784  -15.28588661    4.87992812
     atom   14 type  3   force =    -1.81403393  -15.64522543    4.85743716
     atom   15 type  3   force =    -0.47234859   15.19248510   -4.86316281
     atom   16 type  3   force =     1.82157018   15.56032934   -4.83984930
     The local contribution  to forces
     atom    1 type  1   force =    -0.31593083    0.06493095    0.15082865
     atom    2 type  1   force =     0.06942036    0.13644348    0.20455416
     atom    3 type  1   force =     0.30662868   -0.03912338   -0.16321571
     atom    4 type  1   force =    -0.07459889   -0.12123118   -0.20549158
     atom    5 type  2   force =     0.02240572   -0.10163494    0.01023879
     atom    6 type  2   force =     0.01187983    0.14631795   -0.03953613
     atom    7 type  2   force =    -0.00245128   -0.23671091    0.06656960
     atom    8 type  2   force =    -0.00285551    0.15539963   -0.04508866
     atom    9 type  3   force =    -1.33997426   15.59509790   -2.71401468
     atom   10 type  3   force =    -1.17548345   15.61910122   -2.70198749
     atom   11 type  3   force =     1.34095518  -15.68700885    2.74950388
     atom   12 type  3   force =     1.16864559  -15.71143330    2.72189867
     atom   13 type  3   force =    -0.41811435   14.92493435   -4.75906849
     atom   14 type  3   force =     1.46646854   15.32810310   -4.68807785
     atom   15 type  3   force =     0.41836372  -14.83108739    4.74152193
     atom   16 type  3   force =    -1.47329766  -15.24147857    4.67051839
     The core correction contribution to forces
     atom    1 type  1   force =     0.00000000    0.00000000    0.00000000
     atom    2 type  1   force =     0.00000000    0.00000000    0.00000000
     atom    3 type  1   force =     0.00000000    0.00000000    0.00000000
     atom    4 type  1   force =     0.00000000    0.00000000    0.00000000
     atom    5 type  2   force =     0.00009953    0.00004161   -0.00000064
     atom    6 type  2   force =    -0.00000068   -0.00001630    0.00000231
     atom    7 type  2   force =    -0.00010607   -0.00000438   -0.00001581
     atom    8 type  2   force =    -0.00000716   -0.00000931    0.00000484
     atom    9 type  3   force =     0.00419691   -0.00353277    0.00067067
     atom   10 type  3   force =     0.00417992   -0.00372286    0.00068142
     atom   11 type  3   force =    -0.00418486    0.00352590   -0.00065846
     atom   12 type  3   force =    -0.00416023    0.00371444   -0.00068135
     atom   13 type  3   force =     0.00057883   -0.00440406    0.00107933
     atom   14 type  3   force =    -0.00423721   -0.00348882    0.00186255
     atom   15 type  3   force =    -0.00058976    0.00440783   -0.00108495
     atom   16 type  3   force =     0.00424075    0.00350528   -0.00185700
     The Hubbard contrib.    to forces
     atom    1 type  1   force =     0.00000000    0.00000000    0.00000000
     atom    2 type  1   force =     0.00000000    0.00000000    0.00000000
     atom    3 type  1   force =     0.00000000    0.00000000    0.00000000
     atom    4 type  1   force =     0.00000000    0.00000000    0.00000000
     atom    5 type  2   force =     0.00000000    0.00000000    0.00000000
     atom    6 type  2   force =     0.00000000    0.00000000    0.00000000
     atom    7 type  2   force =     0.00000000    0.00000000    0.00000000
     atom    8 type  2   force =     0.00000000    0.00000000    0.00000000
     atom    9 type  3   force =     0.00000000    0.00000000    0.00000000
     atom   10 type  3   force =     0.00000000    0.00000000    0.00000000
     atom   11 type  3   force =     0.00000000    0.00000000    0.00000000
     atom   12 type  3   force =     0.00000000    0.00000000    0.00000000
     atom   13 type  3   force =     0.00000000    0.00000000    0.00000000
     atom   14 type  3   force =     0.00000000    0.00000000    0.00000000
     atom   15 type  3   force =     0.00000000    0.00000000    0.00000000
     atom   16 type  3   force =     0.00000000    0.00000000    0.00000000
     The SCF correction term to forces
     atom    1 type  1   force =     0.00000037    0.00033142    0.00007178
     atom    2 type  1   force =     0.00000767    0.00027922   -0.00021859
     atom    3 type  1   force =    -0.00000991   -0.00022961    0.00006472
     atom    4 type  1   force =     0.00000011   -0.00023450    0.00004618
     atom    5 type  2   force =     0.00001224   -0.00017144    0.00003974
     atom    6 type  2   force =    -0.00000671    0.00001165    0.00000096
     atom    7 type  2   force =     0.00001151   -0.00017223    0.00003362
     atom    8 type  2   force =     0.00000288   -0.00002374    0.00000393
     atom    9 type  3   force =    -0.00001172    0.00012308    0.00012249
     atom   10 type  3   force =     0.00001712    0.00005851   -0.00016574
     atom   11 type  3   force =    -0.00001502   -0.00012568    0.00017532
     atom   12 type  3   force =     0.00000878   -0.00016676   -0.00010739
     atom   13 type  3   force =    -0.00001309   -0.00017113   -0.00013604
     atom   14 type  3   force =    -0.00001484   -0.00004101    0.00018818
     atom   15 type  3   force =     0.00001305    0.00017974    0.00014157
     atom   16 type  3   force =     0.00001543    0.00007646   -0.00020444

     Total force =     0.121512     Total SCF correction =     0.000867

     Computing stress (Cartesian axis) and pressure

          total   stress  (Ry/bohr**3)                   (kbar)     P=     -923.75
  -0.00643616  -0.00012956  -0.00015349         -946.79      -19.06      -22.58
  -0.00012956  -0.00669905   0.00026953          -19.06     -985.46       39.65
  -0.00015349   0.00026953  -0.00570343          -22.58       39.65     -839.00

     kinetic stress (kbar)  35102.45    115.83   -244.20
                              115.83  35221.83   -112.22
                             -244.20   -112.22  34713.95

     local   stress (kbar) -18422.02    378.82  -4292.81
                              378.82  46633.90 -17900.48
                            -4292.81 -17900.48 -23311.56

     nonloc. stress (kbar) -12344.64     30.52    -92.01
                               30.52 -11992.56    -19.57
                              -92.01    -19.57 -12121.85

     hartree stress (kbar)  44643.71   -150.54   1620.94
                             -150.54  13988.93   8248.90
                             1620.94   8248.90  46199.29

     exc-cor stress (kbar)  -9502.08      0.44      2.23
                                0.44  -9491.81      0.73
                                2.23      0.73  -9488.57

     corecor stress (kbar)  -1405.29     -0.87      1.33
                               -0.87  -1406.94      0.50
                                1.33      0.50  -1404.14

     ewald   stress (kbar) -39018.93   -393.25   2981.95
                             -393.25 -73938.82   9821.78
                             2981.95   9821.78 -35426.14

     hubbard stress (kbar)      0.00      0.00      0.00
                                0.00      0.00      0.00
                                0.00      0.00      0.00

     DFT-D   stress (kbar)      0.00      0.00      0.00
                                0.00      0.00      0.00
                                0.00      0.00      0.00

     XDM     stress (kbar)      0.00      0.00      0.00
                                0.00      0.00      0.00
                                0.00      0.00      0.00

     dft-nl  stress (kbar)      0.00      0.00      0.00
                                0.00      0.00      0.00
                                0.00      0.00      0.00

     TS-vdW  stress (kbar)      0.00      0.00      0.00
                                0.00      0.00      0.00
                                0.00      0.00      0.00

[...]

                                0.00      0.00      0.00

     Writing all to output data dir new_calculations/myprefix.save/

     General routines

     Parallel routines

     PAW routines

   This run was terminated on:   5:18:37  21May2023

   JOB DONE.