     Program PWSCF v.7.0 starts on 20May2023 at 12:10:36

     Reading input from espresso_11335.pwi
Warning: card &CELL ignored
Warning: card / ignored

     Current dimensions of program PWSCF are:
     Max number of different atomic species (ntypx) = 10
     Max number of k-points (npk) =  40000
     Max angular momentum in pseudopotentials (lmaxx) =  4

     gamma-point specific algorithms are used
     Message from routine setup:
     using ibrav=0 with symmetry is DISCOURAGED, use correct ibrav instead

     Subspace diagonalization in iterative solution of the eigenvalue problem:
     a serial algorithm will be used

     Using Slab Decomposition

     bravais-lattice index     =            0
     lattice parameter (alat)  =       9.7283  a.u.
     unit-cell volume          =    1528.7354 (a.u.)^3
     number of atoms/cell      =           18
     number of atomic types    =            4
     number of electrons       =       146.00
     number of Kohn-Sham states=           88
     kinetic-energy cutoff     =      30.0000  Ry
     charge density cutoff     =     240.0000  Ry
     scf convergence threshold =      1.0E-06
     mixing beta               =       0.7000
     number of iterations used =            8  plain     mixing
     Exchange-correlation=  SLA  PW   PBX  PBC
                           (   1   4   3   4   0   0   0)

     celldm(1)=   9.728337  celldm(2)=   0.000000  celldm(3)=   0.000000
     celldm(4)=   0.000000  celldm(5)=   0.000000  celldm(6)=   0.000000

     crystal axes: (cart. coord. in units of alat)
               a(1) = (   1.000000   0.000000   0.000000 )
               a(2) = (  -0.500000   0.866025   0.000000 )
               a(3) = (   0.000000   0.000000   1.917282 )

     reciprocal axes: (cart. coord. in units 2 pi/alat)
               b(1) = (  1.000000  0.577350  0.000000 )
               b(2) = (  0.000000  1.154701  0.000000 )
               b(3) = (  0.000000  0.000000  0.521572 )

     PseudoPot. # 1 for Li read from file:
     /home/pragov/projects/rrg-bengioy-ad/pragov/crystal_structure_design/SSSP/li_pbe_v1.4.uspp.F.UPF
     MD5 check sum: e912e257baa3777c20ea3d68f190483c
     Pseudo is Ultrasoft, Zval =  3.0
     Generated by new atomic code, or converted to UPF format
     Using radial grid of  751 points,  5 beta functions with:
                l(1) =   0
                l(2) =   0
                l(3) =   0
                l(4) =   1
                l(5) =   1
     Q(r) pseudized with 10 coefficients,  rinner =    1.150   1.150   1.150

     PseudoPot. # 2 for Ca read from file:
     /home/pragov/projects/rrg-bengioy-ad/pragov/crystal_structure_design/SSSP/Ca_pbe_v1.uspp.F.UPF
     MD5 check sum: 403a4c14b9e4d4dfdc3024c9a3812218
     Pseudo is Ultrasoft + core correction, Zval = 10.0
     Generated by new atomic code, or converted to UPF format
     Using radial grid of  845 points,  6 beta functions with:
                l(1) =   0
                l(2) =   0
                l(3) =   1
                l(4) =   1
                l(5) =   2
                l(6) =   2
     Q(r) pseudized with  8 coefficients,  rinner =    1.500   1.500   1.500
                                                       1.500   1.500

     PseudoPot. # 3 for Ni read from file:
     /home/pragov/projects/rrg-bengioy-ad/pragov/crystal_structure_design/SSSP/ni_pbe_v1.4.uspp.F.UPF
     MD5 check sum: 1ee80287db30b12d2bc1f57a5b5d6409
     Pseudo is Ultrasoft + core correction, Zval = 18.0
     Generated by new atomic code, or converted to UPF format
     Using radial grid of  865 points,  6 beta functions with:
                l(1) =   0
                l(2) =   0
                l(3) =   1
                l(4) =   1
                l(5) =   2
                l(6) =   2
     Q(r) pseudized with 10 coefficients,  rinner =    0.980   0.980   0.980
                                                       0.980   0.980

     PseudoPot. # 4 for F  read from file:
     /home/pragov/projects/rrg-bengioy-ad/pragov/crystal_structure_design/SSSP/f_pbe_v1.4.uspp.F.UPF
     MD5 check sum: 4c38b6a325caf53ec0e86aed9459de46
     Pseudo is Ultrasoft, Zval =  7.0
     Generated by new atomic code, or converted to UPF format
     Using radial grid of  799 points,  4 beta functions with:
                l(1) =   0
                l(2) =   0
                l(3) =   1
                l(4) =   1
     Q(r) pseudized with  8 coefficients,  rinner =    0.950   0.950   0.950

     atomic species   valence    mass     pseudopotential
        Li             3.00     6.94000     Li( 1.00)
        Ca            10.00    40.07800     Ca( 1.00)
        Ni            18.00    58.69340     Ni( 1.00)
        F              7.00    18.99840     F ( 1.00)

     12 Sym. Ops., with inversion, found ( 6 have fractional translation)

                                    s                        frac. trans.

      isym =  1     identity

 cryst.   s( 1) = (     1          0          0      )
                  (     0          1          0      )
                  (     0          0          1      )

 cart.    s( 1) = (  1.0000000  0.0000000  0.0000000 )
                  (  0.0000000  1.0000000  0.0000000 )
                  (  0.0000000  0.0000000  1.0000000 )

      isym =  2     180 deg rotation - cart. axis [0,1,0]

 cryst.   s( 2) = (    -1          0          0      )    f =(  0.0000010 )
                  (     1          1          0      )       (  0.0000000 )
                  (     0          0         -1      )       (  0.5000000 )

 cart.    s( 2) = ( -1.0000000 -0.0000000  0.0000000 )    f =(  0.0000010 )
                  (  0.0000000  1.0000000  0.0000000 )       (  0.0000000 )
                  (  0.0000000  0.0000000 -1.0000000 )       (  0.9586408 )

      isym =  3     120 deg rotation - cryst. axis [0,0,1]

[...]

      isym =  6     180 deg rotation - cryst. axis [2,1,0]

[...]

      isym =  7     inversion

[...]

      isym =  8     inv. 180 deg rotation - cart. axis [0,1,0]

 cryst.   s( 8) = (     1          0          0      )    f =(  0.0000010 )
                  (    -1         -1          0      )       (  0.0000000 )
                  (     0          0          1      )       ( -0.5000000 )

 cart.    s( 8) = (  1.0000000  0.0000000  0.0000000 )    f =(  0.0000010 )
                  (  0.0000000 -1.0000000  0.0000000 )       (  0.0000000 )
                  (  0.0000000  0.0000000  1.0000000 )       ( -0.9586408 )

      isym =  9     inv. 120 deg rotation - cryst. axis [0,0,1]

 cryst.   s( 9) = (     0         -1          0      )
                  (     1          1          0      )
                  (     0          0         -1      )

 cart.    s( 9) = (  0.5000000  0.8660254  0.0000000 )
                  ( -0.8660254  0.5000000  0.0000000 )
                  (  0.0000000  0.0000000 -1.0000000 )

[...]

 cryst.   s(10) = (     1          1          0      )
                  (    -1          0          0      )
                  (     0          0         -1      )

 cart.    s(10) = (  0.5000000 -0.8660254  0.0000000 )
                  (  0.8660254  0.5000000  0.0000000 )
                  (  0.0000000  0.0000000 -1.0000000 )

[...]

 cryst.   s(11) = (     0          1          0      )    f =(  0.0000000 )
                  (     1          0          0      )       (  0.0000000 )
                  (     0          0          1      )       ( -0.5000000 )

 cart.    s(11) = ( -0.5000000  0.8660254  0.0000000 )    f =( -0.0000000 )
                  (  0.8660254  0.5000000  0.0000000 )       (  0.0000000 )
                  (  0.0000000  0.0000000  1.0000000 )       ( -0.9586408 )

      isym = 12     inv. 180 deg rotation - cryst. axis [2,1,0]

 cryst.   s(12) = (    -1         -1          0      )    f =( -0.0000000 )
                  (     0          1          0      )       ( -0.0000010 )
                  (     0          0          1      )       ( -0.5000000 )

 cart.    s(12) = ( -0.5000000 -0.8660254  0.0000000 )    f =(  0.0000005 )
                  ( -0.8660254  0.5000000  0.0000000 )       ( -0.0000009 )
                  (  0.0000000  0.0000000  1.0000000 )       ( -0.9586408 )

   Cartesian axes

     site n.     atom                  positions (alat units)
         1           Li  tau(   1) = (  -0.0000005   0.5773506   0.4793204  )
         2           Li  tau(   2) = (   0.5000005   0.2886748   1.4379612  )
         3           Ca  tau(   3) = (   0.0000000   0.0000000   0.0000000  )
         4           Ca  tau(   4) = (   0.0000000   0.0000000   0.9586408  )
         5           Ni  tau(   5) = (  -0.0000005   0.5773506   1.4379612  )
         6           Ni  tau(   6) = (   0.5000005   0.2886748   0.4793204  )
         7           F   tau(   7) = (   0.3573150   0.0163731   0.2690272  )
         8           F   tau(   8) = (   0.3071630   0.5647681   1.2276680  )
         9           F   tau(   9) = (  -0.1426850   0.8496523   1.2276680  )
        10           F   tau(  10) = (  -0.1644780   0.3176304   1.2276680  )
        11           F   tau(  11) = (   0.6644780   0.5483950   0.6896136  )
        12           F   tau(  12) = (   0.8071630   0.3012573   0.2690272  )
        13           F   tau(  13) = (   0.3355220   0.5483950   0.2690272  )
        14           F   tau(  14) = (   0.6426850   0.0163731   0.6896136  )
        15           F   tau(  15) = (  -0.3071630   0.5647681   1.6482545  )
        16           F   tau(  16) = (   0.1928370   0.3012573   0.6896136  )
        17           F   tau(  17) = (   0.1426850   0.8496523   1.6482545  )
        18           F   tau(  18) = (   0.1644780   0.3176304   1.6482545  )

   Crystallographic axes

     site n.     atom                  positions (cryst. coord.)
         1           Li  tau(   1) = (  0.3333330  0.6666670  0.2500000  )
         2           Li  tau(   2) = (  0.6666670  0.3333330  0.7500000  )
         3           Ca  tau(   3) = (  0.0000000  0.0000000  0.0000000  )
         4           Ca  tau(   4) = (  0.0000000  0.0000000  0.5000000  )
         5           Ni  tau(   5) = (  0.3333330  0.6666670  0.7500000  )
         6           Ni  tau(   6) = (  0.6666670  0.3333330  0.2500000  )
         7           F   tau(   7) = (  0.3667680  0.0189060  0.1403170  )
         8           F   tau(   8) = (  0.6332320  0.6521380  0.6403170  )
         9           F   tau(   9) = (  0.3478620  0.9810940  0.6403170  )
        10           F   tau(  10) = (  0.0189060  0.3667680  0.6403170  )
        11           F   tau(  11) = (  0.9810940  0.6332320  0.3596830  )
        12           F   tau(  12) = (  0.9810940  0.3478620  0.1403170  )
        13           F   tau(  13) = (  0.6521380  0.6332320  0.1403170  )
        14           F   tau(  14) = (  0.6521380  0.0189060  0.3596830  )
        15           F   tau(  15) = (  0.0189060  0.6521380  0.8596830  )
        16           F   tau(  16) = (  0.3667680  0.3478620  0.3596830  )
        17           F   tau(  17) = (  0.6332320  0.9810940  0.8596830  )
        18           F   tau(  18) = (  0.3478620  0.3667680  0.8596830  )

     number of k points=     1  Methfessel-Paxton smearing, width (Ry)=  0.0010
                       cart. coord. in units 2pi/alat
        k(    1) = (   0.0000000   0.0000000   0.0000000), wk =   2.0000000

                       cryst. coord.
        k(    1) = (   0.0000000   0.0000000   0.0000000), wk =   2.0000000

     Check: negative core charge=   -0.000003

     Initial potential from superposition of free atoms

     starting charge     141.0876, renormalised to     146.0000
     Starting wfcs are  104 randomized atomic wfcs

     Self-consistent Calculation

     iteration #  1     ecut=    30.00 Ry     beta= 0.70
     Davidson diagonalization with overlap

     ethr =  1.00E-02,  avg # of iterations =  3.0

     total energy              =   -1440.66377812 Ry
     estimated scf accuracy    <      13.32750082 Ry

[...]

     total energy              =   -1449.89352044 Ry
     estimated scf accuracy    <       0.00000349 Ry

     iteration # 31     ecut=    30.00 Ry     beta= 0.70
     Davidson diagonalization with overlap

     ethr =  2.39E-09,  avg # of iterations =  2.0

     End of self-consistent calculation

          k = 0.0000 0.0000 0.0000 (  2150 PWs)   bands (ev):

  -100.8376-100.8353 -61.1605 -61.1605 -61.1573 -61.1573 -61.0663 -61.0531
   -39.3411 -39.3405 -34.7782 -34.7780 -19.0199 -18.9239 -18.5706 -18.5071
   -18.5071 -18.4482 -18.4461 -18.4461 -18.3871 -18.3871 -18.3152 -18.3152
   -15.6184 -15.6184 -15.6015 -15.6015 -15.5922 -15.5501  -2.0127  -1.7921
    -1.5427  -1.5426  -1.4081  -1.4080  -1.3164  -1.3163  -1.1360  -1.1360
    -1.0882  -0.8728  -0.8630  -0.8629  -0.6765  -0.5982  -0.5898  -0.5897
     0.0130   0.2363   0.2692   0.4206   0.4207   0.5039   0.6667   0.7762
     0.7762   0.8937   0.8937   1.0664   1.0665   1.0841   1.0841   1.1482
     1.1970   1.1970   2.2717   2.3032   2.3033   2.4065   2.4075   2.4076
     3.8206   3.8206   3.9417   3.9417   8.9921  10.6235  10.6443  10.6997
    10.6997  10.7280  10.7280  11.1843  11.2622  12.1672  12.1711  12.3469

     occupation numbers
     1.0000   1.0000   1.0000   1.0000   1.0000   1.0000   1.0000   1.0000
     1.0000   1.0000   1.0000   1.0000   1.0000   1.0000   1.0000   1.0000
     1.0000   1.0000   1.0000   1.0000   1.0000   1.0000   1.0000   1.0000
     1.0000   1.0000   1.0000   1.0000   1.0000   1.0000   1.0000   1.0000
     1.0000   1.0000   1.0000   1.0000   1.0000   1.0000   1.0000   1.0000
     1.0000   1.0000   1.0000   1.0000   1.0000   1.0000   1.0000   1.0000
     1.0000   1.0000   1.0000   1.0000   1.0000   1.0000   1.0000   1.0000
     1.0000   1.0000   1.0000   1.0000   1.0000   1.0000   1.0000   1.0000
     1.0000   1.0000   1.0000   1.0000   1.0000   1.0000   1.0000   1.0000
     0.5015   0.4985  -0.0000  -0.0000  -0.0000  -0.0000  -0.0000  -0.0000
    -0.0000  -0.0000  -0.0000  -0.0000  -0.0000  -0.0000  -0.0000  -0.0000

     the Fermi energy is     3.8206 ev

!    total energy              =   -1449.89352052 Ry
     estimated scf accuracy    <       0.00000055 Ry
     smearing contrib. (-TS)   =      -0.00056418 Ry
     internal energy E=F+TS    =   -1449.89295634 Ry

     The total energy is F=E-TS. E is the sum of the following terms:
     one-electron contribution =   -1078.01729885 Ry
     hartree contribution      =     599.35434536 Ry
     xc contribution           =    -213.84550303 Ry
     ewald contribution        =    -757.38449982 Ry

     convergence has been achieved in  31 iterations

     Forces acting on atoms (cartesian axes, Ry/au):

     atom    1 type  1   force =     0.00000000    0.00000000    0.00000000
     atom    2 type  1   force =     0.00000000   -0.00000000    0.00000000
     atom    3 type  2   force =     0.00000000    0.00000000   -0.00000000
     atom    4 type  2   force =     0.00000000   -0.00000000    0.00000000
     atom    5 type  3   force =    -0.00000000    0.00000000    0.00000000
     atom    6 type  3   force =     0.00000000    0.00000000    0.00000000
     atom    7 type  4   force =     0.00085784    0.00248415    0.00601773
     atom    8 type  4   force =    -0.00258026    0.00049917    0.00601773
     atom    9 type  4   force =     0.00085784   -0.00248415    0.00601773
     atom   10 type  4   force =     0.00172242    0.00198498    0.00601773
     atom   11 type  4   force =    -0.00172242   -0.00198498   -0.00601773
     atom   12 type  4   force =    -0.00258026   -0.00049917    0.00601773
     atom   13 type  4   force =     0.00172242   -0.00198498    0.00601773
     atom   14 type  4   force =    -0.00085784    0.00248415   -0.00601773
     atom   15 type  4   force =     0.00258026    0.00049917   -0.00601773
     atom   16 type  4   force =     0.00258026   -0.00049917   -0.00601773
     atom   17 type  4   force =    -0.00085784   -0.00248415   -0.00601773
     atom   18 type  4   force =    -0.00172242    0.00198498   -0.00601773
     The non-local contrib.  to forces
     atom    1 type  1   force =     0.00000000    0.00000000    0.00000000
     atom    2 type  1   force =     0.00000000    0.00000000    0.00000000
     atom    3 type  2   force =     0.00000000    0.00000000    0.00000000
     atom    4 type  2   force =     0.00000000    0.00000000   -0.00000000
     atom    5 type  3   force =    -0.00000000    0.00000000    0.00000000
     atom    6 type  3   force =     0.00000000   -0.00000000    0.00000000
     atom    7 type  4   force =     0.07632207    0.43172545    0.35810356
     atom    8 type  4   force =    -0.41204623    0.14976587    0.35810356
     atom    9 type  4   force =     0.07632207   -0.43172544    0.35810356
     atom   10 type  4   force =     0.33572417    0.28195958    0.35810356
     atom   11 type  4   force =    -0.33572417   -0.28195958   -0.35810356
     atom   12 type  4   force =    -0.41204623   -0.14976588    0.35810356
     atom   13 type  4   force =     0.33572417   -0.28195957    0.35810356
     atom   14 type  4   force =    -0.07632207    0.43172544   -0.35810356
     atom   15 type  4   force =     0.41204623    0.14976588   -0.35810356
     atom   16 type  4   force =     0.41204623   -0.14976587   -0.35810356
     atom   17 type  4   force =    -0.07632207   -0.43172545   -0.35810356
     atom   18 type  4   force =    -0.33572417    0.28195957   -0.35810356
     The ionic contribution  to forces
     atom    1 type  1   force =     0.00002344   -0.00001353    0.00000000
     atom    2 type  1   force =    -0.00002344    0.00001353    0.00000000
     atom    3 type  2   force =     0.00000000    0.00000000    0.00000000
     atom    4 type  2   force =    -0.00000000    0.00000000   -0.00000000
     atom    5 type  3   force =     0.00006789   -0.00003919   -0.00000000
     atom    6 type  3   force =    -0.00006789    0.00003919   -0.00000000
     atom    7 type  4   force =    -3.87434492   -9.38957546   -9.62909077
     atom    8 type  4   force =    10.06875166   -1.33954826   -9.62904829
     atom    9 type  4   force =    -3.87433214    9.38962743   -9.62911813
     atom   10 type  4   force =    -6.19443827   -8.05006897   -9.62909077
     atom   11 type  4   force =     6.19443827    8.05006897    9.62909078
     atom   12 type  4   force =    10.06882193    1.33954385   -9.62911814
     atom   13 type  4   force =    -6.19445881    8.05002048   -9.62904829
     atom   14 type  4   force =     3.87433214   -9.38962743    9.62911814
     atom   15 type  4   force =   -10.06882193   -1.33954385    9.62911814
     atom   16 type  4   force =   -10.06875166    1.33954826    9.62904829
     atom   17 type  4   force =     3.87434492    9.38957546    9.62909077
     atom   18 type  4   force =     6.19445881   -8.05002048    9.62904829
     The local contribution  to forces
     atom    1 type  1   force =    -0.00004869   -0.00007777    0.00000162
     atom    2 type  1   force =     0.00005400    0.00008024    0.00000197
     atom    3 type  2   force =    -0.00000182   -0.00000190    0.00025767
     atom    4 type  2   force =    -0.00001002    0.00000570   -0.00027304
     atom    5 type  3   force =    -0.00007052    0.00002869   -0.00000705
     atom    6 type  3   force =     0.00007373   -0.00003101    0.00003870
     atom    7 type  4   force =     3.79892295    8.96038271    9.27712303
     atom    8 type  4   force =    -9.65945378    1.19032691    9.27697248
     atom    9 type  4   force =     3.79878691   -8.96013977    9.27673259
     atom   10 type  4   force =     5.86034552    7.76994636    9.27681298
     atom   11 type  4   force =    -5.86044861   -7.77010581   -9.27714088
     atom   12 type  4   force =    -9.65969207   -1.19034253    9.27737688
     atom   13 type  4   force =     5.86039287   -7.76998609    9.27702857
     atom   14 type  4   force =    -3.79887334    8.96032333   -9.27706253
     atom   15 type  4   force =     9.65950247    1.19032788   -9.27704860
     atom   16 type  4   force =     9.65964385   -1.19034381   -9.27729822
     atom   17 type  4   force =    -3.79884024   -8.96021604   -9.27679682
     atom   18 type  4   force =    -5.86027909    7.76981696   -9.27669192
     The core correction contribution to forces
     atom    1 type  1   force =     0.00000000    0.00000000    0.00000000
     atom    2 type  1   force =     0.00000000    0.00000000    0.00000000
     atom    3 type  2   force =     0.00000004    0.00000000    0.00000044
     atom    4 type  2   force =    -0.00000008    0.00000008   -0.00000040
     atom    5 type  3   force =     0.00000007    0.00000015   -0.00000001
     atom    6 type  3   force =    -0.00000004   -0.00000014   -0.00000006
     atom    7 type  4   force =     0.00000000    0.00000000    0.00000000
     atom    8 type  4   force =     0.00000000    0.00000000    0.00000000
     atom    9 type  4   force =     0.00000000    0.00000000    0.00000000
     atom   10 type  4   force =     0.00000000    0.00000000    0.00000000
     atom   11 type  4   force =     0.00000000    0.00000000    0.00000000
     atom   12 type  4   force =     0.00000000    0.00000000    0.00000000
     atom   13 type  4   force =     0.00000000    0.00000000    0.00000000
     atom   14 type  4   force =     0.00000000    0.00000000    0.00000000
     atom   15 type  4   force =     0.00000000    0.00000000    0.00000000
     atom   16 type  4   force =     0.00000000    0.00000000    0.00000000
     atom   17 type  4   force =     0.00000000    0.00000000    0.00000000
     atom   18 type  4   force =     0.00000000    0.00000000    0.00000000
     The Hubbard contrib.    to forces
     atom    1 type  1   force =     0.00000000    0.00000000    0.00000000
     atom    2 type  1   force =     0.00000000    0.00000000    0.00000000
     atom    3 type  2   force =     0.00000000    0.00000000    0.00000000
     atom    4 type  2   force =     0.00000000    0.00000000    0.00000000
     atom    5 type  3   force =     0.00000000    0.00000000    0.00000000
     atom    6 type  3   force =     0.00000000    0.00000000    0.00000000
     atom    7 type  4   force =     0.00000000    0.00000000    0.00000000
     atom    8 type  4   force =     0.00000000    0.00000000    0.00000000
     atom    9 type  4   force =     0.00000000    0.00000000    0.00000000
     atom   10 type  4   force =     0.00000000    0.00000000    0.00000000
     atom   11 type  4   force =     0.00000000    0.00000000    0.00000000
     atom   12 type  4   force =     0.00000000    0.00000000    0.00000000
     atom   13 type  4   force =     0.00000000    0.00000000    0.00000000
     atom   14 type  4   force =     0.00000000    0.00000000    0.00000000
     atom   15 type  4   force =     0.00000000    0.00000000    0.00000000
     atom   16 type  4   force =     0.00000000    0.00000000    0.00000000
     atom   17 type  4   force =     0.00000000    0.00000000    0.00000000
     atom   18 type  4   force =     0.00000000    0.00000000    0.00000000
     The SCF correction term to forces
     atom    1 type  1   force =     0.00001907    0.00007079   -0.00000456
     atom    2 type  1   force =    -0.00002354   -0.00007061    0.00000019
     atom    3 type  2   force =     0.00000160    0.00000181   -0.00025231
     atom    4 type  2   force =     0.00000834   -0.00000474    0.00026709
     atom    5 type  3   force =     0.00000356    0.00001020   -0.00000007
     atom    6 type  3   force =    -0.00000738   -0.00000921   -0.00004376
     atom    7 type  4   force =    -0.00002105   -0.00006106   -0.00014044
     atom    8 type  4   force =     0.00002826   -0.00002472    0.00008049
     atom    9 type  4   force =     0.00006351   -0.00013326    0.00021495
     atom   10 type  4   force =     0.00007192    0.00008424    0.00017138
     atom   11 type  4   force =     0.00002242    0.00006137    0.00015563
     atom   12 type  4   force =     0.00019884    0.00002665   -0.00024905
     atom   13 type  4   force =     0.00000203    0.00002750   -0.00012318
     atom   14 type  4   force =     0.00001063   -0.00002147    0.00011014
     atom   15 type  4   force =    -0.00002679   -0.00001420   -0.00007831
     atom   16 type  4   force =    -0.00020055    0.00003364    0.00024771
     atom   17 type  4   force =    -0.00005674   -0.00008945   -0.00018600
     atom   18 type  4   force =    -0.00009849    0.00011852   -0.00020834

     Total force =     0.022747     Total SCF correction =     0.000820

     Computing stress (Cartesian axis) and pressure

          total   stress  (Ry/bohr**3)                   (kbar)     P=     -332.43
  -0.00223711  -0.00000000   0.00000000         -329.09       -0.00        0.00
  -0.00000000  -0.00223711   0.00000000           -0.00     -329.09        0.00
   0.00000000   0.00000000  -0.00230527            0.00        0.00     -339.12

     kinetic stress (kbar)  22801.78      0.00      0.00
                                0.00  22801.78      0.00
                                0.00      0.00  22860.64

     local   stress (kbar) -20089.97     -0.36      1.66
                               -0.36 -20087.64     -0.47
                                1.66     -0.47  -8052.69

     nonloc. stress (kbar)   4491.48      0.00     -0.00
                                0.00   4491.48      0.00
                               -0.00      0.00   4508.91

     hartree stress (kbar)  21067.34      0.17     -0.78
                                0.17  21066.21      0.23
                               -0.78      0.23  15540.31

     exc-cor stress (kbar)  -5832.15      0.00     -0.01
                                0.00  -5832.16      0.00
                               -0.01      0.00  -5832.88

     corecor stress (kbar)   -672.99     -0.00      0.00
                               -0.00   -672.99     -0.00
                                0.00     -0.00   -673.17

     ewald   stress (kbar) -22095.18      0.01      0.00
                                0.01 -22095.16      0.00
                                0.00      0.00 -28690.23

     hubbard stress (kbar)      0.00      0.00      0.00
                                0.00      0.00      0.00
                                0.00      0.00      0.00

     DFT-D   stress (kbar)      0.00      0.00      0.00
                                0.00      0.00      0.00
                                0.00      0.00      0.00

     XDM     stress (kbar)      0.00      0.00      0.00
                                0.00      0.00      0.00
                                0.00      0.00      0.00

     dft-nl  stress (kbar)      0.00      0.00      0.00
                                0.00      0.00      0.00
                                0.00      0.00      0.00

     TS-vdW  stress (kbar)      0.00      0.00      0.00
                                0.00      0.00      0.00
                                0.00      0.00      0.00

[...]

                                0.00      0.00      0.00

     Writing all to output data dir new_calculations/myprefix.save/

     General routines

     Parallel routines

   This run was terminated on:  12:11:18  20May2023

   JOB DONE.