     Program PWSCF v.7.0 starts on 20May2023 at 12:37:49

     Reading input from espresso_14370.pwi
Warning: card &CELL ignored
Warning: card / ignored

     Current dimensions of program PWSCF are:
     Max number of different atomic species (ntypx) = 10
     Max number of k-points (npk) =  40000
     Max angular momentum in pseudopotentials (lmaxx) =  4

     gamma-point specific algorithms are used
     Message from routine setup:
     using ibrav=0 with symmetry is DISCOURAGED, use correct ibrav instead

     Subspace diagonalization in iterative solution of the eigenvalue problem:
     a serial algorithm will be used

     Using Slab Decomposition

     bravais-lattice index     =            0
     lattice parameter (alat)  =       8.2274  a.u.
     unit-cell volume          =    2377.1452 (a.u.)^3
     number of atoms/cell      =           12
     number of atomic types    =            2
     number of electrons       =       112.00
     number of Kohn-Sham states=           67
     kinetic-energy cutoff     =      30.0000  Ry
     charge density cutoff     =     240.0000  Ry
     scf convergence threshold =      1.0E-06
     mixing beta               =       0.7000
     number of iterations used =            8  plain     mixing
     Exchange-correlation=  SLA  PW   PBX  PBC
                           (   1   4   3   4   0   0   0)

     celldm(1)=   8.227382  celldm(2)=   0.000000  celldm(3)=   0.000000
     celldm(4)=   0.000000  celldm(5)=   0.000000  celldm(6)=   0.000000

     crystal axes: (cart. coord. in units of alat)
               a(1) = (   1.000000   0.000000   0.000000 )
               a(2) = (   0.000000   1.848039   0.000000 )
               a(3) = (   0.000000   0.000000   2.309722 )

     reciprocal axes: (cart. coord. in units 2 pi/alat)
               b(1) = (  1.000000  0.000000  0.000000 )
               b(2) = (  0.000000  0.541114  0.000000 )
               b(3) = (  0.000000  0.000000  0.432953 )

     PseudoPot. # 1 for Sn read from file:
     /home/pragov/projects/rrg-bengioy-ad/pragov/crystal_structure_design/SSSP/Sn_pbe_v1.uspp.F.UPF
     MD5 check sum: 4cf58ce39ec5d5d420df3dd08604eb00
     Pseudo is Ultrasoft + core correction, Zval = 14.0
     Generated by new atomic code, or converted to UPF format
     Using radial grid of  891 points,  6 beta functions with:
                l(1) =   0
                l(2) =   0
                l(3) =   1
                l(4) =   1
                l(5) =   2
                l(6) =   2
     Q(r) pseudized with  6 coefficients,  rinner =    1.200   1.200   1.200
                                                       1.200   1.200

     PseudoPot. # 2 for Cl read from file:
     /home/pragov/projects/rrg-bengioy-ad/pragov/crystal_structure_design/SSSP/cl_pbe_v1.4.uspp.F.UPF
     MD5 check sum: fc6f6913ecf08c9257cb748ef0700058
     Pseudo is Ultrasoft + core correction, Zval =  7.0
     Generated by new atomic code, or converted to UPF format
     Using radial grid of  909 points,  6 beta functions with:
                l(1) =   0
                l(2) =   0
                l(3) =   1
                l(4) =   1
                l(5) =   2
                l(6) =   2
     Q(r) pseudized with  8 coefficients,  rinner =    1.300   1.300   1.300
                                                       1.300   1.300

     atomic species   valence    mass     pseudopotential
        Sn            14.00   118.71000     Sn( 1.00)
        Cl             7.00    35.45000     Cl( 1.00)

      8 Sym. Ops., with inversion, found ( 6 have fractional translation)

                                    s                        frac. trans.

      isym =  1     identity

 cryst.   s( 1) = (     1          0          0      )
                  (     0          1          0      )
                  (     0          0          1      )

 cart.    s( 1) = (  1.0000000  0.0000000  0.0000000 )
                  (  0.0000000  1.0000000  0.0000000 )
                  (  0.0000000  0.0000000  1.0000000 )

      isym =  2     180 deg rotation - cart. axis [0,0,1]

 cryst.   s( 2) = (    -1          0          0      )    f =(  0.0000000 )
                  (     0         -1          0      )       (  0.5000000 )
                  (     0          0          1      )       (  0.5000000 )

 cart.    s( 2) = ( -1.0000000  0.0000000  0.0000000 )    f =(  0.0000000 )
                  (  0.0000000 -1.0000000  0.0000000 )       (  0.9240193 )
                  (  0.0000000  0.0000000  1.0000000 )       (  1.1548610 )

[...]

      isym =  4     180 deg rotation - cart. axis [1,0,0]

[...]

      isym =  5     inversion

 cryst.   s( 5) = (    -1          0          0      )
                  (     0         -1          0      )
                  (     0          0         -1      )

 cart.    s( 5) = ( -1.0000000  0.0000000  0.0000000 )
                  (  0.0000000 -1.0000000  0.0000000 )
                  (  0.0000000  0.0000000 -1.0000000 )

      isym =  6     inv. 180 deg rotation - cart. axis [0,0,1]

[...]

      isym =  8     inv. 180 deg rotation - cart. axis [1,0,0]

 cryst.   s( 8) = (    -1          0          0      )    f =(  0.5000000 )
                  (     0          1          0      )       (  0.0000000 )
                  (     0          0          1      )       (  0.0000000 )

 cart.    s( 8) = ( -1.0000000  0.0000000  0.0000000 )    f =(  0.5000000 )
                  (  0.0000000  1.0000000  0.0000000 )       (  0.0000000 )
                  (  0.0000000  0.0000000  1.0000000 )       (  0.0000000 )

   Cartesian axes

     site n.     atom                  positions (alat units)
         1           Sn  tau(   1) = (   0.7500000   0.5017184   0.1183363  )
         2           Sn  tau(   2) = (   0.2500000   1.3463201   2.1913857  )
         3           Sn  tau(   3) = (   0.2500000   0.4223008   1.2731973  )
         4           Sn  tau(   4) = (   0.7500000   1.4257377   1.0365247  )
         5           Cl  tau(   5) = (   0.2500000   0.0170519   0.8253514  )
         6           Cl  tau(   6) = (   0.2500000   1.1959194   1.3594308  )
         7           Cl  tau(   7) = (   0.2500000   0.9410711   0.3295096  )
         8           Cl  tau(   8) = (   0.7500000   1.8309867   1.4843706  )
         9           Cl  tau(   9) = (   0.7500000   0.6521192   0.9502912  )
        10           Cl  tau(  10) = (   0.7500000   1.5761385   0.2045698  )
        11           Cl  tau(  11) = (   0.2500000   0.2719001   2.1051522  )
        12           Cl  tau(  12) = (   0.7500000   0.9069674   1.9802124  )

   Crystallographic axes

     site n.     atom                  positions (cryst. coord.)
         1           Sn  tau(   1) = (  0.7500000  0.2714870  0.0512340  )
         2           Sn  tau(   2) = (  0.2500000  0.7285130  0.9487660  )
         3           Sn  tau(   3) = (  0.2500000  0.2285130  0.5512340  )
         4           Sn  tau(   4) = (  0.7500000  0.7714870  0.4487660  )
         5           Cl  tau(   5) = (  0.2500000  0.0092270  0.3573380  )
         6           Cl  tau(   6) = (  0.2500000  0.6471290  0.5885690  )
         7           Cl  tau(   7) = (  0.2500000  0.5092270  0.1426620  )
         8           Cl  tau(   8) = (  0.7500000  0.9907730  0.6426620  )
         9           Cl  tau(   9) = (  0.7500000  0.3528710  0.4114310  )
        10           Cl  tau(  10) = (  0.7500000  0.8528710  0.0885690  )
        11           Cl  tau(  11) = (  0.2500000  0.1471290  0.9114310  )
        12           Cl  tau(  12) = (  0.7500000  0.4907730  0.8573380  )

     number of k points=     1  Methfessel-Paxton smearing, width (Ry)=  0.0010
                       cart. coord. in units 2pi/alat
        k(    1) = (   0.0000000   0.0000000   0.0000000), wk =   2.0000000

                       cryst. coord.
        k(    1) = (   0.0000000   0.0000000   0.0000000), wk =   2.0000000

     Check: negative core charge=   -0.000001

     Initial potential from superposition of free atoms

     starting charge     107.9998, renormalised to     112.0000

     negative rho (up, down):  1.245E-01 0.000E+00
     Starting wfcs are   68 randomized atomic wfcs

     Self-consistent Calculation

     iteration #  1     ecut=    30.00 Ry     beta= 0.70
     Davidson diagonalization with overlap

     ethr =  1.00E-02,  avg # of iterations =  3.0

     negative rho (up, down):  1.228E-01 0.000E+00

     total energy              =    -919.21163817 Ry
     estimated scf accuracy    <       1.57001572 Ry

[...]

     total energy              =    -919.88728779 Ry
     estimated scf accuracy    <       0.00000590 Ry

     iteration #  9     ecut=    30.00 Ry     beta= 0.70
     Davidson diagonalization with overlap

     ethr =  5.27E-09,  avg # of iterations =  2.0

[...]

     End of self-consistent calculation

          k = 0.0000 0.0000 0.0000 (  3301 PWs)   bands (ev):

   -17.2538 -17.2537 -17.2527 -17.2526 -17.2420 -17.2417 -17.2401 -17.2399
   -17.2200 -17.2194 -17.2143 -17.2138 -17.2077 -17.2069 -17.2068 -17.2067
   -17.1972 -17.1970 -17.1934 -17.1932 -10.8772 -10.7266 -10.3577 -10.2222
   -10.1981 -10.0675 -10.0504  -9.9221  -2.7803  -2.6052  -1.9500  -1.7031
     0.0701   0.4214   0.4808   0.7054   0.8929   1.2383   1.3414   1.3591
     1.3624   1.3661   1.4807   1.5653   1.6500   1.8243   1.8555   1.8988
     1.9466   1.9493   2.0313   2.3406   2.5170   3.0180   3.1630   3.1977
     6.4141   6.6371   6.9166   6.9792   7.3018   7.4603   7.5782   7.6579
     8.2119   8.2454   8.4021

     occupation numbers
     1.0000   1.0000   1.0000   1.0000   1.0000   1.0000   1.0000   1.0000
     1.0000   1.0000   1.0000   1.0000   1.0000   1.0000   1.0000   1.0000
     1.0000   1.0000   1.0000   1.0000   1.0000   1.0000   1.0000   1.0000
     1.0000   1.0000   1.0000   1.0000   1.0000   1.0000   1.0000   1.0000
     1.0000   1.0000   1.0000   1.0000   1.0000   1.0000   1.0000   1.0000
     1.0000   1.0000   1.0000   1.0000   1.0000   1.0000   1.0000   1.0000
     1.0000   1.0000   1.0000   1.0000   1.0000   1.0000   1.0000   1.0000
    -0.0000  -0.0000  -0.0000  -0.0000  -0.0000  -0.0000  -0.0000  -0.0000
    -0.0000  -0.0000  -0.0000

     the Fermi energy is     5.2971 ev

!    total energy              =    -919.88728852 Ry
     estimated scf accuracy    <       0.00000067 Ry
     smearing contrib. (-TS)   =       0.00000000 Ry
     internal energy E=F+TS    =    -919.88728852 Ry

     The total energy is F=E-TS. E is the sum of the following terms:
     one-electron contribution =    -377.74835927 Ry
     hartree contribution      =     244.45952022 Ry
     xc contribution           =    -265.62616459 Ry
     ewald contribution        =    -520.97228488 Ry

     convergence has been achieved in   9 iterations

     negative rho (up, down):  1.184E-01 0.000E+00

     Forces acting on atoms (cartesian axes, Ry/au):

     atom    1 type  1   force =     0.00000000   -0.00194699   -0.00853277
     atom    2 type  1   force =     0.00000000    0.00194699    0.00853277
     atom    3 type  1   force =     0.00000000    0.00194699   -0.00853277
     atom    4 type  1   force =     0.00000000   -0.00194699    0.00853277
     atom    5 type  2   force =     0.00000000    0.00210152    0.01335360
     atom    6 type  2   force =     0.00000000    0.00455454   -0.01127808
     atom    7 type  2   force =    -0.00000000    0.00210152   -0.01335360
     atom    8 type  2   force =     0.00000000   -0.00210152   -0.01335360
     atom    9 type  2   force =    -0.00000000   -0.00455454    0.01127808
     atom   10 type  2   force =    -0.00000000   -0.00455454   -0.01127808
     atom   11 type  2   force =     0.00000000    0.00455454    0.01127808
     atom   12 type  2   force =     0.00000000   -0.00210152    0.01335360
     The non-local contrib.  to forces
     atom    1 type  1   force =     0.00000000    0.19775573   -0.37529950
     atom    2 type  1   force =     0.00000000   -0.19775573    0.37529950
     atom    3 type  1   force =     0.00000000   -0.19775573   -0.37529950
     atom    4 type  1   force =     0.00000000    0.19775573    0.37529950
     atom    5 type  2   force =     0.00000000    0.06760011    0.09199510
     atom    6 type  2   force =    -0.00000000   -0.00665857    0.07550134
     atom    7 type  2   force =     0.00000000    0.06760011   -0.09199510
     atom    8 type  2   force =    -0.00000000   -0.06760011   -0.09199510
     atom    9 type  2   force =     0.00000000    0.00665857   -0.07550134
     atom   10 type  2   force =     0.00000000    0.00665857    0.07550134
     atom   11 type  2   force =     0.00000000   -0.00665857   -0.07550134
     atom   12 type  2   force =    -0.00000000   -0.06760011    0.09199510
     The ionic contribution  to forces
     atom    1 type  1   force =    -0.00000000   -4.16329669    5.12490441
     atom    2 type  1   force =     0.00000000    4.16329669   -5.12490441
     atom    3 type  1   force =     0.00000000    4.16329669    5.12490441
     atom    4 type  1   force =    -0.00000000   -4.16329669   -5.12490441
     atom    5 type  2   force =     0.00000000   -0.23044057   -5.96323095
     atom    6 type  2   force =     0.00000000   -2.26993907    3.25578132
     atom    7 type  2   force =     0.00000000   -0.23044057    5.96323095
     atom    8 type  2   force =     0.00000000    0.23044057    5.96323095
     atom    9 type  2   force =     0.00000000    2.26993907   -3.25578132
     atom   10 type  2   force =     0.00000000    2.26993907    3.25578132
     atom   11 type  2   force =    -0.00000000   -2.26993907   -3.25578132
     atom   12 type  2   force =    -0.00000000    0.23044057   -5.96323095
     The local contribution  to forces
     atom    1 type  1   force =    -0.00000400    3.96734681   -4.76647420
     atom    2 type  1   force =     0.00001129   -3.96728491    4.76700615
     atom    3 type  1   force =     0.00000781   -3.96649078   -4.76724916
     atom    4 type  1   force =    -0.00000444    3.96654030    4.76670909
     atom    5 type  2   force =    -0.00000455    0.16720962    5.88525532
     atom    6 type  2   force =    -0.00000234    2.27957993   -3.33818974
     atom    7 type  2   force =     0.00000278    0.16712058   -5.88520058
     atom    8 type  2   force =    -0.00000483   -0.16718397   -5.88514670
     atom    9 type  2   force =    -0.00001491   -2.27954705    3.33838770
     atom   10 type  2   force =    -0.00000366   -2.27975949   -3.33825418
     atom   11 type  2   force =     0.00000625    2.27977149    3.33808556
     atom   12 type  2   force =     0.00000273   -0.16709662    5.88511363
     The core correction contribution to forces
     atom    1 type  1   force =     0.00000011   -0.00402288    0.00861606
     atom    2 type  1   force =     0.00000039    0.00402325   -0.00861663
     atom    3 type  1   force =    -0.00000002    0.00403636    0.00861096
     atom    4 type  1   force =    -0.00000012   -0.00403564   -0.00861099
     atom    5 type  2   force =    -0.00000005   -0.00218237   -0.00147329
     atom    6 type  2   force =    -0.00000008    0.00100336   -0.00398848
     atom    7 type  2   force =    -0.00000006   -0.00218353    0.00147299
     atom    8 type  2   force =    -0.00000009    0.00218268    0.00148009
     atom    9 type  2   force =    -0.00000038   -0.00100241    0.00400033
     atom   10 type  2   force =    -0.00000003   -0.00100258   -0.00399782
     atom   11 type  2   force =     0.00000002    0.00100321    0.00398669
     atom   12 type  2   force =     0.00000010    0.00218377   -0.00147924
     The Hubbard contrib.    to forces
     atom    1 type  1   force =     0.00000000    0.00000000    0.00000000
     atom    2 type  1   force =     0.00000000    0.00000000    0.00000000
     atom    3 type  1   force =     0.00000000    0.00000000    0.00000000
     atom    4 type  1   force =     0.00000000    0.00000000    0.00000000
     atom    5 type  2   force =     0.00000000    0.00000000    0.00000000
     atom    6 type  2   force =     0.00000000    0.00000000    0.00000000
     atom    7 type  2   force =     0.00000000    0.00000000    0.00000000
     atom    8 type  2   force =     0.00000000    0.00000000    0.00000000
     atom    9 type  2   force =     0.00000000    0.00000000    0.00000000
     atom   10 type  2   force =     0.00000000    0.00000000    0.00000000
     atom   11 type  2   force =     0.00000000    0.00000000    0.00000000
     atom   12 type  2   force =     0.00000000    0.00000000    0.00000000
     The SCF correction term to forces
     atom    1 type  1   force =     0.00000799    0.00027676   -0.00029798
     atom    2 type  1   force =    -0.00001351   -0.00033296   -0.00028985
     atom    3 type  1   force =    -0.00001057   -0.00112105    0.00051400
     atom    4 type  1   force =     0.00000993    0.00110043    0.00007261
     atom    5 type  2   force =     0.00000263   -0.00006228    0.00090992
     atom    6 type  2   force =     0.00000163    0.00058390   -0.00024607
     atom    7 type  2   force =    -0.00000248    0.00000017   -0.00096986
     atom    8 type  2   force =     0.00000298    0.00005526   -0.00080885
     atom    9 type  2   force =     0.00000994   -0.00059388    0.00035778
     atom   10 type  2   force =     0.00000300   -0.00037984   -0.00044009
     atom   11 type  2   force =    -0.00000357    0.00038161    0.00030853
     atom   12 type  2   force =    -0.00000048   -0.00000685    0.00085852

     Total force =     0.040362     Total SCF correction =     0.002780

     Computing stress (Cartesian axis) and pressure

     negative rho (up, down):  1.184E-01 0.000E+00
          total   stress  (Ry/bohr**3)                   (kbar)     P=       25.81
   0.00082473   0.00000000   0.00000000          121.32        0.00        0.00
   0.00000000  -0.00016725   0.00000000            0.00      -24.60        0.00
   0.00000000   0.00000000  -0.00013102            0.00        0.00      -19.27

     kinetic stress (kbar)   7280.14      0.00      0.00
                                0.00   7136.33      0.00
                                0.00      0.00   7180.14

     local   stress (kbar)  -7501.93     -0.00     -0.00
                               -0.00  -5203.55      0.00
                               -0.00      0.00   1395.88

     nonloc. stress (kbar)   5527.84      0.00      0.00
                                0.00   5515.05      0.00
                                0.00      0.00   5534.29

     hartree stress (kbar)   6598.95      0.00      0.00
                                0.00   5700.18     -0.00
                                0.00     -0.00   2828.78

     exc-cor stress (kbar)   5763.82      0.00      0.00
                                0.00   5763.02      0.00
                                0.00      0.00   5761.57

     corecor stress (kbar)  -8988.28      0.00     -0.00
                                0.00  -8987.04     -0.00
                               -0.00     -0.00  -8988.37

     ewald   stress (kbar)  -8559.21      0.00      0.00
                                0.00  -9948.60     -0.00
                                0.00     -0.00 -13731.56

     hubbard stress (kbar)      0.00      0.00      0.00
                                0.00      0.00      0.00
                                0.00      0.00      0.00

     DFT-D   stress (kbar)      0.00      0.00      0.00
                                0.00      0.00      0.00
                                0.00      0.00      0.00

     XDM     stress (kbar)      0.00      0.00      0.00
                                0.00      0.00      0.00
                                0.00      0.00      0.00

     dft-nl  stress (kbar)      0.00      0.00      0.00
                                0.00      0.00      0.00
                                0.00      0.00      0.00

     TS-vdW  stress (kbar)      0.00      0.00      0.00
                                0.00      0.00      0.00
                                0.00      0.00      0.00

[...]

                                0.00      0.00      0.00

     Writing all to output data dir new_calculations/myprefix.save/

     General routines

     Parallel routines

   This run was terminated on:  12:38: 7  20May2023

   JOB DONE.