     Program PWSCF v.7.0 starts on 20May2023 at  4:44:23

     Reading input from espresso_4148.pwi
Warning: card &CELL ignored
Warning: card / ignored

     Current dimensions of program PWSCF are:
     Max number of different atomic species (ntypx) = 10
     Max number of k-points (npk) =  40000
     Max angular momentum in pseudopotentials (lmaxx) =  4

     gamma-point specific algorithms are used
     Message from routine setup:
     using ibrav=0 with symmetry is DISCOURAGED, use correct ibrav instead

     Subspace diagonalization in iterative solution of the eigenvalue problem:
     a serial algorithm will be used

     Using Slab Decomposition

     bravais-lattice index     =            0
     lattice parameter (alat)  =      14.9758  a.u.
     unit-cell volume          =    2196.1596 (a.u.)^3
     number of atoms/cell      =           12
     number of atomic types    =            3
     number of electrons       =       136.00
     number of Kohn-Sham states=           82
     kinetic-energy cutoff     =      30.0000  Ry
     charge density cutoff     =     240.0000  Ry
     scf convergence threshold =      1.0E-06
     mixing beta               =       0.7000
     number of iterations used =            8  plain     mixing
     Exchange-correlation=  SLA  PW   PBX  PBC
                           (   1   4   3   4   0   0   0)

     celldm(1)=  14.975820  celldm(2)=   0.000000  celldm(3)=   0.000000
     celldm(4)=   0.000000  celldm(5)=   0.000000  celldm(6)=   0.000000

     crystal axes: (cart. coord. in units of alat)
               a(1) = (   1.000000   0.000000   0.000000 )
               a(2) = (  -0.245250   0.969460   0.000000 )
               a(3) = (   0.000000   0.000000   0.674469 )

     reciprocal axes: (cart. coord. in units 2 pi/alat)
               b(1) = (  1.000000  0.252976  0.000000 )
               b(2) = (  0.000000  1.031502  0.000000 )
               b(3) = (  0.000000  0.000000  1.482647 )

     PseudoPot. # 1 for Cs read from file:
     /home/pragov/projects/rrg-bengioy-ad/pragov/crystal_structure_design/SSSP/Cs_pbe_v1.uspp.F.UPF
     MD5 check sum: 3476d69cb178dfad3ffaa59df4e07ca4
     Pseudo is Ultrasoft + core correction, Zval =  9.0
     Generated by new atomic code, or converted to UPF format
     Using radial grid of  905 points,  6 beta functions with:
                l(1) =   0
                l(2) =   0
                l(3) =   1
                l(4) =   1
                l(5) =   2
                l(6) =   2
     Q(r) pseudized with  6 coefficients,  rinner =    1.500   1.500   1.500
                                                       1.500   1.500

     PseudoPot. # 2 for Cu read from file:
     /home/pragov/projects/rrg-bengioy-ad/pragov/crystal_structure_design/SSSP/Cu_pbe_v1.2.uspp.F.UPF
     MD5 check sum: 6e991ff952a84172a2a52a1c1e996048
     Pseudo is Ultrasoft + core correction, Zval = 19.0
     Generated by new atomic code, or converted to UPF format
     Using radial grid of  867 points,  6 beta functions with:
                l(1) =   0
                l(2) =   0
                l(3) =   1
                l(4) =   1
                l(5) =   2
                l(6) =   2
     Q(r) pseudized with  8 coefficients,  rinner =    1.150   1.150   1.150
                                                       1.150   1.150

     PseudoPot. # 3 for Cl read from file:
     /home/pragov/projects/rrg-bengioy-ad/pragov/crystal_structure_design/SSSP/cl_pbe_v1.4.uspp.F.UPF
     MD5 check sum: fc6f6913ecf08c9257cb748ef0700058
     Pseudo is Ultrasoft + core correction, Zval =  7.0
     Generated by new atomic code, or converted to UPF format
     Using radial grid of  909 points,  6 beta functions with:
                l(1) =   0
                l(2) =   0
                l(3) =   1
                l(4) =   1
                l(5) =   2
                l(6) =   2
     Q(r) pseudized with  8 coefficients,  rinner =    1.300   1.300   1.300
                                                       1.300   1.300

     atomic species   valence    mass     pseudopotential
        Cs             9.00   132.90545     Cs( 1.00)
        Cu            19.00    63.54600     Cu( 1.00)
        Cl             7.00    35.45000     Cl( 1.00)

      4 Sym. Ops., with inversion, found ( 2 have fractional translation)

                                    s                        frac. trans.

      isym =  1     identity

 cryst.   s( 1) = (     1          0          0      )
                  (     0          1          0      )
                  (     0          0          1      )

 cart.    s( 1) = (  1.0000000 -0.0000000  0.0000000 )
                  (  0.0000000  1.0000000  0.0000000 )
                  (  0.0000000  0.0000000  1.0000000 )

      isym =  2     180 deg rotation - cart. axis [0,0,1]

 cryst.   s( 2) = (    -1          0          0      )    f =(  0.0000000 )
                  (     0         -1          0      )       (  0.0000000 )
                  (     0          0          1      )       ( -0.5000000 )

 cart.    s( 2) = ( -1.0000000  0.0000000  0.0000000 )    f =( -0.0000000 )
                  (  0.0000000 -1.0000000  0.0000000 )       (  0.0000000 )
                  (  0.0000000  0.0000000  1.0000000 )       ( -0.3372347 )

      isym =  3     inversion

 cryst.   s( 3) = (    -1          0          0      )
                  (     0         -1          0      )
                  (     0          0         -1      )

 cart.    s( 3) = ( -1.0000000  0.0000000  0.0000000 )
                  (  0.0000000 -1.0000000  0.0000000 )
                  (  0.0000000  0.0000000 -1.0000000 )

      isym =  4     inv. 180 deg rotation - cart. axis [0,0,1]

 cryst.   s( 4) = (     1          0          0      )    f =(  0.0000000 )
                  (     0          1          0      )       (  0.0000000 )
                  (     0          0         -1      )       (  0.5000000 )

 cart.    s( 4) = (  1.0000000 -0.0000000  0.0000000 )    f =(  0.0000000 )
                  (  0.0000000  1.0000000  0.0000000 )       (  0.0000000 )
                  (  0.0000000  0.0000000 -1.0000000 )       (  0.3372347 )

   Cartesian axes

     site n.     atom                  positions (alat units)
         1           Cs  tau(   1) = (   0.6109727   0.3028680   0.1686173  )
         2           Cs  tau(   2) = (   0.1437773   0.6665919   0.5058520  )
         3           Cu  tau(   3) = (   0.1255195   0.1612270   0.0000000  )
         4           Cu  tau(   4) = (   0.6292305   0.8082329   0.0000000  )
         5           Cu  tau(   5) = (   0.6292305   0.8082329   0.3372347  )
         6           Cu  tau(   6) = (   0.1255195   0.1612270   0.3372347  )
         7           Cl  tau(   7) = (  -0.1114728   0.8653108   0.1686173  )
         8           Cl  tau(   8) = (   0.8662228   0.1041491   0.5058520  )
         9           Cl  tau(   9) = (   0.0629221   0.3865343   0.1686173  )
        10           Cl  tau(  10) = (   0.6918279   0.5829256   0.5058520  )
        11           Cl  tau(  11) = (   0.3954521   0.8136619   0.1686173  )
        12           Cl  tau(  12) = (   0.3592979   0.1557980   0.5058520  )

   Crystallographic axes

     site n.     atom                  positions (cryst. coord.)
         1           Cs  tau(   1) = (  0.6875910  0.3124090  0.2500000  )
         2           Cs  tau(   2) = (  0.3124090  0.6875910  0.7500000  )
         3           Cu  tau(   3) = (  0.1663060  0.1663060  0.0000000  )
         4           Cu  tau(   4) = (  0.8336940  0.8336940  0.0000000  )
         5           Cu  tau(   5) = (  0.8336940  0.8336940  0.5000000  )
         6           Cu  tau(   6) = (  0.1663060  0.1663060  0.5000000  )
         7           Cl  tau(   7) = (  0.1074300  0.8925700  0.2500000  )
         8           Cl  tau(   8) = (  0.8925700  0.1074300  0.7500000  )
         9           Cl  tau(   9) = (  0.1607060  0.3987110  0.2500000  )
        10           Cl  tau(  10) = (  0.8392940  0.6012890  0.7500000  )
        11           Cl  tau(  11) = (  0.6012890  0.8392940  0.2500000  )
        12           Cl  tau(  12) = (  0.3987110  0.1607060  0.7500000  )

     number of k points=     1  Methfessel-Paxton smearing, width (Ry)=  0.0010
                       cart. coord. in units 2pi/alat
        k(    1) = (   0.0000000   0.0000000   0.0000000), wk =   2.0000000

                       cryst. coord.
        k(    1) = (   0.0000000   0.0000000   0.0000000), wk =   2.0000000

     Initial potential from superposition of free atoms

     starting charge     131.9212, renormalised to     136.0000

     negative rho (up, down):  9.074E-02 0.000E+00
     Starting wfcs are  102 randomized atomic wfcs

     Self-consistent Calculation

     iteration #  1     ecut=    30.00 Ry     beta= 0.70
     Davidson diagonalization with overlap

     ethr =  1.00E-02,  avg # of iterations =  4.0

     Threshold (ethr) on eigenvalues was too large:
     Diagonalizing with lowered threshold

     Davidson diagonalization with overlap

[...]

     negative rho (up, down):  8.647E-02 0.000E+00

     total energy              =   -1940.94861399 Ry
     estimated scf accuracy    <       1.33791218 Ry

[...]

     total energy              =   -1941.49924164 Ry
     estimated scf accuracy    <       0.00000219 Ry

     iteration # 11     ecut=    30.00 Ry     beta= 0.70
     Davidson diagonalization with overlap

     ethr =  9.52E-10,  avg # of iterations =  3.0

[...]

     End of self-consistent calculation

          k = 0.0000 0.0000 0.0000 (  3033 PWs)   bands (ev):

  -105.8009-105.8008-105.7971-105.7960 -63.2654 -63.2648 -63.2331 -63.2316
   -63.2225 -63.2207 -63.2167 -63.2138 -63.1815 -63.1796 -63.1755 -63.1726
   -16.1037 -16.0950 -10.6817 -10.3615 -10.2437 -10.1693 -10.1247 -10.0896
    -3.0497  -2.9898  -2.9495  -2.9405  -2.9262  -2.9214  -0.5476  -0.5014
     0.1214   0.5840   0.6265   0.8259   0.8920   0.9781   1.0260   1.0986
     1.1638   1.1835   1.2717   1.4310   1.4655   1.6849   1.9481   1.9667
     3.1882   3.3830   3.8580   3.9897   4.0235   4.1700   4.1703   4.2931
     4.2970   4.4251   4.4511   4.4619   4.4738   4.5895   4.6379   4.6588
     4.8825   4.8863   4.9355   5.0591   6.9192   8.5610   9.0172   9.2180
     9.4237   9.7316   9.8495   9.9475  10.0608  10.3411  11.1392  11.2577
    11.4221  11.6785

     occupation numbers
     1.0000   1.0000   1.0000   1.0000   1.0000   1.0000   1.0000   1.0000
     1.0000   1.0000   1.0000   1.0000   1.0000   1.0000   1.0000   1.0000
     1.0000   1.0000   1.0000   1.0000   1.0000   1.0000   1.0000   1.0000
     1.0000   1.0000   1.0000   1.0000   1.0000   1.0000   1.0000   1.0000
     1.0000   1.0000   1.0000   1.0000   1.0000   1.0000   1.0000   1.0000
     1.0000   1.0000   1.0000   1.0000   1.0000   1.0000   1.0000   1.0000
     1.0000   1.0000   1.0000   1.0000   1.0000   1.0000   1.0000   1.0000
     1.0000   1.0000   1.0000   1.0000   1.0000   1.0000   1.0000   1.0000
     1.0000   1.0000   1.0000   1.0000  -0.0000  -0.0000  -0.0000  -0.0000
    -0.0000  -0.0000  -0.0000  -0.0000  -0.0000  -0.0000  -0.0000  -0.0000
    -0.0000  -0.0000

     the Fermi energy is     6.2949 ev

!    total energy              =   -1941.49924183 Ry
     estimated scf accuracy    <       0.00000021 Ry
     smearing contrib. (-TS)   =       0.00000000 Ry
     internal energy E=F+TS    =   -1941.49924183 Ry

     The total energy is F=E-TS. E is the sum of the following terms:
     one-electron contribution =   -2173.66300960 Ry
     hartree contribution      =    1133.44462118 Ry
     xc contribution           =    -272.93657736 Ry
     ewald contribution        =    -628.34427605 Ry

     convergence has been achieved in  11 iterations

     negative rho (up, down):  8.584E-02 0.000E+00

     Forces acting on atoms (cartesian axes, Ry/au):

     atom    1 type  1   force =     0.00118181   -0.00092376    0.00000000
     atom    2 type  1   force =    -0.00118181    0.00092376    0.00000000
     atom    3 type  2   force =    -0.00070764   -0.00090266   -0.00000981
     atom    4 type  2   force =     0.00070764    0.00090266    0.00000981
     atom    5 type  2   force =     0.00070764    0.00090266   -0.00000981
     atom    6 type  2   force =    -0.00070764   -0.00090266    0.00000981
     atom    7 type  3   force =    -0.01082019    0.00842691    0.00000000
     atom    8 type  3   force =     0.01082019   -0.00842691    0.00000000
     atom    9 type  3   force =     0.00349670   -0.00031678    0.00000000
     atom   10 type  3   force =    -0.00349670    0.00031678    0.00000000
     atom   11 type  3   force =     0.00116408   -0.00331138    0.00000000
     atom   12 type  3   force =    -0.00116408    0.00331138   -0.00000000
     The non-local contrib.  to forces
     atom    1 type  1   force =    -0.00974985    0.00759290    0.00000000
     atom    2 type  1   force =     0.00974985   -0.00759290    0.00000000
     atom    3 type  2   force =    -0.14939436   -0.19188551   -0.00000588
     atom    4 type  2   force =     0.14939436    0.19188551    0.00000588
     atom    5 type  2   force =     0.14939436    0.19188551   -0.00000588
     atom    6 type  2   force =    -0.14939436   -0.19188551    0.00000588
     atom    7 type  3   force =    -0.21489981    0.16730621    0.00000000
     atom    8 type  3   force =     0.21489981   -0.16730621    0.00000000
     atom    9 type  3   force =     0.08504154   -0.31583269   -0.00000000
     atom   10 type  3   force =    -0.08504154    0.31583269   -0.00000000
     atom   11 type  3   force =     0.32704505   -0.00498973    0.00000000
     atom   12 type  3   force =    -0.32704505    0.00498973    0.00000000
     The ionic contribution  to forces
     atom    1 type  1   force =    -3.32857651    2.59138434   -0.00000000
     atom    2 type  1   force =     3.32857651   -2.59138434    0.00000000
     atom    3 type  2   force =    15.65651721   20.11045392    0.00000000
     atom    4 type  2   force =   -15.65651721  -20.11045392   -0.00000000
     atom    5 type  2   force =   -15.65651721  -20.11045392    0.00000000
     atom    6 type  2   force =    15.65651721   20.11045392   -0.00000000
     atom    7 type  3   force =    18.15192954  -14.13175448   -0.00000000
     atom    8 type  3   force =   -18.15192954   14.13175448    0.00000000
     atom    9 type  3   force =    -2.66713442   21.36001374   -0.00000000
     atom   10 type  3   force =     2.66713442  -21.36001374    0.00000000
     atom   11 type  3   force =   -21.36179085   -2.65286354   -0.00000000
     atom   12 type  3   force =    21.36179085    2.65286354    0.00000000
     The local contribution  to forces
     atom    1 type  1   force =     3.33825991   -2.59895993   -0.00003714
     atom    2 type  1   force =    -3.33826187    2.59893034    0.00004195
     atom    3 type  2   force =   -15.50845633  -19.92027716    0.00001943
     atom    4 type  2   force =    15.50846114   19.92032026   -0.00000539
     atom    5 type  2   force =    15.50844948   19.92029773    0.00001147
     atom    6 type  2   force =   -15.50846742  -19.92029814   -0.00001276
     atom    7 type  3   force =   -17.95484946   13.97852270   -0.00009258
     atom    8 type  3   force =    17.95503868  -13.97829842    0.00009476
     atom    9 type  3   force =     2.58818682  -21.05452660   -0.00012042
     atom   10 type  3   force =    -2.58807921   21.05431286    0.00001377
     atom   11 type  3   force =    21.04603703    2.65455293   -0.00002377
     atom   12 type  3   force =   -21.04624232   -2.65449282    0.00011104
     The core correction contribution to forces
     atom    1 type  1   force =     0.00128058   -0.00099817   -0.00000047
     atom    2 type  1   force =    -0.00128051    0.00099668    0.00000079
     atom    3 type  2   force =     0.00010503    0.00013493   -0.00000000
     atom    4 type  2   force =    -0.00010511   -0.00013504    0.00000000
     atom    5 type  2   force =    -0.00010504   -0.00013492   -0.00000000
     atom    6 type  2   force =     0.00010501    0.00013489    0.00000001
     atom    7 type  3   force =     0.00671862   -0.00522584   -0.00000011
     atom    8 type  3   force =    -0.00671355    0.00523157   -0.00000012
     atom    9 type  3   force =    -0.00256418    0.00964266   -0.00000047
     atom   10 type  3   force =     0.00256696   -0.00964824   -0.00000103
     atom   11 type  3   force =    -0.00998302    0.00012259    0.00000082
     atom   12 type  3   force =     0.00997750   -0.00012133    0.00000041
     The Hubbard contrib.    to forces
     atom    1 type  1   force =     0.00000000    0.00000000    0.00000000
     atom    2 type  1   force =     0.00000000    0.00000000    0.00000000
     atom    3 type  2   force =     0.00000000    0.00000000    0.00000000
     atom    4 type  2   force =     0.00000000    0.00000000    0.00000000
     atom    5 type  2   force =     0.00000000    0.00000000    0.00000000
     atom    6 type  2   force =     0.00000000    0.00000000    0.00000000
     atom    7 type  3   force =     0.00000000    0.00000000    0.00000000
     atom    8 type  3   force =     0.00000000    0.00000000    0.00000000
     atom    9 type  3   force =     0.00000000    0.00000000    0.00000000
     atom   10 type  3   force =     0.00000000    0.00000000    0.00000000
     atom   11 type  3   force =     0.00000000    0.00000000    0.00000000
     atom   12 type  3   force =     0.00000000    0.00000000    0.00000000
     The SCF correction term to forces
     atom    1 type  1   force =    -0.00003190    0.00004960    0.00003354
     atom    2 type  1   force =     0.00003463   -0.00003352   -0.00003443
     atom    3 type  2   force =     0.00051411    0.00065929   -0.00002497
     atom    4 type  2   force =    -0.00052288   -0.00070668    0.00000609
     atom    5 type  2   force =    -0.00051029   -0.00069863   -0.00002007
     atom    6 type  2   force =     0.00054495    0.00070465    0.00001364
     atom    7 type  3   force =     0.00034117   -0.00035283    0.00010033
     atom    8 type  3   force =    -0.00041496    0.00026053   -0.00010210
     atom    9 type  3   force =    -0.00000155    0.00031999    0.00011917
     atom   10 type  3   force =    -0.00004584   -0.00023290   -0.00003955
     atom   11 type  3   force =    -0.00020917   -0.00011888    0.00004523
     atom   12 type  3   force =     0.00028991    0.00008698   -0.00011563

     Total force =     0.020862     Total SCF correction =     0.001966

     Computing stress (Cartesian axis) and pressure

     negative rho (up, down):  8.584E-02 0.000E+00
          total   stress  (Ry/bohr**3)                   (kbar)     P=     -162.76
  -0.00115464  -0.00006611   0.00000000         -169.85       -9.72        0.00
  -0.00006611  -0.00118809   0.00000000           -9.72     -174.77        0.00
   0.00000000   0.00000000  -0.00097649            0.00        0.00     -143.65

     kinetic stress (kbar)  11597.83     19.75      0.00
                               19.75  11607.82      0.00
                                0.00      0.00  11590.20

     local   stress (kbar)  -3645.42 -13237.48      0.02
                           -13237.48 -10342.93     -0.02
                                0.02     -0.02 -71202.44

     nonloc. stress (kbar)  10076.88      0.75      0.00
                                0.75  10077.26      0.00
                                0.00      0.00  10071.28

     hartree stress (kbar)  13565.94   6430.93     -0.01
                             6430.93  16819.66      0.01
                               -0.01      0.01  45535.77

     exc-cor stress (kbar)     96.41      0.17     -0.00
                                0.17     96.50      0.00
                               -0.00      0.00    100.64

     corecor stress (kbar)  -4815.04      0.02     -0.00
                                0.02  -4815.03      0.00
                               -0.00      0.00  -4815.30

     ewald   stress (kbar) -27046.45   6776.14      0.00
                             6776.14 -23618.05     -0.00
                                0.00     -0.00   8576.20

     hubbard stress (kbar)      0.00      0.00      0.00
                                0.00      0.00      0.00
                                0.00      0.00      0.00

     DFT-D   stress (kbar)      0.00      0.00      0.00
                                0.00      0.00      0.00
                                0.00      0.00      0.00

     XDM     stress (kbar)      0.00      0.00      0.00
                                0.00      0.00      0.00
                                0.00      0.00      0.00

     dft-nl  stress (kbar)      0.00      0.00      0.00
                                0.00      0.00      0.00
                                0.00      0.00      0.00

     TS-vdW  stress (kbar)      0.00      0.00      0.00
                                0.00      0.00      0.00
                                0.00      0.00      0.00

[...]

                                0.00      0.00      0.00

     Writing all to output data dir new_calculations/myprefix.save/

     General routines

     Parallel routines

   This run was terminated on:   4:45: 4  20May2023

   JOB DONE.