     Program PWSCF v.7.0 starts on 20May2023 at 21:18:53

     Reading input from espresso_26105.pwi
Warning: card &CELL ignored
Warning: card / ignored

     Current dimensions of program PWSCF are:
     Max number of different atomic species (ntypx) = 10
     Max number of k-points (npk) =  40000
     Max angular momentum in pseudopotentials (lmaxx) =  4
     file K.pbe-spn-kjpaw_psl.1.0.0.UPF: wavefunction(s)  3S renormalized
     file O.pbe-n-kjpaw_psl.0.1.UPF: wavefunction(s)  2P renormalized

     gamma-point specific algorithms are used

     Subspace diagonalization in iterative solution of the eigenvalue problem:
     a serial algorithm will be used

     Using Slab Decomposition

     bravais-lattice index     =            0
     lattice parameter (alat)  =       8.0834  a.u.
     unit-cell volume          =     489.7877 (a.u.)^3
     number of atoms/cell      =            4
     number of atomic types    =            3
     number of electrons       =        26.00
     number of Kohn-Sham states=           17
     kinetic-energy cutoff     =      30.0000  Ry
     charge density cutoff     =     240.0000  Ry
     scf convergence threshold =      1.0E-06
     mixing beta               =       0.7000
     number of iterations used =            8  plain     mixing
     Exchange-correlation= SLA  PW   PBX  PBC
                           (   1   4   3   4   0   0   0)

     celldm(1)=   8.083422  celldm(2)=   0.000000  celldm(3)=   0.000000
     celldm(4)=   0.000000  celldm(5)=   0.000000  celldm(6)=   0.000000

     crystal axes: (cart. coord. in units of alat)
               a(1) = (   1.000000   0.000000   0.000000 )
               a(2) = (   0.077649   0.996981   0.000000 )
               a(3) = (   0.225727   0.208830   0.930112 )

     reciprocal axes: (cart. coord. in units 2 pi/alat)
               b(1) = (  1.000000 -0.077884 -0.225201 )
               b(2) = (  0.000000  1.003028 -0.225201 )
               b(3) = (  0.000000  0.000000  1.075139 )

     PseudoPot. # 1 for K  read from file:
     /home/pragov/projects/rrg-bengioy-ad/pragov/crystal_structure_design/SSSP/K.pbe-spn-kjpaw_psl.1.0.0.UPF
     MD5 check sum: 7d58810084cac21f60fbe77ea2b688fd
     Pseudo is Projector augmented-wave + core cor, Zval =  9.0
     Generated using "atomic" code by A. Dal Corso  v.5.1
     Shape of augmentation charge: PSQ
     Using radial grid of 1165 points,  6 beta functions with:
                l(1) =   0
                l(2) =   0
                l(3) =   1
                l(4) =   1
                l(5) =   2
                l(6) =   2
     Q(r) pseudized with 0 coefficients

     PseudoPot. # 2 for N  read from file:
     /home/pragov/projects/rrg-bengioy-ad/pragov/crystal_structure_design/SSSP/N.pbe-n-radius_5.UPF
     MD5 check sum: 16739722b17309cd8fe442a2ace49922
     Pseudo is Ultrasoft + core correction, Zval =  5.0
     Generated using "atomic" code by A. Dal Corso  v.5.1
     Using radial grid of 1085 points,  4 beta functions with:
                l(1) =   0
                l(2) =   0
                l(3) =   1
                l(4) =   1
     Q(r) pseudized with 0 coefficients

     PseudoPot. # 3 for O  read from file:
     /home/pragov/projects/rrg-bengioy-ad/pragov/crystal_structure_design/SSSP/O.pbe-n-kjpaw_psl.0.1.UPF
     MD5 check sum: 0234752ac141de4415c5fc33072bef88
     Pseudo is Projector augmented-wave + core cor, Zval =  6.0
     Generated using "atomic" code by A. Dal Corso  v.5.0.99 svn rev. 10869
     Shape of augmentation charge: BESSEL
     Using radial grid of 1095 points,  4 beta functions with:
                l(1) =   0
                l(2) =   0
                l(3) =   1
                l(4) =   1
     Q(r) pseudized with 0 coefficients

     atomic species   valence    mass     pseudopotential
        K              9.00    39.09830     K ( 1.00)
        N              5.00    14.00700     N ( 1.00)
        O              6.00    15.99900     O ( 1.00)

     No symmetry found

                                    s                        frac. trans.

      isym =  1     identity

 cryst.   s( 1) = (     1          0          0      )
                  (     0          1          0      )
                  (     0          0          1      )

 cart.    s( 1) = (  1.0000000  0.0000000 -0.0000000 )
                  (  0.0000000  1.0000000  0.0000000 )
                  (  0.0000000  0.0000000  1.0000000 )

   Cartesian axes

     site n.     atom                  positions (alat units)
         1           K   tau(   1) = (   0.2162335   0.2000472   0.8791655  )
         2           N   tau(   2) = (   0.6695198   0.6194026   0.5193376  )
         3           O   tau(   3) = (   0.5451141   0.8477747   0.3732625  )
         4           O   tau(   4) = (   0.8875425   0.4776396   0.3732625  )

   Crystallographic axes

     site n.     atom                  positions (cryst. coord.)
         1           K   tau(   1) = (  0.0026640  0.0026640  0.9452250  )
         2           N   tau(   2) = (  0.5043230  0.5043230  0.5583600  )
         3           O   tau(   3) = (  0.3950270  0.7662830  0.4013090  )
         4           O   tau(   4) = (  0.7662830  0.3950270  0.4013090  )

     number of k points=     1  Methfessel-Paxton smearing, width (Ry)=  0.0010
                       cart. coord. in units 2pi/alat
        k(    1) = (   0.0000000   0.0000000   0.0000000), wk =   2.0000000

                       cryst. coord.
        k(    1) = (   0.0000000   0.0000000   0.0000000), wk =   2.0000000

     Check: negative core charge=   -0.000011

     Initial potential from superposition of free atoms

     starting charge      25.9812, renormalised to      26.0000
     Starting wfcs are   20 randomized atomic wfcs
     Checking if some PAW data can be deallocated...

     Self-consistent Calculation

     iteration #  1     ecut=    30.00 Ry     beta= 0.70
     Davidson diagonalization with overlap

     ethr =  1.00E-02,  avg # of iterations =  8.0

     total energy              =    -216.26612959 Ry
     estimated scf accuracy    <       0.33982450 Ry

[...]

     total energy              =    -216.40628808 Ry
     estimated scf accuracy    <       0.00015248 Ry

     iteration #  7     ecut=    30.00 Ry     beta= 0.70
     Davidson diagonalization with overlap

     ethr =  4.58E-07,  avg # of iterations =  2.0

     End of self-consistent calculation

          k = 0.0000 0.0000 0.0000 (   674 PWs)   bands (ev):

   -26.2751 -21.9618 -17.6747  -9.7980  -9.7500  -9.7294  -8.1024  -4.7210
    -4.0026  -3.9243  -0.5255   0.8920   1.3460   4.5204   7.3982   9.5166
    10.0006

     occupation numbers
     1.0000   1.0000   1.0000   1.0000   1.0000   1.0000   1.0000   1.0000
     1.0000   1.0000   1.0000   1.0000   1.0000  -0.0000  -0.0000  -0.0000
    -0.0000

     the Fermi energy is     3.2840 ev

!    total energy              =    -216.40631260 Ry
     estimated scf accuracy    <       0.00000091 Ry
     smearing contrib. (-TS)   =       0.00000000 Ry
     internal energy E=F+TS    =    -216.40631260 Ry

     The total energy is F=E-TS. E is the sum of the following terms:
     one-electron contribution =     -73.66985941 Ry
     hartree contribution      =      47.47354755 Ry
     xc contribution           =     -31.30913044 Ry
     ewald contribution        =     -84.41508233 Ry
     one-center paw contrib.   =     -74.48578797 Ry
      -> PAW hartree energy AE =      97.49052084 Ry
      -> PAW hartree energy PS =     -97.08569490 Ry
      -> PAW xc energy AE      =    -100.65728735 Ry
      -> PAW xc energy PS      =      25.76667344 Ry
      -> total E_H with PAW    =      47.87837349 Ry
      -> total E_XC with PAW   =    -106.19974434 Ry

     convergence has been achieved in   7 iterations

     Forces acting on atoms (cartesian axes, Ry/au):

     atom    1 type  1   force =     0.00735758    0.00646102    0.00345416
     atom    2 type  2   force =     0.03261190    0.03041822   -0.05749141
     atom    3 type  3   force =     0.00041592   -0.04042293    0.02690299
     atom    4 type  3   force =    -0.04038540    0.00354370    0.02713427
     The non-local contrib.  to forces
     atom    1 type  1   force =    -0.02925266   -0.02692841   -0.05183632
     atom    2 type  2   force =     0.65969834    0.61056064   -2.00864820
     atom    3 type  3   force =     1.08072686   -1.63295354    0.81761447
     atom    4 type  3   force =    -1.54478508    1.20456349    0.81834538
     The ionic contribution  to forces
     atom    1 type  1   force =     0.27683090    0.25610859   -0.58171200
     atom    2 type  2   force =    -2.65610983   -2.45728543    8.64405045
     atom    3 type  3   force =    -4.72791135    7.49694138   -4.03116923
     atom    4 type  3   force =     7.10719029   -5.29576454   -4.03116923
     The local contribution  to forces
     atom    1 type  1   force =    -0.24116329   -0.22373086    0.63503964
     atom    2 type  2   force =     2.03484843    1.88233721   -6.70951925
     atom    3 type  3   force =     3.65907293   -5.92041595    3.24780555
     atom    4 type  3   force =    -5.61777353    4.10733388    3.24728888
     The core correction contribution to forces
     atom    1 type  1   force =     0.00080384    0.00072696    0.00182936
     atom    2 type  2   force =    -0.00570478   -0.00528525    0.01726247
     atom    3 type  3   force =    -0.01073000    0.01510295   -0.00669632
     atom    4 type  3   force =     0.01423742   -0.01187760   -0.00670897
     The Hubbard contrib.    to forces
     atom    1 type  1   force =     0.00000000    0.00000000    0.00000000
     atom    2 type  2   force =     0.00000000    0.00000000    0.00000000
     atom    3 type  3   force =     0.00000000    0.00000000    0.00000000
     atom    4 type  3   force =     0.00000000    0.00000000    0.00000000
     The SCF correction term to forces
     atom    1 type  1   force =     0.00009327    0.00028702    0.00024866
     atom    2 type  2   force =    -0.00016579    0.00009333   -0.00052169
     atom    3 type  3   force =    -0.00078804    0.00090452   -0.00053630
     atom    4 type  3   force =     0.00069998   -0.00070925   -0.00050660

     Total force =     0.100696     Total SCF correction =     0.001854

     Computing stress (Cartesian axis) and pressure

          total   stress  (Ry/bohr**3)                   (kbar)     P=     -244.82
  -0.00162170  -0.00001299   0.00018991         -238.56       -1.91       27.94
  -0.00001299  -0.00161974   0.00017522           -1.91     -238.27       25.78
   0.00018991   0.00017522  -0.00175133           27.94       25.78     -257.63

     kinetic stress (kbar)  13377.57    318.44    -39.24
                              318.44  13327.98    -36.27
                              -39.24    -36.27  13975.37

     local   stress (kbar) -11222.64   7985.04   2576.18
                             7985.04 -12466.46   2383.19
                             2576.18   2383.19  -8270.85

     nonloc. stress (kbar)   3396.81     38.21      6.57
                               38.21   3390.84      6.11
                                6.57      6.11   3428.04

     hartree stress (kbar)   5044.03  -2581.40   -877.16
                            -2581.40   5446.13   -811.48
                             -877.16   -811.48   3768.26

     exc-cor stress (kbar)  -1684.51    -18.07     -6.11
                              -18.07  -1681.69     -5.65
                               -6.11     -5.65  -1686.03

     corecor stress (kbar)  -1173.26      0.61      1.08
                                0.61  -1173.35      1.00
                                1.08      1.00  -1177.08

     ewald   stress (kbar)  -7976.56  -5744.74  -1633.39
                            -5744.74  -7081.71  -1511.12
                            -1633.39  -1511.12 -10295.34

     hubbard stress (kbar)      0.00      0.00      0.00
                                0.00      0.00      0.00
                                0.00      0.00      0.00

     DFT-D   stress (kbar)      0.00      0.00      0.00
                                0.00      0.00      0.00
                                0.00      0.00      0.00

     XDM     stress (kbar)      0.00      0.00      0.00
                                0.00      0.00      0.00
                                0.00      0.00      0.00

     dft-nl  stress (kbar)      0.00      0.00      0.00
                                0.00      0.00      0.00
                                0.00      0.00      0.00

     TS-vdW  stress (kbar)      0.00      0.00      0.00
                                0.00      0.00      0.00
                                0.00      0.00      0.00

[...]

                                0.00      0.00      0.00

     Writing all to output data dir new_calculations/myprefix.save/

     General routines

     Parallel routines

     PAW routines

   This run was terminated on:  21:19: 1  20May2023

   JOB DONE.