     Program PWSCF v.7.0 starts on 20May2023 at 23: 2: 4

     Reading input from espresso_5744.pwi
Warning: card &CELL ignored
Warning: card / ignored

     Current dimensions of program PWSCF are:
     Max number of different atomic species (ntypx) = 10
     Max number of k-points (npk) =  40000
     Max angular momentum in pseudopotentials (lmaxx) =  4
     file Mg.pbe-n-kjpaw_psl.0.3.0.UPF: wavefunction(s)  3S renormalized

     gamma-point specific algorithms are used
     Message from routine setup:
     using ibrav=0 with symmetry is DISCOURAGED, use correct ibrav instead

     Subspace diagonalization in iterative solution of the eigenvalue problem:
     a serial algorithm will be used

     Using Slab Decomposition

     bravais-lattice index     =            0
     lattice parameter (alat)  =       8.7577  a.u.
     unit-cell volume          =     474.9601 (a.u.)^3
     number of atoms/cell      =            4
     number of atomic types    =            3
     number of electrons       =        28.00
     number of Kohn-Sham states=           18
     kinetic-energy cutoff     =      30.0000  Ry
     charge density cutoff     =     240.0000  Ry
     scf convergence threshold =      1.0E-06
     mixing beta               =       0.7000
     number of iterations used =            8  plain     mixing
     Exchange-correlation= SLA  PW   PBE  PBE
                           (   1   4   3   4   0   0   0)

     celldm(1)=   8.757713  celldm(2)=   0.000000  celldm(3)=   0.000000
     celldm(4)=   0.000000  celldm(5)=   0.000000  celldm(6)=   0.000000

     crystal axes: (cart. coord. in units of alat)
               a(1) = (   1.000000   0.000000   0.000000 )
               a(2) = (   0.500000   0.866025   0.000000 )
               a(3) = (   0.500000   0.288675   0.816497 )

     reciprocal axes: (cart. coord. in units 2 pi/alat)
               b(1) = (  1.000000 -0.577350 -0.408248 )
               b(2) = (  0.000000  1.154701 -0.408248 )
               b(3) = (  0.000000  0.000000  1.224745 )

     PseudoPot. # 1 for Li read from file:
     /home/pragov/projects/rrg-bengioy-ad/pragov/crystal_structure_design/SSSP/li_pbe_v1.4.uspp.F.UPF
     MD5 check sum: e912e257baa3777c20ea3d68f190483c
     Pseudo is Ultrasoft, Zval =  3.0
     Generated by new atomic code, or converted to UPF format
     Using radial grid of  751 points,  5 beta functions with:
                l(1) =   0
                l(2) =   0
                l(3) =   0
                l(4) =   1
                l(5) =   1
     Q(r) pseudized with 10 coefficients,  rinner =    1.150   1.150   1.150

     PseudoPot. # 2 for Mg read from file:
     /home/pragov/projects/rrg-bengioy-ad/pragov/crystal_structure_design/SSSP/Mg.pbe-n-kjpaw_psl.0.3.0.UPF
     MD5 check sum: 24ecedc7f3e3cbe212e682f4413594e4
     Pseudo is Projector augmented-wave + core cor, Zval =  2.0
     Generated using "atomic" code by A. Dal Corso  v.5.0.99 svn rev. 10869
     Shape of augmentation charge: PSQ
     Using radial grid of 1129 points,  4 beta functions with:
                l(1) =   0
                l(2) =   0
                l(3) =   1
                l(4) =   1
     Q(r) pseudized with 0 coefficients

     PseudoPot. # 3 for Zn read from file:
     /home/pragov/projects/rrg-bengioy-ad/pragov/crystal_structure_design/SSSP/Zn_pbe_v1.uspp.F.UPF
     MD5 check sum: df62231357ef9e81f77b2b3087fa5675
     Pseudo is Ultrasoft, Zval = 20.0
     Generated by new atomic code, or converted to UPF format
     Using radial grid of  943 points,  6 beta functions with:
                l(1) =   0
                l(2) =   0
                l(3) =   1
                l(4) =   1
                l(5) =   2
                l(6) =   2
     Q(r) pseudized with  8 coefficients,  rinner =    1.100   1.100   1.100
                                                       1.100   1.100

     atomic species   valence    mass     pseudopotential
        Li             3.00     6.94000     Li( 1.00)
        Mg             2.00    24.30500     Mg( 1.00)
        Zn            20.00    65.38000     Zn( 1.00)

      6 Sym. Ops. (no inversion) found

                                    s                        frac. trans.

      isym =  1     identity

 cryst.   s( 1) = (     1          0          0      )
                  (     0          1          0      )
                  (     0          0          1      )

 cart.    s( 1) = (  1.0000000  0.0000000  0.0000000 )
                  (  0.0000000  1.0000000  0.0000000 )
                  (  0.0000000  0.0000000  1.0000000 )

      isym =  2     120 deg rotation - cryst. axis [0,0,1]

[...]

      isym =  3     120 deg rotation - cryst. axis [0,0,-1]

[...]

      isym =  4     inv. 180 deg rotation - cart. axis [1,0,0]

[...]

      isym =  5     inv. 180 deg rotation - cryst. axis [0,1,0]

[...]

      isym =  6     inv. 180 deg rotation - cryst. axis [1,1,0]

 cryst.   s( 6) = (     1         -1          0      )
                  (     0         -1          0      )
                  (     0         -1          1      )

 cart.    s( 6) = (  0.5000000 -0.8660254 -0.0000000 )
                  ( -0.8660254 -0.5000000 -0.0000000 )
                  (  0.0000000  0.0000000  1.0000000 )

   Cartesian axes

     site n.     atom                  positions (alat units)
         1           Li  tau(   1) = (   0.5000000   0.2886751   0.2041241  )
         2           Li  tau(   2) = (   0.0000000   0.0000000   0.0000000  )
         3           Mg  tau(   3) = (   1.5000000   0.8660254   0.6123724  )
         4           Zn  tau(   4) = (   1.0000000   0.5773503   0.4082483  )

   Crystallographic axes

     site n.     atom                  positions (cryst. coord.)
         1           Li  tau(   1) = (  0.2500000  0.2500000  0.2500000  )
         2           Li  tau(   2) = (  0.0000000  0.0000000  0.0000000  )
         3           Mg  tau(   3) = (  0.7500000  0.7500000  0.7500000  )
         4           Zn  tau(   4) = (  0.5000000  0.5000000  0.5000000  )

     number of k points=     1  Methfessel-Paxton smearing, width (Ry)=  0.0010
                       cart. coord. in units 2pi/alat
        k(    1) = (   0.0000000   0.0000000   0.0000000), wk =   2.0000000

                       cryst. coord.
        k(    1) = (   0.0000000   0.0000000   0.0000000), wk =   2.0000000

     Initial potential from superposition of free atoms

     starting charge      27.0975, renormalised to      28.0000
     Starting wfcs are   27 randomized atomic wfcs
     Checking if some PAW data can be deallocated...

     Self-consistent Calculation

     iteration #  1     ecut=    30.00 Ry     beta= 0.70
     Davidson diagonalization with overlap

     ethr =  1.00E-02,  avg # of iterations =  4.0

     total energy              =    -473.19486967 Ry
     estimated scf accuracy    <      61.71915215 Ry

[...]

     negative rho (up, down):  1.185E-03 0.000E+00

[...]

     total energy              =    -523.23807525 Ry
     estimated scf accuracy    <       0.00000444 Ry

     iteration # 53     ecut=    30.00 Ry     beta= 0.70
     Davidson diagonalization with overlap

     ethr =  1.58E-08,  avg # of iterations =  2.0

     End of self-consistent calculation

          k = 0.0000 0.0000 0.0000 (   682 PWs)   bands (ev):

  -121.1193 -75.1945 -75.1932 -75.1925 -43.0009 -40.4037  -1.8892  -1.8882
    -1.8876  -1.7970  -1.7970  -1.7641   7.1457   7.1457   7.1458   8.1164
     8.1166   8.1168

     occupation numbers
     1.0000   1.0000   1.0000   1.0000   1.0000   1.0000   1.0000   1.0000
     1.0000   1.0000   1.0000   1.0000   0.6706   0.6676   0.6617  -0.0000
    -0.0000  -0.0000

     the Fermi energy is     7.1485 ev

!    total energy              =    -523.23807511 Ry
     estimated scf accuracy    <       0.00000072 Ry
     smearing contrib. (-TS)   =      -0.00074667 Ry
     internal energy E=F+TS    =    -523.23732845 Ry

     The total energy is F=E-TS. E is the sum of the following terms:
     one-electron contribution =    -519.86079150 Ry
     hartree contribution      =     261.07960827 Ry
     xc contribution           =     -50.51329291 Ry
     ewald contribution        =    -182.72517645 Ry
     one-center paw contrib.   =     -31.21767586 Ry
      -> PAW hartree energy AE =       0.15783203 Ry
      -> PAW hartree energy PS =      -0.15751801 Ry
      -> PAW xc energy AE      =     -32.12364966 Ry
      -> PAW xc energy PS      =       0.90565977 Ry
      -> total E_H with PAW    =     261.07992230 Ry
      -> total E_XC with PAW   =     -81.73128280 Ry

     convergence has been achieved in  53 iterations

     Forces acting on atoms (cartesian axes, Ry/au):

     atom    1 type  1   force =     0.00000000    0.00000000    0.00004644
     atom    2 type  1   force =     0.00000000    0.00000000   -0.00004224
     atom    3 type  2   force =     0.00000000    0.00000000   -0.00007258
     atom    4 type  3   force =     0.00000000    0.00000000    0.00006838
     The non-local contrib.  to forces
     atom    1 type  1   force =     0.00000000    0.00000000   -0.00005227
     atom    2 type  1   force =    -0.00000000   -0.00000000    0.00001264
     atom    3 type  2   force =     0.00000000    0.00000000    0.00003831
     atom    4 type  3   force =     0.00000000    0.00000000   -0.00066682
     The ionic contribution  to forces
     atom    1 type  1   force =    -0.00000000    0.00000000    0.00000000
     atom    2 type  1   force =     0.00000000    0.00000000    0.00000000
     atom    3 type  2   force =     0.00000000   -0.00000000   -0.00000000
     atom    4 type  3   force =    -0.00000000   -0.00000000   -0.00000000
     The local contribution  to forces
     atom    1 type  1   force =    -0.00023756    0.00004064    0.00016462
     atom    2 type  1   force =    -0.00000182   -0.00003224   -0.00007716
     atom    3 type  2   force =     0.00027389   -0.00003146   -0.00014394
     atom    4 type  3   force =    -0.00078173    0.00009623    0.00074474
     The core correction contribution to forces
     atom    1 type  1   force =     0.00000000    0.00000000    0.00000000
     atom    2 type  1   force =     0.00000000    0.00000000    0.00000000
     atom    3 type  2   force =     0.00001741   -0.00000053   -0.00000350
     atom    4 type  3   force =     0.00000000    0.00000000    0.00000000
     The Hubbard contrib.    to forces
     atom    1 type  1   force =     0.00000000    0.00000000    0.00000000
     atom    2 type  1   force =     0.00000000    0.00000000    0.00000000
     atom    3 type  2   force =     0.00000000    0.00000000    0.00000000
     atom    4 type  3   force =     0.00000000    0.00000000    0.00000000
     The SCF correction term to forces
     atom    1 type  1   force =     0.00019336   -0.00000054   -0.00007764
     atom    2 type  1   force =    -0.00000944   -0.00000873    0.00001055
     atom    3 type  2   force =    -0.00006733   -0.00000153    0.00002482
     atom    4 type  3   force =     0.00099213   -0.00000239   -0.00002127

     Total force =     0.000118     Total SCF correction =     0.001017
     SCF correction compared to forces is large: reduce conv_thr to get better values

     Computing stress (Cartesian axis) and pressure

          total   stress  (Ry/bohr**3)                   (kbar)     P=      -41.67
  -0.00027659   0.00000000  -0.00000000          -40.69        0.00       -0.00
   0.00000000  -0.00027659   0.00000000            0.00      -40.69        0.00
   0.00000000   0.00000000  -0.00029670            0.00        0.00      -43.65

     kinetic stress (kbar)   9975.25     -0.00      0.00
                                0.00   9975.25      0.00
                                0.00      0.00   9970.36

     local   stress (kbar) -11756.80      3.37     -0.56
                                3.37 -11754.39     -1.09
                               -0.56     -1.09 -11745.79

     nonloc. stress (kbar)  -1399.29     -0.00     -0.00
                               -0.00  -1399.29     -0.00
                                0.00     -0.00  -1400.77

     hartree stress (kbar)  26956.82     -2.53      0.59
                               -2.53  26955.30      0.73
                                0.59      0.73  26949.70

     exc-cor stress (kbar)  -4731.29     -0.02      0.00
                               -0.02  -4731.30      0.01
                                0.00      0.01  -4731.35

     corecor stress (kbar)   -221.22      0.00      0.00
                                0.00   -221.21     -0.00
                                0.00     -0.00   -221.19

     ewald   stress (kbar) -18864.60      0.00     -0.00
                                0.00 -18864.60     -0.00
                               -0.00     -0.00 -18864.60

     hubbard stress (kbar)      0.00      0.00      0.00
                                0.00      0.00      0.00
                                0.00      0.00      0.00

     DFT-D   stress (kbar)      0.00      0.00      0.00
                                0.00      0.00      0.00
                                0.00      0.00      0.00

     XDM     stress (kbar)      0.00      0.00      0.00
                                0.00      0.00      0.00
                                0.00      0.00      0.00

     dft-nl  stress (kbar)      0.00      0.00      0.00
                                0.00      0.00      0.00
                                0.00      0.00      0.00

     TS-vdW  stress (kbar)      0.00      0.00      0.00
                                0.00      0.00      0.00
                                0.00      0.00      0.00

[...]

                                0.00      0.00      0.00

     Writing all to output data dir new_calculations/myprefix.save/

     General routines

     Parallel routines

     PAW routines

   This run was terminated on:  23: 2:21  20May2023

   JOB DONE.