     Program PWSCF v.7.0 starts on 20May2023 at 20:36:41

     Reading input from espresso_4644.pwi
Warning: card &CELL ignored
Warning: card / ignored

     Current dimensions of program PWSCF are:
     Max number of different atomic species (ntypx) = 10
     Max number of k-points (npk) =  40000
     Max angular momentum in pseudopotentials (lmaxx) =  4
     file O.pbe-n-kjpaw_psl.0.1.UPF: wavefunction(s)  2P renormalized

     gamma-point specific algorithms are used
     Message from routine setup:
     using ibrav=0 with symmetry is DISCOURAGED, use correct ibrav instead

     Subspace diagonalization in iterative solution of the eigenvalue problem:
     a serial algorithm will be used

     Using Slab Decomposition

     bravais-lattice index     =            0
     lattice parameter (alat)  =      11.7712  a.u.
     unit-cell volume          =    1344.7893 (a.u.)^3
     number of atoms/cell      =           10
     number of atomic types    =            3
     number of electrons       =        96.00
     number of Kohn-Sham states=           58
     kinetic-energy cutoff     =      30.0000  Ry
     charge density cutoff     =     240.0000  Ry
     scf convergence threshold =      1.0E-06
     mixing beta               =       0.7000
     number of iterations used =            8  plain     mixing
     Exchange-correlation=  SLA  PW   PBX  PBC
                           (   1   4   3   4   0   0   0)

     celldm(1)=  11.771169  celldm(2)=   0.000000  celldm(3)=   0.000000
     celldm(4)=   0.000000  celldm(5)=   0.000000  celldm(6)=   0.000000

     crystal axes: (cart. coord. in units of alat)
               a(1) = (   1.000000   0.000000   0.000000 )
               a(2) = (   0.139308   0.990249   0.000000 )
               a(3) = (   0.079677   0.069252   0.832628 )

     reciprocal axes: (cart. coord. in units 2 pi/alat)
               b(1) = (  1.000000 -0.140680 -0.083992 )
               b(2) = (  0.000000  1.009847 -0.083992 )
               b(3) = (  0.000000  0.000000  1.201016 )

     PseudoPot. # 1 for Sn read from file:
     /home/pragov/projects/rrg-bengioy-ad/pragov/crystal_structure_design/SSSP/Sn_pbe_v1.uspp.F.UPF
     MD5 check sum: 4cf58ce39ec5d5d420df3dd08604eb00
     Pseudo is Ultrasoft + core correction, Zval = 14.0
     Generated by new atomic code, or converted to UPF format
     Using radial grid of  891 points,  6 beta functions with:
                l(1) =   0
                l(2) =   0
                l(3) =   1
                l(4) =   1
                l(5) =   2
                l(6) =   2
     Q(r) pseudized with  6 coefficients,  rinner =    1.200   1.200   1.200
                                                       1.200   1.200

     PseudoPot. # 2 for O  read from file:
     /home/pragov/projects/rrg-bengioy-ad/pragov/crystal_structure_design/SSSP/O.pbe-n-kjpaw_psl.0.1.UPF
     MD5 check sum: 0234752ac141de4415c5fc33072bef88
     Pseudo is Projector augmented-wave + core cor, Zval =  6.0
     Generated using "atomic" code by A. Dal Corso  v.5.0.99 svn rev. 10869
     Shape of augmentation charge: BESSEL
     Using radial grid of 1095 points,  4 beta functions with:
                l(1) =   0
                l(2) =   0
                l(3) =   1
                l(4) =   1
     Q(r) pseudized with 0 coefficients

     PseudoPot. # 3 for F  read from file:
     /home/pragov/projects/rrg-bengioy-ad/pragov/crystal_structure_design/SSSP/f_pbe_v1.4.uspp.F.UPF
     MD5 check sum: 4c38b6a325caf53ec0e86aed9459de46
     Pseudo is Ultrasoft, Zval =  7.0
     Generated by new atomic code, or converted to UPF format
     Using radial grid of  799 points,  4 beta functions with:
                l(1) =   0
                l(2) =   0
                l(3) =   1
                l(4) =   1
     Q(r) pseudized with  8 coefficients,  rinner =    0.950   0.950   0.950

     atomic species   valence    mass     pseudopotential
        Sn            14.00   118.71000     Sn( 1.00)
        O              6.00    15.99900     O ( 1.00)
        F              7.00    18.99840     F ( 1.00)

      2 Sym. Ops., with inversion, found

                                    s                        frac. trans.

      isym =  1     identity

 cryst.   s( 1) = (     1          0          0      )
                  (     0          1          0      )
                  (     0          0          1      )

 cart.    s( 1) = (  1.0000000  0.0000000  0.0000000 )
                  (  0.0000000  1.0000000 -0.0000000 )
                  (  0.0000000  0.0000000  1.0000000 )

      isym =  2     inversion

 cryst.   s( 2) = (    -1          0          0      )
                  (     0         -1          0      )
                  (     0          0         -1      )

 cart.    s( 2) = ( -1.0000000 -0.0000000 -0.0000000 )
                  (  0.0000000 -1.0000000  0.0000000 )
                  (  0.0000000  0.0000000 -1.0000000 )

   Cartesian axes

     site n.     atom                  positions (alat units)
         1           Sn  tau(   1) = (   0.4350063   0.7305020   0.4163141  )
         2           Sn  tau(   2) = (   0.7839789   0.3289996   0.4163141  )
         3           Sn  tau(   3) = (   0.3279659   0.2850571   0.8224917  )
         4           Sn  tau(   4) = (   0.8910194   0.7744444   0.0101364  )
         5           O   tau(   5) = (   0.5019865   0.4363100   0.5782236  )
         6           O   tau(   6) = (   0.7169987   0.6231915   0.2544045  )
         7           F   tau(   7) = (   0.9897678   0.5418584   0.6651808  )
         8           F   tau(   8) = (   0.2292174   0.5176431   0.1674473  )
         9           F   tau(   9) = (   0.6744578   0.9046312   0.6651808  )
        10           F   tau(  10) = (   0.5445275   0.1548703   0.1674473  )

   Crystallographic axes

     site n.     atom                  positions (cryst. coord.)
         1           Sn  tau(   1) = (  0.2972720  0.7027280  0.5000000  )
         2           Sn  tau(   2) = (  0.7027280  0.2972720  0.5000000  )
         3           Sn  tau(   3) = (  0.2187810  0.2187810  0.9878260  )
         4           Sn  tau(   4) = (  0.7812190  0.7812190  0.0121740  )
         5           O   tau(   5) = (  0.3920400  0.3920400  0.6944560  )
         6           O   tau(   6) = (  0.6079600  0.6079600  0.3055440  )
         7           F   tau(   7) = (  0.8576690  0.4913240  0.7988930  )
         8           F   tau(   8) = (  0.1423310  0.5086760  0.2011070  )
         9           F   tau(   9) = (  0.4913240  0.8576690  0.7988930  )
        10           F   tau(  10) = (  0.5086760  0.1423310  0.2011070  )

     number of k points=     1  Methfessel-Paxton smearing, width (Ry)=  0.0010
                       cart. coord. in units 2pi/alat
        k(    1) = (   0.0000000   0.0000000   0.0000000), wk =   2.0000000

                       cryst. coord.
        k(    1) = (   0.0000000   0.0000000   0.0000000), wk =   2.0000000

     Check: negative core charge=   -0.000004

     Initial potential from superposition of free atoms

     starting charge      91.9998, renormalised to      96.0000
     Starting wfcs are   60 randomized atomic wfcs
     Checking if some PAW data can be deallocated...

     Self-consistent Calculation

     iteration #  1     ecut=    30.00 Ry     beta= 0.70
     Davidson diagonalization with overlap

     ethr =  1.00E-02,  avg # of iterations =  3.0

     total energy              =    -930.10229537 Ry
     estimated scf accuracy    <       2.12704004 Ry

[...]

     total energy              =    -930.91925883 Ry
     estimated scf accuracy    <       0.00000189 Ry

     iteration #  9     ecut=    30.00 Ry     beta= 0.70
     Davidson diagonalization with overlap

     ethr =  1.96E-09,  avg # of iterations =  2.0

     End of self-consistent calculation

          k = 0.0000 0.0000 0.0000 (  1863 PWs)   bands (ev):

   -17.4980 -17.3974 -17.3848 -17.2716 -15.4959 -15.3233 -15.2032 -15.1824
   -15.1347 -15.1293 -15.1126 -15.1087 -15.0872 -15.0764 -15.0466 -15.0450
   -15.0282 -15.0137 -15.0132 -14.9998 -14.9851 -14.9656 -14.9146 -14.7868
   -12.2254 -11.4608  -2.3107  -1.6518  -1.4752  -0.0299   0.2946   0.6179
     0.6670   0.8552   1.2664   1.3091   1.3450   1.4085   1.6248   1.6872
     2.1747   2.2121   2.2447   3.3981   3.6179   4.9024   4.9353   4.9652
     7.7873   8.3091   8.6718   9.4391  10.6215  10.6570  10.8429  11.8620
    11.9336  11.9559

     occupation numbers
     1.0000   1.0000   1.0000   1.0000   1.0000   1.0000   1.0000   1.0000
     1.0000   1.0000   1.0000   1.0000   1.0000   1.0000   1.0000   1.0000
     1.0000   1.0000   1.0000   1.0000   1.0000   1.0000   1.0000   1.0000
     1.0000   1.0000   1.0000   1.0000   1.0000   1.0000   1.0000   1.0000
     1.0000   1.0000   1.0000   1.0000   1.0000   1.0000   1.0000   1.0000
     1.0000   1.0000   1.0000   1.0000   1.0000   1.0000   1.0000   1.0000
    -0.0000  -0.0000  -0.0000  -0.0000  -0.0000  -0.0000  -0.0000  -0.0000
    -0.0000  -0.0000

     the Fermi energy is     6.5183 ev

!    total energy              =    -930.91925889 Ry
     estimated scf accuracy    <       0.00000064 Ry
     smearing contrib. (-TS)   =       0.00000000 Ry
     internal energy E=F+TS    =    -930.91925889 Ry

     The total energy is F=E-TS. E is the sum of the following terms:
     one-electron contribution =    -462.87879562 Ry
     hartree contribution      =     292.16793896 Ry
     xc contribution           =    -242.65791555 Ry
     ewald contribution        =    -498.50994404 Ry
     one-center paw contrib.   =     -19.04054264 Ry
      -> PAW hartree energy AE =      59.40540982 Ry
      -> PAW hartree energy PS =     -59.19445605 Ry
      -> PAW xc energy AE      =     -34.35781631 Ry
      -> PAW xc energy PS      =      15.10631989 Ry
      -> total E_H with PAW    =     292.37889273 Ry
      -> total E_XC with PAW   =    -261.90941196 Ry

     convergence has been achieved in   9 iterations

     Forces acting on atoms (cartesian axes, Ry/au):

     atom    1 type  1   force =     0.01605937   -0.01838833    0.00001384
     atom    2 type  1   force =    -0.01605937    0.01838833   -0.00001384
     atom    3 type  1   force =     0.01102446    0.00949191    0.00225828
     atom    4 type  1   force =    -0.01102446   -0.00949191   -0.00225828
     atom    5 type  2   force =    -0.00241388   -0.00209837   -0.00860110
     atom    6 type  2   force =     0.00241388    0.00209837    0.00860110
     atom    7 type  3   force =     0.00051076    0.00158569    0.01228422
     atom    8 type  3   force =    -0.00051076   -0.00158569   -0.01228422
     atom    9 type  3   force =     0.00164698    0.00028808    0.01228618
     atom   10 type  3   force =    -0.00164698   -0.00028808   -0.01228618
     The non-local contrib.  to forces
     atom    1 type  1   force =     0.50155664   -0.57696727    0.00001463
     atom    2 type  1   force =    -0.50155664    0.57696727   -0.00001463
     atom    3 type  1   force =     0.63553139    0.55229893   -0.07977847
     atom    4 type  1   force =    -0.63553139   -0.55229893    0.07977847
     atom    5 type  2   force =    -0.05693724   -0.04948935    0.02286109
     atom    6 type  2   force =     0.05693724    0.04948935   -0.02286109
     atom    7 type  3   force =    -0.10977617    0.32303762    0.13738108
     atom    8 type  3   force =     0.10977617   -0.32303762   -0.13738108
     atom    9 type  3   force =     0.30460450   -0.15371490    0.13738153
     atom   10 type  3   force =    -0.30460450    0.15371490   -0.13738153
     The ionic contribution  to forces
     atom    1 type  1   force =   -12.72374337   14.63901208   -0.00000000
     atom    2 type  1   force =    12.72374337  -14.63901208    0.00000000
     atom    3 type  1   force =   -12.90050498  -11.21269071    0.91129909
     atom    4 type  1   force =    12.90050498   11.21269071   -0.91129909
     atom    5 type  2   force =    -2.02997693   -1.76438857    1.51242815
     atom    6 type  2   force =     2.02997693    1.76438857   -1.51242815
     atom    7 type  3   force =     2.67113122   -3.44248819   -1.89554194
     atom    8 type  3   force =    -2.67113121    3.44248820    1.89554194
     atom    9 type  3   force =    -3.03680963    3.12465266   -1.89554194
     atom   10 type  3   force =     3.03680963   -3.12465266    1.89554194
     The local contribution  to forces
     atom    1 type  1   force =    12.24819888  -14.09311409    0.00099296
     atom    2 type  1   force =   -12.24927390   14.09215779    0.00102605
     atom    3 type  1   force =    12.29154233   10.68354516   -0.82900297
     atom    4 type  1   force =   -12.29079749  -10.68287630    0.82721574
     atom    5 type  2   force =     2.08359013    1.81101898   -1.54307155
     atom    6 type  2   force =    -2.08375380   -1.81115280    1.54334375
     atom    7 type  3   force =    -2.56075370    3.12109222    1.77043506
     atom    8 type  3   force =     2.56092245   -3.12106732   -1.77054910
     atom    9 type  3   force =     2.73392357   -2.97060641    1.77043969
     atom   10 type  3   force =    -2.73387262    2.97076336   -1.77055732
     The core correction contribution to forces
     atom    1 type  1   force =    -0.01047976    0.01204528    0.00000812
     atom    2 type  1   force =     0.01047025   -0.01205408    0.00000899
     atom    3 type  1   force =    -0.01534863   -0.01333874   -0.00108525
     atom    4 type  1   force =     0.01534984    0.01334047    0.00107145
     atom    5 type  2   force =     0.00083320    0.00072421   -0.00064588
     atom    6 type  2   force =    -0.00083317   -0.00072421    0.00064602
     atom    7 type  3   force =     0.00000000    0.00000000    0.00000000
     atom    8 type  3   force =     0.00000000    0.00000000    0.00000000
     atom    9 type  3   force =     0.00000000    0.00000000    0.00000000
     atom   10 type  3   force =     0.00000000    0.00000000    0.00000000
     The Hubbard contrib.    to forces
     atom    1 type  1   force =     0.00000000    0.00000000    0.00000000
     atom    2 type  1   force =     0.00000000    0.00000000    0.00000000
     atom    3 type  1   force =     0.00000000    0.00000000    0.00000000
     atom    4 type  1   force =     0.00000000    0.00000000    0.00000000
     atom    5 type  2   force =     0.00000000    0.00000000    0.00000000
     atom    6 type  2   force =     0.00000000    0.00000000    0.00000000
     atom    7 type  3   force =     0.00000000    0.00000000    0.00000000
     atom    8 type  3   force =     0.00000000    0.00000000    0.00000000
     atom    9 type  3   force =     0.00000000    0.00000000    0.00000000
     atom   10 type  3   force =     0.00000000    0.00000000    0.00000000
     The SCF correction term to forces
     atom    1 type  1   force =     0.00054828    0.00065520   -0.00104944
     atom    2 type  1   force =     0.00057884    0.00034897   -0.00108182
     atom    3 type  1   force =    -0.00024489   -0.00036311    0.00087642
     atom    4 type  1   force =    -0.00059965   -0.00038824    0.00102569
     atom    5 type  2   force =     0.00008951    0.00004542   -0.00017680
     atom    6 type  2   force =     0.00009921    0.00010651   -0.00010332
     atom    7 type  3   force =    -0.00011514   -0.00003042    0.00003138
     atom    8 type  3   force =    -0.00010273    0.00005659    0.00012538
     atom    9 type  3   force =    -0.00004843   -0.00007077    0.00002831
     atom   10 type  3   force =     0.00004355   -0.00014117    0.00013214

     Total force =     0.049080     Total SCF correction =     0.002479

     Computing stress (Cartesian axis) and pressure

          total   stress  (Ry/bohr**3)                   (kbar)     P=     -100.67
  -0.00066440  -0.00008373   0.00008509          -97.74      -12.32       12.52
  -0.00008373  -0.00064082   0.00007395          -12.32      -94.27       10.88
   0.00008509   0.00007395  -0.00074783           12.52       10.88     -110.01

     kinetic stress (kbar)  13887.00     61.92     26.11
                               61.92  13869.58     22.70
                               26.11     22.70  13887.30

     local   stress (kbar)  -4186.37   3177.40  -2284.83
                             3177.40  -5080.31  -1985.90
                            -2284.83  -1985.90  -7194.69

     nonloc. stress (kbar)   4558.36     -3.61    -47.72
                               -3.61   4559.37    -41.48
                              -47.72    -41.48   4511.50

     hartree stress (kbar)   9963.13  -1240.51   1040.25
                            -1240.51  10312.11    904.15
                             1040.25    904.15  11684.70

     exc-cor stress (kbar)   7178.74     -1.61     -0.86
                               -1.61   7179.19     -0.75
                               -0.86     -0.75   7175.00

     corecor stress (kbar) -12692.19      0.04      1.23
                                0.04 -12692.20      1.07
                                1.23      1.07 -12690.76

     ewald   stress (kbar) -18806.40  -2005.95   1278.34
                            -2005.95 -18242.01   1111.09
                             1278.34   1111.09 -17483.07

     hubbard stress (kbar)      0.00      0.00      0.00
                                0.00      0.00      0.00
                                0.00      0.00      0.00

     DFT-D   stress (kbar)      0.00      0.00      0.00
                                0.00      0.00      0.00
                                0.00      0.00      0.00

     XDM     stress (kbar)      0.00      0.00      0.00
                                0.00      0.00      0.00
                                0.00      0.00      0.00

     dft-nl  stress (kbar)      0.00      0.00      0.00
                                0.00      0.00      0.00
                                0.00      0.00      0.00

     TS-vdW  stress (kbar)      0.00      0.00      0.00
                                0.00      0.00      0.00
                                0.00      0.00      0.00

[...]

                                0.00      0.00      0.00

     Writing all to output data dir new_calculations/myprefix.save/

     General routines

     Parallel routines

     PAW routines

   This run was terminated on:  20:36:57  20May2023

   JOB DONE.