     Program PWSCF v.7.0 starts on 21May2023 at 18:36:43

     Reading input from espresso_27021.pwi
Warning: card &CELL ignored
Warning: card / ignored

     Current dimensions of program PWSCF are:
     Max number of different atomic species (ntypx) = 10
     Max number of k-points (npk) =  40000
     Max angular momentum in pseudopotentials (lmaxx) =  4

     gamma-point specific algorithms are used
     Message from routine setup:
     using ibrav=0 with symmetry is DISCOURAGED, use correct ibrav instead

     Subspace diagonalization in iterative solution of the eigenvalue problem:
     a serial algorithm will be used

     Using Slab Decomposition

     bravais-lattice index     =            0
     lattice parameter (alat)  =      10.2494  a.u.
     unit-cell volume          =     749.3835 (a.u.)^3
     number of atoms/cell      =            8
     number of atomic types    =            2
     number of electrons       =       124.00
     number of Kohn-Sham states=           74
     kinetic-energy cutoff     =      30.0000  Ry
     charge density cutoff     =     240.0000  Ry
     scf convergence threshold =      1.0E-06
     mixing beta               =       0.7000
     number of iterations used =            8  plain     mixing
     Exchange-correlation= SLA  PW   PBE  PBE
                           (   1   4   3   4   0   0   0)

     celldm(1)=  10.249358  celldm(2)=   0.000000  celldm(3)=   0.000000
     celldm(4)=   0.000000  celldm(5)=   0.000000  celldm(6)=   0.000000

     crystal axes: (cart. coord. in units of alat)
               a(1) = (   1.000000   0.000000   0.000000 )
               a(2) = (  -0.500000   0.866025   0.000000 )
               a(3) = (   0.000000   0.000000   0.803681 )

     reciprocal axes: (cart. coord. in units 2 pi/alat)
               b(1) = (  1.000000  0.577350  0.000000 )
               b(2) = (  0.000000  1.154701  0.000000 )
               b(3) = (  0.000000  0.000000  1.244275 )

     PseudoPot. # 1 for Co read from file:
     /home/pragov/projects/rrg-bengioy-ad/pragov/crystal_structure_design/SSSP/Co_pbe_v1.2.uspp.F.UPF
     MD5 check sum: 5f91765df6ddd3222702df6e7b74a16d
     Pseudo is Ultrasoft + core correction, Zval = 17.0
     Generated by new atomic code, or converted to UPF format
     Using radial grid of  863 points,  6 beta functions with:
                l(1) =   0
                l(2) =   0
                l(3) =   1
                l(4) =   1
                l(5) =   2
                l(6) =   2
     Q(r) pseudized with  8 coefficients,  rinner =    1.200   1.200   1.200
                                                       1.200   1.200

     PseudoPot. # 2 for Re read from file:
     /home/pragov/projects/rrg-bengioy-ad/pragov/crystal_structure_design/SSSP/Re_pbe_v1.2.uspp.F.UPF
     MD5 check sum: 85f993410f3e006da9d71c142b4ad953
     Pseudo is Ultrasoft + core correction, Zval = 15.0
     Generated by new atomic code, or converted to UPF format
     Using radial grid of  981 points,  8 beta functions with:
                l(1) =   0
                l(2) =   0
                l(3) =   1
                l(4) =   1
                l(5) =   2
                l(6) =   2
                l(7) =   3
                l(8) =   3
     Q(r) pseudized with  8 coefficients,  rinner =    1.150   1.150   1.150
                                                       1.150   1.150   1.150
                                                       1.150

     atomic species   valence    mass     pseudopotential
        Co            17.00    58.93319     Co( 1.00)
        Re            15.00   186.20700     Re( 1.00)

     24 Sym. Ops., with inversion, found (12 have fractional translation)

                                    s                        frac. trans.

      isym =  1     identity

 cryst.   s( 1) = (     1          0          0      )
                  (     0          1          0      )
                  (     0          0          1      )

 cart.    s( 1) = (  1.0000000  0.0000000  0.0000000 )
                  (  0.0000000  1.0000000  0.0000000 )
                  (  0.0000000  0.0000000  1.0000000 )

      isym =  2     180 deg rotation - cart. axis [0,0,1]

 cryst.   s( 2) = (    -1          0          0      )    f =(  0.0000000 )
                  (     0         -1          0      )       (  0.0000000 )
                  (     0          0          1      )       (  0.5000000 )

 cart.    s( 2) = ( -1.0000000 -0.0000000  0.0000000 )    f =(  0.0000000 )
                  (  0.0000000 -1.0000000  0.0000000 )       (  0.0000000 )
                  (  0.0000000  0.0000000  1.0000000 )       (  0.4018404 )

[...]

      isym =  4     180 deg rotation - cart. axis [1,0,0]

[...]

      isym =  5      60 deg rotation - cryst. axis [0,0,1]

[...]

 cryst.   s( 8) = (    -1         -1          0      )
                  (     1          0          0      )
                  (     0          0          1      )

 cart.    s( 8) = ( -0.4999999  0.8660254  0.0000000 )
                  ( -0.8660254 -0.5000001  0.0000000 )
                  (  0.0000000  0.0000000  1.0000000 )

[...]

 cryst.   s( 9) = (     0         -1          0      )    f =(  0.0000000 )
                  (    -1          0          0      )       (  0.0000000 )
                  (     0          0         -1      )       (  0.5000000 )

 cart.    s( 9) = (  0.5000001 -0.8660254  0.0000000 )    f =(  0.0000000 )
                  ( -0.8660254 -0.5000001  0.0000000 )       (  0.0000000 )
                  (  0.0000000  0.0000000 -1.0000000 )       (  0.4018404 )

[...]

 cryst.   s(10) = (     1          1          0      )    f =(  0.0000000 )
                  (     0         -1          0      )       ( -0.0000010 )
                  (     0          0         -1      )       (  0.5000000 )

 cart.    s(10) = (  0.4999999  0.8660255  0.0000000 )    f =(  0.0000005 )
                  (  0.8660254 -0.4999999  0.0000000 )       ( -0.0000009 )
                  (  0.0000000  0.0000000 -1.0000000 )       (  0.4018404 )

[...]

 cryst.   s(11) = (    -1         -1          0      )
                  (     0          1          0      )
                  (     0          0         -1      )

 cart.    s(11) = ( -0.4999999 -0.8660255  0.0000000 )
                  ( -0.8660254  0.4999999  0.0000000 )
                  (  0.0000000  0.0000000 -1.0000000 )

      isym = 12     180 deg rotation - cryst. axis [1,1,0]

[...]

      isym = 13     inversion

[...]

      isym = 14     inv. 180 deg rotation - cart. axis [0,0,1]

[...]

      isym = 16     inv. 180 deg rotation - cart. axis [1,0,0]

[...]

      isym = 17     inv.  60 deg rotation - cryst. axis [0,0,1]

[...]

 cryst.   s(22) = (    -1         -1          0      )    f =(  0.0000000 )
                  (     0          1          0      )       ( -0.0000010 )
                  (     0          0          1      )       (  0.5000000 )

 cart.    s(22) = ( -0.4999999 -0.8660255  0.0000000 )    f =(  0.0000005 )
                  ( -0.8660254  0.4999999  0.0000000 )       ( -0.0000009 )
                  (  0.0000000  0.0000000  1.0000000 )       (  0.4018404 )

[...]

      isym = 24     inv. 180 deg rotation - cryst. axis [1,1,0]

 cryst.   s(24) = (     0         -1          0      )
                  (    -1          0          0      )
                  (     0          0          1      )

 cart.    s(24) = (  0.5000001 -0.8660254  0.0000000 )
                  ( -0.8660254 -0.5000001  0.0000000 )
                  (  0.0000000  0.0000000  1.0000000 )

   Cartesian axes

     site n.     atom                  positions (alat units)
         1           Co  tau(   1) = (  -0.0000006   0.5773505   0.6027606  )
         2           Co  tau(   2) = (   0.5000005   0.2886748   0.2009202  )
         3           Re  tau(   3) = (  -0.0000005   0.2881396   0.2009202  )
         4           Re  tau(   4) = (   0.2504634   0.7219560   0.2009202  )
         5           Re  tau(   5) = (  -0.2504646   0.7219560   0.2009202  )
         6           Re  tau(   6) = (   0.5000004   0.5778857   0.6027606  )
         7           Re  tau(   7) = (   0.2495365   0.1440694   0.6027606  )
         8           Re  tau(   8) = (   0.7504645   0.1440694   0.6027606  )

   Crystallographic axes

     site n.     atom                  positions (cryst. coord.)
         1           Co  tau(   1) = (  0.3333330  0.6666670  0.7500000  )
         2           Co  tau(   2) = (  0.6666670  0.3333330  0.2500000  )
         3           Re  tau(   3) = (  0.1663570  0.3327150  0.2500000  )
         4           Re  tau(   4) = (  0.6672850  0.8336430  0.2500000  )
         5           Re  tau(   5) = (  0.1663570  0.8336430  0.2500000  )
         6           Re  tau(   6) = (  0.8336430  0.6672850  0.7500000  )
         7           Re  tau(   7) = (  0.3327150  0.1663570  0.7500000  )
         8           Re  tau(   8) = (  0.8336430  0.1663570  0.7500000  )

     number of k points=     1  Methfessel-Paxton smearing, width (Ry)=  0.0010
                       cart. coord. in units 2pi/alat
        k(    1) = (   0.0000000   0.0000000   0.0000000), wk =   2.0000000

                       cryst. coord.
        k(    1) = (   0.0000000   0.0000000   0.0000000), wk =   2.0000000

     Check: negative core charge=   -0.000006

     Initial potential from superposition of free atoms

     starting charge     118.9997, renormalised to     124.0000

     negative rho (up, down):  7.998E-01 0.000E+00
     Starting wfcs are  104 randomized atomic wfcs

     Self-consistent Calculation

     iteration #  1     ecut=    30.00 Ry     beta= 0.70
     Davidson diagonalization with overlap

     ethr =  1.00E-02,  avg # of iterations =  2.0

     negative rho (up, down):  7.199E-01 0.000E+00

     total energy              =   -1705.76267966 Ry
     estimated scf accuracy    <      45.52284162 Ry

[...]

     total energy              =   -1740.97039839 Ry
     estimated scf accuracy    <       0.00000311 Ry

     iteration # 17     ecut=    30.00 Ry     beta= 0.70
     Davidson diagonalization with overlap

     ethr =  2.51E-09,  avg # of iterations =  2.0

[...]

     End of self-consistent calculation

          k = 0.0000 0.0000 0.0000 (  1031 PWs)   bands (ev):

   -71.4867 -71.4864 -56.8492 -56.7509 -56.7502 -56.7424 -56.6983 -56.6976
   -34.9203 -34.9203 -34.9139 -34.9139 -34.4037 -34.4036 -19.4958 -19.2465
   -19.0112 -19.0108 -18.9659 -18.9658 -18.9275 -18.6523 -18.5510 -18.5504
   -18.3838 -18.3833 -18.3420 -18.3418 -18.3008 -18.0561 -18.0554 -17.9016
    13.2874  16.7196  16.9658  17.2148  17.3063  17.5338  17.5339  17.5612
    17.5613  18.7763  18.7765  21.0926  21.0927  21.2225  21.3300  21.3302
    21.3565  21.3565  21.4314  21.5020  21.7923  21.9283  21.9283  21.9337
    21.9337  22.2852  22.3992  22.3994  22.8497  22.8498  23.5811  25.0629
    25.0632  25.2851  25.2854  25.7543  25.7543  25.9195  25.9199  26.6913
    27.1708  28.0821

     occupation numbers
     1.0000   1.0000   1.0000   1.0000   1.0000   1.0000   1.0000   1.0000
     1.0000   1.0000   1.0000   1.0000   1.0000   1.0000   1.0000   1.0000
     1.0000   1.0000   1.0000   1.0000   1.0000   1.0000   1.0000   1.0000
     1.0000   1.0000   1.0000   1.0000   1.0000   1.0000   1.0000   1.0000
     1.0000   1.0000   1.0000   1.0000   1.0000   1.0000   1.0000   1.0000
     1.0000   1.0000   1.0000   1.0000   1.0000   1.0000   1.0000   1.0000
     1.0000   1.0000   1.0000   1.0000   1.0000   1.0000   1.0000   1.0000
     1.0000   1.0000   1.0000   1.0000   1.0000   1.0000  -0.0000  -0.0000
    -0.0000  -0.0000  -0.0000  -0.0000  -0.0000  -0.0000  -0.0000  -0.0000
    -0.0000  -0.0000

     the Fermi energy is    23.1481 ev

!    total energy              =   -1740.97039801 Ry
     estimated scf accuracy    <       0.00000068 Ry
     smearing contrib. (-TS)   =       0.00000000 Ry
     internal energy E=F+TS    =   -1740.97039801 Ry

     The total energy is F=E-TS. E is the sum of the following terms:
     one-electron contribution =    -443.08471213 Ry
     hartree contribution      =     307.28147672 Ry
     xc contribution           =    -381.05330921 Ry
     ewald contribution        =   -1224.11385340 Ry

     convergence has been achieved in  17 iterations

     negative rho (up, down):  7.572E-01 0.000E+00

     Forces acting on atoms (cartesian axes, Ry/au):

     atom    1 type  1   force =     0.00000000   -0.00000000    0.00000000
     atom    2 type  1   force =     0.00000000    0.00000000    0.00000000
     atom    3 type  2   force =     0.00000000    0.05652361   -0.00000000
     atom    4 type  2   force =    -0.04895088   -0.02826181    0.00000000
     atom    5 type  2   force =     0.04895088   -0.02826180    0.00000000
     atom    6 type  2   force =     0.00000000   -0.05652361    0.00000000
     atom    7 type  2   force =     0.04895088    0.02826181   -0.00000000
     atom    8 type  2   force =    -0.04895088    0.02826180    0.00000000
     The non-local contrib.  to forces
     atom    1 type  1   force =    -0.00000000   -0.00000000    0.00000000
     atom    2 type  1   force =     0.00000000    0.00000000    0.00000000
     atom    3 type  2   force =     0.00000000    0.00025582    0.00000000
     atom    4 type  2   force =    -0.00022155   -0.00012791    0.00000000
     atom    5 type  2   force =     0.00022155   -0.00012791    0.00000000
     atom    6 type  2   force =     0.00000000   -0.00025582    0.00000000
     atom    7 type  2   force =     0.00022155    0.00012791   -0.00000000
     atom    8 type  2   force =    -0.00022155    0.00012791   -0.00000000
     The ionic contribution  to forces
     atom    1 type  1   force =     0.00022575   -0.00013033   -0.00000000
     atom    2 type  1   force =    -0.00022575    0.00013034    0.00000000
     atom    3 type  2   force =     0.00021781   -1.26426813    0.00000000
     atom    4 type  2   force =     1.09499716    0.63194554    0.00000000
     atom    5 type  2   force =    -1.09496477    0.63217814    0.00000000
     atom    6 type  2   force =    -0.00021781    1.26426813   -0.00000000
     atom    7 type  2   force =    -1.09499717   -0.63194554   -0.00000000
     atom    8 type  2   force =     1.09496477   -0.63217814   -0.00000000
     The local contribution  to forces
     atom    1 type  1   force =    -0.00027764   -0.00032563    0.00016923
     atom    2 type  1   force =     0.00090617   -0.00025442   -0.00017510
     atom    3 type  2   force =    -0.00082080    1.32522477   -0.00013950
     atom    4 type  2   force =    -1.14788371   -0.66206212   -0.00018888
     atom    5 type  2   force =     1.14791485   -0.66287513   -0.00014902
     atom    6 type  2   force =     0.00021284   -1.32561872    0.00015688
     atom    7 type  2   force =     1.14775507    0.66284913    0.00016485
     atom    8 type  2   force =    -1.14773084    0.66313284    0.00017876
     The core correction contribution to forces
     atom    1 type  1   force =    -0.00000109    0.00000096   -0.00000003
     atom    2 type  1   force =    -0.00000039    0.00000054    0.00000003
     atom    3 type  2   force =    -0.00000354   -0.00606567   -0.00000120
     atom    4 type  2   force =     0.00525360    0.00303541   -0.00000271
     atom    5 type  2   force =    -0.00525206    0.00303899   -0.00000507
     atom    6 type  2   force =     0.00000331    0.00606835    0.00000272
     atom    7 type  2   force =    -0.00525776   -0.00303254    0.00000479
     atom    8 type  2   force =     0.00525792   -0.00303170    0.00000400
     The Hubbard contrib.    to forces
     atom    1 type  1   force =     0.00000000    0.00000000    0.00000000
     atom    2 type  1   force =     0.00000000    0.00000000    0.00000000
     atom    3 type  2   force =     0.00000000    0.00000000    0.00000000
     atom    4 type  2   force =     0.00000000    0.00000000    0.00000000
     atom    5 type  2   force =     0.00000000    0.00000000    0.00000000
     atom    6 type  2   force =     0.00000000    0.00000000    0.00000000
     atom    7 type  2   force =     0.00000000    0.00000000    0.00000000
     atom    8 type  2   force =     0.00000000    0.00000000    0.00000000
     The SCF correction term to forces
     atom    1 type  1   force =    -0.00001537    0.00050687   -0.00021039
     atom    2 type  1   force =    -0.00070820    0.00008728    0.00022004
     atom    3 type  2   force =     0.00062554    0.00136201    0.00015877
     atom    4 type  2   force =    -0.00109394   -0.00101361    0.00020960
     atom    5 type  2   force =     0.00100209   -0.00046384    0.00018015
     atom    6 type  2   force =     0.00003936   -0.00099324   -0.00017846
     atom    7 type  2   force =     0.00125679    0.00023443   -0.00019346
     atom    8 type  2   force =    -0.00126963    0.00022783   -0.00020797

     Total force =     0.138454     Total SCF correction =     0.003324

     Computing stress (Cartesian axis) and pressure

     negative rho (up, down):  7.572E-01 0.000E+00
          total   stress  (Ry/bohr**3)                   (kbar)     P=     -256.92
  -0.00213710  -0.00000000   0.00000000         -314.38       -0.00        0.00
  -0.00000000  -0.00213710  -0.00000000           -0.00     -314.38       -0.00
   0.00000000   0.00000000  -0.00096529            0.00        0.00     -142.00

     kinetic stress (kbar)  50367.97      0.00      0.00
                                0.00  50367.97     -0.00
                                0.00     -0.00  52614.11

     local   stress (kbar)  42909.58     -0.09     -0.00
                               -0.09  42909.53      0.00
                               -0.00      0.00  37268.08

     nonloc. stress (kbar) -17145.09     -0.00     -0.00
                               -0.00 -17145.09     -0.00
                               -0.00     -0.00 -17323.46

     hartree stress (kbar)  19441.76      0.08      0.00
                                0.08  19441.76      0.00
                                0.00      0.00  21436.27

     exc-cor stress (kbar)  28234.59     -0.00      0.00
                               -0.00  28234.59     -0.00
                                0.00     -0.00  28267.31

     corecor stress (kbar) -43445.72      0.00      0.00
                                0.00 -43445.72      0.00
                                0.00      0.00 -43463.86

     ewald   stress (kbar) -80677.46      0.04     -0.00
                                0.04 -80677.42      0.00
                               -0.00      0.00 -78940.45

     hubbard stress (kbar)      0.00      0.00      0.00
                                0.00      0.00      0.00
                                0.00      0.00      0.00

     DFT-D   stress (kbar)      0.00      0.00      0.00
                                0.00      0.00      0.00
                                0.00      0.00      0.00

     XDM     stress (kbar)      0.00      0.00      0.00
                                0.00      0.00      0.00
                                0.00      0.00      0.00

     dft-nl  stress (kbar)      0.00      0.00      0.00
                                0.00      0.00      0.00
                                0.00      0.00      0.00

     TS-vdW  stress (kbar)      0.00      0.00      0.00
                                0.00      0.00      0.00
                                0.00      0.00      0.00

[...]

                                0.00      0.00      0.00

     Writing all to output data dir new_calculations/myprefix.save/

     General routines

     Parallel routines

   This run was terminated on:  18:37: 7  21May2023

   JOB DONE.