     Program PWSCF v.7.0 starts on 20May2023 at 19:31:59

     Reading input from espresso_11570.pwi
Warning: card &CELL ignored
Warning: card / ignored

     Current dimensions of program PWSCF are:
     Max number of different atomic species (ntypx) = 10
     Max number of k-points (npk) =  40000
     Max angular momentum in pseudopotentials (lmaxx) =  4
     file O.pbe-n-kjpaw_psl.0.1.UPF: wavefunction(s)  2P renormalized

     gamma-point specific algorithms are used

     Subspace diagonalization in iterative solution of the eigenvalue problem:
     a serial algorithm will be used

     Using Slab Decomposition

     bravais-lattice index     =            0
     lattice parameter (alat)  =      11.3389  a.u.
     unit-cell volume          =     954.9055 (a.u.)^3
     number of atoms/cell      =            9
     number of atomic types    =            3
     number of electrons       =       113.00
     number of Kohn-Sham states=           68
     kinetic-energy cutoff     =      30.0000  Ry
     charge density cutoff     =     240.0000  Ry
     scf convergence threshold =      1.0E-06
     mixing beta               =       0.7000
     number of iterations used =            8  plain     mixing
     Exchange-correlation= SLA  PW   PBX  PBC
                           (   1   4   3   4   0   0   0)

     celldm(1)=  11.338858  celldm(2)=   0.000000  celldm(3)=   0.000000
     celldm(4)=   0.000000  celldm(5)=   0.000000  celldm(6)=   0.000000

     crystal axes: (cart. coord. in units of alat)
               a(1) = (   1.000000   0.000000   0.000000 )
               a(2) = (  -0.704725   0.709480   0.000000 )
               a(3) = (  -0.147637  -0.354740   0.923235 )

     reciprocal axes: (cart. coord. in units 2 pi/alat)
               b(1) = (  1.000000  0.993298  0.541574 )
               b(2) = (  0.000000  1.409483  0.541574 )
               b(3) = (  0.000000  0.000000  1.083148 )

     PseudoPot. # 1 for V  read from file:
     /home/pragov/projects/rrg-bengioy-ad/pragov/crystal_structure_design/SSSP/v_pbe_v1.4.uspp.F.UPF
     MD5 check sum: 22b79981416ebb76fdaf5b1b8640f6fb
     Pseudo is Ultrasoft + core correction, Zval = 13.0
     Generated by new atomic code, or converted to UPF format
     Using radial grid of  853 points,  6 beta functions with:
                l(1) =   0
                l(2) =   0
                l(3) =   1
                l(4) =   1
                l(5) =   2
                l(6) =   2
     Q(r) pseudized with  8 coefficients,  rinner =    1.100   1.100   1.100
                                                       1.100   1.100

     PseudoPot. # 2 for Ag read from file:
     /home/pragov/projects/rrg-bengioy-ad/pragov/crystal_structure_design/SSSP/Ag_ONCV_PBE-1.0.oncvpsp.upf
     MD5 check sum: 94f47bd0669c641108e45594df92fabc
     Pseudo is Norm-conserving, Zval = 19.0
     Generated using ONCVPSP code by D. R. Hamann
     Using radial grid of 1398 points,  6 beta functions with:
                l(1) =   0
                l(2) =   0
                l(3) =   1
                l(4) =   1
                l(5) =   2
                l(6) =   2

     PseudoPot. # 3 for O  read from file:
     /home/pragov/projects/rrg-bengioy-ad/pragov/crystal_structure_design/SSSP/O.pbe-n-kjpaw_psl.0.1.UPF
     MD5 check sum: 0234752ac141de4415c5fc33072bef88
     Pseudo is Projector augmented-wave + core cor, Zval =  6.0
     Generated using "atomic" code by A. Dal Corso  v.5.0.99 svn rev. 10869
     Shape of augmentation charge: BESSEL
     Using radial grid of 1095 points,  4 beta functions with:
                l(1) =   0
                l(2) =   0
                l(3) =   1
                l(4) =   1
     Q(r) pseudized with 0 coefficients

     atomic species   valence    mass     pseudopotential
        V             13.00    50.94150     V ( 1.00)
        Ag            19.00   107.86820     Ag( 1.00)
        O              6.00    15.99900     O ( 1.00)

     No symmetry found

                                    s                        frac. trans.

      isym =  1     identity

 cryst.   s( 1) = (     1          0          0      )
                  (     0          1          0      )
                  (     0          0          1      )

 cart.    s( 1) = (  1.0000000  0.0000000 -0.0000000 )
                  (  0.0000000  1.0000000  0.0000000 )
                  (  0.0000000  0.0000000  1.0000000 )

   Cartesian axes

     site n.     atom                  positions (alat units)
         1           V   tau(   1) = (   0.0000000   0.0000000   0.0000000  )
         2           Ag  tau(   2) = (  -0.0797061   0.4332019   0.3788744  )
         3           Ag  tau(   3) = (   0.2158818  -0.1060017   0.5443605  )
         4           Ag  tau(   4) = (   0.5031582   0.2229329   0.2400392  )
         5           Ag  tau(   5) = (  -0.3440592   0.1593471   0.6831957  )
         6           O   tau(   6) = (   0.1198466   0.1270629   0.2354286  )
         7           O   tau(   7) = (  -0.1419476  -0.1801668   0.6878063  )
         8           O   tau(   8) = (   0.3022251   0.1134618   0.8614105  )
         9           O   tau(   9) = (   0.0151506   0.6491222   0.0618244  )

   Crystallographic axes

     site n.     atom                  positions (cryst. coord.)
         1           V   tau(   1) = (  0.0000000  0.0000000  0.0000000  )
         2           Ag  tau(   2) = (  0.5557810  0.8157790  0.4103770  )
         3           Ag  tau(   3) = (  0.4054020  0.1454040  0.5896230  )
         4           Ag  tau(   4) = (  0.8545960  0.4442190  0.2599980  )
         5           Ag  tau(   5) = (  0.1842210  0.5945980  0.7400020  )
         6           O   tau(   6) = (  0.3735600  0.3065950  0.2550040  )
         7           O   tau(   7) = (  0.0515910  0.1185560  0.7449960  )
         8           O   tau(   8) = (  0.8814440  0.6264400  0.9330350  )
         9           O   tau(   9) = (  0.6934050  0.9484090  0.0669650  )

     number of k points=     1  Methfessel-Paxton smearing, width (Ry)=  0.0010
                       cart. coord. in units 2pi/alat
        k(    1) = (   0.0000000   0.0000000   0.0000000), wk =   2.0000000

                       cryst. coord.
        k(    1) = (   0.0000000   0.0000000   0.0000000), wk =   2.0000000

     Check: negative core charge=   -0.000011

     Initial potential from superposition of free atoms

     starting charge     112.9976, renormalised to     113.0000

     negative rho (up, down):  9.842E-04 0.000E+00
     Starting wfcs are   66 randomized atomic wfcs +    2 random wfcs
     Checking if some PAW data can be deallocated...

     Self-consistent Calculation

     iteration #  1     ecut=    30.00 Ry     beta= 0.70
     Davidson diagonalization with overlap

     ethr =  1.00E-02,  avg # of iterations =  4.0

     negative rho (up, down):  2.249E-03 0.000E+00

     total energy              =   -1458.65244822 Ry
     estimated scf accuracy    <       2.23297613 Ry

[...]

     ethr =  1.18E-05,  avg # of iterations =  1.0

[...]

     ethr =  1.18E-05,  avg # of iterations =  1.0
     Minimization algorithm failed to find Fermi energy: reverting to bisection
     Possible cause: smearing is larger than the electronic band-gap.

[...]

     total energy              =   -1459.94026233 Ry
     estimated scf accuracy    <       0.00000109 Ry

     iteration # 21     ecut=    30.00 Ry     beta= 0.70
     Davidson diagonalization with overlap

     ethr =  9.62E-10,  avg # of iterations =  1.0
     Minimization algorithm failed to find Fermi energy: reverting to bisection
     Possible cause: smearing is larger than the electronic band-gap.

[...]

     End of self-consistent calculation

          k = 0.0000 0.0000 0.0000 (  1318 PWs)   bands (ev):

   -82.0278 -82.0223 -82.0215 -82.0214 -54.9789 -45.1252 -45.0862 -45.0861
   -45.0712 -45.0694 -45.0537 -45.0247 -45.0245 -45.0023 -44.9942 -44.9940
   -44.9804 -28.9007 -28.9007 -28.8591  -8.0586  -7.5339  -7.5338  -7.5334
     4.9870   5.0155   5.0913   5.0914   5.1750   5.4607   5.5963   5.6293
     5.6293   6.1406   6.1421   6.2148   6.2149   6.4005   6.6375   6.6376
     6.9383   6.9915   7.0555   7.0555   7.3443   7.4722   7.5369   7.5837
     7.7380   7.7381   8.2375   8.3182   8.3183   8.5962   8.7293   8.7293
     8.7300  12.0253  12.2593  13.4010  13.4036  13.4036  14.8909  14.8909
    14.9576  16.3234  17.0383  17.2107

     occupation numbers
     1.0000   1.0000   1.0000   1.0000   1.0000   1.0000   1.0000   1.0000
     1.0000   1.0000   1.0000   1.0000   1.0000   1.0000   1.0000   1.0000
     1.0000   1.0000   1.0000   1.0000   1.0000   1.0000   1.0000   1.0000
     1.0000   1.0000   1.0000   1.0000   1.0000   1.0000   1.0000   1.0000
     1.0000   1.0000   1.0000   1.0000   1.0000   1.0000   1.0000   1.0000
     1.0000   1.0000   1.0000   1.0000   1.0000   1.0000   1.0000   1.0000
     1.0000   1.0000   1.0000   1.0000   1.0000   1.0000   0.8449   0.8440
     0.8111  -0.0000  -0.0000  -0.0000  -0.0000  -0.0000  -0.0000  -0.0000
    -0.0000  -0.0000  -0.0000  -0.0000

     the Fermi energy is     8.7355 ev

!    total energy              =   -1459.94026163 Ry
     estimated scf accuracy    <       0.00000086 Ry
     smearing contrib. (-TS)   =      -0.00043152 Ry
     internal energy E=F+TS    =   -1459.93983011 Ry

     The total energy is F=E-TS. E is the sum of the following terms:
     one-electron contribution =    -721.06487743 Ry
     hartree contribution      =     400.74767963 Ry
     xc contribution           =    -156.90958110 Ry
     ewald contribution        =    -944.56196274 Ry
     one-center paw contrib.   =     -38.15108846 Ry
      -> PAW hartree energy AE =     114.64624730 Ry
      -> PAW hartree energy PS =    -114.27704135 Ry
      -> PAW xc energy AE      =     -68.10127001 Ry
      -> PAW xc energy PS      =      29.58097560 Ry
      -> total E_H with PAW    =     401.11688557 Ry
      -> total E_XC with PAW   =    -195.42987550 Ry

     convergence has been achieved in  21 iterations

     negative rho (up, down):  1.455E-03 0.000E+00

     Forces acting on atoms (cartesian axes, Ry/au):

     atom    1 type  1   force =    -0.00008421    0.00003995   -0.00005241
     atom    2 type  2   force =     0.00697932    0.01144494   -0.00098937
     atom    3 type  2   force =     0.00331515    0.01307556    0.00107409
     atom    4 type  2   force =    -0.00612343   -0.01191756   -0.00195930
     atom    5 type  2   force =    -0.00421082   -0.01260500    0.00203783
     atom    6 type  3   force =    -0.01931252    0.00009651   -0.00343650
     atom    7 type  3   force =     0.01375097   -0.01368338    0.00341330
     atom    8 type  3   force =    -0.00034502    0.00806971    0.01783085
     atom    9 type  3   force =     0.00603056    0.00547929   -0.01791850
     The non-local contrib.  to forces
     atom    1 type  1   force =     0.00019131   -0.00007735    0.00020936
     atom    2 type  2   force =    -0.02673046    0.00674977   -0.00853733
     atom    3 type  2   force =     0.02367552   -0.01404036    0.00853751
     atom    4 type  2   force =    -0.00642082    0.00708607    0.02730799
     atom    5 type  2   force =     0.00921877    0.00034220   -0.02729943
     atom    6 type  3   force =    -0.18656862   -0.33013240   -0.51882550
     atom    7 type  3   force =    -0.10313619   -0.36712017    0.52088636
     atom    8 type  3   force =    -0.33502704    0.54786986    0.04418833
     atom    9 type  3   force =     0.62564895    0.14926046   -0.04634215
     The ionic contribution  to forces
     atom    1 type  1   force =    -0.00000000   -0.00000000   -0.00000000
     atom    2 type  2   force =    10.94443712   -2.82941893   -4.77807448
     atom    3 type  2   force =    -9.72023909    5.77089832    4.77807448
     atom    4 type  2   force =    -5.02338412    0.36516865  -11.19145098
     atom    5 type  2   force =     3.79918609   -3.30664804   11.19145097
     atom    6 type  3   force =     0.87474400    2.75975736    2.29762190
     atom    7 type  3   force =     1.34153896    2.56548454   -2.29762190
     atom    8 type  3   force =     1.01310324   -3.54545005    0.25280401
     atom    9 type  3   force =    -3.22938620   -1.77979185   -0.25280400
     The local contribution  to forces
     atom    1 type  1   force =    -0.00204877    0.00096749   -0.00113364
     atom    2 type  2   force =   -10.91036557    2.83432132    4.78625483
     atom    3 type  2   force =     9.70006489   -5.74396649   -4.78479694
     atom    4 type  2   force =     5.02467266   -0.38548331   11.16233250
     atom    5 type  2   force =    -3.81113724    3.29354995  -11.16181188
     atom    6 type  3   force =    -0.70905010   -2.43225077   -1.78655865
     atom    7 type  3   force =    -1.22643476   -2.21418277    1.78381643
     atom    8 type  3   force =    -0.68079042    3.01011032   -0.27918803
     atom    9 type  3   force =     2.61420210    1.63696393    0.28126617
     The core correction contribution to forces
     atom    1 type  1   force =    -0.00001197    0.00000768   -0.00001146
     atom    2 type  2   force =     0.00000000    0.00000000    0.00000000
     atom    3 type  2   force =     0.00000000    0.00000000    0.00000000
     atom    4 type  2   force =     0.00000000    0.00000000    0.00000000
     atom    5 type  2   force =     0.00000000    0.00000000    0.00000000
     atom    6 type  3   force =     0.00099605    0.00275638    0.00393926
     atom    7 type  3   force =     0.00126016    0.00268046   -0.00397009
     atom    8 type  3   force =     0.00252201   -0.00423040    0.00015767
     atom    9 type  3   force =    -0.00479153   -0.00120456   -0.00012551
     The Hubbard contrib.    to forces
     atom    1 type  1   force =     0.00000000    0.00000000    0.00000000
     atom    2 type  2   force =     0.00000000    0.00000000    0.00000000
     atom    3 type  2   force =     0.00000000    0.00000000    0.00000000
     atom    4 type  2   force =     0.00000000    0.00000000    0.00000000
     atom    5 type  2   force =     0.00000000    0.00000000    0.00000000
     atom    6 type  3   force =     0.00000000    0.00000000    0.00000000
     atom    7 type  3   force =     0.00000000    0.00000000    0.00000000
     atom    8 type  3   force =     0.00000000    0.00000000    0.00000000
     atom    9 type  3   force =     0.00000000    0.00000000    0.00000000
     The SCF correction term to forces
     atom    1 type  1   force =     0.00177455   -0.00084969    0.00087870
     atom    2 type  2   force =    -0.00037244   -0.00019904   -0.00063702
     atom    3 type  2   force =    -0.00019684    0.00019226   -0.00074560
     atom    4 type  2   force =    -0.00100181    0.00131921   -0.00015344
     atom    5 type  2   force =    -0.00148911    0.00015907   -0.00030648
     atom    6 type  3   force =     0.00055549   -0.00002587    0.00038185
     atom    7 type  3   force =     0.00051214   -0.00053726    0.00029786
     atom    8 type  3   force =    -0.00016349   -0.00022184   -0.00013576
     atom    9 type  3   force =     0.00034658    0.00025948    0.00008235

     Total force =     0.047659     Total SCF correction =     0.003514

     Computing stress (Cartesian axis) and pressure

     negative rho (up, down):  1.455E-03 0.000E+00
          total   stress  (Ry/bohr**3)                   (kbar)     P=    -1139.72
  -0.00789758   0.00028854  -0.00000035        -1161.77       42.45       -0.05
   0.00028854  -0.00732654   0.00000059           42.45    -1077.77        0.09
  -0.00000035   0.00000059  -0.00801884           -0.05        0.09    -1179.61

     kinetic stress (kbar)  49865.93     30.04      0.13
                               30.04  49927.12     -0.34
                                0.13     -0.34  49853.89

     local   stress (kbar) -13638.02  -1018.17     -0.18
                            -1018.17 -15662.39      0.70
                               -0.18      0.70 -13215.09

     nonloc. stress (kbar)  -1315.71     13.50     -0.03
                               13.50  -1289.18      0.05
                               -0.03      0.05  -1321.43

     hartree stress (kbar)  20305.19    522.15      0.03
                              522.15  21342.61     -0.31
                                0.03     -0.31  20088.17

     exc-cor stress (kbar)  -6957.37     -0.95     -0.00
                               -0.95  -6959.25     -0.00
                               -0.00     -0.00  -6956.97

     corecor stress (kbar)   -658.23     -0.21      0.00
                               -0.21   -658.65      0.00
                                0.00      0.00   -658.14

     ewald   stress (kbar) -48763.57    496.09      0.00
                              496.09 -47778.03      0.00
                                0.00      0.00 -48970.03

     hubbard stress (kbar)      0.00      0.00      0.00
                                0.00      0.00      0.00
                                0.00      0.00      0.00

     DFT-D   stress (kbar)      0.00      0.00      0.00
                                0.00      0.00      0.00
                                0.00      0.00      0.00

     XDM     stress (kbar)      0.00      0.00      0.00
                                0.00      0.00      0.00
                                0.00      0.00      0.00

     dft-nl  stress (kbar)      0.00      0.00      0.00
                                0.00      0.00      0.00
                                0.00      0.00      0.00

     TS-vdW  stress (kbar)      0.00      0.00      0.00
                                0.00      0.00      0.00
                                0.00      0.00      0.00

[...]

                                0.00      0.00      0.00

     Writing all to output data dir new_calculations/myprefix.save/

     General routines

     Parallel routines

     PAW routines

   This run was terminated on:  19:32:15  20May2023

   JOB DONE.