     Program PWSCF v.7.0 starts on 21May2023 at  0:59:22

     Reading input from espresso_18710.pwi
Warning: card &CELL ignored
Warning: card / ignored

     Current dimensions of program PWSCF are:
     Max number of different atomic species (ntypx) = 10
     Max number of k-points (npk) =  40000
     Max angular momentum in pseudopotentials (lmaxx) =  4
     file Mg.pbe-n-kjpaw_psl.0.3.0.UPF: wavefunction(s)  3S renormalized

     gamma-point specific algorithms are used
     Message from routine setup:
     using ibrav=0 with symmetry is DISCOURAGED, use correct ibrav instead

     Subspace diagonalization in iterative solution of the eigenvalue problem:
     a serial algorithm will be used

     Using Slab Decomposition

     bravais-lattice index     =            0
     lattice parameter (alat)  =      12.9969  a.u.
     unit-cell volume          =    1558.1714 (a.u.)^3
     number of atoms/cell      =            8
     number of atomic types    =            2
     number of electrons       =        82.00
     number of Kohn-Sham states=           49
     kinetic-energy cutoff     =      30.0000  Ry
     charge density cutoff     =     240.0000  Ry
     scf convergence threshold =      1.0E-06
     mixing beta               =       0.7000
     number of iterations used =            8  plain     mixing
     Exchange-correlation= SLA  PW   PBE  PBE
                           (   1   4   3   4   0   0   0)

     celldm(1)=  12.996925  celldm(2)=   0.000000  celldm(3)=   0.000000
     celldm(4)=   0.000000  celldm(5)=   0.000000  celldm(6)=   0.000000

     crystal axes: (cart. coord. in units of alat)
               a(1) = (   1.000000   0.000000   0.000000 )
               a(2) = (  -0.500000   0.866025   0.000000 )
               a(3) = (   0.000000   0.000000   0.819526 )

     reciprocal axes: (cart. coord. in units 2 pi/alat)
               b(1) = (  1.000000  0.577350  0.000000 )
               b(2) = (  0.000000  1.154701  0.000000 )
               b(3) = (  0.000000  0.000000  1.220218 )

     PseudoPot. # 1 for Mg read from file:
     /home/pragov/projects/rrg-bengioy-ad/pragov/crystal_structure_design/SSSP/Mg.pbe-n-kjpaw_psl.0.3.0.UPF
     MD5 check sum: 24ecedc7f3e3cbe212e682f4413594e4
     Pseudo is Projector augmented-wave + core cor, Zval =  2.0
     Generated using "atomic" code by A. Dal Corso  v.5.0.99 svn rev. 10869
     Shape of augmentation charge: PSQ
     Using radial grid of 1129 points,  4 beta functions with:
                l(1) =   0
                l(2) =   0
                l(3) =   1
                l(4) =   1
     Q(r) pseudized with 0 coefficients

     PseudoPot. # 2 for Tl read from file:
     /home/pragov/projects/rrg-bengioy-ad/pragov/crystal_structure_design/SSSP/Tl_pbe_v1.2.uspp.F.UPF
     MD5 check sum: b76cf1f7e72655a2b2c53cf6385d7059
     Pseudo is Ultrasoft + core correction, Zval = 13.0
     Generated by new atomic code, or converted to UPF format
     Using radial grid of  899 points,  6 beta functions with:
                l(1) =   0
                l(2) =   0
                l(3) =   1
                l(4) =   1
                l(5) =   2
                l(6) =   2
     Q(r) pseudized with  6 coefficients,  rinner =    1.100   1.100   1.100
                                                       1.100   1.100

     atomic species   valence    mass     pseudopotential
        Mg             2.00    24.30500     Mg( 1.00)
        Tl            13.00   204.38000     Tl( 1.00)

     24 Sym. Ops., with inversion, found (12 have fractional translation)

                                    s                        frac. trans.

      isym =  1     identity

 cryst.   s( 1) = (     1          0          0      )
                  (     0          1          0      )
                  (     0          0          1      )

 cart.    s( 1) = (  1.0000000  0.0000000  0.0000000 )
                  (  0.0000000  1.0000000  0.0000000 )
                  (  0.0000000  0.0000000  1.0000000 )

      isym =  2     180 deg rotation - cart. axis [0,0,1]

 cryst.   s( 2) = (    -1          0          0      )    f =(  0.0000000 )
                  (     0         -1          0      )       (  0.0000000 )
                  (     0          0          1      )       ( -0.5000000 )

 cart.    s( 2) = ( -1.0000000 -0.0000000  0.0000000 )    f =( -0.0000000 )
                  (  0.0000000 -1.0000000  0.0000000 )       (  0.0000000 )
                  (  0.0000000  0.0000000  1.0000000 )       ( -0.4097630 )

[...]

      isym =  4     180 deg rotation - cart. axis [1,0,0]

[...]

      isym =  5      60 deg rotation - cryst. axis [0,0,1]

[...]

 cryst.   s( 8) = (    -1         -1          0      )
                  (     1          0          0      )
                  (     0          0          1      )

 cart.    s( 8) = ( -0.4999999  0.8660255  0.0000000 )
                  ( -0.8660253 -0.5000001  0.0000000 )
                  (  0.0000000  0.0000000  1.0000000 )

[...]

 cryst.   s( 9) = (     0         -1          0      )    f =(  0.0000000 )
                  (    -1          0          0      )       (  0.0000000 )
                  (     0          0         -1      )       (  0.5000000 )

 cart.    s( 9) = (  0.5000001 -0.8660253  0.0000000 )    f =(  0.0000000 )
                  ( -0.8660253 -0.5000001  0.0000000 )       (  0.0000000 )
                  (  0.0000000  0.0000000 -1.0000000 )       (  0.4097630 )

[...]

 cryst.   s(10) = (     1          1          0      )    f =(  0.0000000 )
                  (     0         -1          0      )       (  0.0000010 )
                  (     0          0         -1      )       (  0.5000000 )

 cart.    s(10) = (  0.4999999  0.8660256  0.0000000 )    f =( -0.0000005 )
                  (  0.8660253 -0.4999999  0.0000000 )       (  0.0000009 )
                  (  0.0000000  0.0000000 -1.0000000 )       (  0.4097630 )

[...]

 cryst.   s(11) = (    -1         -1          0      )
                  (     0          1          0      )
                  (     0          0         -1      )

 cart.    s(11) = ( -0.4999999 -0.8660256  0.0000000 )
                  ( -0.8660253  0.4999999  0.0000000 )
                  (  0.0000000  0.0000000 -1.0000000 )

      isym = 12     180 deg rotation - cryst. axis [1,1,0]

[...]

      isym = 13     inversion

[...]

      isym = 14     inv. 180 deg rotation - cart. axis [0,0,1]

[...]

      isym = 16     inv. 180 deg rotation - cart. axis [1,0,0]

[...]

      isym = 17     inv.  60 deg rotation - cryst. axis [0,0,1]

[...]

 cryst.   s(22) = (    -1         -1          0      )    f =(  0.0000000 )
                  (     0          1          0      )       (  0.0000010 )
                  (     0          0          1      )       ( -0.5000000 )

 cart.    s(22) = ( -0.4999999 -0.8660256  0.0000000 )    f =( -0.0000005 )
                  ( -0.8660253  0.4999999  0.0000000 )       (  0.0000009 )
                  (  0.0000000  0.0000000  1.0000000 )       ( -0.4097630 )

[...]

      isym = 24     inv. 180 deg rotation - cryst. axis [1,1,0]

 cryst.   s(24) = (     0         -1          0      )
                  (    -1          0          0      )
                  (     0          0          1      )

 cart.    s(24) = (  0.5000001 -0.8660253  0.0000000 )
                  ( -0.8660253 -0.5000001  0.0000000 )
                  (  0.0000000  0.0000000  1.0000000 )

   Cartesian axes

     site n.     atom                  positions (alat units)
         1           Mg  tau(   1) = (   0.5000005   0.2886748   0.2048815  )
         2           Mg  tau(   2) = (  -0.0000006   0.5773505   0.6146445  )
         3           Tl  tau(   3) = (  -0.0000005   0.2919432   0.2048815  )
         4           Tl  tau(   4) = (   0.2471694   0.7200542   0.2048815  )
         5           Tl  tau(   5) = (  -0.2471706   0.7200542   0.2048815  )
         6           Tl  tau(   6) = (   0.7471705   0.1459712   0.6146445  )
         7           Tl  tau(   7) = (   0.2528305   0.1459712   0.6146445  )
         8           Tl  tau(   8) = (   0.5000004   0.5740821   0.6146445  )

   Crystallographic axes

     site n.     atom                  positions (cryst. coord.)
         1           Mg  tau(   1) = (  0.6666670  0.3333330  0.2500000  )
         2           Mg  tau(   2) = (  0.3333330  0.6666670  0.7500000  )
         3           Tl  tau(   3) = (  0.1685530  0.3371070  0.2500000  )
         4           Tl  tau(   4) = (  0.6628930  0.8314470  0.2500000  )
         5           Tl  tau(   5) = (  0.1685530  0.8314470  0.2500000  )
         6           Tl  tau(   6) = (  0.8314470  0.1685530  0.7500000  )
         7           Tl  tau(   7) = (  0.3371070  0.1685530  0.7500000  )
         8           Tl  tau(   8) = (  0.8314470  0.6628930  0.7500000  )

     number of k points=     1  Methfessel-Paxton smearing, width (Ry)=  0.0010
                       cart. coord. in units 2pi/alat
        k(    1) = (   0.0000000   0.0000000   0.0000000), wk =   2.0000000

                       cryst. coord.
        k(    1) = (   0.0000000   0.0000000   0.0000000), wk =   2.0000000

     Check: negative core charge=   -0.000004

     Initial potential from superposition of free atoms

     starting charge      81.9690, renormalised to      82.0000

     negative rho (up, down):  2.970E-01 0.000E+00
     Starting wfcs are   62 randomized atomic wfcs
     Checking if some PAW data can be deallocated...

     Self-consistent Calculation

     iteration #  1     ecut=    30.00 Ry     beta= 0.70
     Davidson diagonalization with overlap

     ethr =  1.00E-02,  avg # of iterations =  2.0

     Threshold (ethr) on eigenvalues was too large:
     Diagonalizing with lowered threshold

     Davidson diagonalization with overlap

[...]

     negative rho (up, down):  2.941E-01 0.000E+00

     total energy              =    -936.87842416 Ry
     estimated scf accuracy    <       0.11984718 Ry

[...]

     total energy              =    -936.92676294 Ry
     estimated scf accuracy    <       0.00000289 Ry

     iteration #  9     ecut=    30.00 Ry     beta= 0.70
     Davidson diagonalization with overlap

     ethr =  3.52E-09,  avg # of iterations =  2.0

[...]

     End of self-consistent calculation

          k = 0.0000 0.0000 0.0000 (  2164 PWs)   bands (ev):

    -2.9811  -2.9617  -2.9340  -2.9340  -2.9011  -2.8262  -2.8258  -2.8076
    -2.8033  -2.7631  -2.7629  -2.7126  -2.7125  -2.6480  -2.6257  -2.6173
    -2.6170  -2.5052  -2.5050  -2.4663  -2.4660  -2.4390  -2.4387  -2.4292
    -2.4291  -2.3101  -2.2969  -2.2967  -2.2165  -2.1772  -0.7153   2.9295
     3.0174   3.0177   4.0831   4.0832   5.7480   6.0140   6.6571   8.1759
     8.1760   9.3400   9.3401   9.8706   9.8709  10.1223  10.4636  10.5879
    11.6374

     occupation numbers
     1.0000   1.0000   1.0000   1.0000   1.0000   1.0000   1.0000   1.0000
     1.0000   1.0000   1.0000   1.0000   1.0000   1.0000   1.0000   1.0000
     1.0000   1.0000   1.0000   1.0000   1.0000   1.0000   1.0000   1.0000
     1.0000   1.0000   1.0000   1.0000   1.0000   1.0000   1.0000   1.0000
     1.0000   1.0000   1.0000   1.0000   1.0000   1.0000   1.0000   1.0000
     1.0000  -0.0000  -0.0000  -0.0000  -0.0000  -0.0000  -0.0000  -0.0000
    -0.0000

     the Fermi energy is     8.9815 ev

!    total energy              =    -936.92676337 Ry
     estimated scf accuracy    <       0.00000064 Ry
     smearing contrib. (-TS)   =       0.00000000 Ry
     internal energy E=F+TS    =    -936.92676337 Ry

     The total energy is F=E-TS. E is the sum of the following terms:
     one-electron contribution =    -198.65036020 Ry
     hartree contribution      =     163.51056640 Ry
     xc contribution           =    -375.81091461 Ry
     ewald contribution        =    -463.42052269 Ry
     one-center paw contrib.   =     -62.55553228 Ry
      -> PAW hartree energy AE =       1.07553235 Ry
      -> PAW hartree energy PS =      -1.07267263 Ry
      -> PAW xc energy AE      =     -64.90833293 Ry
      -> PAW xc energy PS      =       2.34994094 Ry
      -> total E_H with PAW    =     163.51342612 Ry
      -> total E_XC with PAW   =    -438.36930660 Ry

     convergence has been achieved in   9 iterations

     negative rho (up, down):  2.960E-01 0.000E+00

     Forces acting on atoms (cartesian axes, Ry/au):

     atom    1 type  1   force =     0.00000000    0.00000000    0.00000000
     atom    2 type  1   force =    -0.00000000   -0.00000000   -0.00000000
     atom    3 type  2   force =    -0.00000000   -0.03830302    0.00000000
     atom    4 type  2   force =     0.03317138    0.01915151   -0.00000000
     atom    5 type  2   force =    -0.03317138    0.01915150   -0.00000000
     atom    6 type  2   force =     0.03317138   -0.01915150    0.00000000
     atom    7 type  2   force =    -0.03317138   -0.01915151    0.00000000
     atom    8 type  2   force =     0.00000000    0.03830302    0.00000000
     The non-local contrib.  to forces
     atom    1 type  1   force =     0.00000000    0.00000000    0.00000000
     atom    2 type  1   force =     0.00000000    0.00000000    0.00000000
     atom    3 type  2   force =     0.00000000    0.13823110    0.00000000
     atom    4 type  2   force =    -0.11971163   -0.06911556   -0.00000000
     atom    5 type  2   force =     0.11971163   -0.06911553    0.00000000
     atom    6 type  2   force =    -0.11971163    0.06911553   -0.00000000
     atom    7 type  2   force =     0.11971163    0.06911556    0.00000000
     atom    8 type  2   force =    -0.00000000   -0.13823110   -0.00000000
     The ionic contribution  to forces
     atom    1 type  1   force =    -0.00001228    0.00000709    0.00000000
     atom    2 type  1   force =     0.00001228   -0.00000709   -0.00000000
     atom    3 type  2   force =     0.00003440    3.53655849    0.00000000
     atom    4 type  2   force =    -3.06273207   -1.76830943    0.00000000
     atom    5 type  2   force =     3.06273687   -1.76827170    0.00000000
     atom    6 type  2   force =    -3.06273687    1.76827170   -0.00000000
     atom    7 type  2   force =     3.06273207    1.76830943   -0.00000000
     atom    8 type  2   force =    -0.00003440   -3.53655849   -0.00000000
     The local contribution  to forces
     atom    1 type  1   force =     0.00011066   -0.00001372   -0.00002665
     atom    2 type  1   force =    -0.00004220    0.00001911    0.00002929
     atom    3 type  2   force =    -0.00078481   -3.70379243   -0.00038671
     atom    4 type  2   force =     3.20769117    1.85238333   -0.00032970
     atom    5 type  2   force =    -3.20755572    1.85145847    0.00000249
     atom    6 type  2   force =     3.20759424   -1.85199336    0.00027431
     atom    7 type  2   force =    -3.20759531   -1.85222878    0.00015931
     atom    8 type  2   force =     0.00019498    3.70421404    0.00009038
     The core correction contribution to forces
     atom    1 type  1   force =     0.00000480   -0.00000047   -0.00000131
     atom    2 type  1   force =    -0.00000151    0.00000038    0.00000129
     atom    3 type  2   force =    -0.00001387   -0.01143023   -0.00001450
     atom    4 type  2   force =     0.00990890    0.00572712   -0.00000868
     atom    5 type  2   force =    -0.00989708    0.00571014    0.00000121
     atom    6 type  2   force =     0.00990237   -0.00572466    0.00000342
     atom    7 type  2   force =    -0.00990053   -0.00572108    0.00000411
     atom    8 type  2   force =    -0.00000029    0.01144967    0.00001109
     The Hubbard contrib.    to forces
     atom    1 type  1   force =     0.00000000    0.00000000    0.00000000
     atom    2 type  1   force =     0.00000000    0.00000000    0.00000000
     atom    3 type  2   force =     0.00000000    0.00000000    0.00000000
     atom    4 type  2   force =     0.00000000    0.00000000    0.00000000
     atom    5 type  2   force =     0.00000000    0.00000000    0.00000000
     atom    6 type  2   force =     0.00000000    0.00000000    0.00000000
     atom    7 type  2   force =     0.00000000    0.00000000    0.00000000
     atom    8 type  2   force =     0.00000000    0.00000000    0.00000000
     The SCF correction term to forces
     atom    1 type  1   force =    -0.00005441    0.00000433    0.00001481
     atom    2 type  1   force =     0.00002170   -0.00001076   -0.00001813
     atom    3 type  2   force =     0.00077726    0.00215118    0.00039927
     atom    4 type  2   force =    -0.00200895   -0.00151380    0.00031149
     atom    5 type  2   force =     0.00188767   -0.00063434   -0.00001725
     atom    6 type  2   force =    -0.00182367    0.00109130   -0.00026879
     atom    7 type  2   force =     0.00191077    0.00142999   -0.00015019
     atom    8 type  2   force =    -0.00019808   -0.00252525   -0.00004466

     Total force =     0.093823     Total SCF correction =     0.005702

     Computing stress (Cartesian axis) and pressure

     negative rho (up, down):  2.960E-01 0.000E+00
          total   stress  (Ry/bohr**3)                   (kbar)     P=       43.61
   0.00009550   0.00000000   0.00000000           14.05        0.00        0.00
   0.00000000   0.00009550   0.00000000            0.00       14.05        0.00
   0.00000000   0.00000000   0.00069840            0.00        0.00      102.74

     kinetic stress (kbar)   4946.10      0.00      0.00
                                0.00   4946.10      0.00
                                0.00      0.00   4955.73

     local   stress (kbar)   1299.97      0.04      0.00
                                0.04   1299.96     -0.00
                                0.00     -0.00   1083.54

     nonloc. stress (kbar)   8173.08      0.00      0.00
                                0.00   8173.08      0.00
                                0.00      0.00   8096.59

     hartree stress (kbar)   5095.03     -0.04     -0.00
                               -0.04   5095.03      0.00
                               -0.00      0.00   5246.77

     exc-cor stress (kbar)  22698.07      0.00     -0.00
                                0.00  22698.07     -0.00
                               -0.00     -0.00  22693.34

     corecor stress (kbar) -27541.04      0.00      0.00
                                0.00 -27541.05      0.00
                                0.00      0.00 -27536.57

     ewald   stress (kbar) -14657.16     -0.00     -0.00
                               -0.00 -14657.16      0.00
                               -0.00      0.00 -14436.66

     hubbard stress (kbar)      0.00      0.00      0.00
                                0.00      0.00      0.00
                                0.00      0.00      0.00

     DFT-D   stress (kbar)      0.00      0.00      0.00
                                0.00      0.00      0.00
                                0.00      0.00      0.00

     XDM     stress (kbar)      0.00      0.00      0.00
                                0.00      0.00      0.00
                                0.00      0.00      0.00

     dft-nl  stress (kbar)      0.00      0.00      0.00
                                0.00      0.00      0.00
                                0.00      0.00      0.00

     TS-vdW  stress (kbar)      0.00      0.00      0.00
                                0.00      0.00      0.00
                                0.00      0.00      0.00

[...]

                                0.00      0.00      0.00

     Writing all to output data dir new_calculations/myprefix.save/

     General routines

     Parallel routines

     PAW routines

   This run was terminated on:   0:59:37  21May2023

   JOB DONE.