     Program PWSCF v.7.0 starts on 21May2023 at 18: 5: 8

     Reading input from espresso_6922.pwi
Warning: card &CELL ignored
Warning: card / ignored

     Current dimensions of program PWSCF are:
     Max number of different atomic species (ntypx) = 10
     Max number of k-points (npk) =  40000
     Max angular momentum in pseudopotentials (lmaxx) =  4
     file Ga.pbe-dn-kjpaw_psl.1.0.0.UPF: wavefunction(s)  4S renormalized
     file O.pbe-n-kjpaw_psl.0.1.UPF: wavefunction(s)  2P renormalized

     gamma-point specific algorithms are used
     Message from routine setup:
     using ibrav=0 with symmetry is DISCOURAGED, use correct ibrav instead

     Subspace diagonalization in iterative solution of the eigenvalue problem:
     a serial algorithm will be used

     Using Slab Decomposition

     bravais-lattice index     =            0
     lattice parameter (alat)  =      11.3695  a.u.
     unit-cell volume          =    1039.2355 (a.u.)^3
     number of atoms/cell      =            8
     number of atomic types    =            3
     number of electrons       =        68.00
     number of Kohn-Sham states=           41
     kinetic-energy cutoff     =      30.0000  Ry
     charge density cutoff     =     240.0000  Ry
     scf convergence threshold =      1.0E-06
     mixing beta               =       0.7000
     number of iterations used =            8  plain     mixing
     Exchange-correlation= SLA  PW   PBX  PBC
                           (   1   4   3   4   0   0   0)

     celldm(1)=  11.369543  celldm(2)=   0.000000  celldm(3)=   0.000000
     celldm(4)=   0.000000  celldm(5)=   0.000000  celldm(6)=   0.000000

     crystal axes: (cart. coord. in units of alat)
               a(1) = (   1.000000   0.000000   0.000000 )
               a(2) = (   0.500000   0.866025   0.000000 )
               a(3) = (   0.500000   0.288675   0.816497 )

     reciprocal axes: (cart. coord. in units 2 pi/alat)
               b(1) = (  1.000000 -0.577350 -0.408248 )
               b(2) = (  0.000000  1.154701 -0.408248 )
               b(3) = (  0.000000  0.000000  1.224745 )

     PseudoPot. # 1 for Cs read from file:
     /home/pragov/projects/rrg-bengioy-ad/pragov/crystal_structure_design/SSSP/Cs_pbe_v1.uspp.F.UPF
     MD5 check sum: 3476d69cb178dfad3ffaa59df4e07ca4
     Pseudo is Ultrasoft + core correction, Zval =  9.0
     Generated by new atomic code, or converted to UPF format
     Using radial grid of  905 points,  6 beta functions with:
                l(1) =   0
                l(2) =   0
                l(3) =   1
                l(4) =   1
                l(5) =   2
                l(6) =   2
     Q(r) pseudized with  6 coefficients,  rinner =    1.500   1.500   1.500
                                                       1.500   1.500

     PseudoPot. # 2 for Ga read from file:
     /home/pragov/projects/rrg-bengioy-ad/pragov/crystal_structure_design/SSSP/Ga.pbe-dn-kjpaw_psl.1.0.0.UPF
     MD5 check sum: a27b4342b1af7e5f338de752e9ed7044
     Pseudo is Projector augmented-wave + core cor, Zval = 13.0
     Generated using "atomic" code by A. Dal Corso  v.5.1
     Shape of augmentation charge: PSQ
     Using radial grid of 1205 points,  6 beta functions with:
                l(1) =   0
                l(2) =   0
                l(3) =   1
                l(4) =   1
                l(5) =   2
                l(6) =   2
     Q(r) pseudized with 0 coefficients

     PseudoPot. # 3 for O  read from file:
     /home/pragov/projects/rrg-bengioy-ad/pragov/crystal_structure_design/SSSP/O.pbe-n-kjpaw_psl.0.1.UPF
     MD5 check sum: 0234752ac141de4415c5fc33072bef88
     Pseudo is Projector augmented-wave + core cor, Zval =  6.0
     Generated using "atomic" code by A. Dal Corso  v.5.0.99 svn rev. 10869
     Shape of augmentation charge: BESSEL
     Using radial grid of 1095 points,  4 beta functions with:
                l(1) =   0
                l(2) =   0
                l(3) =   1
                l(4) =   1
     Q(r) pseudized with 0 coefficients

     atomic species   valence    mass     pseudopotential
        Cs             9.00   132.90545     Cs( 1.00)
        Ga            13.00    69.72300     Ga( 1.00)
        O              6.00    15.99900     O ( 1.00)

     12 Sym. Ops., with inversion, found ( 6 have fractional translation)

                                    s                        frac. trans.

      isym =  1     identity

 cryst.   s( 1) = (     1          0          0      )
                  (     0          1          0      )
                  (     0          0          1      )

 cart.    s( 1) = (  1.0000000  0.0000000  0.0000000 )
                  (  0.0000000  1.0000000  0.0000000 )
                  (  0.0000000  0.0000000  1.0000000 )

      isym =  2     180 deg rotation - cart. axis [1,0,0]

 cryst.   s( 2) = (     1          0          0      )    f =( -0.2500000 )
                  (     1         -1          0      )       ( -0.2500000 )
                  (     1          0         -1      )       ( -0.2500000 )

 cart.    s( 2) = (  1.0000000  0.0000000  0.0000000 )    f =( -0.5000000 )
                  (  0.0000000 -1.0000000 -0.0000000 )       ( -0.2886751 )
                  (  0.0000000  0.0000000 -1.0000000 )       ( -0.2041241 )

      isym =  3     120 deg rotation - cryst. axis [0,0,1]

[...]

      isym =  6     180 deg rotation - cryst. axis [1,1,0]

[...]

      isym =  7     inversion

[...]

      isym =  8     inv. 180 deg rotation - cart. axis [1,0,0]

 cryst.   s( 8) = (    -1          0          0      )
                  (    -1          1          0      )
                  (    -1          0          1      )

 cart.    s( 8) = ( -1.0000000  0.0000000  0.0000000 )
                  (  0.0000000  1.0000000  0.0000000 )
                  (  0.0000000  0.0000000  1.0000000 )

      isym =  9     inv. 120 deg rotation - cryst. axis [0,0,1]

 cryst.   s( 9) = (     1         -1          0      )    f =( -0.2500000 )
                  (     1          0          0      )       ( -0.2500000 )
                  (     1          0         -1      )       ( -0.2500000 )

 cart.    s( 9) = (  0.5000000  0.8660254  0.0000000 )    f =( -0.5000000 )
                  ( -0.8660254  0.5000000  0.0000000 )       ( -0.2886751 )
                  (  0.0000000  0.0000000 -1.0000000 )       ( -0.2041241 )

[...]

 cryst.   s(10) = (     0          1          0      )    f =( -0.2500000 )
                  (    -1          1          0      )       ( -0.2500000 )
                  (     0          1         -1      )       ( -0.2500000 )

 cart.    s(10) = (  0.5000000 -0.8660254 -0.0000000 )    f =( -0.5000000 )
                  (  0.8660254  0.5000000  0.0000000 )       ( -0.2886751 )
                  (  0.0000000  0.0000000 -1.0000000 )       ( -0.2041241 )

[...]

 cryst.   s(11) = (     0          1          0      )
                  (     1          0          0      )
                  (     0          0          1      )

 cart.    s(11) = (  0.5000000  0.8660254  0.0000000 )
                  (  0.8660254 -0.5000000 -0.0000000 )
                  (  0.0000000  0.0000000  1.0000000 )

      isym = 12     inv. 180 deg rotation - cryst. axis [1,1,0]

 cryst.   s(12) = (     1         -1          0      )
                  (     0         -1          0      )
                  (     0         -1          1      )

 cart.    s(12) = (  0.5000000 -0.8660254 -0.0000000 )
                  ( -0.8660254 -0.5000000 -0.0000000 )
                  (  0.0000000  0.0000000  1.0000000 )

   Cartesian axes

     site n.     atom                  positions (alat units)
         1           Cs  tau(   1) = (   0.0000000   0.0000000   0.0000000  )
         2           Cs  tau(   2) = (   0.5000000   0.2886751   0.2041241  )
         3           Ga  tau(   3) = (   1.0000000   0.5773503   0.4082483  )
         4           Ga  tau(   4) = (   1.5000000   0.8660254   0.6123724  )
         5           O   tau(   5) = (   0.7500000   0.7216878   0.5103104  )
         6           O   tau(   6) = (   1.2500000   0.7216878   0.5103104  )
         7           O   tau(   7) = (   1.0000000   0.2886751   0.5103104  )
         8           O   tau(   8) = (   1.0000000   0.5773503   0.1020621  )

   Crystallographic axes

     site n.     atom                  positions (cryst. coord.)
         1           Cs  tau(   1) = (  0.0000000  0.0000000  0.0000000  )
         2           Cs  tau(   2) = (  0.2500000  0.2500000  0.2500000  )
         3           Ga  tau(   3) = (  0.5000000  0.5000000  0.5000000  )
         4           Ga  tau(   4) = (  0.7500000  0.7500000  0.7500000  )
         5           O   tau(   5) = (  0.1250000  0.6250000  0.6250000  )
         6           O   tau(   6) = (  0.6250000  0.6250000  0.6250000  )
         7           O   tau(   7) = (  0.6250000  0.1250000  0.6250000  )
         8           O   tau(   8) = (  0.6250000  0.6250000  0.1250000  )

     number of k points=     1  Methfessel-Paxton smearing, width (Ry)=  0.0010
                       cart. coord. in units 2pi/alat
        k(    1) = (   0.0000000   0.0000000   0.0000000), wk =   2.0000000

                       cryst. coord.
        k(    1) = (   0.0000000   0.0000000   0.0000000), wk =   2.0000000

     Check: negative core charge=   -0.000007

     Initial potential from superposition of free atoms

     starting charge      67.9153, renormalised to      68.0000
     Starting wfcs are   60 randomized atomic wfcs
     Checking if some PAW data can be deallocated...

     Self-consistent Calculation

     iteration #  1     ecut=    30.00 Ry     beta= 0.70
     Davidson diagonalization with overlap

     ethr =  1.00E-02,  avg # of iterations =  2.0

     total energy              =    -847.10170133 Ry
     estimated scf accuracy    <       2.33234478 Ry

[...]

     total energy              =    -848.30404168 Ry
     estimated scf accuracy    <       0.00000573 Ry

     iteration #  9     ecut=    30.00 Ry     beta= 0.70
     Davidson diagonalization with overlap

     ethr =  8.42E-09,  avg # of iterations =  2.0

     End of self-consistent calculation

          k = 0.0000 0.0000 0.0000 (  1446 PWs)   bands (ev):

   -14.9359 -14.4999 -11.0792 -10.5177 -10.5171 -10.5164  -7.6763  -7.6763
    -7.6762  -7.4562  -7.4562  -7.3836  -7.3835  -6.5953  -6.5953  -6.5952
    -1.9701  -1.9700  -1.9700  -1.4821  -1.2778  -1.2778  -1.2777   2.7061
     2.7062   2.7064   4.8752   4.8752   6.0921   6.0921   6.0923   6.1442
     6.1446   6.1450   8.4376  11.5868  11.5868  11.5869  11.9132  12.4786
    12.4786

     occupation numbers
     1.0000   1.0000   1.0000   1.0000   1.0000   1.0000   1.0000   1.0000
     1.0000   1.0000   1.0000   1.0000   1.0000   1.0000   1.0000   1.0000
     1.0000   1.0000   1.0000   1.0000   1.0000   1.0000   1.0000   1.0000
     1.0000   1.0000   1.0000   1.0000   1.0000   1.0000   1.0000   1.0000
     1.0000   1.0000  -0.0000  -0.0000  -0.0000  -0.0000  -0.0000  -0.0000
    -0.0000

     the Fermi energy is     7.4234 ev

!    total energy              =    -848.30404299 Ry
     estimated scf accuracy    <       0.00000038 Ry
     smearing contrib. (-TS)   =       0.00000000 Ry
     internal energy E=F+TS    =    -848.30404299 Ry

     The total energy is F=E-TS. E is the sum of the following terms:
     one-electron contribution =    -364.81784600 Ry
     hartree contribution      =     234.34124011 Ry
     xc contribution           =    -167.15360733 Ry
     ewald contribution        =    -290.48954243 Ry
     one-center paw contrib.   =    -260.18428734 Ry
      -> PAW hartree energy AE =     402.33979749 Ry
      -> PAW hartree energy PS =    -397.81264346 Ry
      -> PAW xc energy AE      =    -370.80939808 Ry
      -> PAW xc energy PS      =     106.09795672 Ry
      -> total E_H with PAW    =     238.86839413 Ry
      -> total E_XC with PAW   =    -431.86504869 Ry

     convergence has been achieved in   9 iterations

     Forces acting on atoms (cartesian axes, Ry/au):

     atom    1 type  1   force =     0.00000000    0.00000000    0.00003849
     atom    2 type  1   force =     0.00000000    0.00000000   -0.00003849
     atom    3 type  2   force =    -0.00000000   -0.00000000   -0.00022180
     atom    4 type  2   force =    -0.00000000   -0.00000000    0.00022180
     atom    5 type  3   force =    -0.00000000   -0.00000000   -0.00000000
     atom    6 type  3   force =    -0.00000000   -0.00000000    0.00000000
     atom    7 type  3   force =     0.00000000   -0.00000000    0.00000000
     atom    8 type  3   force =     0.00000000    0.00000000    0.00000000
     The non-local contrib.  to forces
     atom    1 type  1   force =     0.00000000    0.00000000   -0.00006806
     atom    2 type  1   force =     0.00000000   -0.00000000    0.00006806
     atom    3 type  2   force =     0.00000000   -0.00000000   -0.00008143
     atom    4 type  2   force =     0.00000000   -0.00000000    0.00008143
     atom    5 type  3   force =     0.00000000    0.00000000   -0.00000000
     atom    6 type  3   force =    -0.00000000    0.00000000   -0.00000000
     atom    7 type  3   force =     0.00000000    0.00000000    0.00000000
     atom    8 type  3   force =    -0.00000000   -0.00000000    0.00000000
     The ionic contribution  to forces
     atom    1 type  1   force =    -0.00000000   -0.00000000   -0.00000000
     atom    2 type  1   force =    -0.00000000    0.00000000    0.00000000
     atom    3 type  2   force =    -0.00000000   -0.00000000    0.00000000
     atom    4 type  2   force =     0.00000000   -0.00000000    0.00000000
     atom    5 type  3   force =     0.00000000   -0.00000000    0.00000000
     atom    6 type  3   force =    -0.00000000   -0.00000000    0.00000000
     atom    7 type  3   force =    -0.00000000    0.00000000   -0.00000000
     atom    8 type  3   force =    -0.00000000    0.00000000   -0.00000000
     The local contribution  to forces
     atom    1 type  1   force =     0.00003567    0.00001967    0.00007797
     atom    2 type  1   force =     0.00005473   -0.00002609   -0.00010365
     atom    3 type  2   force =    -0.00044853    0.00025200   -0.00000523
     atom    4 type  2   force =     0.00047876   -0.00038736   -0.00040469
     atom    5 type  3   force =    -0.00003428   -0.00000352    0.00001108
     atom    6 type  3   force =     0.00000678    0.00005310    0.00004035
     atom    7 type  3   force =    -0.00007519   -0.00003772    0.00002179
     atom    8 type  3   force =    -0.00001089   -0.00000463   -0.00006648
     The core correction contribution to forces
     atom    1 type  1   force =     0.00000209    0.00000072    0.00001084
     atom    2 type  1   force =    -0.00000128    0.00000051   -0.00000695
     atom    3 type  2   force =    -0.00001516    0.00001000   -0.00000431
     atom    4 type  2   force =     0.00001581   -0.00001331   -0.00000754
     atom    5 type  3   force =    -0.00000023   -0.00000010    0.00000007
     atom    6 type  3   force =    -0.00000049   -0.00000018   -0.00000036
     atom    7 type  3   force =    -0.00000015    0.00000038   -0.00000041
     atom    8 type  3   force =     0.00000039   -0.00000020   -0.00000020
     The Hubbard contrib.    to forces
     atom    1 type  1   force =     0.00000000    0.00000000    0.00000000
     atom    2 type  1   force =     0.00000000    0.00000000    0.00000000
     atom    3 type  2   force =     0.00000000    0.00000000    0.00000000
     atom    4 type  2   force =     0.00000000    0.00000000    0.00000000
     atom    5 type  3   force =     0.00000000    0.00000000    0.00000000
     atom    6 type  3   force =     0.00000000    0.00000000    0.00000000
     atom    7 type  3   force =     0.00000000    0.00000000    0.00000000
     atom    8 type  3   force =     0.00000000    0.00000000    0.00000000
     The SCF correction term to forces
     atom    1 type  1   force =    -0.00002191   -0.00000169    0.00001891
     atom    2 type  1   force =    -0.00005175    0.00002517    0.00000524
     atom    3 type  2   force =     0.00064243   -0.00036860   -0.00002393
     atom    4 type  2   force =    -0.00071530    0.00056407    0.00065950
     atom    5 type  3   force =     0.00003202    0.00000293   -0.00001548
     atom    6 type  3   force =    -0.00003167   -0.00007001   -0.00007216
     atom    7 type  3   force =     0.00007125    0.00006186   -0.00005570
     atom    8 type  3   force =     0.00003786   -0.00001566    0.00007537

     Total force =     0.000318     Total SCF correction =     0.001360
     SCF correction compared to forces is large: reduce conv_thr to get better values

     Computing stress (Cartesian axis) and pressure

          total   stress  (Ry/bohr**3)                   (kbar)     P=     -157.14
  -0.00106836   0.00000000   0.00000000         -157.16        0.00        0.00
   0.00000000  -0.00106836  -0.00000000            0.00     -157.16       -0.00
   0.00000000  -0.00000000  -0.00106798            0.00       -0.00     -157.10

     kinetic stress (kbar)  11750.10     -0.00     -0.00
                                0.00  11750.10      0.00
                                0.00      0.00  11750.14

     local   stress (kbar) -10382.15     -0.08     -0.06
                               -0.08 -10382.28      0.06
                               -0.06      0.06 -10382.03

     nonloc. stress (kbar)   5672.19      0.00      0.00
                                0.00   5672.19      0.00
                                0.00      0.00   5672.18

     hartree stress (kbar)  11057.09      0.08      0.06
                                0.08  11057.22     -0.05
                                0.06     -0.05  11056.99

     exc-cor stress (kbar)   6576.54      0.00      0.00
                                0.00   6576.54     -0.00
                                0.00     -0.00   6576.54

     corecor stress (kbar) -11124.54      0.00      0.00
                                0.00 -11124.54     -0.00
                                0.00     -0.00 -11124.54

     ewald   stress (kbar) -13706.38      0.00      0.00
                                0.00 -13706.38      0.00
                                0.00      0.00 -13706.38

     hubbard stress (kbar)      0.00      0.00      0.00
                                0.00      0.00      0.00
                                0.00      0.00      0.00

     DFT-D   stress (kbar)      0.00      0.00      0.00
                                0.00      0.00      0.00
                                0.00      0.00      0.00

     XDM     stress (kbar)      0.00      0.00      0.00
                                0.00      0.00      0.00
                                0.00      0.00      0.00

     dft-nl  stress (kbar)      0.00      0.00      0.00
                                0.00      0.00      0.00
                                0.00      0.00      0.00

     TS-vdW  stress (kbar)      0.00      0.00      0.00
                                0.00      0.00      0.00
                                0.00      0.00      0.00

[...]

                                0.00      0.00      0.00

     Writing all to output data dir new_calculations/myprefix.save/

     General routines

     Parallel routines

     PAW routines

   This run was terminated on:  18: 5:36  21May2023

   JOB DONE.