     Program PWSCF v.7.0 starts on 20May2023 at 13:50:41

     Reading input from espresso_10429.pwi
Warning: card &CELL ignored
Warning: card / ignored

     Current dimensions of program PWSCF are:
     Max number of different atomic species (ntypx) = 10
     Max number of k-points (npk) =  40000
     Max angular momentum in pseudopotentials (lmaxx) =  4

     gamma-point specific algorithms are used
     Message from routine setup:
     using ibrav=0 with symmetry is DISCOURAGED, use correct ibrav instead

     Subspace diagonalization in iterative solution of the eigenvalue problem:
     a serial algorithm will be used

     Using Slab Decomposition

     bravais-lattice index     =            0
     lattice parameter (alat)  =       7.1585  a.u.
     unit-cell volume          =    1412.4826 (a.u.)^3
     number of atoms/cell      =            8
     number of atomic types    =            2
     number of electrons       =        60.00
     number of Kohn-Sham states=           36
     kinetic-energy cutoff     =      30.0000  Ry
     charge density cutoff     =     240.0000  Ry
     scf convergence threshold =      1.0E-06
     mixing beta               =       0.7000
     number of iterations used =            8  plain     mixing
     Exchange-correlation= SLA  PW   PBE  PBE
                           (   1   4   3   4   0   0   0)

     celldm(1)=   7.158475  celldm(2)=   0.000000  celldm(3)=   0.000000
     celldm(4)=   0.000000  celldm(5)=   0.000000  celldm(6)=   0.000000

     crystal axes: (cart. coord. in units of alat)
               a(1) = (   1.000000   0.000000   0.000000 )
               a(2) = (   0.000000   1.447946   0.000000 )
               a(3) = (   0.000000   0.340799   2.659311 )

     reciprocal axes: (cart. coord. in units 2 pi/alat)
               b(1) = (  1.000000  0.000000  0.000000 )
               b(2) = (  0.000000  0.690634 -0.088507 )
               b(3) = (  0.000000  0.000000  0.376037 )

     PseudoPot. # 1 for Zr read from file:
     /home/pragov/projects/rrg-bengioy-ad/pragov/crystal_structure_design/SSSP/Zr_pbe_v1.uspp.F.UPF
     MD5 check sum: 5db81b1e868ab7776c4564c113de050b
     Pseudo is Ultrasoft + core correction, Zval = 12.0
     Generated by new atomic code, or converted to UPF format
     Using radial grid of  887 points,  6 beta functions with:
                l(1) =   0
                l(2) =   0
                l(3) =   1
                l(4) =   1
                l(5) =   2
                l(6) =   2
     Q(r) pseudized with  6 coefficients,  rinner =    1.200   1.200   1.200
                                                       1.200   1.200

     PseudoPot. # 2 for Se read from file:
     /home/pragov/projects/rrg-bengioy-ad/pragov/crystal_structure_design/SSSP/Se_pbe_v1.uspp.F.UPF
     MD5 check sum: 1b3568f3a8ae88f9a2a0ad0698632c85
     Pseudo is Ultrasoft + core correction, Zval =  6.0
     Generated by new atomic code, or converted to UPF format
     Using radial grid of  877 points,  6 beta functions with:
                l(1) =   0
                l(2) =   0
                l(3) =   1
                l(4) =   1
                l(5) =   2
                l(6) =   2
     Q(r) pseudized with  8 coefficients,  rinner =    1.300   1.300   1.300
                                                       1.300   1.300

     atomic species   valence    mass     pseudopotential
        Zr            12.00    91.22400     Zr( 1.00)
        Se             6.00    78.97100     Se( 1.00)

      4 Sym. Ops., with inversion, found ( 2 have fractional translation)

                                    s                        frac. trans.

      isym =  1     identity

 cryst.   s( 1) = (     1          0          0      )
                  (     0          1          0      )
                  (     0          0          1      )

 cart.    s( 1) = (  1.0000000  0.0000000  0.0000000 )
                  (  0.0000000  1.0000000 -0.0000000 )
                  (  0.0000000  0.0000000  1.0000000 )

      isym =  2     180 deg rotation - cart. axis [1,0,0]

 cryst.   s( 2) = (     1          0          0      )    f =(  0.5000000 )
                  (     0         -1          0      )       ( -0.0000000 )
                  (     0          0         -1      )       ( -0.0000000 )

 cart.    s( 2) = (  1.0000000  0.0000000  0.0000000 )    f =(  0.5000000 )
                  (  0.0000000 -1.0000000  0.0000000 )       ( -0.0000000 )
                  (  0.0000000  0.0000000 -1.0000000 )       ( -0.0000000 )

      isym =  3     inversion

 cryst.   s( 3) = (    -1          0          0      )
                  (     0         -1          0      )
                  (     0          0         -1      )

 cart.    s( 3) = ( -1.0000000  0.0000000  0.0000000 )
                  (  0.0000000 -1.0000000  0.0000000 )
                  (  0.0000000  0.0000000 -1.0000000 )

      isym =  4     inv. 180 deg rotation - cart. axis [1,0,0]

 cryst.   s( 4) = (    -1          0          0      )    f =(  0.5000000 )
                  (     0          1          0      )       (  0.0000000 )
                  (     0          0          1      )       (  0.0000000 )

 cart.    s( 4) = ( -1.0000000  0.0000000  0.0000000 )    f =(  0.5000000 )
                  (  0.0000000  1.0000000 -0.0000000 )       (  0.0000000 )
                  (  0.0000000  0.0000000  1.0000000 )       (  0.0000000 )

   Cartesian axes

     site n.     atom                  positions (alat units)
         1           Zr  tau(   1) = (   0.7500000   1.2561737   1.7231645  )
         2           Zr  tau(   2) = (   0.2500000   0.5325709   0.9361467  )
         3           Se  tau(   3) = (   0.2500000   1.5692506   2.1565711  )
         4           Se  tau(   4) = (   0.7500000   0.2194940   0.5027401  )
         5           Se  tau(   5) = (   0.2500000   0.9414807   2.1549329  )
         6           Se  tau(   6) = (   0.7500000   0.8472640   0.5043783  )
         7           Se  tau(   7) = (   0.2500000   1.2565708   1.1936026  )
         8           Se  tau(   8) = (   0.7500000   0.5321738   1.4657086  )

   Crystallographic axes

     site n.     atom                  positions (cryst. coord.)
         1           Zr  tau(   1) = (  0.7500000  0.7150440  0.6479740  )
         2           Zr  tau(   2) = (  0.2500000  0.2849560  0.3520260  )
         3           Se  tau(   3) = (  0.2500000  0.8929060  0.8109510  )
         4           Se  tau(   4) = (  0.7500000  0.1070940  0.1890490  )
         5           Se  tau(   5) = (  0.2500000  0.4594920  0.8103350  )
         6           Se  tau(   6) = (  0.7500000  0.5405080  0.1896650  )
         7           Se  tau(   7) = (  0.2500000  0.7621880  0.4488390  )
         8           Se  tau(   8) = (  0.7500000  0.2378120  0.5511610  )

     number of k points=     1  Methfessel-Paxton smearing, width (Ry)=  0.0010
                       cart. coord. in units 2pi/alat
        k(    1) = (   0.0000000   0.0000000   0.0000000), wk =   2.0000000

                       cryst. coord.
        k(    1) = (   0.0000000   0.0000000   0.0000000), wk =   2.0000000

     Initial potential from superposition of free atoms

     starting charge      59.9953, renormalised to      60.0000

     negative rho (up, down):  1.223E-01 0.000E+00
     Starting wfcs are   50 randomized atomic wfcs

     Self-consistent Calculation

     iteration #  1     ecut=    30.00 Ry     beta= 0.70
     Davidson diagonalization with overlap

     ethr =  1.00E-02,  avg # of iterations =  2.0

     Threshold (ethr) on eigenvalues was too large:
     Diagonalizing with lowered threshold

     Davidson diagonalization with overlap

[...]

     negative rho (up, down):  1.233E-01 0.000E+00

     total energy              =    -459.68405161 Ry
     estimated scf accuracy    <       0.55647688 Ry

[...]

     total energy              =    -459.92124181 Ry
     estimated scf accuracy    <       0.00000161 Ry

     iteration # 12     ecut=    30.00 Ry     beta= 0.70
     Davidson diagonalization with overlap

     ethr =  2.69E-09,  avg # of iterations =  5.0

[...]

     End of self-consistent calculation

          k = 0.0000 0.0000 0.0000 (  1938 PWs)   bands (ev):

   -42.2413 -42.2392 -20.4850 -20.4639 -20.2123 -20.1987 -20.1166 -20.1113
    -7.8290  -7.6829  -5.6384  -4.6346  -4.2980  -4.2923   0.9957   1.2599
     2.3277   2.7296   2.8827   3.7522   3.7784   4.5980   5.0827   5.7984
     5.9807   6.0633   6.0873   6.1678   6.8536   6.9389   7.6234   7.9390
     9.4648   9.6063   9.8364   9.9709

     occupation numbers
     1.0000   1.0000   1.0000   1.0000   1.0000   1.0000   1.0000   1.0000
     1.0000   1.0000   1.0000   1.0000   1.0000   1.0000   1.0000   1.0000
     1.0000   1.0000   1.0000   1.0000   1.0000   1.0000   1.0000   1.0000
     1.0000   1.0000   1.0000   1.0000   1.0000   1.0000  -0.0000  -0.0000
    -0.0000  -0.0000  -0.0000  -0.0000

     the Fermi energy is     7.2368 ev

!    total energy              =    -459.92124241 Ry
     estimated scf accuracy    <       0.00000043 Ry
     smearing contrib. (-TS)   =       0.00000000 Ry
     internal energy E=F+TS    =    -459.92124241 Ry

     The total energy is F=E-TS. E is the sum of the following terms:
     one-electron contribution =    -143.86185756 Ry
     hartree contribution      =      94.83249185 Ry
     xc contribution           =    -214.20529659 Ry
     ewald contribution        =    -196.68658011 Ry

     convergence has been achieved in  12 iterations

     negative rho (up, down):  1.244E-01 0.000E+00

     Forces acting on atoms (cartesian axes, Ry/au):

     atom    1 type  1   force =     0.00000000    0.00167626    0.08867623
     atom    2 type  1   force =     0.00000000   -0.00167626   -0.08867623
     atom    3 type  2   force =     0.00000000    0.02810213   -0.03299509
     atom    4 type  2   force =     0.00000000   -0.02810213    0.03299509
     atom    5 type  2   force =     0.00000000   -0.02863777   -0.03342242
     atom    6 type  2   force =     0.00000000    0.02863777    0.03342242
     atom    7 type  2   force =     0.00000000    0.00034850    0.03277096
     atom    8 type  2   force =     0.00000000   -0.00034850   -0.03277096
     The non-local contrib.  to forces
     atom    1 type  1   force =     0.00000000   -0.00820872   -0.01205523
     atom    2 type  1   force =     0.00000000    0.00820872    0.01205523
     atom    3 type  2   force =    -0.00000000   -0.09856777   -0.09177108
     atom    4 type  2   force =     0.00000000    0.09856777    0.09177108
     atom    5 type  2   force =     0.00000000    0.09806494   -0.09723942
     atom    6 type  2   force =     0.00000000   -0.09806494    0.09723942
     atom    7 type  2   force =     0.00000000    0.00058730   -0.08902940
     atom    8 type  2   force =     0.00000000   -0.00058730    0.08902940
     The ionic contribution  to forces
     atom    1 type  1   force =    -0.00000000    0.04805517    8.54275792
     atom    2 type  1   force =     0.00000000   -0.04805517   -8.54275792
     atom    3 type  2   force =     0.00000000    3.98407523    9.58917038
     atom    4 type  2   force =    -0.00000000   -3.98407523   -9.58917038
     atom    5 type  2   force =    -0.00000000   -3.95532124    9.39123036
     atom    6 type  2   force =     0.00000000    3.95532124   -9.39123036
     atom    7 type  2   force =     0.00000000    0.01286051   -4.22466208
     atom    8 type  2   force =     0.00000000   -0.01286051    4.22466208
     The local contribution  to forces
     atom    1 type  1   force =    -0.00000266   -0.03896896   -8.44494335
     atom    2 type  1   force =     0.00000078    0.03900370    8.44473325
     atom    3 type  2   force =    -0.00000387   -3.86645923   -9.53947298
     atom    4 type  2   force =    -0.00000415    3.86627830    9.53912248
     atom    5 type  2   force =    -0.00000323    3.83761624   -9.33725177
     atom    6 type  2   force =     0.00000175   -3.83737223    9.33687595
     atom    7 type  2   force =    -0.00000435   -0.01320517    4.33346214
     atom    8 type  2   force =    -0.00000321    0.01321947   -4.33293562
     The core correction contribution to forces
     atom    1 type  1   force =     0.00000031    0.00046586    0.00291888
     atom    2 type  1   force =     0.00000022   -0.00046405   -0.00292218
     atom    3 type  2   force =    -0.00000059    0.00911393    0.00908288
     atom    4 type  2   force =    -0.00000108   -0.00911316   -0.00907547
     atom    5 type  2   force =    -0.00000042   -0.00902944    0.00975593
     atom    6 type  2   force =     0.00000011    0.00903490   -0.00974941
     atom    7 type  2   force =    -0.00000038   -0.00005553    0.01301721
     atom    8 type  2   force =    -0.00000032    0.00005630   -0.01303171
     The Hubbard contrib.    to forces
     atom    1 type  1   force =     0.00000000    0.00000000    0.00000000
     atom    2 type  1   force =     0.00000000    0.00000000    0.00000000
     atom    3 type  2   force =     0.00000000    0.00000000    0.00000000
     atom    4 type  2   force =     0.00000000    0.00000000    0.00000000
     atom    5 type  2   force =     0.00000000    0.00000000    0.00000000
     atom    6 type  2   force =     0.00000000    0.00000000    0.00000000
     atom    7 type  2   force =     0.00000000    0.00000000    0.00000000
     atom    8 type  2   force =     0.00000000    0.00000000    0.00000000
     The SCF correction term to forces
     atom    1 type  1   force =     0.00000011    0.00034914   -0.00000386
     atom    2 type  1   force =     0.00000458   -0.00035324    0.00021352
     atom    3 type  2   force =     0.00000130   -0.00006508    0.00000586
     atom    4 type  2   force =    -0.00000101    0.00023514    0.00035753
     atom    5 type  2   force =     0.00000071    0.00005704    0.00008758
     atom    6 type  2   force =    -0.00000127   -0.00025587    0.00029192
     atom    7 type  2   force =     0.00000139    0.00016698   -0.00004511
     atom    8 type  2   force =     0.00000019   -0.00017089   -0.00052331

     Total force =     0.159724     Total SCF correction =     0.000987

     Computing stress (Cartesian axis) and pressure

     negative rho (up, down):  1.244E-01 0.000E+00
          total   stress  (Ry/bohr**3)                   (kbar)     P=       75.92
   0.00217764   0.00000000   0.00000000          320.34        0.00        0.00
   0.00000000  -0.00048229  -0.00000657            0.00      -70.95       -0.97
   0.00000000  -0.00000657  -0.00014698            0.00       -0.97      -21.62

     kinetic stress (kbar)   6963.27      0.00      0.00
                                0.00   6198.99     -1.91
                                0.00     -1.91   6503.87

     local   stress (kbar) -15691.49     -0.00     -0.00
                               -0.00 -11267.59    119.99
                               -0.00    119.99   5514.07

     nonloc. stress (kbar)   6638.81      0.00      0.00
                                0.00   6454.39     -2.26
                                0.00     -2.26   6590.60

     hartree stress (kbar)   7099.11      0.00      0.00
                                0.00   5268.53    -52.02
                                0.00    -52.02  -2491.18

     exc-cor stress (kbar)  14651.62      0.00      0.00
                                0.00  14652.90     -0.02
                                0.00     -0.02  14650.15

     corecor stress (kbar) -17025.22     -0.00     -0.00
                               -0.00 -16986.52      0.22
                               -0.00      0.22 -17012.33

     ewald   stress (kbar)  -2315.75      0.00      0.00
                                0.00  -4391.66    -64.97
                                0.00    -64.97 -13776.80

     hubbard stress (kbar)      0.00      0.00      0.00
                                0.00      0.00      0.00
                                0.00      0.00      0.00

     DFT-D   stress (kbar)      0.00      0.00      0.00
                                0.00      0.00      0.00
                                0.00      0.00      0.00

     XDM     stress (kbar)      0.00      0.00      0.00
                                0.00      0.00      0.00
                                0.00      0.00      0.00

     dft-nl  stress (kbar)      0.00      0.00      0.00
                                0.00      0.00      0.00
                                0.00      0.00      0.00

     TS-vdW  stress (kbar)      0.00      0.00      0.00
                                0.00      0.00      0.00
                                0.00      0.00      0.00

[...]

                                0.00      0.00      0.00

     Writing all to output data dir new_calculations/myprefix.save/

     General routines

     Parallel routines

   This run was terminated on:  13:51: 0  20May2023

   JOB DONE.