     Program PWSCF v.7.0 starts on 21May2023 at  5: 2:40

     Reading input from espresso_8099.pwi
Warning: card &CELL ignored
Warning: card / ignored

     Current dimensions of program PWSCF are:
     Max number of different atomic species (ntypx) = 10
     Max number of k-points (npk) =  40000
     Max angular momentum in pseudopotentials (lmaxx) =  4
     file Al.pbe-n-kjpaw_psl.1.0.0.UPF: wavefunction(s)  3S 3P renormalized
     file O.pbe-n-kjpaw_psl.0.1.UPF: wavefunction(s)  2P renormalized

     gamma-point specific algorithms are used
     Message from routine setup:
     using ibrav=0 with symmetry is DISCOURAGED, use correct ibrav instead

     Subspace diagonalization in iterative solution of the eigenvalue problem:
     a serial algorithm will be used

     Using Slab Decomposition

     bravais-lattice index     =            0
     lattice parameter (alat)  =       6.9162  a.u.
     unit-cell volume          =    1132.8783 (a.u.)^3
     number of atoms/cell      =           16
     number of atomic types    =            3
     number of electrons       =        96.00
     number of Kohn-Sham states=           58
     kinetic-energy cutoff     =      30.0000  Ry
     charge density cutoff     =     240.0000  Ry
     scf convergence threshold =      1.0E-06
     mixing beta               =       0.7000
     number of iterations used =            8  plain     mixing
     Exchange-correlation= SLA  PW   PBX  PBC
                           (   1   4   3   4   0   0   0)

     celldm(1)=   6.916180  celldm(2)=   0.000000  celldm(3)=   0.000000
     celldm(4)=   0.000000  celldm(5)=   0.000000  celldm(6)=   0.000000

     crystal axes: (cart. coord. in units of alat)
               a(1) = (   1.000000   0.000000   0.000000 )
               a(2) = (  -0.501395   1.301816   0.000000 )
               a(3) = (   0.000000   0.000000   2.630479 )

     reciprocal axes: (cart. coord. in units 2 pi/alat)
               b(1) = (  1.000000  0.385151  0.000000 )
               b(2) = (  0.000000  0.768158  0.000000 )
               b(3) = (  0.000000  0.000000  0.380159 )

     PseudoPot. # 1 for Ti read from file:
     /home/pragov/projects/rrg-bengioy-ad/pragov/crystal_structure_design/SSSP/ti_pbe_v1.4.uspp.F.UPF
     MD5 check sum: 88a00a6731bd790ddea75d31a80cb452
     Pseudo is Ultrasoft + core correction, Zval = 12.0
     Generated by new atomic code, or converted to UPF format
     Using radial grid of  851 points,  6 beta functions with:
                l(1) =   0
                l(2) =   0
                l(3) =   1
                l(4) =   1
                l(5) =   2
                l(6) =   2
     Q(r) pseudized with  6 coefficients,  rinner =    1.000   1.000   1.000
                                                       1.000   1.000

     PseudoPot. # 2 for Al read from file:
     /home/pragov/projects/rrg-bengioy-ad/pragov/crystal_structure_design/SSSP/Al.pbe-n-kjpaw_psl.1.0.0.UPF
     MD5 check sum: cfc449ca30b5f3223ec38ddd88ac046d
     Pseudo is Projector augmented-wave + core cor, Zval =  3.0
     Generated using "atomic" code by A. Dal Corso  v.5.1
     Shape of augmentation charge: PSQ
     Using radial grid of 1135 points,  6 beta functions with:
                l(1) =   0
                l(2) =   0
                l(3) =   1
                l(4) =   1
                l(5) =   2
                l(6) =   2
     Q(r) pseudized with 0 coefficients

     PseudoPot. # 3 for O  read from file:
     /home/pragov/projects/rrg-bengioy-ad/pragov/crystal_structure_design/SSSP/O.pbe-n-kjpaw_psl.0.1.UPF
     MD5 check sum: 0234752ac141de4415c5fc33072bef88
     Pseudo is Projector augmented-wave + core cor, Zval =  6.0
     Generated using "atomic" code by A. Dal Corso  v.5.0.99 svn rev. 10869
     Shape of augmentation charge: BESSEL
     Using radial grid of 1095 points,  4 beta functions with:
                l(1) =   0
                l(2) =   0
                l(3) =   1
                l(4) =   1
     Q(r) pseudized with 0 coefficients

     atomic species   valence    mass     pseudopotential
        Ti            12.00    47.86700     Ti( 1.00)
        Al             3.00    26.98154     Al( 1.00)
        O              6.00    15.99900     O ( 1.00)

      2 Sym. Ops. (no inversion) found ( 1 have fractional translation)

                                    s                        frac. trans.

      isym =  1     identity

 cryst.   s( 1) = (     1          0          0      )
                  (     0          1          0      )
                  (     0          0          1      )

 cart.    s( 1) = (  1.0000000  0.0000000  0.0000000 )
                  (  0.0000000  1.0000000  0.0000000 )
                  (  0.0000000  0.0000000  1.0000000 )

      isym =  2     180 deg rotation - cart. axis [0,0,1]

 cryst.   s( 2) = (    -1          0          0      )    f =(  0.0000000 )
                  (     0         -1          0      )       ( -0.0000000 )
                  (     0          0          1      )       ( -0.5000000 )

 cart.    s( 2) = ( -1.0000000 -0.0000000  0.0000000 )    f =(  0.0000000 )
                  (  0.0000000 -1.0000000  0.0000000 )       ( -0.0000000 )
                  (  0.0000000  0.0000000  1.0000000 )       ( -1.3152394 )

   Cartesian axes

     site n.     atom                  positions (alat units)
         1           Ti  tau(   1) = (   0.0011595   0.3316766   0.1633948  )
         2           Ti  tau(   2) = (   0.4974452   0.9701392   1.4786343  )
         3           Al  tau(   3) = (  -0.0010290   0.3699201   1.1347754  )
         4           Al  tau(   4) = (  -0.0022058   0.4938608   1.9850856  )
         5           Al  tau(   5) = (   0.5008105   0.8079551   0.6698462  )
         6           Al  tau(   6) = (   0.4996336   0.9318958   2.4500149  )
         7           O   tau(   7) = (  -0.0024139   0.1520052   1.6110026  )
         8           O   tau(   8) = (  -0.0000979   0.1146561   2.3161708  )
         9           O   tau(   9) = (   0.0003985   0.6409139   0.6693622  )
        10           O   tau(  10) = (  -0.0021343   0.8245532   1.5232972  )
        11           O   tau(  11) = (  -0.0005655   0.8014148   2.4340663  )
        12           O   tau(  12) = (   0.5007389   0.4772626   0.2080577  )
        13           O   tau(  13) = (   0.4991701   0.5004011   1.1188268  )
        14           O   tau(  14) = (   0.4982061   0.6609020   1.9846016  )
        15           O   tau(  15) = (   0.5010186   1.1498106   0.2957632  )
        16           O   tau(  16) = (   0.4987025   1.1871597   1.0009314  )

   Crystallographic axes

     site n.     atom                  positions (cryst. coord.)
         1           Ti  tau(   1) = (  0.1289050  0.2547800  0.0621160  )
         2           Ti  tau(   2) = (  0.8710950  0.7452200  0.5621160  )
         3           Al  tau(   3) = (  0.1414460  0.2841570  0.4313950  )
         4           Al  tau(   4) = (  0.1880050  0.3793630  0.7546480  )
         5           Al  tau(   5) = (  0.8119950  0.6206370  0.2546480  )
         6           Al  tau(   6) = (  0.8585540  0.7158430  0.9313950  )
         7           O   tau(   7) = (  0.0561310  0.1167640  0.6124370  )
         8           O   tau(   8) = (  0.0440620  0.0880740  0.8805130  )
         9           O   tau(   9) = (  0.2472470  0.4923230  0.2544640  )
        10           O   tau(  10) = (  0.3154430  0.6333870  0.5790950  )
        11           O   tau(  11) = (  0.3081000  0.6156130  0.9253320  )
        12           O   tau(  12) = (  0.6845570  0.3666130  0.0790950  )
        13           O   tau(  13) = (  0.6919000  0.3843870  0.4253320  )
        14           O   tau(  14) = (  0.7527530  0.5076770  0.7544640  )
        15           O   tau(  15) = (  0.9438690  0.8832360  0.1124370  )
        16           O   tau(  16) = (  0.9559380  0.9119260  0.3805130  )

     number of k points=     1  Methfessel-Paxton smearing, width (Ry)=  0.0010
                       cart. coord. in units 2pi/alat
        k(    1) = (   0.0000000   0.0000000   0.0000000), wk =   2.0000000

                       cryst. coord.
        k(    1) = (   0.0000000   0.0000000   0.0000000), wk =   2.0000000

     Check: negative core charge=   -0.000012

     Initial potential from superposition of free atoms

     starting charge      93.9907, renormalised to      96.0000

     negative rho (up, down):  1.637E-03 0.000E+00
     Starting wfcs are   76 randomized atomic wfcs
     Checking if some PAW data can be deallocated...

     Self-consistent Calculation

     iteration #  1     ecut=    30.00 Ry     beta= 0.70
     Davidson diagonalization with overlap

     ethr =  1.00E-02,  avg # of iterations =  2.0

     negative rho (up, down):  2.526E-03 0.000E+00

     total energy              =    -813.42664606 Ry
     estimated scf accuracy    <       1.99179230 Ry

[...]

     total energy              =    -814.29875611 Ry
     estimated scf accuracy    <       0.00000224 Ry

     iteration # 12     ecut=    30.00 Ry     beta= 0.70
     Davidson diagonalization with overlap

     ethr =  2.34E-09,  avg # of iterations =  2.0

[...]

     End of self-consistent calculation

          k = 0.0000 0.0000 0.0000 (  1560 PWs)   bands (ev):

   -49.6733 -49.6730 -26.0477 -26.0461 -25.9404 -25.9402 -25.9154 -25.9150
   -11.9398 -11.3569 -11.1507 -10.4912 -10.1551 -10.0875 -10.0391  -9.6975
    -9.5793  -9.3540   0.7611   1.2654   1.8328   1.9151   2.1158   2.4498
     2.4555   2.7027   3.0017   3.2541   3.4737   3.7005   3.8199   3.9261
     4.2089   4.2434   4.4154   4.4996   4.8287   5.0238   5.2428   5.4184
     5.5342   5.5966   5.6432   5.6899   5.7805   6.1455   6.2702   6.4625
     9.6191   9.6967   9.9311   9.9593  11.2784  11.3485  12.1045  12.1844
    12.4813  12.7949

     occupation numbers
     1.0000   1.0000   1.0000   1.0000   1.0000   1.0000   1.0000   1.0000
     1.0000   1.0000   1.0000   1.0000   1.0000   1.0000   1.0000   1.0000
     1.0000   1.0000   1.0000   1.0000   1.0000   1.0000   1.0000   1.0000
     1.0000   1.0000   1.0000   1.0000   1.0000   1.0000   1.0000   1.0000
     1.0000   1.0000   1.0000   1.0000   1.0000   1.0000   1.0000   1.0000
     1.0000   1.0000   1.0000   1.0000   1.0000   1.0000   1.0000   1.0000
    -0.0000  -0.0000  -0.0000  -0.0000  -0.0000  -0.0000  -0.0000  -0.0000
    -0.0000  -0.0000

     the Fermi energy is     9.0097 ev

!    total energy              =    -814.29875635 Ry
     estimated scf accuracy    <       0.00000020 Ry
     smearing contrib. (-TS)   =       0.00000000 Ry
     internal energy E=F+TS    =    -814.29875635 Ry

     The total energy is F=E-TS. E is the sum of the following terms:
     one-electron contribution =    -248.54028807 Ry
     hartree contribution      =     179.10112386 Ry
     xc contribution           =    -122.17363921 Ry
     ewald contribution        =    -388.96156955 Ry
     one-center paw contrib.   =    -233.72438338 Ry
      -> PAW hartree energy AE =     319.66501956 Ry
      -> PAW hartree energy PS =    -318.52385976 Ry
      -> PAW xc energy AE      =    -321.36458083 Ry
      -> PAW xc energy PS      =      86.49903765 Ry
      -> total E_H with PAW    =     180.24228366 Ry
      -> total E_XC with PAW   =    -357.03918239 Ry

     convergence has been achieved in  12 iterations

     negative rho (up, down):  1.290E-03 0.000E+00

     Forces acting on atoms (cartesian axes, Ry/au):

     atom    1 type  1   force =    -0.00007061   -0.22350760   -0.05557688
     atom    2 type  1   force =     0.00007061    0.22350760   -0.05557688
     atom    3 type  2   force =     0.00038346   -0.00007623    0.00577863
     atom    4 type  2   force =     0.00099621    0.01611382   -0.00013598
     atom    5 type  2   force =    -0.00099621   -0.01611382   -0.00013598
     atom    6 type  2   force =    -0.00038346    0.00007623    0.00577863
     atom    7 type  3   force =     0.00099255   -0.03014114   -0.02124737
     atom    8 type  3   force =     0.00013764   -0.01237241    0.02310573
     atom    9 type  3   force =    -0.00077375   -0.01450468    0.01140796
     atom   10 type  3   force =     0.00078442   -0.20753517    0.05868630
     atom   11 type  3   force =    -0.00019979   -0.00170349   -0.02201838
     atom   12 type  3   force =    -0.00078442    0.20753517    0.05868630
     atom   13 type  3   force =     0.00019979    0.00170349   -0.02201838
     atom   14 type  3   force =     0.00077375    0.01450468    0.01140796
     atom   15 type  3   force =    -0.00099255    0.03014114   -0.02124737
     atom   16 type  3   force =    -0.00013764    0.01237241    0.02310573
     The non-local contrib.  to forces
     atom    1 type  1   force =    -0.00040348    0.11255254    0.02320238
     atom    2 type  1   force =     0.00040348   -0.11255254    0.02320238
     atom    3 type  2   force =     0.00069883    0.03935302    0.02557992
     atom    4 type  2   force =     0.00112954    0.06278379   -0.02692295
     atom    5 type  2   force =    -0.00112954   -0.06278379   -0.02692295
     atom    6 type  2   force =    -0.00069883   -0.03935302    0.02557992
     atom    7 type  3   force =     0.00585605    0.01689906   -0.17473428
     atom    8 type  3   force =    -0.00100248    0.11097978    0.26963422
     atom    9 type  3   force =    -0.00786176    0.00464489    0.27008505
     atom   10 type  3   force =     0.00587522    0.46400573   -0.13057703
     atom   11 type  3   force =    -0.00260669   -0.20944026   -0.15243115
     atom   12 type  3   force =    -0.00587522   -0.46400573   -0.13057703
     atom   13 type  3   force =     0.00260669    0.20944026   -0.15243115
     atom   14 type  3   force =     0.00786176   -0.00464489    0.27008505
     atom   15 type  3   force =    -0.00585605   -0.01689906   -0.17473428
     atom   16 type  3   force =     0.00100248   -0.11097978    0.26963422
     The ionic contribution  to forces
     atom    1 type  1   force =    -0.02118286   -1.41633071    2.93744290
     atom    2 type  1   force =     0.02118286    1.41633071    2.93744290
     atom    3 type  2   force =    -0.00006706   -0.49395295   -1.13046111
     atom    4 type  2   force =    -0.00579122   -0.62095025    0.04847402
     atom    5 type  2   force =     0.00579122    0.62095025    0.04847402
     atom    6 type  2   force =     0.00006706    0.49395295   -1.13046111
     atom    7 type  3   force =    -0.02657912    4.58412889    3.93364841
     atom    8 type  3   force =    -0.01261308   -3.71277540   -7.39676928
     atom    9 type  3   force =    -0.00562513    2.61621461    2.81607279
     atom   10 type  3   force =    -0.02835483   -0.68329018    1.54916487
     atom   11 type  3   force =    -0.00609173    5.73303216   -2.75757259
     atom   12 type  3   force =     0.02835483    0.68329018    1.54916487
     atom   13 type  3   force =     0.00609173   -5.73303215   -2.75757259
     atom   14 type  3   force =     0.00562513   -2.61621461    2.81607279
     atom   15 type  3   force =     0.02657912   -4.58412889    3.93364841
     atom   16 type  3   force =     0.01261308    3.71277540   -7.39676928
     The local contribution  to forces
     atom    1 type  1   force =     0.02155418    1.08991672   -3.01832513
     atom    2 type  1   force =    -0.02154585   -1.09003173   -3.01734379
     atom    3 type  2   force =    -0.00014735    0.46307509    1.11321822
     atom    4 type  2   force =     0.00580310    0.58424241   -0.02590972
     atom    5 type  2   force =    -0.00580316   -0.58424509   -0.02593131
     atom    6 type  2   force =     0.00014712   -0.46309194    1.11307946
     atom    7 type  3   force =     0.02177063   -4.62992435   -3.78126402
     atom    8 type  3   force =     0.01374028    3.59020457    7.15217772
     atom    9 type  3   force =     0.01263267   -2.63480299   -3.07154677
     atom   10 type  3   force =     0.02331504    0.01812438   -1.36164893
     atom   11 type  3   force =     0.00848047   -5.52685550    2.88644494
     atom   12 type  3   force =    -0.02331951   -0.01809749   -1.36195297
     atom   13 type  3   force =    -0.00847948    5.52678317    2.88657674
     atom   14 type  3   force =    -0.01263315    2.63480380   -3.07139072
     atom   15 type  3   force =    -0.02177129    4.63008330   -3.78160646
     atom   16 type  3   force =    -0.01373990   -3.59017040    7.15231257
     The core correction contribution to forces
     atom    1 type  1   force =    -0.00003149   -0.01001176    0.00134133
     atom    2 type  1   force =     0.00003176    0.01000689    0.00135328
     atom    3 type  2   force =    -0.00010122   -0.00857345   -0.00244374
     atom    4 type  2   force =    -0.00014512   -0.00998478    0.00424351
     atom    5 type  2   force =     0.00014513    0.00998233    0.00424406
     atom    6 type  2   force =     0.00010121    0.00857324   -0.00244327
     atom    7 type  3   force =    -0.00005581   -0.00105323    0.00115807
     atom    8 type  3   force =     0.00001419   -0.00086677   -0.00194119
     atom    9 type  3   force =     0.00008139   -0.00049712   -0.00312291
     atom   10 type  3   force =    -0.00005376   -0.00643744    0.00178167
     atom   11 type  3   force =     0.00001874    0.00167502    0.00153810
     atom   12 type  3   force =     0.00005375    0.00643796    0.00178355
     atom   13 type  3   force =    -0.00001871   -0.00167516    0.00153620
     atom   14 type  3   force =    -0.00008141    0.00049740   -0.00312277
     atom   15 type  3   force =     0.00005579    0.00105332    0.00115922
     atom   16 type  3   force =    -0.00001421    0.00086662   -0.00194210
     The Hubbard contrib.    to forces
     atom    1 type  1   force =     0.00000000    0.00000000    0.00000000
     atom    2 type  1   force =     0.00000000    0.00000000    0.00000000
     atom    3 type  2   force =     0.00000000    0.00000000    0.00000000
     atom    4 type  2   force =     0.00000000    0.00000000    0.00000000
     atom    5 type  2   force =     0.00000000    0.00000000    0.00000000
     atom    6 type  2   force =     0.00000000    0.00000000    0.00000000
     atom    7 type  3   force =     0.00000000    0.00000000    0.00000000
     atom    8 type  3   force =     0.00000000    0.00000000    0.00000000
     atom    9 type  3   force =     0.00000000    0.00000000    0.00000000
     atom   10 type  3   force =     0.00000000    0.00000000    0.00000000
     atom   11 type  3   force =     0.00000000    0.00000000    0.00000000
     atom   12 type  3   force =     0.00000000    0.00000000    0.00000000
     atom   13 type  3   force =     0.00000000    0.00000000    0.00000000
     atom   14 type  3   force =     0.00000000    0.00000000    0.00000000
     atom   15 type  3   force =     0.00000000    0.00000000    0.00000000
     atom   16 type  3   force =     0.00000000    0.00000000    0.00000000
     The SCF correction term to forces
     atom    1 type  1   force =    -0.00000680    0.00033058    0.00078185
     atom    2 type  1   force =    -0.00000150   -0.00028077   -0.00023916
     atom    3 type  2   force =     0.00000026    0.00001917   -0.00012582
     atom    4 type  2   force =    -0.00000018    0.00001112   -0.00002207
     atom    5 type  2   force =     0.00000007   -0.00002905    0.00001413
     atom    6 type  2   force =    -0.00000003   -0.00000789    0.00004748
     atom    7 type  3   force =     0.00000054   -0.00017667   -0.00011242
     atom    8 type  3   force =    -0.00000155    0.00006937    0.00004620
     atom    9 type  3   force =    -0.00000132   -0.00005462   -0.00007916
     atom   10 type  3   force =     0.00000327    0.00009051   -0.00011988
     atom   11 type  3   force =    -0.00000072   -0.00010164    0.00009892
     atom   12 type  3   force =     0.00000226   -0.00006160    0.00036619
     atom   13 type  3   force =    -0.00000059    0.00020065   -0.00021148
     atom   14 type  3   force =     0.00000100    0.00007242   -0.00022470
     atom   15 type  3   force =    -0.00000037    0.00004733    0.00035534
     atom   16 type  3   force =     0.00000061   -0.00013547   -0.00015890

     Total force =     0.453279     Total SCF correction =     0.001196

     Computing stress (Cartesian axis) and pressure

     negative rho (up, down):  1.290E-03 0.000E+00
          total   stress  (Ry/bohr**3)                   (kbar)     P=     -414.48
  -0.00189128   0.00001258   0.00000000         -278.22        1.85        0.00
   0.00001258  -0.00306223   0.00000000            1.85     -450.47        0.00
   0.00000000   0.00000000  -0.00349928            0.00        0.00     -514.76

     kinetic stress (kbar)  20225.33      2.09      0.00
                                2.09  19985.60      0.00
                                0.00      0.00  19882.83

     local   stress (kbar) -11370.69     21.41     -0.00
                               21.41 -11524.86      0.02
                               -0.00      0.02 -10257.44

     nonloc. stress (kbar)   4489.05      0.18      0.00
                                0.18   4483.50      0.00
                                0.00      0.00   4452.39

     hartree stress (kbar)   8092.05     -6.05      0.00
                               -6.05   7839.92     -0.02
                                0.00     -0.02   7324.44

     exc-cor stress (kbar)  -2784.85     -0.05     -0.00
                               -0.05  -2779.98     -0.00
                               -0.00     -0.00  -2780.98

     corecor stress (kbar)  -2006.05      0.06     -0.00
                                0.06  -2004.54      0.00
                               -0.00      0.00  -2002.22

     ewald   stress (kbar) -16923.06    -15.79     -0.00
                              -15.79 -16450.10     -0.00
                               -0.00     -0.00 -17133.79

     hubbard stress (kbar)      0.00      0.00      0.00
                                0.00      0.00      0.00
                                0.00      0.00      0.00

     DFT-D   stress (kbar)      0.00      0.00      0.00
                                0.00      0.00      0.00
                                0.00      0.00      0.00

     XDM     stress (kbar)      0.00      0.00      0.00
                                0.00      0.00      0.00
                                0.00      0.00      0.00

     dft-nl  stress (kbar)      0.00      0.00      0.00
                                0.00      0.00      0.00
                                0.00      0.00      0.00

     TS-vdW  stress (kbar)      0.00      0.00      0.00
                                0.00      0.00      0.00
                                0.00      0.00      0.00

[...]

                                0.00      0.00      0.00

     Writing all to output data dir new_calculations/myprefix.save/

     General routines

     Parallel routines

     PAW routines

   This run was terminated on:   5: 2:58  21May2023

   JOB DONE.