     Program PWSCF v.7.0 starts on 20May2023 at 20: 2: 5

     Reading input from espresso_5655.pwi
Warning: card &CELL ignored
Warning: card / ignored

     Current dimensions of program PWSCF are:
     Max number of different atomic species (ntypx) = 10
     Max number of k-points (npk) =  40000
     Max angular momentum in pseudopotentials (lmaxx) =  4
     file K.pbe-spn-kjpaw_psl.1.0.0.UPF: wavefunction(s)  3S renormalized
     file Mg.pbe-n-kjpaw_psl.0.3.0.UPF: wavefunction(s)  3S renormalized
     file Al.pbe-n-kjpaw_psl.1.0.0.UPF: wavefunction(s)  3S 3P renormalized
     file O.pbe-n-kjpaw_psl.0.1.UPF: wavefunction(s)  2P renormalized

     gamma-point specific algorithms are used

     Subspace diagonalization in iterative solution of the eigenvalue problem:
     a serial algorithm will be used

     Using Slab Decomposition

     bravais-lattice index     =            0
     lattice parameter (alat)  =      10.1517  a.u.
     unit-cell volume          =    1719.3776 (a.u.)^3
     number of atoms/cell      =           20
     number of atomic types    =            6
     number of electrons       =       103.00
     number of Kohn-Sham states=           62
     kinetic-energy cutoff     =      30.0000  Ry
     charge density cutoff     =     240.0000  Ry
     scf convergence threshold =      1.0E-06
     mixing beta               =       0.7000
     number of iterations used =            8  plain     mixing
     Exchange-correlation=  SLA  PW   PBX  PBC
                           (   1   4   3   4   0   0   0)

     celldm(1)=  10.151690  celldm(2)=   0.000000  celldm(3)=   0.000000
     celldm(4)=   0.000000  celldm(5)=   0.000000  celldm(6)=   0.000000

     crystal axes: (cart. coord. in units of alat)
               a(1) = (   1.000000   0.000000   0.000000 )
               a(2) = (  -0.499466   0.873046   0.000000 )
               a(3) = (  -0.192502  -0.283952   1.882430 )

     reciprocal axes: (cart. coord. in units 2 pi/alat)
               b(1) = (  1.000000  0.572095  0.188559 )
               b(2) = (  0.000000  1.145414  0.172778 )
               b(3) = (  0.000000  0.000000  0.531228 )

     PseudoPot. # 1 for K  read from file:
     /home/pragov/projects/rrg-bengioy-ad/pragov/crystal_structure_design/SSSP/K.pbe-spn-kjpaw_psl.1.0.0.UPF
     MD5 check sum: 7d58810084cac21f60fbe77ea2b688fd
     Pseudo is Projector augmented-wave + core cor, Zval =  9.0
     Generated using "atomic" code by A. Dal Corso  v.5.1
     Shape of augmentation charge: PSQ
     Using radial grid of 1165 points,  6 beta functions with:
                l(1) =   0
                l(2) =   0
                l(3) =   1
                l(4) =   1
                l(5) =   2
                l(6) =   2
     Q(r) pseudized with 0 coefficients

     PseudoPot. # 2 for Mg read from file:
     /home/pragov/projects/rrg-bengioy-ad/pragov/crystal_structure_design/SSSP/Mg.pbe-n-kjpaw_psl.0.3.0.UPF
     MD5 check sum: 24ecedc7f3e3cbe212e682f4413594e4
     Pseudo is Projector augmented-wave + core cor, Zval =  2.0
     Generated using "atomic" code by A. Dal Corso  v.5.0.99 svn rev. 10869
     Shape of augmentation charge: PSQ
     Using radial grid of 1129 points,  4 beta functions with:
                l(1) =   0
                l(2) =   0
                l(3) =   1
                l(4) =   1
     Q(r) pseudized with 0 coefficients

     PseudoPot. # 3 for Al read from file:
     /home/pragov/projects/rrg-bengioy-ad/pragov/crystal_structure_design/SSSP/Al.pbe-n-kjpaw_psl.1.0.0.UPF
     MD5 check sum: cfc449ca30b5f3223ec38ddd88ac046d
     Pseudo is Projector augmented-wave + core cor, Zval =  3.0
     Generated using "atomic" code by A. Dal Corso  v.5.1
     Shape of augmentation charge: PSQ
     Using radial grid of 1135 points,  6 beta functions with:
                l(1) =   0
                l(2) =   0
                l(3) =   1
                l(4) =   1
                l(5) =   2
                l(6) =   2
     Q(r) pseudized with 0 coefficients

     PseudoPot. # 4 for Si read from file:
     /home/pragov/projects/rrg-bengioy-ad/pragov/crystal_structure_design/SSSP/Si.pbe-n-rrkjus_psl.1.0.0.UPF
     MD5 check sum: 0b0bb1205258b0d07b9f9672cf965d36
     Pseudo is Ultrasoft + core correction, Zval =  4.0
     Generated using "atomic" code by A. Dal Corso  v.5.1
     Using radial grid of 1141 points,  6 beta functions with:
                l(1) =   0
                l(2) =   0
                l(3) =   1
                l(4) =   1
                l(5) =   2
                l(6) =   2
     Q(r) pseudized with 0 coefficients

     PseudoPot. # 5 for O  read from file:
     /home/pragov/projects/rrg-bengioy-ad/pragov/crystal_structure_design/SSSP/O.pbe-n-kjpaw_psl.0.1.UPF
     MD5 check sum: 0234752ac141de4415c5fc33072bef88
     Pseudo is Projector augmented-wave + core cor, Zval =  6.0
     Generated using "atomic" code by A. Dal Corso  v.5.0.99 svn rev. 10869
     Shape of augmentation charge: BESSEL
     Using radial grid of 1095 points,  4 beta functions with:
                l(1) =   0
                l(2) =   0
                l(3) =   1
                l(4) =   1
     Q(r) pseudized with 0 coefficients

     PseudoPot. # 6 for F  read from file:
     /home/pragov/projects/rrg-bengioy-ad/pragov/crystal_structure_design/SSSP/f_pbe_v1.4.uspp.F.UPF
     MD5 check sum: 4c38b6a325caf53ec0e86aed9459de46
     Pseudo is Ultrasoft, Zval =  7.0
     Generated by new atomic code, or converted to UPF format
     Using radial grid of  799 points,  4 beta functions with:
                l(1) =   0
                l(2) =   0
                l(3) =   1
                l(4) =   1
     Q(r) pseudized with  8 coefficients,  rinner =    0.950   0.950   0.950

     atomic species   valence    mass     pseudopotential
        K              9.00    39.09830     K ( 1.00)
        Mg             2.00    24.30500     Mg( 1.00)
        Al             3.00    26.98154     Al( 1.00)
        Si             4.00    28.08500     Si( 1.00)
        O              6.00    15.99900     O ( 1.00)
        F              7.00    18.99840     F ( 1.00)

     No symmetry found

                                    s                        frac. trans.

      isym =  1     identity

 cryst.   s( 1) = (     1          0          0      )
                  (     0          1          0      )
                  (     0          0          1      )

 cart.    s( 1) = (  1.0000000  0.0000000  0.0000000 )
                  (  0.0000000  1.0000000  0.0000000 )
                  (  0.0000000  0.0000000  1.0000000 )

   Cartesian axes

     site n.     atom                  positions (alat units)
         1           K   tau(   1) = (   0.3127351   0.5886109   1.5308468  )
         2           Mg  tau(   2) = (   0.1585168   0.2944947   0.6418729  )
         3           Mg  tau(   3) = (   0.6571068   0.0041868   0.6459239  )
         4           Mg  tau(   4) = (  -0.3366905   0.5796577   0.6398889  )
         5           Al  tau(   5) = (   0.3117238   0.0012562   1.1558253  )
         6           Si  tau(   6) = (  -0.1848994   0.2952445   1.1655349  )
         7           Si  tau(   7) = (  -0.0011356   0.5833941   0.1258781  )
         8           Si  tau(   8) = (   0.4991036   0.2922467   0.1261642  )
         9           O   tau(   9) = (   0.3194363   0.0011616   0.8254494  )
        10           O   tau(  10) = (  -0.1803267   0.2977654   0.8545085  )
        11           O   tau(  11) = (   0.5008071   0.0013229   0.0185890  )
        12           O   tau(  12) = (  -0.2516313   0.4389416   0.0147583  )
        13           O   tau(  13) = (  -0.0016629   0.5814300   0.4280910  )
        14           O   tau(  14) = (   0.5000325   0.2945513   0.4282529  )
        15           O   tau(  15) = (  -0.1906041   0.5752126   1.2785033  )
        16           O   tau(  16) = (   0.5739624   0.1489399   1.2725642  )
        17           O   tau(  17) = (   0.0575156   0.1563619   1.2788948  )
        18           O   tau(  18) = (   0.2484527   0.4365372   0.0160552  )
        19           O   tau(  19) = (  -0.0038129   0.0021971   0.4675448  )
        20           F   tau(  20) = (   0.3211353   0.5777360   0.8265920  )

   Crystallographic axes

     site n.     atom                  positions (cryst. coord.)
         1           K   tau(   1) = (  0.9381320  0.9387000  0.8132290  )
         2           Mg  tau(   2) = (  0.4480270  0.4482200  0.3409810  )
         3           Mg  tau(   3) = (  0.7812970  0.1163970  0.3431330  )
         4           Mg  tau(   4) = (  0.1155860  0.7745070  0.3399270  )
         5           Al  tau(   5) = (  0.5303840  0.2011400  0.6140070  )
         6           Si  tau(   6) = (  0.2037810  0.5395560  0.6191650  )
         7           Si  tau(   7) = (  0.3563570  0.6899770  0.0668700  )
         8           Si  tau(   8) = (  0.6900860  0.3565420  0.0670220  )
         9           O   tau(   9) = (  0.4757470  0.1439500  0.4385020  )
        10           O   tau(  10) = (  0.1511490  0.4887050  0.4539390  )
        11           O   tau(  11) = (  0.5050690  0.0047270  0.0098750  )
        12           O   tau(  12) = (  0.0022680  0.5053200  0.0078400  )
        13           O   tau(  13) = (  0.4116910  0.7399430  0.2274140  )
        14           O   tau(  14) = (  0.7492950  0.4113760  0.2275000  )
        15           O   tau(  15) = (  0.3795460  0.8797540  0.6791770  )
        16           O   tau(  16) = (  0.8991240  0.3904690  0.6760220  )
        17           O   tau(  17) = (  0.3881170  0.4000640  0.6793850  )
        18           O   tau(  18) = (  0.5012210  0.5027900  0.0085290  )
        19           O   tau(  19) = (  0.0856040  0.0832980  0.2483730  )
        20           F   tau(  20) = (  0.8075170  0.8045640  0.4391090  )

     number of k points=     1  Methfessel-Paxton smearing, width (Ry)=  0.0010
                       cart. coord. in units 2pi/alat
        k(    1) = (   0.0000000   0.0000000   0.0000000), wk =   2.0000000

                       cryst. coord.
        k(    1) = (   0.0000000   0.0000000   0.0000000), wk =   2.0000000

     Check: negative core charge=   -0.000008

     Initial potential from superposition of free atoms

     starting charge     102.9744, renormalised to     103.0000
     Starting wfcs are   84 randomized atomic wfcs
     Checking if some PAW data can be deallocated...

     Self-consistent Calculation

     iteration #  1     ecut=    30.00 Ry     beta= 0.70
     Davidson diagonalization with overlap

     ethr =  1.00E-02,  avg # of iterations =  5.0

     total energy              =    -794.13512839 Ry
     estimated scf accuracy    <       4.10878538 Ry

[...]

     ethr =  2.87E-05,  avg # of iterations =  1.0
     Minimization algorithm failed to find Fermi energy: reverting to bisection
     Possible cause: smearing is larger than the electronic band-gap.

[...]

     total energy              =    -795.88133555 Ry
     estimated scf accuracy    <       0.00000148 Ry

     iteration # 60     ecut=    30.00 Ry     beta= 0.70
     Davidson diagonalization with overlap

     ethr =  1.44E-09,  avg # of iterations =  1.0

     End of self-consistent calculation

          k = 0.0000 0.0000 0.0000 (  2385 PWs)   bands (ev):

   -24.4989 -18.2325 -16.2022 -15.0865 -14.5873 -14.5674 -14.1062 -13.9887
   -13.5463 -13.5259 -13.5211 -12.9672 -11.5680  -8.0165  -7.9711  -7.9679
    -5.9559  -3.8238  -2.2625  -2.2465  -2.2048  -0.9972  -0.9536  -0.7981
    -0.6633  -0.3662  -0.3119  -0.1134   0.0625   0.2130   0.4639   0.5893
     0.6649   0.6954   0.9159   0.9708   1.5887   1.7115   1.8523   1.8725
     1.9186   2.0240   2.0628   2.3283   2.4154   2.5195   2.6196   2.7936
     3.4000   3.5017   3.5089   3.5143   7.9947   9.5713  10.7236  11.1728
    11.5668  11.8996  11.9537  12.0398  12.8442  12.9386

     occupation numbers
     1.0000   1.0000   1.0000   1.0000   1.0000   1.0000   1.0000   1.0000
     1.0000   1.0000   1.0000   1.0000   1.0000   1.0000   1.0000   1.0000
     1.0000   1.0000   1.0000   1.0000   1.0000   1.0000   1.0000   1.0000
     1.0000   1.0000   1.0000   1.0000   1.0000   1.0000   1.0000   1.0000
     1.0000   1.0000   1.0000   1.0000   1.0000   1.0000   1.0000   1.0000
     1.0000   1.0000   1.0000   1.0000   1.0000   1.0000   1.0000   1.0000
     1.0000   1.0288   0.8772   0.5940  -0.0000  -0.0000  -0.0000  -0.0000
    -0.0000  -0.0000  -0.0000  -0.0000  -0.0000  -0.0000

     the Fermi energy is     3.5158 ev

!    total energy              =    -795.88133512 Ry
     estimated scf accuracy    <       0.00000051 Ry
     smearing contrib. (-TS)   =      -0.00026306 Ry
     internal energy E=F+TS    =    -795.88107206 Ry

     The total energy is F=E-TS. E is the sum of the following terms:
     one-electron contribution =    -212.35253595 Ry
     hartree contribution      =     165.35346994 Ry
     xc contribution           =    -130.48086758 Ry
     ewald contribution        =    -329.88049012 Ry
     one-center paw contrib.   =    -288.52064835 Ry
      -> PAW hartree energy AE =     389.63206782 Ry
      -> PAW hartree energy PS =    -388.11939782 Ry
      -> PAW xc energy AE      =    -393.41273559 Ry
      -> PAW xc energy PS      =     103.37941725 Ry
      -> total E_H with PAW    =     166.86613994 Ry
      -> total E_XC with PAW   =    -420.51418593 Ry

     convergence has been achieved in  60 iterations

     Forces acting on atoms (cartesian axes, Ry/au):

     atom    1 type  1   force =    -0.00012692   -0.00043325    0.00796481
     atom    2 type  2   force =    -0.00501178   -0.00816186   -0.01186662
     atom    3 type  2   force =     0.01342650   -0.00160211   -0.01295053
     atom    4 type  2   force =    -0.00856887    0.01064491   -0.01197910
     atom    5 type  3   force =    -0.00014265   -0.00073305   -0.00809596
     atom    6 type  4   force =    -0.00032807    0.00080403   -0.01116189
     atom    7 type  4   force =     0.00080438   -0.00013034   -0.01024956
     atom    8 type  4   force =    -0.00023605   -0.00051314   -0.00997766
     atom    9 type  5   force =     0.00639917    0.00097984    0.01816650
     atom   10 type  5   force =    -0.00286912    0.00241117    0.02314834
     atom   11 type  5   force =     0.00137148   -0.00029370    0.01424941
     atom   12 type  5   force =    -0.00072329    0.00208955    0.01166227
     atom   13 type  5   force =     0.00083271    0.00172545    0.00005042
     atom   14 type  5   force =    -0.00047049   -0.00142931    0.00092353
     atom   15 type  5   force =    -0.00345348    0.00016973   -0.00641483
     atom   16 type  5   force =     0.00382858   -0.00322809   -0.01081308
     atom   17 type  5   force =     0.00020601    0.00402527   -0.00672566
     atom   18 type  5   force =    -0.00078226   -0.00158311    0.01197390
     atom   19 type  5   force =    -0.00066181    0.00031952    0.00559768
     atom   20 type  6   force =    -0.00349405   -0.00506149    0.00649805
     The non-local contrib.  to forces
     atom    1 type  1   force =    -0.00025844   -0.00164863   -0.01008636
     atom    2 type  2   force =     0.01525792    0.06810076    0.01024034
     atom    3 type  2   force =    -0.01846811   -0.01809963    0.01427354
     atom    4 type  2   force =    -0.00953119   -0.05317089    0.00937619
     atom    5 type  3   force =    -0.00222829   -0.00442422    0.03173775
     atom    6 type  4   force =    -0.00284710    0.00223859    0.00778888
     atom    7 type  4   force =     0.00033863    0.00852131   -0.20586626
     atom    8 type  4   force =     0.00059537   -0.00912988   -0.20592071
     atom    9 type  5   force =    -0.03007085   -0.00315397    0.47244493
     atom   10 type  5   force =    -0.05428340    0.03610216    0.83426467
     atom   11 type  5   force =    -0.02741232   -0.00032097    0.96316908
     atom   12 type  5   force =     0.00853038   -0.00756419    1.00752892
     atom   13 type  5   force =     0.00336722   -0.03194666   -0.95820884
     atom   14 type  5   force =     0.02447646    0.01538930   -0.96140926
     atom   15 type  5   force =     0.03625575   -0.43122232   -0.89213646
     atom   16 type  5   force =     0.36370556    0.25333264   -0.84141011
     atom   17 type  5   force =    -0.38718338    0.18951874   -0.90611333
     atom   18 type  5   force =     0.01210374    0.01197880    0.99565478
     atom   19 type  5   force =    -0.10056780    0.01180112    0.33289572
     atom   20 type  6   force =    -0.06835714   -0.07967672   -0.57720012
     The ionic contribution  to forces
     atom    1 type  1   force =    -0.05307458   -0.05439770    2.32911266
     atom    2 type  2   force =    -0.11923845   -0.08968565   -0.11747644
     atom    3 type  2   force =     0.01428341    0.08841758   -0.05417445
     atom    4 type  2   force =     0.07830250   -0.02416142   -0.11526396
     atom    5 type  3   force =    -0.04328980   -0.04494505    0.78687464
     atom    6 type  4   force =    -0.00046034    0.04229056    0.88095103
     atom    7 type  4   force =    -0.01776358    0.06982109   -1.88239775
     atom    8 type  4   force =     0.01399041   -0.08608175   -1.91512634
     atom    9 type  5   force =     0.18199249   -0.02726446    0.11876699
     atom   10 type  5   force =     0.10123030   -0.02651052   -2.02831094
     atom   11 type  5   force =     0.09505378    0.05344065   -5.66585882
     atom   12 type  5   force =    -0.05534346   -0.01479026   -5.81302868
     atom   13 type  5   force =    -0.12773067    0.00422917    2.03845104
     atom   14 type  5   force =     0.08864585   -0.12830533    2.03284352
     atom   15 type  5   force =    -0.09973637    2.27048048    5.08399832
     atom   16 type  5   force =    -1.94409762   -1.21900785    4.98797978
     atom   17 type  5   force =     2.02799073   -1.06115975    5.10589401
     atom   18 type  5   force =     0.00757551   -0.05424007   -5.78025891
     atom   19 type  5   force =    -0.08426764    0.14954089   -4.08059133
     atom   20 type  6   force =    -0.06406245    0.15232939    4.08761566
     The local contribution  to forces
     atom    1 type  1   force =     0.05320265    0.05551810   -2.31148081
     atom    2 type  2   force =     0.10068940    0.02171971    0.09651942
     atom    3 type  2   force =     0.01532296   -0.07398955    0.02879031
     atom    4 type  2   force =    -0.07833405    0.08120302    0.09511741
     atom    5 type  3   force =     0.04492093    0.04797417   -0.82471264
     atom    6 type  4   force =     0.00268374   -0.04324392   -0.90252387
     atom    7 type  4   force =     0.01816195   -0.07732915    2.05271547
     atom    8 type  4   force =    -0.01467862    0.09340417    2.08573233
     atom    9 type  5   force =    -0.14578273    0.03136683   -0.56795716
     atom   10 type  5   force =    -0.05038508   -0.00670820    1.22539882
     atom   11 type  5   force =    -0.06659008   -0.05339906    4.72529840
     atom   12 type  5   force =     0.04616729    0.02437988    4.82594177
     atom   13 type  5   force =     0.12525250    0.02908159   -1.08870914
     atom   14 type  5   force =    -0.11333936    0.11168759   -1.07904566
     atom   15 type  5   force =     0.06037189   -1.84293445   -4.20603113
     atom   16 type  5   force =     1.58747259    0.96472939   -4.16455947
     atom   17 type  5   force =    -1.64405318    0.87735825   -4.21432524
     atom   18 type  5   force =    -0.02035096    0.04080030    4.80521166
     atom   19 type  5   force =     0.18298584   -0.16091928    3.75579409
     atom   20 type  6   force =     0.12887470   -0.07779831   -3.50336231
     The core correction contribution to forces
     atom    1 type  1   force =     0.00000377    0.00008946   -0.00009264
     atom    2 type  2   force =    -0.00170739   -0.00822918   -0.00108738
     atom    3 type  2   force =     0.00226469    0.00207726   -0.00177297
     atom    4 type  2   force =     0.00100687    0.00671643   -0.00114915
     atom    5 type  3   force =     0.00044962    0.00068034   -0.00175032
     atom    6 type  4   force =     0.00030693   -0.00049310    0.00290277
     atom    7 type  4   force =     0.00005841   -0.00114211    0.02505621
     atom    8 type  4   force =    -0.00015104    0.00130296    0.02510010
     atom    9 type  5   force =     0.00044897    0.00004684   -0.00452947
     atom   10 type  5   force =     0.00053614   -0.00040782   -0.00764732
     atom   11 type  5   force =     0.00029424   -0.00000825   -0.00879555
     atom   12 type  5   force =    -0.00007828    0.00008110   -0.00921632
     atom   13 type  5   force =    -0.00006316    0.00034440    0.00845242
     atom   14 type  5   force =    -0.00025251   -0.00017416    0.00847071
     atom   15 type  5   force =    -0.00035380    0.00380888    0.00785188
     atom   16 type  5   force =    -0.00320941   -0.00226926    0.00732327
     atom   17 type  5   force =     0.00342486   -0.00165955    0.00793402
     atom   18 type  5   force =    -0.00011181   -0.00013038   -0.00907490
     atom   19 type  5   force =     0.00121070   -0.00010673   -0.00250417
     atom   20 type  6   force =     0.00000000    0.00000000    0.00000000
     The Hubbard contrib.    to forces
     atom    1 type  1   force =     0.00000000    0.00000000    0.00000000
     atom    2 type  2   force =     0.00000000    0.00000000    0.00000000
     atom    3 type  2   force =     0.00000000    0.00000000    0.00000000
     atom    4 type  2   force =     0.00000000    0.00000000    0.00000000
     atom    5 type  3   force =     0.00000000    0.00000000    0.00000000
     atom    6 type  4   force =     0.00000000    0.00000000    0.00000000
     atom    7 type  4   force =     0.00000000    0.00000000    0.00000000
     atom    8 type  4   force =     0.00000000    0.00000000    0.00000000
     atom    9 type  5   force =     0.00000000    0.00000000    0.00000000
     atom   10 type  5   force =     0.00000000    0.00000000    0.00000000
     atom   11 type  5   force =     0.00000000    0.00000000    0.00000000
     atom   12 type  5   force =     0.00000000    0.00000000    0.00000000
     atom   13 type  5   force =     0.00000000    0.00000000    0.00000000
     atom   14 type  5   force =     0.00000000    0.00000000    0.00000000
     atom   15 type  5   force =     0.00000000    0.00000000    0.00000000
     atom   16 type  5   force =     0.00000000    0.00000000    0.00000000
     atom   17 type  5   force =     0.00000000    0.00000000    0.00000000
     atom   18 type  5   force =     0.00000000    0.00000000    0.00000000
     atom   19 type  5   force =     0.00000000    0.00000000    0.00000000
     atom   20 type  6   force =     0.00000000    0.00000000    0.00000000
     The SCF correction term to forces
     atom    1 type  1   force =     0.00000011    0.00001083    0.00048933
     atom    2 type  2   force =    -0.00001283   -0.00006217   -0.00008521
     atom    3 type  2   force =     0.00002398   -0.00000245   -0.00008959
     atom    4 type  2   force =    -0.00001257    0.00006308   -0.00008222
     atom    5 type  3   force =     0.00000532   -0.00001298   -0.00026803
     atom    6 type  4   force =    -0.00001086    0.00001722   -0.00030334
     atom    7 type  4   force =     0.00000939    0.00000383    0.00022014
     atom    8 type  4   force =     0.00000825   -0.00000332    0.00021433
     atom    9 type  5   force =    -0.00018827   -0.00001009   -0.00058143
     atom   10 type  5   force =     0.00003335   -0.00005913   -0.00057952
     atom   11 type  5   force =     0.00002629   -0.00000075    0.00041367
     atom   12 type  5   force =     0.00000121   -0.00001164    0.00041393
     atom   13 type  5   force =     0.00000725    0.00002228    0.00004230
     atom   14 type  5   force =    -0.00000050   -0.00002139    0.00004158
     atom   15 type  5   force =     0.00000949    0.00004247   -0.00012007
     atom   16 type  5   force =    -0.00004211   -0.00000769   -0.00016918
     atom   17 type  5   force =     0.00002742   -0.00002710   -0.00013775
     atom   18 type  5   force =     0.00000170    0.00001356    0.00041864
     atom   19 type  5   force =    -0.00002247    0.00000883   -0.00001928
     atom   20 type  6   force =     0.00005128    0.00008948   -0.00057782

     Total force =     0.056245     Total SCF correction =     0.001476

     Computing stress (Cartesian axis) and pressure

          total   stress  (Ry/bohr**3)                   (kbar)     P=     -315.31
  -0.00210704   0.00000016   0.00000674         -309.96        0.02        0.99
   0.00000016  -0.00208430   0.00000111            0.02     -306.61        0.16
   0.00000674   0.00000111  -0.00223897            0.99        0.16     -329.36

     kinetic stress (kbar)  14102.08     -1.85    -53.05
                               -1.85  14122.48     -4.65
                              -53.05     -4.65  13984.06

     local   stress (kbar) -10350.31    -10.42    -45.22
                              -10.42 -10340.03     62.54
                              -45.22     62.54  -7087.76

     nonloc. stress (kbar)   2720.83      0.02      2.64
                                0.02   2727.16     -0.47
                                2.64     -0.47   2710.49

     hartree stress (kbar)   5154.26      3.66     29.77
                                3.66   5088.60    -24.04
                               29.77    -24.04   3904.31

     exc-cor stress (kbar)  -1320.05      0.02     -0.38
                                0.02  -1318.99     -0.10
                               -0.38     -0.10  -1321.90

     corecor stress (kbar)  -1833.26      0.02     -0.03
                                0.02  -1834.59      0.01
                               -0.03      0.01  -1829.68

     ewald   stress (kbar)  -8783.51      8.59     67.26
                                8.59  -8751.25    -33.13
                               67.26    -33.13 -10688.88

     hubbard stress (kbar)      0.00      0.00      0.00
                                0.00      0.00      0.00
                                0.00      0.00      0.00

     DFT-D   stress (kbar)      0.00      0.00      0.00
                                0.00      0.00      0.00
                                0.00      0.00      0.00

     XDM     stress (kbar)      0.00      0.00      0.00
                                0.00      0.00      0.00
                                0.00      0.00      0.00

     dft-nl  stress (kbar)      0.00      0.00      0.00
                                0.00      0.00      0.00
                                0.00      0.00      0.00

     TS-vdW  stress (kbar)      0.00      0.00      0.00
                                0.00      0.00      0.00
                                0.00      0.00      0.00

[...]

                                0.00      0.00      0.00

     Writing all to output data dir new_calculations/myprefix.save/

     General routines

     Parallel routines

     PAW routines

   This run was terminated on:  20: 3:41  20May2023

   JOB DONE.