     Program PWSCF v.7.0 starts on 21May2023 at  5:34:25

     Reading input from espresso_8127.pwi
Warning: card &CELL ignored
Warning: card / ignored

     Current dimensions of program PWSCF are:
     Max number of different atomic species (ntypx) = 10
     Max number of k-points (npk) =  40000
     Max angular momentum in pseudopotentials (lmaxx) =  4
     file Ba.pbe-spn-kjpaw_psl.1.0.0.UPF: wavefunction(s)  5S 6S renormalized
     file O.pbe-n-kjpaw_psl.0.1.UPF: wavefunction(s)  2P renormalized

     gamma-point specific algorithms are used

     Subspace diagonalization in iterative solution of the eigenvalue problem:
     a serial algorithm will be used

     Using Slab Decomposition

     bravais-lattice index     =            0
     lattice parameter (alat)  =      16.1434  a.u.
     unit-cell volume          =    1192.9821 (a.u.)^3
     number of atoms/cell      =           13
     number of atomic types    =            4
     number of electrons       =       102.00
     number of Kohn-Sham states=           61
     kinetic-energy cutoff     =      30.0000  Ry
     charge density cutoff     =     240.0000  Ry
     scf convergence threshold =      1.0E-06
     mixing beta               =       0.7000
     number of iterations used =            8  plain     mixing
     Exchange-correlation= SLA  PW   PBX  PBC
                           (   1   4   3   4   0   0   0)

     celldm(1)=  16.143387  celldm(2)=   0.000000  celldm(3)=   0.000000
     celldm(4)=   0.000000  celldm(5)=   0.000000  celldm(6)=   0.000000

     crystal axes: (cart. coord. in units of alat)
               a(1) = (   1.000000   0.000000   0.000000 )
               a(2) = (   0.844589   0.573138   0.000000 )
               a(3) = (   0.839498   0.263337   0.494756 )

     reciprocal axes: (cart. coord. in units 2 pi/alat)
               b(1) = (  1.000000 -1.473624 -0.912446 )
               b(2) = (  0.000000  1.744781 -0.928671 )
               b(3) = (  0.000000  0.000000  2.021199 )

     PseudoPot. # 1 for Ba read from file:
     /home/pragov/projects/rrg-bengioy-ad/pragov/crystal_structure_design/SSSP/Ba.pbe-spn-kjpaw_psl.1.0.0.UPF
     MD5 check sum: c432291d3e53af55f19d5e8866385beb
     Pseudo is Projector augmented-wave + core cor, Zval = 10.0
     Generated using "atomic" code by A. Dal Corso  v.5.1
     Shape of augmentation charge: PSQ
     Using radial grid of 1251 points,  7 beta functions with:
                l(1) =   0
                l(2) =   0
                l(3) =   0
                l(4) =   1
                l(5) =   1
                l(6) =   2
                l(7) =   2
     Q(r) pseudized with 0 coefficients

     PseudoPot. # 2 for Co read from file:
     /home/pragov/projects/rrg-bengioy-ad/pragov/crystal_structure_design/SSSP/Co_pbe_v1.2.uspp.F.UPF
     MD5 check sum: 5f91765df6ddd3222702df6e7b74a16d
     Pseudo is Ultrasoft + core correction, Zval = 17.0
     Generated by new atomic code, or converted to UPF format
     Using radial grid of  863 points,  6 beta functions with:
                l(1) =   0
                l(2) =   0
                l(3) =   1
                l(4) =   1
                l(5) =   2
                l(6) =   2
     Q(r) pseudized with  8 coefficients,  rinner =    1.200   1.200   1.200
                                                       1.200   1.200

     PseudoPot. # 3 for As read from file:
     /home/pragov/projects/rrg-bengioy-ad/pragov/crystal_structure_design/SSSP/As.pbe-n-rrkjus_psl.0.2.UPF
     MD5 check sum: 767315de957beeeb34f87d97bf945c8f
     Pseudo is Ultrasoft + core correction, Zval =  5.0
     Generated using "atomic" code by A. Dal Corso  v.5.0.99 svn rev. 10869
     Using radial grid of 1209 points,  4 beta functions with:
                l(1) =   0
                l(2) =   0
                l(3) =   1
                l(4) =   1
     Q(r) pseudized with 0 coefficients

     PseudoPot. # 4 for O  read from file:
     /home/pragov/projects/rrg-bengioy-ad/pragov/crystal_structure_design/SSSP/O.pbe-n-kjpaw_psl.0.1.UPF
     MD5 check sum: 0234752ac141de4415c5fc33072bef88
     Pseudo is Projector augmented-wave + core cor, Zval =  6.0
     Generated using "atomic" code by A. Dal Corso  v.5.0.99 svn rev. 10869
     Shape of augmentation charge: BESSEL
     Using radial grid of 1095 points,  4 beta functions with:
                l(1) =   0
                l(2) =   0
                l(3) =   1
                l(4) =   1
     Q(r) pseudized with 0 coefficients

     atomic species   valence    mass     pseudopotential
        Ba            10.00   137.32700     Ba( 1.00)
        Co            17.00    58.93319     Co( 1.00)
        As             5.00    74.92159     As( 1.00)
        O              6.00    15.99900     O ( 1.00)

     No symmetry found

                                    s                        frac. trans.

      isym =  1     identity

 cryst.   s( 1) = (     1          0          0      )
                  (     0          1          0      )
                  (     0          0          1      )

 cart.    s( 1) = (  1.0000000  0.0000000  0.0000000 )
                  (  0.0000000  1.0000000 -0.0000000 )
                  (  0.0000000  0.0000000  1.0000000 )

   Cartesian axes

     site n.     atom                  positions (alat units)
         1           Ba  tau(   1) = (   1.8395934   0.2638555   0.4945476  )
         2           Co  tau(   2) = (   2.2309455   0.6967294   0.4156944  )
         3           Co  tau(   3) = (   0.4536258   0.1410813   0.0793801  )
         4           As  tau(   4) = (   1.1506486   0.3535442   0.2125600  )
         5           As  tau(   5) = (   1.5334405   0.4828646   0.2821776  )
         6           O   tau(   6) = (   1.4794839   0.3593200   0.4355168  )
         7           O   tau(   7) = (   1.4183682   0.6528924   0.2745089  )
         8           O   tau(   8) = (   1.5291501   0.3817067   0.1049981  )
         9           O   tau(   9) = (   1.2048504   0.4760662   0.0586380  )
        10           O   tau(  10) = (   1.2658758   0.1832159   0.2205265  )
        11           O   tau(  11) = (   0.9627032   0.2980206   0.1799580  )
        12           O   tau(  12) = (   1.7210641   0.5394625   0.3141156  )
        13           O   tau(  13) = (   1.1542695   0.4534266   0.3906691  )

   Crystallographic axes

     site n.     atom                  positions (cryst. coord.)
         1           Ba  tau(   1) = (  0.9995220  0.0010980  0.9995790  )
         2           Co  tau(   2) = (  0.8249300  0.8295970  0.8402010  )
         3           Co  tau(   3) = (  0.1732950  0.1724380  0.1604430  )
         4           As  tau(   4) = (  0.4357080  0.4194590  0.4296260  )
         5           As  tau(   5) = (  0.5644080  0.5804430  0.5703370  )
         6           O   tau(   6) = (  0.5525960  0.2224830  0.8802660  )
         7           O   tau(   7) = (  0.2057760  0.8842260  0.5548370  )
         8           O   tau(   8) = (  0.8708530  0.5684860  0.2122220  )
         9           O   tau(   9) = (  0.4498040  0.7761760  0.1185190  )
        10           O   tau(  10) = (  0.7946660  0.1148750  0.4457280  )
        11           O   tau(  11) = (  0.3593310  0.3528590  0.3637310  )
        12           O   tau(  12) = (  0.6394860  0.6495340  0.6348900  )
        13           O   tau(  13) = (  0.1296250  0.4283270  0.7896200  )

     number of k points=     1  Methfessel-Paxton smearing, width (Ry)=  0.0010
                       cart. coord. in units 2pi/alat
        k(    1) = (   0.0000000   0.0000000   0.0000000), wk =   2.0000000

                       cryst. coord.
        k(    1) = (   0.0000000   0.0000000   0.0000000), wk =   2.0000000

     Check: negative core charge=   -0.000013

     Initial potential from superposition of free atoms

     starting charge      99.9825, renormalised to     102.0000
     Starting wfcs are   71 randomized atomic wfcs
     Checking if some PAW data can be deallocated...

     Self-consistent Calculation

     iteration #  1     ecut=    30.00 Ry     beta= 0.70
     Davidson diagonalization with overlap

     ethr =  1.00E-02,  avg # of iterations =  5.0

     negative rho (up, down):  3.437E-02 0.000E+00

     total energy              =   -1400.15870342 Ry
     estimated scf accuracy    <       4.03924963 Ry

[...]

     negative rho (up, down):  2.422E-05 0.000E+00

[...]

     c_bands:  1 eigenvalues not converged
     ethr =  2.22E-06,  avg # of iterations = 20.0

[...]

     total energy              =   -1402.30320163 Ry
     estimated scf accuracy    <       0.00000341 Ry

     iteration # 24     ecut=    30.00 Ry     beta= 0.70
     Davidson diagonalization with overlap

     ethr =  3.35E-09,  avg # of iterations =  1.0

     End of self-consistent calculation

          k = 0.0000 0.0000 0.0000 (  1666 PWs)   bands (ev):

   -86.4777 -86.4722 -50.0081 -49.9929 -49.9261 -49.9209 -49.3139 -49.3030
   -19.1592 -13.5001 -13.1300 -11.3282 -11.2836 -11.2190 -11.1324 -11.1005
   -10.8793  -4.3922  -4.2422  -4.2317  -2.7565  -2.0855   0.4936   0.5723
     0.8056   0.8716   1.3761   2.2838   2.8321   2.9715   3.2675   3.3240
     3.3864   3.9019   3.9130   4.0883   4.1362   4.9687   5.1109   5.1246
     5.1995   5.2998   5.3917   5.4462   7.3149   7.5146   7.6563   7.6974
     8.0220   8.0517   8.8562   8.8773   8.9816   9.1328   9.3201  10.8043
    12.5883  12.7415  12.8267  13.7838  14.5428

     occupation numbers
     1.0000   1.0000   1.0000   1.0000   1.0000   1.0000   1.0000   1.0000
     1.0000   1.0000   1.0000   1.0000   1.0000   1.0000   1.0000   1.0000
     1.0000   1.0000   1.0000   1.0000   1.0000   1.0000   1.0000   1.0000
     1.0000   1.0000   1.0000   1.0000   1.0000   1.0000   1.0000   1.0000
     1.0000   1.0000   1.0000   1.0000   1.0000   1.0000   1.0000   1.0000
     1.0000   1.0000   1.0000   1.0000   1.0000   1.0000   1.0000   1.0000
     1.0000   1.0000   0.9843   0.0157  -0.0000  -0.0000  -0.0000  -0.0000
    -0.0000  -0.0000  -0.0000  -0.0000  -0.0000

     the Fermi energy is     8.8667 ev

!    total energy              =   -1402.30320166 Ry
     estimated scf accuracy    <       0.00000024 Ry
     smearing contrib. (-TS)   =       0.00006504 Ry
     internal energy E=F+TS    =   -1402.30326670 Ry

     The total energy is F=E-TS. E is the sum of the following terms:
     one-electron contribution =    -846.73393770 Ry
     hartree contribution      =     477.30229638 Ry
     xc contribution           =    -163.31556828 Ry
     ewald contribution        =    -418.39695774 Ry
     one-center paw contrib.   =    -451.15909935 Ry
      -> PAW hartree energy AE =     263.12340397 Ry
      -> PAW hartree energy PS =    -262.19761434 Ry
      -> PAW xc energy AE      =    -531.19995905 Ry
      -> PAW xc energy PS      =      79.11507007 Ry
      -> total E_H with PAW    =     478.22808601 Ry
      -> total E_XC with PAW   =    -615.40045727 Ry

     convergence has been achieved in  24 iterations

     Forces acting on atoms (cartesian axes, Ry/au):

     atom    1 type  1   force =     0.00021925   -0.00019415    0.00001305
     atom    2 type  2   force =    -0.00265407   -0.00522608    0.03789063
     atom    3 type  2   force =    -0.00032277   -0.00412909   -0.03855766
     atom    4 type  3   force =     0.01912120   -0.00155055    0.00064753
     atom    5 type  3   force =    -0.01852673    0.00211083    0.00087257
     atom    6 type  4   force =    -0.01343255   -0.00529956    0.04314932
     atom    7 type  4   force =    -0.05101809    0.08315695   -0.00688077
     atom    8 type  4   force =    -0.00164714   -0.01591397   -0.04599675
     atom    9 type  4   force =     0.01359498    0.00951073   -0.04118069
     atom   10 type  4   force =     0.05079984   -0.08051254    0.00671641
     atom   11 type  4   force =    -0.01481775   -0.00589395   -0.00237270
     atom   12 type  4   force =     0.01686618    0.00534820    0.00320121
     atom   13 type  4   force =     0.00181765    0.01859319    0.04249783
     The non-local contrib.  to forces
     atom    1 type  1   force =    -0.00005752    0.00015668    0.00005301
     atom    2 type  2   force =    -0.01336301   -0.00264287    0.02703413
     atom    3 type  2   force =     0.01484319    0.00565788   -0.02890552
     atom    4 type  3   force =    -0.00599950   -0.00277907    0.00509685
     atom    5 type  3   force =     0.00342829    0.00345489   -0.00570257
     atom    6 type  4   force =    -0.30454713    0.97130329   -0.88924141
     atom    7 type  4   force =     0.01782130   -1.22242207   -0.08329652
     atom    8 type  4   force =    -0.60735024    0.82898065    0.85802888
     atom    9 type  4   force =     0.31130438   -0.96201644    0.90579909
     atom   10 type  4   force =    -0.01164005    1.23400131    0.08236329
     atom   11 type  4   force =     1.50572836    0.44826740    0.28754161
     atom   12 type  4   force =    -1.49889897   -0.45913299   -0.27986640
     atom   13 type  4   force =     0.62030865   -0.81869745   -0.87228459
     The ionic contribution  to forces
     atom    1 type  1   force =    -0.00149872   -0.00851328    0.00806809
     atom    2 type  2   force =    -2.72329250   -1.24873756   -0.77827818
     atom    3 type  2   force =     2.85895376    0.96847804    0.73918356
     atom    4 type  3   force =   -10.42797943   -2.61368340   -1.93359294
     atom    5 type  3   force =    10.43407017    2.65521045    1.95988672
     atom    6 type  4   force =    18.46751961    5.27776872    0.65199245
     atom    7 type  4   force =    18.78008058    2.51514523    3.32689589
     atom    8 type  4   force =    17.49746634    4.62898594    6.04770149
     atom    9 type  4   force =   -18.51201980   -5.11500598   -0.58390738
     atom   10 type  4   force =   -18.87563051   -2.64304092   -3.34891958
     atom   11 type  4   force =    -9.56563176   -2.70695692   -1.89070302
     atom   12 type  4   force =     9.61004349    2.74591211    1.88716558
     atom   13 type  4   force =   -17.54208123   -4.45556243   -6.08549268
     The local contribution  to forces
     atom    1 type  1   force =     0.00172585    0.00817488   -0.00811775
     atom    2 type  2   force =     2.73350324    1.24627739    0.79004755
     atom    3 type  2   force =    -2.87346006   -0.97803835   -0.74969258
     atom    4 type  3   force =    10.46788172    2.61626807    1.93217610
     atom    5 type  3   force =   -10.47099044   -2.65815614   -1.95601242
     atom    6 type  4   force =   -18.18048697   -6.24417319    0.27155446
     atom    7 type  4   force =   -18.84985400   -1.22233378   -3.25125956
     atom    8 type  4   force =   -16.89900909   -5.46488783   -6.94368047
     atom    9 type  4   force =    18.21867660    6.07609535   -0.35427636
     atom   10 type  4   force =    18.93896415    1.34145061    3.27457308
     atom   11 type  4   force =     8.05980372    2.25718404    1.60356314
     atom   12 type  4   force =    -8.10889682   -2.28595124   -1.60680063
     atom   13 type  4   force =    16.93087538    5.28430283    6.99174342
     The core correction contribution to forces
     atom    1 type  1   force =    -0.00001660   -0.00000722   -0.00000386
     atom    2 type  2   force =     0.00063764   -0.00009232   -0.00094902
     atom    3 type  2   force =    -0.00057484   -0.00012213    0.00098210
     atom    4 type  3   force =    -0.01473691   -0.00137630   -0.00303098
     atom    5 type  3   force =     0.01490598    0.00156131    0.00266815
     atom    6 type  4   force =     0.00409283   -0.01047882    0.00874910
     atom    7 type  4   force =     0.00078042    0.01279075    0.00102080
     atom    8 type  4   force =     0.00711414   -0.00891628   -0.00824720
     atom    9 type  4   force =    -0.00418258    0.01034068   -0.00895196
     atom   10 type  4   force =    -0.00082776   -0.01296289   -0.00100983
     atom   11 type  4   force =    -0.01471562   -0.00439838   -0.00278296
     atom   12 type  4   force =     0.01460804    0.00450481    0.00269488
     atom   13 type  4   force =    -0.00728038    0.00878986    0.00844062
     The Hubbard contrib.    to forces
     atom    1 type  1   force =     0.00000000    0.00000000    0.00000000
     atom    2 type  2   force =     0.00000000    0.00000000    0.00000000
     atom    3 type  2   force =     0.00000000    0.00000000    0.00000000
     atom    4 type  3   force =     0.00000000    0.00000000    0.00000000
     atom    5 type  3   force =     0.00000000    0.00000000    0.00000000
     atom    6 type  4   force =     0.00000000    0.00000000    0.00000000
     atom    7 type  4   force =     0.00000000    0.00000000    0.00000000
     atom    8 type  4   force =     0.00000000    0.00000000    0.00000000
     atom    9 type  4   force =     0.00000000    0.00000000    0.00000000
     atom   10 type  4   force =     0.00000000    0.00000000    0.00000000
     atom   11 type  4   force =     0.00000000    0.00000000    0.00000000
     atom   12 type  4   force =     0.00000000    0.00000000    0.00000000
     atom   13 type  4   force =     0.00000000    0.00000000    0.00000000
     The SCF correction term to forces
     atom    1 type  1   force =     0.00005751   -0.00001220    0.00001016
     atom    2 type  2   force =    -0.00014817   -0.00003771    0.00003276
     atom    3 type  2   force =    -0.00009356   -0.00011149   -0.00012860
     atom    4 type  3   force =    -0.00005341    0.00001317   -0.00000487
     atom    5 type  3   force =     0.00005053    0.00003334    0.00002930
     atom    6 type  4   force =    -0.00001962    0.00027346    0.00009134
     atom    7 type  4   force =     0.00014488   -0.00003015   -0.00024477
     atom    8 type  4   force =     0.00012297   -0.00008341    0.00019716
     atom    9 type  4   force =    -0.00019235    0.00009015    0.00015253
     atom   10 type  4   force =    -0.00007472    0.00003237   -0.00029394
     atom   11 type  4   force =    -0.00001119    0.00000294    0.00000515
     atom   12 type  4   force =     0.00000170    0.00000854    0.00000437
     atom   13 type  4   force =    -0.00001351   -0.00024660    0.00008767

     Total force =     0.177527     Total SCF correction =     0.000728

     Computing stress (Cartesian axis) and pressure

          total   stress  (Ry/bohr**3)                   (kbar)     P=     -410.88
  -0.00298847   0.00012266  -0.00000694         -439.62       18.04       -1.02
   0.00012266  -0.00239036   0.00002057           18.04     -351.63        3.03
  -0.00000694   0.00002057  -0.00300052           -1.02        3.03     -441.39

     kinetic stress (kbar)  20302.77    120.04     10.32
                              120.04  20700.56     47.34
                               10.32     47.34  20220.19

     local   stress (kbar)  23516.36  22169.90  14118.78
                            22169.90 -45364.59   4129.99
                            14118.78   4129.99 -51395.22

     nonloc. stress (kbar)   6805.90     62.58      4.43
                               62.58   6889.15     14.09
                                4.43     14.09   6757.07

     hartree stress (kbar)  -3677.14 -10584.74  -6795.27
                           -10584.74  30036.41  -1927.30
                            -6795.27  -1927.30  32496.26

     exc-cor stress (kbar)  -1588.81      0.16     -0.56
                                0.16  -1586.55     -0.37
                               -0.56     -0.37  -1586.90

     corecor stress (kbar)  -4058.81     -3.31     -1.07
                               -3.31  -4053.68     -0.34
                               -1.07     -0.34  -4053.64

     ewald   stress (kbar) -41739.90 -11746.58  -7337.65
                           -11746.58  -6972.94  -2260.38
                            -7337.65  -2260.38  -2879.15

     hubbard stress (kbar)      0.00      0.00      0.00
                                0.00      0.00      0.00
                                0.00      0.00      0.00

     DFT-D   stress (kbar)      0.00      0.00      0.00
                                0.00      0.00      0.00
                                0.00      0.00      0.00

     XDM     stress (kbar)      0.00      0.00      0.00
                                0.00      0.00      0.00
                                0.00      0.00      0.00

     dft-nl  stress (kbar)      0.00      0.00      0.00
                                0.00      0.00      0.00
                                0.00      0.00      0.00

     TS-vdW  stress (kbar)      0.00      0.00      0.00
                                0.00      0.00      0.00
                                0.00      0.00      0.00

[...]

                                0.00      0.00      0.00

     Writing all to output data dir new_calculations/myprefix.save/

     General routines

     Parallel routines

     PAW routines

   This run was terminated on:   5:35: 1  21May2023

   JOB DONE.