     Program PWSCF v.7.0 starts on 20May2023 at  5:40:17

     Reading input from espresso_17071.pwi
Warning: card &CELL ignored
Warning: card / ignored

     Current dimensions of program PWSCF are:
     Max number of different atomic species (ntypx) = 10
     Max number of k-points (npk) =  40000
     Max angular momentum in pseudopotentials (lmaxx) =  4
     file O.pbe-n-kjpaw_psl.0.1.UPF: wavefunction(s)  2P renormalized

     gamma-point specific algorithms are used
     Message from routine setup:
     using ibrav=0 with symmetry is DISCOURAGED, use correct ibrav instead

     Subspace diagonalization in iterative solution of the eigenvalue problem:
     a serial algorithm will be used

     Using Slab Decomposition

     bravais-lattice index     =            0
     lattice parameter (alat)  =       5.7322  a.u.
     unit-cell volume          =     326.5332 (a.u.)^3
     number of atoms/cell      =            4
     number of atomic types    =            3
     number of electrons       =        49.00
     number of Kohn-Sham states=           30
     kinetic-energy cutoff     =      30.0000  Ry
     charge density cutoff     =     240.0000  Ry
     scf convergence threshold =      1.0E-06
     mixing beta               =       0.7000
     number of iterations used =            8  plain     mixing
     Exchange-correlation= SLA  PW   PBX  PBC
                           (   1   4   3   4   0   0   0)

     celldm(1)=   5.732220  celldm(2)=   0.000000  celldm(3)=   0.000000
     celldm(4)=   0.000000  celldm(5)=   0.000000  celldm(6)=   0.000000

     crystal axes: (cart. coord. in units of alat)
               a(1) = (   1.000000   0.000000   0.000000 )
               a(2) = (   0.502376   0.864655   0.000000 )
               a(3) = (   0.500595   0.288104   2.005008 )

     reciprocal axes: (cart. coord. in units 2 pi/alat)
               b(1) = (  1.000000 -0.581013 -0.166186 )
               b(2) = (  0.000000  1.156531 -0.166184 )
               b(3) = (  0.000000  0.000000  0.498751 )

     PseudoPot. # 1 for Ni read from file:
     /home/pragov/projects/rrg-bengioy-ad/pragov/crystal_structure_design/SSSP/ni_pbe_v1.4.uspp.F.UPF
     MD5 check sum: 1ee80287db30b12d2bc1f57a5b5d6409
     Pseudo is Ultrasoft + core correction, Zval = 18.0
     Generated by new atomic code, or converted to UPF format
     Using radial grid of  865 points,  6 beta functions with:
                l(1) =   0
                l(2) =   0
                l(3) =   1
                l(4) =   1
                l(5) =   2
                l(6) =   2
     Q(r) pseudized with 10 coefficients,  rinner =    0.980   0.980   0.980
                                                       0.980   0.980

     PseudoPot. # 2 for Au read from file:
     /home/pragov/projects/rrg-bengioy-ad/pragov/crystal_structure_design/SSSP/Au_ONCV_PBE-1.0.oncvpsp.upf
     MD5 check sum: d14007822ba0e19f0206237467fc06c2
     Pseudo is Norm-conserving, Zval = 19.0
     Generated using ONCVPSP code by D. R. Hamann
     Using radial grid of 1278 points,  8 beta functions with:
                l(1) =   0
                l(2) =   0
                l(3) =   1
                l(4) =   1
                l(5) =   2
                l(6) =   2
                l(7) =   3
                l(8) =   3

     PseudoPot. # 3 for O  read from file:
     /home/pragov/projects/rrg-bengioy-ad/pragov/crystal_structure_design/SSSP/O.pbe-n-kjpaw_psl.0.1.UPF
     MD5 check sum: 0234752ac141de4415c5fc33072bef88
     Pseudo is Projector augmented-wave + core cor, Zval =  6.0
     Generated using "atomic" code by A. Dal Corso  v.5.0.99 svn rev. 10869
     Shape of augmentation charge: BESSEL
     Using radial grid of 1095 points,  4 beta functions with:
                l(1) =   0
                l(2) =   0
                l(3) =   1
                l(4) =   1
     Q(r) pseudized with 0 coefficients

     atomic species   valence    mass     pseudopotential
        Ni            18.00    58.69340     Ni( 1.00)
        Au            19.00   196.96657     Au( 1.00)
        O              6.00    15.99900     O ( 1.00)

      2 Sym. Ops., with inversion, found

                                    s                        frac. trans.

      isym =  1     identity

 cryst.   s( 1) = (     1          0          0      )
                  (     0          1          0      )
                  (     0          0          1      )

 cart.    s( 1) = (  1.0000000  0.0000000 -0.0000000 )
                  (  0.0000000  1.0000000  0.0000000 )
                  (  0.0000000  0.0000000  1.0000000 )

      isym =  2     inversion

 cryst.   s( 2) = (    -1          0          0      )
                  (     0         -1          0      )
                  (     0          0         -1      )

 cart.    s( 2) = ( -1.0000000 -0.0000000  0.0000000 )
                  (  0.0000000 -1.0000000 -0.0000000 )
                  (  0.0000000  0.0000000 -1.0000000 )

   Cartesian axes

     site n.     atom                  positions (alat units)
         1           Ni  tau(   1) = (   1.0014857   0.5763792   1.0025040  )
         2           Au  tau(   2) = (   0.0000000   0.0000000   0.0000000  )
         3           O   tau(   3) = (   1.5023650   0.8646474   0.6640065  )
         4           O   tau(   4) = (   0.5006064   0.2881111   1.3410014  )

   Crystallographic axes

     site n.     atom                  positions (cryst. coord.)
         1           Ni  tau(   1) = (  0.5000000  0.5000000  0.5000000  )
         2           Au  tau(   2) = (  0.0000000  0.0000000  0.0000000  )
         3           O   tau(   3) = (  0.8896450  0.8896440  0.3311740  )
         4           O   tau(   4) = (  0.1103550  0.1103560  0.6688260  )

     number of k points=     1  Methfessel-Paxton smearing, width (Ry)=  0.0010
                       cart. coord. in units 2pi/alat
        k(    1) = (   0.0000000   0.0000000   0.0000000), wk =   2.0000000

                       cryst. coord.
        k(    1) = (   0.0000000   0.0000000   0.0000000), wk =   2.0000000

     Check: negative core charge=   -0.000015

     Initial potential from superposition of free atoms

     starting charge      46.9999, renormalised to      49.0000
     Starting wfcs are   31 randomized atomic wfcs
     Checking if some PAW data can be deallocated...

     Self-consistent Calculation

     iteration #  1     ecut=    30.00 Ry     beta= 0.70
     Davidson diagonalization with overlap

     ethr =  1.00E-02,  avg # of iterations =  2.0

     total energy              =    -664.85279996 Ry
     estimated scf accuracy    <      46.23913158 Ry

[...]

     total energy              =    -700.75923010 Ry
     estimated scf accuracy    <       0.00000334 Ry

     iteration # 25     ecut=    30.00 Ry     beta= 0.70
     Davidson diagonalization with overlap

     ethr =  6.82E-09,  avg # of iterations =  1.0

     End of self-consistent calculation

          k = 0.0000 0.0000 0.0000 (   450 PWs)   bands (ev):

   -93.0183 -91.2140 -51.7779 -51.7716 -51.0576 -44.6728 -43.5836 -43.5810
    -7.0485  -5.6313   4.5346   7.3735   7.5776   7.5818   9.3864  10.0038
    10.0311  10.2606  10.2709  10.4858  10.4961  10.9794  10.9962  11.3033
    13.9413  13.9417  14.7669  18.6135  20.5833  24.6915

     occupation numbers
     1.0000   1.0000   1.0000   1.0000   1.0000   1.0000   1.0000   1.0000
     1.0000   1.0000   1.0000   1.0000   1.0000   1.0000   1.0000   1.0000
     1.0000   1.0000   1.0000   1.0000   1.0000   1.0000   1.0000   1.0000
     0.2625   0.2375  -0.0000  -0.0000  -0.0000  -0.0000

     the Fermi energy is    13.9373 ev

!    total energy              =    -700.75923017 Ry
     estimated scf accuracy    <       0.00000015 Ry
     smearing contrib. (-TS)   =      -0.00041218 Ry
     internal energy E=F+TS    =    -700.75881799 Ry

     The total energy is F=E-TS. E is the sum of the following terms:
     one-electron contribution =    -378.55884625 Ry
     hartree contribution      =     211.98774543 Ry
     xc contribution           =     -75.57346419 Ry
     ewald contribution        =    -439.61651567 Ry
     one-center paw contrib.   =     -18.99773732 Ry
      -> PAW hartree energy AE =      58.91910666 Ry
      -> PAW hartree energy PS =     -58.67843181 Ry
      -> PAW xc energy AE      =     -34.26800683 Ry
      -> PAW xc energy PS      =      15.02959466 Ry
      -> total E_H with PAW    =     212.22842028 Ry
      -> total E_XC with PAW   =     -94.81187636 Ry

     convergence has been achieved in  25 iterations

     Forces acting on atoms (cartesian axes, Ry/au):

     atom    1 type  1   force =     0.00000000    0.00000000    0.00000000
     atom    2 type  2   force =     0.00000000    0.00000000    0.00000000
     atom    3 type  3   force =     0.00295747    0.00175245   -0.04829091
     atom    4 type  3   force =    -0.00295747   -0.00175245    0.04829091
     The non-local contrib.  to forces
     atom    1 type  1   force =     0.00000000    0.00000000    0.00000000
     atom    2 type  2   force =     0.00000000    0.00000000    0.00000000
     atom    3 type  3   force =     0.00820498    0.00471565   -0.91663990
     atom    4 type  3   force =    -0.00820498   -0.00471565    0.91663990
     The ionic contribution  to forces
     atom    1 type  1   force =    -0.00000000   -0.00000000   -0.00000000
     atom    2 type  2   force =     0.00000000   -0.00000000    0.00000000
     atom    3 type  3   force =    -0.04522188   -0.02592780   -7.40442429
     atom    4 type  3   force =     0.04522188    0.02592780    7.40442429
     The local contribution  to forces
     atom    1 type  1   force =     0.00000106    0.00000343   -0.00007748
     atom    2 type  2   force =    -0.00000055    0.00000070    0.00007910
     atom    3 type  3   force =     0.04005817    0.02302586    8.26054875
     atom    4 type  3   force =    -0.04005949   -0.02302276   -8.26056952
     The core correction contribution to forces
     atom    1 type  1   force =     0.00000000    0.00000001    0.00000002
     atom    2 type  2   force =     0.00000000    0.00000000    0.00000000
     atom    3 type  3   force =    -0.00007461   -0.00004259    0.01225241
     atom    4 type  3   force =     0.00007460    0.00004261   -0.01225243
     The Hubbard contrib.    to forces
     atom    1 type  1   force =     0.00000000    0.00000000    0.00000000
     atom    2 type  2   force =     0.00000000    0.00000000    0.00000000
     atom    3 type  3   force =     0.00000000    0.00000000    0.00000000
     atom    4 type  3   force =     0.00000000    0.00000000    0.00000000
     The SCF correction term to forces
     atom    1 type  1   force =    -0.00000131   -0.00000448    0.00008719
     atom    2 type  2   force =     0.00000022   -0.00000066   -0.00009023
     atom    3 type  3   force =    -0.00000948   -0.00001820   -0.00002561
     atom    4 type  3   force =     0.00001023    0.00001603    0.00005094

     Total force =     0.068466     Total SCF correction =     0.000141

     Computing stress (Cartesian axis) and pressure

          total   stress  (Ry/bohr**3)                   (kbar)     P=    -1307.43
  -0.00924041   0.00007189  -0.00003521        -1359.31       10.58       -5.18
   0.00007189  -0.00932329  -0.00002044           10.58    -1371.50       -3.01
  -0.00003521  -0.00002044  -0.00809947           -5.18       -3.01    -1191.47

     kinetic stress (kbar)  50195.91     19.28    -14.04
                               19.28  50172.54     -8.30
                              -14.04     -8.30  47884.66

     local   stress (kbar) -21449.81    135.83   -126.28
                              135.83 -21605.16    -71.53
                             -126.28    -71.53  -5926.92

     nonloc. stress (kbar)  10297.31      8.51     -8.11
                                8.51  10287.21     -4.92
                               -8.11     -4.92  10980.06

     hartree stress (kbar)  34882.40    -55.38     48.53
                              -55.38  34946.02     27.48
                               48.53     27.48  25673.25

     exc-cor stress (kbar)  -9553.17     -0.00      0.03
                               -0.00  -9553.17      0.01
                                0.03      0.01  -9535.30

     corecor stress (kbar)  -1189.12     -0.11      0.09
                               -0.11  -1188.98      0.06
                                0.09      0.06  -1190.30

     ewald   stress (kbar) -64542.85    -97.55     94.61
                              -97.55 -64429.95     54.19
                               94.61     54.19 -69076.94

     hubbard stress (kbar)      0.00      0.00      0.00
                                0.00      0.00      0.00
                                0.00      0.00      0.00

     DFT-D   stress (kbar)      0.00      0.00      0.00
                                0.00      0.00      0.00
                                0.00      0.00      0.00

     XDM     stress (kbar)      0.00      0.00      0.00
                                0.00      0.00      0.00
                                0.00      0.00      0.00

     dft-nl  stress (kbar)      0.00      0.00      0.00
                                0.00      0.00      0.00
                                0.00      0.00      0.00

     TS-vdW  stress (kbar)      0.00      0.00      0.00
                                0.00      0.00      0.00
                                0.00      0.00      0.00

[...]

                                0.00      0.00      0.00

     Writing all to output data dir new_calculations/myprefix.save/

     General routines

     Parallel routines

     PAW routines

   This run was terminated on:   5:40:26  20May2023

   JOB DONE.