     Program PWSCF v.7.0 starts on 21May2023 at 10:39:25

     Reading input from espresso_23589.pwi
Warning: card &CELL ignored
Warning: card / ignored

     Current dimensions of program PWSCF are:
     Max number of different atomic species (ntypx) = 10
     Max number of k-points (npk) =  40000
     Max angular momentum in pseudopotentials (lmaxx) =  4
     file Fe.pbe-spn-kjpaw_psl.0.2.1.UPF: wavefunction(s)  3D renormalized
     file O.pbe-n-kjpaw_psl.0.1.UPF: wavefunction(s)  2P renormalized

     gamma-point specific algorithms are used
     Message from routine setup:
     using ibrav=0 with symmetry is DISCOURAGED, use correct ibrav instead

     Subspace diagonalization in iterative solution of the eigenvalue problem:
     a serial algorithm will be used

     Using Slab Decomposition

     bravais-lattice index     =            0
     lattice parameter (alat)  =       8.8371  a.u.
     unit-cell volume          =    1316.2444 (a.u.)^3
     number of atoms/cell      =           17
     number of atomic types    =            3
     number of electrons       =       160.00
     number of Kohn-Sham states=           96
     kinetic-energy cutoff     =      30.0000  Ry
     charge density cutoff     =     240.0000  Ry
     scf convergence threshold =      1.0E-06
     mixing beta               =       0.7000
     number of iterations used =            8  plain     mixing
     Exchange-correlation=  SLA  PW   PBX  PBC
                           (   1   4   3   4   0   0   0)

     celldm(1)=   8.837126  celldm(2)=   0.000000  celldm(3)=   0.000000
     celldm(4)=   0.000000  celldm(5)=   0.000000  celldm(6)=   0.000000

     crystal axes: (cart. coord. in units of alat)
               a(1) = (   1.000000   0.000000   0.000000 )
               a(2) = (  -0.064310   0.997930   0.000000 )
               a(3) = (   0.000000   0.000000   1.911188 )

     reciprocal axes: (cart. coord. in units 2 pi/alat)
               b(1) = (  1.000000  0.064443  0.000000 )
               b(2) = (  0.000000  1.002074  0.000000 )
               b(3) = (  0.000000  0.000000  0.523235 )

     PseudoPot. # 1 for Fe read from file:
     /home/pragov/projects/rrg-bengioy-ad/pragov/crystal_structure_design/SSSP/Fe.pbe-spn-kjpaw_psl.0.2.1.UPF
     MD5 check sum: e86618425769142926afa95317d90200
     Pseudo is Projector augmented-wave + core cor, Zval = 16.0
     Generated using "atomic" code by A. Dal Corso  v.5.0.99 svn rev. 10869
     Shape of augmentation charge: PSQ
     Using radial grid of 1191 points,  6 beta functions with:
                l(1) =   0
                l(2) =   0
                l(3) =   1
                l(4) =   1
                l(5) =   2
                l(6) =   2
     Q(r) pseudized with 0 coefficients

     PseudoPot. # 2 for O  read from file:
     /home/pragov/projects/rrg-bengioy-ad/pragov/crystal_structure_design/SSSP/O.pbe-n-kjpaw_psl.0.1.UPF
     MD5 check sum: 0234752ac141de4415c5fc33072bef88
     Pseudo is Projector augmented-wave + core cor, Zval =  6.0
     Generated using "atomic" code by A. Dal Corso  v.5.0.99 svn rev. 10869
     Shape of augmentation charge: BESSEL
     Using radial grid of 1095 points,  4 beta functions with:
                l(1) =   0
                l(2) =   0
                l(3) =   1
                l(4) =   1
     Q(r) pseudized with 0 coefficients

     PseudoPot. # 3 for F  read from file:
     /home/pragov/projects/rrg-bengioy-ad/pragov/crystal_structure_design/SSSP/f_pbe_v1.4.uspp.F.UPF
     MD5 check sum: 4c38b6a325caf53ec0e86aed9459de46
     Pseudo is Ultrasoft, Zval =  7.0
     Generated by new atomic code, or converted to UPF format
     Using radial grid of  799 points,  4 beta functions with:
                l(1) =   0
                l(2) =   0
                l(3) =   1
                l(4) =   1
     Q(r) pseudized with  8 coefficients,  rinner =    0.950   0.950   0.950

     atomic species   valence    mass     pseudopotential
        Fe            16.00    55.84500     Fe( 1.00)
        O              6.00    15.99900     O ( 1.00)
        F              7.00    18.99840     F ( 1.00)

      4 Sym. Ops., with inversion, found

                                    s                        frac. trans.

      isym =  1     identity

 cryst.   s( 1) = (     1          0          0      )
                  (     0          1          0      )
                  (     0          0          1      )

 cart.    s( 1) = (  1.0000000  0.0000000  0.0000000 )
                  (  0.0000000  1.0000000  0.0000000 )
                  (  0.0000000  0.0000000  1.0000000 )

      isym =  2     180 deg rotation - cart. axis [0,0,1]

[...]

      isym =  3     inversion

[...]

      isym =  4     inv. 180 deg rotation - cart. axis [0,0,1]

 cryst.   s( 4) = (     1          0          0      )
                  (     0          1          0      )
                  (     0          0         -1      )

 cart.    s( 4) = (  1.0000000  0.0000000  0.0000000 )
                  (  0.0000000  1.0000000  0.0000000 )
                  (  0.0000000  0.0000000 -1.0000000 )

   Cartesian axes

     site n.     atom                  positions (alat units)
         1           Fe  tau(   1) = (   0.0000000   0.0000000   1.3009837  )
         2           Fe  tau(   2) = (   0.0000000   0.0000000   0.6102040  )
         3           Fe  tau(   3) = (   0.4678450   0.4989650   0.9555938  )
         4           Fe  tau(   4) = (   0.4678450   0.4989650   0.3305877  )
         5           Fe  tau(   5) = (   0.4678450   0.4989650   1.5806000  )
         6           O   tau(   6) = (   0.2836301   0.3024965   0.6605237  )
         7           O   tau(   7) = (   0.2836301   0.3024965   1.2506640  )
         8           O   tau(   8) = (   0.6520599   0.6954334   0.6605237  )
         9           O   tau(   9) = (   0.6520599   0.6954334   1.2506640  )
        10           F   tau(  10) = (   0.1570357   0.7903895   0.9555938  )
        11           F   tau(  11) = (   0.1578488   0.7896271   1.5772516  )
        12           F   tau(  12) = (   0.1578488   0.7896271   0.3339361  )
        13           F   tau(  13) = (   0.2865083   0.3055662   0.0000000  )
        14           F   tau(  14) = (   0.6491818   0.6923638   0.0000000  )
        15           F   tau(  15) = (   0.7778413   0.2083029   0.3339361  )
        16           F   tau(  16) = (   0.7778413   0.2083029   1.5772516  )
        17           F   tau(  17) = (   0.7786544   0.2075405   0.9555938  )

   Crystallographic axes

     site n.     atom                  positions (cryst. coord.)
         1           Fe  tau(   1) = (  0.0000000  0.0000000  0.6807200  )
         2           Fe  tau(   2) = (  0.0000000  0.0000000  0.3192800  )
         3           Fe  tau(   3) = (  0.5000000  0.5000000  0.5000000  )
         4           Fe  tau(   4) = (  0.5000000  0.5000000  0.1729750  )
         5           Fe  tau(   5) = (  0.5000000  0.5000000  0.8270250  )
         6           O   tau(   6) = (  0.3031240  0.3031240  0.3456090  )
         7           O   tau(   7) = (  0.3031240  0.3031240  0.6543910  )
         8           O   tau(   8) = (  0.6968760  0.6968760  0.3456090  )
         9           O   tau(   9) = (  0.6968760  0.6968760  0.6543910  )
        10           F   tau(  10) = (  0.2079710  0.7920290  0.5000000  )
        11           F   tau(  11) = (  0.2087350  0.7912650  0.8252730  )
        12           F   tau(  12) = (  0.2087350  0.7912650  0.1747270  )
        13           F   tau(  13) = (  0.3062000  0.3062000  0.0000000  )
        14           F   tau(  14) = (  0.6938000  0.6938000  0.0000000  )
        15           F   tau(  15) = (  0.7912650  0.2087350  0.1747270  )
        16           F   tau(  16) = (  0.7912650  0.2087350  0.8252730  )
        17           F   tau(  17) = (  0.7920290  0.2079710  0.5000000  )

     number of k points=     1  Methfessel-Paxton smearing, width (Ry)=  0.0010
                       cart. coord. in units 2pi/alat
        k(    1) = (   0.0000000   0.0000000   0.0000000), wk =   2.0000000

                       cryst. coord.
        k(    1) = (   0.0000000   0.0000000   0.0000000), wk =   2.0000000

     Check: negative core charge=   -0.000154

     Initial potential from superposition of free atoms

     starting charge     159.9978, renormalised to     160.0000
     Starting wfcs are  113 randomized atomic wfcs
     Checking if some PAW data can be deallocated...

     Self-consistent Calculation

     iteration #  1     ecut=    30.00 Ry     beta= 0.70
     Davidson diagonalization with overlap

     ethr =  1.00E-02,  avg # of iterations =  2.0

     total energy              =   -2197.44488321 Ry
     estimated scf accuracy    <       4.09378359 Ry

[...]

     negative rho (up, down):  7.559E-05 0.000E+00

[...]

     total energy              =   -2199.98658929 Ry
     estimated scf accuracy    <       0.00000678 Ry

     iteration # 46     ecut=    30.00 Ry     beta= 0.70
     Davidson diagonalization with overlap

     ethr =  1.07E-09,  avg # of iterations =  1.0

[...]

     End of self-consistent calculation

          k = 0.0000 0.0000 0.0000 (  1837 PWs)   bands (ev):

   -82.5137 -81.8411 -81.8375 -81.7806 -81.7772 -48.1635 -48.0508 -47.9000
   -47.6953 -47.6772 -47.5852 -47.5739 -47.4860 -47.4691 -47.1824 -47.1581
   -47.1435 -47.1251 -46.9532 -46.9496 -17.3863 -17.0907 -16.6987 -16.6116
   -16.4021 -16.3709 -15.9211 -15.6341 -12.6424 -12.2344 -11.8614 -11.7967
    -1.0289  -0.1478   0.0328   0.2067   0.2380   0.4369   0.4871   0.5483
     0.7939   0.9226   0.9239   1.0946   1.2400   1.2632   1.3002   1.4874
     1.4876   1.5697   1.7190   1.8289   2.0588   2.1027   2.2213   2.2967
     2.6869   2.6873   2.9151   3.0639   3.0928   3.3176   3.4208   3.5450
     3.6616   3.7710   3.8401   3.8470   4.5204   4.6803   4.8379   4.8932
     4.9083   5.1378   5.1599   5.2141   5.3337   5.4694   5.4913   5.5952
     5.7797   5.8066   5.8394   6.0217   6.5816   6.8263   6.8295   7.0870
     7.5160   7.6150   7.8305   8.1276   8.4018  11.7203  14.2141  14.8101

     occupation numbers
     1.0000   1.0000   1.0000   1.0000   1.0000   1.0000   1.0000   1.0000
     1.0000   1.0000   1.0000   1.0000   1.0000   1.0000   1.0000   1.0000
     1.0000   1.0000   1.0000   1.0000   1.0000   1.0000   1.0000   1.0000
     1.0000   1.0000   1.0000   1.0000   1.0000   1.0000   1.0000   1.0000
     1.0000   1.0000   1.0000   1.0000   1.0000   1.0000   1.0000   1.0000
     1.0000   1.0000   1.0000   1.0000   1.0000   1.0000   1.0000   1.0000
     1.0000   1.0000   1.0000   1.0000   1.0000   1.0000   1.0000   1.0000
     1.0000   1.0000   1.0000   1.0000   1.0000   1.0000   1.0000   1.0000
     1.0000   1.0000   1.0000   1.0000   1.0000   1.0000   1.0000   1.0000
     1.0000   1.0000   1.0000   1.0000   1.0000   1.0000   1.0000   1.0000
    -0.0000  -0.0000  -0.0000  -0.0000  -0.0000  -0.0000  -0.0000  -0.0000
    -0.0000  -0.0000  -0.0000  -0.0000  -0.0000  -0.0000  -0.0000  -0.0000

     the Fermi energy is     5.7013 ev

!    total energy              =   -2199.98658926 Ry
     estimated scf accuracy    <       0.00000039 Ry
     smearing contrib. (-TS)   =       0.00000000 Ry
     internal energy E=F+TS    =   -2199.98658926 Ry

     The total energy is F=E-TS. E is the sum of the following terms:
     one-electron contribution =   -1152.99997561 Ry
     hartree contribution      =     648.52839784 Ry
     xc contribution           =    -276.36233139 Ry
     ewald contribution        =   -1000.64370499 Ry
     one-center paw contrib.   =    -418.50897511 Ry
      -> PAW hartree energy AE =    1138.93564671 Ry
      -> PAW hartree energy PS =   -1134.59690046 Ry
      -> PAW xc energy AE      =    -622.10004675 Ry
      -> PAW xc energy PS      =     199.25232540 Ry
      -> total E_H with PAW    =     652.86714409 Ry
      -> total E_XC with PAW   =    -699.21005275 Ry

     convergence has been achieved in  46 iterations

     negative rho (up, down):  1.435E-06 0.000E+00

     Forces acting on atoms (cartesian axes, Ry/au):

     atom    1 type  1   force =     0.00000000    0.00000000   -0.05375565
     atom    2 type  1   force =     0.00000000    0.00000000    0.05375565
     atom    3 type  1   force =     0.00000000    0.00000000    0.00000000
     atom    4 type  1   force =     0.00000000    0.00000000    0.10469938
     atom    5 type  1   force =     0.00000000    0.00000000   -0.10469938
     atom    6 type  2   force =    -0.00320767   -0.00342104   -0.07516534
     atom    7 type  2   force =    -0.00320767   -0.00342104    0.07516534
     atom    8 type  2   force =     0.00320767    0.00342104   -0.07516534
     atom    9 type  2   force =     0.00320767    0.00342104    0.07516534
     atom   10 type  3   force =    -0.03502182    0.03283755    0.00000000
     atom   11 type  3   force =     0.00013859   -0.00012995    0.01583723
     atom   12 type  3   force =     0.00013859   -0.00012995   -0.01583723
     atom   13 type  3   force =    -0.00064895   -0.00069212   -0.00000000
     atom   14 type  3   force =     0.00064895    0.00069212   -0.00000000
     atom   15 type  3   force =    -0.00013859    0.00012995   -0.01583723
     atom   16 type  3   force =    -0.00013859    0.00012995    0.01583723
     atom   17 type  3   force =     0.03502182   -0.03283755    0.00000000
     The non-local contrib.  to forces
     atom    1 type  1   force =     0.00000000    0.00000000   -0.10377436
     atom    2 type  1   force =     0.00000000    0.00000000    0.10377436
     atom    3 type  1   force =     0.00000000    0.00000000    0.00000000
     atom    4 type  1   force =     0.00000000    0.00000000    0.11742119
     atom    5 type  1   force =     0.00000000    0.00000000   -0.11742119
     atom    6 type  2   force =     0.12955737    0.13817522   -0.12273179
     atom    7 type  2   force =     0.12955737    0.13817522    0.12273179
     atom    8 type  2   force =    -0.12955737   -0.13817522   -0.12273179
     atom    9 type  2   force =    -0.12955737   -0.13817522    0.12273179
     atom   10 type  3   force =     0.02526285   -0.02368723    0.00000000
     atom   11 type  3   force =     0.17082800   -0.16017362   -0.83924278
     atom   12 type  3   force =     0.17082800   -0.16017362    0.83924278
     atom   13 type  3   force =     0.70667659    0.75368307    0.00000000
     atom   14 type  3   force =    -0.70667659   -0.75368307    0.00000000
     atom   15 type  3   force =    -0.17082800    0.16017362    0.83924278
     atom   16 type  3   force =    -0.17082800    0.16017362   -0.83924278
     atom   17 type  3   force =    -0.02526285    0.02368723    0.00000000
     The ionic contribution  to forces
     atom    1 type  1   force =    -0.00000000   -0.00000000   13.81681186
     atom    2 type  1   force =    -0.00000000   -0.00000000  -13.81681186
     atom    3 type  1   force =    -0.00000000   -0.00000000    0.00000000
     atom    4 type  1   force =     0.00000000   -0.00000000  -14.26293422
     atom    5 type  1   force =     0.00000000   -0.00000000   14.26293422
     atom    6 type  2   force =    -3.12155315   -3.32919158   -4.80885207
     atom    7 type  2   force =    -3.12155315   -3.32919158    4.80885207
     atom    8 type  2   force =     3.12155315    3.32919158   -4.80885207
     atom    9 type  2   force =     3.12155315    3.32919158    4.80885207
     atom   10 type  3   force =    -0.52096375    0.48847175    0.00000000
     atom   11 type  3   force =    -2.45459768    2.30150682   14.19745733
     atom   12 type  3   force =    -2.45459768    2.30150682  -14.19745733
     atom   13 type  3   force =   -10.13112568  -10.80502450    0.00000000
     atom   14 type  3   force =    10.13112568   10.80502450    0.00000000
     atom   15 type  3   force =     2.45459768   -2.30150682  -14.19745733
     atom   16 type  3   force =     2.45459768   -2.30150682   14.19745733
     atom   17 type  3   force =     0.52096375   -0.48847175    0.00000000
     The local contribution  to forces
     atom    1 type  1   force =    -0.00034139   -0.00036432  -13.75512651
     atom    2 type  1   force =     0.00002714    0.00002874   13.75510312
     atom    3 type  1   force =     0.00023704    0.00025254   -0.00005857
     atom    4 type  1   force =    -0.00003427   -0.00003644   14.25595567
     atom    5 type  1   force =     0.00021008    0.00022419  -14.25586032
     atom    6 type  2   force =     2.98963385    3.18849569    4.85526274
     atom    7 type  2   force =     2.98975275    3.18862286   -4.85537733
     atom    8 type  2   force =    -2.98964660   -3.18851250    4.85534439
     atom    9 type  2   force =    -2.98967272   -3.18854002   -4.85537676
     atom   10 type  3   force =     0.46062409   -0.43190799   -0.00014053
     atom   11 type  3   force =     2.28366168   -2.14125647  -13.34270461
     atom   12 type  3   force =     2.28361372   -2.14118935   13.34285507
     atom   13 type  3   force =     9.42357239   10.05040658    0.00008943
     atom   14 type  3   force =    -9.42357224  -10.05040611    0.00002613
     atom   15 type  3   force =    -2.28361576    2.14118646   13.34285550
     atom   16 type  3   force =    -2.28368608    2.14123027  -13.34270460
     atom   17 type  3   force =    -0.46063718    0.43189512   -0.00014026
     The core correction contribution to forces
     atom    1 type  1   force =    -0.00000214   -0.00000229   -0.01250269
     atom    2 type  1   force =     0.00000044    0.00000043    0.01250622
     atom    3 type  1   force =     0.00000113    0.00000120    0.00000218
     atom    4 type  1   force =    -0.00000025   -0.00000022   -0.00483989
     atom    5 type  1   force =     0.00000103    0.00000112    0.00483988
     atom    6 type  2   force =    -0.00100964   -0.00107681    0.00154006
     atom    7 type  2   force =    -0.00100959   -0.00107676   -0.00154038
     atom    8 type  2   force =     0.00100942    0.00107655    0.00154045
     atom    9 type  2   force =     0.00100991    0.00107707   -0.00154023
     atom   10 type  3   force =     0.00000000    0.00000000    0.00000000
     atom   11 type  3   force =     0.00000000    0.00000000    0.00000000
     atom   12 type  3   force =     0.00000000    0.00000000    0.00000000
     atom   13 type  3   force =     0.00000000    0.00000000    0.00000000
     atom   14 type  3   force =     0.00000000    0.00000000    0.00000000
     atom   15 type  3   force =     0.00000000    0.00000000    0.00000000
     atom   16 type  3   force =     0.00000000    0.00000000    0.00000000
     atom   17 type  3   force =     0.00000000    0.00000000    0.00000000
     The Hubbard contrib.    to forces
     atom    1 type  1   force =     0.00000000    0.00000000    0.00000000
     atom    2 type  1   force =     0.00000000    0.00000000    0.00000000
     atom    3 type  1   force =     0.00000000    0.00000000    0.00000000
     atom    4 type  1   force =     0.00000000    0.00000000    0.00000000
     atom    5 type  1   force =     0.00000000    0.00000000    0.00000000
     atom    6 type  2   force =     0.00000000    0.00000000    0.00000000
     atom    7 type  2   force =     0.00000000    0.00000000    0.00000000
     atom    8 type  2   force =     0.00000000    0.00000000    0.00000000
     atom    9 type  2   force =     0.00000000    0.00000000    0.00000000
     atom   10 type  3   force =     0.00000000    0.00000000    0.00000000
     atom   11 type  3   force =     0.00000000    0.00000000    0.00000000
     atom   12 type  3   force =     0.00000000    0.00000000    0.00000000
     atom   13 type  3   force =     0.00000000    0.00000000    0.00000000
     atom   14 type  3   force =     0.00000000    0.00000000    0.00000000
     atom   15 type  3   force =     0.00000000    0.00000000    0.00000000
     atom   16 type  3   force =     0.00000000    0.00000000    0.00000000
     atom   17 type  3   force =     0.00000000    0.00000000    0.00000000
     The SCF correction term to forces
     atom    1 type  1   force =     0.00037167    0.00039684    0.00081975
     atom    2 type  1   force =    -0.00003120   -0.00003258   -0.00083251
     atom    3 type  1   force =    -0.00025428   -0.00027094    0.00004017
     atom    4 type  1   force =     0.00003991    0.00004202   -0.00089679
     atom    5 type  1   force =    -0.00022814   -0.00024360    0.00081459
     atom    6 type  2   force =     0.00017014    0.00018225   -0.00039838
     atom    7 type  2   force =     0.00004222    0.00004550    0.00049346
     atom    8 type  2   force =    -0.00016654   -0.00017686   -0.00046148
     atom    9 type  2   force =    -0.00010619   -0.00011279    0.00049496
     atom   10 type  3   force =     0.00005730   -0.00003659    0.00014165
     atom   11 type  3   force =     0.00024036   -0.00020300    0.00032342
     atom   12 type  3   force =     0.00029914   -0.00027896   -0.00048149
     atom   13 type  3   force =     0.00022611    0.00024095   -0.00008146
     atom   14 type  3   force =    -0.00022953   -0.00024500   -0.00002044
     atom   15 type  3   force =    -0.00029817    0.00028113   -0.00048210
     atom   16 type  3   force =    -0.00021817    0.00022693    0.00032346
     atom   17 type  3   force =    -0.00003958    0.00005425    0.00014123

     Total force =     0.236655     Total SCF correction =     0.002425

     Computing stress (Cartesian axis) and pressure

     negative rho (up, down):  1.435E-06 0.000E+00
          total   stress  (Ry/bohr**3)                   (kbar)     P=     -646.44
  -0.00428521  -0.00001904   0.00000000         -630.38       -2.80        0.00
  -0.00001904  -0.00428766   0.00000000           -2.80     -630.74        0.00
   0.00000000   0.00000000  -0.00461027            0.00        0.00     -678.19

     kinetic stress (kbar)  33722.82    320.88      0.00
                              320.88  33764.18      0.00
                                0.00      0.00  33755.09

     local   stress (kbar)   2469.24   1435.64     -0.02
                             1435.64   2654.28     -0.02
                               -0.02     -0.02  -7953.18

     nonloc. stress (kbar) -11117.87    -22.06      0.00
                              -22.06 -11120.72      0.00
                                0.00      0.00 -11066.90

     hartree stress (kbar)  22982.47   -728.98      0.01
                             -728.98  22888.52      0.01
                                0.01      0.01  26609.33

     exc-cor stress (kbar)  -4199.80      9.07      0.00
                                9.07  -4198.63      0.00
                                0.00      0.00  -4188.51

     corecor stress (kbar)  -5029.27     -4.84     -0.00
                               -4.84  -5029.89     -0.00
                               -0.00     -0.00  -5047.29

     ewald   stress (kbar) -39457.97  -1012.52     -0.00
                            -1012.52 -39588.47      0.00
                               -0.00      0.00 -32786.72

     hubbard stress (kbar)      0.00      0.00      0.00
                                0.00      0.00      0.00
                                0.00      0.00      0.00

     DFT-D   stress (kbar)      0.00      0.00      0.00
                                0.00      0.00      0.00
                                0.00      0.00      0.00

     XDM     stress (kbar)      0.00      0.00      0.00
                                0.00      0.00      0.00
                                0.00      0.00      0.00

     dft-nl  stress (kbar)      0.00      0.00      0.00
                                0.00      0.00      0.00
                                0.00      0.00      0.00

     TS-vdW  stress (kbar)      0.00      0.00      0.00
                                0.00      0.00      0.00
                                0.00      0.00      0.00

[...]

                                0.00      0.00      0.00

     Writing all to output data dir new_calculations/myprefix.save/

     General routines

     Parallel routines

     PAW routines

   This run was terminated on:  10:40:36  21May2023

   JOB DONE.