     Program PWSCF v.7.0 starts on 20May2023 at 15:28:37

     Reading input from espresso_3564.pwi
Warning: card &CELL ignored
Warning: card / ignored

     Current dimensions of program PWSCF are:
     Max number of different atomic species (ntypx) = 10
     Max number of k-points (npk) =  40000
     Max angular momentum in pseudopotentials (lmaxx) =  4
     file Mg.pbe-n-kjpaw_psl.0.3.0.UPF: wavefunction(s)  3S renormalized
     file O.pbe-n-kjpaw_psl.0.1.UPF: wavefunction(s)  2P renormalized

     gamma-point specific algorithms are used
     Message from routine setup:
     using ibrav=0 with symmetry is DISCOURAGED, use correct ibrav instead

     Subspace diagonalization in iterative solution of the eigenvalue problem:
     a serial algorithm will be used

     Using Slab Decomposition

     bravais-lattice index     =            0
     lattice parameter (alat)  =      10.6939  a.u.
     unit-cell volume          =     864.7602 (a.u.)^3
     number of atoms/cell      =           10
     number of atomic types    =            4
     number of electrons       =        72.00
     number of Kohn-Sham states=           43
     kinetic-energy cutoff     =      30.0000  Ry
     charge density cutoff     =     240.0000  Ry
     scf convergence threshold =      1.0E-06
     mixing beta               =       0.7000
     number of iterations used =            8  plain     mixing
     Exchange-correlation= SLA  PW   PBX  PBC
                           (   1   4   3   4   0   0   0)

     celldm(1)=  10.693919  celldm(2)=   0.000000  celldm(3)=   0.000000
     celldm(4)=   0.000000  celldm(5)=   0.000000  celldm(6)=   0.000000

     crystal axes: (cart. coord. in units of alat)
               a(1) = (   1.000000   0.000000   0.000000 )
               a(2) = (   0.500000   0.866025   0.000000 )
               a(3) = (   0.500000   0.288675   0.816497 )

     reciprocal axes: (cart. coord. in units 2 pi/alat)
               b(1) = (  1.000000 -0.577350 -0.408248 )
               b(2) = (  0.000000  1.154701 -0.408248 )
               b(3) = (  0.000000  0.000000  1.224745 )

     PseudoPot. # 1 for Sr read from file:
     /home/pragov/projects/rrg-bengioy-ad/pragov/crystal_structure_design/SSSP/Sr_pbe_v1.uspp.F.UPF
     MD5 check sum: 6b418c05fbe9db5448babca5e47b7a5b
     Pseudo is Ultrasoft + core correction, Zval = 10.0
     Generated by new atomic code, or converted to UPF format
     Using radial grid of  883 points,  6 beta functions with:
                l(1) =   0
                l(2) =   0
                l(3) =   1
                l(4) =   1
                l(5) =   2
                l(6) =   2
     Q(r) pseudized with  6 coefficients,  rinner =    1.400   1.400   1.400
                                                       1.400   1.400

     PseudoPot. # 2 for Mg read from file:
     /home/pragov/projects/rrg-bengioy-ad/pragov/crystal_structure_design/SSSP/Mg.pbe-n-kjpaw_psl.0.3.0.UPF
     MD5 check sum: 24ecedc7f3e3cbe212e682f4413594e4
     Pseudo is Projector augmented-wave + core cor, Zval =  2.0
     Generated using "atomic" code by A. Dal Corso  v.5.0.99 svn rev. 10869
     Shape of augmentation charge: PSQ
     Using radial grid of 1129 points,  4 beta functions with:
                l(1) =   0
                l(2) =   0
                l(3) =   1
                l(4) =   1
     Q(r) pseudized with 0 coefficients

     PseudoPot. # 3 for Mo read from file:
     /home/pragov/projects/rrg-bengioy-ad/pragov/crystal_structure_design/SSSP/Mo_ONCV_PBE-1.0.oncvpsp.upf
     MD5 check sum: 1b5d28e075c9ccadda658a603575cd1f
     Pseudo is Norm-conserving, Zval = 14.0
     Generated using ONCVPSP code by D. R. Hamann
     Using radial grid of 1526 points,  6 beta functions with:
                l(1) =   0
                l(2) =   0
                l(3) =   1
                l(4) =   1
                l(5) =   2
                l(6) =   2

     PseudoPot. # 4 for O  read from file:
     /home/pragov/projects/rrg-bengioy-ad/pragov/crystal_structure_design/SSSP/O.pbe-n-kjpaw_psl.0.1.UPF
     MD5 check sum: 0234752ac141de4415c5fc33072bef88
     Pseudo is Projector augmented-wave + core cor, Zval =  6.0
     Generated using "atomic" code by A. Dal Corso  v.5.0.99 svn rev. 10869
     Shape of augmentation charge: BESSEL
     Using radial grid of 1095 points,  4 beta functions with:
                l(1) =   0
                l(2) =   0
                l(3) =   1
                l(4) =   1
     Q(r) pseudized with 0 coefficients

     atomic species   valence    mass     pseudopotential
        Sr            10.00    87.62000     Sr( 1.00)
        Mg             2.00    24.30500     Mg( 1.00)
        Mo            14.00    95.95000     Mo( 1.00)
        O              6.00    15.99900     O ( 1.00)

     12 Sym. Ops., with inversion, found

                                    s                        frac. trans.

      isym =  1     identity

 cryst.   s( 1) = (     1          0          0      )
                  (     0          1          0      )
                  (     0          0          1      )

 cart.    s( 1) = (  1.0000000  0.0000000  0.0000000 )
                  (  0.0000000  1.0000000  0.0000000 )
                  (  0.0000000  0.0000000  1.0000000 )

      isym =  2     180 deg rotation - cart. axis [1,0,0]

[...]

      isym =  3     120 deg rotation - cryst. axis [0,0,1]

[...]

      isym =  6     180 deg rotation - cryst. axis [1,1,0]

[...]

      isym =  7     inversion

[...]

      isym =  8     inv. 180 deg rotation - cart. axis [1,0,0]

[...]

      isym =  9     inv. 120 deg rotation - cryst. axis [0,0,1]

 cryst.   s( 9) = (     1         -1          0      )
                  (     1          0          0      )
                  (     1          0         -1      )

 cart.    s( 9) = (  0.5000000  0.8660254  0.0000000 )
                  ( -0.8660254  0.5000000  0.0000000 )
                  (  0.0000000  0.0000000 -1.0000000 )

[...]

 cryst.   s(10) = (     0          1          0      )
                  (    -1          1          0      )
                  (     0          1         -1      )

 cart.    s(10) = (  0.5000000 -0.8660254  0.0000000 )
                  (  0.8660254  0.5000000  0.0000000 )
                  (  0.0000000  0.0000000 -1.0000000 )

[...]

      isym = 12     inv. 180 deg rotation - cryst. axis [1,1,0]

 cryst.   s(12) = (     1         -1          0      )
                  (     0         -1          0      )
                  (     0         -1          1      )

 cart.    s(12) = (  0.5000000 -0.8660254  0.0000000 )
                  ( -0.8660254 -0.5000000 -0.0000000 )
                  (  0.0000000  0.0000000  1.0000000 )

   Cartesian axes

     site n.     atom                  positions (alat units)
         1           Sr  tau(   1) = (   0.5000000   0.2886751   0.2041241  )
         2           Sr  tau(   2) = (   1.5000000   0.8660254   0.6123724  )
         3           Mg  tau(   3) = (   1.0000000   0.5773503   0.4082483  )
         4           Mo  tau(   4) = (   0.0000000   0.0000000   0.0000000  )
         5           O   tau(   5) = (   1.0000000   0.2802966   0.1981996  )
         6           O   tau(   6) = (   1.0000000   0.8744039   0.6182969  )
         7           O   tau(   7) = (   0.7427440   0.7258771   0.1981996  )
         8           O   tau(   8) = (   1.2572560   0.4288234   0.6182969  )
         9           O   tau(   9) = (   0.7427440   0.4288234   0.6182969  )
        10           O   tau(  10) = (   1.2572560   0.7258771   0.1981996  )

   Crystallographic axes

     site n.     atom                  positions (cryst. coord.)
         1           Sr  tau(   1) = (  0.2500000  0.2500000  0.2500000  )
         2           Sr  tau(   2) = (  0.7500000  0.7500000  0.7500000  )
         3           Mg  tau(   3) = (  0.5000000  0.5000000  0.5000000  )
         4           Mo  tau(   4) = (  0.0000000  0.0000000  0.0000000  )
         5           O   tau(   5) = (  0.7572560  0.2427440  0.2427440  )
         6           O   tau(   6) = (  0.2427440  0.7572560  0.7572560  )
         7           O   tau(   7) = (  0.2427440  0.7572560  0.2427440  )
         8           O   tau(   8) = (  0.7572560  0.2427440  0.7572560  )
         9           O   tau(   9) = (  0.2427440  0.2427440  0.7572560  )
        10           O   tau(  10) = (  0.7572560  0.7572560  0.2427440  )

     number of k points=     1  Methfessel-Paxton smearing, width (Ry)=  0.0010
                       cart. coord. in units 2pi/alat
        k(    1) = (   0.0000000   0.0000000   0.0000000), wk =   2.0000000

                       cryst. coord.
        k(    1) = (   0.0000000   0.0000000   0.0000000), wk =   2.0000000

     Check: negative core charge=   -0.000011

     Initial potential from superposition of free atoms

     starting charge      71.9308, renormalised to      72.0000

     negative rho (up, down):  1.245E-01 0.000E+00
     Starting wfcs are   64 randomized atomic wfcs
     Checking if some PAW data can be deallocated...

     Self-consistent Calculation

     iteration #  1     ecut=    30.00 Ry     beta= 0.70
     Davidson diagonalization with overlap

     ethr =  1.00E-02,  avg # of iterations =  2.0

     negative rho (up, down):  1.272E-01 0.000E+00

     total energy              =    -559.08145615 Ry
     estimated scf accuracy    <       3.99306830 Ry

[...]

     total energy              =    -561.14710142 Ry
     estimated scf accuracy    <       0.00000175 Ry

     iteration # 11     ecut=    30.00 Ry     beta= 0.70
     Davidson diagonalization with overlap

     ethr =  2.44E-09,  avg # of iterations =  3.0

[...]

     End of self-consistent calculation

          k = 0.0000 0.0000 0.0000 (  1211 PWs)   bands (ev):

   -52.6409 -26.7523 -26.7523 -26.7523 -25.0714 -25.0330  -7.9561  -7.1682
    -7.1682  -7.1682  -7.0506  -7.0501  -6.9911  -6.9911  -6.9910  -6.6592
    -6.6584  -6.6583   4.4851   5.1753   5.1753   5.1755   5.3263   5.3267
     6.4936   6.4938   6.4938   8.3407   8.3407   8.3410   9.0191   9.0193
     9.0193   9.5374   9.5374   9.5378  11.3098  11.3098  11.3099  13.7887
    13.7887  14.3406  15.1312

     occupation numbers
     1.0000   1.0000   1.0000   1.0000   1.0000   1.0000   1.0000   1.0000
     1.0000   1.0000   1.0000   1.0000   1.0000   1.0000   1.0000   1.0000
     1.0000   1.0000   1.0000   1.0000   1.0000   1.0000   1.0000   1.0000
     1.0000   1.0000   1.0000   1.0000   1.0000   1.0000   1.0000   1.0000
     1.0000   1.0000   1.0000   1.0000  -0.0000  -0.0000  -0.0000  -0.0000
    -0.0000  -0.0000  -0.0000

     the Fermi energy is    11.0145 ev

!    total energy              =    -561.14710145 Ry
     estimated scf accuracy    <       0.00000024 Ry
     smearing contrib. (-TS)   =       0.00000000 Ry
     internal energy E=F+TS    =    -561.14710145 Ry

     The total energy is F=E-TS. E is the sum of the following terms:
     one-electron contribution =    -140.33817258 Ry
     hartree contribution      =     111.84908543 Ry
     xc contribution           =     -99.24126828 Ry
     ewald contribution        =    -345.06900259 Ry
     one-center paw contrib.   =     -88.34774343 Ry
      -> PAW hartree energy AE =     185.24774682 Ry
      -> PAW hartree energy PS =    -184.53988854 Ry
      -> PAW xc energy AE      =    -136.79447824 Ry
      -> PAW xc energy PS      =      47.73887653 Ry
      -> total E_H with PAW    =     112.55694371 Ry
      -> total E_XC with PAW   =    -188.29686999 Ry

     convergence has been achieved in  11 iterations

     negative rho (up, down):  1.332E-01 0.000E+00

     Forces acting on atoms (cartesian axes, Ry/au):

     atom    1 type  1   force =    -0.00000000   -0.00000000   -0.00000594
     atom    2 type  1   force =     0.00000000    0.00000000    0.00000594
     atom    3 type  2   force =     0.00000000    0.00000000    0.00000000
     atom    4 type  3   force =    -0.00000000   -0.00000000    0.00000000
     atom    5 type  4   force =     0.00000000   -0.05184411   -0.03665763
     atom    6 type  4   force =     0.00000000    0.05184411    0.03665763
     atom    7 type  4   force =    -0.04489832    0.02592206   -0.03665763
     atom    8 type  4   force =     0.04489832   -0.02592206    0.03665763
     atom    9 type  4   force =    -0.04489832   -0.02592206    0.03665763
     atom   10 type  4   force =     0.04489832    0.02592206   -0.03665763
     The non-local contrib.  to forces
     atom    1 type  1   force =    -0.00000000    0.00000000   -0.00000090
     atom    2 type  1   force =    -0.00000000    0.00000000    0.00000090
     atom    3 type  2   force =     0.00000000    0.00000000    0.00000000
     atom    4 type  3   force =    -0.00000000   -0.00000000   -0.00000000
     atom    5 type  4   force =     0.00000000   -0.26395658   -0.18664271
     atom    6 type  4   force =     0.00000000    0.26395658    0.18664271
     atom    7 type  4   force =    -0.22859311    0.13197829   -0.18664271
     atom    8 type  4   force =     0.22859311   -0.13197829    0.18664271
     atom    9 type  4   force =    -0.22859311   -0.13197829    0.18664271
     atom   10 type  4   force =     0.22859311    0.13197829   -0.18664271
     The ionic contribution  to forces
     atom    1 type  1   force =    -0.00000000   -0.00000000   -0.00000000
     atom    2 type  1   force =     0.00000000    0.00000000   -0.00000000
     atom    3 type  2   force =    -0.00000000   -0.00000000   -0.00000000
     atom    4 type  3   force =     0.00000000   -0.00000000   -0.00000000
     atom    5 type  4   force =     0.00000000    7.71669490    5.45652729
     atom    6 type  4   force =     0.00000000   -7.71669490   -5.45652729
     atom    7 type  4   force =     6.68285382   -3.85834745    5.45652729
     atom    8 type  4   force =    -6.68285381    3.85834745   -5.45652729
     atom    9 type  4   force =     6.68285381    3.85834745   -5.45652729
     atom   10 type  4   force =    -6.68285382   -3.85834745    5.45652729
     The local contribution  to forces
     atom    1 type  1   force =     0.00001060   -0.00001690    0.00001298
     atom    2 type  1   force =     0.00000430   -0.00001646    0.00002164
     atom    3 type  2   force =    -0.00002099    0.00001158    0.00003714
     atom    4 type  3   force =    -0.00001058    0.00010795   -0.00030176
     atom    5 type  4   force =    -0.00001225   -7.50599553   -5.30755458
     atom    6 type  4   force =     0.00000623    7.50591614    5.30748767
     atom    7 type  4   force =    -6.50023996    3.75291753   -5.30743603
     atom    8 type  4   force =     6.50024274   -3.75291157    5.30744000
     atom    9 type  4   force =    -6.50035569   -3.75298363    5.30751497
     atom   10 type  4   force =     6.50044200    3.75303846   -5.30758612
     The core correction contribution to forces
     atom    1 type  1   force =    -0.00000036   -0.00000139    0.00000138
     atom    2 type  1   force =    -0.00000135   -0.00000051    0.00000113
     atom    3 type  2   force =    -0.00000022    0.00000068   -0.00000141
     atom    4 type  3   force =     0.00000000    0.00000000    0.00000000
     atom    5 type  4   force =     0.00000005    0.00159808    0.00113010
     atom    6 type  4   force =    -0.00000004   -0.00159762   -0.00112944
     atom    7 type  4   force =     0.00138344   -0.00079876    0.00112961
     atom    8 type  4   force =    -0.00138404    0.00079911   -0.00113004
     atom    9 type  4   force =     0.00138341    0.00079866   -0.00112951
     atom   10 type  4   force =    -0.00138329   -0.00079871    0.00112953
     The Hubbard contrib.    to forces
     atom    1 type  1   force =     0.00000000    0.00000000    0.00000000
     atom    2 type  1   force =     0.00000000    0.00000000    0.00000000
     atom    3 type  2   force =     0.00000000    0.00000000    0.00000000
     atom    4 type  3   force =     0.00000000    0.00000000    0.00000000
     atom    5 type  4   force =     0.00000000    0.00000000    0.00000000
     atom    6 type  4   force =     0.00000000    0.00000000    0.00000000
     atom    7 type  4   force =     0.00000000    0.00000000    0.00000000
     atom    8 type  4   force =     0.00000000    0.00000000    0.00000000
     atom    9 type  4   force =     0.00000000    0.00000000    0.00000000
     atom   10 type  4   force =     0.00000000    0.00000000    0.00000000
     The SCF correction term to forces
     atom    1 type  1   force =    -0.00000510    0.00000609   -0.00000686
     atom    2 type  1   force =     0.00000252    0.00000372   -0.00000517
     atom    3 type  2   force =     0.00001197   -0.00000113   -0.00003851
     atom    4 type  3   force =    -0.00000046   -0.00012827    0.00038731
     atom    5 type  4   force =     0.00002051   -0.00019577   -0.00012170
     atom    6 type  4   force =    -0.00000948    0.00026696    0.00019225
     atom    7 type  4   force =    -0.00028698    0.00016738   -0.00022409
     atom    8 type  4   force =     0.00023216   -0.00014586    0.00018034
     atom    9 type  4   force =    -0.00019393   -0.00011764    0.00017360
     atom   10 type  4   force =     0.00016357    0.00007328   -0.00012010

     Total force =     0.155530     Total SCF correction =     0.000852

     Computing stress (Cartesian axis) and pressure

     negative rho (up, down):  1.332E-01 0.000E+00
          total   stress  (Ry/bohr**3)                   (kbar)     P=     -199.34
  -0.00135508   0.00000000   0.00000000         -199.34        0.00        0.00
   0.00000000  -0.00135508  -0.00000000            0.00     -199.34       -0.00
   0.00000000  -0.00000000  -0.00135506            0.00       -0.00     -199.34

     kinetic stress (kbar)  21395.48     -0.00      0.00
                                0.00  21395.48      0.00
                                0.00      0.00  21395.48

     local   stress (kbar) -11802.17      0.02     -0.02
                                0.02 -11802.15      0.01
                               -0.02      0.01 -11802.16

     nonloc. stress (kbar)   8134.92     -0.00     -0.00
                                0.00   8134.92      0.00
                               -0.00     -0.00   8134.92

     hartree stress (kbar)   6342.27     -0.05      0.07
                               -0.05   6342.22     -0.04
                                0.07     -0.04   6342.25

     exc-cor stress (kbar)   -737.31      0.00     -0.00
                                0.00   -737.31      0.00
                               -0.00      0.00   -737.31

     corecor stress (kbar)  -3965.86     -0.00      0.00
                               -0.00  -3965.87     -0.00
                                0.00     -0.00  -3965.87

     ewald   stress (kbar) -19566.66     -0.00     -0.00
                               -0.00 -19566.66     -0.00
                               -0.00     -0.00 -19566.66

     hubbard stress (kbar)      0.00      0.00      0.00
                                0.00      0.00      0.00
                                0.00      0.00      0.00

     DFT-D   stress (kbar)      0.00      0.00      0.00
                                0.00      0.00      0.00
                                0.00      0.00      0.00

     XDM     stress (kbar)      0.00      0.00      0.00
                                0.00      0.00      0.00
                                0.00      0.00      0.00

     dft-nl  stress (kbar)      0.00      0.00      0.00
                                0.00      0.00      0.00
                                0.00      0.00      0.00

     TS-vdW  stress (kbar)      0.00      0.00      0.00
                                0.00      0.00      0.00
                                0.00      0.00      0.00

[...]

                                0.00      0.00      0.00

     Writing all to output data dir new_calculations/myprefix.save/

     General routines

     Parallel routines

     PAW routines

   This run was terminated on:  15:28:47  20May2023

   JOB DONE.