     Program PWSCF v.7.0 starts on 21May2023 at  5: 9:33

     Reading input from espresso_5938.pwi
Warning: card &CELL ignored
Warning: card / ignored

     Current dimensions of program PWSCF are:
     Max number of different atomic species (ntypx) = 10
     Max number of k-points (npk) =  40000
     Max angular momentum in pseudopotentials (lmaxx) =  4
     file K.pbe-spn-kjpaw_psl.1.0.0.UPF: wavefunction(s)  3S renormalized

     gamma-point specific algorithms are used
     Message from routine setup:
     using ibrav=0 with symmetry is DISCOURAGED, use correct ibrav instead

     Subspace diagonalization in iterative solution of the eigenvalue problem:
     a serial algorithm will be used

     Using Slab Decomposition

     bravais-lattice index     =            0
     lattice parameter (alat)  =      32.2719  a.u.
     unit-cell volume          =    1675.5010 (a.u.)^3
     number of atoms/cell      =           10
     number of atomic types    =            3
     number of electrons       =        80.00
     number of Kohn-Sham states=           48
     kinetic-energy cutoff     =      30.0000  Ry
     charge density cutoff     =     240.0000  Ry
     scf convergence threshold =      1.0E-06
     mixing beta               =       0.7000
     number of iterations used =            8  plain     mixing
     Exchange-correlation=  SLA  PW   PBX  PBC
                           (   1   4   3   4   0   0   0)

     celldm(1)=  32.271862  celldm(2)=   0.000000  celldm(3)=   0.000000
     celldm(4)=   0.000000  celldm(5)=   0.000000  celldm(6)=   0.000000

     crystal axes: (cart. coord. in units of alat)
               a(1) = (   1.000000   0.000000   0.000000 )
               a(2) = (   0.970936   0.239341   0.000000 )
               a(3) = (   0.970936   0.117906   0.208284 )

     reciprocal axes: (cart. coord. in units 2 pi/alat)
               b(1) = (  1.000000 -4.056709 -2.365168 )
               b(2) = (  0.000000  4.178144 -2.365168 )
               b(3) = (  0.000000  0.000000  4.801136 )

     PseudoPot. # 1 for K  read from file:
     /home/pragov/projects/rrg-bengioy-ad/pragov/crystal_structure_design/SSSP/K.pbe-spn-kjpaw_psl.1.0.0.UPF
     MD5 check sum: 7d58810084cac21f60fbe77ea2b688fd
     Pseudo is Projector augmented-wave + core cor, Zval =  9.0
     Generated using "atomic" code by A. Dal Corso  v.5.1
     Shape of augmentation charge: PSQ
     Using radial grid of 1165 points,  6 beta functions with:
                l(1) =   0
                l(2) =   0
                l(3) =   1
                l(4) =   1
                l(5) =   2
                l(6) =   2
     Q(r) pseudized with 0 coefficients

     PseudoPot. # 2 for Na read from file:
     /home/pragov/projects/rrg-bengioy-ad/pragov/crystal_structure_design/SSSP/na_pbe_v1.5.uspp.F.UPF
     MD5 check sum: 44600605ef58000f06b90626533354dc
     Pseudo is Ultrasoft, Zval =  9.0
     Generated by new atomic code, or converted to UPF format
     Using radial grid of  819 points,  5 beta functions with:
                l(1) =   0
                l(2) =   0
                l(3) =   1
                l(4) =   1
                l(5) =   2
     Q(r) pseudized with  8 coefficients,  rinner =    1.250   1.250   1.250
                                                       1.250   1.250

     PseudoPot. # 3 for Cl read from file:
     /home/pragov/projects/rrg-bengioy-ad/pragov/crystal_structure_design/SSSP/cl_pbe_v1.4.uspp.F.UPF
     MD5 check sum: fc6f6913ecf08c9257cb748ef0700058
     Pseudo is Ultrasoft + core correction, Zval =  7.0
     Generated by new atomic code, or converted to UPF format
     Using radial grid of  909 points,  6 beta functions with:
                l(1) =   0
                l(2) =   0
                l(3) =   1
                l(4) =   1
                l(5) =   2
                l(6) =   2
     Q(r) pseudized with  8 coefficients,  rinner =    1.300   1.300   1.300
                                                       1.300   1.300

     atomic species   valence    mass     pseudopotential
        K              9.00    39.09830     K ( 1.00)
        Na             9.00    22.98977     Na( 1.00)
        Cl             7.00    35.45000     Cl( 1.00)

      2 Sym. Ops., with inversion, found

                                    s                        frac. trans.

      isym =  1     identity

 cryst.   s( 1) = (     1          0          0      )
                  (     0          1          0      )
                  (     0          0          1      )

 cart.    s( 1) = (  1.0000000 -0.0000000 -0.0000000 )
                  (  0.0000000  1.0000000 -0.0000000 )
                  (  0.0000000  0.0000000  1.0000000 )

      isym =  2     inversion

 cryst.   s( 2) = (    -1          0          0      )
                  (     0         -1          0      )
                  (     0          0         -1      )

 cart.    s( 2) = ( -1.0000000  0.0000000  0.0000000 )
                  (  0.0000000 -1.0000000  0.0000000 )
                  (  0.0000000  0.0000000 -1.0000000 )

   Cartesian axes

     site n.     atom                  positions (alat units)
         1           K   tau(   1) = (   0.0000000   0.0000000   0.0000000  )
         2           Na  tau(   2) = (   1.7540290   0.2130006   0.1241850  )
         3           Na  tau(   3) = (   0.5860972   0.0711728   0.0414956  )
         4           Na  tau(   4) = (   2.3557740   0.2860736   0.1667885  )
         5           Na  tau(   5) = (   1.1878423   0.1442457   0.0840991  )
         6           Cl  tau(   6) = (   2.0755373   0.2520430   0.1469477  )
         7           Cl  tau(   7) = (   1.4709356   0.1786232   0.1041420  )
         8           Cl  tau(   8) = (   0.3006122   0.0365049   0.0212833  )
         9           Cl  tau(   9) = (   0.8663340   0.1052033   0.0613363  )
        10           Cl  tau(  10) = (   2.6412591   0.3207415   0.1870008  )

   Crystallographic axes

     site n.     atom                  positions (cryst. coord.)
         1           K   tau(   1) = (  0.0000000  0.0000000  0.0000000  )
         2           Na  tau(   2) = (  0.5962290  0.5962290  0.5962290  )
         3           Na  tau(   3) = (  0.1992260  0.1992260  0.1992260  )
         4           Na  tau(   4) = (  0.8007740  0.8007740  0.8007740  )
         5           Na  tau(   5) = (  0.4037710  0.4037710  0.4037710  )
         6           Cl  tau(   6) = (  0.7055160  0.7055160  0.7055160  )
         7           Cl  tau(   7) = (  0.5000000  0.5000000  0.5000000  )
         8           Cl  tau(   8) = (  0.1021840  0.1021840  0.1021840  )
         9           Cl  tau(   9) = (  0.2944840  0.2944840  0.2944840  )
        10           Cl  tau(  10) = (  0.8978160  0.8978160  0.8978160  )

     number of k points=     1  Methfessel-Paxton smearing, width (Ry)=  0.0010
                       cart. coord. in units 2pi/alat
        k(    1) = (   0.0000000   0.0000000   0.0000000), wk =   2.0000000

                       cryst. coord.
        k(    1) = (   0.0000000   0.0000000   0.0000000), wk =   2.0000000

     Check: negative core charge=   -0.000001

     Initial potential from superposition of free atoms

     starting charge      79.9560, renormalised to      80.0000

     negative rho (up, down):  7.476E-02 0.000E+00
     Starting wfcs are   48 randomized atomic wfcs
     Checking if some PAW data can be deallocated...

     Self-consistent Calculation

     iteration #  1     ecut=    30.00 Ry     beta= 0.70
     Davidson diagonalization with overlap

     ethr =  1.00E-02,  avg # of iterations =  6.0

     Threshold (ethr) on eigenvalues was too large:
     Diagonalizing with lowered threshold

     Davidson diagonalization with overlap

[...]

     negative rho (up, down):  7.839E-02 0.000E+00

     total energy              =    -661.33846770 Ry
     estimated scf accuracy    <       0.59797258 Ry

[...]

     c_bands:  1 eigenvalues not converged
     ethr =  3.55E-06,  avg # of iterations = 20.0

[...]

     total energy              =    -661.52225125 Ry
     estimated scf accuracy    <       0.00000326 Ry

     iteration #  7     ecut=    30.00 Ry     beta= 0.70
     Davidson diagonalization with overlap

     ethr =  4.07E-09,  avg # of iterations =  3.0

[...]

     End of self-consistent calculation

          k = 0.0000 0.0000 0.0000 (  2323 PWs)   bands (ev):

   -48.5453 -48.5438 -48.5237 -48.5224 -26.4058 -20.4803 -20.4788 -20.4576
   -20.4519 -20.4275 -20.4275 -20.4257 -20.4257 -20.4065 -20.4065 -20.4045
   -20.4045 -11.2337 -11.0638 -10.9242 -10.9137 -10.7513  -9.8417  -9.8416
    -9.6187  -0.4014  -0.3060   0.4588   0.6418   1.0768   1.0768   1.1204
     1.1204   1.2497   1.2497   1.2714   1.2714   1.3077   1.3872   1.3872
     5.9351   6.9734   7.0309   8.1086   8.2610   8.6579  10.0923  10.0923

     occupation numbers
     1.0000   1.0000   1.0000   1.0000   1.0000   1.0000   1.0000   1.0000
     1.0000   1.0000   1.0000   1.0000   1.0000   1.0000   1.0000   1.0000
     1.0000   1.0000   1.0000   1.0000   1.0000   1.0000   1.0000   1.0000
     1.0000   1.0000   1.0000   1.0000   1.0000   1.0000   1.0000   1.0000
     1.0000   1.0000   1.0000   1.0000   1.0000   1.0000   1.0000   1.0000
    -0.0000  -0.0000  -0.0000  -0.0000  -0.0000  -0.0000  -0.0000  -0.0000

     the Fermi energy is     2.8647 ev

!    total energy              =    -661.52225196 Ry
     estimated scf accuracy    <       0.00000060 Ry
     smearing contrib. (-TS)   =       0.00000000 Ry
     internal energy E=F+TS    =    -661.52225196 Ry

     The total energy is F=E-TS. E is the sum of the following terms:
     one-electron contribution =    -369.71127962 Ry
     hartree contribution      =     209.39755410 Ry
     xc contribution           =    -116.84916254 Ry
     ewald contribution        =    -328.94044674 Ry
     one-center paw contrib.   =     -55.41891717 Ry
      -> PAW hartree energy AE =      37.91474168 Ry
      -> PAW hartree energy PS =     -37.70406621 Ry
      -> PAW xc energy AE      =     -66.24791715 Ry
      -> PAW xc energy PS      =      10.61832451 Ry
      -> total E_H with PAW    =     209.60822958 Ry
      -> total E_XC with PAW   =    -172.47875519 Ry

     convergence has been achieved in   7 iterations

     negative rho (up, down):  7.257E-02 0.000E+00

     Forces acting on atoms (cartesian axes, Ry/au):

     atom    1 type  1   force =     0.00000000    0.00000000    0.00000000
     atom    2 type  2   force =     0.00029730    0.00003345    0.00002552
     atom    3 type  2   force =    -0.00147861   -0.00018646   -0.00009769
     atom    4 type  2   force =     0.00147861    0.00018646    0.00009769
     atom    5 type  2   force =    -0.00029730   -0.00003345   -0.00002552
     atom    6 type  3   force =    -0.01726270   -0.00208673   -0.00122072
     atom    7 type  3   force =     0.00000000    0.00000000    0.00000000
     atom    8 type  3   force =     0.00033647    0.00003132    0.00001748
     atom    9 type  3   force =     0.01726270    0.00208673    0.00122072
     atom   10 type  3   force =    -0.00033647   -0.00003132   -0.00001748
     The non-local contrib.  to forces
     atom    1 type  1   force =     0.00000000    0.00000000    0.00000000
     atom    2 type  2   force =     0.00032677    0.00006020    0.00003303
     atom    3 type  2   force =     0.01550711    0.00189231    0.00108841
     atom    4 type  2   force =    -0.01550711   -0.00189231   -0.00108841
     atom    5 type  2   force =    -0.00032677   -0.00006020   -0.00003303
     atom    6 type  3   force =     0.02260869    0.00268722    0.00159754
     atom    7 type  3   force =     0.00000000    0.00000000    0.00000000
     atom    8 type  3   force =     0.00540290    0.00067397    0.00038867
     atom    9 type  3   force =    -0.02260869   -0.00268722   -0.00159754
     atom   10 type  3   force =    -0.00540290   -0.00067397   -0.00038867
     The ionic contribution  to forces
     atom    1 type  1   force =     0.00000000    0.00000000   -0.00000000
     atom    2 type  2   force =     3.81924517    0.46379033    0.27040204
     atom    3 type  2   force =     0.91591878    0.11122467    0.06484693
     atom    4 type  2   force =    -0.91591878   -0.11122467   -0.06484693
     atom    5 type  2   force =    -3.81924517   -0.46379033   -0.27040204
     atom    6 type  3   force =    -3.37040393   -0.40928526   -0.23862402
     atom    7 type  3   force =    -0.00000000   -0.00000000   -0.00000000
     atom    8 type  3   force =    -1.78781499   -0.21710345   -0.12657705
     atom    9 type  3   force =     3.37040393    0.40928526    0.23862402
     atom   10 type  3   force =     1.78781499    0.21710345    0.12657705
     The local contribution  to forces
     atom    1 type  1   force =     0.00015554    0.00009222    0.00006951
     atom    2 type  2   force =    -3.82003891   -0.46388957   -0.27046202
     atom    3 type  2   force =    -0.93322822   -0.11334479   -0.06607943
     atom    4 type  2   force =     0.93306304    0.11331674    0.06604504
     atom    5 type  2   force =     3.82006016    0.46389088    0.27046803
     atom    6 type  3   force =     3.33321772    0.40477995    0.23597222
     atom    7 type  3   force =     0.00021839    0.00007526   -0.00000094
     atom    8 type  3   force =     1.78278962    0.21641013    0.12620676
     atom    9 type  3   force =    -3.33227278   -0.40495861   -0.23595202
     atom   10 type  3   force =    -1.78383091   -0.21659232   -0.12627778
     The core correction contribution to forces
     atom    1 type  1   force =     0.00000008    0.00000096    0.00000078
     atom    2 type  2   force =     0.00000000    0.00000000    0.00000000
     atom    3 type  2   force =     0.00000000    0.00000000    0.00000000
     atom    4 type  2   force =     0.00000000    0.00000000    0.00000000
     atom    5 type  2   force =     0.00000000    0.00000000    0.00000000
     atom    6 type  3   force =    -0.00081466   -0.00009903   -0.00005773
     atom    7 type  3   force =     0.00001206    0.00000270    0.00000018
     atom    8 type  3   force =    -0.00020678   -0.00002593   -0.00001507
     atom    9 type  3   force =     0.00082793    0.00009448    0.00005789
     atom   10 type  3   force =     0.00018510    0.00002324    0.00001344
     The Hubbard contrib.    to forces
     atom    1 type  1   force =     0.00000000    0.00000000    0.00000000
     atom    2 type  2   force =     0.00000000    0.00000000    0.00000000
     atom    3 type  2   force =     0.00000000    0.00000000    0.00000000
     atom    4 type  2   force =     0.00000000    0.00000000    0.00000000
     atom    5 type  2   force =     0.00000000    0.00000000    0.00000000
     atom    6 type  3   force =     0.00000000    0.00000000    0.00000000
     atom    7 type  3   force =     0.00000000    0.00000000    0.00000000
     atom    8 type  3   force =     0.00000000    0.00000000    0.00000000
     atom    9 type  3   force =     0.00000000    0.00000000    0.00000000
     atom   10 type  3   force =     0.00000000    0.00000000    0.00000000
     The SCF correction term to forces
     atom    1 type  1   force =    -0.00017760   -0.00008427   -0.00005703
     atom    2 type  2   force =     0.00067748    0.00002934    0.00004420
     atom    3 type  2   force =     0.00044392    0.00005639    0.00004708
     atom    4 type  2   force =    -0.00003836    0.00000172   -0.00001135
     atom    5 type  2   force =    -0.00087228   -0.00011695   -0.00006675
     atom    6 type  3   force =    -0.00173729   -0.00022010   -0.00010936
     atom    7 type  3   force =     0.00014224   -0.00001042    0.00001743
     atom    8 type  3   force =    -0.00010233    0.00002876   -0.00000666
     atom    9 type  3   force =     0.00104555    0.00030234    0.00008774
     atom   10 type  3   force =     0.00062919    0.00006046    0.00003767

     Total force =     0.024750     Total SCF correction =     0.002488
     SCF correction compared to forces is large: reduce conv_thr to get better values

     Computing stress (Cartesian axis) and pressure

     negative rho (up, down):  7.257E-02 0.000E+00
          total   stress  (Ry/bohr**3)                   (kbar)     P=       60.79
  -0.00023586  -0.00011941  -0.00006961          -34.70      -17.57      -10.24
  -0.00011941   0.00073300  -0.00000845          -17.57      107.83       -1.24
  -0.00006961  -0.00000845   0.00074255          -10.24       -1.24      109.23

     kinetic stress (kbar)   8555.48    -38.24    -22.30
                              -38.24   8865.76     -2.71
                              -22.30     -2.71   8868.83

     local   stress (kbar)   9529.57    220.41    128.51
                              220.41   7741.28     15.61
                              128.51     15.61   7723.62

     nonloc. stress (kbar) -10669.62    -11.93     -6.95
                              -11.93 -10572.79     -0.84
                               -6.95     -0.84 -10571.84

     hartree stress (kbar)   5576.95   -101.41    -59.13
                             -101.41   6399.77     -7.18
                              -59.13     -7.18   6407.90

     exc-cor stress (kbar)  -1042.58      0.08      0.05
                                0.08  -1043.27      0.01
                                0.05      0.01  -1043.27

     corecor stress (kbar)  -1883.31      0.81      0.48
                                0.81  -1889.92      0.06
                                0.48      0.06  -1889.99

     ewald   stress (kbar) -10101.19    -87.29    -50.89
                              -87.29  -9393.00     -6.18
                              -50.89     -6.18  -9386.01

     hubbard stress (kbar)      0.00      0.00      0.00
                                0.00      0.00      0.00
                                0.00      0.00      0.00

     DFT-D   stress (kbar)      0.00      0.00      0.00
                                0.00      0.00      0.00
                                0.00      0.00      0.00

     XDM     stress (kbar)      0.00      0.00      0.00
                                0.00      0.00      0.00
                                0.00      0.00      0.00

     dft-nl  stress (kbar)      0.00      0.00      0.00
                                0.00      0.00      0.00
                                0.00      0.00      0.00

     TS-vdW  stress (kbar)      0.00      0.00      0.00
                                0.00      0.00      0.00
                                0.00      0.00      0.00

[...]

                                0.00      0.00      0.00

     Writing all to output data dir new_calculations/myprefix.save/

     General routines

     Parallel routines

     PAW routines

   This run was terminated on:   5:10:28  21May2023

   JOB DONE.