     Program PWSCF v.7.0 starts on 20May2023 at  2:17:29

     Reading input from espresso_6036.pwi
Warning: card &CELL ignored
Warning: card / ignored

     Current dimensions of program PWSCF are:
     Max number of different atomic species (ntypx) = 10
     Max number of k-points (npk) =  40000
     Max angular momentum in pseudopotentials (lmaxx) =  4
     file O.pbe-n-kjpaw_psl.0.1.UPF: wavefunction(s)  2P renormalized

     gamma-point specific algorithms are used
     Message from routine setup:
     using ibrav=0 with symmetry is DISCOURAGED, use correct ibrav instead

     Subspace diagonalization in iterative solution of the eigenvalue problem:
     a serial algorithm will be used

     Using Slab Decomposition

     bravais-lattice index     =            0
     lattice parameter (alat)  =      11.1330  a.u.
     unit-cell volume          =     708.3918 (a.u.)^3
     number of atoms/cell      =           10
     number of atomic types    =            4
     number of electrons       =        71.00
     number of Kohn-Sham states=           43
     kinetic-energy cutoff     =      30.0000  Ry
     charge density cutoff     =     240.0000  Ry
     scf convergence threshold =      1.0E-06
     mixing beta               =       0.7000
     number of iterations used =            8  plain     mixing
     Exchange-correlation= SLA  PW   PBX  PBC
                           (   1   4   3   4   0   0   0)

     celldm(1)=  11.133015  celldm(2)=   0.000000  celldm(3)=   0.000000
     celldm(4)=   0.000000  celldm(5)=   0.000000  celldm(6)=   0.000000

     crystal axes: (cart. coord. in units of alat)
               a(1) = (   1.000000   0.000000   0.000000 )
               a(2) = (   0.663453   0.748218   0.000000 )
               a(3) = (   0.663453   0.298420   0.686131 )

     reciprocal axes: (cart. coord. in units 2 pi/alat)
               b(1) = (  1.000000 -0.886711 -0.581290 )
               b(2) = (  0.000000  1.336509 -0.581290 )
               b(3) = (  0.000000  0.000000  1.457448 )

     PseudoPot. # 1 for Mn read from file:
     /home/pragov/projects/rrg-bengioy-ad/pragov/crystal_structure_design/SSSP/mn_pbe_v1.5.uspp.F.UPF
     MD5 check sum: 82ef2b46521d7a7d9e736dc3972e4928
     Pseudo is Ultrasoft + core correction, Zval = 15.0
     Generated by new atomic code, or converted to UPF format
     Using radial grid of  859 points,  6 beta functions with:
                l(1) =   0
                l(2) =   0
                l(3) =   1
                l(4) =   1
                l(5) =   2
                l(6) =   2
     Q(r) pseudized with  8 coefficients,  rinner =    0.950   0.950   0.950
                                                       0.950   0.950

     PseudoPot. # 2 for Sn read from file:
     /home/pragov/projects/rrg-bengioy-ad/pragov/crystal_structure_design/SSSP/Sn_pbe_v1.uspp.F.UPF
     MD5 check sum: 4cf58ce39ec5d5d420df3dd08604eb00
     Pseudo is Ultrasoft + core correction, Zval = 14.0
     Generated by new atomic code, or converted to UPF format
     Using radial grid of  891 points,  6 beta functions with:
                l(1) =   0
                l(2) =   0
                l(3) =   1
                l(4) =   1
                l(5) =   2
                l(6) =   2
     Q(r) pseudized with  6 coefficients,  rinner =    1.200   1.200   1.200
                                                       1.200   1.200

     PseudoPot. # 3 for B  read from file:
     /home/pragov/projects/rrg-bengioy-ad/pragov/crystal_structure_design/SSSP/b_pbe_v1.4.uspp.F.UPF
     MD5 check sum: cc6de2960df11db49a60e589f9ebb39b
     Pseudo is Ultrasoft + core correction, Zval =  3.0
     Generated by new atomic code, or converted to UPF format
     Using radial grid of  781 points,  4 beta functions with:
                l(1) =   0
                l(2) =   0
                l(3) =   1
                l(4) =   1
     Q(r) pseudized with  8 coefficients,  rinner =    1.100   1.100   1.100

     PseudoPot. # 4 for O  read from file:
     /home/pragov/projects/rrg-bengioy-ad/pragov/crystal_structure_design/SSSP/O.pbe-n-kjpaw_psl.0.1.UPF
     MD5 check sum: 0234752ac141de4415c5fc33072bef88
     Pseudo is Projector augmented-wave + core cor, Zval =  6.0
     Generated using "atomic" code by A. Dal Corso  v.5.0.99 svn rev. 10869
     Shape of augmentation charge: BESSEL
     Using radial grid of 1095 points,  4 beta functions with:
                l(1) =   0
                l(2) =   0
                l(3) =   1
                l(4) =   1
     Q(r) pseudized with 0 coefficients

     atomic species   valence    mass     pseudopotential
        Mn            15.00    54.93804     Mn( 1.00)
        Sn            14.00   118.71000     Sn( 1.00)
        B              3.00    10.81000     B ( 1.00)
        O              6.00    15.99900     O ( 1.00)

      2 Sym. Ops., with inversion, found

                                    s                        frac. trans.

      isym =  1     identity

 cryst.   s( 1) = (     1          0          0      )
                  (     0          1          0      )
                  (     0          0          1      )

 cart.    s( 1) = (  1.0000000 -0.0000000 -0.0000000 )
                  (  0.0000000  1.0000000 -0.0000000 )
                  (  0.0000000  0.0000000  1.0000000 )

      isym =  2     inversion

 cryst.   s( 2) = (    -1          0          0      )
                  (     0         -1          0      )
                  (     0          0         -1      )

 cart.    s( 2) = ( -1.0000000  0.0000000  0.0000000 )
                  (  0.0000000 -1.0000000  0.0000000 )
                  (  0.0000000  0.0000000 -1.0000000 )

   Cartesian axes

     site n.     atom                  positions (alat units)
         1           Mn  tau(   1) = (   0.0000000   0.0000000   0.0000000  )
         2           Sn  tau(   2) = (   1.1634524   0.5233186   0.3430648  )
         3           B   tau(   3) = (   1.7578124   0.7906606   0.5183232  )
         4           B   tau(   4) = (   0.5690948   0.2559773   0.1678077  )
         5           O   tau(   5) = (   0.8532469   0.6965464   0.3248734  )
         6           O   tau(   6) = (   1.0872574   0.3682269   0.0320883  )
         7           O   tau(   7) = (   1.3300469   0.7901903   0.1769573  )
         8           O   tau(   8) = (   0.9968573   0.2564475   0.5091737  )
         9           O   tau(   9) = (   1.4736589   0.3500908   0.3612562  )
        10           O   tau(  10) = (   1.2396484   0.6784112   0.6540433  )

   Crystallographic axes

     site n.     atom                  positions (cryst. coord.)
         1           Mn  tau(   1) = (  0.0000000  0.0000000  0.0000000  )
         2           Sn  tau(   2) = (  0.5000000  0.5000000  0.4999990  )
         3           B   tau(   3) = (  0.7554290  0.7554290  0.7554290  )
         4           B   tau(   4) = (  0.2445720  0.2445710  0.2445710  )
         5           O   tau(   5) = (  0.0467660  0.7420950  0.4734860  )
         6           O   tau(   6) = (  0.7420940  0.4734860  0.0467670  )
         7           O   tau(   7) = (  0.5265130  0.9532330  0.2579060  )
         8           O   tau(   8) = (  0.4734850  0.0467670  0.7420940  )
         9           O   tau(   9) = (  0.9532350  0.2579050  0.5265120  )
        10           O   tau(  10) = (  0.2579050  0.5265140  0.9532340  )

     number of k points=     1  Methfessel-Paxton smearing, width (Ry)=  0.0010
                       cart. coord. in units 2pi/alat
        k(    1) = (   0.0000000   0.0000000   0.0000000), wk =   2.0000000

                       cryst. coord.
        k(    1) = (   0.0000000   0.0000000   0.0000000), wk =   2.0000000

     Check: negative core charge=   -0.000019

     Initial potential from superposition of free atoms

     starting charge      69.4993, renormalised to      71.0000
     Starting wfcs are   54 randomized atomic wfcs
     Checking if some PAW data can be deallocated...

     Self-consistent Calculation

     iteration #  1     ecut=    30.00 Ry     beta= 0.70
     Davidson diagonalization with overlap

     ethr =  1.00E-02,  avg # of iterations =  2.0

     total energy              =    -633.66195603 Ry
     estimated scf accuracy    <       4.97810353 Ry

[...]

     ethr =  9.98E-06,  avg # of iterations =  1.0
     Minimization algorithm failed to find Fermi energy: reverting to bisection
     Possible cause: smearing is larger than the electronic band-gap.

[...]

     ethr =  1.74E-06,  avg # of iterations =  1.0

[...]

     total energy              =    -637.04337210 Ry
     estimated scf accuracy    <       0.00001187 Ry

     iteration # 47     ecut=    30.00 Ry     beta= 0.70
     Davidson diagonalization with overlap

     ethr =  1.67E-08,  avg # of iterations =  1.0
     Minimization algorithm failed to find Fermi energy: reverting to bisection
     Possible cause: smearing is larger than the electronic band-gap.

     End of self-consistent calculation

          k = 0.0000 0.0000 0.0000 (   969 PWs)   bands (ev):

   -69.2899 -38.1423 -38.0005 -38.0005 -13.7876 -13.7875 -13.2656 -13.2656
   -13.2149 -12.7084 -11.8688 -10.5740 -10.5738 -10.0758 -10.0757  -1.0866
     0.1968   1.1974   1.1975   1.4445   2.0873   2.0874   3.8311   4.2254
     4.8436   4.8436   4.9362   4.9363   5.6888   5.6888   5.7267   6.4710
     6.4711   9.6378   9.6378   9.6417  10.0601  10.7188  10.7188  13.3384
    13.9037  15.4474  16.2225

     occupation numbers
     1.0000   1.0000   1.0000   1.0000   1.0000   1.0000   1.0000   1.0000
     1.0000   1.0000   1.0000   1.0000   1.0000   1.0000   1.0000   1.0000
     1.0000   1.0000   1.0000   1.0000   1.0000   1.0000   1.0000   1.0000
     1.0000   1.0000   1.0000   1.0000   1.0000   1.0000   1.0000   1.0000
     1.0000   0.8950   0.8944   0.7107  -0.0000  -0.0000  -0.0000  -0.0000
    -0.0000  -0.0000  -0.0000

     the Fermi energy is     9.6453 ev

!    total energy              =    -637.04337418 Ry
     estimated scf accuracy    <       0.00000040 Ry
     smearing contrib. (-TS)   =      -0.00039701 Ry
     internal energy E=F+TS    =    -637.04297717 Ry

     The total energy is F=E-TS. E is the sum of the following terms:
     one-electron contribution =    -236.21527635 Ry
     hartree contribution      =     161.48889591 Ry
     xc contribution           =    -125.03583791 Ry
     ewald contribution        =    -380.23976172 Ry
     one-center paw contrib.   =     -57.04099710 Ry
      -> PAW hartree energy AE =     187.58408859 Ry
      -> PAW hartree energy PS =    -186.89154106 Ry
      -> PAW xc energy AE      =    -104.46594877 Ry
      -> PAW xc energy PS      =      46.73240414 Ry
      -> total E_H with PAW    =     162.18144345 Ry
      -> total E_XC with PAW   =    -182.76938255 Ry

     convergence has been achieved in  47 iterations

     Forces acting on atoms (cartesian axes, Ry/au):

     atom    1 type  1   force =     0.00000000    0.00000000    0.00000000
     atom    2 type  2   force =     0.00000000    0.00000000    0.00000000
     atom    3 type  3   force =    -0.01073582   -0.00483539   -0.00316771
     atom    4 type  3   force =     0.01073582    0.00483539    0.00316771
     atom    5 type  4   force =    -0.00816418    0.03257869   -0.02148765
     atom    6 type  4   force =     0.01896026   -0.03075591   -0.01686721
     atom    7 type  4   force =     0.01044076    0.00166568   -0.03845168
     atom    8 type  4   force =    -0.01044076   -0.00166568    0.03845168
     atom    9 type  4   force =     0.00816418   -0.03257869    0.02148765
     atom   10 type  4   force =    -0.01896026    0.03075591    0.01686721
     The non-local contrib.  to forces
     atom    1 type  1   force =     0.00000000    0.00000000    0.00000000
     atom    2 type  2   force =     0.00000000    0.00000000    0.00000000
     atom    3 type  3   force =    -0.02673389   -0.01202577   -0.00788612
     atom    4 type  3   force =     0.02673389    0.01202577    0.00788612
     atom    5 type  4   force =    -0.02484626    0.16564687    0.99123197
     atom    6 type  4   force =     0.10744545    0.85776359   -0.51314478
     atom    7 type  4   force =    -0.71306271    0.66545423    0.24351957
     atom    8 type  4   force =     0.71306271   -0.66545423   -0.24351957
     atom    9 type  4   force =     0.02484626   -0.16564687   -0.99123197
     atom   10 type  4   force =    -0.10744545   -0.85776359    0.51314478
     The ionic contribution  to forces
     atom    1 type  1   force =    -0.00014708    0.00003615   -0.00003186
     atom    2 type  2   force =     0.00009815    0.00000262    0.00016769
     atom    3 type  3   force =    -0.20459179   -0.09200381   -0.06030798
     atom    4 type  3   force =     0.20466364    0.09204229    0.06028616
     atom    5 type  4   force =    -1.12383071   -0.27872881   -1.05532125
     atom    6 type  4   force =    -0.95418135   -1.22941101   -0.18067898
     atom    7 type  4   force =     1.55295015    0.12499653   -0.16535492
     atom    8 type  4   force =    -1.55285095   -0.12506981    0.16529097
     atom    9 type  4   force =     1.12374538    0.27878963    1.05546760
     atom   10 type  4   force =     0.95414455    1.22934623    0.18048256
     The local contribution  to forces
     atom    1 type  1   force =     0.00015376   -0.00005263    0.00002839
     atom    2 type  2   force =    -0.00009996    0.00000012   -0.00016222
     atom    3 type  3   force =     0.22001021    0.09889544    0.06483094
     atom    4 type  3   force =    -0.22009303   -0.09892960   -0.06481619
     atom    5 type  4   force =     1.14102294    0.14624295    0.05082167
     atom    6 type  4   force =     0.86645155    0.34836800    0.67365898
     atom    7 type  4   force =    -0.83567119   -0.78398838   -0.11386395
     atom    8 type  4   force =     0.83555244    0.78404898    0.11391768
     atom    9 type  4   force =    -1.14095444   -0.14630732   -0.05097716
     atom   10 type  4   force =    -0.86643058   -0.34830412   -0.67347713
     The core correction contribution to forces
     atom    1 type  1   force =     0.00000003   -0.00000003   -0.00000004
     atom    2 type  2   force =    -0.00000034   -0.00000004   -0.00000111
     atom    3 type  3   force =     0.00056667    0.00025469    0.00016733
     atom    4 type  3   force =    -0.00056695   -0.00025519   -0.00016699
     atom    5 type  4   force =    -0.00057862   -0.00062361   -0.00826211
     atom    6 type  4   force =    -0.00085032   -0.00758447    0.00327729
     atom    7 type  4   force =     0.00623856   -0.00475816   -0.00272468
     atom    8 type  4   force =    -0.00623890    0.00475819    0.00272459
     atom    9 type  4   force =     0.00057854    0.00062347    0.00826187
     atom   10 type  4   force =     0.00085013    0.00758438   -0.00327718
     The Hubbard contrib.    to forces
     atom    1 type  1   force =     0.00000000    0.00000000    0.00000000
     atom    2 type  2   force =     0.00000000    0.00000000    0.00000000
     atom    3 type  3   force =     0.00000000    0.00000000    0.00000000
     atom    4 type  3   force =     0.00000000    0.00000000    0.00000000
     atom    5 type  4   force =     0.00000000    0.00000000    0.00000000
     atom    6 type  4   force =     0.00000000    0.00000000    0.00000000
     atom    7 type  4   force =     0.00000000    0.00000000    0.00000000
     atom    8 type  4   force =     0.00000000    0.00000000    0.00000000
     atom    9 type  4   force =     0.00000000    0.00000000    0.00000000
     atom   10 type  4   force =     0.00000000    0.00000000    0.00000000
     The SCF correction term to forces
     atom    1 type  1   force =    -0.00000438    0.00001332    0.00000270
     atom    2 type  2   force =     0.00000270    0.00000088   -0.00001139
     atom    3 type  3   force =     0.00000793    0.00004200    0.00002884
     atom    4 type  3   force =    -0.00000678   -0.00004993   -0.00002066
     atom    5 type  4   force =     0.00006016    0.00003939    0.00003827
     atom    6 type  4   force =     0.00008669    0.00010579    0.00001452
     atom    7 type  4   force =    -0.00002341   -0.00004561   -0.00003174
     atom    8 type  4   force =     0.00002459    0.00004410    0.00003396
     atom    9 type  4   force =    -0.00005988   -0.00003952   -0.00003648
     atom   10 type  4   force =    -0.00008713   -0.00010918   -0.00001157

     Total force =     0.099183     Total SCF correction =     0.000255

     Computing stress (Cartesian axis) and pressure

          total   stress  (Ry/bohr**3)                   (kbar)     P=     -540.39
  -0.00371341  -0.00003218  -0.00002135         -546.26       -4.73       -3.14
  -0.00003218  -0.00365804  -0.00000963           -4.73     -538.12       -1.42
  -0.00002135  -0.00000963  -0.00364900           -3.14       -1.42     -536.79

     kinetic stress (kbar)  24326.10    177.13    116.22
                              177.13  24012.50     52.26
                              116.22     52.26  23966.76

     local   stress (kbar)  -5540.85   3755.06   2461.42
                             3755.06 -12202.39   1107.07
                             2461.42   1107.07 -13164.48

     nonloc. stress (kbar)   7502.38      2.85      1.93
                                2.85   7497.93      0.89
                                1.93      0.89   7496.96

     hartree stress (kbar)   9917.35   -994.32   -651.72
                             -994.32  11681.43   -293.13
                             -651.72   -293.13  11936.10

     exc-cor stress (kbar)    860.23    -13.64     -8.94
                              -13.64    884.43     -4.02
                               -8.94     -4.02    887.93

     corecor stress (kbar)  -7567.75      5.11      3.35
                                5.11  -7576.83      1.51
                                3.35      1.51  -7578.14

     ewald   stress (kbar) -30043.71  -2936.93  -1925.39
                            -2936.93 -24835.19   -866.00
                            -1925.39   -866.00 -24081.92

     hubbard stress (kbar)      0.00      0.00      0.00
                                0.00      0.00      0.00
                                0.00      0.00      0.00

     DFT-D   stress (kbar)      0.00      0.00      0.00
                                0.00      0.00      0.00
                                0.00      0.00      0.00

     XDM     stress (kbar)      0.00      0.00      0.00
                                0.00      0.00      0.00
                                0.00      0.00      0.00

     dft-nl  stress (kbar)      0.00      0.00      0.00
                                0.00      0.00      0.00
                                0.00      0.00      0.00

     TS-vdW  stress (kbar)      0.00      0.00      0.00
                                0.00      0.00      0.00
                                0.00      0.00      0.00

[...]

                                0.00      0.00      0.00

     Writing all to output data dir new_calculations/myprefix.save/

     General routines

     Parallel routines

     PAW routines

   This run was terminated on:   2:18:30  20May2023

   JOB DONE.