     Program PWSCF v.7.0 starts on 21May2023 at 14:56:59

     Reading input from espresso_21013.pwi
Warning: card &CELL ignored
Warning: card / ignored

     Current dimensions of program PWSCF are:
     Max number of different atomic species (ntypx) = 10
     Max number of k-points (npk) =  40000
     Max angular momentum in pseudopotentials (lmaxx) =  4

     gamma-point specific algorithms are used
     Message from routine setup:
     using ibrav=0 with symmetry is DISCOURAGED, use correct ibrav instead

     Subspace diagonalization in iterative solution of the eigenvalue problem:
     a serial algorithm will be used

     Using Slab Decomposition

     bravais-lattice index     =            0
     lattice parameter (alat)  =       7.3333  a.u.
     unit-cell volume          =    1120.5922 (a.u.)^3
     number of atoms/cell      =            8
     number of atomic types    =            3
     number of electrons       =        99.00
     number of Kohn-Sham states=           60
     kinetic-energy cutoff     =      30.0000  Ry
     charge density cutoff     =     240.0000  Ry
     scf convergence threshold =      1.0E-06
     mixing beta               =       0.7000
     number of iterations used =            8  plain     mixing
     Exchange-correlation=  SLA  PW   PBX  PBC
                           (   1   4   3   4   0   0   0)

     celldm(1)=   7.333334  celldm(2)=   0.000000  celldm(3)=   0.000000
     celldm(4)=   0.000000  celldm(5)=   0.000000  celldm(6)=   0.000000

     crystal axes: (cart. coord. in units of alat)
               a(1) = (   1.000000   0.000000   0.000000 )
               a(2) = (  -0.500000   0.866025   0.000000 )
               a(3) = (   0.000000   0.000000   3.281047 )

     reciprocal axes: (cart. coord. in units 2 pi/alat)
               b(1) = (  1.000000  0.577350  0.000000 )
               b(2) = (  0.000000  1.154700  0.000000 )
               b(3) = (  0.000000  0.000000  0.304781 )

     PseudoPot. # 1 for Mn read from file:
     /home/pragov/projects/rrg-bengioy-ad/pragov/crystal_structure_design/SSSP/mn_pbe_v1.5.uspp.F.UPF
     MD5 check sum: 82ef2b46521d7a7d9e736dc3972e4928
     Pseudo is Ultrasoft + core correction, Zval = 15.0
     Generated by new atomic code, or converted to UPF format
     Using radial grid of  859 points,  6 beta functions with:
                l(1) =   0
                l(2) =   0
                l(3) =   1
                l(4) =   1
                l(5) =   2
                l(6) =   2
     Q(r) pseudized with  8 coefficients,  rinner =    0.950   0.950   0.950
                                                       0.950   0.950

     PseudoPot. # 2 for Zn read from file:
     /home/pragov/projects/rrg-bengioy-ad/pragov/crystal_structure_design/SSSP/Zn_pbe_v1.uspp.F.UPF
     MD5 check sum: df62231357ef9e81f77b2b3087fa5675
     Pseudo is Ultrasoft, Zval = 20.0
     Generated by new atomic code, or converted to UPF format
     Using radial grid of  943 points,  6 beta functions with:
                l(1) =   0
                l(2) =   0
                l(3) =   1
                l(4) =   1
                l(5) =   2
                l(6) =   2
     Q(r) pseudized with  8 coefficients,  rinner =    1.100   1.100   1.100
                                                       1.100   1.100

     PseudoPot. # 3 for S  read from file:
     /home/pragov/projects/rrg-bengioy-ad/pragov/crystal_structure_design/SSSP/s_pbe_v1.4.uspp.F.UPF
     MD5 check sum: 88d86576ff6df21479756cfb9bdac1df
     Pseudo is Ultrasoft + core correction, Zval =  6.0
     Generated by new atomic code, or converted to UPF format
     Using radial grid of  907 points,  6 beta functions with:
                l(1) =   0
                l(2) =   0
                l(3) =   1
                l(4) =   1
                l(5) =   2
                l(6) =   2
     Q(r) pseudized with  8 coefficients,  rinner =    1.300   1.300   1.300
                                                       1.300   1.300

     atomic species   valence    mass     pseudopotential
        Mn            15.00    54.93804     Mn( 1.00)
        Zn            20.00    65.38000     Zn( 1.00)
        S              6.00    32.06000     S ( 1.00)

      6 Sym. Ops. (no inversion) found

                                    s                        frac. trans.

      isym =  1     identity

 cryst.   s( 1) = (     1          0          0      )
                  (     0          1          0      )
                  (     0          0          1      )

 cart.    s( 1) = (  1.0000000  0.0000000  0.0000000 )
                  (  0.0000000  1.0000000  0.0000000 )
                  (  0.0000000  0.0000000  1.0000000 )

      isym =  2     120 deg rotation - cryst. axis [0,0,1]

[...]

      isym =  3     120 deg rotation - cryst. axis [0,0,-1]

[...]

      isym =  4     inv. 180 deg rotation - cart. axis [1,0,0]

[...]

      isym =  5     inv. 180 deg rotation - cryst. axis [0,1,0]

[...]

      isym =  6     inv. 180 deg rotation - cryst. axis [1,1,0]

 cryst.   s( 6) = (     0         -1          0      )
                  (    -1          0          0      )
                  (     0          0          1      )

 cart.    s( 6) = (  0.4999999 -0.8660255  0.0000000 )
                  ( -0.8660255 -0.4999999  0.0000000 )
                  (  0.0000000  0.0000000  1.0000000 )

   Cartesian axes

     site n.     atom                  positions (alat units)
         1           Mn  tau(   1) = (   0.0000000   0.0000000   0.8137161  )
         2           Zn  tau(   2) = (   0.0000000   0.0000000   2.4590726  )
         3           Zn  tau(   3) = (  -0.0000004   0.5773506   3.2713483  )
         4           Zn  tau(   4) = (  -0.0000004   0.5773506   1.6486769  )
         5           S   tau(   5) = (   0.0000000   0.0000000   0.1929485  )
         6           S   tau(   6) = (   0.0000000   0.0000000   1.8490472  )
         7           S   tau(   7) = (  -0.0000004   0.5773506   1.0413912  )
         8           S   tau(   8) = (  -0.0000004   0.5773506   2.6616936  )

   Crystallographic axes

     site n.     atom                  positions (cryst. coord.)
         1           Mn  tau(   1) = (  0.0000000  0.0000000  0.2480050  )
         2           Zn  tau(   2) = (  0.0000000  0.0000000  0.7494780  )
         3           Zn  tau(   3) = (  0.3333330  0.6666670  0.9970440  )
         4           Zn  tau(   4) = (  0.3333330  0.6666670  0.5024850  )
         5           S   tau(   5) = (  0.0000000  0.0000000  0.0588070  )
         6           S   tau(   6) = (  0.0000000  0.0000000  0.5635540  )
         7           S   tau(   7) = (  0.3333330  0.6666670  0.3173960  )
         8           S   tau(   8) = (  0.3333330  0.6666670  0.8112330  )

     number of k points=     1  Methfessel-Paxton smearing, width (Ry)=  0.0010
                       cart. coord. in units 2pi/alat
        k(    1) = (   0.0000000   0.0000000   0.0000000), wk =   2.0000000

                       cryst. coord.
        k(    1) = (   0.0000000   0.0000000   0.0000000), wk =   2.0000000

     Check: negative core charge=   -0.000007

     Initial potential from superposition of free atoms

     starting charge      98.4993, renormalised to      99.0000
     Starting wfcs are   68 randomized atomic wfcs

     Self-consistent Calculation

     iteration #  1     ecut=    30.00 Ry     beta= 0.70
     Davidson diagonalization with overlap

     ethr =  1.00E-02,  avg # of iterations =  4.0

     total energy              =   -1622.00249896 Ry
     estimated scf accuracy    <      80.36355136 Ry

[...]

     total energy              =   -1690.97400314 Ry
     estimated scf accuracy    <       0.00000209 Ry

     iteration # 27     ecut=    30.00 Ry     beta= 0.70
     Davidson diagonalization with overlap

     ethr =  2.11E-09,  avg # of iterations =  2.0

     End of self-consistent calculation

          k = 0.0000 0.0000 0.0000 (  1545 PWs)   bands (ev):

  -118.8757-118.8503-118.6545 -73.0561 -73.0093 -72.9618 -72.9618 -72.9514
   -72.9514 -72.7961 -72.7641 -72.7641 -71.0150 -39.9262 -39.9260 -39.4804
    -6.5524  -5.6647  -5.2786  -4.9066  -0.1320  -0.0629  -0.0629  -0.0277
    -0.0277  -0.0000   0.1561   0.1561   0.2065   0.2065   0.2571   0.2571
     0.3693   0.4525   0.4525   1.5374   3.0470   3.8137   3.8137   4.1431
     6.0487   6.2117   6.2117   6.4965   6.4965   6.8390   6.8390   7.6344
     7.6344   8.4686   8.8870   9.0134   9.0134   9.6923   9.9694  10.9115
    12.8754  12.8756  13.1669  13.3612

     occupation numbers
     1.0000   1.0000   1.0000   1.0000   1.0000   1.0000   1.0000   1.0000
     1.0000   1.0000   1.0000   1.0000   1.0000   1.0000   1.0000   1.0000
     1.0000   1.0000   1.0000   1.0000   1.0000   1.0000   1.0000   1.0000
     1.0000   1.0000   1.0000   1.0000   1.0000   1.0000   1.0000   1.0000
     1.0000   1.0000   1.0000   1.0000   1.0000   1.0000   1.0000   1.0000
     1.0000   1.0000   1.0000   1.0000   1.0000   1.0000   1.0000   1.0000
     1.0000   0.5000  -0.0000  -0.0000  -0.0000  -0.0000  -0.0000  -0.0000
    -0.0000  -0.0000  -0.0000  -0.0000

     the Fermi energy is     8.4686 ev

!    total energy              =   -1690.97400320 Ry
     estimated scf accuracy    <       0.00000040 Ry
     smearing contrib. (-TS)   =      -0.00028209 Ry
     internal energy E=F+TS    =   -1690.97372111 Ry

     The total energy is F=E-TS. E is the sum of the following terms:
     one-electron contribution =   -1564.46824657 Ry
     hartree contribution      =     809.08702634 Ry
     xc contribution           =    -187.43716311 Ry
     ewald contribution        =    -748.15533776 Ry

     convergence has been achieved in  27 iterations

     Forces acting on atoms (cartesian axes, Ry/au):

     atom    1 type  1   force =     0.00000000    0.00000000    0.00591654
     atom    2 type  2   force =     0.00000000    0.00000000   -0.07346046
     atom    3 type  2   force =     0.00000000    0.00000000   -0.05486277
     atom    4 type  2   force =     0.00000000    0.00000000   -0.02456009
     atom    5 type  3   force =     0.00000000    0.00000000    0.11434577
     atom    6 type  3   force =    -0.00000000   -0.00000000    0.06439534
     atom    7 type  3   force =     0.00000000    0.00000000   -0.11098386
     atom    8 type  3   force =     0.00000000    0.00000000    0.07920953
     The non-local contrib.  to forces
     atom    1 type  1   force =     0.00000000    0.00000000    0.84309846
     atom    2 type  2   force =     0.00000000    0.00000000    0.95323302
     atom    3 type  2   force =     0.00000000    0.00000000    0.76855667
     atom    4 type  2   force =     0.00000000    0.00000000    0.64137364
     atom    5 type  3   force =     0.00000000    0.00000000    0.06535264
     atom    6 type  3   force =     0.00000000    0.00000000   -0.06279501
     atom    7 type  3   force =     0.00000000    0.00000000   -0.02405397
     atom    8 type  3   force =     0.00000000    0.00000000   -0.08088287
     The ionic contribution  to forces
     atom    1 type  1   force =    -0.00001686    0.00000973   -0.23207544
     atom    2 type  2   force =    -0.00002475    0.00001429    0.03969525
     atom    3 type  2   force =     0.00002411   -0.00001392   15.91051770
     atom    4 type  2   force =     0.00002420   -0.00001397  -16.11541321
     atom    5 type  3   force =    -0.00002107    0.00001217    6.87160990
     atom    6 type  3   force =    -0.00002128    0.00001229   -3.68961758
     atom    7 type  3   force =     0.00001453   -0.00000839   -4.08767538
     atom    8 type  3   force =     0.00002111   -0.00001219    1.30295876
     The local contribution  to forces
     atom    1 type  1   force =     0.00008481   -0.00003833   -0.57250750
     atom    2 type  2   force =     0.00004107   -0.00001488   -1.06393218
     atom    3 type  2   force =    -0.00001738   -0.00000414  -16.73434053
     atom    4 type  2   force =    -0.00003864    0.00005521   15.44817121
     atom    5 type  3   force =     0.00001526   -0.00003767   -6.81793525
     atom    6 type  3   force =    -0.00000154   -0.00004232    3.81313880
     atom    7 type  3   force =     0.00001918    0.00000468    3.99867273
     atom    8 type  3   force =    -0.00001912    0.00000176   -1.14634286
     The core correction contribution to forces
     atom    1 type  1   force =     0.00000309    0.00000014   -0.03380476
     atom    2 type  2   force =     0.00000000    0.00000000    0.00000000
     atom    3 type  2   force =     0.00000000    0.00000000    0.00000000
     atom    4 type  2   force =     0.00000000    0.00000000    0.00000000
     atom    5 type  3   force =     0.00000037   -0.00000082   -0.00447025
     atom    6 type  3   force =    -0.00000056   -0.00000097    0.00311541
     atom    7 type  3   force =     0.00000117   -0.00000029    0.00152416
     atom    8 type  3   force =     0.00000021   -0.00000030    0.00422645
     The Hubbard contrib.    to forces
     atom    1 type  1   force =     0.00000000    0.00000000    0.00000000
     atom    2 type  2   force =     0.00000000    0.00000000    0.00000000
     atom    3 type  2   force =     0.00000000    0.00000000    0.00000000
     atom    4 type  2   force =     0.00000000    0.00000000    0.00000000
     atom    5 type  3   force =     0.00000000    0.00000000    0.00000000
     atom    6 type  3   force =     0.00000000    0.00000000    0.00000000
     atom    7 type  3   force =     0.00000000    0.00000000    0.00000000
     atom    8 type  3   force =     0.00000000    0.00000000    0.00000000
     The SCF correction term to forces
     atom    1 type  1   force =    -0.00004772    0.00001379    0.00112573
     atom    2 type  2   force =    -0.00001595   -0.00000855   -0.00253661
     atom    3 type  2   force =    -0.00002351    0.00004070    0.00032333
     atom    4 type  2   force =    -0.00000455   -0.00008245    0.00122821
     atom    5 type  3   force =     0.00001104    0.00001284   -0.00029131
     atom    6 type  3   force =     0.00000928    0.00001380    0.00047366
     atom    7 type  3   force =    -0.00002663    0.00001086    0.00046856
     atom    8 type  3   force =    -0.00000306    0.00000255   -0.00083000

     Total force =     0.211797     Total SCF correction =     0.003247

     Computing stress (Cartesian axis) and pressure

          total   stress  (Ry/bohr**3)                   (kbar)     P=      -88.49
  -0.00021769   0.00000000   0.00000000          -32.02        0.00        0.00
   0.00000000  -0.00021769  -0.00000000            0.00      -32.02       -0.00
   0.00000000   0.00000000  -0.00136923            0.00        0.00     -201.42

     kinetic stress (kbar)  17362.01     -0.00      0.00
                               -0.00  17362.01      0.00
                                0.00      0.00  17040.84

     local   stress (kbar) -17288.72     -0.01      0.03
                               -0.01 -17288.69     -0.02
                                0.03     -0.02 -11951.01

     nonloc. stress (kbar)   2889.21     -0.00      0.00
                               -0.00   2889.21      0.00
                                0.00      0.00   2743.20

     hartree stress (kbar)  36296.42      0.01     -0.01
                                0.01  36296.40      0.01
                               -0.01      0.01  33619.60

     exc-cor stress (kbar)  -4820.42      0.00     -0.00
                                0.00  -4820.42      0.00
                               -0.00      0.00  -4817.52

     corecor stress (kbar)  -2526.04     -0.00      0.00
                               -0.00  -2526.04     -0.00
                                0.00     -0.00  -2511.85

     ewald   stress (kbar) -31944.46     -0.04     -0.00
                               -0.04 -31944.51      0.00
                               -0.00      0.00 -34324.68

     hubbard stress (kbar)      0.00      0.00      0.00
                                0.00      0.00      0.00
                                0.00      0.00      0.00

     DFT-D   stress (kbar)      0.00      0.00      0.00
                                0.00      0.00      0.00
                                0.00      0.00      0.00

     XDM     stress (kbar)      0.00      0.00      0.00
                                0.00      0.00      0.00
                                0.00      0.00      0.00

     dft-nl  stress (kbar)      0.00      0.00      0.00
                                0.00      0.00      0.00
                                0.00      0.00      0.00

     TS-vdW  stress (kbar)      0.00      0.00      0.00
                                0.00      0.00      0.00
                                0.00      0.00      0.00

[...]

                                0.00      0.00      0.00

     Writing all to output data dir new_calculations/myprefix.save/

     General routines

     Parallel routines

   This run was terminated on:  14:57:20  21May2023

   JOB DONE.