     Program PWSCF v.7.0 starts on 21May2023 at  0:32: 2

     Reading input from espresso_1850.pwi
Warning: card &CELL ignored
Warning: card / ignored

     Current dimensions of program PWSCF are:
     Max number of different atomic species (ntypx) = 10
     Max number of k-points (npk) =  40000
     Max angular momentum in pseudopotentials (lmaxx) =  4

     gamma-point specific algorithms are used
     Message from routine setup:
     using ibrav=0 with symmetry is DISCOURAGED, use correct ibrav instead

     Subspace diagonalization in iterative solution of the eigenvalue problem:
     a serial algorithm will be used

     Using Slab Decomposition

     bravais-lattice index     =            0
     lattice parameter (alat)  =      10.3895  a.u.
     unit-cell volume          =     748.1298 (a.u.)^3
     number of atoms/cell      =            8
     number of atomic types    =            2
     number of electrons       =        68.00
     number of Kohn-Sham states=           41
     kinetic-energy cutoff     =      30.0000  Ry
     charge density cutoff     =     240.0000  Ry
     scf convergence threshold =      1.0E-06
     mixing beta               =       0.7000
     number of iterations used =            8  plain     mixing
     Exchange-correlation=  SLA  PW   PBX  PBC
                           (   1   4   3   4   0   0   0)

     celldm(1)=  10.389461  celldm(2)=   0.000000  celldm(3)=   0.000000
     celldm(4)=   0.000000  celldm(5)=   0.000000  celldm(6)=   0.000000

     crystal axes: (cart. coord. in units of alat)
               a(1) = (   1.000000   0.000000   0.000000 )
               a(2) = (   0.536708   0.843768   0.000000 )
               a(3) = (   0.536708   0.294693   0.790633 )

     reciprocal axes: (cart. coord. in units 2 pi/alat)
               b(1) = (  1.000000 -0.636085 -0.441745 )
               b(2) = (  0.000000  1.185160 -0.441745 )
               b(3) = (  0.000000  0.000000  1.264809 )

     PseudoPot. # 1 for V  read from file:
     /home/pragov/projects/rrg-bengioy-ad/pragov/crystal_structure_design/SSSP/v_pbe_v1.4.uspp.F.UPF
     MD5 check sum: 22b79981416ebb76fdaf5b1b8640f6fb
     Pseudo is Ultrasoft + core correction, Zval = 13.0
     Generated by new atomic code, or converted to UPF format
     Using radial grid of  853 points,  6 beta functions with:
                l(1) =   0
                l(2) =   0
                l(3) =   1
                l(4) =   1
                l(5) =   2
                l(6) =   2
     Q(r) pseudized with  8 coefficients,  rinner =    1.100   1.100   1.100
                                                       1.100   1.100

     PseudoPot. # 2 for F  read from file:
     /home/pragov/projects/rrg-bengioy-ad/pragov/crystal_structure_design/SSSP/f_pbe_v1.4.uspp.F.UPF
     MD5 check sum: 4c38b6a325caf53ec0e86aed9459de46
     Pseudo is Ultrasoft, Zval =  7.0
     Generated by new atomic code, or converted to UPF format
     Using radial grid of  799 points,  4 beta functions with:
                l(1) =   0
                l(2) =   0
                l(3) =   1
                l(4) =   1
     Q(r) pseudized with  8 coefficients,  rinner =    0.950   0.950   0.950

     atomic species   valence    mass     pseudopotential
        V             13.00    50.94150     V ( 1.00)
        F              7.00    18.99840     F ( 1.00)

      2 Sym. Ops., with inversion, found

                                    s                        frac. trans.

      isym =  1     identity

 cryst.   s( 1) = (     1          0          0      )
                  (     0          1          0      )
                  (     0          0          1      )

 cart.    s( 1) = (  1.0000000  0.0000000 -0.0000000 )
                  (  0.0000000  1.0000000 -0.0000000 )
                  (  0.0000000  0.0000000  1.0000000 )

      isym =  2     inversion

 cryst.   s( 2) = (    -1          0          0      )
                  (     0         -1          0      )
                  (     0          0         -1      )

 cart.    s( 2) = ( -1.0000000 -0.0000000  0.0000000 )
                  (  0.0000000 -1.0000000  0.0000000 )
                  (  0.0000000  0.0000000 -1.0000000 )

   Cartesian axes

     site n.     atom                  positions (alat units)
         1           V   tau(   1) = (   1.0367082   0.5692304   0.3953165  )
         2           V   tau(   2) = (   0.0000000   0.0000000   0.0000000  )
         3           F   tau(   3) = (   1.0183541   0.2306637   0.2753450  )
         4           F   tau(   4) = (   0.8322308   0.6775429   0.1199714  )
         5           F   tau(   5) = (   1.3322308   0.6235914   0.1976582  )
         6           F   tau(   6) = (   1.2411856   0.4609179   0.6706615  )
         7           F   tau(   7) = (   1.0550624   0.9077972   0.5152879  )
         8           F   tau(   8) = (   0.7411856   0.5148695   0.5929747  )

   Crystallographic axes

     site n.     atom                  positions (cryst. coord.)
         1           V   tau(   1) = (  0.5000000  0.5000000  0.5000000  )
         2           V   tau(   2) = (  0.0000000  0.0000000  0.0000000  )
         3           F   tau(   3) = (  0.7500000  0.1517410  0.3482590  )
         4           F   tau(   4) = (  0.3482590  0.7500000  0.1517410  )
         5           F   tau(   5) = (  0.8482590  0.6517410  0.2500000  )
         6           F   tau(   6) = (  0.6517410  0.2500000  0.8482590  )
         7           F   tau(   7) = (  0.2500000  0.8482590  0.6517410  )
         8           F   tau(   8) = (  0.1517410  0.3482590  0.7500000  )

     number of k points=     1  Methfessel-Paxton smearing, width (Ry)=  0.0010
                       cart. coord. in units 2pi/alat
        k(    1) = (   0.0000000   0.0000000   0.0000000), wk =   2.0000000

                       cryst. coord.
        k(    1) = (   0.0000000   0.0000000   0.0000000), wk =   2.0000000

     Check: negative core charge=   -0.000004

     Initial potential from superposition of free atoms

     starting charge      67.9975, renormalised to      68.0000

     negative rho (up, down):  2.139E-03 0.000E+00
     Starting wfcs are   44 randomized atomic wfcs

     Self-consistent Calculation

     iteration #  1     ecut=    30.00 Ry     beta= 0.70
     Davidson diagonalization with overlap

     ethr =  1.00E-02,  avg # of iterations =  2.0

     negative rho (up, down):  2.694E-03 0.000E+00

     total energy              =    -581.73988506 Ry
     estimated scf accuracy    <       1.13291159 Ry

[...]

     total energy              =    -582.32587466 Ry
     estimated scf accuracy    <       0.00000102 Ry

     iteration # 23     ecut=    30.00 Ry     beta= 0.70
     Davidson diagonalization with overlap

     ethr =  1.49E-09,  avg # of iterations =  2.0

[...]

     End of self-consistent calculation

          k = 0.0000 0.0000 0.0000 (  1031 PWs)   bands (ev):

   -60.6608 -60.6575 -34.5501 -34.4999 -34.4890 -34.4889 -34.4462 -34.4462
   -19.5645 -19.0637 -19.0634 -18.8761 -18.8607 -18.8605  -2.7946  -2.4067
    -2.4065  -1.6442  -1.6127  -1.6126  -1.5169  -1.5167  -1.3555  -0.0030
     0.3071   0.3072   0.4035   0.4155   0.4158   0.4181   0.6530   0.6531
     4.7693   4.7693   4.7722   5.5538   5.5538   5.9348   6.4214   6.4214
     8.3996

     occupation numbers
     1.0000   1.0000   1.0000   1.0000   1.0000   1.0000   1.0000   1.0000
     1.0000   1.0000   1.0000   1.0000   1.0000   1.0000   1.0000   1.0000
     1.0000   1.0000   1.0000   1.0000   1.0000   1.0000   1.0000   1.0000
     1.0000   1.0000   1.0000   1.0000   1.0000   1.0000   1.0000   1.0000
     0.7249   0.7228   0.5523  -0.0000  -0.0000  -0.0000  -0.0000  -0.0000
    -0.0000

     the Fermi energy is     4.7730 ev

!    total energy              =    -582.32587443 Ry
     estimated scf accuracy    <       0.00000058 Ry
     smearing contrib. (-TS)   =      -0.00072219 Ry
     internal energy E=F+TS    =    -582.32515224 Ry

     The total energy is F=E-TS. E is the sum of the following terms:
     one-electron contribution =    -368.45931776 Ry
     hartree contribution      =     210.55659222 Ry
     xc contribution           =     -95.03420215 Ry
     ewald contribution        =    -329.38822456 Ry

     convergence has been achieved in  23 iterations

     negative rho (up, down):  2.533E-03 0.000E+00

     Forces acting on atoms (cartesian axes, Ry/au):

     atom    1 type  1   force =     0.00000000    0.00000000    0.00000000
     atom    2 type  1   force =     0.00000000    0.00000000    0.00000000
     atom    3 type  2   force =    -0.00001929    0.00786751   -0.01136827
     atom    4 type  2   force =    -0.00669916    0.00426616    0.01129501
     atom    5 type  2   force =    -0.00664045    0.01214684   -0.00001432
     atom    6 type  2   force =     0.00669916   -0.00426616   -0.01129501
     atom    7 type  2   force =     0.00001929   -0.00786751    0.01136827
     atom    8 type  2   force =     0.00664045   -0.01214684    0.00001432
     The non-local contrib.  to forces
     atom    1 type  1   force =     0.00000000    0.00000000    0.00000000
     atom    2 type  1   force =     0.00000000    0.00000000    0.00000000
     atom    3 type  2   force =    -0.00001510    0.30142361   -0.43406710
     atom    4 type  2   force =    -0.25437613    0.16182292    0.43399115
     atom    5 type  2   force =    -0.25433006    0.46325343   -0.00001028
     atom    6 type  2   force =     0.25437613   -0.16182292   -0.43399115
     atom    7 type  2   force =     0.00001510   -0.30142361    0.43406710
     atom    8 type  2   force =     0.25433006   -0.46325343    0.00001028
     The ionic contribution  to forces
     atom    1 type  1   force =    -0.00000000    0.00000000    0.00000000
     atom    2 type  1   force =    -0.00000000   -0.00000000    0.00000000
     atom    3 type  2   force =    -0.00000093   -3.11491765    4.48527909
     atom    4 type  2   force =     2.62826795   -1.67180129   -4.48527909
     atom    5 type  2   force =     2.62826527   -4.78671576   -0.00000000
     atom    6 type  2   force =    -2.62826795    1.67180129    4.48527909
     atom    7 type  2   force =     0.00000093    3.11491765   -4.48527909
     atom    8 type  2   force =    -2.62826527    4.78671576    0.00000000
     The local contribution  to forces
     atom    1 type  1   force =    -0.00001133   -0.00001229    0.00000776
     atom    2 type  1   force =     0.00000806    0.00001554   -0.00000510
     atom    3 type  2   force =     0.00010969    2.82151115   -4.06252225
     atom    4 type  2   force =    -2.38041366    1.51402958    4.06286288
     atom    5 type  2   force =    -2.38062710    4.33534395    0.00006238
     atom    6 type  2   force =     2.38041239   -1.51402876   -4.06286369
     atom    7 type  2   force =    -0.00010958   -2.82150975    4.06252323
     atom    8 type  2   force =     2.38062769   -4.33534448   -0.00006128
     The core correction contribution to forces
     atom    1 type  1   force =    -0.00000010   -0.00000007    0.00000008
     atom    2 type  1   force =    -0.00000000    0.00000016   -0.00000016
     atom    3 type  2   force =     0.00000000    0.00000000    0.00000000
     atom    4 type  2   force =     0.00000000    0.00000000    0.00000000
     atom    5 type  2   force =     0.00000000    0.00000000    0.00000000
     atom    6 type  2   force =     0.00000000    0.00000000    0.00000000
     atom    7 type  2   force =     0.00000000    0.00000000    0.00000000
     atom    8 type  2   force =     0.00000000    0.00000000    0.00000000
     The Hubbard contrib.    to forces
     atom    1 type  1   force =     0.00000000    0.00000000    0.00000000
     atom    2 type  1   force =     0.00000000    0.00000000    0.00000000
     atom    3 type  2   force =     0.00000000    0.00000000    0.00000000
     atom    4 type  2   force =     0.00000000    0.00000000    0.00000000
     atom    5 type  2   force =     0.00000000    0.00000000    0.00000000
     atom    6 type  2   force =     0.00000000    0.00000000    0.00000000
     atom    7 type  2   force =     0.00000000    0.00000000    0.00000000
     atom    8 type  2   force =     0.00000000    0.00000000    0.00000000
     The SCF correction term to forces
     atom    1 type  1   force =     0.00001327    0.00001487   -0.00000959
     atom    2 type  1   force =    -0.00000931   -0.00001874    0.00000520
     atom    3 type  2   force =    -0.00011294   -0.00014956   -0.00005864
     atom    4 type  2   force =    -0.00017710    0.00021479   -0.00027991
     atom    5 type  2   force =     0.00005163    0.00026501   -0.00006678
     atom    6 type  2   force =     0.00017882   -0.00021595    0.00028075
     atom    7 type  2   force =     0.00011284    0.00014822    0.00005641
     atom    8 type  2   force =    -0.00005186   -0.00026491    0.00006496

     Total force =     0.033865     Total SCF correction =     0.000738

     Computing stress (Cartesian axis) and pressure

     negative rho (up, down):  2.533E-03 0.000E+00
          total   stress  (Ry/bohr**3)                   (kbar)     P=     -232.65
  -0.00161443  -0.00003487  -0.00002579         -237.49       -5.13       -3.79
  -0.00003487  -0.00156890  -0.00001243           -5.13     -230.79       -1.83
  -0.00002579  -0.00001243  -0.00156128           -3.79       -1.83     -229.67

     kinetic stress (kbar)  23548.82    -10.72     -6.88
                              -10.72  23562.49     -4.30
                               -6.88     -4.30  23566.49

     local   stress (kbar) -11634.94   -620.27   -432.23
                             -620.27 -10845.17   -235.90
                             -432.23   -235.90 -10670.88

     nonloc. stress (kbar)    932.75     -5.07     -3.44
                               -5.07    939.18     -1.96
                               -3.44     -1.96    940.74

     hartree stress (kbar)  14060.26    275.24    191.73
                              275.24  13709.59    104.69
                              191.73    104.69  13631.98

     exc-cor stress (kbar)  -4871.02     -0.09     -0.06
                               -0.09  -4870.91     -0.04
                               -0.06     -0.04  -4870.87

     corecor stress (kbar)  -1019.30      0.29      0.19
                                0.29  -1019.66      0.11
                                0.19      0.11  -1019.76

     ewald   stress (kbar) -21254.06    355.51    246.89
                              355.51 -21706.32    135.56
                              246.89    135.56 -21807.37

     hubbard stress (kbar)      0.00      0.00      0.00
                                0.00      0.00      0.00
                                0.00      0.00      0.00

     DFT-D   stress (kbar)      0.00      0.00      0.00
                                0.00      0.00      0.00
                                0.00      0.00      0.00

     XDM     stress (kbar)      0.00      0.00      0.00
                                0.00      0.00      0.00
                                0.00      0.00      0.00

     dft-nl  stress (kbar)      0.00      0.00      0.00
                                0.00      0.00      0.00
                                0.00      0.00      0.00

     TS-vdW  stress (kbar)      0.00      0.00      0.00
                                0.00      0.00      0.00
                                0.00      0.00      0.00

[...]

                                0.00      0.00      0.00

     Writing all to output data dir new_calculations/myprefix.save/

     General routines

     Parallel routines

   This run was terminated on:   0:32:12  21May2023

   JOB DONE.