     Program PWSCF v.7.0 starts on 20May2023 at 18:55:53

     Reading input from espresso_9588.pwi
Warning: card &CELL ignored
Warning: card / ignored

     Current dimensions of program PWSCF are:
     Max number of different atomic species (ntypx) = 10
     Max number of k-points (npk) =  40000
     Max angular momentum in pseudopotentials (lmaxx) =  4

     gamma-point specific algorithms are used

     Subspace diagonalization in iterative solution of the eigenvalue problem:
     a serial algorithm will be used

     Using Slab Decomposition

     bravais-lattice index     =            0
     lattice parameter (alat)  =      13.5720  a.u.
     unit-cell volume          =     471.1671 (a.u.)^3
     number of atoms/cell      =            3
     number of atomic types    =            2
     number of electrons       =        26.00
     number of Kohn-Sham states=           17
     kinetic-energy cutoff     =      30.0000  Ry
     charge density cutoff     =     240.0000  Ry
     scf convergence threshold =      1.0E-06
     mixing beta               =       0.7000
     number of iterations used =            8  plain     mixing
     Exchange-correlation=  SLA  PW   PBX  PBC
                           (   1   4   3   4   0   0   0)

     celldm(1)=  13.572018  celldm(2)=   0.000000  celldm(3)=   0.000000
     celldm(4)=   0.000000  celldm(5)=   0.000000  celldm(6)=   0.000000

     crystal axes: (cart. coord. in units of alat)
               a(1) = (   1.000000   0.000000   0.000000 )
               a(2) = (   0.886834   0.462087   0.000000 )
               a(3) = (   0.886834   0.217187   0.407866 )

     reciprocal axes: (cart. coord. in units 2 pi/alat)
               b(1) = (  1.000000 -1.919192 -1.152368 )
               b(2) = (  0.000000  2.164093 -1.152368 )
               b(3) = (  0.000000  0.000000  2.451785 )

     PseudoPot. # 1 for Zr read from file:
     /home/pragov/projects/rrg-bengioy-ad/pragov/crystal_structure_design/SSSP/Zr_pbe_v1.uspp.F.UPF
     MD5 check sum: 5db81b1e868ab7776c4564c113de050b
     Pseudo is Ultrasoft + core correction, Zval = 12.0
     Generated by new atomic code, or converted to UPF format
     Using radial grid of  887 points,  6 beta functions with:
                l(1) =   0
                l(2) =   0
                l(3) =   1
                l(4) =   1
                l(5) =   2
                l(6) =   2
     Q(r) pseudized with  6 coefficients,  rinner =    1.200   1.200   1.200
                                                       1.200   1.200

     PseudoPot. # 2 for Cl read from file:
     /home/pragov/projects/rrg-bengioy-ad/pragov/crystal_structure_design/SSSP/cl_pbe_v1.4.uspp.F.UPF
     MD5 check sum: fc6f6913ecf08c9257cb748ef0700058
     Pseudo is Ultrasoft + core correction, Zval =  7.0
     Generated by new atomic code, or converted to UPF format
     Using radial grid of  909 points,  6 beta functions with:
                l(1) =   0
                l(2) =   0
                l(3) =   1
                l(4) =   1
                l(5) =   2
                l(6) =   2
     Q(r) pseudized with  8 coefficients,  rinner =    1.300   1.300   1.300
                                                       1.300   1.300

     atomic species   valence    mass     pseudopotential
        Zr            12.00    91.22400     Zr( 1.00)
        Cl             7.00    35.45000     Cl( 1.00)

     No symmetry found

                                    s                        frac. trans.

      isym =  1     identity

 cryst.   s( 1) = (     1          0          0      )
                  (     0          1          0      )
                  (     0          0          1      )

 cart.    s( 1) = (  1.0000000 -0.0000000 -0.0000000 )
                  (  0.0000000  1.0000000 -0.0000000 )
                  (  0.0000000  0.0000000  1.0000000 )

   Cartesian axes

     site n.     atom                  positions (alat units)
         1           Zr  tau(   1) = (   2.7734552   0.6792216   0.4078346  )
         2           Cl  tau(   2) = (   1.6185578   0.3963862   0.2380078  )
         3           Cl  tau(   3) = (   2.0792336   0.5092061   0.3057499  )

   Crystallographic axes

     site n.     atom                  positions (cryst. coord.)
         1           Zr  tau(   1) = (  0.9999230  0.9999230  0.9999230  )
         2           Cl  tau(   2) = (  0.5835440  0.5835440  0.5835440  )
         3           Cl  tau(   3) = (  0.7496330  0.7496330  0.7496330  )

     number of k points=     1  Methfessel-Paxton smearing, width (Ry)=  0.0010
                       cart. coord. in units 2pi/alat
        k(    1) = (   0.0000000   0.0000000   0.0000000), wk =   2.0000000

                       cryst. coord.
        k(    1) = (   0.0000000   0.0000000   0.0000000), wk =   2.0000000

     Check: negative core charge=   -0.000002

     Initial potential from superposition of free atoms

     starting charge      25.9978, renormalised to      26.0000

     negative rho (up, down):  8.907E-02 0.000E+00
     Starting wfcs are   21 randomized atomic wfcs

     Self-consistent Calculation

     iteration #  1     ecut=    30.00 Ry     beta= 0.70
     Davidson diagonalization with overlap

     ethr =  1.00E-02,  avg # of iterations =  2.0

     Threshold (ethr) on eigenvalues was too large:
     Diagonalizing with lowered threshold

     Davidson diagonalization with overlap

[...]

     negative rho (up, down):  8.985E-02 0.000E+00

     total energy              =    -165.48221314 Ry
     estimated scf accuracy    <       0.21608608 Ry

[...]

     total energy              =    -165.54501610 Ry
     estimated scf accuracy    <       0.00000900 Ry

     iteration #  7     ecut=    30.00 Ry     beta= 0.70
     Davidson diagonalization with overlap

     ethr =  3.46E-08,  avg # of iterations =  4.0

[...]

     End of self-consistent calculation

          k = 0.0000 0.0000 0.0000 (   651 PWs)   bands (ev):

   -40.8452 -18.8547 -18.8104 -18.8104  -8.7242  -8.0470   1.6217   4.3483
     4.3483   4.4455   4.6046   4.6046   8.0085   9.7946   9.7946  10.7969
    10.7971

     occupation numbers
     1.0000   1.0000   1.0000   1.0000   1.0000   1.0000   1.0000   1.0000
     1.0000   1.0000   1.0000   1.0000   1.0000  -0.0000  -0.0000  -0.0000
    -0.0000

     the Fermi energy is     9.3108 ev

!    total energy              =    -165.54501834 Ry
     estimated scf accuracy    <       0.00000071 Ry
     smearing contrib. (-TS)   =       0.00000000 Ry
     internal energy E=F+TS    =    -165.54501834 Ry

     The total energy is F=E-TS. E is the sum of the following terms:
     one-electron contribution =     -69.03974271 Ry
     hartree contribution      =      44.72407944 Ry
     xc contribution           =     -37.05034005 Ry
     ewald contribution        =    -104.17901502 Ry

     convergence has been achieved in   7 iterations

     negative rho (up, down):  8.870E-02 0.000E+00

     Forces acting on atoms (cartesian axes, Ry/au):

     atom    1 type  1   force =    -0.00039314   -0.00008976   -0.00010618
     atom    2 type  2   force =     0.00944645    0.00230406    0.00142704
     atom    3 type  2   force =    -0.00905331   -0.00221431   -0.00132086
     The non-local contrib.  to forces
     atom    1 type  1   force =     0.00077192    0.00008492    0.00007091
     atom    2 type  2   force =    -0.11083213   -0.02717207   -0.01630856
     atom    3 type  2   force =     0.11171803    0.02731667    0.01637391
     The ionic contribution  to forces
     atom    1 type  1   force =     0.00397531    0.00097356    0.00058302
     atom    2 type  2   force =   -12.31254466   -3.01535297   -1.81055140
     atom    3 type  2   force =    12.30856935    3.01437942    1.80996838
     The local contribution  to forces
     atom    1 type  1   force =    -0.00597380   -0.00131068   -0.00095603
     atom    2 type  2   force =    12.42659628    3.04330015    1.82733578
     atom    3 type  2   force =   -12.42327184   -3.04240697   -1.82680196
     The core correction contribution to forces
     atom    1 type  1   force =    -0.00003599    0.00000337   -0.00000387
     atom    2 type  2   force =     0.00699262    0.00171439    0.00102874
     atom    3 type  2   force =    -0.00700963   -0.00171410   -0.00102680
     The Hubbard contrib.    to forces
     atom    1 type  1   force =     0.00000000    0.00000000    0.00000000
     atom    2 type  2   force =     0.00000000    0.00000000    0.00000000
     atom    3 type  2   force =     0.00000000    0.00000000    0.00000000
     The SCF correction term to forces
     atom    1 type  1   force =     0.00082578    0.00013970    0.00015898
     atom    2 type  2   force =    -0.00080931   -0.00020481   -0.00011833
     atom    3 type  2   force =     0.00089714    0.00019130    0.00012480

     Total force =     0.013615     Total SCF correction =     0.001515
     SCF correction compared to forces is large: reduce conv_thr to get better values

     Computing stress (Cartesian axis) and pressure

     negative rho (up, down):  8.870E-02 0.000E+00
          total   stress  (Ry/bohr**3)                   (kbar)     P=      224.41
   0.00039578  -0.00043273  -0.00025991           58.22      -63.66      -38.23
  -0.00043273   0.00205646  -0.00006349          -63.66      302.51       -9.34
  -0.00025991  -0.00006349   0.00212431          -38.23       -9.34      312.50

     kinetic stress (kbar)  10690.09    -46.48    -27.91
                              -46.48  10868.50     -6.82
                              -27.91     -6.82  10875.77

     local   stress (kbar)   7439.82   6752.10   4054.24
                             6752.10 -18477.38    992.91
                             4054.24    992.91 -19534.75

     nonloc. stress (kbar)   8969.68     58.33     35.02
                               58.33   8745.83      8.57
                               35.02      8.57   8736.69

     hartree stress (kbar)  -3294.62  -3044.33  -1827.95
                            -3044.33   8390.69   -447.67
                            -1827.95   -447.67   8867.43

     exc-cor stress (kbar)   1297.68      1.96      1.17
                                1.96   1290.17      0.29
                                1.17      0.29   1289.86

     corecor stress (kbar)  -4322.52     -1.47     -0.88
                               -1.47  -4316.88     -0.22
                               -0.88     -0.22  -4316.65

     ewald   stress (kbar) -20721.91  -3783.75  -2271.93
                            -3783.75  -6198.41   -556.40
                            -2271.93   -556.40  -5605.85

     hubbard stress (kbar)      0.00      0.00      0.00
                                0.00      0.00      0.00
                                0.00      0.00      0.00

     DFT-D   stress (kbar)      0.00      0.00      0.00
                                0.00      0.00      0.00
                                0.00      0.00      0.00

     XDM     stress (kbar)      0.00      0.00      0.00
                                0.00      0.00      0.00
                                0.00      0.00      0.00

     dft-nl  stress (kbar)      0.00      0.00      0.00
                                0.00      0.00      0.00
                                0.00      0.00      0.00

     TS-vdW  stress (kbar)      0.00      0.00      0.00
                                0.00      0.00      0.00
                                0.00      0.00      0.00

[...]

                                0.00      0.00      0.00

     Writing all to output data dir new_calculations/myprefix.save/

     General routines

     Parallel routines

   This run was terminated on:  18:56:11  20May2023

   JOB DONE.