     Program PWSCF v.7.0 starts on 20May2023 at 11:47:43

     Reading input from espresso_18281.pwi
Warning: card &CELL ignored
Warning: card / ignored

     Current dimensions of program PWSCF are:
     Max number of different atomic species (ntypx) = 10
     Max number of k-points (npk) =  40000
     Max angular momentum in pseudopotentials (lmaxx) =  4
     file Al.pbe-n-kjpaw_psl.1.0.0.UPF: wavefunction(s)  3S 3P renormalized

     gamma-point specific algorithms are used
     Message from routine setup:
     using ibrav=0 with symmetry is DISCOURAGED, use correct ibrav instead

     Subspace diagonalization in iterative solution of the eigenvalue problem:
     a serial algorithm will be used

     Using Slab Decomposition

     bravais-lattice index     =            0
     lattice parameter (alat)  =       9.5005  a.u.
     unit-cell volume          =    1240.3634 (a.u.)^3
     number of atoms/cell      =           12
     number of atomic types    =            3
     number of electrons       =       144.00
     number of Kohn-Sham states=           86
     kinetic-energy cutoff     =      30.0000  Ry
     charge density cutoff     =     240.0000  Ry
     scf convergence threshold =      1.0E-06
     mixing beta               =       0.7000
     number of iterations used =            8  plain     mixing
     Exchange-correlation= SLA  PW   PBE  PBE
                           (   1   4   3   4   0   0   0)

     celldm(1)=   9.500522  celldm(2)=   0.000000  celldm(3)=   0.000000
     celldm(4)=   0.000000  celldm(5)=   0.000000  celldm(6)=   0.000000

     crystal axes: (cart. coord. in units of alat)
               a(1) = (   1.000000   0.000000   0.000000 )
               a(2) = (  -0.489790   0.871840   0.000000 )
               a(3) = (   0.000000   0.000000   1.659089 )

     reciprocal axes: (cart. coord. in units 2 pi/alat)
               b(1) = (  1.000000  0.561789  0.000000 )
               b(2) = (  0.000000  1.146999  0.000000 )
               b(3) = (  0.000000  0.000000  0.602741 )

     PseudoPot. # 1 for Ta read from file:
     /home/pragov/projects/rrg-bengioy-ad/pragov/crystal_structure_design/SSSP/Ta_pbe_v1.uspp.F.UPF
     MD5 check sum: f8bbe9446314a3b8ea5d9f3e3836c939
     Pseudo is Ultrasoft + core correction, Zval = 13.0
     Generated by new atomic code, or converted to UPF format
     Using radial grid of  921 points,  7 beta functions with:
                l(1) =   0
                l(2) =   0
                l(3) =   1
                l(4) =   1
                l(5) =   2
                l(6) =   2
                l(7) =   3
     Q(r) pseudized with  6 coefficients,  rinner =    1.300   1.300   1.300
                                                       1.300   1.300   1.300
                                                       1.300

     PseudoPot. # 2 for Al read from file:
     /home/pragov/projects/rrg-bengioy-ad/pragov/crystal_structure_design/SSSP/Al.pbe-n-kjpaw_psl.1.0.0.UPF
     MD5 check sum: cfc449ca30b5f3223ec38ddd88ac046d
     Pseudo is Projector augmented-wave + core cor, Zval =  3.0
     Generated using "atomic" code by A. Dal Corso  v.5.1
     Shape of augmentation charge: PSQ
     Using radial grid of 1135 points,  6 beta functions with:
                l(1) =   0
                l(2) =   0
                l(3) =   1
                l(4) =   1
                l(5) =   2
                l(6) =   2
     Q(r) pseudized with 0 coefficients

     PseudoPot. # 3 for Zn read from file:
     /home/pragov/projects/rrg-bengioy-ad/pragov/crystal_structure_design/SSSP/Zn_pbe_v1.uspp.F.UPF
     MD5 check sum: df62231357ef9e81f77b2b3087fa5675
     Pseudo is Ultrasoft, Zval = 20.0
     Generated by new atomic code, or converted to UPF format
     Using radial grid of  943 points,  6 beta functions with:
                l(1) =   0
                l(2) =   0
                l(3) =   1
                l(4) =   1
                l(5) =   2
                l(6) =   2
     Q(r) pseudized with  8 coefficients,  rinner =    1.100   1.100   1.100
                                                       1.100   1.100

     atomic species   valence    mass     pseudopotential
        Ta            13.00   180.94788     Ta( 1.00)
        Al             3.00    26.98154     Al( 1.00)
        Zn            20.00    65.38000     Zn( 1.00)

      2 Sym. Ops. (no inversion) found

                                    s                        frac. trans.

      isym =  1     identity

 cryst.   s( 1) = (     1          0          0      )
                  (     0          1          0      )
                  (     0          0          1      )

 cart.    s( 1) = (  1.0000000 -0.0000000  0.0000000 )
                  (  0.0000000  1.0000000  0.0000000 )
                  (  0.0000000  0.0000000  1.0000000 )

      isym =  2     inv. 180 deg rotation - cart. axis [0,0,1]

 cryst.   s( 2) = (     1          0          0      )
                  (     0          1          0      )
                  (     0          0         -1      )

 cart.    s( 2) = (  1.0000000 -0.0000000  0.0000000 )
                  (  0.0000000  1.0000000  0.0000000 )
                  (  0.0000000  0.0000000 -1.0000000 )

   Cartesian axes

     site n.     atom                  positions (alat units)
         1           Ta  tau(   1) = (   0.5015132   0.2917195   0.5246436  )
         2           Ta  tau(   2) = (   0.0113246   0.5785829   0.3169042  )
         3           Ta  tau(   3) = (   0.0113246   0.5785829   1.3421844  )
         4           Ta  tau(   4) = (   0.5015132   0.2917195   1.1344449  )
         5           Al  tau(   5) = (  -0.4866527   0.8700043   0.4028416  )
         6           Al  tau(   6) = (  -0.4866527   0.8700043   1.2562469  )
         7           Al  tau(   7) = (   0.2474184   0.7244549   0.8295443  )
         8           Al  tau(   8) = (  -0.0002161   0.3013002   0.8295443  )
         9           Zn  tau(   9) = (  -0.2396782   0.7254723   0.8295443  )
        10           Zn  tau(  10) = (   0.2617363   0.1506575   0.0000000  )
        11           Zn  tau(  11) = (   0.5070564   0.5698575   0.0000000  )
        12           Zn  tau(  12) = (   0.7428458   0.1504892   0.0000000  )

   Crystallographic axes

     site n.     atom                  positions (cryst. coord.)
         1           Ta  tau(   1) = (  0.6653980  0.3346020  0.3162240  )
         2           Ta  tau(   2) = (  0.3363660  0.6636340  0.1910110  )
         3           Ta  tau(   3) = (  0.3363660  0.6636340  0.8089890  )
         4           Ta  tau(   4) = (  0.6653980  0.3346020  0.6837760  )
         5           Al  tau(   5) = (  0.0021060  0.9978940  0.2428090  )
         6           Al  tau(   6) = (  0.0021060  0.9978940  0.7571910  )
         7           Al  tau(   7) = (  0.6544090  0.8309490  0.5000000  )
         8           Al  tau(   8) = (  0.1690510  0.3455910  0.5000000  )
         9           Zn  tau(   9) = (  0.1678840  0.8321160  0.5000000  )
        10           Zn  tau(  10) = (  0.3463740  0.1728040  0.0000000  )
        11           Zn  tau(  11) = (  0.8271960  0.6536260  0.0000000  )
        12           Zn  tau(  12) = (  0.8273890  0.1726110  0.0000000  )

     number of k points=     1  Methfessel-Paxton smearing, width (Ry)=  0.0010
                       cart. coord. in units 2pi/alat
        k(    1) = (   0.0000000   0.0000000   0.0000000), wk =   2.0000000

                       cryst. coord.
        k(    1) = (   0.0000000   0.0000000   0.0000000), wk =   2.0000000

     Check: negative core charge=   -0.000001

     Initial potential from superposition of free atoms

     starting charge     143.9858, renormalised to     144.0000

     negative rho (up, down):  3.776E-01 0.000E+00
     Starting wfcs are  120 randomized atomic wfcs
     Checking if some PAW data can be deallocated...

     Self-consistent Calculation

     iteration #  1     ecut=    30.00 Ry     beta= 0.70
     Davidson diagonalization with overlap

     ethr =  1.00E-02,  avg # of iterations =  2.0

     Threshold (ethr) on eigenvalues was too large:
     Diagonalizing with lowered threshold

     Davidson diagonalization with overlap

[...]

     negative rho (up, down):  3.804E-01 0.000E+00

     total energy              =   -2571.04632714 Ry
     estimated scf accuracy    <       1.09631374 Ry

[...]

     total energy              =   -2571.64399727 Ry
     estimated scf accuracy    <       0.00000226 Ry

     iteration # 12     ecut=    30.00 Ry     beta= 0.70
     Davidson diagonalization with overlap

     ethr =  1.57E-09,  avg # of iterations =  3.0

[...]

     End of self-consistent calculation

          k = 0.0000 0.0000 0.0000 (  1711 PWs)   bands (ev):

  -112.1727-111.3114-111.2922-111.2899 -66.2812 -66.2656 -66.1362 -65.4437
   -65.4176 -65.4087 -65.4059 -65.3577 -65.3573 -65.3170 -65.2960 -65.2959
   -53.7120 -53.7023 -53.3804 -53.3745 -20.2111 -20.1897 -20.1487 -20.1469
   -20.1281 -19.9516 -19.9017 -19.7713 -19.7676 -19.7533 -19.7424 -19.7260
     4.1203   6.0145   6.4660   6.8126   6.8591   6.9460   7.0870   7.1086
     7.2766   7.2831   7.3171   7.4116   7.5029   7.6031   7.6282   7.8906
     7.8997   8.2025   8.2160   8.2198   8.3106   8.3181   8.8021  10.3424
    10.7168  10.7457  11.3751  11.4653  11.6948  11.7613  11.8915  12.1352
    12.4380  12.4769  13.2378  13.3435  13.4774  13.4818  13.5143  14.1694
    15.2828  16.0384  16.3340  16.7166  17.0090  17.0116  17.1678  17.2916
    17.3365  17.7238  17.8098  17.8498  18.4312  19.2956

     occupation numbers
     1.0000   1.0000   1.0000   1.0000   1.0000   1.0000   1.0000   1.0000
     1.0000   1.0000   1.0000   1.0000   1.0000   1.0000   1.0000   1.0000
     1.0000   1.0000   1.0000   1.0000   1.0000   1.0000   1.0000   1.0000
     1.0000   1.0000   1.0000   1.0000   1.0000   1.0000   1.0000   1.0000
     1.0000   1.0000   1.0000   1.0000   1.0000   1.0000   1.0000   1.0000
     1.0000   1.0000   1.0000   1.0000   1.0000   1.0000   1.0000   1.0000
     1.0000   1.0000   1.0000   1.0000   1.0000   1.0000   1.0000   1.0000
     1.0000   1.0000   1.0000   1.0000   1.0000   1.0000   1.0000   1.0000
     1.0000   1.0000   1.0000   1.0000   1.0000   1.0000   1.0000   1.0000
    -0.0000  -0.0000  -0.0000  -0.0000  -0.0000  -0.0000  -0.0000  -0.0000
    -0.0000  -0.0000  -0.0000  -0.0000  -0.0000  -0.0000

     the Fermi energy is    14.2855 ev

!    total energy              =   -2571.64399719 Ry
     estimated scf accuracy    <       0.00000073 Ry
     smearing contrib. (-TS)   =       0.00000000 Ry
     internal energy E=F+TS    =   -2571.64399719 Ry

     The total energy is F=E-TS. E is the sum of the following terms:
     one-electron contribution =   -2022.76816613 Ry
     hartree contribution      =    1071.70361008 Ry
     xc contribution           =    -348.10764902 Ry
     ewald contribution        =   -1133.67563324 Ry
     one-center paw contrib.   =    -138.79615887 Ry
      -> PAW hartree energy AE =       7.12260648 Ry
      -> PAW hartree energy PS =      -7.09929900 Ry
      -> PAW xc energy AE      =    -147.10108501 Ry
      -> PAW xc energy PS      =       8.28161866 Ry
      -> total E_H with PAW    =    1071.72691755 Ry
      -> total E_XC with PAW   =    -486.92711537 Ry

     convergence has been achieved in  12 iterations

     negative rho (up, down):  3.855E-01 0.000E+00

     Forces acting on atoms (cartesian axes, Ry/au):

     atom    1 type  1   force =     0.00370206   -0.00217096    0.12572257
     atom    2 type  1   force =    -0.01077831    0.00630535   -0.13657756
     atom    3 type  1   force =    -0.01077831    0.00630535    0.13657756
     atom    4 type  1   force =     0.00370206   -0.00217096   -0.12572257
     atom    5 type  2   force =     0.00565360   -0.00331373   -0.02670802
     atom    6 type  2   force =     0.00565360   -0.00331373    0.02670802
     atom    7 type  2   force =     0.02531990    0.01989052    0.00000000
     atom    8 type  2   force =    -0.00494372   -0.03182482    0.00000000
     atom    9 type  3   force =    -0.02527117    0.01481715    0.00000000
     atom   10 type  3   force =    -0.01873110   -0.01236558    0.00000000
     atom   11 type  3   force =     0.00160828    0.02237167    0.00000000
     atom   12 type  3   force =     0.02486310   -0.01453026    0.00000000
     The non-local contrib.  to forces
     atom    1 type  1   force =     0.01597957   -0.00934720   -0.04408040
     atom    2 type  1   force =    -0.02167937    0.01269112    0.10009009
     atom    3 type  1   force =    -0.02167937    0.01269112   -0.10009009
     atom    4 type  1   force =     0.01597957   -0.00934720    0.04408040
     atom    5 type  2   force =    -0.00169837    0.00099275    0.04798068
     atom    6 type  2   force =    -0.00169837    0.00099275   -0.04798068
     atom    7 type  2   force =     0.00777843    0.00236972    0.00000000
     atom    8 type  2   force =     0.00174539   -0.00794314    0.00000000
     atom    9 type  3   force =     0.11195029   -0.06550634    0.00000000
     atom   10 type  3   force =     0.01374541   -0.03170340    0.00000000
     atom   11 type  3   force =     0.03438551    0.00354302    0.00000000
     atom   12 type  3   force =     0.00278009   -0.00162022    0.00000000
     The ionic contribution  to forces
     atom    1 type  1   force =     0.22416574   -0.13118407   26.00556777
     atom    2 type  1   force =     1.90376682   -1.11410372   30.16148557
     atom    3 type  1   force =     1.90376682   -1.11410372  -30.16148557
     atom    4 type  1   force =     0.22416574   -0.13118407  -26.00556777
     atom    5 type  2   force =    -1.10664159    0.64761792    8.66778634
     atom    6 type  2   force =    -1.10664159    0.64761792   -8.66778634
     atom    7 type  2   force =     0.99790992    0.29828581    0.00000000
     atom    8 type  2   force =     0.22870884   -1.01611560    0.00000000
     atom    9 type  3   force =    -3.34876443    1.95973103    0.00000000
     atom   10 type  3   force =   -10.30327844   -5.74280087    0.00000000
     atom   11 type  3   force =    -0.03963872   11.79558126    0.00000000
     atom   12 type  3   force =    10.42248089   -6.09934189   -0.00000000
     The local contribution  to forces
     atom    1 type  1   force =    -0.23738103    0.13892330  -25.82399649
     atom    2 type  1   force =    -1.89329172    1.10797704  -30.42090914
     atom    3 type  1   force =    -1.89327727    1.10797775   30.42070424
     atom    4 type  1   force =    -0.23729865    0.13888053   25.82418013
     atom    5 type  2   force =     1.11385197   -0.65183616   -8.73745654
     atom    6 type  2   force =     1.11383343   -0.65182831    8.73731985
     atom    7 type  2   force =    -0.97943662   -0.28042239    0.00009659
     atom    8 type  2   force =    -0.23523809    0.99126199    0.00009515
     atom    9 type  3   force =     3.21168262   -1.87954131    0.00065265
     atom   10 type  3   force =    10.27096902    5.76189817   -0.00034921
     atom   11 type  3   force =     0.00714664  -11.77676440   -0.00034769
     atom   12 type  3   force =   -10.40058274    6.08649943   -0.00033989
     The core correction contribution to forces
     atom    1 type  1   force =     0.00097029   -0.00056820   -0.01110052
     atom    2 type  1   force =     0.00031077   -0.00018199    0.02265842
     atom    3 type  1   force =     0.00030920   -0.00018034   -0.02265966
     atom    4 type  1   force =     0.00096763   -0.00056568    0.01112231
     atom    5 type  2   force =     0.00012073   -0.00007040   -0.00509153
     atom    6 type  2   force =     0.00012032   -0.00007043    0.00508948
     atom    7 type  2   force =    -0.00095921   -0.00031697    0.00000084
     atom    8 type  2   force =    -0.00019361    0.00099157    0.00000083
     atom    9 type  3   force =     0.00000000    0.00000000    0.00000000
     atom   10 type  3   force =     0.00000000    0.00000000    0.00000000
     atom   11 type  3   force =     0.00000000    0.00000000    0.00000000
     atom   12 type  3   force =     0.00000000    0.00000000    0.00000000
     The Hubbard contrib.    to forces
     atom    1 type  1   force =     0.00000000    0.00000000    0.00000000
     atom    2 type  1   force =     0.00000000    0.00000000    0.00000000
     atom    3 type  1   force =     0.00000000    0.00000000    0.00000000
     atom    4 type  1   force =     0.00000000    0.00000000    0.00000000
     atom    5 type  2   force =     0.00000000    0.00000000    0.00000000
     atom    6 type  2   force =     0.00000000    0.00000000    0.00000000
     atom    7 type  2   force =     0.00000000    0.00000000    0.00000000
     atom    8 type  2   force =     0.00000000    0.00000000    0.00000000
     atom    9 type  3   force =     0.00000000    0.00000000    0.00000000
     atom   10 type  3   force =     0.00000000    0.00000000    0.00000000
     atom   11 type  3   force =     0.00000000    0.00000000    0.00000000
     atom   12 type  3   force =     0.00000000    0.00000000    0.00000000
     The SCF correction term to forces
     atom    1 type  1   force =    -0.00004529    0.00002002   -0.00069060
     atom    2 type  1   force =     0.00009073   -0.00005878    0.00011967
     atom    3 type  1   force =     0.00007796   -0.00005957    0.00013082
     atom    4 type  1   force =    -0.00014827    0.00006888    0.00043955
     atom    5 type  2   force =     0.00000068   -0.00000041    0.00004919
     atom    6 type  2   force =     0.00001115   -0.00000487    0.00004188
     atom    7 type  2   force =     0.00000297   -0.00000653   -0.00008092
     atom    8 type  2   force =     0.00000932   -0.00000053   -0.00007999
     atom    9 type  3   force =    -0.00016407    0.00015289   -0.00082103
     atom   10 type  3   force =    -0.00019150    0.00025964    0.00040570
     atom   11 type  3   force =    -0.00030957    0.00003090    0.00039642
     atom   12 type  3   force =     0.00016044   -0.00004846    0.00041602

     Total force =     0.274861     Total SCF correction =     0.001489

     Computing stress (Cartesian axis) and pressure

     negative rho (up, down):  3.855E-01 0.000E+00
          total   stress  (Ry/bohr**3)                   (kbar)     P=     -309.52
  -0.00188154   0.00004016   0.00000000         -276.78        5.91        0.00
   0.00004016  -0.00183640   0.00000000            5.91     -270.14        0.00
   0.00000000   0.00000000  -0.00259424            0.00        0.00     -381.63

     kinetic stress (kbar)  26121.18      0.10      0.00
                                0.10  26121.29      0.00
                                0.00      0.00  26024.79

     local   stress (kbar) -30607.98  -4995.40      0.13
                            -4995.40 -36220.69     -0.08
                                0.13     -0.08  54969.21

     nonloc. stress (kbar)  -9635.18     18.45      0.00
                               18.45  -9614.45      0.00
                                0.00      0.00  -9730.93

     hartree stress (kbar)  55517.67   2501.01     -0.12
                             2501.01  58327.75      0.07
                               -0.12      0.07  13256.88

     exc-cor stress (kbar)   3824.29     -0.72      0.00
                               -0.72   3823.49      0.00
                                0.00      0.00   3820.74

     corecor stress (kbar) -14159.89     -1.00     -0.00
                               -1.00 -14161.02     -0.00
                               -0.00     -0.00 -14153.62

     ewald   stress (kbar) -31336.87   2483.46      0.00
                             2483.46 -28546.51      0.00
                                0.00      0.00 -74568.71

     hubbard stress (kbar)      0.00      0.00      0.00
                                0.00      0.00      0.00
                                0.00      0.00      0.00

     DFT-D   stress (kbar)      0.00      0.00      0.00
                                0.00      0.00      0.00
                                0.00      0.00      0.00

     XDM     stress (kbar)      0.00      0.00      0.00
                                0.00      0.00      0.00
                                0.00      0.00      0.00

     dft-nl  stress (kbar)      0.00      0.00      0.00
                                0.00      0.00      0.00
                                0.00      0.00      0.00

     TS-vdW  stress (kbar)      0.00      0.00      0.00
                                0.00      0.00      0.00
                                0.00      0.00      0.00

[...]

                                0.00      0.00      0.00

     Writing all to output data dir new_calculations/myprefix.save/

     General routines

     Parallel routines

     PAW routines

   This run was terminated on:  11:48:23  20May2023

   JOB DONE.