     Program PWSCF v.7.0 starts on 21May2023 at  2:55:33

     Reading input from espresso_18797.pwi
Warning: card &CELL ignored
Warning: card / ignored

     Current dimensions of program PWSCF are:
     Max number of different atomic species (ntypx) = 10
     Max number of k-points (npk) =  40000
     Max angular momentum in pseudopotentials (lmaxx) =  4

     gamma-point specific algorithms are used
     Message from routine setup:
     using ibrav=0 with symmetry is DISCOURAGED, use correct ibrav instead

     Subspace diagonalization in iterative solution of the eigenvalue problem:
     a serial algorithm will be used

     Using Slab Decomposition

     bravais-lattice index     =            0
     lattice parameter (alat)  =      12.2541  a.u.
     unit-cell volume          =    2050.7535 (a.u.)^3
     number of atoms/cell      =           14
     number of atomic types    =            3
     number of electrons       =       122.00
     number of Kohn-Sham states=           73
     kinetic-energy cutoff     =      30.0000  Ry
     charge density cutoff     =     240.0000  Ry
     scf convergence threshold =      1.0E-06
     mixing beta               =       0.7000
     number of iterations used =            8  plain     mixing
     Exchange-correlation=  SLA  PW   PBX  PBC
                           (   1   4   3   4   0   0   0)

     celldm(1)=  12.254109  celldm(2)=   0.000000  celldm(3)=   0.000000
     celldm(4)=   0.000000  celldm(5)=   0.000000  celldm(6)=   0.000000

     crystal axes: (cart. coord. in units of alat)
               a(1) = (   1.000000   0.000000   0.000000 )
               a(2) = (  -0.828496   0.559994   0.000000 )
               a(3) = (   0.000000   0.000000   1.990145 )

     reciprocal axes: (cart. coord. in units 2 pi/alat)
               b(1) = (  1.000000  1.479473  0.000000 )
               b(2) = (  0.000000  1.785733  0.000000 )
               b(3) = (  0.000000  0.000000  0.502476 )

     PseudoPot. # 1 for Y  read from file:
     /home/pragov/projects/rrg-bengioy-ad/pragov/crystal_structure_design/SSSP/Y_pbe_v1.uspp.F.UPF
     MD5 check sum: 2cf71db95cafeb975fc457bd7f14888e
     Pseudo is Ultrasoft + core correction, Zval = 11.0
     Generated by new atomic code, or converted to UPF format
     Using radial grid of  885 points,  6 beta functions with:
                l(1) =   0
                l(2) =   0
                l(3) =   1
                l(4) =   1
                l(5) =   2
                l(6) =   2
     Q(r) pseudized with  6 coefficients,  rinner =    1.200   1.200   1.200
                                                       1.200   1.200

     PseudoPot. # 2 for Mn read from file:
     /home/pragov/projects/rrg-bengioy-ad/pragov/crystal_structure_design/SSSP/mn_pbe_v1.5.uspp.F.UPF
     MD5 check sum: 82ef2b46521d7a7d9e736dc3972e4928
     Pseudo is Ultrasoft + core correction, Zval = 15.0
     Generated by new atomic code, or converted to UPF format
     Using radial grid of  859 points,  6 beta functions with:
                l(1) =   0
                l(2) =   0
                l(3) =   1
                l(4) =   1
                l(5) =   2
                l(6) =   2
     Q(r) pseudized with  8 coefficients,  rinner =    0.950   0.950   0.950
                                                       0.950   0.950

     PseudoPot. # 3 for S  read from file:
     /home/pragov/projects/rrg-bengioy-ad/pragov/crystal_structure_design/SSSP/s_pbe_v1.4.uspp.F.UPF
     MD5 check sum: 88d86576ff6df21479756cfb9bdac1df
     Pseudo is Ultrasoft + core correction, Zval =  6.0
     Generated by new atomic code, or converted to UPF format
     Using radial grid of  907 points,  6 beta functions with:
                l(1) =   0
                l(2) =   0
                l(3) =   1
                l(4) =   1
                l(5) =   2
                l(6) =   2
     Q(r) pseudized with  8 coefficients,  rinner =    1.300   1.300   1.300
                                                       1.300   1.300

     atomic species   valence    mass     pseudopotential
        Y             11.00    88.90584     Y ( 1.00)
        Mn            15.00    54.93804     Mn( 1.00)
        S              6.00    32.06000     S ( 1.00)

      2 Sym. Ops. (no inversion) found ( 1 have fractional translation)

                                    s                        frac. trans.

      isym =  1     identity

 cryst.   s( 1) = (     1          0          0      )
                  (     0          1          0      )
                  (     0          0          1      )

 cart.    s( 1) = (  1.0000000 -0.0000000  0.0000000 )
                  (  0.0000000  1.0000000  0.0000000 )
                  (  0.0000000  0.0000000  1.0000000 )

      isym =  2     180 deg rotation - cart. axis [0,0,1]

 cryst.   s( 2) = (    -1          0          0      )    f =( -0.0000000 )
                  (     0         -1          0      )       ( -0.0000000 )
                  (     0          0          1      )       ( -0.5000000 )

 cart.    s( 2) = ( -1.0000000  0.0000000  0.0000000 )    f =( -0.0000000 )
                  (  0.0000000 -1.0000000  0.0000000 )       ( -0.0000000 )
                  (  0.0000000  0.0000000  1.0000000 )       ( -0.9950724 )

   Cartesian axes

     site n.     atom                  positions (alat units)
         1           Y   tau(   1) = (  -0.1312890   0.3464679   1.5614019  )
         2           Y   tau(   2) = (   0.3027925   0.2135264   0.5663295  )
         3           Y   tau(   3) = (  -0.5772592   0.4830505   1.1581747  )
         4           Y   tau(   4) = (   0.7487628   0.0769438   0.1631023  )
         5           Mn  tau(   5) = (  -0.5971039   0.4891281   1.8821674  )
         6           Mn  tau(   6) = (   0.7686074   0.0708662   0.8870951  )
         7           S   tau(   7) = (   0.6173231   0.1171984   1.2626413  )
         8           S   tau(   8) = (  -0.4458196   0.4427959   0.2675690  )
         9           S   tau(   9) = (   0.0679587   0.2854464   1.9819334  )
        10           S   tau(  10) = (   0.1035449   0.2745478   0.9868610  )
        11           S   tau(  11) = (   0.5612870   0.1343600   1.7822383  )
        12           S   tau(  12) = (  -0.3897835   0.4256343   0.7871659  )
        13           S   tau(  13) = (  -0.7582365   0.5384765   1.5321726  )
        14           S   tau(  14) = (   0.9297400   0.0215178   0.5371003  )

   Crystallographic axes

     site n.     atom                  positions (cryst. coord.)
         1           Y   tau(   1) = (  0.3813010  0.6186990  0.7845670  )
         2           Y   tau(   2) = (  0.6186990  0.3813010  0.2845670  )
         3           Y   tau(   3) = (  0.1374010  0.8625990  0.5819550  )
         4           Y   tau(   4) = (  0.8625990  0.1374010  0.0819550  )
         5           Mn  tau(   5) = (  0.1265480  0.8734520  0.9457440  )
         6           Mn  tau(   6) = (  0.8734520  0.1265480  0.4457440  )
         7           S   tau(   7) = (  0.7907150  0.2092850  0.6344470  )
         8           S   tau(   8) = (  0.2092850  0.7907150  0.1344470  )
         9           S   tau(   9) = (  0.4902690  0.5097310  0.9958740  )
        10           S   tau(  10) = (  0.5097310  0.4902690  0.4958740  )
        11           S   tau(  11) = (  0.7600690  0.2399310  0.8955320  )
        12           S   tau(  12) = (  0.2399310  0.7600690  0.3955320  )
        13           S   tau(  13) = (  0.0384250  0.9615750  0.7698800  )
        14           S   tau(  14) = (  0.9615750  0.0384250  0.2698800  )

     number of k points=     1  Methfessel-Paxton smearing, width (Ry)=  0.0010
                       cart. coord. in units 2pi/alat
        k(    1) = (   0.0000000   0.0000000   0.0000000), wk =   2.0000000

                       cryst. coord.
        k(    1) = (   0.0000000   0.0000000   0.0000000), wk =   2.0000000

     Check: negative core charge=   -0.000009

     Initial potential from superposition of free atoms

     starting charge     120.9817, renormalised to     122.0000

     negative rho (up, down):  1.768E-01 0.000E+00
     Starting wfcs are  110 randomized atomic wfcs

     Self-consistent Calculation

     iteration #  1     ecut=    30.00 Ry     beta= 0.70
     Davidson diagonalization with overlap

     ethr =  1.00E-02,  avg # of iterations =  2.0

     negative rho (up, down):  1.766E-01 0.000E+00

     total energy              =    -965.28016171 Ry
     estimated scf accuracy    <       1.32925202 Ry

[...]

     total energy              =    -965.83373390 Ry
     estimated scf accuracy    <       0.00000207 Ry

     iteration # 37     ecut=    30.00 Ry     beta= 0.70
     Davidson diagonalization with overlap

     ethr =  1.70E-09,  avg # of iterations =  1.0

[...]

     End of self-consistent calculation

          k = 0.0000 0.0000 0.0000 (  2855 PWs)   bands (ev):

   -69.8136 -69.8135 -38.7304 -38.7291 -38.4919 -38.4890 -38.4583 -38.4574
   -34.2393 -34.2388 -33.9651 -33.9647 -14.3242 -14.3192 -14.2969 -14.2892
   -14.1016 -14.0924 -14.0190 -14.0134 -14.0068 -14.0063 -13.8006 -13.8002
    -4.4262  -4.0227  -3.8022  -3.3107  -3.2627  -3.2022  -3.1066  -3.0569
     3.6883   3.8419   4.2341   4.6374   4.9227   4.9462   5.2889   5.5086
     5.6353   5.7175   5.7521   5.9694   6.0368   6.1080   6.2143   6.2996
     6.4124   6.4937   6.6796   7.3477   7.4230   7.5844   7.7872   7.9099
     8.4979   8.5273   9.0381   9.0481   9.0891   9.1056   9.4941   9.5524
     9.6677  10.1191  10.2494  10.4219  10.6568  11.1704  11.3397  11.5947
    11.8464

     occupation numbers
     1.0000   1.0000   1.0000   1.0000   1.0000   1.0000   1.0000   1.0000
     1.0000   1.0000   1.0000   1.0000   1.0000   1.0000   1.0000   1.0000
     1.0000   1.0000   1.0000   1.0000   1.0000   1.0000   1.0000   1.0000
     1.0000   1.0000   1.0000   1.0000   1.0000   1.0000   1.0000   1.0000
     1.0000   1.0000   1.0000   1.0000   1.0000   1.0000   1.0000   1.0000
     1.0000   1.0000   1.0000   1.0000   1.0000   1.0000   1.0000   1.0000
     1.0000   1.0000   1.0000   1.0000   1.0000   1.0000   1.0000   1.0000
     1.0000   1.0000   1.0000   1.0000   0.9236   0.0764  -0.0000  -0.0000
    -0.0000  -0.0000  -0.0000  -0.0000  -0.0000  -0.0000  -0.0000  -0.0000
    -0.0000

     the Fermi energy is     9.0974 ev

!    total energy              =    -965.83373381 Ry
     estimated scf accuracy    <       0.00000028 Ry
     smearing contrib. (-TS)   =      -0.00010163 Ry
     internal energy E=F+TS    =    -965.83363219 Ry

     The total energy is F=E-TS. E is the sum of the following terms:
     one-electron contribution =    -400.68798791 Ry
     hartree contribution      =     246.25893513 Ry
     xc contribution           =    -208.79850469 Ry
     ewald contribution        =    -602.60607472 Ry

     convergence has been achieved in  37 iterations

     negative rho (up, down):  1.775E-01 0.000E+00

     Forces acting on atoms (cartesian axes, Ry/au):

     atom    1 type  1   force =     0.02334762   -0.00715106    0.01710429
     atom    2 type  1   force =    -0.02334762    0.00715106    0.01710429
     atom    3 type  1   force =    -0.02010814    0.00615797   -0.03769577
     atom    4 type  1   force =     0.02010814   -0.00615797   -0.03769577
     atom    5 type  2   force =     0.00179273   -0.00054912   -0.01157707
     atom    6 type  2   force =    -0.00179273    0.00054912   -0.01157707
     atom    7 type  3   force =    -0.01479846    0.00453208   -0.01758942
     atom    8 type  3   force =     0.01479846   -0.00453208   -0.01758942
     atom    9 type  3   force =     0.00860318   -0.00263305    0.01831610
     atom   10 type  3   force =    -0.00860318    0.00263305    0.01831610
     atom   11 type  3   force =    -0.04758138    0.01456918   -0.00270038
     atom   12 type  3   force =     0.04758138   -0.01456918   -0.00270038
     atom   13 type  3   force =    -0.04205206    0.01287981    0.03414225
     atom   14 type  3   force =     0.04205206   -0.01287981    0.03414225
     The non-local contrib.  to forces
     atom    1 type  1   force =     0.00147655   -0.00045185   -0.01070755
     atom    2 type  1   force =    -0.00147655    0.00045185   -0.01070755
     atom    3 type  1   force =     0.00112695   -0.00034495   -0.01816983
     atom    4 type  1   force =    -0.00112695    0.00034495   -0.01816983
     atom    5 type  2   force =     0.01366032   -0.00418404   -0.01288702
     atom    6 type  2   force =    -0.01366032    0.00418404   -0.01288702
     atom    7 type  3   force =     0.03011532   -0.00922428    0.01394852
     atom    8 type  3   force =    -0.03011532    0.00922428    0.01394852
     atom    9 type  3   force =     0.11488426   -0.03518445   -0.04662203
     atom   10 type  3   force =    -0.11488426    0.03518445   -0.04662203
     atom   11 type  3   force =    -0.14478703    0.04434232    0.02625075
     atom   12 type  3   force =     0.14478703   -0.04434232    0.02625075
     atom   13 type  3   force =     0.07716425   -0.02363334    0.01663087
     atom   14 type  3   force =    -0.07716425    0.02363334    0.01663087
     The ionic contribution  to forces
     atom    1 type  1   force =     0.00115198   -0.00035281   -3.46820359
     atom    2 type  1   force =    -0.00115198    0.00035281   -3.46820359
     atom    3 type  1   force =    -0.87572904    0.26820026    4.44875271
     atom    4 type  1   force =     0.87572904   -0.26820026    4.44875271
     atom    5 type  2   force =    -0.18986054    0.05814658    0.05355940
     atom    6 type  2   force =     0.18986054   -0.05814658    0.05355940
     atom    7 type  3   force =    -0.13124564    0.04019521    3.38910752
     atom    8 type  3   force =     0.13124564   -0.04019521    3.38910752
     atom    9 type  3   force =    -1.83845550    0.56304429    2.22120706
     atom   10 type  3   force =     1.83845550   -0.56304429    2.22120706
     atom   11 type  3   force =     1.86840950   -0.57221799   -2.83988103
     atom   12 type  3   force =    -1.86840950    0.57221799   -2.83988103
     atom   13 type  3   force =     0.25388127   -0.07775353   -3.80454206
     atom   14 type  3   force =    -0.25388127    0.07775353   -3.80454206
     The local contribution  to forces
     atom    1 type  1   force =     0.02196730   -0.00672640    3.49536367
     atom    2 type  1   force =    -0.02182415    0.00668930    3.49589302
     atom    3 type  1   force =     0.85464894   -0.26174795   -4.47078380
     atom    4 type  1   force =    -0.85457685    0.26172268   -4.46953355
     atom    5 type  2   force =     0.17812017   -0.05455100   -0.05452275
     atom    6 type  2   force =    -0.17826058    0.05459092   -0.05543834
     atom    7 type  3   force =     0.08824140   -0.02702363   -3.42031023
     atom    8 type  3   force =    -0.08809918    0.02697779   -3.41955294
     atom    9 type  3   force =     1.73889252   -0.53254190   -2.15874843
     atom   10 type  3   force =    -1.73920826    0.53265955   -2.15931659
     atom   11 type  3   force =    -1.77963894    0.54502088    2.81249343
     atom   12 type  3   force =     1.77990389   -0.54511800    2.81226235
     atom   13 type  3   force =    -0.36845813    0.11284639    3.82296277
     atom   14 type  3   force =     0.36825089   -0.11278511    3.82333745
     The core correction contribution to forces
     atom    1 type  1   force =    -0.00115437    0.00035332    0.00042714
     atom    2 type  1   force =     0.00115425   -0.00035360    0.00042652
     atom    3 type  1   force =    -0.00010484    0.00003197    0.00187362
     atom    4 type  1   force =     0.00010568   -0.00003236    0.00187693
     atom    5 type  2   force =    -0.00017573    0.00005383    0.00267262
     atom    6 type  2   force =     0.00017374   -0.00005326    0.00267144
     atom    7 type  3   force =    -0.00184277    0.00056440   -0.00075141
     atom    8 type  3   force =     0.00184189   -0.00056426   -0.00075344
     atom    9 type  3   force =    -0.00683045    0.00209197    0.00273760
     atom   10 type  3   force =     0.00682933   -0.00209159    0.00273958
     atom   11 type  3   force =     0.00850689   -0.00260526   -0.00141650
     atom   12 type  3   force =    -0.00850513    0.00260469   -0.00141884
     atom   13 type  3   force =    -0.00470110    0.00143966   -0.00107096
     atom   14 type  3   force =     0.00469957   -0.00143943   -0.00107290
     The Hubbard contrib.    to forces
     atom    1 type  1   force =     0.00000000    0.00000000    0.00000000
     atom    2 type  1   force =     0.00000000    0.00000000    0.00000000
     atom    3 type  1   force =     0.00000000    0.00000000    0.00000000
     atom    4 type  1   force =     0.00000000    0.00000000    0.00000000
     atom    5 type  2   force =     0.00000000    0.00000000    0.00000000
     atom    6 type  2   force =     0.00000000    0.00000000    0.00000000
     atom    7 type  3   force =     0.00000000    0.00000000    0.00000000
     atom    8 type  3   force =     0.00000000    0.00000000    0.00000000
     atom    9 type  3   force =     0.00000000    0.00000000    0.00000000
     atom   10 type  3   force =     0.00000000    0.00000000    0.00000000
     atom   11 type  3   force =     0.00000000    0.00000000    0.00000000
     atom   12 type  3   force =     0.00000000    0.00000000    0.00000000
     atom   13 type  3   force =     0.00000000    0.00000000    0.00000000
     atom   14 type  3   force =     0.00000000    0.00000000    0.00000000
     The SCF correction term to forces
     atom    1 type  1   force =    -0.00008783    0.00002428    0.00023671
     atom    2 type  1   force =    -0.00004316    0.00000830   -0.00031284
     atom    3 type  1   force =    -0.00003879    0.00001404    0.00063367
     atom    4 type  1   force =    -0.00001142    0.00000241   -0.00062082
     atom    5 type  2   force =     0.00003988   -0.00001335   -0.00041577
     atom    6 type  2   force =     0.00008527   -0.00002487    0.00053727
     atom    7 type  3   force =    -0.00006874    0.00002132    0.00044150
     atom    8 type  3   force =    -0.00007655    0.00002627   -0.00036104
     atom    9 type  3   force =     0.00008789   -0.00003370   -0.00027265
     atom   10 type  3   force =     0.00018005   -0.00006580    0.00032600
     atom   11 type  3   force =    -0.00005550    0.00002470   -0.00011982
     atom   12 type  3   force =    -0.00017860    0.00006393    0.00006255
     atom   13 type  3   force =     0.00004040   -0.00001444    0.00019481
     atom   14 type  3   force =     0.00012587   -0.00003720   -0.00024092

     Total force =     0.137393     Total SCF correction =     0.001470

     Computing stress (Cartesian axis) and pressure

     negative rho (up, down):  1.775E-01 0.000E+00
          total   stress  (Ry/bohr**3)                   (kbar)     P=      -43.70
  -0.00100492   0.00053485   0.00000000         -147.83       78.68        0.00
   0.00053485   0.00057752   0.00000000           78.68       84.96        0.00
   0.00000000   0.00000000  -0.00046384            0.00        0.00      -68.23

     kinetic stress (kbar)  11107.97    132.64      0.00
                              132.64  11500.47      0.00
                                0.00      0.00  11177.88

     local   stress (kbar)  -9311.30   -576.51     -0.08
                             -576.51 -11017.29      0.07
                               -0.08      0.07  -3285.26

     nonloc. stress (kbar)   8600.91     17.12      0.00
                               17.12   8651.60      0.00
                                0.00      0.00   8629.19

     hartree stress (kbar)   6559.66    228.74      0.03
                              228.74   7236.53     -0.02
                                0.03     -0.02   3868.51

     exc-cor stress (kbar)   2736.33      0.25      0.00
                                0.25   2737.08     -0.00
                                0.00     -0.00   2735.40

     corecor stress (kbar)  -6276.49     -1.20     -0.00
                               -1.20  -6280.04      0.00
                               -0.00      0.00  -6275.98

     ewald   stress (kbar) -13564.91    277.64     -0.00
                              277.64 -12743.39     -0.00
                               -0.00     -0.00 -16917.96

     hubbard stress (kbar)      0.00      0.00      0.00
                                0.00      0.00      0.00
                                0.00      0.00      0.00

     DFT-D   stress (kbar)      0.00      0.00      0.00
                                0.00      0.00      0.00
                                0.00      0.00      0.00

     XDM     stress (kbar)      0.00      0.00      0.00
                                0.00      0.00      0.00
                                0.00      0.00      0.00

     dft-nl  stress (kbar)      0.00      0.00      0.00
                                0.00      0.00      0.00
                                0.00      0.00      0.00

     TS-vdW  stress (kbar)      0.00      0.00      0.00
                                0.00      0.00      0.00
                                0.00      0.00      0.00

[...]

                                0.00      0.00      0.00

     Writing all to output data dir new_calculations/myprefix.save/

     General routines

     Parallel routines

   This run was terminated on:   2:56:38  21May2023

   JOB DONE.