     Program PWSCF v.7.0 starts on 20May2023 at 19:53: 4

     Reading input from espresso_22195.pwi
Warning: card &CELL ignored
Warning: card / ignored

     Current dimensions of program PWSCF are:
     Max number of different atomic species (ntypx) = 10
     Max number of k-points (npk) =  40000
     Max angular momentum in pseudopotentials (lmaxx) =  4
     file O.pbe-n-kjpaw_psl.0.1.UPF: wavefunction(s)  2P renormalized

     gamma-point specific algorithms are used
     Message from routine setup:
     using ibrav=0 with symmetry is DISCOURAGED, use correct ibrav instead

     Subspace diagonalization in iterative solution of the eigenvalue problem:
     a serial algorithm will be used

     Using Slab Decomposition

     bravais-lattice index     =            0
     lattice parameter (alat)  =       8.7204  a.u.
     unit-cell volume          =    1258.7432 (a.u.)^3
     number of atoms/cell      =           18
     number of atomic types    =            3
     number of electrons       =       152.00
     number of Kohn-Sham states=           91
     kinetic-energy cutoff     =      30.0000  Ry
     charge density cutoff     =     240.0000  Ry
     scf convergence threshold =      1.0E-06
     mixing beta               =       0.7000
     number of iterations used =            8  plain     mixing
     Exchange-correlation=  SLA  PW   PBX  PBC
                           (   1   4   3   4   0   0   0)

     celldm(1)=   8.720400  celldm(2)=   0.000000  celldm(3)=   0.000000
     celldm(4)=   0.000000  celldm(5)=   0.000000  celldm(6)=   0.000000

     crystal axes: (cart. coord. in units of alat)
               a(1) = (   1.000000   0.000000   0.000000 )
               a(2) = (   0.000000   1.001241   0.000000 )
               a(3) = (   0.000000   0.000000   1.895786 )

     reciprocal axes: (cart. coord. in units 2 pi/alat)
               b(1) = (  1.000000  0.000000  0.000000 )
               b(2) = (  0.000000  0.998760  0.000000 )
               b(3) = (  0.000000  0.000000  0.527486 )

     PseudoPot. # 1 for V  read from file:
     /home/pragov/projects/rrg-bengioy-ad/pragov/crystal_structure_design/SSSP/v_pbe_v1.4.uspp.F.UPF
     MD5 check sum: 22b79981416ebb76fdaf5b1b8640f6fb
     Pseudo is Ultrasoft + core correction, Zval = 13.0
     Generated by new atomic code, or converted to UPF format
     Using radial grid of  853 points,  6 beta functions with:
                l(1) =   0
                l(2) =   0
                l(3) =   1
                l(4) =   1
                l(5) =   2
                l(6) =   2
     Q(r) pseudized with  8 coefficients,  rinner =    1.100   1.100   1.100
                                                       1.100   1.100

     PseudoPot. # 2 for O  read from file:
     /home/pragov/projects/rrg-bengioy-ad/pragov/crystal_structure_design/SSSP/O.pbe-n-kjpaw_psl.0.1.UPF
     MD5 check sum: 0234752ac141de4415c5fc33072bef88
     Pseudo is Projector augmented-wave + core cor, Zval =  6.0
     Generated using "atomic" code by A. Dal Corso  v.5.0.99 svn rev. 10869
     Shape of augmentation charge: BESSEL
     Using radial grid of 1095 points,  4 beta functions with:
                l(1) =   0
                l(2) =   0
                l(3) =   1
                l(4) =   1
     Q(r) pseudized with 0 coefficients

     PseudoPot. # 3 for F  read from file:
     /home/pragov/projects/rrg-bengioy-ad/pragov/crystal_structure_design/SSSP/f_pbe_v1.4.uspp.F.UPF
     MD5 check sum: 4c38b6a325caf53ec0e86aed9459de46
     Pseudo is Ultrasoft, Zval =  7.0
     Generated by new atomic code, or converted to UPF format
     Using radial grid of  799 points,  4 beta functions with:
                l(1) =   0
                l(2) =   0
                l(3) =   1
                l(4) =   1
     Q(r) pseudized with  8 coefficients,  rinner =    0.950   0.950   0.950

     atomic species   valence    mass     pseudopotential
        V             13.00    50.94150     V ( 1.00)
        O              6.00    15.99900     O ( 1.00)
        F              7.00    18.99840     F ( 1.00)

      4 Sym. Ops. (no inversion) found ( 2 have fractional translation)

                                    s                        frac. trans.

      isym =  1     identity

 cryst.   s( 1) = (     1          0          0      )
                  (     0          1          0      )
                  (     0          0          1      )

 cart.    s( 1) = (  1.0000000  0.0000000  0.0000000 )
                  (  0.0000000  1.0000000  0.0000000 )
                  (  0.0000000  0.0000000  1.0000000 )

      isym =  2     180 deg rotation - cart. axis [0,1,0]

 cryst.   s( 2) = (    -1          0          0      )    f =(  0.0000000 )
                  (     0          1          0      )       ( -0.5000000 )
                  (     0          0         -1      )       ( -0.5000000 )

 cart.    s( 2) = ( -1.0000000  0.0000000  0.0000000 )    f =(  0.0000000 )
                  (  0.0000000  1.0000000  0.0000000 )       ( -0.5006205 )
                  (  0.0000000  0.0000000 -1.0000000 )       ( -0.9478929 )

      isym =  3     inv. 180 deg rotation - cart. axis [0,0,1]

 cryst.   s( 3) = (     1          0          0      )
                  (     0          1          0      )
                  (     0          0         -1      )

 cart.    s( 3) = (  1.0000000  0.0000000  0.0000000 )
                  (  0.0000000  1.0000000  0.0000000 )
                  (  0.0000000  0.0000000 -1.0000000 )

      isym =  4     inv. 180 deg rotation - cart. axis [1,0,0]

 cryst.   s( 4) = (    -1          0          0      )    f =(  0.0000000 )
                  (     0          1          0      )       ( -0.5000000 )
                  (     0          0          1      )       (  0.5000000 )

 cart.    s( 4) = ( -1.0000000  0.0000000  0.0000000 )    f =(  0.0000000 )
                  (  0.0000000  1.0000000  0.0000000 )       ( -0.5006205 )
                  (  0.0000000  0.0000000  1.0000000 )       (  0.9478929 )

   Cartesian axes

     site n.     atom                  positions (alat units)
         1           V   tau(   1) = (   0.7574660   0.9827211   0.3426595  )
         2           V   tau(   2) = (   0.7743890   0.0332622   0.9478929  )
         3           V   tau(   3) = (   0.7574660   0.9827211   1.5531263  )
         4           V   tau(   4) = (   0.2425340   0.4821006   0.6052334  )
         5           V   tau(   5) = (   0.2256110   0.5338828   0.0000000  )
         6           V   tau(   6) = (   0.2425340   0.4821006   1.2905523  )
         7           O   tau(   7) = (   0.9533550   0.7975596   0.6352456  )
         8           O   tau(   8) = (   0.9533550   0.7975596   1.2605402  )
         9           O   tau(   9) = (   0.9377780   0.8115189   0.0000000  )
        10           O   tau(  10) = (   0.0466450   0.2969391   0.3126473  )
        11           O   tau(  11) = (   0.0622220   0.3108984   0.9478929  )
        12           O   tau(  12) = (   0.0466450   0.2969391   1.5831384  )
        13           O   tau(  13) = (   0.4490070   0.7008998   0.3126587  )
        14           O   tau(  14) = (   0.4490070   0.7008998   1.5831271  )
        15           O   tau(  15) = (   0.5509930   0.2002792   0.6352342  )
        16           O   tau(  16) = (   0.5509930   0.2002792   1.2605515  )
        17           F   tau(  17) = (   0.4504840   0.7006705   0.9478929  )
        18           F   tau(  18) = (   0.5495160   0.2000500   0.0000000  )

   Crystallographic axes

     site n.     atom                  positions (cryst. coord.)
         1           V   tau(   1) = (  0.7574660  0.9815030  0.1807480  )
         2           V   tau(   2) = (  0.7743890  0.0332210  0.5000000  )
         3           V   tau(   3) = (  0.7574660  0.9815030  0.8192520  )
         4           V   tau(   4) = (  0.2425340  0.4815030  0.3192520  )
         5           V   tau(   5) = (  0.2256110  0.5332210  0.0000000  )
         6           V   tau(   6) = (  0.2425340  0.4815030  0.6807480  )
         7           O   tau(   7) = (  0.9533550  0.7965710  0.3350830  )
         8           O   tau(   8) = (  0.9533550  0.7965710  0.6649170  )
         9           O   tau(   9) = (  0.9377780  0.8105130  0.0000000  )
        10           O   tau(  10) = (  0.0466450  0.2965710  0.1649170  )
        11           O   tau(  11) = (  0.0622220  0.3105130  0.5000000  )
        12           O   tau(  12) = (  0.0466450  0.2965710  0.8350830  )
        13           O   tau(  13) = (  0.4490070  0.7000310  0.1649230  )
        14           O   tau(  14) = (  0.4490070  0.7000310  0.8350770  )
        15           O   tau(  15) = (  0.5509930  0.2000310  0.3350770  )
        16           O   tau(  16) = (  0.5509930  0.2000310  0.6649230  )
        17           F   tau(  17) = (  0.4504840  0.6998020  0.5000000  )
        18           F   tau(  18) = (  0.5495160  0.1998020  0.0000000  )

     number of k points=     1  Methfessel-Paxton smearing, width (Ry)=  0.0010
                       cart. coord. in units 2pi/alat
        k(    1) = (   0.0000000   0.0000000   0.0000000), wk =   2.0000000

                       cryst. coord.
        k(    1) = (   0.0000000   0.0000000   0.0000000), wk =   2.0000000

     Check: negative core charge=   -0.000017

     Initial potential from superposition of free atoms

     starting charge     151.9926, renormalised to     152.0000

     negative rho (up, down):  6.361E-03 0.000E+00
     Starting wfcs are  108 randomized atomic wfcs
     Checking if some PAW data can be deallocated...

     Self-consistent Calculation

     iteration #  1     ecut=    30.00 Ry     beta= 0.70
     Davidson diagonalization with overlap

     ethr =  1.00E-02,  avg # of iterations =  2.0

     negative rho (up, down):  1.304E-02 0.000E+00

     total energy              =   -1381.18552212 Ry
     estimated scf accuracy    <       6.35186442 Ry

[...]

     total energy              =   -1384.96753241 Ry
     estimated scf accuracy    <       0.00002038 Ry

     iteration # 47     ecut=    30.00 Ry     beta= 0.70
     Davidson diagonalization with overlap

     ethr =  1.07E-09,  avg # of iterations =  1.0

[...]

     End of self-consistent calculation

          k = 0.0000 0.0000 0.0000 (  1743 PWs)   bands (ev):

   -55.1149 -55.1063 -55.1029 -55.0965 -55.0764 -55.0729 -29.2263 -29.2202
   -29.1518 -29.1466 -29.1463 -29.1418 -28.9966 -28.9904 -28.9819 -28.9780
   -28.8403 -28.8267 -28.7554 -28.7413 -28.7335 -28.7196 -28.6358 -28.6331
   -13.8816 -13.8556  -9.4321  -8.8774  -8.7339  -8.4447  -8.3171  -8.2395
    -8.2190  -8.1843  -8.1020  -8.0820   2.5264   3.0275   3.5599   3.6648
     3.7363   3.7582   3.9384   4.1123   4.1833   4.3883   4.4987   4.5050
     4.6016   4.8135   4.8440   4.8507   5.0878   5.2172   5.2888   5.4909
     5.6577   6.0244   6.0676   6.1956   6.2590   6.2990   6.4506   6.5338
     6.8657   6.9343   7.2471   7.4451   7.5817   7.7404   7.7933   8.4557
    10.1392  10.1778  10.5171  10.5291  10.5313  10.5866  10.6731  10.6820
    10.9824  11.1462  11.1883  11.3981  11.5120  11.5734  11.7011  11.9477
    12.1135  12.2549  12.6667

     occupation numbers
     1.0000   1.0000   1.0000   1.0000   1.0000   1.0000   1.0000   1.0000
     1.0000   1.0000   1.0000   1.0000   1.0000   1.0000   1.0000   1.0000
     1.0000   1.0000   1.0000   1.0000   1.0000   1.0000   1.0000   1.0000
     1.0000   1.0000   1.0000   1.0000   1.0000   1.0000   1.0000   1.0000
     1.0000   1.0000   1.0000   1.0000   1.0000   1.0000   1.0000   1.0000
     1.0000   1.0000   1.0000   1.0000   1.0000   1.0000   1.0000   1.0000
     1.0000   1.0000   1.0000   1.0000   1.0000   1.0000   1.0000   1.0000
     1.0000   1.0000   1.0000   1.0000   1.0000   1.0000   1.0000   1.0000
     1.0000   1.0000   1.0000   1.0000   1.0000   1.0000   1.0000   1.0000
     1.0000   1.0000   1.0196   0.5577   0.4227  -0.0000  -0.0000  -0.0000
    -0.0000  -0.0000  -0.0000  -0.0000  -0.0000  -0.0000  -0.0000  -0.0000
    -0.0000  -0.0000  -0.0000

     the Fermi energy is    10.5300 ev

!    total energy              =   -1384.96753241 Ry
     estimated scf accuracy    <       0.00000026 Ry
     smearing contrib. (-TS)   =      -0.00046013 Ry
     internal energy E=F+TS    =   -1384.96707227 Ry

     The total energy is F=E-TS. E is the sum of the following terms:
     one-electron contribution =    -519.82783014 Ry
     hartree contribution      =     334.03031610 Ry
     xc contribution           =    -210.11968211 Ry
     ewald contribution        =    -893.83698994 Ry
     one-center paw contrib.   =     -95.21288618 Ry
      -> PAW hartree energy AE =     298.07911533 Ry
      -> PAW hartree energy PS =    -297.01988600 Ry
      -> PAW xc energy AE      =    -171.97427747 Ry
      -> PAW xc energy PS      =      75.70216195 Ry
      -> total E_H with PAW    =     335.08954543 Ry
      -> total E_XC with PAW   =    -306.39179763 Ry

     convergence has been achieved in  47 iterations

     negative rho (up, down):  9.952E-03 0.000E+00

     Forces acting on atoms (cartesian axes, Ry/au):

     atom    1 type  1   force =    -0.00612389    0.00851701    0.04431047
     atom    2 type  1   force =    -0.01654296    0.02659469    0.00000000
     atom    3 type  1   force =    -0.00612389    0.00851701   -0.04431047
     atom    4 type  1   force =     0.00612389    0.00851701   -0.04431047
     atom    5 type  1   force =     0.01654296    0.02659469    0.00000000
     atom    6 type  1   force =     0.00612389    0.00851701    0.04431047
     atom    7 type  2   force =    -0.00107186   -0.00391463   -0.02443071
     atom    8 type  2   force =    -0.00107186   -0.00391463    0.02443071
     atom    9 type  2   force =     0.02306684   -0.01829854    0.00000000
     atom   10 type  2   force =     0.00107186   -0.00391463    0.02443071
     atom   11 type  2   force =    -0.02306684   -0.01829854    0.00000000
     atom   12 type  2   force =     0.00107186   -0.00391463   -0.02443071
     atom   13 type  2   force =    -0.00545365   -0.00653447   -0.00362452
     atom   14 type  2   force =    -0.00545365   -0.00653447    0.00362452
     atom   15 type  2   force =     0.00545365   -0.00653447    0.00362452
     atom   16 type  2   force =     0.00545365   -0.00653447   -0.00362452
     atom   17 type  3   force =    -0.00369566   -0.00443196    0.00000000
     atom   18 type  3   force =     0.00369566   -0.00443196    0.00000000
     The non-local contrib.  to forces
     atom    1 type  1   force =    -0.01342249    0.03689911    0.00720123
     atom    2 type  1   force =    -0.03830035   -0.04614360   -0.00000000
     atom    3 type  1   force =    -0.01342249    0.03689911   -0.00720123
     atom    4 type  1   force =     0.01342249    0.03689911   -0.00720123
     atom    5 type  1   force =     0.03830035   -0.04614360    0.00000000
     atom    6 type  1   force =     0.01342249    0.03689911    0.00720123
     atom    7 type  2   force =    -0.20751850    0.21770037   -0.16858680
     atom    8 type  2   force =    -0.20751850    0.21770037    0.16858680
     atom    9 type  2   force =     0.09392336   -0.06164126    0.00000000
     atom   10 type  2   force =     0.20751850    0.21770037    0.16858680
     atom   11 type  2   force =    -0.09392336   -0.06164126   -0.00000000
     atom   12 type  2   force =     0.20751850    0.21770037   -0.16858680
     atom   13 type  2   force =    -0.17862511   -0.15955299    0.03577406
     atom   14 type  2   force =    -0.17862511   -0.15955299   -0.03577406
     atom   15 type  2   force =     0.17862511   -0.15955299   -0.03577406
     atom   16 type  2   force =     0.17862511   -0.15955299    0.03577406
     atom   17 type  3   force =    -0.16303797   -0.16497528    0.00000000
     atom   18 type  3   force =     0.16303797   -0.16497528    0.00000000
     The ionic contribution  to forces
     atom    1 type  1   force =    -1.01279927    0.56056223   -2.38382068
     atom    2 type  1   force =    -0.63440263   -1.16199117   -0.00000000
     atom    3 type  1   force =    -1.01279927    0.56056223    2.38382068
     atom    4 type  1   force =     1.01279927    0.56056223    2.38382068
     atom    5 type  1   force =     0.63440263   -1.16199117   -0.00000000
     atom    6 type  1   force =     1.01279927    0.56056223   -2.38382068
     atom    7 type  2   force =     2.39621023   -2.74356813    2.13714639
     atom    8 type  2   force =     2.39621023   -2.74356813   -2.13714639
     atom    9 type  2   force =     0.22087832   -0.11821619    0.00000000
     atom   10 type  2   force =    -2.39621023   -2.74356813   -2.13714639
     atom   11 type  2   force =    -0.22087832   -0.11821619   -0.00000000
     atom   12 type  2   force =    -2.39621023   -2.74356813    2.13714639
     atom   13 type  2   force =     2.24834320    1.82371012   -0.03483269
     atom   14 type  2   force =     2.24834320    1.82371012    0.03483269
     atom   15 type  2   force =    -2.24834320    1.82371012    0.03483269
     atom   16 type  2   force =    -2.24834320    1.82371012   -0.03483269
     atom   17 type  3   force =     1.78530072    1.99879892    0.00000000
     atom   18 type  3   force =    -1.78530072    1.99879892   -0.00000000
     The local contribution  to forces
     atom    1 type  1   force =     1.02350796   -0.59210703    2.42738706
     atom    2 type  1   force =     0.65949017    1.24071371   -0.00077966
     atom    3 type  1   force =     1.02354606   -0.59210397   -2.42671546
     atom    4 type  1   force =    -1.02351197   -0.59206659   -2.42681257
     atom    5 type  1   force =    -0.65947789    1.24070566    0.00083450
     atom    6 type  1   force =    -1.02354090   -0.59211882    2.42620030
     atom    7 type  2   force =    -2.19127628    2.52350472   -1.99420361
     atom    8 type  2   force =    -2.19149016    2.52370528    1.99387043
     atom    9 type  2   force =    -0.29088547    0.16125708    0.00028390
     atom   10 type  2   force =     2.19152227    2.52375315    1.99469220
     atom   11 type  2   force =     0.29085665    0.16125328   -0.00057556
     atom   12 type  2   force =     2.19135029    2.52359775   -1.99410515
     atom   13 type  2   force =    -2.07681282   -1.67229519   -0.00352547
     atom   14 type  2   force =    -2.07669259   -1.67207603    0.00405910
     atom   15 type  2   force =     2.07661341   -1.67201978    0.00400594
     atom   16 type  2   force =     2.07683218   -1.67216777   -0.00429323
     atom   17 type  3   force =    -1.62608786   -1.83839225   -0.00057346
     atom   18 type  3   force =     1.62608139   -1.83837163    0.00034642
     The core correction contribution to forces
     atom    1 type  1   force =    -0.00341298    0.00316982   -0.00581481
     atom    2 type  1   force =    -0.00327596   -0.00600751   -0.00000041
     atom    3 type  1   force =    -0.00341317    0.00317010    0.00581471
     atom    4 type  1   force =     0.00341386    0.00317078    0.00581436
     atom    5 type  1   force =     0.00327579   -0.00600720    0.00000109
     atom    6 type  1   force =     0.00341343    0.00316992   -0.00581453
     atom    7 type  2   force =     0.00166567   -0.00172231    0.00108880
     atom    8 type  2   force =     0.00166599   -0.00172266   -0.00108884
     atom    9 type  2   force =    -0.00098977    0.00046793   -0.00000012
     atom   10 type  2   force =    -0.00166587   -0.00172245   -0.00108904
     atom   11 type  2   force =     0.00098975    0.00046801    0.00000016
     atom   12 type  2   force =    -0.00166610   -0.00172258    0.00108886
     atom   13 type  2   force =     0.00160464    0.00148681   -0.00043771
     atom   14 type  2   force =     0.00160422    0.00148716    0.00043749
     atom   15 type  2   force =    -0.00160428    0.00148689    0.00043756
     atom   16 type  2   force =    -0.00160428    0.00148723   -0.00043754
     atom   17 type  3   force =     0.00000000    0.00000000    0.00000000
     atom   18 type  3   force =     0.00000000    0.00000000    0.00000000
     The Hubbard contrib.    to forces
     atom    1 type  1   force =     0.00000000    0.00000000    0.00000000
     atom    2 type  1   force =     0.00000000    0.00000000    0.00000000
     atom    3 type  1   force =     0.00000000    0.00000000    0.00000000
     atom    4 type  1   force =     0.00000000    0.00000000    0.00000000
     atom    5 type  1   force =     0.00000000    0.00000000    0.00000000
     atom    6 type  1   force =     0.00000000    0.00000000    0.00000000
     atom    7 type  2   force =     0.00000000    0.00000000    0.00000000
     atom    8 type  2   force =     0.00000000    0.00000000    0.00000000
     atom    9 type  2   force =     0.00000000    0.00000000    0.00000000
     atom   10 type  2   force =     0.00000000    0.00000000    0.00000000
     atom   11 type  2   force =     0.00000000    0.00000000    0.00000000
     atom   12 type  2   force =     0.00000000    0.00000000    0.00000000
     atom   13 type  2   force =     0.00000000    0.00000000    0.00000000
     atom   14 type  2   force =     0.00000000    0.00000000    0.00000000
     atom   15 type  2   force =     0.00000000    0.00000000    0.00000000
     atom   16 type  2   force =     0.00000000    0.00000000    0.00000000
     atom   17 type  3   force =     0.00000000    0.00000000    0.00000000
     atom   18 type  3   force =     0.00000000    0.00000000    0.00000000
     The SCF correction term to forces
     atom    1 type  1   force =     0.00000105   -0.00000266   -0.00064393
     atom    2 type  1   force =    -0.00005416    0.00002191    0.00077524
     atom    3 type  1   force =    -0.00003200   -0.00001676   -0.00003119
     atom    4 type  1   force =     0.00000175   -0.00003729    0.00007135
     atom    5 type  1   force =     0.00004211    0.00003617   -0.00082841
     atom    6 type  1   force =     0.00002927    0.00000285    0.00054673
     atom    7 type  2   force =    -0.00015367    0.00017896    0.00012172
     atom    8 type  2   force =     0.00005853   -0.00003403    0.00021351
     atom    9 type  2   force =     0.00013689   -0.00016227   -0.00029588
     atom   10 type  2   force =    -0.00009146   -0.00007437   -0.00061585
     atom   11 type  2   force =    -0.00011508   -0.00016239    0.00057604
     atom   12 type  2   force =     0.00007532    0.00007868    0.00003059
     atom   13 type  2   force =     0.00005694    0.00010234   -0.00060968
     atom   14 type  2   force =    -0.00009684   -0.00008974    0.00006774
     atom   15 type  2   force =     0.00016208   -0.00016696    0.00012729
     atom   16 type  2   force =    -0.00004866    0.00000633    0.00017518
     atom   17 type  3   force =     0.00013009    0.00014089    0.00058048
     atom   18 type  3   force =    -0.00012234    0.00011561   -0.00035511

     Total force =     0.121868     Total SCF correction =     0.002022

     Computing stress (Cartesian axis) and pressure

     negative rho (up, down):  9.952E-03 0.000E+00
          total   stress  (Ry/bohr**3)                   (kbar)     P=     -497.78
  -0.00306054   0.00000000   0.00000000         -450.22        0.00        0.00
   0.00000000  -0.00297096   0.00000000            0.00     -437.04        0.00
   0.00000000   0.00000000  -0.00412012            0.00        0.00     -606.09

     kinetic stress (kbar)  33440.27      0.00      0.00
                                0.00  33382.94      0.00
                                0.00      0.00  32720.75

     local   stress (kbar)   1455.59     -0.01      0.00
                               -0.01   1961.39      0.08
                                0.00      0.08 -22550.74

     nonloc. stress (kbar)   2162.61      0.00      0.00
                                0.00   2167.83      0.00
                                0.00      0.00   2207.63

     hartree stress (kbar)   9982.18      0.01      0.01
                                0.01   9827.68     -0.04
                                0.01     -0.04  19227.14

     exc-cor stress (kbar)  -5366.29     -0.00     -0.00
                               -0.00  -5368.00     -0.00
                               -0.00     -0.00  -5354.50

     corecor stress (kbar)  -2310.46      0.00      0.00
                                0.00  -2309.63      0.00
                                0.00      0.00  -2310.02

     ewald   stress (kbar) -39814.13     -0.00     -0.00
                               -0.00 -40099.25     -0.00
                               -0.00     -0.00 -24546.35

     hubbard stress (kbar)      0.00      0.00      0.00
                                0.00      0.00      0.00
                                0.00      0.00      0.00

     DFT-D   stress (kbar)      0.00      0.00      0.00
                                0.00      0.00      0.00
                                0.00      0.00      0.00

     XDM     stress (kbar)      0.00      0.00      0.00
                                0.00      0.00      0.00
                                0.00      0.00      0.00

     dft-nl  stress (kbar)      0.00      0.00      0.00
                                0.00      0.00      0.00
                                0.00      0.00      0.00

     TS-vdW  stress (kbar)      0.00      0.00      0.00
                                0.00      0.00      0.00
                                0.00      0.00      0.00

[...]

                                0.00      0.00      0.00

     Writing all to output data dir new_calculations/myprefix.save/

     General routines

     Parallel routines

     PAW routines

   This run was terminated on:  19:53:47  20May2023

   JOB DONE.