     Program PWSCF v.7.0 starts on 21May2023 at  2: 9:34

     Reading input from espresso_15425.pwi
Warning: card &CELL ignored
Warning: card / ignored

     Current dimensions of program PWSCF are:
     Max number of different atomic species (ntypx) = 10
     Max number of k-points (npk) =  40000
     Max angular momentum in pseudopotentials (lmaxx) =  4
     file Cd.pbe-dn-rrkjus_psl.0.3.1.UPF: wavefunction(s)  4D renormalized
     file C.pbe-n-kjpaw_psl.1.0.0.UPF: wavefunction(s)  2S 2P renormalized
     file O.pbe-n-kjpaw_psl.0.1.UPF: wavefunction(s)  2P renormalized

     gamma-point specific algorithms are used
     Message from routine setup:
     using ibrav=0 with symmetry is DISCOURAGED, use correct ibrav instead

     Subspace diagonalization in iterative solution of the eigenvalue problem:
     a serial algorithm will be used

     Using Slab Decomposition

     bravais-lattice index     =            0
     lattice parameter (alat)  =      10.2270  a.u.
     unit-cell volume          =    1192.0653 (a.u.)^3
     number of atoms/cell      =           14
     number of atomic types    =            3
     number of electrons       =        88.00
     number of Kohn-Sham states=           53
     kinetic-energy cutoff     =      30.0000  Ry
     charge density cutoff     =     240.0000  Ry
     scf convergence threshold =      1.0E-06
     mixing beta               =       0.7000
     number of iterations used =            8  plain     mixing
     Exchange-correlation= SLA  PW   PBX  PBC
                           (   1   4   3   4   0   0   0)

     celldm(1)=  10.226979  celldm(2)=   0.000000  celldm(3)=   0.000000
     celldm(4)=   0.000000  celldm(5)=   0.000000  celldm(6)=   0.000000

     crystal axes: (cart. coord. in units of alat)
               a(1) = (   1.000000   0.000000   0.000000 )
               a(2) = (   0.000000   1.091321   0.000000 )
               a(3) = (   0.000000   0.659393   1.021187 )

     reciprocal axes: (cart. coord. in units 2 pi/alat)
               b(1) = (  1.000000  0.000000  0.000000 )
               b(2) = (  0.000000  0.916321 -0.591679 )
               b(3) = (  0.000000  0.000000  0.979252 )

     PseudoPot. # 1 for Cd read from file:
     /home/pragov/projects/rrg-bengioy-ad/pragov/crystal_structure_design/SSSP/Cd.pbe-dn-rrkjus_psl.0.3.1.UPF
     MD5 check sum: 558e9f355611b531a870a69ef6ace9e2
     Pseudo is Ultrasoft + core correction, Zval = 12.0
     Generated using "atomic" code by A. Dal Corso  v.5.0.99 svn rev. 10869
     Using radial grid of 1239 points,  6 beta functions with:
                l(1) =   0
                l(2) =   0
                l(3) =   1
                l(4) =   1
                l(5) =   2
                l(6) =   2
     Q(r) pseudized with 0 coefficients

     PseudoPot. # 2 for C  read from file:
     /home/pragov/projects/rrg-bengioy-ad/pragov/crystal_structure_design/SSSP/C.pbe-n-kjpaw_psl.1.0.0.UPF
     MD5 check sum: 5d2aebdfa2cae82b50a7e79e9516da0f
     Pseudo is Projector augmented-wave + core cor, Zval =  4.0
     Generated using "atomic" code by A. Dal Corso  v.5.1
     Shape of augmentation charge: PSQ
     Using radial grid of 1073 points,  4 beta functions with:
                l(1) =   0
                l(2) =   0
                l(3) =   1
                l(4) =   1
     Q(r) pseudized with 0 coefficients

     PseudoPot. # 3 for O  read from file:
     /home/pragov/projects/rrg-bengioy-ad/pragov/crystal_structure_design/SSSP/O.pbe-n-kjpaw_psl.0.1.UPF
     MD5 check sum: 0234752ac141de4415c5fc33072bef88
     Pseudo is Projector augmented-wave + core cor, Zval =  6.0
     Generated using "atomic" code by A. Dal Corso  v.5.0.99 svn rev. 10869
     Shape of augmentation charge: BESSEL
     Using radial grid of 1095 points,  4 beta functions with:
                l(1) =   0
                l(2) =   0
                l(3) =   1
                l(4) =   1
     Q(r) pseudized with 0 coefficients

     atomic species   valence    mass     pseudopotential
        Cd            12.00   112.41400     Cd( 1.00)
        C              4.00    12.01100     C ( 1.00)
        O              6.00    15.99900     O ( 1.00)

      4 Sym. Ops., with inversion, found ( 2 have fractional translation)

                                    s                        frac. trans.

      isym =  1     identity

 cryst.   s( 1) = (     1          0          0      )
                  (     0          1          0      )
                  (     0          0          1      )

 cart.    s( 1) = (  1.0000000  0.0000000  0.0000000 )
                  (  0.0000000  1.0000000 -0.0000000 )
                  (  0.0000000  0.0000000  1.0000000 )

      isym =  2     180 deg rotation - cart. axis [1,0,0]

 cryst.   s( 2) = (     1          0          0      )    f =( -0.5000000 )
                  (     0         -1          0      )       (  0.0000000 )
                  (     0          0         -1      )       (  0.5000000 )

 cart.    s( 2) = (  1.0000000  0.0000000  0.0000000 )    f =( -0.5000000 )
                  (  0.0000000 -1.0000000  0.0000000 )       (  0.3296963 )
                  (  0.0000000  0.0000000 -1.0000000 )       (  0.5105937 )

      isym =  3     inversion

 cryst.   s( 3) = (    -1          0          0      )
                  (     0         -1          0      )
                  (     0          0         -1      )

 cart.    s( 3) = ( -1.0000000  0.0000000  0.0000000 )
                  (  0.0000000 -1.0000000  0.0000000 )
                  (  0.0000000  0.0000000 -1.0000000 )

      isym =  4     inv. 180 deg rotation - cart. axis [1,0,0]

 cryst.   s( 4) = (    -1          0          0      )    f =(  0.5000000 )
                  (     0          1          0      )       ( -0.0000000 )
                  (     0          0          1      )       ( -0.5000000 )

 cart.    s( 4) = ( -1.0000000  0.0000000  0.0000000 )    f =(  0.5000000 )
                  (  0.0000000  1.0000000 -0.0000000 )       ( -0.3296963 )
                  (  0.0000000  0.0000000  1.0000000 )       ( -0.5105937 )

   Cartesian axes

     site n.     atom                  positions (alat units)
         1           Cd  tau(   1) = (   0.0000000   0.0000000   0.0000000  )
         2           Cd  tau(   2) = (   0.5000000   0.3296963   0.5105937  )
         3           C   tau(   3) = (   0.8823510   0.5515449   0.0839069  )
         4           C   tau(   4) = (   0.1176490   1.1991688   0.9372806  )
         5           C   tau(   5) = (   0.6176490   0.8812411   0.5945006  )
         6           C   tau(   6) = (   0.3823510   0.8694725   0.4266868  )
         7           O   tau(   7) = (   0.2786630   0.6633068   0.3943959  )
         8           O   tau(   8) = (   0.6927590   0.6786444   0.6894700  )
         9           O   tau(   9) = (   0.3072410   1.0720693   0.3317174  )
        10           O   tau(  10) = (   0.8072410   0.3489481   0.1788763  )
        11           O   tau(  11) = (   0.7213370   1.0874068   0.6267916  )
        12           O   tau(  12) = (   0.7786630   0.7577106   0.1161979  )
        13           O   tau(  13) = (   0.1927590   1.4017655   0.8423111  )
        14           O   tau(  14) = (   0.2213370   0.9930031   0.9049896  )

   Crystallographic axes

     site n.     atom                  positions (cryst. coord.)
         1           Cd  tau(   1) = (  0.0000000  0.0000000  0.0000000  )
         2           Cd  tau(   2) = (  0.5000000 -0.0000000  0.5000000  )
         3           C   tau(   3) = (  0.8823510  0.4557460  0.0821660  )
         4           C   tau(   4) = (  0.1176490  0.5442540  0.9178340  )
         5           C   tau(   5) = (  0.6176490  0.4557460  0.5821660  )
         6           C   tau(   6) = (  0.3823510  0.5442540  0.4178340  )
         7           O   tau(   7) = (  0.2786630  0.3744460  0.3862130  )
         8           O   tau(   8) = (  0.6927590  0.2139110  0.6751650  )
         9           O   tau(   9) = (  0.3072410  0.7860890  0.3248350  )
        10           O   tau(  10) = (  0.8072410  0.2139110  0.1751650  )
        11           O   tau(  11) = (  0.7213370  0.6255540  0.6137870  )
        12           O   tau(  12) = (  0.7786630  0.6255540  0.1137870  )
        13           O   tau(  13) = (  0.1927590  0.7860890  0.8248350  )
        14           O   tau(  14) = (  0.2213370  0.3744460  0.8862130  )

     number of k points=     1  Methfessel-Paxton smearing, width (Ry)=  0.0010
                       cart. coord. in units 2pi/alat
        k(    1) = (   0.0000000   0.0000000   0.0000000), wk =   2.0000000

                       cryst. coord.
        k(    1) = (   0.0000000   0.0000000   0.0000000), wk =   2.0000000

     Check: negative core charge=   -0.000018

     Initial potential from superposition of free atoms

     starting charge      87.9901, renormalised to      88.0000
     Starting wfcs are   66 randomized atomic wfcs
     Checking if some PAW data can be deallocated...

     Self-consistent Calculation

     iteration #  1     ecut=    30.00 Ry     beta= 0.70
     Davidson diagonalization with overlap

     ethr =  1.00E-02,  avg # of iterations =  2.0

     total energy              =    -650.33017978 Ry
     estimated scf accuracy    <       1.68490349 Ry

[...]

     total energy              =    -650.99801155 Ry
     estimated scf accuracy    <       0.00000117 Ry

     iteration #  9     ecut=    30.00 Ry     beta= 0.70
     Davidson diagonalization with overlap

     ethr =  1.33E-09,  avg # of iterations =  2.0

     End of self-consistent calculation

          k = 0.0000 0.0000 0.0000 (  1661 PWs)   bands (ev):

   -18.1268 -17.8228 -17.2006 -17.1652 -15.6906 -15.6296 -15.1353 -15.1239
    -6.8693  -6.3990  -4.0109  -3.9030  -3.6873  -3.5390  -3.1907  -3.0971
    -2.7824  -2.6168  -2.5607  -2.5140  -2.4926  -2.4621  -2.4492  -2.2594
    -2.2113  -1.9541  -1.9355  -1.4025  -0.7673  -0.5644  -0.4971   0.0875
     0.9664   0.9988   1.5899   1.6458   1.7983   2.1412   2.1705   2.2242
     2.6357   3.3112   3.5080   3.7235   7.0357   7.0367   7.5226   9.3771
    10.4675  10.6226  11.2253  11.5815  12.2449

     occupation numbers
     1.0000   1.0000   1.0000   1.0000   1.0000   1.0000   1.0000   1.0000
     1.0000   1.0000   1.0000   1.0000   1.0000   1.0000   1.0000   1.0000
     1.0000   1.0000   1.0000   1.0000   1.0000   1.0000   1.0000   1.0000
     1.0000   1.0000   1.0000   1.0000   1.0000   1.0000   1.0000   1.0000
     1.0000   1.0000   1.0000   1.0000   1.0000   1.0000   1.0000   1.0000
     1.0000   1.0000   1.0000   1.0000  -0.0000  -0.0000  -0.0000  -0.0000
    -0.0000  -0.0000  -0.0000  -0.0000  -0.0000

     the Fermi energy is     4.7200 ev

!    total energy              =    -650.99801168 Ry
     estimated scf accuracy    <       0.00000032 Ry
     smearing contrib. (-TS)   =       0.00000000 Ry
     internal energy E=F+TS    =    -650.99801168 Ry

     The total energy is F=E-TS. E is the sum of the following terms:
     one-electron contribution =    -227.91674712 Ry
     hartree contribution      =     171.95995278 Ry
     xc contribution           =    -163.64230076 Ry
     ewald contribution        =    -330.58033389 Ry
     one-center paw contrib.   =    -100.81858269 Ry
      -> PAW hartree energy AE =     283.14644935 Ry
      -> PAW hartree energy PS =    -282.24022889 Ry
      -> PAW xc energy AE      =    -181.10543430 Ry
      -> PAW xc energy PS      =      79.38063114 Ry
      -> total E_H with PAW    =     172.86617325 Ry
      -> total E_XC with PAW   =    -265.36710392 Ry

     convergence has been achieved in   9 iterations

     Forces acting on atoms (cartesian axes, Ry/au):

     atom    1 type  1   force =     0.00000000    0.00000000    0.00000000
     atom    2 type  1   force =     0.00000000    0.00000000   -0.00000000
     atom    3 type  2   force =    -0.02048448    0.00343888    0.01685651
     atom    4 type  2   force =     0.02048448   -0.00343888   -0.01685651
     atom    5 type  2   force =     0.02048448    0.00343888    0.01685651
     atom    6 type  2   force =    -0.02048448   -0.00343888   -0.01685651
     atom    7 type  3   force =     0.00487136    0.01125796    0.01764413
     atom    8 type  3   force =    -0.00898905    0.01782217    0.00945365
     atom    9 type  3   force =     0.00898905   -0.01782217   -0.00945365
     atom   10 type  3   force =     0.00898905    0.01782217    0.00945365
     atom   11 type  3   force =    -0.00487136   -0.01125796   -0.01764413
     atom   12 type  3   force =     0.00487136   -0.01125796   -0.01764413
     atom   13 type  3   force =    -0.00898905   -0.01782217   -0.00945365
     atom   14 type  3   force =    -0.00487136    0.01125796    0.01764413
     The non-local contrib.  to forces
     atom    1 type  1   force =     0.00000000    0.00000000   -0.00000000
     atom    2 type  1   force =     0.00000000    0.00000000    0.00000000
     atom    3 type  2   force =    -0.18856431   -0.03452526    0.12082276
     atom    4 type  2   force =     0.18856431    0.03452526   -0.12082276
     atom    5 type  2   force =     0.18856431   -0.03452526    0.12082276
     atom    6 type  2   force =    -0.18856431    0.03452526   -0.12082276
     atom    7 type  3   force =     1.31697780    1.60853999    0.45111717
     atom    8 type  3   force =    -0.51321475    1.65537691   -0.82569173
     atom    9 type  3   force =     0.51321475   -1.65537691    0.82569173
     atom   10 type  3   force =     0.51321475    1.65537691   -0.82569173
     atom   11 type  3   force =    -1.31697780   -1.60853999   -0.45111717
     atom   12 type  3   force =     1.31697780   -1.60853999   -0.45111717
     atom   13 type  3   force =    -0.51321475   -1.65537691    0.82569173
     atom   14 type  3   force =    -1.31697780    1.60853999    0.45111717
     The ionic contribution  to forces
     atom    1 type  1   force =    -0.00000000    0.00000000    0.00000000
     atom    2 type  1   force =     0.00000000    0.00000000   -0.00000000
     atom    3 type  2   force =     1.50347475   -0.25232766   -1.09359323
     atom    4 type  2   force =    -1.50347475    0.25232766    1.09359323
     atom    5 type  2   force =    -1.50347474   -0.25232766   -1.09359323
     atom    6 type  2   force =     1.50347475    0.25232766    1.09359323
     atom    7 type  3   force =    -6.44746269   -5.72541637   -1.48072915
     atom    8 type  3   force =     3.01802469   -5.77728697    3.80709545
     atom    9 type  3   force =    -3.01802469    5.77728697   -3.80709545
     atom   10 type  3   force =    -3.01802469   -5.77728697    3.80709545
     atom   11 type  3   force =     6.44746269    5.72541637    1.48072915
     atom   12 type  3   force =    -6.44746269    5.72541637    1.48072915
     atom   13 type  3   force =     3.01802469    5.77728697   -3.80709545
     atom   14 type  3   force =     6.44746269   -5.72541637   -1.48072915
     The local contribution  to forces
     atom    1 type  1   force =    -0.00001348   -0.00044759    0.00002706
     atom    2 type  1   force =    -0.00006806   -0.00004412    0.00016166
     atom    3 type  2   force =    -1.33307946    0.28872144    0.98760647
     atom    4 type  2   force =     1.33297648   -0.28808095   -0.98772598
     atom    5 type  2   force =     1.33312789    0.28853588    0.98759837
     atom    6 type  2   force =    -1.33306216   -0.28849636   -0.98775946
     atom    7 type  3   force =     5.14756695    4.14132948    1.05140253
     atom    8 type  3   force =    -2.51757413    4.15414620   -2.97919658
     atom    9 type  3   force =     2.51750319   -4.15415209    2.97907980
     atom   10 type  3   force =     2.51761329    4.15424073   -2.97915866
     atom   11 type  3   force =    -5.14755119   -4.14125575   -1.05150760
     atom   12 type  3   force =     5.14759644   -4.14129446   -1.05154527
     atom   13 type  3   force =    -2.51754703   -4.15393573    2.97906715
     atom   14 type  3   force =    -5.14766992    4.14174921    1.05140002
     The core correction contribution to forces
     atom    1 type  1   force =     0.00000127    0.00000680   -0.00000152
     atom    2 type  1   force =     0.00000295    0.00000053   -0.00000244
     atom    3 type  2   force =    -0.00233097    0.00180934    0.00195792
     atom    4 type  2   force =     0.00233084   -0.00181314   -0.00195805
     atom    5 type  2   force =     0.00233132    0.00180822    0.00195849
     atom    6 type  2   force =    -0.00233034   -0.00181021   -0.00195794
     atom    7 type  3   force =    -0.01219974   -0.01333349   -0.00416608
     atom    8 type  3   force =     0.00379943   -0.01447069    0.00722240
     atom    9 type  3   force =    -0.00380006    0.01447113   -0.00722264
     atom   10 type  3   force =    -0.00379897   -0.01447119    0.00722172
     atom   11 type  3   force =     0.01219998    0.01333312    0.00416589
     atom   12 type  3   force =    -0.01220015    0.01333349    0.00416574
     atom   13 type  3   force =     0.00379982    0.01447035   -0.00722241
     atom   14 type  3   force =     0.01220052   -0.01333269   -0.00416675
     The Hubbard contrib.    to forces
     atom    1 type  1   force =     0.00000000    0.00000000    0.00000000
     atom    2 type  1   force =     0.00000000    0.00000000    0.00000000
     atom    3 type  2   force =     0.00000000    0.00000000    0.00000000
     atom    4 type  2   force =     0.00000000    0.00000000    0.00000000
     atom    5 type  2   force =     0.00000000    0.00000000    0.00000000
     atom    6 type  2   force =     0.00000000    0.00000000    0.00000000
     atom    7 type  3   force =     0.00000000    0.00000000    0.00000000
     atom    8 type  3   force =     0.00000000    0.00000000    0.00000000
     atom    9 type  3   force =     0.00000000    0.00000000    0.00000000
     atom   10 type  3   force =     0.00000000    0.00000000    0.00000000
     atom   11 type  3   force =     0.00000000    0.00000000    0.00000000
     atom   12 type  3   force =     0.00000000    0.00000000    0.00000000
     atom   13 type  3   force =     0.00000000    0.00000000    0.00000000
     atom   14 type  3   force =     0.00000000    0.00000000    0.00000000
     The SCF correction term to forces
     atom    1 type  1   force =     0.00002454    0.00062585   -0.00004069
     atom    2 type  1   force =     0.00012513    0.00009570   -0.00023632
     atom    3 type  2   force =     0.00001820   -0.00032589    0.00005877
     atom    4 type  2   force =     0.00009237   -0.00057865    0.00006319
     atom    5 type  2   force =    -0.00004884   -0.00014242    0.00009521
     atom    6 type  2   force =     0.00001512    0.00001865    0.00010558
     atom    7 type  3   force =    -0.00000542    0.00010812    0.00003116
     atom    8 type  3   force =    -0.00004230    0.00009770    0.00001562
     atom    9 type  3   force =     0.00006392   -0.00003510    0.00006268
     atom   10 type  3   force =     0.00003145   -0.00005519   -0.00005968
     atom   11 type  3   force =     0.00000955   -0.00022223    0.00009201
     atom   12 type  3   force =    -0.00004972   -0.00014651    0.00011284
     atom   13 type  3   force =    -0.00001896   -0.00025994    0.00008049
     atom   14 type  3   force =     0.00009442   -0.00023558    0.00000716

     Total force =     0.081613     Total SCF correction =     0.001118

     Computing stress (Cartesian axis) and pressure

          total   stress  (Ry/bohr**3)                   (kbar)     P=     -392.93
  -0.00293365   0.00000000   0.00000000         -431.56        0.00        0.00
   0.00000000  -0.00224770   0.00006021            0.00     -330.65        8.86
   0.00000000   0.00006021  -0.00283200            0.00        8.86     -416.60

     kinetic stress (kbar)  20657.48      0.00      0.00
                                0.00  19447.46    186.79
                                0.00    186.79  20654.97

     local   stress (kbar)  -3332.65      0.02      0.00
                                0.02 -27840.11   2720.25
                                0.00   2720.25    400.02

     nonloc. stress (kbar)    632.95      0.00      0.00
                                0.00    683.88     -1.33
                                0.00     -1.33    628.44

     hartree stress (kbar)   4681.62     -0.01     -0.00
                               -0.01  12931.03   -774.50
                               -0.00   -774.50   3607.82

     exc-cor stress (kbar)   2801.72      0.00      0.00
                                0.00   2847.34     -8.18
                                0.00     -8.18   2788.34

     corecor stress (kbar)  -7323.85      0.00     -0.00
                                0.00  -7331.64      1.18
                               -0.00      1.18  -7318.82

     ewald   stress (kbar) -18548.81     -0.00     -0.00
                               -0.00  -1068.61  -2115.34
                               -0.00  -2115.34 -21177.37

     hubbard stress (kbar)      0.00      0.00      0.00
                                0.00      0.00      0.00
                                0.00      0.00      0.00

     DFT-D   stress (kbar)      0.00      0.00      0.00
                                0.00      0.00      0.00
                                0.00      0.00      0.00

     XDM     stress (kbar)      0.00      0.00      0.00
                                0.00      0.00      0.00
                                0.00      0.00      0.00

     dft-nl  stress (kbar)      0.00      0.00      0.00
                                0.00      0.00      0.00
                                0.00      0.00      0.00

     TS-vdW  stress (kbar)      0.00      0.00      0.00
                                0.00      0.00      0.00
                                0.00      0.00      0.00

[...]

                                0.00      0.00      0.00

     Writing all to output data dir new_calculations/myprefix.save/

     General routines

     Parallel routines

     PAW routines

   This run was terminated on:   2:10:20  21May2023

   JOB DONE.