     Program PWSCF v.7.0 starts on 20May2023 at 18: 1:21

     Reading input from espresso_17547.pwi
Warning: card &CELL ignored
Warning: card / ignored

     Current dimensions of program PWSCF are:
     Max number of different atomic species (ntypx) = 10
     Max number of k-points (npk) =  40000
     Max angular momentum in pseudopotentials (lmaxx) =  4
     file O.pbe-n-kjpaw_psl.0.1.UPF: wavefunction(s)  2P renormalized

     gamma-point specific algorithms are used
     Message from routine setup:
     using ibrav=0 with symmetry is DISCOURAGED, use correct ibrav instead

     Subspace diagonalization in iterative solution of the eigenvalue problem:
     a serial algorithm will be used

     Using Slab Decomposition

     bravais-lattice index     =            0
     lattice parameter (alat)  =      13.6401  a.u.
     unit-cell volume          =     761.5074 (a.u.)^3
     number of atoms/cell      =            5
     number of atomic types    =            3
     number of electrons       =        40.00
     number of Kohn-Sham states=           24
     kinetic-energy cutoff     =      30.0000  Ry
     charge density cutoff     =     240.0000  Ry
     scf convergence threshold =      1.0E-06
     mixing beta               =       0.7000
     number of iterations used =            8  plain     mixing
     Exchange-correlation= SLA  PW   PBX  PBC
                           (   1   4   3   4   0   0   0)

     celldm(1)=  13.640105  celldm(2)=   0.000000  celldm(3)=   0.000000
     celldm(4)=   0.000000  celldm(5)=   0.000000  celldm(6)=   0.000000

     crystal axes: (cart. coord. in units of alat)
               a(1) = (   1.000000   0.000000   0.000000 )
               a(2) = (   0.671796   0.740737   0.000000 )
               a(3) = (  -0.835898  -0.370368   0.405095 )

     reciprocal axes: (cart. coord. in units 2 pi/alat)
               b(1) = (  1.000000 -0.906929  1.234277 )
               b(2) = (  0.000000  1.350008  1.234277 )
               b(3) = (  0.000000  0.000000  2.468555 )

     PseudoPot. # 1 for La read from file:
     /home/pragov/projects/rrg-bengioy-ad/pragov/crystal_structure_design/SSSP/La.GGA-PBE-paw-v1.0.UPF
     MD5 check sum: 436541e95c1ad8901025bd0b0ed42ae2
     Pseudo is Projector augmented-wave + core cor, Zval = 11.0
     Generated using ATOMPAW code
     Shape of augmentation charge: BESSEL
     Using radial grid of 1101 points,  8 beta functions with:
                l(1) =   0
                l(2) =   0
                l(3) =   1
                l(4) =   1
                l(5) =   2
                l(6) =   2
                l(7) =   3
                l(8) =   3
     Q(r) pseudized with 0 coefficients

     PseudoPot. # 2 for Te read from file:
     /home/pragov/projects/rrg-bengioy-ad/pragov/crystal_structure_design/SSSP/Te_pbe_v1.uspp.F.UPF
     MD5 check sum: c319670d6894cc26e93307826a071b75
     Pseudo is Ultrasoft + core correction, Zval =  6.0
     Generated by new atomic code, or converted to UPF format
     Using radial grid of  891 points,  5 beta functions with:
                l(1) =   0
                l(2) =   0
                l(3) =   1
                l(4) =   1
                l(5) =   2
     Q(r) pseudized with  6 coefficients,  rinner =    1.800   1.800   1.800
                                                       1.800   1.800

     PseudoPot. # 3 for O  read from file:
     /home/pragov/projects/rrg-bengioy-ad/pragov/crystal_structure_design/SSSP/O.pbe-n-kjpaw_psl.0.1.UPF
     MD5 check sum: 0234752ac141de4415c5fc33072bef88
     Pseudo is Projector augmented-wave + core cor, Zval =  6.0
     Generated using "atomic" code by A. Dal Corso  v.5.0.99 svn rev. 10869
     Shape of augmentation charge: BESSEL
     Using radial grid of 1095 points,  4 beta functions with:
                l(1) =   0
                l(2) =   0
                l(3) =   1
                l(4) =   1
     Q(r) pseudized with 0 coefficients

     atomic species   valence    mass     pseudopotential
        La            11.00   138.90547     La( 1.00)
        Te             6.00   127.60000     Te( 1.00)
        O              6.00    15.99900     O ( 1.00)

      4 Sym. Ops., with inversion, found

                                    s                        frac. trans.

      isym =  1     identity

 cryst.   s( 1) = (     1          0          0      )
                  (     0          1          0      )
                  (     0          0          1      )

 cart.    s( 1) = (  1.0000000  0.0000000  0.0000000 )
                  (  0.0000000  1.0000000  0.0000000 )
                  (  0.0000000  0.0000000  1.0000000 )

      isym =  2     180 deg rotation - cart. axis [0,0,1]

[...]

      isym =  3     inversion

[...]

      isym =  4     inv. 180 deg rotation - cart. axis [0,0,1]

 cryst.   s( 4) = (     1          0          0      )
                  (     0          1          0      )
                  (    -1         -1         -1      )

 cart.    s( 4) = (  1.0000000  0.0000000  0.0000000 )
                  (  0.0000000  1.0000000  0.0000000 )
                  (  0.0000000  0.0000000 -1.0000000 )

   Cartesian axes

     site n.     atom                  positions (alat units)
         1           La  tau(   1) = (   1.1020527   0.4882958   0.0000000  )
         2           La  tau(   2) = (   0.5697429   0.2524408   0.0000000  )
         3           Te  tau(   3) = (   0.0000000   0.0000000   0.0000000  )
         4           O   tau(   4) = (   0.5000000   0.0000000   0.2025477  )
         5           O   tau(   5) = (   0.3358978   0.3703683   0.2025477  )

   Crystallographic axes

     site n.     atom                  positions (cryst. coord.)
         1           La  tau(   1) = (  0.6592030  0.6592030  0.0000000  )
         2           La  tau(   2) = (  0.3407970  0.3407970  0.0000000  )
         3           Te  tau(   3) = (  0.0000000  0.0000000  0.0000000  )
         4           O   tau(   4) = (  0.7500000  0.2500000  0.5000000  )
         5           O   tau(   5) = (  0.2500000  0.7500000  0.5000000  )

     number of k points=     1  Methfessel-Paxton smearing, width (Ry)=  0.0010
                       cart. coord. in units 2pi/alat
        k(    1) = (   0.0000000   0.0000000   0.0000000), wk =   2.0000000

                       cryst. coord.
        k(    1) = (   0.0000000   0.0000000   0.0000000), wk =   2.0000000

     Check: negative core charge=   -0.000005

     Initial potential from superposition of free atoms

     starting charge      39.9827, renormalised to      40.0000
     Starting wfcs are   76 randomized atomic wfcs
     Checking if some PAW data can be deallocated...

     Self-consistent Calculation

     iteration #  1     ecut=    30.00 Ry     beta= 0.70
     Davidson diagonalization with overlap

     ethr =  1.00E-02,  avg # of iterations =  2.0

     total energy              =   -1026.17006078 Ry
     estimated scf accuracy    <       1.17200828 Ry

[...]

     total energy              =   -1026.79966194 Ry
     estimated scf accuracy    <       0.00000117 Ry

     iteration # 16     ecut=    30.00 Ry     beta= 0.70
     Davidson diagonalization with overlap

     ethr =  2.92E-09,  avg # of iterations =  5.0

     End of self-consistent calculation

          k = 0.0000 0.0000 0.0000 (  1069 PWs)   bands (ev):

   -22.3458 -22.1284  -9.5098  -8.4008  -6.2163  -6.2162  -5.7502  -5.7501
    -5.7425  -4.8010   0.0783   4.7420   5.2469   5.5980   5.5980   6.6385
     6.6385   8.7673   9.7042   9.7043  11.6656  12.1266  12.2659  12.4142

     occupation numbers
     1.0000   1.0000   1.0000   1.0000   1.0000   1.0000   1.0000   1.0000
     1.0000   1.0000   1.0000   1.0000   1.0000   1.0000   1.0000   1.0000
     1.0000   1.0000   1.0000   1.0000  -0.0000  -0.0000  -0.0000  -0.0000

     the Fermi energy is    10.3607 ev

!    total energy              =   -1026.79966203 Ry
     estimated scf accuracy    <       0.00000033 Ry
     smearing contrib. (-TS)   =       0.00000000 Ry
     internal energy E=F+TS    =   -1026.79966203 Ry

     The total energy is F=E-TS. E is the sum of the following terms:
     one-electron contribution =     -63.00720262 Ry
     hartree contribution      =      56.16594143 Ry
     xc contribution           =     -47.23564964 Ry
     ewald contribution        =    -157.50384860 Ry
     one-center paw contrib.   =    -815.21890261 Ry
      -> PAW hartree energy AE =     129.49572121 Ry
      -> PAW hartree energy PS =    -129.36037718 Ry
      -> PAW xc energy AE      =    -845.07890414 Ry
      -> PAW xc energy PS      =      29.72465751 Ry
      -> total E_H with PAW    =      56.30128545 Ry
      -> total E_XC with PAW   =    -862.58989627 Ry

     convergence has been achieved in  16 iterations

     Forces acting on atoms (cartesian axes, Ry/au):

     atom    1 type  1   force =     0.00773030    0.00341121    0.00000000
     atom    2 type  1   force =    -0.00773030   -0.00341121   -0.00000000
     atom    3 type  2   force =     0.00000000    0.00000000    0.00000000
     atom    4 type  3   force =     0.00000000    0.00000000   -0.00000165
     atom    5 type  3   force =     0.00000000    0.00000000    0.00000165
     The non-local contrib.  to forces
     atom    1 type  1   force =     0.06335201    0.02807469    0.00000000
     atom    2 type  1   force =    -0.06335201   -0.02807469   -0.00000000
     atom    3 type  2   force =     0.00000000    0.00000000    0.00000000
     atom    4 type  3   force =     0.00000000    0.00000000   -0.00003316
     atom    5 type  3   force =     0.00000000    0.00000000    0.00003316
     The ionic contribution  to forces
     atom    1 type  1   force =   -12.12062295   -5.37038678    0.00000000
     atom    2 type  1   force =    12.12062295    5.37038678    0.00000000
     atom    3 type  2   force =    -0.00000000    0.00000000    0.00000000
     atom    4 type  3   force =     0.00000000    0.00000000   -0.00000000
     atom    5 type  3   force =    -0.00000000    0.00000000   -0.00000000
     The local contribution  to forces
     atom    1 type  1   force =    12.06455452    5.34554021    0.00000252
     atom    2 type  1   force =   -12.06481018   -5.34560681   -0.00003508
     atom    3 type  2   force =     0.00006234    0.00002267    0.00000395
     atom    4 type  3   force =    -0.00026166   -0.00013478    0.00001309
     atom    5 type  3   force =    -0.00018966   -0.00017080    0.00002516
     The core correction contribution to forces
     atom    1 type  1   force =    -0.00013416   -0.00005943    0.00000000
     atom    2 type  1   force =     0.00013407    0.00005943   -0.00000003
     atom    3 type  2   force =     0.00000429    0.00000316   -0.00000051
     atom    4 type  3   force =    -0.00000039    0.00000020    0.00000119
     atom    5 type  3   force =    -0.00000098   -0.00000154    0.00000069
     The Hubbard contrib.    to forces
     atom    1 type  1   force =     0.00000000    0.00000000    0.00000000
     atom    2 type  1   force =     0.00000000    0.00000000    0.00000000
     atom    3 type  2   force =     0.00000000    0.00000000    0.00000000
     atom    4 type  3   force =     0.00000000    0.00000000    0.00000000
     atom    5 type  3   force =     0.00000000    0.00000000    0.00000000
     The SCF correction term to forces
     atom    1 type  1   force =     0.00054627    0.00024036    0.00000920
     atom    2 type  1   force =    -0.00035975   -0.00017807    0.00000337
     atom    3 type  2   force =    -0.00010703   -0.00005721    0.00000224
     atom    4 type  3   force =     0.00022900    0.00015523    0.00005216
     atom    5 type  3   force =     0.00018553    0.00009039   -0.00002244

     Total force =     0.011949     Total SCF correction =     0.000809

     Computing stress (Cartesian axis) and pressure

          total   stress  (Ry/bohr**3)                   (kbar)     P=      -89.32
  -0.00053799   0.00005107  -0.00000000          -79.14        7.51       -0.00
   0.00005107  -0.00063058  -0.00000000            7.51      -92.76       -0.00
  -0.00000000  -0.00000000  -0.00065302           -0.00       -0.00      -96.06

     kinetic stress (kbar)   9678.92    -47.18      0.00
                              -47.18   9764.50      0.00
                                0.00      0.00   9785.44

     local   stress (kbar)   6970.84   8318.52      0.03
                             8318.52  -8117.78     -0.09
                                0.03     -0.09 -11803.52

     nonloc. stress (kbar)   3403.83     22.52      0.00
                               22.52   3363.00      0.00
                                0.00      0.00   3353.01

     hartree stress (kbar)  -1476.19  -3753.20     -0.01
                            -3753.20   5331.58      0.02
                               -0.01      0.02   6994.54

     exc-cor stress (kbar)    -55.40     -2.47      0.00
                               -2.47    -50.92     -0.00
                                0.00     -0.00    -49.82

     corecor stress (kbar)  -2307.18      3.06     -0.00
                                3.06  -2312.73      0.00
                               -0.00      0.00  -2314.09

     ewald   stress (kbar) -16293.96  -4533.73     -0.00
                            -4533.73  -8070.41     -0.00
                               -0.00     -0.00  -6061.61

     hubbard stress (kbar)      0.00      0.00      0.00
                                0.00      0.00      0.00
                                0.00      0.00      0.00

     DFT-D   stress (kbar)      0.00      0.00      0.00
                                0.00      0.00      0.00
                                0.00      0.00      0.00

     XDM     stress (kbar)      0.00      0.00      0.00
                                0.00      0.00      0.00
                                0.00      0.00      0.00

     dft-nl  stress (kbar)      0.00      0.00      0.00
                                0.00      0.00      0.00
                                0.00      0.00      0.00

     TS-vdW  stress (kbar)      0.00      0.00      0.00
                                0.00      0.00      0.00
                                0.00      0.00      0.00

[...]

                                0.00      0.00      0.00

     Writing all to output data dir new_calculations/myprefix.save/

     General routines

     Parallel routines

     PAW routines

   This run was terminated on:  18: 1:50  20May2023

   JOB DONE.