     Program PWSCF v.7.0 starts on 21May2023 at  1:11:16

     Reading input from espresso_16740.pwi
Warning: card &CELL ignored
Warning: card / ignored

     Current dimensions of program PWSCF are:
     Max number of different atomic species (ntypx) = 10
     Max number of k-points (npk) =  40000
     Max angular momentum in pseudopotentials (lmaxx) =  4

     gamma-point specific algorithms are used
     Message from routine setup:
     using ibrav=0 with symmetry is DISCOURAGED, use correct ibrav instead

     Subspace diagonalization in iterative solution of the eigenvalue problem:
     a serial algorithm will be used

     Using Slab Decomposition

     bravais-lattice index     =            0
     lattice parameter (alat)  =       6.7313  a.u.
     unit-cell volume          =     420.2894 (a.u.)^3
     number of atoms/cell      =            2
     number of atomic types    =            2
     number of electrons       =        44.00
     number of Kohn-Sham states=           26
     kinetic-energy cutoff     =      30.0000  Ry
     charge density cutoff     =     240.0000  Ry
     scf convergence threshold =      1.0E-06
     mixing beta               =       0.7000
     number of iterations used =            8  plain     mixing
     Exchange-correlation= SLA PW PBX PBC
                           (   1   4   3   4   0   0   0)

     celldm(1)=   6.731339  celldm(2)=   0.000000  celldm(3)=   0.000000
     celldm(4)=   0.000000  celldm(5)=   0.000000  celldm(6)=   0.000000

     crystal axes: (cart. coord. in units of alat)
               a(1) = (   1.000000   0.000000   0.000000 )
               a(2) = (  -0.500000   0.866026   0.000000 )
               a(3) = (   0.000000   0.000000   1.591158 )

     reciprocal axes: (cart. coord. in units 2 pi/alat)
               b(1) = (  1.000000  0.577350  0.000000 )
               b(2) = (  0.000000  1.154700  0.000000 )
               b(3) = (  0.000000  0.000000  0.628473 )

     PseudoPot. # 1 for Tb read from file:
     /home/pragov/projects/rrg-bengioy-ad/pragov/crystal_structure_design/SSSP/Tb.GGA-PBE-paw-v1.0.UPF
     MD5 check sum: f7bf3d58e9b293961564f5b9598c921e
     Pseudo is Projector augmented-wave + core cor, Zval = 19.0
     Generated using ATOMPAW code
     Shape of augmentation charge: BESSEL
     Using radial grid of 1111 points,  8 beta functions with:
                l(1) =   0
                l(2) =   0
                l(3) =   1
                l(4) =   1
                l(5) =   2
                l(6) =   2
                l(7) =   3
                l(8) =   3
     Q(r) pseudized with 0 coefficients

     PseudoPot. # 2 for Lu read from file:
     /home/pragov/projects/rrg-bengioy-ad/pragov/crystal_structure_design/SSSP/Lu.GGA-PBE-paw-v1.0.UPF
     MD5 check sum: 9ceca61ee0c17e9380a83635bfffa61d
     Pseudo is Projector augmented-wave + core cor, Zval = 25.0
     Generated using ATOMPAW code
     Shape of augmentation charge: BESSEL
     Using radial grid of 1118 points,  8 beta functions with:
                l(1) =   0
                l(2) =   0
                l(3) =   1
                l(4) =   1
                l(5) =   2
                l(6) =   2
                l(7) =   3
                l(8) =   3
     Q(r) pseudized with 0 coefficients

     atomic species   valence    mass     pseudopotential
        Tb            19.00   158.92535     Tb( 1.00)
        Lu            25.00   174.96680     Lu( 1.00)

     12 Sym. Ops. (no inversion) found

                                    s                        frac. trans.

      isym =  1     identity

 cryst.   s( 1) = (     1          0          0      )
                  (     0          1          0      )
                  (     0          0          1      )

 cart.    s( 1) = (  1.0000000 -0.0000000  0.0000000 )
                  (  0.0000000  1.0000000  0.0000000 )
                  (  0.0000000  0.0000000  1.0000000 )

      isym =  2     180 deg rotation - cart. axis [0,1,0]

[...]

      isym =  3     120 deg rotation - cryst. axis [0,0,1]

[...]

      isym =  6     180 deg rotation - cryst. axis [2,1,0]

[...]

      isym =  7     inv. 180 deg rotation - cart. axis [0,0,1]

[...]

      isym =  8     inv. 180 deg rotation - cart. axis [1,0,0]

[...]

      isym =  9     inv.  60 deg rotation - cryst. axis [0,0,1]

 cryst.   s( 9) = (    -1         -1          0      )
                  (     1          0          0      )
                  (     0          0         -1      )

 cart.    s( 9) = ( -0.5000002  0.8660253  0.0000000 )
                  ( -0.8660255 -0.4999998  0.0000000 )
                  (  0.0000000  0.0000000 -1.0000000 )

[...]

 cryst.   s(10) = (     0          1          0      )
                  (    -1         -1          0      )
                  (     0          0         -1      )

 cart.    s(10) = ( -0.4999998 -0.8660253  0.0000000 )
                  (  0.8660255 -0.5000002  0.0000000 )
                  (  0.0000000  0.0000000 -1.0000000 )

[...]

      isym = 12     inv. 180 deg rotation - cryst. axis [1,1,0]

 cryst.   s(12) = (     0         -1          0      )
                  (    -1          0          0      )
                  (     0          0          1      )

 cart.    s(12) = (  0.4999998 -0.8660255  0.0000000 )
                  ( -0.8660255 -0.4999998  0.0000000 )
                  (  0.0000000  0.0000000  1.0000000 )

   Cartesian axes

     site n.     atom                  positions (alat units)
         1           Tb  tau(   1) = (   0.0000000   0.0000000   0.7955790  )
         2           Lu  tau(   2) = (  -0.0000004   0.5773506   0.0000000  )

   Crystallographic axes

     site n.     atom                  positions (cryst. coord.)
         1           Tb  tau(   1) = (  0.0000000  0.0000000  0.5000000  )
         2           Lu  tau(   2) = (  0.3333330  0.6666670  0.0000000  )

     number of k points=     1  Methfessel-Paxton smearing, width (Ry)=  0.0010
                       cart. coord. in units 2pi/alat
        k(    1) = (   0.0000000   0.0000000   0.0000000), wk =   2.0000000

                       cryst. coord.
        k(    1) = (   0.0000000   0.0000000   0.0000000), wk =   2.0000000

     Initial potential from superposition of free atoms

     starting charge      43.9918, renormalised to      44.0000
     Starting wfcs are   64 randomized atomic wfcs
     Checking if some PAW data can be deallocated...

     Self-consistent Calculation

     iteration #  1     ecut=    30.00 Ry     beta= 0.70
     Davidson diagonalization with overlap

     ethr =  1.00E-02,  avg # of iterations =  1.0

     total energy              =   -1799.30332689 Ry
     estimated scf accuracy    <       8.25354503 Ry

[...]

     total energy              =   -1808.81749931 Ry
     estimated scf accuracy    <       0.00000216 Ry

     iteration # 85     ecut=    30.00 Ry     beta= 0.70
     Davidson diagonalization with overlap

     ethr =  4.21E-09,  avg # of iterations =  1.0

     End of self-consistent calculation

          k = 0.0000 0.0000 0.0000 (   571 PWs)   bands (ev):

   -43.7837 -29.9577 -14.4419 -14.2818 -14.2814  -7.1462  -6.9089  -6.9087
     7.5488   7.5976   7.6573   7.6574   7.6585   7.7397   7.7440   7.7441
    11.2318  13.5548  13.8122  14.0882  14.0888  14.1288  14.1291  14.1336
    14.2710  15.1103

     occupation numbers
     1.0000   1.0000   1.0000   1.0000   1.0000   1.0000   1.0000   1.0000
     1.0000   1.0000   1.0000   1.0000   1.0000   1.0000   1.0000   1.0000
     1.0000   1.0000   1.0000   1.0002   1.0002   0.4248   0.4105   0.1644
    -0.0000  -0.0000

     the Fermi energy is    14.1276 ev

!    total energy              =   -1808.81749888 Ry

     total all-electron energy =     -1808.817499 Ry
     estimated scf accuracy    <       0.00000060 Ry
     smearing contrib. (-TS)   =      -0.00068797 Ry
     internal energy E=F+TS    =   -1808.81681091 Ry

     The total energy is F=E-TS. E is the sum of the following terms:
     one-electron contribution =    -577.57725797 Ry
     hartree contribution      =     273.38804361 Ry
     xc contribution           =     -66.51645916 Ry
     ewald contribution        =    -473.69721119 Ry
     one-center paw contrib.   =    -964.41392620 Ry
      -> PAW hartree energy AE =     709.87289251 Ry
      -> PAW hartree energy PS =    -628.07066960 Ry
      -> PAW xc energy AE      =   -1110.29245887 Ry
      -> PAW xc energy PS      =      64.07630976 Ry
      -> total E_H with PAW    =     355.19026652 Ry
      -> total E_XC with PAW   =   -1112.73260827 Ry

     convergence has been achieved in  85 iterations

     Forces acting on atoms (cartesian axes, Ry/au):

     atom    1 type  1   force =    -0.00000000   -0.00000000    0.00000000
     atom    2 type  2   force =     0.00000000    0.00000000    0.00000000
     The non-local contrib.  to forces
     atom    1 type  1   force =     0.00000000    0.00000000    0.00000000
     atom    2 type  2   force =    -0.00000000   -0.00000000    0.00000000
     The ionic contribution  to forces
     atom    1 type  1   force =    -0.00000689    0.00000398   -0.00000000
     atom    2 type  2   force =     0.00000689   -0.00000398    0.00000000
     The local contribution  to forces
     atom    1 type  1   force =    -0.00024015   -0.00002853   -0.00022129
     atom    2 type  2   force =     0.00027030   -0.00012597    0.00019296
     The core correction contribution to forces
     atom    1 type  1   force =    -0.00000001   -0.00000000   -0.00000000
     atom    2 type  2   force =     0.00000001   -0.00000000    0.00000000
     The Hubbard contrib.    to forces
     atom    1 type  1   force =     0.00000000    0.00000000    0.00000000
     atom    2 type  2   force =     0.00000000    0.00000000    0.00000000
     The SCF correction term to forces
     atom    1 type  1   force =    -0.00015916    0.00015419    0.00037384
     atom    2 type  2   force =    -0.00009233    0.00004856   -0.00035998

     Total force =     0.000000     Total SCF correction =     0.000574

     Computing stress (Cartesian axis) and pressure

          total   stress  (Ry/bohr**3)                   (kbar)     P=       52.29
   0.00007563  -0.00000000   0.00000000           11.13       -0.00        0.00
  -0.00000000   0.00007563   0.00000000           -0.00       11.13        0.00
   0.00000000   0.00000000   0.00091508            0.00        0.00      134.61

     kinetic stress (kbar)  11453.91     -0.00      0.00
                               -0.00  11453.90      0.00
                                0.00      0.00  11255.40

     local   stress (kbar)    626.43     -2.14     -0.03
                               -2.14    625.09      1.63
                               -0.03      1.63   4183.96

     nonloc. stress (kbar)  17397.31     -0.00      0.00
                               -0.00  17397.31     -0.00
                                0.00     -0.00  17994.86

     hartree stress (kbar)  32683.80      0.70      0.05
                                0.70  32684.33     -0.36
                                0.05     -0.36  30320.16

     exc-cor stress (kbar)  -7367.23     -0.00      0.00
                               -0.00  -7367.23      0.00
                                0.00      0.00  -7374.58

     corecor stress (kbar)     -4.08     -0.00     -0.00
                               -0.00     -4.08      0.00
                               -0.00      0.00     -4.08

     ewald   stress (kbar) -54778.59     -0.02     -0.00
                               -0.02 -54778.61      0.00
                               -0.00      0.00 -56241.10

     hubbard stress (kbar)      0.00      0.00      0.00
                                0.00      0.00      0.00
                                0.00      0.00      0.00

     DFT-D   stress (kbar)      0.00      0.00      0.00
                                0.00      0.00      0.00
                                0.00      0.00      0.00

     XDM     stress (kbar)      0.00      0.00      0.00
                                0.00      0.00      0.00
                                0.00      0.00      0.00

     dft-nl  stress (kbar)      0.00      0.00      0.00
                                0.00      0.00      0.00
                                0.00      0.00      0.00

     TS-vdW  stress (kbar)      0.00      0.00      0.00
                                0.00      0.00      0.00
                                0.00      0.00      0.00

[...]

                                0.00      0.00      0.00

     Writing all to output data dir new_calculations/myprefix.save/

     General routines

     Parallel routines

     PAW routines

   This run was terminated on:   1:12:44  21May2023

   JOB DONE.