     Program PWSCF v.7.0 starts on 21May2023 at  3:20:54

     Reading input from espresso_22434.pwi
Warning: card &CELL ignored
Warning: card / ignored

     Current dimensions of program PWSCF are:
     Max number of different atomic species (ntypx) = 10
     Max number of k-points (npk) =  40000
     Max angular momentum in pseudopotentials (lmaxx) =  4

     gamma-point specific algorithms are used
     Message from routine setup:
     using ibrav=0 with symmetry is DISCOURAGED, use correct ibrav instead

     Subspace diagonalization in iterative solution of the eigenvalue problem:
     a serial algorithm will be used

     Using Slab Decomposition

     bravais-lattice index     =            0
     lattice parameter (alat)  =      11.0623  a.u.
     unit-cell volume          =     578.5602 (a.u.)^3
     number of atoms/cell      =            5
     number of atomic types    =            3
     number of electrons       =        63.00
     number of Kohn-Sham states=           38
     kinetic-energy cutoff     =      30.0000  Ry
     charge density cutoff     =     240.0000  Ry
     scf convergence threshold =      1.0E-06
     mixing beta               =       0.7000
     number of iterations used =            8  plain     mixing
     Exchange-correlation= PBE
                           (   1   4   3   4   0   0   0)

     celldm(1)=  11.062342  celldm(2)=   0.000000  celldm(3)=   0.000000
     celldm(4)=   0.000000  celldm(5)=   0.000000  celldm(6)=   0.000000

     crystal axes: (cart. coord. in units of alat)
               a(1) = (   1.000000   0.000000   0.000000 )
               a(2) = (   0.507788   0.861482   0.000000 )
               a(3) = (  -0.753894  -0.430741   0.496091 )

     reciprocal axes: (cart. coord. in units 2 pi/alat)
               b(1) = (  1.000000 -0.589435  1.007880 )
               b(2) = (  0.000000  1.160790  1.007880 )
               b(3) = (  0.000000  0.000000  2.015760 )

     PseudoPot. # 1 for Eu read from file:
     /home/pragov/projects/rrg-bengioy-ad/pragov/crystal_structure_design/SSSP/Eu.GGA-PBE-paw-v1.0.UPF
     MD5 check sum: acec5fd9176fb57ec8e299eae1ecaf48
     Pseudo is Projector augmented-wave + core cor, Zval = 17.0
     Generated using ATOMPAW code
     Shape of augmentation charge: BESSEL
     Using radial grid of 1109 points,  8 beta functions with:
                l(1) =   0
                l(2) =   0
                l(3) =   1
                l(4) =   1
                l(5) =   2
                l(6) =   2
                l(7) =   3
                l(8) =   3
     Q(r) pseudized with 0 coefficients

     PseudoPot. # 2 for Ni read from file:
     /home/pragov/projects/rrg-bengioy-ad/pragov/crystal_structure_design/SSSP/ni_pbe_v1.4.uspp.F.UPF
     MD5 check sum: 1ee80287db30b12d2bc1f57a5b5d6409
     Pseudo is Ultrasoft + core correction, Zval = 18.0
     Generated by new atomic code, or converted to UPF format
     Using radial grid of  865 points,  6 beta functions with:
                l(1) =   0
                l(2) =   0
                l(3) =   1
                l(4) =   1
                l(5) =   2
                l(6) =   2
     Q(r) pseudized with 10 coefficients,  rinner =    0.980   0.980   0.980
                                                       0.980   0.980

     PseudoPot. # 3 for As read from file:
     /home/pragov/projects/rrg-bengioy-ad/pragov/crystal_structure_design/SSSP/As.pbe-n-rrkjus_psl.0.2.UPF
     MD5 check sum: 767315de957beeeb34f87d97bf945c8f
     Pseudo is Ultrasoft + core correction, Zval =  5.0
     Generated using "atomic" code by A. Dal Corso  v.5.0.99 svn rev. 10869
     Using radial grid of 1209 points,  4 beta functions with:
                l(1) =   0
                l(2) =   0
                l(3) =   1
                l(4) =   1
     Q(r) pseudized with 0 coefficients

     atomic species   valence    mass     pseudopotential
        Eu            17.00   151.96400     Eu( 1.00)
        Ni            18.00    58.69340     Ni( 1.00)
        As             5.00    74.92159     As( 1.00)

      4 Sym. Ops., with inversion, found

                                    s                        frac. trans.

      isym =  1     identity

 cryst.   s( 1) = (     1          0          0      )
                  (     0          1          0      )
                  (     0          0          1      )

 cart.    s( 1) = (  1.0000000 -0.0000000 -0.0000000 )
                  (  0.0000000  1.0000000  0.0000000 )
                  (  0.0000000  0.0000000  1.0000000 )

      isym =  2     180 deg rotation - cart. axis [0,0,1]

[...]

      isym =  3     inversion

[...]

      isym =  4     inv. 180 deg rotation - cart. axis [0,0,1]

 cryst.   s( 4) = (     1          0          0      )
                  (     0          1          0      )
                  (    -1         -1         -1      )

 cart.    s( 4) = (  1.0000000 -0.0000000  0.0000000 )
                  (  0.0000000  1.0000000  0.0000000 )
                  (  0.0000000  0.0000000 -1.0000000 )

   Cartesian axes

     site n.     atom                  positions (alat units)
         1           Eu  tau(   1) = (   0.0000000   0.0000000   0.0000000  )
         2           Ni  tau(   2) = (   0.5000000   0.0000000   0.2480453  )
         3           Ni  tau(   3) = (   0.2538940   0.4307410   0.2480453  )
         4           As  tau(   4) = (   0.9548807   0.5455757   0.0000000  )
         5           As  tau(   5) = (   0.5529074   0.3159063   0.0000000  )

   Crystallographic axes

     site n.     atom                  positions (cryst. coord.)
         1           Eu  tau(   1) = (  0.0000000  0.0000000  0.0000000  )
         2           Ni  tau(   2) = (  0.7500000  0.2500000  0.5000000  )
         3           Ni  tau(   3) = (  0.2500000  0.7500000  0.5000000  )
         4           As  tau(   4) = (  0.6332990  0.6332990  0.0000000  )
         5           As  tau(   5) = (  0.3667010  0.3667010  0.0000000  )

     number of k points=     1  Methfessel-Paxton smearing, width (Ry)=  0.0010
                       cart. coord. in units 2pi/alat
        k(    1) = (   0.0000000   0.0000000   0.0000000), wk =   2.0000000

                       cryst. coord.
        k(    1) = (   0.0000000   0.0000000   0.0000000), wk =   2.0000000

     Check: negative core charge=   -0.000003

     Initial potential from superposition of free atoms

     starting charge      58.9948, renormalised to      63.0000
     Starting wfcs are   66 randomized atomic wfcs
     Checking if some PAW data can be deallocated...

     Self-consistent Calculation

     iteration #  1     ecut=    30.00 Ry     beta= 0.70
     Davidson diagonalization with overlap

     ethr =  1.00E-02,  avg # of iterations =  6.0

     total energy              =   -1300.52828378 Ry
     estimated scf accuracy    <      79.96466644 Ry

[...]

     total energy              =   -1364.68701750 Ry
     estimated scf accuracy    <       0.00004899 Ry

     iteration # 56     ecut=    30.00 Ry     beta= 0.70
     Davidson diagonalization with overlap

     ethr =  1.61E-08,  avg # of iterations =  1.0

     End of self-consistent calculation

          k = 0.0000 0.0000 0.0000 (   815 PWs)   bands (ev):

   -90.3977 -90.3913 -50.8609 -50.8475 -50.7141 -50.7112 -50.6853 -50.6833
   -27.1118  -6.1261  -5.8686  -5.8681  -0.0741   2.7417   6.8708   9.3915
     9.3920   9.8810   9.8834  10.0666  10.3522  11.3569  11.5001  11.7297
    11.7354  11.7445  12.2579  13.2412  13.2421  13.2643  13.5065  13.5100
    13.6416  13.7960  13.7967  14.4414  14.4418  15.8722

     occupation numbers
     1.0000   1.0000   1.0000   1.0000   1.0000   1.0000   1.0000   1.0000
     1.0000   1.0000   1.0000   1.0000   1.0000   1.0000   1.0000   1.0000
     1.0000   1.0000   1.0000   1.0000   1.0000   1.0000   1.0000   1.0000
     1.0000   1.0000   1.0000   1.0000   1.0000   1.0000   0.8398   0.6602
    -0.0000  -0.0000  -0.0000  -0.0000  -0.0000  -0.0000

     the Fermi energy is    13.5126 ev

!    total energy              =   -1364.68701758 Ry
     estimated scf accuracy    <       0.00000003 Ry
     smearing contrib. (-TS)   =      -0.00038998 Ry
     internal energy E=F+TS    =   -1364.68662760 Ry

     The total energy is F=E-TS. E is the sum of the following terms:
     one-electron contribution =    -636.95731271 Ry
     hartree contribution      =     355.78605043 Ry
     xc contribution           =    -109.87303849 Ry
     ewald contribution        =    -516.45088800 Ry
     one-center paw contrib.   =    -457.19143884 Ry
      -> PAW hartree energy AE =     157.74330826 Ry
      -> PAW hartree energy PS =    -150.85371073 Ry
      -> PAW xc energy AE      =    -483.23159108 Ry
      -> PAW xc energy PS      =      19.15055470 Ry
      -> total E_H with PAW    =     362.67564797 Ry
      -> total E_XC with PAW   =    -573.95407486 Ry

     convergence has been achieved in  56 iterations

     Forces acting on atoms (cartesian axes, Ry/au):

     atom    1 type  1   force =     0.00000000    0.00000000    0.00000000
     atom    2 type  2   force =     0.00000000    0.00000000    0.00019761
     atom    3 type  2   force =     0.00000000    0.00000000   -0.00019761
     atom    4 type  3   force =    -0.00347955   -0.00195867   -0.00000000
     atom    5 type  3   force =     0.00347955    0.00195867    0.00000000
     The non-local contrib.  to forces
     atom    1 type  1   force =     0.00000000    0.00000000    0.00000000
     atom    2 type  2   force =     0.00000000    0.00000000   -0.00051554
     atom    3 type  2   force =     0.00000000    0.00000000    0.00051554
     atom    4 type  3   force =     0.12915847    0.07393541    0.00000000
     atom    5 type  3   force =    -0.12915847   -0.07393541   -0.00000000
     The ionic contribution  to forces
     atom    1 type  1   force =     0.00000000    0.00000000    0.00000000
     atom    2 type  2   force =    -0.00000000    0.00000000   -0.00000000
     atom    3 type  2   force =     0.00000000   -0.00000000   -0.00000000
     atom    4 type  3   force =    -8.01149937   -4.57740903   -0.00000000
     atom    5 type  3   force =     8.01149937    4.57740903    0.00000000
     The local contribution  to forces
     atom    1 type  1   force =     0.00007842    0.00001644   -0.00001417
     atom    2 type  2   force =     0.00001991    0.00038405    0.00072049
     atom    3 type  2   force =    -0.00003637   -0.00040329   -0.00071928
     atom    4 type  3   force =     7.88286117    4.50380562   -0.00009291
     atom    5 type  3   force =    -7.88285969   -4.50379985    0.00009192
     The core correction contribution to forces
     atom    1 type  1   force =     0.00000000    0.00000000   -0.00000000
     atom    2 type  2   force =    -0.00000316    0.00000341    0.00000927
     atom    3 type  2   force =     0.00000279   -0.00000374   -0.00000930
     atom    4 type  3   force =    -0.00403764   -0.00231244   -0.00000490
     atom    5 type  3   force =     0.00403814    0.00231298    0.00000467
     The Hubbard contrib.    to forces
     atom    1 type  1   force =     0.00000000    0.00000000    0.00000000
     atom    2 type  2   force =     0.00000000    0.00000000    0.00000000
     atom    3 type  2   force =     0.00000000    0.00000000    0.00000000
     atom    4 type  3   force =     0.00000000    0.00000000    0.00000000
     atom    5 type  3   force =     0.00000000    0.00000000    0.00000000
     The SCF correction term to forces
     atom    1 type  1   force =    -0.00008448   -0.00001168    0.00001142
     atom    2 type  2   force =     0.00001433    0.00000675   -0.00001936
     atom    3 type  2   force =     0.00004245    0.00003101    0.00001267
     atom    4 type  3   force =     0.00003996    0.00002372    0.00000002
     atom    5 type  3   force =    -0.00003766   -0.00002612   -0.00000080

     Total force =     0.005654     Total SCF correction =     0.000123

     Computing stress (Cartesian axis) and pressure

          total   stress  (Ry/bohr**3)                   (kbar)     P=     -567.80
  -0.00444088  -0.00052326  -0.00000000         -653.28      -76.97       -0.00
  -0.00052326  -0.00371058  -0.00000000          -76.97     -545.85       -0.00
  -0.00000000  -0.00000000  -0.00342796           -0.00       -0.00     -504.27

     kinetic stress (kbar)  20835.14   -103.61      0.00
                             -103.61  20952.57      0.00
                                0.00      0.00  21011.43

     local   stress (kbar)   4699.27  15966.93      1.97
                            15966.93 -14124.88     -1.18
                                1.97     -1.18 -23244.66

     nonloc. stress (kbar)  11052.58    -80.12      0.00
                              -80.12  11169.96      0.00
                                0.00      0.00  11212.56

     hartree stress (kbar)  22967.58  -7361.27     -0.71
                            -7361.27  31645.38      0.47
                               -0.71      0.47  35849.43

     exc-cor stress (kbar)  -4145.62     -2.35     -0.02
                               -2.35  -4142.92      0.01
                               -0.02      0.01  -4141.61

     corecor stress (kbar)  -3984.41     11.30      0.00
                               11.30  -3997.81      0.01
                                0.00      0.01  -4004.26

     ewald   stress (kbar) -52077.83  -8507.86      0.00
                            -8507.86 -42048.16      0.00
                                0.00      0.00 -37187.15

     hubbard stress (kbar)      0.00      0.00      0.00
                                0.00      0.00      0.00
                                0.00      0.00      0.00

     DFT-D   stress (kbar)      0.00      0.00      0.00
                                0.00      0.00      0.00
                                0.00      0.00      0.00

     XDM     stress (kbar)      0.00      0.00      0.00
                                0.00      0.00      0.00
                                0.00      0.00      0.00

     dft-nl  stress (kbar)      0.00      0.00      0.00
                                0.00      0.00      0.00
                                0.00      0.00      0.00

     TS-vdW  stress (kbar)      0.00      0.00      0.00
                                0.00      0.00      0.00
                                0.00      0.00      0.00

[...]

                                0.00      0.00      0.00

     Writing all to output data dir new_calculations/myprefix.save/

     General routines

     Parallel routines

     PAW routines

   This run was terminated on:   3:21:43  21May2023

   JOB DONE.