     Program PWSCF v.7.0 starts on 20May2023 at 17:43:14

     Reading input from espresso_6462.pwi
Warning: card &CELL ignored
Warning: card / ignored

     Current dimensions of program PWSCF are:
     Max number of different atomic species (ntypx) = 10
     Max number of k-points (npk) =  40000
     Max angular momentum in pseudopotentials (lmaxx) =  4

     gamma-point specific algorithms are used
     Message from routine setup:
     using ibrav=0 with symmetry is DISCOURAGED, use correct ibrav instead

     Subspace diagonalization in iterative solution of the eigenvalue problem:
     a serial algorithm will be used

     Using Slab Decomposition

     bravais-lattice index     =            0
     lattice parameter (alat)  =      12.0015  a.u.
     unit-cell volume          =     802.6137 (a.u.)^3
     number of atoms/cell      =            4
     number of atomic types    =            2
     number of electrons       =        63.00
     number of Kohn-Sham states=           38
     kinetic-energy cutoff     =      30.0000  Ry
     charge density cutoff     =     240.0000  Ry
     scf convergence threshold =      1.0E-06
     mixing beta               =       0.7000
     number of iterations used =            8  plain     mixing
     Exchange-correlation= SLA  PW   PBE  PBE
                           (   1   4   3   4   0   0   0)

     celldm(1)=  12.001540  celldm(2)=   0.000000  celldm(3)=   0.000000
     celldm(4)=   0.000000  celldm(5)=   0.000000  celldm(6)=   0.000000

     crystal axes: (cart. coord. in units of alat)
               a(1) = (   1.000000   0.000000   0.000000 )
               a(2) = (   0.455798   0.890083   0.000000 )
               a(3) = (  -0.727899  -0.445042   0.521633 )

     reciprocal axes: (cart. coord. in units 2 pi/alat)
               b(1) = (  1.000000 -0.512085  0.958528 )
               b(2) = (  0.000000  1.123491  0.958528 )
               b(3) = (  0.000000  0.000000  1.917057 )

     PseudoPot. # 1 for Gd read from file:
     /home/pragov/projects/rrg-bengioy-ad/pragov/crystal_structure_design/SSSP/Gd.GGA-PBE-paw-v1.0.UPF
     MD5 check sum: 3e8e0d208da550914ae52eaf991d13de
     Pseudo is Projector augmented-wave + core cor, Zval = 18.0
     Generated using ATOMPAW code
     Shape of augmentation charge: BESSEL
     Using radial grid of 1110 points,  8 beta functions with:
                l(1) =   0
                l(2) =   0
                l(3) =   1
                l(4) =   1
                l(5) =   2
                l(6) =   2
                l(7) =   3
                l(8) =   3
     Q(r) pseudized with 0 coefficients

     PseudoPot. # 2 for Bi read from file:
     /home/pragov/projects/rrg-bengioy-ad/pragov/crystal_structure_design/SSSP/Bi_pbe_v1.uspp.F.UPF
     MD5 check sum: cceb9f28ec65b6d7ff33140f5b0b1758
     Pseudo is Ultrasoft + core correction, Zval = 15.0
     Generated by new atomic code, or converted to UPF format
     Using radial grid of  899 points,  6 beta functions with:
                l(1) =   0
                l(2) =   0
                l(3) =   1
                l(4) =   1
                l(5) =   2
                l(6) =   2
     Q(r) pseudized with  6 coefficients,  rinner =    1.000   1.000   1.000
                                                       1.000   1.000

     atomic species   valence    mass     pseudopotential
        Gd            18.00   157.25000     Gd( 1.00)
        Bi            15.00   208.98040     Bi( 1.00)

      4 Sym. Ops., with inversion, found

                                    s                        frac. trans.

      isym =  1     identity

 cryst.   s( 1) = (     1          0          0      )
                  (     0          1          0      )
                  (     0          0          1      )

 cart.    s( 1) = (  1.0000000  0.0000000  0.0000000 )
                  (  0.0000000  1.0000000 -0.0000000 )
                  (  0.0000000  0.0000000  1.0000000 )

      isym =  2     180 deg rotation - cart. axis [0,0,1]

[...]

      isym =  3     inversion

[...]

      isym =  4     inv. 180 deg rotation - cart. axis [0,0,1]

 cryst.   s( 4) = (     1          0          0      )
                  (     0          1          0      )
                  (    -1         -1         -1      )

 cart.    s( 4) = (  1.0000000  0.0000000 -0.0000000 )
                  (  0.0000000  1.0000000 -0.0000000 )
                  (  0.0000000  0.0000000 -1.0000000 )

   Cartesian axes

     site n.     atom                  positions (alat units)
         1           Gd  tau(   1) = (   0.0000000   0.0000000   0.0000000  )
         2           Bi  tau(   2) = (   0.5000000   0.0000000   0.2608165  )
         3           Bi  tau(   3) = (   0.2278991   0.4450416   0.2608165  )
         4           Bi  tau(   4) = (   0.7278991   0.4450416   0.0000000  )

   Crystallographic axes

     site n.     atom                  positions (cryst. coord.)
         1           Gd  tau(   1) = (  0.0000000  0.0000000  0.0000000  )
         2           Bi  tau(   2) = (  0.7500000  0.2500000  0.5000000  )
         3           Bi  tau(   3) = (  0.2500000  0.7500000  0.5000000  )
         4           Bi  tau(   4) = (  0.5000000  0.5000000  0.0000000  )

     number of k points=     1  Methfessel-Paxton smearing, width (Ry)=  0.0010
                       cart. coord. in units 2pi/alat
        k(    1) = (   0.0000000   0.0000000   0.0000000), wk =   2.0000000

                       cryst. coord.
        k(    1) = (   0.0000000   0.0000000   0.0000000), wk =   2.0000000

     Check: negative core charge=   -0.000004

     Initial potential from superposition of free atoms

     starting charge      59.9947, renormalised to      63.0000

     negative rho (up, down):  1.306E-01 0.000E+00
     Starting wfcs are   59 randomized atomic wfcs
     Checking if some PAW data can be deallocated...

     Self-consistent Calculation

     iteration #  1     ecut=    30.00 Ry     beta= 0.70
     Davidson diagonalization with overlap

     ethr =  1.00E-02,  avg # of iterations =  4.0

     negative rho (up, down):  1.365E-01 0.000E+00

     total energy              =   -1198.70824089 Ry
     estimated scf accuracy    <      39.12741271 Ry

[...]

     total energy              =   -1239.41609669 Ry
     estimated scf accuracy    <       0.00000530 Ry

     iteration # 30     ecut=    30.00 Ry     beta= 0.70
     Davidson diagonalization with overlap

     ethr =  3.43E-09,  avg # of iterations =  1.0

[...]

     End of self-consistent calculation

          k = 0.0000 0.0000 0.0000 (  1121 PWs)   bands (ev):

   -29.4975 -10.4282 -10.4276 -10.3101 -10.2731 -10.2045 -10.1814 -10.1382
   -10.1207 -10.0874 -10.0665  -9.2136  -9.1742  -9.1356  -8.9147  -8.8887
    -7.8224  -7.7218  -7.6070  -0.2896   3.3477   3.7566   8.7416   9.4242
     9.4280  11.5586  12.1812  12.2543  12.9104  13.1188  13.1518  13.2922
    13.3611  13.4300  13.4809  14.2656  15.1768  15.4027

     occupation numbers
     1.0000   1.0000   1.0000   1.0000   1.0000   1.0000   1.0000   1.0000
     1.0000   1.0000   1.0000   1.0000   1.0000   1.0000   1.0000   1.0000
     1.0000   1.0000   1.0000   1.0000   1.0000   1.0000   1.0000   1.0000
     1.0000   1.0000   1.0000   1.0000   1.0000   1.0000   1.0000   0.5000
    -0.0000  -0.0000  -0.0000  -0.0000  -0.0000  -0.0000

     the Fermi energy is    13.2922 ev

!    total energy              =   -1239.41609736 Ry
     estimated scf accuracy    <       0.00000034 Ry
     smearing contrib. (-TS)   =      -0.00028209 Ry
     internal energy E=F+TS    =   -1239.41581527 Ry

     The total energy is F=E-TS. E is the sum of the following terms:
     one-electron contribution =    -222.46196605 Ry
     hartree contribution      =     156.30685394 Ry
     xc contribution           =    -216.74903728 Ry
     ewald contribution        =    -490.83291615 Ry
     one-center paw contrib.   =    -465.67874973 Ry
      -> PAW hartree energy AE =     186.53512733 Ry
      -> PAW hartree energy PS =    -176.69626785 Ry
      -> PAW xc energy AE      =    -497.06814304 Ry
      -> PAW xc energy PS      =      21.55053383 Ry
      -> total E_H with PAW    =     166.14571342 Ry
      -> total E_XC with PAW   =    -692.26664648 Ry

     convergence has been achieved in  30 iterations

     negative rho (up, down):  1.312E-01 0.000E+00

     Forces acting on atoms (cartesian axes, Ry/au):

     atom    1 type  1   force =     0.00000000    0.00000000    0.00000000
     atom    2 type  2   force =     0.00000000    0.00000000    0.00522159
     atom    3 type  2   force =     0.00000000    0.00000000   -0.00522159
     atom    4 type  2   force =     0.00000000    0.00000000    0.00000000
     The non-local contrib.  to forces
     atom    1 type  1   force =     0.00000000    0.00000000    0.00000000
     atom    2 type  2   force =     0.00000000    0.00000000   -0.01093210
     atom    3 type  2   force =     0.00000000    0.00000000    0.01093210
     atom    4 type  2   force =     0.00000000    0.00000000    0.00000000
     The ionic contribution  to forces
     atom    1 type  1   force =    -0.00000000   -0.00000000   -0.00000000
     atom    2 type  2   force =     0.00000000    0.00000000    0.00000000
     atom    3 type  2   force =     0.00000000    0.00000000    0.00000000
     atom    4 type  2   force =    -0.00000000    0.00000000   -0.00000000
     The local contribution  to forces
     atom    1 type  1   force =     0.00017891    0.00010911   -0.00002323
     atom    2 type  2   force =    -0.00134579    0.00275205    0.01501999
     atom    3 type  2   force =     0.00125678   -0.00280747   -0.01505267
     atom    4 type  2   force =     0.00005367    0.00002812   -0.00001649
     The core correction contribution to forces
     atom    1 type  1   force =     0.00000001    0.00000000   -0.00000000
     atom    2 type  2   force =    -0.00012320    0.00065983    0.00118407
     atom    3 type  2   force =     0.00012273   -0.00066099   -0.00118591
     atom    4 type  2   force =     0.00000055    0.00000071    0.00000032
     The Hubbard contrib.    to forces
     atom    1 type  1   force =     0.00000000    0.00000000    0.00000000
     atom    2 type  2   force =     0.00000000    0.00000000    0.00000000
     atom    3 type  2   force =     0.00000000    0.00000000    0.00000000
     atom    4 type  2   force =     0.00000000    0.00000000    0.00000000
     The SCF correction term to forces
     atom    1 type  1   force =    -0.00009754   -0.00009530   -0.00004127
     atom    2 type  2   force =     0.00002379    0.00000429   -0.00005000
     atom    3 type  2   force =     0.00006249    0.00004259    0.00008525
     atom    4 type  2   force =    -0.00005104   -0.00003896    0.00000798

     Total force =     0.007384     Total SCF correction =     0.000201

     Computing stress (Cartesian axis) and pressure

     negative rho (up, down):  1.312E-01 0.000E+00
          total   stress  (Ry/bohr**3)                   (kbar)     P=      -10.82
  -0.00080307  -0.00076737   0.00000000         -118.14     -112.88        0.00
  -0.00076737  -0.00000007   0.00000000         -112.88       -0.01        0.00
   0.00000000   0.00000000   0.00058255            0.00        0.00       85.70

     kinetic stress (kbar)   7766.46   -139.96     -0.00
                             -139.96   7957.67     -0.00
                               -0.00     -0.00   8052.54

     local   stress (kbar)   2781.08   1254.23     -2.14
                             1254.23   1547.86    -15.58
                               -2.14    -15.58    743.56

     nonloc. stress (kbar)  17583.85      2.37     -0.00
                                2.37  17493.66     -0.00
                               -0.00     -0.00  17522.28

     hartree stress (kbar)   9127.29   -477.27      0.36
                             -477.27   9606.95      5.00
                                0.36      5.00   9914.07

     exc-cor stress (kbar)  19546.65     -1.91     -0.01
                               -1.91  19548.47      0.03
                               -0.01      0.03  19549.56

     corecor stress (kbar) -26270.00      1.34     -0.14
                                1.34 -26271.02      0.18
                               -0.14      0.18 -26272.29

     ewald   stress (kbar) -30653.47   -751.69     -0.00
                             -751.69 -29883.61     -0.00
                               -0.00     -0.00 -29424.03

     hubbard stress (kbar)      0.00      0.00      0.00
                                0.00      0.00      0.00
                                0.00      0.00      0.00

     DFT-D   stress (kbar)      0.00      0.00      0.00
                                0.00      0.00      0.00
                                0.00      0.00      0.00

     XDM     stress (kbar)      0.00      0.00      0.00
                                0.00      0.00      0.00
                                0.00      0.00      0.00

     dft-nl  stress (kbar)      0.00      0.00      0.00
                                0.00      0.00      0.00
                                0.00      0.00      0.00

     TS-vdW  stress (kbar)      0.00      0.00      0.00
                                0.00      0.00      0.00
                                0.00      0.00      0.00

[...]

                                0.00      0.00      0.00

     Writing all to output data dir new_calculations/myprefix.save/

     General routines

     Parallel routines

     PAW routines

   This run was terminated on:  17:44: 1  20May2023

   JOB DONE.