     Program PWSCF v.7.0 starts on 20May2023 at 20:49:53

     Reading input from espresso_24120.pwi
Warning: card &CELL ignored
Warning: card / ignored

     Current dimensions of program PWSCF are:
     Max number of different atomic species (ntypx) = 10
     Max number of k-points (npk) =  40000
     Max angular momentum in pseudopotentials (lmaxx) =  4

     gamma-point specific algorithms are used

     Subspace diagonalization in iterative solution of the eigenvalue problem:
     a serial algorithm will be used

     Using Slab Decomposition

     bravais-lattice index     =            0
     lattice parameter (alat)  =      14.2099  a.u.
     unit-cell volume          =    2672.8461 (a.u.)^3
     number of atoms/cell      =           11
     number of atomic types    =            4
     number of electrons       =       104.00
     number of Kohn-Sham states=           62
     kinetic-energy cutoff     =      30.0000  Ry
     charge density cutoff     =     240.0000  Ry
     scf convergence threshold =      1.0E-06
     mixing beta               =       0.7000
     number of iterations used =            8  plain     mixing
     Exchange-correlation= SLA  PW   PBX  PBC
                           (   1   4   3   4   0   0   0)

     celldm(1)=  14.209888  celldm(2)=   0.000000  celldm(3)=   0.000000
     celldm(4)=   0.000000  celldm(5)=   0.000000  celldm(6)=   0.000000

     crystal axes: (cart. coord. in units of alat)
               a(1) = (   1.000000   0.000000   0.000000 )
               a(2) = (   0.830667   0.556770   0.000000 )
               a(3) = (   0.236759   0.072007   1.673117 )

     reciprocal axes: (cart. coord. in units 2 pi/alat)
               b(1) = (  1.000000 -1.491939 -0.077299 )
               b(2) = (  0.000000  1.796074 -0.077299 )
               b(3) = (  0.000000  0.000000  0.597687 )

     PseudoPot. # 1 for Sn read from file:
     /home/pragov/projects/rrg-bengioy-ad/pragov/crystal_structure_design/SSSP/Sn_pbe_v1.uspp.F.UPF
     MD5 check sum: 4cf58ce39ec5d5d420df3dd08604eb00
     Pseudo is Ultrasoft + core correction, Zval = 14.0
     Generated by new atomic code, or converted to UPF format
     Using radial grid of  891 points,  6 beta functions with:
                l(1) =   0
                l(2) =   0
                l(3) =   1
                l(4) =   1
                l(5) =   2
                l(6) =   2
     Q(r) pseudized with  6 coefficients,  rinner =    1.200   1.200   1.200
                                                       1.200   1.200

     PseudoPot. # 2 for Sb read from file:
     /home/pragov/projects/rrg-bengioy-ad/pragov/crystal_structure_design/SSSP/sb_pbe_v1.4.uspp.F.UPF
     MD5 check sum: 9bc50dfb53373b713f5709b9110fe27f
     Pseudo is Ultrasoft + core correction, Zval = 15.0
     Generated by new atomic code, or converted to UPF format
     Using radial grid of  891 points,  6 beta functions with:
                l(1) =   0
                l(2) =   0
                l(3) =   1
                l(4) =   1
                l(5) =   2
                l(6) =   2
     Q(r) pseudized with  8 coefficients,  rinner =    1.350   1.350   1.350
                                                       1.350   1.350

     PseudoPot. # 3 for Se read from file:
     /home/pragov/projects/rrg-bengioy-ad/pragov/crystal_structure_design/SSSP/Se_pbe_v1.uspp.F.UPF
     MD5 check sum: 1b3568f3a8ae88f9a2a0ad0698632c85
     Pseudo is Ultrasoft + core correction, Zval =  6.0
     Generated by new atomic code, or converted to UPF format
     Using radial grid of  877 points,  6 beta functions with:
                l(1) =   0
                l(2) =   0
                l(3) =   1
                l(4) =   1
                l(5) =   2
                l(6) =   2
     Q(r) pseudized with  8 coefficients,  rinner =    1.300   1.300   1.300
                                                       1.300   1.300

     PseudoPot. # 4 for I  read from file:
     /home/pragov/projects/rrg-bengioy-ad/pragov/crystal_structure_design/SSSP/I.pbe-n-kjpaw_psl.0.2.UPF
     MD5 check sum: d4ef18d9c8f18dc85e5843bca1e50dc0
     Pseudo is Projector augmented-wave + core cor, Zval =  7.0
     Generated using "atomic" code by A. Dal Corso  v.5.0.99 svn rev. 10869
     Shape of augmentation charge: PSQ
     Using radial grid of 1247 points,  4 beta functions with:
                l(1) =   0
                l(2) =   0
                l(3) =   1
                l(4) =   1
     Q(r) pseudized with 0 coefficients

     atomic species   valence    mass     pseudopotential
        Sn            14.00   118.71000     Sn( 1.00)
        Sb            15.00   121.76000     Sb( 1.00)
        Se             6.00    78.97100     Se( 1.00)
        I              7.00   126.90447     I ( 1.00)

     No symmetry found

                                    s                        frac. trans.

      isym =  1     identity

 cryst.   s( 1) = (     1          0          0      )
                  (     0          1          0      )
                  (     0          0          1      )

 cart.    s( 1) = (  1.0000000 -0.0000000 -0.0000000 )
                  (  0.0000000  1.0000000 -0.0000000 )
                  (  0.0000000  0.0000000  1.0000000 )

   Cartesian axes

     site n.     atom                  positions (alat units)
         1           Sn  tau(   1) = (   1.2635630   0.3842938   0.8067568  )
         2           Sn  tau(   2) = (   0.8000851   0.2433339   0.8754851  )
         3           Sn  tau(   3) = (   1.3891600   0.4224923   1.3840022  )
         4           Sb  tau(   4) = (   0.6896010   0.2097319   0.3034716  )
         5           Se  tau(   5) = (   1.5408353   0.4686220   1.0307805  )
         6           Se  tau(   6) = (   0.5286770   0.1607892   0.6342334  )
         7           I   tau(   7) = (   1.3407613   0.4077725   0.2288221  )
         8           I   tau(   8) = (   0.7417096   0.2255799   1.4437810  )
         9           I   tau(   9) = (   1.8251896   0.5551042   0.5231552  )
        10           I   tau(  10) = (   0.2293373   0.0697495   1.1194423  )
        11           I   tau(  11) = (   1.8188773   0.5531843   0.0156537  )

   Crystallographic axes

     site n.     atom                  positions (cryst. coord.)
         1           Sn  tau(   1) = (  0.6278590  0.6278590  0.4821880  )
         2           Sn  tau(   2) = (  0.3693720  0.3693720  0.5232660  )
         3           Sn  tau(   3) = (  0.6518460  0.6518460  0.8272000  )
         4           Sb  tau(   4) = (  0.3532360  0.3532360  0.1813810  )
         5           Se  tau(   5) = (  0.7620020  0.7620020  0.6160840  )
         6           Se  tau(   6) = (  0.2397640  0.2397640  0.3790730  )
         7           I   tau(   7) = (  0.7147020  0.7147020  0.1367640  )
         8           I   tau(   8) = (  0.2935560  0.2935560  0.8629290  )
         9           I   tau(   9) = (  0.9565690  0.9565690  0.3126830  )
        10           I   tau(  10) = (  0.0387440  0.0387440  0.6690760  )
        11           I   tau(  11) = (  0.9923500  0.9923500  0.0093560  )

     number of k points=     1  Methfessel-Paxton smearing, width (Ry)=  0.0010
                       cart. coord. in units 2pi/alat
        k(    1) = (   0.0000000   0.0000000   0.0000000), wk =   2.0000000

                       cryst. coord.
        k(    1) = (   0.0000000   0.0000000   0.0000000), wk =   2.0000000

     Check: negative core charge=   -0.000001

     Initial potential from superposition of free atoms

     starting charge      99.9993, renormalised to     104.0000
     Starting wfcs are   64 randomized atomic wfcs
     Checking if some PAW data can be deallocated...

     Self-consistent Calculation

     iteration #  1     ecut=    30.00 Ry     beta= 0.70
     Davidson diagonalization with overlap

     ethr =  1.00E-02,  avg # of iterations =  3.0

     total energy              =   -2654.61028376 Ry
     estimated scf accuracy    <       2.75482500 Ry

[...]

     negative rho (up, down):  1.378E-08 0.000E+00

[...]

     total energy              =   -2656.02006694 Ry
     estimated scf accuracy    <       0.00001864 Ry

     iteration # 14     ecut=    30.00 Ry     beta= 0.70
     Davidson diagonalization with overlap

     ethr =  1.79E-08,  avg # of iterations =  4.0

     End of self-consistent calculation

          k = 0.0000 0.0000 0.0000 (  3706 PWs)   bands (ev):

   -24.7260 -24.7071 -24.6657 -24.6543 -24.6445 -16.4458 -16.4315 -16.3908
   -16.3904 -16.3837 -16.3256 -16.3096 -16.2463 -16.2303 -16.2161 -16.2141
   -16.2096 -16.1773 -16.1457 -16.1324  -8.0771  -7.5169  -7.2482  -6.9657
    -6.7290  -6.5274  -6.0879  -3.6795  -1.7949  -1.5585  -0.6499   1.2651
     1.7679   1.8636   2.0774   2.4539   2.5445   2.7555   3.0414   3.1129
     3.1510   3.3852   3.6571   3.7204   3.9548   4.0892   4.1174   4.3607
     4.4392   4.6081   4.7813   5.1372   6.0617   6.6650   6.7091   7.1753
     7.6578   7.8137   7.8355   8.1224   8.1693   8.6702

     occupation numbers
     1.0000   1.0000   1.0000   1.0000   1.0000   1.0000   1.0000   1.0000
     1.0000   1.0000   1.0000   1.0000   1.0000   1.0000   1.0000   1.0000
     1.0000   1.0000   1.0000   1.0000   1.0000   1.0000   1.0000   1.0000
     1.0000   1.0000   1.0000   1.0000   1.0000   1.0000   1.0000   1.0000
     1.0000   1.0000   1.0000   1.0000   1.0000   1.0000   1.0000   1.0000
     1.0000   1.0000   1.0000   1.0000   1.0000   1.0000   1.0000   1.0000
     1.0000   1.0000   1.0000   1.0000  -0.0000  -0.0000  -0.0000  -0.0000
    -0.0000  -0.0000  -0.0000  -0.0000  -0.0000  -0.0000

     the Fermi energy is     5.6499 ev

!    total energy              =   -2656.02007059 Ry
     estimated scf accuracy    <       0.00000029 Ry
     smearing contrib. (-TS)   =       0.00000000 Ry
     internal energy E=F+TS    =   -2656.02007059 Ry

     The total energy is F=E-TS. E is the sum of the following terms:
     one-electron contribution =    -417.85934373 Ry
     hartree contribution      =     263.21940181 Ry
     xc contribution           =    -454.80953900 Ry
     ewald contribution        =    -443.92530199 Ry
     one-center paw contrib.   =   -1602.64528768 Ry
      -> PAW hartree energy AE =      48.52990609 Ry
      -> PAW hartree energy PS =     -48.83563979 Ry
      -> PAW xc energy AE      =   -1804.76553139 Ry
      -> PAW xc energy PS      =     202.42597741 Ry
      -> total E_H with PAW    =     262.91366810 Ry
      -> total E_XC with PAW   =   -2057.14909298 Ry

     convergence has been achieved in  14 iterations

     Forces acting on atoms (cartesian axes, Ry/au):

     atom    1 type  1   force =     0.02932689    0.00892674   -0.01021752
     atom    2 type  1   force =    -0.02362778   -0.00719406    0.01505445
     atom    3 type  1   force =    -0.00365427   -0.00110744   -0.00671676
     atom    4 type  2   force =    -0.00557934   -0.00171124    0.01327324
     atom    5 type  3   force =    -0.02288504   -0.00695773   -0.00483782
     atom    6 type  3   force =     0.01538241    0.00468024   -0.00830806
     atom    7 type  4   force =     0.00660600    0.00201050    0.01814754
     atom    8 type  4   force =     0.01242015    0.00377886   -0.01372525
     atom    9 type  4   force =    -0.00775341   -0.00235718   -0.01700584
     atom   10 type  4   force =     0.00620474    0.00188878    0.00153629
     atom   11 type  4   force =    -0.00644034   -0.00195747    0.01279974
     The non-local contrib.  to forces
     atom    1 type  1   force =     0.27782116    0.08449937    0.29180863
     atom    2 type  1   force =    -0.34144172   -0.10385337   -0.18748521
     atom    3 type  1   force =     0.27344915    0.08316912   -0.22669458
     atom    4 type  2   force =    -0.16019679   -0.04873113    0.26639256
     atom    5 type  3   force =    -0.20113035   -0.06116950   -0.11537640
     atom    6 type  3   force =     0.18871293    0.05738912    0.02030394
     atom    7 type  4   force =     0.09388920    0.02855414    0.02684818
     atom    8 type  4   force =    -0.08667442   -0.02636059   -0.02673438
     atom    9 type  4   force =    -0.04209550   -0.01280351    0.00496957
     atom   10 type  4   force =     0.02817820    0.00856999   -0.04123199
     atom   11 type  4   force =    -0.00495609   -0.00150617    0.02571836
     The ionic contribution  to forces
     atom    1 type  1   force =    -6.14396243   -1.86859441   -3.27475090
     atom    2 type  1   force =     6.19948553    1.88548093    4.63813508
     atom    3 type  1   force =    -3.10668682   -0.94485239   10.40239943
     atom    4 type  2   force =     2.39237555    0.72760529  -12.41535083
     atom    5 type  3   force =     1.82082605    0.55377705    5.22347940
     atom    6 type  3   force =    -2.62068426   -0.79704197   -3.85245247
     atom    7 type  4   force =    -5.16529244   -1.57094655   -4.37739292
     atom    8 type  4   force =     4.36112410    1.32637075    3.46277835
     atom    9 type  4   force =     4.57773048    1.39224835   -3.94912805
     atom   10 type  4   force =    -3.21514579   -0.97783857    6.02187152
     atom   11 type  4   force =     0.90023004    0.27379152   -1.87958862
     The local contribution  to forces
     atom    1 type  1   force =     5.90006705    1.79441374    2.97971478
     atom    2 type  1   force =    -5.88818878   -1.79079205   -4.43930799
     atom    3 type  1   force =     2.83467090    0.86211686  -10.18718778
     atom    4 type  2   force =    -2.23962795   -0.68112965   12.16422578
     atom    5 type  3   force =    -1.66661592   -0.50687845   -5.12610957
     atom    6 type  3   force =     2.47010562    0.75125546    3.82567564
     atom    7 type  4   force =     5.09048201    1.54819168    4.36824969
     atom    8 type  4   force =    -4.26584455   -1.29739339   -3.45344321
     atom    9 type  4   force =    -4.54262134   -1.38157434    3.92864300
     atom   10 type  4   force =     3.19028295    0.97027743   -5.98413588
     atom   11 type  4   force =    -0.90179848   -0.27426950    1.87367894
     The core correction contribution to forces
     atom    1 type  1   force =    -0.00452204   -0.00137560   -0.00735552
     atom    2 type  1   force =     0.00671589    0.00204268    0.00442740
     atom    3 type  1   force =    -0.00524665   -0.00159597    0.00515051
     atom    4 type  2   force =     0.00095926    0.00029226   -0.00224612
     atom    5 type  3   force =     0.02443289    0.00743054    0.01293737
     atom    6 type  3   force =    -0.02265873   -0.00689057   -0.00177312
     atom    7 type  4   force =    -0.01225502   -0.00372751    0.00035268
     atom    8 type  4   force =     0.00399147    0.00121393    0.00366772
     atom    9 type  4   force =    -0.00080325   -0.00024501   -0.00123634
     atom   10 type  4   force =     0.00263761    0.00080223    0.00498181
     atom   11 type  4   force =     0.00004623    0.00001423   -0.00720339
     The Hubbard contrib.    to forces
     atom    1 type  1   force =     0.00000000    0.00000000    0.00000000
     atom    2 type  1   force =     0.00000000    0.00000000    0.00000000
     atom    3 type  1   force =     0.00000000    0.00000000    0.00000000
     atom    4 type  2   force =     0.00000000    0.00000000    0.00000000
     atom    5 type  3   force =     0.00000000    0.00000000    0.00000000
     atom    6 type  3   force =     0.00000000    0.00000000    0.00000000
     atom    7 type  4   force =     0.00000000    0.00000000    0.00000000
     atom    8 type  4   force =     0.00000000    0.00000000    0.00000000
     atom    9 type  4   force =     0.00000000    0.00000000    0.00000000
     atom   10 type  4   force =     0.00000000    0.00000000    0.00000000
     atom   11 type  4   force =     0.00000000    0.00000000    0.00000000
     The SCF correction term to forces
     atom    1 type  1   force =    -0.00003405   -0.00000505    0.00033151
     atom    2 type  1   force =    -0.00015590   -0.00006093   -0.00074881
     atom    3 type  1   force =     0.00020194    0.00006625   -0.00041834
     atom    4 type  2   force =     0.00095338    0.00026330    0.00021785
     atom    5 type  3   force =    -0.00035492   -0.00010605    0.00019738
     atom    6 type  3   force =    -0.00005035   -0.00002050   -0.00009605
     atom    7 type  4   force =    -0.00017496   -0.00004996    0.00005592
     atom    8 type  4   force =    -0.00013366   -0.00004053   -0.00002772
     atom    9 type  4   force =     0.00007900    0.00002864   -0.00028801
     atom   10 type  4   force =     0.00029455    0.00008900    0.00001683
     atom   11 type  4   force =     0.00008075    0.00002375    0.00016046

     Total force =     0.066455     Total SCF correction =     0.001552

     Computing stress (Cartesian axis) and pressure

          total   stress  (Ry/bohr**3)                   (kbar)     P=       40.74
  -0.00009960  -0.00039242  -0.00000331          -14.65      -57.73       -0.49
  -0.00039242   0.00107133  -0.00000101          -57.73      157.60       -0.15
  -0.00000331  -0.00000101  -0.00014094           -0.49       -0.15      -20.73

     kinetic stress (kbar)   5243.45    -49.35     -0.37
                              -49.35   5390.71     -0.11
                               -0.37     -0.11   5241.32

     local   stress (kbar)   -394.13   1429.67    310.19
                             1429.67  -4660.09     94.34
                              310.19     94.34   2968.77

     nonloc. stress (kbar)   1541.54      2.53      7.08
                                2.53   1534.00      2.15
                                7.08      2.15   1531.44

     hartree stress (kbar)   4747.00   -631.14   -158.89
                             -631.14   6630.26    -48.32
                             -158.89    -48.32   3109.51

     exc-cor stress (kbar)  16063.10      0.04      0.05
                                0.04  16062.97      0.02
                                0.05      0.02  16063.25

     corecor stress (kbar) -18838.61      1.47      0.00
                                1.47 -18842.99      0.00
                                0.00      0.00 -18837.03

     ewald   stress (kbar)  -8377.01   -810.94   -158.56
                             -810.94  -5957.25    -48.22
                             -158.56    -48.22 -10098.00

     hubbard stress (kbar)      0.00      0.00      0.00
                                0.00      0.00      0.00
                                0.00      0.00      0.00

     DFT-D   stress (kbar)      0.00      0.00      0.00
                                0.00      0.00      0.00
                                0.00      0.00      0.00

     XDM     stress (kbar)      0.00      0.00      0.00
                                0.00      0.00      0.00
                                0.00      0.00      0.00

     dft-nl  stress (kbar)      0.00      0.00      0.00
                                0.00      0.00      0.00
                                0.00      0.00      0.00

     TS-vdW  stress (kbar)      0.00      0.00      0.00
                                0.00      0.00      0.00
                                0.00      0.00      0.00

[...]

                                0.00      0.00      0.00

     Writing all to output data dir new_calculations/myprefix.save/

     General routines

     Parallel routines

     PAW routines

   This run was terminated on:  20:50:27  20May2023

   JOB DONE.