     Program PWSCF v.7.0 starts on 20May2023 at  9:27:19

     Reading input from espresso_15144.pwi
Warning: card &CELL ignored
Warning: card / ignored

     Current dimensions of program PWSCF are:
     Max number of different atomic species (ntypx) = 10
     Max number of k-points (npk) =  40000
     Max angular momentum in pseudopotentials (lmaxx) =  4

     gamma-point specific algorithms are used
     Message from routine setup:
     using ibrav=0 with symmetry is DISCOURAGED, use correct ibrav instead

     Subspace diagonalization in iterative solution of the eigenvalue problem:
     a serial algorithm will be used

     Using Slab Decomposition

     bravais-lattice index     =            0
     lattice parameter (alat)  =       6.7141  a.u.
     unit-cell volume          =    1149.7264 (a.u.)^3
     number of atoms/cell      =           14
     number of atomic types    =            3
     number of electrons       =       188.00
     number of Kohn-Sham states=          113
     kinetic-energy cutoff     =      30.0000  Ry
     charge density cutoff     =     240.0000  Ry
     scf convergence threshold =      1.0E-06
     mixing beta               =       0.7000
     number of iterations used =            8  plain     mixing
     Exchange-correlation= PBE
                           (   1   4   3   4   0   0   0)

     celldm(1)=   6.714121  celldm(2)=   0.000000  celldm(3)=   0.000000
     celldm(4)=   0.000000  celldm(5)=   0.000000  celldm(6)=   0.000000

     crystal axes: (cart. coord. in units of alat)
               a(1) = (   1.000000   0.000000   0.000000 )
               a(2) = (   0.000000   1.949007   0.000000 )
               a(3) = (   0.000000   0.000000   1.949007 )

     reciprocal axes: (cart. coord. in units 2 pi/alat)
               b(1) = (  1.000000  0.000000  0.000000 )
               b(2) = (  0.000000  0.513082  0.000000 )
               b(3) = (  0.000000  0.000000  0.513082 )

     PseudoPot. # 1 for Hf read from file:
     /home/pragov/projects/rrg-bengioy-ad/pragov/crystal_structure_design/SSSP/Hf-sp.oncvpsp.upf
     MD5 check sum: 417ed15784afe83d2e06dacf143de3f8
     Pseudo is Norm-conserving + core correction, Zval = 12.0
     Generated using ONCVPSP code by D. R. Hamann
     Using radial grid of 1656 points,  8 beta functions with:
                l(1) =   0
                l(2) =   0
                l(3) =   1
                l(4) =   1
                l(5) =   2
                l(6) =   2
                l(7) =   3
                l(8) =   3

     PseudoPot. # 2 for Ni read from file:
     /home/pragov/projects/rrg-bengioy-ad/pragov/crystal_structure_design/SSSP/ni_pbe_v1.4.uspp.F.UPF
     MD5 check sum: 1ee80287db30b12d2bc1f57a5b5d6409
     Pseudo is Ultrasoft + core correction, Zval = 18.0
     Generated by new atomic code, or converted to UPF format
     Using radial grid of  865 points,  6 beta functions with:
                l(1) =   0
                l(2) =   0
                l(3) =   1
                l(4) =   1
                l(5) =   2
                l(6) =   2
     Q(r) pseudized with 10 coefficients,  rinner =    0.980   0.980   0.980
                                                       0.980   0.980

     PseudoPot. # 3 for P  read from file:
     /home/pragov/projects/rrg-bengioy-ad/pragov/crystal_structure_design/SSSP/P.pbe-n-rrkjus_psl.1.0.0.UPF
     MD5 check sum: 8b930f418f0a4573dca56cd030ffe088
     Pseudo is Ultrasoft + core correction, Zval =  5.0
     Generated using "atomic" code by A. Dal Corso  v.5.1
     Using radial grid of 1147 points,  6 beta functions with:
                l(1) =   0
                l(2) =   0
                l(3) =   1
                l(4) =   1
                l(5) =   2
                l(6) =   2
     Q(r) pseudized with 0 coefficients

     atomic species   valence    mass     pseudopotential
        Hf            12.00   178.49000     Hf( 1.00)
        Ni            18.00    58.69340     Ni( 1.00)
        P              5.00    30.97376     P ( 1.00)

     16 Sym. Ops., with inversion, found ( 8 have fractional translation)

                                    s                        frac. trans.

      isym =  1     identity

 cryst.   s( 1) = (     1          0          0      )
                  (     0          1          0      )
                  (     0          0          1      )

 cart.    s( 1) = (  1.0000000  0.0000000  0.0000000 )
                  (  0.0000000  1.0000000  0.0000000 )
                  (  0.0000000  0.0000000  1.0000000 )

      isym =  2     180 deg rotation - cart. axis [0,0,1]

 cryst.   s( 2) = (    -1          0          0      )    f =(  0.5000000 )
                  (     0         -1          0      )       (  0.5000000 )
                  (     0          0          1      )       (  0.5000000 )

 cart.    s( 2) = ( -1.0000000  0.0000000  0.0000000 )    f =(  0.5000000 )
                  (  0.0000000 -1.0000000  0.0000000 )       (  0.9745037 )
                  (  0.0000000  0.0000000  1.0000000 )       (  0.9745037 )

[...]

      isym =  8      90 deg rotation - cart. axis [1,0,0]

 cryst.   s( 8) = (     1          0          0      )    f =( -0.5000000 )
                  (     0          0          1      )       (  0.5000000 )
                  (     0         -1          0      )       (  0.5000000 )

 cart.    s( 8) = (  1.0000000  0.0000000  0.0000000 )    f =( -0.5000000 )
                  (  0.0000000  0.0000000 -1.0000000 )       (  0.9745037 )
                  (  0.0000000  1.0000000  0.0000000 )       (  0.9745037 )

      isym =  9     inversion

 cryst.   s( 9) = (    -1          0          0      )
                  (     0         -1          0      )
                  (     0          0         -1      )

 cart.    s( 9) = ( -1.0000000  0.0000000  0.0000000 )
                  (  0.0000000 -1.0000000  0.0000000 )
                  (  0.0000000  0.0000000 -1.0000000 )

      isym = 10     inv. 180 deg rotation - cart. axis [0,0,1]

 cryst.   s(10) = (     1          0          0      )    f =( -0.5000000 )
                  (     0          1          0      )       (  0.5000000 )
                  (     0          0         -1      )       (  0.5000000 )

 cart.    s(10) = (  1.0000000  0.0000000  0.0000000 )    f =( -0.5000000 )
                  (  0.0000000  1.0000000  0.0000000 )       (  0.9745037 )
                  (  0.0000000  0.0000000 -1.0000000 )       (  0.9745037 )

[...]

 cryst.   s(12) = (    -1          0          0      )
                  (     0          1          0      )
                  (     0          0          1      )

 cart.    s(12) = ( -1.0000000  0.0000000  0.0000000 )
                  (  0.0000000  1.0000000  0.0000000 )
                  (  0.0000000  0.0000000  1.0000000 )

[...]

 cryst.   s(14) = (     1          0          0      )
                  (     0          0          1      )
                  (     0          1          0      )

 cart.    s(14) = (  1.0000000  0.0000000  0.0000000 )
                  (  0.0000000  0.0000000  1.0000000 )
                  (  0.0000000  1.0000000  0.0000000 )

[...]

      isym = 16     inv.  90 deg rotation - cart. axis [1,0,0]

 cryst.   s(16) = (    -1          0          0      )    f =(  0.5000000 )
                  (     0          0         -1      )       (  0.5000000 )
                  (     0          1          0      )       (  0.5000000 )

 cart.    s(16) = ( -1.0000000  0.0000000  0.0000000 )    f =(  0.5000000 )
                  (  0.0000000  0.0000000  1.0000000 )       (  0.9745037 )
                  (  0.0000000 -1.0000000  0.0000000 )       (  0.9745037 )

   Cartesian axes

     site n.     atom                  positions (alat units)
         1           Hf  tau(   1) = (   0.0000000   0.9745037   0.9745037  )
         2           Hf  tau(   2) = (   0.5000000   0.0000000   0.0000000  )
         3           Ni  tau(   3) = (   0.5000000   0.3246228   1.1405532  )
         4           Ni  tau(   4) = (   0.5000000   1.6243845   0.8084541  )
         5           Ni  tau(   5) = (   0.0000000   0.6498809   0.1660496  )
         6           Ni  tau(   6) = (   0.0000000   1.2991264   1.7829577  )
         7           Ni  tau(   7) = (   0.5000000   1.1405532   0.3246228  )
         8           Ni  tau(   8) = (   0.5000000   0.8084541   1.6243845  )
         9           Ni  tau(   9) = (   0.0000000   0.1660496   0.6498809  )
        10           Ni  tau(  10) = (   0.0000000   1.7829577   1.2991264  )
        11           P   tau(  11) = (   0.5000000   1.3986408   1.3986408  )
        12           P   tau(  12) = (   0.5000000   0.5503665   0.5503665  )
        13           P   tau(  13) = (   0.0000000   1.5248702   0.4241371  )
        14           P   tau(  14) = (   0.0000000   0.4241371   1.5248702  )

   Crystallographic axes

     site n.     atom                  positions (cryst. coord.)
         1           Hf  tau(   1) = (  0.0000000  0.5000000  0.5000000  )
         2           Hf  tau(   2) = (  0.5000000  0.0000000  0.0000000  )
         3           Ni  tau(   3) = (  0.5000000  0.1665580  0.5851970  )
         4           Ni  tau(   4) = (  0.5000000  0.8334420  0.4148030  )
         5           Ni  tau(   5) = (  0.0000000  0.3334420  0.0851970  )
         6           Ni  tau(   6) = (  0.0000000  0.6665580  0.9148030  )
         7           Ni  tau(   7) = (  0.5000000  0.5851970  0.1665580  )
         8           Ni  tau(   8) = (  0.5000000  0.4148030  0.8334420  )
         9           Ni  tau(   9) = (  0.0000000  0.0851970  0.3334420  )
        10           Ni  tau(  10) = (  0.0000000  0.9148030  0.6665580  )
        11           P   tau(  11) = (  0.5000000  0.7176170  0.7176170  )
        12           P   tau(  12) = (  0.5000000  0.2823830  0.2823830  )
        13           P   tau(  13) = (  0.0000000  0.7823830  0.2176170  )
        14           P   tau(  14) = (  0.0000000  0.2176170  0.7823830  )

     number of k points=     1  Methfessel-Paxton smearing, width (Ry)=  0.0010
                       cart. coord. in units 2pi/alat
        k(    1) = (   0.0000000   0.0000000   0.0000000), wk =   2.0000000

                       cryst. coord.
        k(    1) = (   0.0000000   0.0000000   0.0000000), wk =   2.0000000

     Check: negative core charge=   -0.000008

     Initial potential from superposition of free atoms

     starting charge     171.9957, renormalised to     188.0000
     Starting wfcs are  140 randomized atomic wfcs

     Self-consistent Calculation

     iteration #  1     ecut=    30.00 Ry     beta= 0.70
     Davidson diagonalization with overlap

     ethr =  1.00E-02,  avg # of iterations =  8.0

     total energy              =   -2764.80411646 Ry
     estimated scf accuracy    <     374.67823856 Ry

[...]

     ethr =  3.81E-04,  avg # of iterations =  1.0
     Minimization algorithm failed to find Fermi energy: reverting to bisection
     Possible cause: smearing is larger than the electronic band-gap.

[...]

     total energy              =   -3026.89973198 Ry
     estimated scf accuracy    <       0.00000112 Ry

     iteration # 66     ecut=    30.00 Ry     beta= 0.70
     Davidson diagonalization with overlap

     ethr =  5.94E-10,  avg # of iterations =  1.0

     End of self-consistent calculation

          k = 0.0000 0.0000 0.0000 (  1592 PWs)   bands (ev):

   -86.5307 -86.5266 -86.5265 -86.5232 -86.5213 -86.5192 -86.5166 -86.5166
   -47.1233 -47.1198 -47.0752 -47.0751 -47.0607 -47.0606 -47.0200 -47.0165
   -46.9942 -46.9804 -46.9803 -46.9745 -46.9698 -46.9366 -46.9365 -46.9095
   -46.6338 -46.5957 -46.5940 -46.5822 -46.5822 -46.5464 -46.5279 -46.5279
   -44.2888 -44.2778 -13.2872 -13.2872 -13.1462 -13.1462 -12.7203 -12.7167
     3.3671   4.8316   4.8317   5.2568   8.7152   9.8355  10.7072  10.7072
    11.7486  11.9886  12.0159  12.2178  12.2179  12.4437  12.4437  12.7813
    12.8915  13.6161  13.9555  13.9968  14.1496  14.1496  14.2372  14.2916
    14.2917  14.4348  14.4348  14.5097  14.6912  14.6912  14.7584  14.8742
    14.9536  15.1052  15.1667  15.2138  15.2138  15.2957  15.7332  15.7834
    15.7835  15.7900  15.8027  15.8027  15.9954  16.0116  16.0467  16.1588
    16.3988  16.7578  17.0394  17.0394  17.6715  17.9132  17.9132  17.9498
    17.9498  18.6215  19.5344  19.6933  19.7124  19.7124  20.0310  20.0632
    20.6221  20.9832  20.9833  21.2122  22.2324  22.2324  22.9145  22.9145
    22.9162

     occupation numbers
     1.0000   1.0000   1.0000   1.0000   1.0000   1.0000   1.0000   1.0000
     1.0000   1.0000   1.0000   1.0000   1.0000   1.0000   1.0000   1.0000
     1.0000   1.0000   1.0000   1.0000   1.0000   1.0000   1.0000   1.0000
     1.0000   1.0000   1.0000   1.0000   1.0000   1.0000   1.0000   1.0000
     1.0000   1.0000   1.0000   1.0000   1.0000   1.0000   1.0000   1.0000
     1.0000   1.0000   1.0000   1.0000   1.0000   1.0000   1.0000   1.0000
     1.0000   1.0000   1.0000   1.0000   1.0000   1.0000   1.0000   1.0000
     1.0000   1.0000   1.0000   1.0000   1.0000   1.0000   1.0000   1.0000
     1.0000   1.0000   1.0000   1.0000   1.0000   1.0000   1.0000   1.0000
     1.0000   1.0000   1.0000   1.0000   1.0000   1.0000   1.0000   1.0000
     1.0000   1.0000   1.0000   1.0000   1.0000   1.0000   1.0000   1.0000
     1.0000   1.0000   1.0000   1.0000   1.0000   0.5017   0.4992  -0.0005
    -0.0005  -0.0000  -0.0000  -0.0000  -0.0000  -0.0000  -0.0000  -0.0000
    -0.0000  -0.0000  -0.0000  -0.0000  -0.0000  -0.0000  -0.0000  -0.0000
    -0.0000

     the Fermi energy is    17.9132 ev

!    total energy              =   -3026.89973135 Ry
     estimated scf accuracy    <       0.00000077 Ry
     smearing contrib. (-TS)   =      -0.00055879 Ry
     internal energy E=F+TS    =   -3026.89917256 Ry

     The total energy is F=E-TS. E is the sum of the following terms:
     one-electron contribution =   -1993.65196343 Ry
     hartree contribution      =    1111.64358859 Ry
     xc contribution           =    -360.26662839 Ry
     ewald contribution        =   -1784.62416933 Ry

     convergence has been achieved in  66 iterations

     Forces acting on atoms (cartesian axes, Ry/au):

     atom    1 type  1   force =     0.00000000    0.00000000    0.00000000
     atom    2 type  1   force =    -0.00000000    0.00000000    0.00000000
     atom    3 type  2   force =     0.00000000   -0.02198750    0.00322436
     atom    4 type  2   force =     0.00000000    0.02198750   -0.00322436
     atom    5 type  2   force =     0.00000000    0.02198750    0.00322436
     atom    6 type  2   force =    -0.00000000   -0.02198750   -0.00322436
     atom    7 type  2   force =    -0.00000000    0.00322436   -0.02198750
     atom    8 type  2   force =     0.00000000   -0.00322436    0.02198750
     atom    9 type  2   force =     0.00000000    0.00322436    0.02198750
     atom   10 type  2   force =    -0.00000000   -0.00322436   -0.02198750
     atom   11 type  3   force =     0.00000000   -0.02061305   -0.02061305
     atom   12 type  3   force =    -0.00000000    0.02061305    0.02061305
     atom   13 type  3   force =    -0.00000000    0.02061305   -0.02061305
     atom   14 type  3   force =     0.00000000   -0.02061305    0.02061305
     The non-local contrib.  to forces
     atom    1 type  1   force =     0.00000000    0.00000000    0.00000000
     atom    2 type  1   force =     0.00000000    0.00000000    0.00000000
     atom    3 type  2   force =     0.00000000    0.27755384    0.35223604
     atom    4 type  2   force =    -0.00000000   -0.27755384   -0.35223604
     atom    5 type  2   force =    -0.00000000   -0.27755384    0.35223604
     atom    6 type  2   force =     0.00000000    0.27755384   -0.35223604
     atom    7 type  2   force =    -0.00000000    0.35223604    0.27755384
     atom    8 type  2   force =     0.00000000   -0.35223604   -0.27755384
     atom    9 type  2   force =     0.00000000    0.35223604   -0.27755384
     atom   10 type  2   force =    -0.00000000   -0.35223604    0.27755384
     atom   11 type  3   force =     0.00000000    0.02981708    0.02981708
     atom   12 type  3   force =     0.00000000   -0.02981708   -0.02981708
     atom   13 type  3   force =     0.00000000   -0.02981708    0.02981708
     atom   14 type  3   force =     0.00000000    0.02981708   -0.02981708
     The ionic contribution  to forces
     atom    1 type  1   force =     0.00000000   -0.00000000   -0.00000000
     atom    2 type  1   force =     0.00000000   -0.00000000   -0.00000000
     atom    3 type  2   force =     0.00000000   18.87815554    5.45748497
     atom    4 type  2   force =    -0.00000000  -18.87815554   -5.45748497
     atom    5 type  2   force =     0.00000000  -18.87815554    5.45748497
     atom    6 type  2   force =    -0.00000000   18.87815554   -5.45748497
     atom    7 type  2   force =     0.00000000    5.45748497   18.87815554
     atom    8 type  2   force =    -0.00000000   -5.45748497  -18.87815554
     atom    9 type  2   force =     0.00000000    5.45748497  -18.87815554
     atom   10 type  2   force =    -0.00000000   -5.45748497   18.87815554
     atom   11 type  3   force =     0.00000000   -1.82536029   -1.82536029
     atom   12 type  3   force =     0.00000000    1.82536029    1.82536029
     atom   13 type  3   force =     0.00000000    1.82536029   -1.82536029
     atom   14 type  3   force =    -0.00000000   -1.82536029    1.82536029
     The local contribution  to forces
     atom    1 type  1   force =     0.00000002   -0.00008171   -0.00045828
     atom    2 type  1   force =     0.00000004   -0.00044120   -0.00019465
     atom    3 type  2   force =     0.00000019  -19.17379705   -5.80209943
     atom    4 type  2   force =    -0.00000051   19.17339520    5.80169579
     atom    5 type  2   force =     0.00000051   19.17265242   -5.80354025
     atom    6 type  2   force =    -0.00000003  -19.17155876    5.80468869
     atom    7 type  2   force =    -0.00000026   -5.80155013  -19.17345430
     atom    8 type  2   force =    -0.00000078    5.80191303   19.17371409
     atom    9 type  2   force =    -0.00000019   -5.80411389   19.17286321
     atom   10 type  2   force =     0.00000036    5.80437582  -19.17224235
     atom   11 type  3   force =     0.00000007    1.77699038    1.77685307
     atom   12 type  3   force =    -0.00000010   -1.77651731   -1.77651347
     atom   13 type  3   force =     0.00000028   -1.77623320    1.77600082
     atom   14 type  3   force =     0.00000012    1.77583665   -1.77624347
     The core correction contribution to forces
     atom    1 type  1   force =    -0.00000000   -0.00000258   -0.00000325
     atom    2 type  1   force =    -0.00000001   -0.00000031   -0.00000155
     atom    3 type  2   force =    -0.00000000   -0.00450969   -0.00342069
     atom    4 type  2   force =     0.00000000    0.00451233    0.00342010
     atom    5 type  2   force =     0.00000000    0.00451149   -0.00342788
     atom    6 type  2   force =    -0.00000000   -0.00451199    0.00342631
     atom    7 type  2   force =     0.00000000   -0.00341983   -0.00451371
     atom    8 type  2   force =    -0.00000001    0.00341909    0.00451719
     atom    9 type  2   force =    -0.00000001   -0.00342641    0.00451508
     atom   10 type  2   force =     0.00000000    0.00342546   -0.00451568
     atom   11 type  3   force =     0.00000001   -0.00148104   -0.00148043
     atom   12 type  3   force =    -0.00000000    0.00148644    0.00148568
     atom   13 type  3   force =     0.00000002    0.00148882   -0.00148682
     atom   14 type  3   force =     0.00000000   -0.00148808    0.00148887
     The Hubbard contrib.    to forces
     atom    1 type  1   force =     0.00000000    0.00000000    0.00000000
     atom    2 type  1   force =     0.00000000    0.00000000    0.00000000
     atom    3 type  2   force =     0.00000000    0.00000000    0.00000000
     atom    4 type  2   force =     0.00000000    0.00000000    0.00000000
     atom    5 type  2   force =     0.00000000    0.00000000    0.00000000
     atom    6 type  2   force =     0.00000000    0.00000000    0.00000000
     atom    7 type  2   force =     0.00000000    0.00000000    0.00000000
     atom    8 type  2   force =     0.00000000    0.00000000    0.00000000
     atom    9 type  2   force =     0.00000000    0.00000000    0.00000000
     atom   10 type  2   force =     0.00000000    0.00000000    0.00000000
     atom   11 type  3   force =     0.00000000    0.00000000    0.00000000
     atom   12 type  3   force =     0.00000000    0.00000000    0.00000000
     atom   13 type  3   force =     0.00000000    0.00000000    0.00000000
     atom   14 type  3   force =     0.00000000    0.00000000    0.00000000
     The SCF correction term to forces
     atom    1 type  1   force =    -0.00000006    0.00004721    0.00041545
     atom    2 type  1   force =     0.00000000    0.00042863    0.00016937
     atom    3 type  2   force =    -0.00000009    0.00057372   -0.00086097
     atom    4 type  2   force =     0.00000058   -0.00017785    0.00122417
     atom    5 type  2   force =    -0.00000047    0.00045721    0.00035752
     atom    6 type  2   force =    -0.00000008   -0.00148884   -0.00143691
     atom    7 type  2   force =     0.00000013   -0.00136390    0.00019971
     atom    8 type  2   force =     0.00000054    0.00100825   -0.00041747
     atom    9 type  2   force =     0.00000012    0.00090294    0.00031106
     atom   10 type  2   force =    -0.00000026   -0.00114942   -0.00090215
     atom   11 type  3   force =     0.00000000   -0.00042874   -0.00028095
     atom   12 type  3   force =     0.00000004    0.00008110    0.00006747
     atom   13 type  3   force =    -0.00000008   -0.00007944    0.00035476
     atom   14 type  3   force =    -0.00000001    0.00049843   -0.00006483

     Total force =     0.085732     Total SCF correction =     0.003795

     Computing stress (Cartesian axis) and pressure

          total   stress  (Ry/bohr**3)                   (kbar)     P=    -1149.20
  -0.00836951   0.00000000   0.00000000        -1231.20        0.00        0.00
   0.00000000  -0.00753335   0.00000000            0.00    -1108.19        0.00
   0.00000000   0.00000000  -0.00753335            0.00        0.00    -1108.19

     kinetic stress (kbar)  39155.86      0.00      0.00
                                0.00  39601.52      0.00
                                0.00      0.00  39601.52

     local   stress (kbar) -27405.91     -0.00      0.00
                               -0.00  -9055.37     -1.20
                                0.00     -1.20  -9053.87

     nonloc. stress (kbar)  16848.19      0.00      0.00
                                0.00  17107.38      0.00
                                0.00      0.00  17107.38

     hartree stress (kbar)  53306.39      0.00     -0.00
                                0.00  44463.26      0.94
                               -0.00      0.94  44462.82

     exc-cor stress (kbar)  -7284.06     -0.00     -0.00
                               -0.00  -7280.41     -0.00
                               -0.00     -0.00  -7280.42

     corecor stress (kbar)  -6471.33     -0.00      0.00
                               -0.00  -6465.81      0.00
                                0.00      0.00  -6465.80

     ewald   stress (kbar) -69380.34      0.00     -0.00
                                0.00 -79479.29      0.00
                               -0.00      0.00 -79479.29

     hubbard stress (kbar)      0.00      0.00      0.00
                                0.00      0.00      0.00
                                0.00      0.00      0.00

     DFT-D   stress (kbar)      0.00      0.00      0.00
                                0.00      0.00      0.00
                                0.00      0.00      0.00

     XDM     stress (kbar)      0.00      0.00      0.00
                                0.00      0.00      0.00
                                0.00      0.00      0.00

     dft-nl  stress (kbar)      0.00      0.00      0.00
                                0.00      0.00      0.00
                                0.00      0.00      0.00

     TS-vdW  stress (kbar)      0.00      0.00      0.00
                                0.00      0.00      0.00
                                0.00      0.00      0.00

[...]

                                0.00      0.00      0.00

     Writing all to output data dir new_calculations/myprefix.save/

     General routines

     Parallel routines

   This run was terminated on:   9:29:29  20May2023

   JOB DONE.