     Program PWSCF v.7.0 starts on 20May2023 at 12: 9:24

     Reading input from espresso_7352.pwi
Warning: card &CELL ignored
Warning: card / ignored

     Current dimensions of program PWSCF are:
     Max number of different atomic species (ntypx) = 10
     Max number of k-points (npk) =  40000
     Max angular momentum in pseudopotentials (lmaxx) =  4
     file O.pbe-n-kjpaw_psl.0.1.UPF: wavefunction(s)  2P renormalized

     gamma-point specific algorithms are used

     Subspace diagonalization in iterative solution of the eigenvalue problem:
     a serial algorithm will be used

     Using Slab Decomposition

     bravais-lattice index     =            0
     lattice parameter (alat)  =      12.4460  a.u.
     unit-cell volume          =    1660.4884 (a.u.)^3
     number of atoms/cell      =           18
     number of atomic types    =            4
     number of electrons       =       160.00
     number of Kohn-Sham states=           96
     kinetic-energy cutoff     =      30.0000  Ry
     charge density cutoff     =     240.0000  Ry
     scf convergence threshold =      1.0E-06
     mixing beta               =       0.7000
     number of iterations used =            8  plain     mixing
     Exchange-correlation= SLA  PW   PBX  PBC
                           (   1   4   3   4   0   0   0)

     celldm(1)=  12.446007  celldm(2)=   0.000000  celldm(3)=   0.000000
     celldm(4)=   0.000000  celldm(5)=   0.000000  celldm(6)=   0.000000

     crystal axes: (cart. coord. in units of alat)
               a(1) = (   1.000000   0.000000   0.000000 )
               a(2) = (  -0.101629   0.994822   0.000000 )
               a(3) = (  -0.211516   0.191009   0.865765 )

     reciprocal axes: (cart. coord. in units 2 pi/alat)
               b(1) = (  1.000000  0.102158  0.221773 )
               b(2) = (  0.000000  1.005205 -0.221773 )
               b(3) = (  0.000000  0.000000  1.155047 )

     PseudoPot. # 1 for V  read from file:
     /home/pragov/projects/rrg-bengioy-ad/pragov/crystal_structure_design/SSSP/v_pbe_v1.4.uspp.F.UPF
     MD5 check sum: 22b79981416ebb76fdaf5b1b8640f6fb
     Pseudo is Ultrasoft + core correction, Zval = 13.0
     Generated by new atomic code, or converted to UPF format
     Using radial grid of  853 points,  6 beta functions with:
                l(1) =   0
                l(2) =   0
                l(3) =   1
                l(4) =   1
                l(5) =   2
                l(6) =   2
     Q(r) pseudized with  8 coefficients,  rinner =    1.100   1.100   1.100
                                                       1.100   1.100

     PseudoPot. # 2 for Co read from file:
     /home/pragov/projects/rrg-bengioy-ad/pragov/crystal_structure_design/SSSP/Co_pbe_v1.2.uspp.F.UPF
     MD5 check sum: 5f91765df6ddd3222702df6e7b74a16d
     Pseudo is Ultrasoft + core correction, Zval = 17.0
     Generated by new atomic code, or converted to UPF format
     Using radial grid of  863 points,  6 beta functions with:
                l(1) =   0
                l(2) =   0
                l(3) =   1
                l(4) =   1
                l(5) =   2
                l(6) =   2
     Q(r) pseudized with  8 coefficients,  rinner =    1.200   1.200   1.200
                                                       1.200   1.200

     PseudoPot. # 3 for Cu read from file:
     /home/pragov/projects/rrg-bengioy-ad/pragov/crystal_structure_design/SSSP/Cu_pbe_v1.2.uspp.F.UPF
     MD5 check sum: 6e991ff952a84172a2a52a1c1e996048
     Pseudo is Ultrasoft + core correction, Zval = 19.0
     Generated by new atomic code, or converted to UPF format
     Using radial grid of  867 points,  6 beta functions with:
                l(1) =   0
                l(2) =   0
                l(3) =   1
                l(4) =   1
                l(5) =   2
                l(6) =   2
     Q(r) pseudized with  8 coefficients,  rinner =    1.150   1.150   1.150
                                                       1.150   1.150

     PseudoPot. # 4 for O  read from file:
     /home/pragov/projects/rrg-bengioy-ad/pragov/crystal_structure_design/SSSP/O.pbe-n-kjpaw_psl.0.1.UPF
     MD5 check sum: 0234752ac141de4415c5fc33072bef88
     Pseudo is Projector augmented-wave + core cor, Zval =  6.0
     Generated using "atomic" code by A. Dal Corso  v.5.0.99 svn rev. 10869
     Shape of augmentation charge: BESSEL
     Using radial grid of 1095 points,  4 beta functions with:
                l(1) =   0
                l(2) =   0
                l(3) =   1
                l(4) =   1
     Q(r) pseudized with 0 coefficients

     atomic species   valence    mass     pseudopotential
        V             13.00    50.94150     V ( 1.00)
        Co            17.00    58.93319     Co( 1.00)
        Cu            19.00    63.54600     Cu( 1.00)
        O              6.00    15.99900     O ( 1.00)

     No symmetry found

                                    s                        frac. trans.

      isym =  1     identity

 cryst.   s( 1) = (     1          0          0      )
                  (     0          1          0      )
                  (     0          0          1      )

 cart.    s( 1) = (  1.0000000 -0.0000000 -0.0000000 )
                  (  0.0000000  1.0000000  0.0000000 )
                  (  0.0000000  0.0000000  1.0000000 )

   Cartesian axes

     site n.     atom                  positions (alat units)
         1           V   tau(   1) = (  -0.0172415   0.7559859   0.6554346  )
         2           V   tau(   2) = (   0.2538418   0.8339106   0.2319481  )
         3           V   tau(   3) = (   0.4365495   0.3461914   0.6432135  )
         4           V   tau(   4) = (   0.6980372   0.4327814   0.2009346  )
         5           Co  tau(   5) = (   0.7725740   0.9618278   0.2164413  )
         6           Cu  tau(   6) = (  -0.0828031   0.2272327   0.6493240  )
         7           O   tau(   7) = (  -0.1841162   0.9335481   0.5557712  )
         8           O   tau(   8) = (  -0.1212211   0.5208060   0.6635061  )
         9           O   tau(   9) = (   0.0655452   0.9945180   0.1582706  )
        10           O   tau(  10) = (   0.1915193   0.7414489   0.4823759  )
        11           O   tau(  11) = (   0.2131546   0.2188491   0.6351419  )
        12           O   tau(  12) = (   0.2693868   0.6377508   0.0406364  )
        13           O   tau(  13) = (   0.4008716   0.5523939   0.8162722  )
        14           O   tau(  14) = (   0.4777782   0.9586806   0.2425147  )
        15           O   tau(  15) = (   0.5013132   0.4283103   0.3922463  )
        16           O   tau(  16) = (   0.6301517   0.1982261   0.7428769  )
        17           O   tau(  17) = (   0.7994028   0.6682385   0.1903680  )
        18           O   tau(  18) = (   0.8769494   0.2617820   0.2746121  )

   Crystallographic axes

     site n.     atom                  positions (cryst. coord.)
         1           V   tau(   1) = (  0.2053460  0.6145630  0.7570580  )
         2           V   tau(   2) = (  0.3904720  0.7868110  0.2679110  )
         3           V   tau(   3) = (  0.6145630  0.2053460  0.7429420  )
         4           V   tau(   4) = (  0.7868110  0.3904720  0.2320890  )
         5           Co  tau(   5) = (  0.9188330  0.9188330  0.2500000  )
         6           Cu  tau(   6) = (  0.0844130  0.0844130  0.7500000  )
         7           O   tau(   7) = (  0.0345080  0.8151520  0.6419420  )
         8           O   tau(   8) = (  0.0791310  0.3763690  0.7663810  )
         9           O   tau(   9) = (  0.2022430  0.9645940  0.1828100  )
        10           O   tau(  10) = (  0.3742420  0.6383300  0.5571670  )
        11           O   tau(  11) = (  0.3763690  0.0791310  0.7336190  )
        12           O   tau(  12) = (  0.3435500  0.6320580  0.0469370  )
        13           O   tau(  13) = (  0.6383300  0.3742420  0.9428330  )
        14           O   tau(  14) = (  0.6294980  0.9098870  0.2801160  )
        15           O   tau(  15) = (  0.6320580  0.3435500  0.4530630  )
        16           O   tau(  16) = (  0.8151520  0.0345080  0.8580580  )
        17           O   tau(  17) = (  0.9098870  0.6294980  0.2198840  )
        18           O   tau(  18) = (  0.9645940  0.2022430  0.3171900  )

     number of k points=     1  Methfessel-Paxton smearing, width (Ry)=  0.0010
                       cart. coord. in units 2pi/alat
        k(    1) = (   0.0000000   0.0000000   0.0000000), wk =   2.0000000

                       cryst. coord.
        k(    1) = (   0.0000000   0.0000000   0.0000000), wk =   2.0000000

     Check: negative core charge=   -0.000017

     Initial potential from superposition of free atoms

     starting charge     157.9951, renormalised to     160.0000

     negative rho (up, down):  2.211E-03 0.000E+00
     Starting wfcs are  114 randomized atomic wfcs
     Checking if some PAW data can be deallocated...

     Self-consistent Calculation

     iteration #  1     ecut=    30.00 Ry     beta= 0.70
     Davidson diagonalization with overlap

     ethr =  1.00E-02,  avg # of iterations =  2.0

     negative rho (up, down):  1.420E-02 0.000E+00

     total energy              =   -1773.45429358 Ry
     estimated scf accuracy    <      14.15578747 Ry

[...]

     total energy              =   -1782.45540033 Ry
     estimated scf accuracy    <       0.00003226 Ry

     iteration # 31     ecut=    30.00 Ry     beta= 0.70
     Davidson diagonalization with overlap

     ethr =  2.02E-08,  avg # of iterations =  1.0

[...]

     End of self-consistent calculation

          k = 0.0000 0.0000 0.0000 (  2298 PWs)   bands (ev):

  -106.2749 -89.8537 -63.8108 -63.7800 -63.3633 -59.8713 -59.8709 -59.7384
   -59.7382 -53.1623 -53.0698 -53.0054 -33.8403 -33.8400 -33.7841 -33.7836
   -33.7436 -33.7418 -33.6836 -33.6833 -33.6379 -33.6370 -33.5990 -33.5981
   -13.1640 -12.6961 -12.6044 -12.4335 -12.4147 -12.4078 -12.3128 -12.1733
   -12.1459 -12.1322 -11.9191 -11.8795  -0.2060  -0.1112  -0.0220   0.0491
     0.2131   0.2266   0.2863   0.3772   0.4935   0.5527   0.5817   0.8146
     0.8570   0.9879   1.0898   1.1701   1.2622   1.4380   1.5187   1.6117
     1.7726   1.9049   1.9095   2.0752   2.2388   2.3242   2.4293   2.5286
     2.7759   2.8751   3.1257   3.2528   3.4834   3.5074   3.8333   3.9683
     4.3916   4.4210   4.5250   4.6606   4.8249   4.8470   5.1274   5.4997
     5.5113   6.1040   6.9917   7.0438   7.1194   7.3812   7.4715   7.5893
     7.6833   7.7960   7.8937   8.1671   8.4798   8.5611   8.5997   8.8446

     occupation numbers
     1.0000   1.0000   1.0000   1.0000   1.0000   1.0000   1.0000   1.0000
     1.0000   1.0000   1.0000   1.0000   1.0000   1.0000   1.0000   1.0000
     1.0000   1.0000   1.0000   1.0000   1.0000   1.0000   1.0000   1.0000
     1.0000   1.0000   1.0000   1.0000   1.0000   1.0000   1.0000   1.0000
     1.0000   1.0000   1.0000   1.0000   1.0000   1.0000   1.0000   1.0000
     1.0000   1.0000   1.0000   1.0000   1.0000   1.0000   1.0000   1.0000
     1.0000   1.0000   1.0000   1.0000   1.0000   1.0000   1.0000   1.0000
     1.0000   1.0000   1.0000   1.0000   1.0000   1.0000   1.0000   1.0000
     1.0000   1.0000   1.0000   1.0000   1.0000   1.0000   1.0000   1.0000
     1.0000   1.0000   1.0000   1.0000   1.0000   1.0000   1.0000   0.8270
     0.1730  -0.0000  -0.0000  -0.0000  -0.0000  -0.0000  -0.0000  -0.0000
    -0.0000  -0.0000  -0.0000  -0.0000  -0.0000  -0.0000  -0.0000  -0.0000

     the Fermi energy is     5.5055 ev

!    total energy              =   -1782.45540029 Ry
     estimated scf accuracy    <       0.00000023 Ry
     smearing contrib. (-TS)   =      -0.00029942 Ry
     internal energy E=F+TS    =   -1782.45510088 Ry

     The total energy is F=E-TS. E is the sum of the following terms:
     one-electron contribution =   -1291.32392145 Ry
     hartree contribution      =     700.91498864 Ry
     xc contribution           =    -237.57557680 Ry
     ewald contribution        =    -840.12483676 Ry
     one-center paw contrib.   =    -114.34575450 Ry
      -> PAW hartree energy AE =     351.76040968 Ry
      -> PAW hartree energy PS =    -350.55862475 Ry
      -> PAW xc energy AE      =    -205.49526494 Ry
      -> PAW xc energy PS      =      89.94772550 Ry
      -> total E_H with PAW    =     702.11677358 Ry
      -> total E_XC with PAW   =    -353.12311624 Ry

     convergence has been achieved in  31 iterations

     negative rho (up, down):  7.805E-03 0.000E+00

     Forces acting on atoms (cartesian axes, Ry/au):

     atom    1 type  1   force =    -0.01548768   -0.02116019   -0.00394968
     atom    2 type  1   force =    -0.00018266    0.01768766   -0.00211238
     atom    3 type  1   force =    -0.01947619   -0.01756548    0.00394401
     atom    4 type  1   force =     0.01764566    0.00160432    0.00211315
     atom    5 type  2   force =     0.00263724    0.00297533   -0.00004430
     atom    6 type  3   force =     0.01465234    0.01643430    0.00002776
     atom    7 type  4   force =    -0.00446688   -0.02779406   -0.04087599
     atom    8 type  4   force =     0.01090631    0.06041962   -0.00846153
     atom    9 type  4   force =    -0.00611634   -0.01676023    0.01894553
     atom   10 type  4   force =     0.00423634    0.01314108   -0.01474467
     atom   11 type  4   force =     0.05901058    0.01697695    0.00846679
     atom   12 type  4   force =    -0.00199030    0.00468686    0.01094055
     atom   13 type  4   force =     0.01265989    0.00552913    0.01475080
     atom   14 type  4   force =    -0.00680755   -0.02976094   -0.00595782
     atom   15 type  4   force =     0.00489319   -0.00152239   -0.01093491
     atom   16 type  4   force =    -0.02716375   -0.00727957    0.04088445
     atom   17 type  4   force =    -0.02890687   -0.00979990    0.00595733
     atom   18 type  4   force =    -0.01604333   -0.00781249   -0.01894910
     The non-local contrib.  to forces
     atom    1 type  1   force =    -0.10990548   -0.06964915    0.00112374
     atom    2 type  1   force =     0.04699597    0.14013107   -0.02488523
     atom    3 type  1   force =    -0.05813434   -0.11640147   -0.00112579
     atom    4 type  1   force =     0.13463792    0.06099865    0.02489446
     atom    5 type  2   force =     0.03490990    0.03872690   -0.00004498
     atom    6 type  3   force =    -0.05256098   -0.05799414    0.00001397
     atom    7 type  4   force =     0.61593820   -0.14387684    0.07840472
     atom    8 type  4   force =     0.51257010    0.31475662   -0.08615142
     atom    9 type  4   force =     0.01773926   -0.84784002    0.34125536
     atom   10 type  4   force =    -0.55052888    0.35904573   -0.28715250
     atom   11 type  4   force =     0.26106112    0.54185643    0.08617484
     atom   12 type  4   force =    -0.33250176    0.45081569   -0.21179200
     atom   13 type  4   force =     0.41313814   -0.51120818    0.28715049
     atom   14 type  4   force =    -0.09762544   -0.43745688   -0.15303041
     atom   15 type  4   force =     0.48225301   -0.28496620    0.21179863
     atom   16 type  4   force =    -0.20591075    0.59815295   -0.07847574
     atom   17 type  4   force =    -0.42526703   -0.14156534    0.15302348
     atom   18 type  4   force =    -0.84524082   -0.06855151   -0.34126118
     The ionic contribution  to forces
     atom    1 type  1   force =     4.34211773   -4.35893597    5.77660134
     atom    2 type  1   force =     5.64138889   -5.67926149    4.94061690
     atom    3 type  1   force =    -4.77764855    3.87663978   -5.77661107
     atom    4 type  1   force =    -6.22318690    5.03500541   -4.94060687
     atom    5 type  2   force =    -5.06510567   -5.60891039   -0.00000595
     atom    6 type  3   force =     4.79695734    5.31197449    0.00000703
     atom    7 type  4   force =    -8.20576186   -5.72260185    0.00233996
     atom    8 type  4   force =    -4.42357812    3.20474545    2.53267964
     atom    9 type  4   force =     4.36592428    9.88685469    0.08608964
     atom   10 type  4   force =     8.74612906   -4.38716356    3.31127633
     atom   11 type  4   force =     3.63771432   -4.07497795   -2.53267764
     atom   12 type  4   force =     4.53373201   -7.60368305    3.84217016
     atom   13 type  4   force =    -5.25330776    8.25498523   -3.31127793
     atom   14 type  4   force =    -2.37678188    3.53026811    3.18557691
     atom   15 type  4   force =    -8.02506959    3.73750522   -3.84216907
     atom   16 type  4   force =    -4.85902610   -8.74485623   -0.00234204
     atom   17 type  4   force =     3.75354139   -2.00569986   -3.18557911
     atom   18 type  4   force =     9.39196140    5.34811195   -0.08608824
     The local contribution  to forces
     atom    1 type  1   force =    -4.25955142    4.39960072   -5.78516394
     atom    2 type  1   force =    -5.68575937    5.57049323   -4.92052423
     atom    3 type  1   force =     4.80941836   -3.79042055    5.78506235
     atom    4 type  1   force =     6.11958462   -5.09007955    4.92051642
     atom    5 type  2   force =     5.03396062    5.57425288    0.00013231
     atom    6 type  3   force =    -4.72939526   -5.23753675   -0.00004069
     atom    7 type  4   force =     7.59036699    5.83881904   -0.12174341
     atom    8 type  4   force =     3.92642035   -3.45858438   -2.45582107
     atom    9 type  4   force =    -4.39152832   -9.06317288   -0.40556582
     atom   10 type  4   force =    -8.19626289    4.04441764   -3.04160613
     atom   11 type  4   force =    -3.83983623    3.55456896    2.45577373
     atom   12 type  4   force =    -4.20626856    7.16175634   -3.62116752
     atom   13 type  4   force =     4.85637174   -7.74274637    3.04151548
     atom   14 type  4   force =     2.46898959   -3.12578870   -3.04001118
     atom   15 type  4   force =     7.55206829   -3.45661097    3.62119260
     atom   16 type  4   force =     5.03748971    8.14433757    0.12186505
     atom   17 type  4   force =    -3.36043249    2.13869013    3.04004062
     atom   18 type  4   force =    -8.56982145   -5.28993524    0.40564458
     The core correction contribution to forces
     atom    1 type  1   force =     0.01190950    0.00782684    0.00351134
     atom    2 type  1   force =    -0.00294365   -0.01380613    0.00265876
     atom    3 type  1   force =     0.00657514    0.01264248   -0.00351260
     atom    4 type  1   force =    -0.01343423   -0.00433112   -0.00265911
     atom    5 type  2   force =    -0.00094661   -0.00104854    0.00000057
     atom    6 type  3   force =     0.00009057    0.00010016   -0.00000003
     atom    7 type  4   force =    -0.00488680   -0.00002420    0.00043828
     atom    8 type  4   force =    -0.00443363   -0.00065718    0.00080050
     atom    9 type  4   force =     0.00206145    0.00735611   -0.00292594
     atom   10 type  4   force =     0.00485682   -0.00315849    0.00270387
     atom   11 type  4   force =    -0.00020360   -0.00447674   -0.00080083
     atom   12 type  4   force =     0.00299457   -0.00414912    0.00172729
     atom   13 type  4   force =    -0.00363569    0.00451089   -0.00270377
     atom   14 type  4   force =    -0.00179846    0.00314743    0.00152902
     atom   15 type  4   force =    -0.00443156    0.00255738   -0.00172738
     atom   16 type  4   force =     0.00047529   -0.00486428   -0.00043721
     atom   17 type  4   force =     0.00331380   -0.00146950   -0.00152890
     atom   18 type  4   force =     0.00710823    0.00279886    0.00292599
     The Hubbard contrib.    to forces
     atom    1 type  1   force =     0.00000000    0.00000000    0.00000000
     atom    2 type  1   force =     0.00000000    0.00000000    0.00000000
     atom    3 type  1   force =     0.00000000    0.00000000    0.00000000
     atom    4 type  1   force =     0.00000000    0.00000000    0.00000000
     atom    5 type  2   force =     0.00000000    0.00000000    0.00000000
     atom    6 type  3   force =     0.00000000    0.00000000    0.00000000
     atom    7 type  4   force =     0.00000000    0.00000000    0.00000000
     atom    8 type  4   force =     0.00000000    0.00000000    0.00000000
     atom    9 type  4   force =     0.00000000    0.00000000    0.00000000
     atom   10 type  4   force =     0.00000000    0.00000000    0.00000000
     atom   11 type  4   force =     0.00000000    0.00000000    0.00000000
     atom   12 type  4   force =     0.00000000    0.00000000    0.00000000
     atom   13 type  4   force =     0.00000000    0.00000000    0.00000000
     atom   14 type  4   force =     0.00000000    0.00000000    0.00000000
     atom   15 type  4   force =     0.00000000    0.00000000    0.00000000
     atom   16 type  4   force =     0.00000000    0.00000000    0.00000000
     atom   17 type  4   force =     0.00000000    0.00000000    0.00000000
     atom   18 type  4   force =     0.00000000    0.00000000    0.00000000
     The SCF correction term to forces
     atom    1 type  1   force =    -0.00007538   -0.00000705   -0.00002313
     atom    2 type  1   force =     0.00011814    0.00012655    0.00002046
     atom    3 type  1   force =     0.00029584   -0.00003015    0.00013015
     atom    4 type  1   force =     0.00002690    0.00000649   -0.00003271
     atom    5 type  2   force =    -0.00019834   -0.00004995   -0.00012722
     atom    6 type  3   force =    -0.00045670   -0.00011388    0.00004652
     atom    7 type  4   force =    -0.00014076   -0.00011464   -0.00031650
     atom    8 type  4   force =    -0.00008976    0.00015467    0.00002985
     atom    9 type  4   force =    -0.00033036    0.00003745    0.00009132
     atom   10 type  4   force =     0.00002488   -0.00000469    0.00003280
     atom   11 type  4   force =     0.00025762    0.00000181   -0.00000428
     atom   12 type  4   force =     0.00003610   -0.00005743    0.00000164
     atom   13 type  4   force =     0.00007610   -0.00001688    0.00006556
     atom   14 type  4   force =     0.00039130    0.00006467   -0.00002314
     atom   15 type  4   force =     0.00005567   -0.00001225   -0.00003066
     atom   16 type  4   force =    -0.00020926   -0.00005402    0.00027343
     atom   17 type  4   force =    -0.00007991    0.00024024    0.00000027
     atom   18 type  4   force =    -0.00006806   -0.00024099   -0.00017122

     Total force =     0.139819     Total SCF correction =     0.001110

     Computing stress (Cartesian axis) and pressure

     negative rho (up, down):  7.805E-03 0.000E+00
          total   stress  (Ry/bohr**3)                   (kbar)     P=     -527.35
  -0.00356925  -0.00004653  -0.00009649         -525.06       -6.84      -14.19
  -0.00004653  -0.00357880   0.00008710           -6.84     -526.46       12.81
  -0.00009649   0.00008710  -0.00360656          -14.19       12.81     -530.54

     kinetic stress (kbar)  25648.28     27.17     43.64
                               27.17  25653.83    -39.41
                               43.64    -39.41  25678.32

     local   stress (kbar) -20927.87   8283.40    487.52
                             8283.40 -19235.40   -440.23
                              487.52   -440.23 -21516.08

     nonloc. stress (kbar)   5051.79      3.83     -5.71
                                3.83   5052.54      5.14
                               -5.71      5.14   5130.50

     hartree stress (kbar)  20616.83  -3720.93   -201.08
                            -3720.93  19856.57    181.58
                             -201.08    181.58  21621.68

     exc-cor stress (kbar)  -4995.36     -0.43     -0.14
                               -0.43  -4995.45      0.13
                               -0.14      0.13  -5004.07

     corecor stress (kbar)  -1596.87     -0.22     -0.16
                               -0.22  -1596.91      0.15
                               -0.16      0.15  -1596.49

     ewald   stress (kbar) -24321.85  -4599.67   -338.26
                            -4599.67 -25261.63    305.46
                             -338.26    305.46 -24844.40

     hubbard stress (kbar)      0.00      0.00      0.00
                                0.00      0.00      0.00
                                0.00      0.00      0.00

     DFT-D   stress (kbar)      0.00      0.00      0.00
                                0.00      0.00      0.00
                                0.00      0.00      0.00

     XDM     stress (kbar)      0.00      0.00      0.00
                                0.00      0.00      0.00
                                0.00      0.00      0.00

     dft-nl  stress (kbar)      0.00      0.00      0.00
                                0.00      0.00      0.00
                                0.00      0.00      0.00

     TS-vdW  stress (kbar)      0.00      0.00      0.00
                                0.00      0.00      0.00
                                0.00      0.00      0.00

[...]

                                0.00      0.00      0.00

     Writing all to output data dir new_calculations/myprefix.save/

     General routines

     Parallel routines

     PAW routines

   This run was terminated on:  12:10:29  20May2023

   JOB DONE.