     Program PWSCF v.7.0 starts on 20May2023 at  3:47:34

     Reading input from espresso_5117.pwi
Warning: card &CELL ignored
Warning: card / ignored

     Current dimensions of program PWSCF are:
     Max number of different atomic species (ntypx) = 10
     Max number of k-points (npk) =  40000
     Max angular momentum in pseudopotentials (lmaxx) =  4

     gamma-point specific algorithms are used
     Message from routine setup:
     using ibrav=0 with symmetry is DISCOURAGED, use correct ibrav instead

     Subspace diagonalization in iterative solution of the eigenvalue problem:
     a serial algorithm will be used

     Using Slab Decomposition

     bravais-lattice index     =            0
     lattice parameter (alat)  =       8.2736  a.u.
     unit-cell volume          =     919.9478 (a.u.)^3
     number of atoms/cell      =            6
     number of atomic types    =            3
     number of electrons       =        94.00
     number of Kohn-Sham states=           56
     kinetic-energy cutoff     =      30.0000  Ry
     charge density cutoff     =     240.0000  Ry
     scf convergence threshold =      1.0E-06
     mixing beta               =       0.7000
     number of iterations used =            8  plain     mixing
     Exchange-correlation=  SLA  PW   PBX  PBC
                           (   1   4   3   4   0   0   0)

     celldm(1)=   8.273624  celldm(2)=   0.000000  celldm(3)=   0.000000
     celldm(4)=   0.000000  celldm(5)=   0.000000  celldm(6)=   0.000000

     crystal axes: (cart. coord. in units of alat)
               a(1) = (   1.000000   0.000000   0.000000 )
               a(2) = (  -0.500000   0.866025   0.000000 )
               a(3) = (   0.000000   0.000000   1.875622 )

     reciprocal axes: (cart. coord. in units 2 pi/alat)
               b(1) = (  1.000000  0.577351  0.000000 )
               b(2) = (  0.000000  1.154701  0.000000 )
               b(3) = (  0.000000  0.000000  0.533156 )

     PseudoPot. # 1 for Nd read from file:
     /home/pragov/projects/rrg-bengioy-ad/pragov/crystal_structure_design/SSSP/Nd.GGA-PBE-paw-v1.0.UPF
     MD5 check sum: 1d1e94942b6eb1cde76049b71bb7dcb0
     Pseudo is Projector augmented-wave + core cor, Zval = 14.0
     Generated using ATOMPAW code
     Shape of augmentation charge: BESSEL
     Using radial grid of 1105 points,  8 beta functions with:
                l(1) =   0
                l(2) =   0
                l(3) =   1
                l(4) =   1
                l(5) =   2
                l(6) =   2
                l(7) =   3
                l(8) =   3
     Q(r) pseudized with 0 coefficients

     PseudoPot. # 2 for Ni read from file:
     /home/pragov/projects/rrg-bengioy-ad/pragov/crystal_structure_design/SSSP/ni_pbe_v1.4.uspp.F.UPF
     MD5 check sum: 1ee80287db30b12d2bc1f57a5b5d6409
     Pseudo is Ultrasoft + core correction, Zval = 18.0
     Generated by new atomic code, or converted to UPF format
     Using radial grid of  865 points,  6 beta functions with:
                l(1) =   0
                l(2) =   0
                l(3) =   1
                l(4) =   1
                l(5) =   2
                l(6) =   2
     Q(r) pseudized with 10 coefficients,  rinner =    0.980   0.980   0.980
                                                       0.980   0.980

     PseudoPot. # 3 for Sb read from file:
     /home/pragov/projects/rrg-bengioy-ad/pragov/crystal_structure_design/SSSP/sb_pbe_v1.4.uspp.F.UPF
     MD5 check sum: 9bc50dfb53373b713f5709b9110fe27f
     Pseudo is Ultrasoft + core correction, Zval = 15.0
     Generated by new atomic code, or converted to UPF format
     Using radial grid of  891 points,  6 beta functions with:
                l(1) =   0
                l(2) =   0
                l(3) =   1
                l(4) =   1
                l(5) =   2
                l(6) =   2
     Q(r) pseudized with  8 coefficients,  rinner =    1.350   1.350   1.350
                                                       1.350   1.350

     atomic species   valence    mass     pseudopotential
        Nd            14.00   144.24200     Nd( 1.00)
        Ni            18.00    58.69340     Ni( 1.00)
        Sb            15.00   121.76000     Sb( 1.00)

     24 Sym. Ops., with inversion, found (12 have fractional translation)

                                    s                        frac. trans.

      isym =  1     identity

 cryst.   s( 1) = (     1          0          0      )
                  (     0          1          0      )
                  (     0          0          1      )

 cart.    s( 1) = (  1.0000000  0.0000000  0.0000000 )
                  (  0.0000000  1.0000000  0.0000000 )
                  (  0.0000000  0.0000000  1.0000000 )

      isym =  2     180 deg rotation - cart. axis [0,0,1]

 cryst.   s( 2) = (    -1          0          0      )    f =(  0.0000000 )
                  (     0         -1          0      )       (  0.0000000 )
                  (     0          0          1      )       ( -0.5000000 )

 cart.    s( 2) = ( -1.0000000 -0.0000000  0.0000000 )    f =(  0.0000000 )
                  (  0.0000000 -1.0000000  0.0000000 )       (  0.0000000 )
                  (  0.0000000  0.0000000  1.0000000 )       ( -0.9378110 )

[...]

      isym =  4     180 deg rotation - cart. axis [1,0,0]

[...]

      isym =  5      60 deg rotation - cryst. axis [0,0,1]

[...]

 cryst.   s( 8) = (    -1         -1          0      )
                  (     1          0          0      )
                  (     0          0          1      )

 cart.    s( 8) = ( -0.4999998  0.8660255  0.0000000 )
                  ( -0.8660253 -0.5000002  0.0000000 )
                  (  0.0000000  0.0000000  1.0000000 )

[...]

 cryst.   s( 9) = (     0         -1          0      )    f =(  0.0000000 )
                  (    -1          0          0      )       (  0.0000000 )
                  (     0          0         -1      )       (  0.5000000 )

 cart.    s( 9) = (  0.5000002 -0.8660253  0.0000000 )    f =(  0.0000000 )
                  ( -0.8660253 -0.5000002  0.0000000 )       (  0.0000000 )
                  (  0.0000000  0.0000000 -1.0000000 )       (  0.9378110 )

[...]

 cryst.   s(10) = (     1          1          0      )    f =(  0.0000000 )
                  (     0         -1          0      )       (  0.0000000 )
                  (     0          0         -1      )       (  0.5000000 )

 cart.    s(10) = (  0.4999998  0.8660258  0.0000000 )    f =(  0.0000000 )
                  (  0.8660253 -0.4999998  0.0000000 )       (  0.0000000 )
                  (  0.0000000  0.0000000 -1.0000000 )       (  0.9378110 )

[...]

 cryst.   s(11) = (    -1         -1          0      )
                  (     0          1          0      )
                  (     0          0         -1      )

 cart.    s(11) = ( -0.4999998 -0.8660258  0.0000000 )
                  ( -0.8660253  0.4999998  0.0000000 )
                  (  0.0000000  0.0000000 -1.0000000 )

      isym = 12     180 deg rotation - cryst. axis [1,1,0]

[...]

      isym = 13     inversion

[...]

      isym = 14     inv. 180 deg rotation - cart. axis [0,0,1]

[...]

      isym = 16     inv. 180 deg rotation - cart. axis [1,0,0]

[...]

      isym = 17     inv.  60 deg rotation - cryst. axis [0,0,1]

[...]

 cryst.   s(22) = (    -1         -1          0      )    f =(  0.0000000 )
                  (     0          1          0      )       (  0.0000000 )
                  (     0          0          1      )       ( -0.5000000 )

 cart.    s(22) = ( -0.4999998 -0.8660258  0.0000000 )    f =(  0.0000000 )
                  ( -0.8660253  0.4999998  0.0000000 )       (  0.0000000 )
                  (  0.0000000  0.0000000  1.0000000 )       ( -0.9378110 )

[...]

      isym = 24     inv. 180 deg rotation - cryst. axis [1,1,0]

 cryst.   s(24) = (     0         -1          0      )
                  (    -1          0          0      )
                  (     0          0          1      )

 cart.    s(24) = (  0.5000002 -0.8660253  0.0000000 )
                  ( -0.8660253 -0.5000002  0.0000000 )
                  (  0.0000000  0.0000000  1.0000000 )

   Cartesian axes

     site n.     atom                  positions (alat units)
         1           Nd  tau(   1) = (   0.0000000   0.0000000   0.0000000  )
         2           Nd  tau(   2) = (   0.0000000   0.0000000   0.9378110  )
         3           Ni  tau(   3) = (  -0.0000007   0.5773505   0.4689055  )
         4           Ni  tau(   4) = (   0.5000004   0.2886748   1.4067166  )
         5           Sb  tau(   5) = (  -0.0000007   0.5773505   1.4067166  )
         6           Sb  tau(   6) = (   0.5000004   0.2886748   0.4689055  )

   Crystallographic axes

     site n.     atom                  positions (cryst. coord.)
         1           Nd  tau(   1) = (  0.0000000  0.0000000  0.0000000  )
         2           Nd  tau(   2) = (  0.0000000  0.0000000  0.5000000  )
         3           Ni  tau(   3) = (  0.3333330  0.6666670  0.2500000  )
         4           Ni  tau(   4) = (  0.6666670  0.3333330  0.7500000  )
         5           Sb  tau(   5) = (  0.3333330  0.6666670  0.7500000  )
         6           Sb  tau(   6) = (  0.6666670  0.3333330  0.2500000  )

     number of k points=     1  Methfessel-Paxton smearing, width (Ry)=  0.0010
                       cart. coord. in units 2pi/alat
        k(    1) = (   0.0000000   0.0000000   0.0000000), wk =   2.0000000

                       cryst. coord.
        k(    1) = (   0.0000000   0.0000000   0.0000000), wk =   2.0000000

     Check: negative core charge=   -0.000005

     Initial potential from superposition of free atoms

     starting charge      87.9876, renormalised to      94.0000
     Starting wfcs are  108 randomized atomic wfcs
     Checking if some PAW data can be deallocated...

     Self-consistent Calculation

     iteration #  1     ecut=    30.00 Ry     beta= 0.70
     Davidson diagonalization with overlap

     ethr =  1.00E-02,  avg # of iterations =  5.0

     total energy              =   -2054.55677980 Ry
     estimated scf accuracy    <     102.16022930 Ry

[...]

     total energy              =   -2130.30968330 Ry
     estimated scf accuracy    <       0.00005900 Ry

     iteration # 68     ecut=    30.00 Ry     beta= 0.70
     Davidson diagonalization with overlap

     ethr =  7.98E-09,  avg # of iterations =  1.0

     End of self-consistent calculation

          k = 0.0000 0.0000 0.0000 (  1295 PWs)   bands (ev):

   -90.4173 -90.4165 -50.9886 -50.9886 -50.9880 -50.9880 -50.3484 -50.3407
   -23.2334 -23.2195 -15.7330 -15.7330 -15.7303 -15.7303 -15.6464 -15.6464
   -15.6382 -15.6381 -15.6183 -15.6122  -4.9824  -4.6100  -4.4205  -4.4205
    -4.3862  -4.3862   2.5118   3.5274   9.1730   9.3610   9.3610   9.7601
     9.7601  11.0533  11.1215  11.1215  11.3448  11.3449  11.7394  12.3800
    12.7569  12.7569  13.2008  13.2009  13.5619  13.8033  13.8107  13.8187
    13.8616  13.8616  13.9647  13.9647  14.1055  14.1056  14.2740  14.3625

     occupation numbers
     1.0000   1.0000   1.0000   1.0000   1.0000   1.0000   1.0000   1.0000
     1.0000   1.0000   1.0000   1.0000   1.0000   1.0000   1.0000   1.0000
     1.0000   1.0000   1.0000   1.0000   1.0000   1.0000   1.0000   1.0000
     1.0000   1.0000   1.0000   1.0000   1.0000   1.0000   1.0000   1.0000
     1.0000   1.0000   1.0000   1.0000   1.0000   1.0000   1.0000   1.0000
     1.0000   1.0000   1.0000   1.0000   1.0000   0.9992   0.7386   0.2623
    -0.0000  -0.0000  -0.0000  -0.0000  -0.0000  -0.0000  -0.0000  -0.0000

     the Fermi energy is    13.8147 ev

!    total energy              =   -2130.30968293 Ry
     estimated scf accuracy    <       0.00000053 Ry
     smearing contrib. (-TS)   =      -0.00037036 Ry
     internal energy E=F+TS    =   -2130.30931256 Ry

     The total energy is F=E-TS. E is the sum of the following terms:
     one-electron contribution =    -742.16458430 Ry
     hartree contribution      =     433.39295417 Ry
     xc contribution           =    -187.14842283 Ry
     ewald contribution        =    -774.25028656 Ry
     one-center paw contrib.   =    -860.13897306 Ry
      -> PAW hartree energy AE =     163.65429858 Ry
      -> PAW hartree energy PS =    -162.92575890 Ry
      -> PAW xc energy AE      =    -886.06004567 Ry
      -> PAW xc energy PS      =      25.19253294 Ry
      -> total E_H with PAW    =     434.12149385 Ry
      -> total E_XC with PAW   =   -1048.01593556 Ry

     convergence has been achieved in  68 iterations

     Forces acting on atoms (cartesian axes, Ry/au):

     atom    1 type  1   force =     0.00000000    0.00000000    0.00000000
     atom    2 type  1   force =     0.00000000    0.00000000    0.00000000
     atom    3 type  2   force =     0.00000000    0.00000000    0.00000000
     atom    4 type  2   force =     0.00000000    0.00000000   -0.00000000
     atom    5 type  3   force =     0.00000000   -0.00000000    0.00000000
     atom    6 type  3   force =    -0.00000000    0.00000000    0.00000000
     The non-local contrib.  to forces
     atom    1 type  1   force =     0.00000000    0.00000000    0.00000000
     atom    2 type  1   force =    -0.00000000    0.00000000   -0.00000000
     atom    3 type  2   force =     0.00000000    0.00000000    0.00000000
     atom    4 type  2   force =    -0.00000000   -0.00000000    0.00000000
     atom    5 type  3   force =     0.00000000    0.00000000    0.00000000
     atom    6 type  3   force =     0.00000000    0.00000000    0.00000000
     The ionic contribution  to forces
     atom    1 type  1   force =     0.00000000    0.00000000   -0.00000000
     atom    2 type  1   force =     0.00000000    0.00000000    0.00000000
     atom    3 type  2   force =     0.00011583   -0.00006688    0.00000000
     atom    4 type  2   force =    -0.00011583    0.00006688   -0.00000000
     atom    5 type  3   force =     0.00011352   -0.00006554   -0.00000000
     atom    6 type  3   force =    -0.00011352    0.00006554    0.00000000
     The local contribution  to forces
     atom    1 type  1   force =     0.00003028    0.00003611   -0.00153197
     atom    2 type  1   force =    -0.00000613    0.00001261    0.00030554
     atom    3 type  2   force =    -0.00010283    0.00004648    0.00136604
     atom    4 type  2   force =     0.00011878   -0.00003393   -0.00115811
     atom    5 type  3   force =    -0.00012712    0.00007282   -0.00103742
     atom    6 type  3   force =     0.00009689   -0.00006263    0.00095364
     The core correction contribution to forces
     atom    1 type  1   force =     0.00000000    0.00000001   -0.00000017
     atom    2 type  1   force =    -0.00000000    0.00000000   -0.00000001
     atom    3 type  2   force =     0.00000016   -0.00000025    0.00000166
     atom    4 type  2   force =    -0.00000008    0.00000033    0.00000089
     atom    5 type  3   force =    -0.00000070    0.00000042   -0.00000056
     atom    6 type  3   force =    -0.00000043    0.00000001   -0.00000178
     The Hubbard contrib.    to forces
     atom    1 type  1   force =     0.00000000    0.00000000    0.00000000
     atom    2 type  1   force =     0.00000000    0.00000000    0.00000000
     atom    3 type  2   force =     0.00000000    0.00000000    0.00000000
     atom    4 type  2   force =     0.00000000    0.00000000    0.00000000
     atom    5 type  3   force =     0.00000000    0.00000000    0.00000000
     atom    6 type  3   force =     0.00000000    0.00000000    0.00000000
     The SCF correction term to forces
     atom    1 type  1   force =    -0.00002151   -0.00002010    0.00092547
     atom    2 type  1   force =     0.00001056   -0.00001005   -0.00027911
     atom    3 type  2   force =     0.00000497    0.00002190   -0.00121162
     atom    4 type  2   force =    -0.00002353   -0.00003788    0.00101914
     atom    5 type  3   force =     0.00002774   -0.00000735    0.00096225
     atom    6 type  3   force =     0.00002070    0.00000670   -0.00088892

     Total force =     0.000000     Total SCF correction =     0.002272

     Computing stress (Cartesian axis) and pressure

          total   stress  (Ry/bohr**3)                   (kbar)     P=     -433.86
  -0.00221446  -0.00000000   0.00000000         -325.76       -0.00        0.00
  -0.00000000  -0.00221446   0.00000000           -0.00     -325.76        0.00
   0.00000000   0.00000000  -0.00441908            0.00        0.00     -650.07

     kinetic stress (kbar)  22153.99      0.01      0.00
                                0.01  22154.00      0.00
                                0.00      0.00  22326.61

     local   stress (kbar) -17274.74     -0.14      0.01
                               -0.14 -17274.97     -0.03
                                0.01     -0.03  18628.63

     nonloc. stress (kbar)   8446.27      0.00      0.00
                                0.00   8446.27     -0.00
                                0.00     -0.00   8649.76

     hartree stress (kbar)  28088.69      0.06     -0.00
                                0.06  28088.77      0.01
                               -0.00      0.01  13124.63

     exc-cor stress (kbar)    247.76      0.00      0.00
                                0.00    247.76     -0.00
                                0.00     -0.00    244.37

     corecor stress (kbar)  -7930.52     -0.00      0.00
                               -0.00  -7930.52     -0.00
                                0.00     -0.00  -7931.15

     ewald   stress (kbar) -34057.18      0.08     -0.00
                                0.08 -34057.09      0.00
                               -0.00      0.00 -55692.92

     hubbard stress (kbar)      0.00      0.00      0.00
                                0.00      0.00      0.00
                                0.00      0.00      0.00

     DFT-D   stress (kbar)      0.00      0.00      0.00
                                0.00      0.00      0.00
                                0.00      0.00      0.00

     XDM     stress (kbar)      0.00      0.00      0.00
                                0.00      0.00      0.00
                                0.00      0.00      0.00

     dft-nl  stress (kbar)      0.00      0.00      0.00
                                0.00      0.00      0.00
                                0.00      0.00      0.00

     TS-vdW  stress (kbar)      0.00      0.00      0.00
                                0.00      0.00      0.00
                                0.00      0.00      0.00

[...]

                                0.00      0.00      0.00

     Writing all to output data dir new_calculations/myprefix.save/

     General routines

     Parallel routines

     PAW routines

   This run was terminated on:   3:49:22  20May2023

   JOB DONE.