     Program PWSCF v.7.0 starts on 20May2023 at  9: 2:14

     Reading input from espresso_17199.pwi
Warning: card &CELL ignored
Warning: card / ignored

     Current dimensions of program PWSCF are:
     Max number of different atomic species (ntypx) = 10
     Max number of k-points (npk) =  40000
     Max angular momentum in pseudopotentials (lmaxx) =  4
     file C.pbe-n-kjpaw_psl.1.0.0.UPF: wavefunction(s)  2S 2P renormalized

     gamma-point specific algorithms are used
     Message from routine setup:
     using ibrav=0 with symmetry is DISCOURAGED, use correct ibrav instead

     Subspace diagonalization in iterative solution of the eigenvalue problem:
     a serial algorithm will be used

     Using Slab Decomposition

     bravais-lattice index     =            0
     lattice parameter (alat)  =       7.3649  a.u.
     unit-cell volume          =     684.3894 (a.u.)^3
     number of atoms/cell      =            6
     number of atomic types    =            2
     number of electrons       =        36.00
     number of Kohn-Sham states=           22
     kinetic-energy cutoff     =      30.0000  Ry
     charge density cutoff     =     240.0000  Ry
     scf convergence threshold =      1.0E-06
     mixing beta               =       0.7000
     number of iterations used =            8  plain     mixing
     Exchange-correlation= SLA  PW   PBX  PBC
                           (   1   4   3   4   0   0   0)

     celldm(1)=   7.364911  celldm(2)=   0.000000  celldm(3)=   0.000000
     celldm(4)=   0.000000  celldm(5)=   0.000000  celldm(6)=   0.000000

     crystal axes: (cart. coord. in units of alat)
               a(1) = (   1.000000   0.000000   0.000000 )
               a(2) = (   0.000000   1.130830   0.000000 )
               a(3) = (   0.000000   0.000000   1.514968 )

     reciprocal axes: (cart. coord. in units 2 pi/alat)
               b(1) = (  1.000000  0.000000  0.000000 )
               b(2) = (  0.000000  0.884306  0.000000 )
               b(3) = (  0.000000  0.000000  0.660080 )

     PseudoPot. # 1 for Ca read from file:
     /home/pragov/projects/rrg-bengioy-ad/pragov/crystal_structure_design/SSSP/Ca_pbe_v1.uspp.F.UPF
     MD5 check sum: 403a4c14b9e4d4dfdc3024c9a3812218
     Pseudo is Ultrasoft + core correction, Zval = 10.0
     Generated by new atomic code, or converted to UPF format
     Using radial grid of  845 points,  6 beta functions with:
                l(1) =   0
                l(2) =   0
                l(3) =   1
                l(4) =   1
                l(5) =   2
                l(6) =   2
     Q(r) pseudized with  8 coefficients,  rinner =    1.500   1.500   1.500
                                                       1.500   1.500

     PseudoPot. # 2 for C  read from file:
     /home/pragov/projects/rrg-bengioy-ad/pragov/crystal_structure_design/SSSP/C.pbe-n-kjpaw_psl.1.0.0.UPF
     MD5 check sum: 5d2aebdfa2cae82b50a7e79e9516da0f
     Pseudo is Projector augmented-wave + core cor, Zval =  4.0
     Generated using "atomic" code by A. Dal Corso  v.5.1
     Shape of augmentation charge: PSQ
     Using radial grid of 1073 points,  4 beta functions with:
                l(1) =   0
                l(2) =   0
                l(3) =   1
                l(4) =   1
     Q(r) pseudized with 0 coefficients

     atomic species   valence    mass     pseudopotential
        Ca            10.00    40.07800     Ca( 1.00)
        C              4.00    12.01100     C ( 1.00)

      8 Sym. Ops., with inversion, found ( 4 have fractional translation)

                                    s                        frac. trans.

      isym =  1     identity

 cryst.   s( 1) = (     1          0          0      )
                  (     0          1          0      )
                  (     0          0          1      )

 cart.    s( 1) = (  1.0000000  0.0000000  0.0000000 )
                  (  0.0000000  1.0000000  0.0000000 )
                  (  0.0000000  0.0000000  1.0000000 )

      isym =  2     180 deg rotation - cart. axis [0,0,1]

 cryst.   s( 2) = (    -1          0          0      )    f =(  0.5000000 )
                  (     0         -1          0      )       ( -0.5000000 )
                  (     0          0          1      )       (  0.5000000 )

 cart.    s( 2) = ( -1.0000000  0.0000000  0.0000000 )    f =(  0.5000000 )
                  (  0.0000000 -1.0000000  0.0000000 )       ( -0.5654151 )
                  (  0.0000000  0.0000000  1.0000000 )       (  0.7574839 )

[...]

      isym =  4     180 deg rotation - cart. axis [1,0,0]

[...]

      isym =  5     inversion

[...]

      isym =  6     inv. 180 deg rotation - cart. axis [0,0,1]

[...]

 cryst.   s( 7) = (     1          0          0      )    f =( -0.5000000 )
                  (     0         -1          0      )       ( -0.5000000 )
                  (     0          0          1      )       (  0.5000000 )

 cart.    s( 7) = (  1.0000000  0.0000000  0.0000000 )    f =( -0.5000000 )
                  (  0.0000000 -1.0000000  0.0000000 )       ( -0.5654151 )
                  (  0.0000000  0.0000000  1.0000000 )       (  0.7574839 )

      isym =  8     inv. 180 deg rotation - cart. axis [1,0,0]

 cryst.   s( 8) = (    -1          0          0      )
                  (     0          1          0      )
                  (     0          0          1      )

 cart.    s( 8) = ( -1.0000000  0.0000000  0.0000000 )
                  (  0.0000000  1.0000000  0.0000000 )
                  (  0.0000000  0.0000000  1.0000000 )

   Cartesian axes

     site n.     atom                  positions (alat units)
         1           Ca  tau(   1) = (   0.0000000   0.0000000   0.0000000  )
         2           Ca  tau(   2) = (   0.5000000   0.5654151   0.7574839  )
         3           C   tau(   3) = (   0.0000000   1.0026585   0.8551508  )
         4           C   tau(   4) = (   0.5000000   0.6935868   0.0976669  )
         5           C   tau(   5) = (   0.5000000   0.4372434   1.4173008  )
         6           C   tau(   6) = (   0.0000000   0.1281717   0.6598169  )

   Crystallographic axes

     site n.     atom                  positions (cryst. coord.)
         1           Ca  tau(   1) = (  0.0000000  0.0000000  0.0000000  )
         2           Ca  tau(   2) = (  0.5000000  0.5000000  0.5000000  )
         3           C   tau(   3) = (  0.0000000  0.8866570  0.5644680  )
         4           C   tau(   4) = (  0.5000000  0.6133430  0.0644680  )
         5           C   tau(   5) = (  0.5000000  0.3866570  0.9355320  )
         6           C   tau(   6) = (  0.0000000  0.1133430  0.4355320  )

     number of k points=     1  Methfessel-Paxton smearing, width (Ry)=  0.0010
                       cart. coord. in units 2pi/alat
        k(    1) = (   0.0000000   0.0000000   0.0000000), wk =   2.0000000

                       cryst. coord.
        k(    1) = (   0.0000000   0.0000000   0.0000000), wk =   2.0000000

     Check: negative core charge=   -0.000021

     Initial potential from superposition of free atoms

     starting charge      35.9889, renormalised to      36.0000
     Starting wfcs are   36 randomized atomic wfcs
     Checking if some PAW data can be deallocated...

     Self-consistent Calculation

     iteration #  1     ecut=    30.00 Ry     beta= 0.70
     Davidson diagonalization with overlap

     ethr =  1.00E-02,  avg # of iterations =  2.0

     total energy              =    -222.90364158 Ry
     estimated scf accuracy    <       1.27084268 Ry

[...]

     total energy              =    -223.31099745 Ry
     estimated scf accuracy    <       0.00000229 Ry

     iteration #  9     ecut=    30.00 Ry     beta= 0.70
     Davidson diagonalization with overlap

     ethr =  6.36E-09,  avg # of iterations =  2.0

     End of self-consistent calculation

          k = 0.0000 0.0000 0.0000 (   959 PWs)   bands (ev):

   -35.1626 -35.1540 -16.2195 -16.2172 -16.1440 -16.1028 -16.0866 -16.0602
    -7.4175  -7.0954   0.9568   1.6218   2.5013   3.4131   3.5242   3.6236
     3.9282   4.2310   6.8883   7.4804   8.0432   8.1690

     occupation numbers
     1.0000   1.0000   1.0000   1.0000   1.0000   1.0000   1.0000   1.0000
     1.0000   1.0000   1.0000   1.0000   1.0000   1.0000   1.0000   1.0000
     1.0000   1.0000  -0.0000  -0.0000  -0.0000  -0.0000

     the Fermi energy is     5.5798 ev

!    total energy              =    -223.31099772 Ry
     estimated scf accuracy    <       0.00000004 Ry
     smearing contrib. (-TS)   =       0.00000000 Ry
     internal energy E=F+TS    =    -223.31099772 Ry

     The total energy is F=E-TS. E is the sum of the following terms:
     one-electron contribution =     -65.79299524 Ry
     hartree contribution      =      44.44170029 Ry
     xc contribution           =     -42.06514266 Ry
     ewald contribution        =    -135.16619745 Ry
     one-center paw contrib.   =     -24.72836266 Ry
      -> PAW hartree energy AE =      34.37467336 Ry
      -> PAW hartree energy PS =     -34.33553160 Ry
      -> PAW xc energy AE      =     -41.91379538 Ry
      -> PAW xc energy PS      =      17.14629096 Ry
      -> total E_H with PAW    =      44.48084205 Ry
      -> total E_XC with PAW   =     -66.83264708 Ry

     convergence has been achieved in   9 iterations

     Forces acting on atoms (cartesian axes, Ry/au):

     atom    1 type  1   force =     0.00000000   -0.00000000    0.00000000
     atom    2 type  1   force =     0.00000000    0.00000000    0.00000000
     atom    3 type  2   force =     0.00000000    0.04448080   -0.08552662
     atom    4 type  2   force =     0.00000000   -0.04448080   -0.08552662
     atom    5 type  2   force =     0.00000000    0.04448080    0.08552662
     atom    6 type  2   force =     0.00000000   -0.04448080    0.08552662
     The non-local contrib.  to forces
     atom    1 type  1   force =     0.00000000    0.00000000    0.00000000
     atom    2 type  1   force =     0.00000000   -0.00000000    0.00000000
     atom    3 type  2   force =     0.00000000    0.17401610    0.02230318
     atom    4 type  2   force =     0.00000000   -0.17401610    0.02230318
     atom    5 type  2   force =     0.00000000    0.17401610   -0.02230318
     atom    6 type  2   force =     0.00000000   -0.17401610   -0.02230318
     The ionic contribution  to forces
     atom    1 type  1   force =     0.00000000    0.00000000   -0.00000000
     atom    2 type  1   force =    -0.00000000    0.00000000   -0.00000000
     atom    3 type  2   force =     0.00000000   -2.93337322    2.39736393
     atom    4 type  2   force =    -0.00000000    2.93337322    2.39736393
     atom    5 type  2   force =    -0.00000000   -2.93337322   -2.39736393
     atom    6 type  2   force =     0.00000000    2.93337322   -2.39736393
     The local contribution  to forces
     atom    1 type  1   force =     0.00000385    0.00008913   -0.00052932
     atom    2 type  1   force =    -0.00003616    0.00009423    0.00042097
     atom    3 type  2   force =     0.00001075    2.79761022   -2.49722419
     atom    4 type  2   force =    -0.00000366   -2.79778433   -2.49760990
     atom    5 type  2   force =    -0.00000142    2.79763176    2.49720006
     atom    6 type  2   force =     0.00000480   -2.79770189    2.49766394
     The core correction contribution to forces
     atom    1 type  1   force =    -0.00000054    0.00000239   -0.00000660
     atom    2 type  1   force =    -0.00000145    0.00000276    0.00000109
     atom    3 type  2   force =     0.00000005    0.00619251   -0.00778562
     atom    4 type  2   force =     0.00000005   -0.00619224   -0.00778700
     atom    5 type  2   force =    -0.00000004    0.00619315    0.00778624
     atom    6 type  2   force =    -0.00000010   -0.00619226    0.00778817
     The Hubbard contrib.    to forces
     atom    1 type  1   force =     0.00000000    0.00000000    0.00000000
     atom    2 type  1   force =     0.00000000    0.00000000    0.00000000
     atom    3 type  2   force =     0.00000000    0.00000000    0.00000000
     atom    4 type  2   force =     0.00000000    0.00000000    0.00000000
     atom    5 type  2   force =     0.00000000    0.00000000    0.00000000
     atom    6 type  2   force =     0.00000000    0.00000000    0.00000000
     The SCF correction term to forces
     atom    1 type  1   force =    -0.00000700   -0.00010133    0.00043840
     atom    2 type  1   force =     0.00002579   -0.00006198   -0.00032526
     atom    3 type  2   force =    -0.00000687   -0.00000264   -0.00011435
     atom    4 type  2   force =     0.00000227    0.00009805    0.00014624
     atom    5 type  2   force =     0.00000120    0.00001172    0.00014947
     atom    6 type  2   force =    -0.00000699    0.00005771   -0.00018776

     Total force =     0.192804     Total SCF correction =     0.000647

     Computing stress (Cartesian axis) and pressure

          total   stress  (Ry/bohr**3)                   (kbar)     P=       72.20
   0.00067371   0.00000000   0.00000000           99.11        0.00        0.00
   0.00000000   0.00056856   0.00000000            0.00       83.64        0.00
   0.00000000   0.00000000   0.00023016            0.00        0.00       33.86

     kinetic stress (kbar)  10231.69      0.00      0.00
                                0.00   9896.71      0.00
                                0.00      0.00   9808.53

     local   stress (kbar)  -2605.53     -0.00      0.00
                               -0.00  -5289.23      0.00
                                0.00      0.00  -3881.97

     nonloc. stress (kbar)   3071.75      0.00      0.00
                                0.00   3145.71      0.00
                                0.00      0.00   3152.76

     hartree stress (kbar)   2970.44      0.00     -0.00
                                0.00   3435.79     -0.00
                               -0.00     -0.00   3146.22

     exc-cor stress (kbar)   -924.37      0.00     -0.00
                                0.00   -903.16      0.00
                               -0.00      0.00   -914.45

     corecor stress (kbar)  -1683.31     -0.00      0.00
                               -0.00  -1699.65     -0.00
                                0.00     -0.00  -1688.25

     ewald   stress (kbar) -10961.57     -0.00     -0.00
                               -0.00  -8502.53      0.00
                               -0.00      0.00  -9588.99

     hubbard stress (kbar)      0.00      0.00      0.00
                                0.00      0.00      0.00
                                0.00      0.00      0.00

     DFT-D   stress (kbar)      0.00      0.00      0.00
                                0.00      0.00      0.00
                                0.00      0.00      0.00

     XDM     stress (kbar)      0.00      0.00      0.00
                                0.00      0.00      0.00
                                0.00      0.00      0.00

     dft-nl  stress (kbar)      0.00      0.00      0.00
                                0.00      0.00      0.00
                                0.00      0.00      0.00

     TS-vdW  stress (kbar)      0.00      0.00      0.00
                                0.00      0.00      0.00
                                0.00      0.00      0.00

[...]

                                0.00      0.00      0.00

     Writing all to output data dir new_calculations/myprefix.save/

     General routines

     Parallel routines

     PAW routines

   This run was terminated on:   9: 2:21  20May2023

   JOB DONE.