     Program PWSCF v.7.0 starts on 20May2023 at 23: 3:24

     Reading input from espresso_17662.pwi
Warning: card &CELL ignored
Warning: card / ignored

     Current dimensions of program PWSCF are:
     Max number of different atomic species (ntypx) = 10
     Max number of k-points (npk) =  40000
     Max angular momentum in pseudopotentials (lmaxx) =  4
     file O.pbe-n-kjpaw_psl.0.1.UPF: wavefunction(s)  2P renormalized

     gamma-point specific algorithms are used
     Message from routine setup:
     using ibrav=0 with symmetry is DISCOURAGED, use correct ibrav instead

     Subspace diagonalization in iterative solution of the eigenvalue problem:
     a serial algorithm will be used

     Using Slab Decomposition

     bravais-lattice index     =            0
     lattice parameter (alat)  =       7.9766  a.u.
     unit-cell volume          =    1976.3789 (a.u.)^3
     number of atoms/cell      =           20
     number of atomic types    =            4
     number of electrons       =        96.00
     number of Kohn-Sham states=           58
     kinetic-energy cutoff     =      30.0000  Ry
     charge density cutoff     =     240.0000  Ry
     scf convergence threshold =      1.0E-06
     mixing beta               =       0.7000
     number of iterations used =            8  plain     mixing
     Exchange-correlation=  SLA  PW   PBX  PBC
                           (   1   4   3   4   0   0   0)

     celldm(1)=   7.976610  celldm(2)=   0.000000  celldm(3)=   0.000000
     celldm(4)=   0.000000  celldm(5)=   0.000000  celldm(6)=   0.000000

     crystal axes: (cart. coord. in units of alat)
               a(1) = (   1.000000   0.000000   0.000000 )
               a(2) = (   0.000000   1.939528   0.000000 )
               a(3) = (   0.000000   0.000000   2.007794 )

     reciprocal axes: (cart. coord. in units 2 pi/alat)
               b(1) = (  1.000000  0.000000  0.000000 )
               b(2) = (  0.000000  0.515589  0.000000 )
               b(3) = (  0.000000  0.000000  0.498059 )

     PseudoPot. # 1 for Rb read from file:
     /home/pragov/projects/rrg-bengioy-ad/pragov/crystal_structure_design/SSSP/Rb_ONCV_PBE-1.0.oncvpsp.upf
     MD5 check sum: 55a5172d6bfbce6759a58e35d43f6aa9
     Pseudo is Norm-conserving, Zval =  9.0
     Generated using ONCVPSP code by D. R. Hamann
     Using radial grid of 2308 points,  6 beta functions with:
                l(1) =   0
                l(2) =   0
                l(3) =   1
                l(4) =   1
                l(5) =   2
                l(6) =   2

     PseudoPot. # 2 for H  read from file:
     /home/pragov/projects/rrg-bengioy-ad/pragov/crystal_structure_design/SSSP/H.pbe-rrkjus_psl.1.0.0.UPF
     MD5 check sum: f52b6d4d1c606e5624b1dc7b2218f220
     Pseudo is Ultrasoft, Zval =  1.0
     Generated using "atomic" code by A. Dal Corso  v.5.1
     Using radial grid of  929 points,  2 beta functions with:
                l(1) =   0
                l(2) =   0
     Q(r) pseudized with 0 coefficients

     PseudoPot. # 3 for O  read from file:
     /home/pragov/projects/rrg-bengioy-ad/pragov/crystal_structure_design/SSSP/O.pbe-n-kjpaw_psl.0.1.UPF
     MD5 check sum: 0234752ac141de4415c5fc33072bef88
     Pseudo is Projector augmented-wave + core cor, Zval =  6.0
     Generated using "atomic" code by A. Dal Corso  v.5.0.99 svn rev. 10869
     Shape of augmentation charge: BESSEL
     Using radial grid of 1095 points,  4 beta functions with:
                l(1) =   0
                l(2) =   0
                l(3) =   1
                l(4) =   1
     Q(r) pseudized with 0 coefficients

     PseudoPot. # 4 for F  read from file:
     /home/pragov/projects/rrg-bengioy-ad/pragov/crystal_structure_design/SSSP/f_pbe_v1.4.uspp.F.UPF
     MD5 check sum: 4c38b6a325caf53ec0e86aed9459de46
     Pseudo is Ultrasoft, Zval =  7.0
     Generated by new atomic code, or converted to UPF format
     Using radial grid of  799 points,  4 beta functions with:
                l(1) =   0
                l(2) =   0
                l(3) =   1
                l(4) =   1
     Q(r) pseudized with  8 coefficients,  rinner =    0.950   0.950   0.950

     atomic species   valence    mass     pseudopotential
        Rb             9.00    85.46780     Rb( 1.00)
        H              1.00     1.00800     H ( 1.00)
        O              6.00    15.99900     O ( 1.00)
        F              7.00    18.99840     F ( 1.00)

      8 Sym. Ops., with inversion, found ( 6 have fractional translation)

                                    s                        frac. trans.

      isym =  1     identity

 cryst.   s( 1) = (     1          0          0      )
                  (     0          1          0      )
                  (     0          0          1      )

 cart.    s( 1) = (  1.0000000  0.0000000  0.0000000 )
                  (  0.0000000  1.0000000  0.0000000 )
                  (  0.0000000  0.0000000  1.0000000 )

      isym =  2     180 deg rotation - cart. axis [0,0,1]

 cryst.   s( 2) = (    -1          0          0      )    f =(  0.0000000 )
                  (     0         -1          0      )       (  0.5000000 )
                  (     0          0          1      )       ( -0.5000000 )

 cart.    s( 2) = ( -1.0000000  0.0000000  0.0000000 )    f =(  0.0000000 )
                  (  0.0000000 -1.0000000  0.0000000 )       (  0.9697641 )
                  (  0.0000000  0.0000000  1.0000000 )       ( -1.0038969 )

[...]

      isym =  4     180 deg rotation - cart. axis [1,0,0]

[...]

      isym =  5     inversion

 cryst.   s( 5) = (    -1          0          0      )
                  (     0         -1          0      )
                  (     0          0         -1      )

 cart.    s( 5) = ( -1.0000000  0.0000000  0.0000000 )
                  (  0.0000000 -1.0000000  0.0000000 )
                  (  0.0000000  0.0000000 -1.0000000 )

      isym =  6     inv. 180 deg rotation - cart. axis [0,0,1]

[...]

      isym =  8     inv. 180 deg rotation - cart. axis [1,0,0]

 cryst.   s( 8) = (    -1          0          0      )    f =( -0.5000000 )
                  (     0          1          0      )       (  0.0000000 )
                  (     0          0          1      )       (  0.0000000 )

 cart.    s( 8) = ( -1.0000000  0.0000000  0.0000000 )    f =( -0.5000000 )
                  (  0.0000000  1.0000000  0.0000000 )       (  0.0000000 )
                  (  0.0000000  0.0000000  1.0000000 )       (  0.0000000 )

   Cartesian axes

     site n.     atom                  positions (alat units)
         1           Rb  tau(   1) = (   0.7500000   0.5037498   0.0847490  )
         2           Rb  tau(   2) = (   0.2500000   1.4357784   1.9230448  )
         3           Rb  tau(   3) = (   0.7500000   1.4735139   0.9191479  )
         4           Rb  tau(   4) = (   0.2500000   0.4660143   1.0886459  )
         5           H   tau(   5) = (   0.5610990   1.8779966   1.4864601  )
         6           H   tau(   6) = (   0.0610990   0.0615315   0.5213337  )
         7           H   tau(   7) = (   0.9389010   0.9082326   1.5252306  )
         8           H   tau(   8) = (   0.4389010   1.0312956   0.4825632  )
         9           H   tau(   9) = (   0.4389010   0.0615315   0.5213337  )
        10           H   tau(  10) = (   0.9389010   1.8779966   1.4864601  )
        11           H   tau(  11) = (   0.0610990   1.0312956   0.4825632  )
        12           H   tau(  12) = (   0.5610990   0.9082326   1.5252306  )
        13           O   tau(  13) = (   0.7500000   0.9790370   1.4006751  )
        14           O   tau(  14) = (   0.2500000   0.9604912   0.6071187  )
        15           O   tau(  15) = (   0.7500000   0.0092729   1.6110156  )
        16           O   tau(  16) = (   0.2500000   1.9302553   0.3967782  )
        17           F   tau(  17) = (   0.7500000   0.1903240   0.7082693  )
        18           F   tau(  18) = (   0.2500000   1.7492042   1.2995245  )
        19           F   tau(  19) = (   0.7500000   1.1600880   0.2956276  )
        20           F   tau(  20) = (   0.2500000   0.7794401   1.7121663  )

   Crystallographic axes

     site n.     atom                  positions (cryst. coord.)
         1           Rb  tau(   1) = (  0.7500000  0.2597280  0.0422100  )
         2           Rb  tau(   2) = (  0.2500000  0.7402720  0.9577900  )
         3           Rb  tau(   3) = (  0.7500000  0.7597280  0.4577900  )
         4           Rb  tau(   4) = (  0.2500000  0.2402720  0.5422100  )
         5           H   tau(   5) = (  0.5610990  0.9682750  0.7403450  )
         6           H   tau(   6) = (  0.0610990  0.0317250  0.2596550  )
         7           H   tau(   7) = (  0.9389010  0.4682750  0.7596550  )
         8           H   tau(   8) = (  0.4389010  0.5317250  0.2403450  )
         9           H   tau(   9) = (  0.4389010  0.0317250  0.2596550  )
        10           H   tau(  10) = (  0.9389010  0.9682750  0.7403450  )
        11           H   tau(  11) = (  0.0610990  0.5317250  0.2403450  )
        12           H   tau(  12) = (  0.5610990  0.4682750  0.7596550  )
        13           O   tau(  13) = (  0.7500000  0.5047810  0.6976190  )
        14           O   tau(  14) = (  0.2500000  0.4952190  0.3023810  )
        15           O   tau(  15) = (  0.7500000  0.0047810  0.8023810  )
        16           O   tau(  16) = (  0.2500000  0.9952190  0.1976190  )
        17           F   tau(  17) = (  0.7500000  0.0981290  0.3527600  )
        18           F   tau(  18) = (  0.2500000  0.9018710  0.6472400  )
        19           F   tau(  19) = (  0.7500000  0.5981290  0.1472400  )
        20           F   tau(  20) = (  0.2500000  0.4018710  0.8527600  )

     number of k points=     1  Methfessel-Paxton smearing, width (Ry)=  0.0010
                       cart. coord. in units 2pi/alat
        k(    1) = (   0.0000000   0.0000000   0.0000000), wk =   2.0000000

                       cryst. coord.
        k(    1) = (   0.0000000   0.0000000   0.0000000), wk =   2.0000000

     Check: negative core charge=   -0.000007

     Initial potential from superposition of free atoms

     starting charge      95.9009, renormalised to      96.0000
     Starting wfcs are   60 randomized atomic wfcs
     Checking if some PAW data can be deallocated...

     Self-consistent Calculation

     iteration #  1     ecut=    30.00 Ry     beta= 0.70
     Davidson diagonalization with overlap

     ethr =  1.00E-02,  avg # of iterations =  6.0

     total energy              =    -566.20150739 Ry
     estimated scf accuracy    <       2.05547340 Ry

[...]

     total energy              =    -567.08022689 Ry
     estimated scf accuracy    <       0.00000158 Ry

     iteration #  9     ecut=    30.00 Ry     beta= 0.70
     Davidson diagonalization with overlap

     ethr =  1.65E-09,  avg # of iterations =  2.0

     End of self-consistent calculation

          k = 0.0000 0.0000 0.0000 (  2733 PWs)   bands (ev):

   -23.0515 -23.0270 -23.0236 -23.0129 -19.3485 -19.3334 -19.3124 -19.3103
   -17.2501 -17.2491 -17.2484 -17.2430  -7.2912  -7.2873  -7.1917  -7.1488
    -7.1362  -7.1291  -7.1219  -7.1131  -7.0953  -7.0628  -7.0624  -7.0284
    -5.4111  -5.4000  -5.3551  -5.2796  -2.0835  -2.0224  -1.9945  -1.9917
    -0.9786  -0.9215  -0.6712  -0.6086  -0.5936  -0.5855  -0.4823  -0.4617
    -0.4368  -0.4269  -0.4060  -0.3857   0.2489   0.2829   0.2831   0.3438
     5.6973   8.0625   8.2044   8.2107   8.6076   8.6956   8.7444   9.6267
     9.9392   9.9775

     occupation numbers
     1.0000   1.0000   1.0000   1.0000   1.0000   1.0000   1.0000   1.0000
     1.0000   1.0000   1.0000   1.0000   1.0000   1.0000   1.0000   1.0000
     1.0000   1.0000   1.0000   1.0000   1.0000   1.0000   1.0000   1.0000
     1.0000   1.0000   1.0000   1.0000   1.0000   1.0000   1.0000   1.0000
     1.0000   1.0000   1.0000   1.0000   1.0000   1.0000   1.0000   1.0000
     1.0000   1.0000   1.0000   1.0000   1.0000   1.0000   1.0000   1.0000
    -0.0000  -0.0000  -0.0000  -0.0000  -0.0000  -0.0000  -0.0000  -0.0000
    -0.0000  -0.0000

     the Fermi energy is     1.7883 ev

!    total energy              =    -567.08022701 Ry
     estimated scf accuracy    <       0.00000017 Ry
     smearing contrib. (-TS)   =       0.00000000 Ry
     internal energy E=F+TS    =    -567.08022701 Ry

     The total energy is F=E-TS. E is the sum of the following terms:
     one-electron contribution =    -267.60962485 Ry
     hartree contribution      =     173.94740575 Ry
     xc contribution           =    -103.33371373 Ry
     ewald contribution        =    -332.03891606 Ry
     one-center paw contrib.   =     -38.04537812 Ry
      -> PAW hartree energy AE =     126.82791641 Ry
      -> PAW hartree energy PS =    -126.37527896 Ry
      -> PAW xc energy AE      =     -69.92817220 Ry
      -> PAW xc energy PS      =      31.43015663 Ry
      -> total E_H with PAW    =     174.40004321 Ry
      -> total E_XC with PAW   =    -141.83172931 Ry

     convergence has been achieved in   9 iterations

     Forces acting on atoms (cartesian axes, Ry/au):

     atom    1 type  1   force =     0.00000000    0.00465807   -0.00833412
     atom    2 type  1   force =    -0.00000000   -0.00465807    0.00833412
     atom    3 type  1   force =    -0.00000000    0.00465807    0.00833412
     atom    4 type  1   force =     0.00000000   -0.00465807   -0.00833412
     atom    5 type  2   force =    -0.01234700   -0.00420395   -0.00629558
     atom    6 type  2   force =    -0.01234700    0.00420395    0.00629558
     atom    7 type  2   force =     0.01234700   -0.00420395    0.00629558
     atom    8 type  2   force =     0.01234700    0.00420395   -0.00629558
     atom    9 type  2   force =     0.01234700    0.00420395    0.00629558
     atom   10 type  2   force =     0.01234700   -0.00420395   -0.00629558
     atom   11 type  2   force =    -0.01234700    0.00420395   -0.00629558
     atom   12 type  2   force =    -0.01234700   -0.00420395    0.00629558
     atom   13 type  3   force =     0.00000000    0.00085621   -0.00675197
     atom   14 type  3   force =     0.00000000   -0.00085621    0.00675197
     atom   15 type  3   force =     0.00000000    0.00085621    0.00675197
     atom   16 type  3   force =    -0.00000000   -0.00085621   -0.00675197
     atom   17 type  4   force =    -0.00000000    0.00067943    0.00100467
     atom   18 type  4   force =     0.00000000   -0.00067943   -0.00100467
     atom   19 type  4   force =     0.00000000    0.00067943   -0.00100467
     atom   20 type  4   force =     0.00000000   -0.00067943    0.00100467
     The non-local contrib.  to forces
     atom    1 type  1   force =    -0.00000000   -0.00355306    0.01448279
     atom    2 type  1   force =     0.00000000    0.00355306   -0.01448279
     atom    3 type  1   force =     0.00000000   -0.00355306   -0.01448279
     atom    4 type  1   force =     0.00000000    0.00355306    0.01448279
     atom    5 type  2   force =     0.07964072    0.02802893    0.04961176
     atom    6 type  2   force =     0.07964072   -0.02802893   -0.04961176
     atom    7 type  2   force =    -0.07964072    0.02802893   -0.04961176
     atom    8 type  2   force =    -0.07964072   -0.02802893    0.04961176
     atom    9 type  2   force =    -0.07964072   -0.02802893   -0.04961176
     atom   10 type  2   force =    -0.07964072    0.02802893    0.04961176
     atom   11 type  2   force =     0.07964072   -0.02802893    0.04961176
     atom   12 type  2   force =     0.07964072    0.02802893   -0.04961176
     atom   13 type  3   force =     0.00000000   -0.96687385    1.67558120
     atom   14 type  3   force =    -0.00000000    0.96687385   -1.67558120
     atom   15 type  3   force =     0.00000000   -0.96687385   -1.67558120
     atom   16 type  3   force =    -0.00000000    0.96687385    1.67558120
     atom   17 type  4   force =     0.00000000   -0.19853701   -0.27718037
     atom   18 type  4   force =     0.00000000    0.19853701    0.27718037
     atom   19 type  4   force =     0.00000000   -0.19853701    0.27718037
     atom   20 type  4   force =     0.00000000    0.19853701   -0.27718037
     The ionic contribution  to forces
     atom    1 type  1   force =     0.00000000   -2.00173136    0.14694592
     atom    2 type  1   force =     0.00000000    2.00173136   -0.14694592
     atom    3 type  1   force =     0.00000000   -2.00173136   -0.14694592
     atom    4 type  1   force =     0.00000000    2.00173136    0.14694592
     atom    5 type  2   force =    -1.71367055   -0.47441994   -0.87356063
     atom    6 type  2   force =    -1.71367055    0.47441994    0.87356063
     atom    7 type  2   force =     1.71367055   -0.47441994    0.87356063
     atom    8 type  2   force =     1.71367055    0.47441994   -0.87356063
     atom    9 type  2   force =     1.71367055    0.47441994    0.87356063
     atom   10 type  2   force =     1.71367055   -0.47441994   -0.87356063
     atom   11 type  2   force =    -1.71367055    0.47441994   -0.87356063
     atom   12 type  2   force =    -1.71367055   -0.47441994    0.87356063
     atom   13 type  3   force =     0.00000000    2.47180087   -4.86291609
     atom   14 type  3   force =    -0.00000000   -2.47180087    4.86291609
     atom   15 type  3   force =     0.00000000    2.47180087    4.86291609
     atom   16 type  3   force =    -0.00000000   -2.47180087   -4.86291608
     atom   17 type  4   force =     0.00000000    1.75286385    0.86972583
     atom   18 type  4   force =    -0.00000000   -1.75286385   -0.86972583
     atom   19 type  4   force =     0.00000000    1.75286385   -0.86972583
     atom   20 type  4   force =     0.00000000   -1.75286385    0.86972583
     The local contribution  to forces
     atom    1 type  1   force =    -0.00000404    2.01009870   -0.16962221
     atom    2 type  1   force =    -0.00003249   -2.01009186    0.16954859
     atom    3 type  1   force =    -0.00000767    2.01008703    0.16967675
     atom    4 type  1   force =    -0.00001947   -2.01007169   -0.16964686
     atom    5 type  2   force =     1.62163681    0.44215890    0.81759692
     atom    6 type  2   force =     1.62163328   -0.44216133   -0.81759552
     atom    7 type  2   force =    -1.62166158    0.44217696   -0.81762706
     atom    8 type  2   force =    -1.62166362   -0.44217664    0.81762883
     atom    9 type  2   force =    -1.62163319   -0.44216140   -0.81759539
     atom   10 type  2   force =    -1.62163658    0.44215870    0.81759706
     atom   11 type  2   force =     1.62166360   -0.44217644    0.81762842
     atom   12 type  2   force =     1.62166174    0.44217680   -0.81762706
     atom   13 type  3   force =     0.00000238   -1.51356114    3.19707035
     atom   14 type  3   force =     0.00000249    1.51356490   -3.19706408
     atom   15 type  3   force =    -0.00000115   -1.51359450   -3.19712348
     atom   16 type  3   force =    -0.00000129    1.51358556    3.19713551
     atom   17 type  4   force =     0.00000172   -1.55371291   -0.59153946
     atom   18 type  4   force =     0.00000011    1.55370757    0.59155369
     atom   19 type  4   force =     0.00000264   -1.55371537    0.59156498
     atom   20 type  4   force =    -0.00000157    1.55371665   -0.59156990
     The core correction contribution to forces
     atom    1 type  1   force =     0.00000000    0.00000000    0.00000000
     atom    2 type  1   force =     0.00000000    0.00000000    0.00000000
     atom    3 type  1   force =     0.00000000    0.00000000    0.00000000
     atom    4 type  1   force =     0.00000000    0.00000000    0.00000000
     atom    5 type  2   force =     0.00000000    0.00000000    0.00000000
     atom    6 type  2   force =     0.00000000    0.00000000    0.00000000
     atom    7 type  2   force =     0.00000000    0.00000000    0.00000000
     atom    8 type  2   force =     0.00000000    0.00000000    0.00000000
     atom    9 type  2   force =     0.00000000    0.00000000    0.00000000
     atom   10 type  2   force =     0.00000000    0.00000000    0.00000000
     atom   11 type  2   force =     0.00000000    0.00000000    0.00000000
     atom   12 type  2   force =     0.00000000    0.00000000    0.00000000
     atom   13 type  3   force =     0.00000001    0.00936904   -0.01623540
     atom   14 type  3   force =     0.00000001   -0.00936911    0.01623539
     atom   15 type  3   force =    -0.00000003    0.00936939    0.01623604
     atom   16 type  3   force =    -0.00000000   -0.00936913   -0.01623563
     atom   17 type  4   force =     0.00000000    0.00000000    0.00000000
     atom   18 type  4   force =     0.00000000    0.00000000    0.00000000
     atom   19 type  4   force =     0.00000000    0.00000000    0.00000000
     atom   20 type  4   force =     0.00000000    0.00000000    0.00000000
     The Hubbard contrib.    to forces
     atom    1 type  1   force =     0.00000000    0.00000000    0.00000000
     atom    2 type  1   force =     0.00000000    0.00000000    0.00000000
     atom    3 type  1   force =     0.00000000    0.00000000    0.00000000
     atom    4 type  1   force =     0.00000000    0.00000000    0.00000000
     atom    5 type  2   force =     0.00000000    0.00000000    0.00000000
     atom    6 type  2   force =     0.00000000    0.00000000    0.00000000
     atom    7 type  2   force =     0.00000000    0.00000000    0.00000000
     atom    8 type  2   force =     0.00000000    0.00000000    0.00000000
     atom    9 type  2   force =     0.00000000    0.00000000    0.00000000
     atom   10 type  2   force =     0.00000000    0.00000000    0.00000000
     atom   11 type  2   force =     0.00000000    0.00000000    0.00000000
     atom   12 type  2   force =     0.00000000    0.00000000    0.00000000
     atom   13 type  3   force =     0.00000000    0.00000000    0.00000000
     atom   14 type  3   force =     0.00000000    0.00000000    0.00000000
     atom   15 type  3   force =     0.00000000    0.00000000    0.00000000
     atom   16 type  3   force =     0.00000000    0.00000000    0.00000000
     atom   17 type  4   force =     0.00000000    0.00000000    0.00000000
     atom   18 type  4   force =     0.00000000    0.00000000    0.00000000
     atom   19 type  4   force =     0.00000000    0.00000000    0.00000000
     atom   20 type  4   force =     0.00000000    0.00000000    0.00000000
     The SCF correction term to forces
     atom    1 type  1   force =     0.00000344   -0.00016149   -0.00014297
     atom    2 type  1   force =     0.00003257    0.00014528    0.00022594
     atom    3 type  1   force =     0.00000953   -0.00014325    0.00007383
     atom    4 type  1   force =     0.00001902    0.00012930   -0.00011418
     atom    5 type  2   force =     0.00005069    0.00002971    0.00005819
     atom    6 type  2   force =     0.00004507   -0.00002395   -0.00005503
     atom    7 type  2   force =    -0.00002030    0.00000983   -0.00002623
     atom    8 type  2   force =    -0.00002005   -0.00001100    0.00002544
     atom    9 type  2   force =    -0.00004508   -0.00002390   -0.00005514
     atom   10 type  2   force =    -0.00005090    0.00002994    0.00005798
     atom   11 type  2   force =     0.00001999   -0.00001113    0.00002581
     atom   12 type  2   force =     0.00002016    0.00000985   -0.00002627
     atom   13 type  3   force =    -0.00000225    0.00011216   -0.00023599
     atom   14 type  3   force =    -0.00000313   -0.00011962    0.00022590
     atom   15 type  3   force =    -0.00000019    0.00017047    0.00033416
     atom   16 type  3   force =     0.00000137   -0.00014395   -0.00032325
     atom   17 type  4   force =    -0.00000223    0.00005909   -0.00002147
     atom   18 type  4   force =    -0.00000112   -0.00004569    0.00000184
     atom   19 type  4   force =    -0.00000404    0.00007748   -0.00003945
     atom   20 type  4   force =     0.00000267   -0.00008063    0.00004873

     Total force =     0.047264     Total SCF correction =     0.000792

     Computing stress (Cartesian axis) and pressure

          total   stress  (Ry/bohr**3)                   (kbar)     P=     -129.69
  -0.00068861   0.00000000   0.00000000         -101.30        0.00        0.00
   0.00000000  -0.00096807   0.00000000            0.00     -142.41        0.00
   0.00000000   0.00000000  -0.00098816            0.00        0.00     -145.36

     kinetic stress (kbar)   9898.03      0.00      0.00
                                0.00  10477.96      0.00
                                0.00      0.00  10251.26

     local   stress (kbar)  -7754.77     -0.00      0.00
                               -0.00  -2069.49      0.01
                                0.00      0.01  -4423.05

     nonloc. stress (kbar)    736.09      0.00      0.00
                                0.00    764.46      0.00
                                0.00      0.00    750.03

     hartree stress (kbar)   5475.12      0.00     -0.00
                                0.00   3273.66     -0.01
                               -0.00     -0.01   4198.41

     exc-cor stress (kbar)  -2283.38      0.00     -0.00
                                0.00  -2298.55     -0.00
                               -0.00     -0.00  -2293.69

     corecor stress (kbar)   -125.12      0.00     -0.00
                                0.00   -126.17     -0.00
                               -0.00     -0.00   -125.70

     ewald   stress (kbar)  -6047.26     -0.00     -0.00
                               -0.00 -10164.29      0.00
                               -0.00      0.00  -8502.64

     hubbard stress (kbar)      0.00      0.00      0.00
                                0.00      0.00      0.00
                                0.00      0.00      0.00

     DFT-D   stress (kbar)      0.00      0.00      0.00
                                0.00      0.00      0.00
                                0.00      0.00      0.00

     XDM     stress (kbar)      0.00      0.00      0.00
                                0.00      0.00      0.00
                                0.00      0.00      0.00

     dft-nl  stress (kbar)      0.00      0.00      0.00
                                0.00      0.00      0.00
                                0.00      0.00      0.00

     TS-vdW  stress (kbar)      0.00      0.00      0.00
                                0.00      0.00      0.00
                                0.00      0.00      0.00

[...]

                                0.00      0.00      0.00

     Writing all to output data dir new_calculations/myprefix.save/

     General routines

     Parallel routines

     PAW routines

   This run was terminated on:  23: 3:43  20May2023

   JOB DONE.